 VARIABLES = X,Y,DU1,DU2,U1,U2,S11,S22,S33,S12,S13,S23,E11,E22,E12,E33,E13,E23,SMISES
 ZONE, T="0.1000D+01" F=FEPOINT, I=    9 J=    4
   0.0000000000E+00   0.0000000000E+00   0.0000000000E+00   0.0000000000E+00   0.0000000000E+00   0.0000000000E+00   0.6657798479E+01  -0.4045136767E-12   0.3322241441E+01  -0.3030406475E-15   0.0000000000E+00   0.0000000000E+00   0.5000000000E-01  -0.4980039920E-01  -0.4542579305E-17   0.0000000000E+00   0.0000000000E+00   0.0000000000E+00   0.5765826460E+01
   0.2100000000E+01   0.0000000000E+00   0.1000000000E+00   0.0000000000E+00   0.0000000000E+00   0.0000000000E+00   0.6657798479E+01  -0.3752304714E-12   0.3322241441E+01   0.5224672259E-15   0.0000000000E+00   0.0000000000E+00   0.5000000000E-01  -0.4980039920E-01   0.7831783716E-17   0.0000000000E+00   0.0000000000E+00   0.0000000000E+00   0.5765826460E+01
   0.2100000000E+01   0.1900399202E+01   0.1000000000E+00  -0.9960079840E-01   0.0000000000E+00   0.0000000000E+00   0.6657798479E+01  -0.7079654308E-12   0.3322241441E+01   0.2137561904E-14   0.0000000000E+00   0.0000000000E+00   0.5000000000E-01  -0.4980039920E-01   0.3204205294E-16   0.0000000000E+00   0.0000000000E+00   0.0000000000E+00   0.5765826460E+01
   0.0000000000E+00   0.1900399202E+01   0.0000000000E+00  -0.9960079840E-01   0.0000000000E+00   0.0000000000E+00   0.6657798479E+01  -0.1666865200E-12   0.3322241441E+01   0.1344207628E-13   0.0000000000E+00   0.0000000000E+00   0.5000000000E-01  -0.4980039920E-01   0.2014967234E-15   0.0000000000E+00   0.0000000000E+00   0.0000000000E+00   0.5765826460E+01
   0.1050000000E+01   0.0000000000E+00   0.5000000000E-01   0.0000000000E+00   0.0000000000E+00   0.0000000000E+00   0.6657798479E+01   0.4530630875E-12   0.3322241441E+01   0.4662026192E-13   0.0000000000E+00   0.0000000000E+00   0.5000000000E-01  -0.4980039920E-01   0.6988377263E-15   0.0000000000E+00   0.0000000000E+00   0.0000000000E+00   0.5765826460E+01
   0.2100000000E+01   0.9501996008E+00   0.1000000000E+00  -0.4980039920E-01   0.0000000000E+00   0.0000000000E+00   0.6657798479E+01  -0.7217659463E-12   0.3322241441E+01  -0.4470524602E-13   0.0000000000E+00   0.0000000000E+00   0.5000000000E-01  -0.4980039920E-01  -0.6701316378E-15   0.0000000000E+00   0.0000000000E+00   0.0000000000E+00   0.5765826460E+01
   0.1050000000E+01   0.1900399202E+01   0.5000000000E-01  -0.9960079840E-01   0.0000000000E+00   0.0000000000E+00   0.6657798479E+01   0.1536484385E-12   0.3322241441E+01   0.5409030321E-13   0.0000000000E+00   0.0000000000E+00   0.5000000000E-01  -0.4980039920E-01   0.8108136451E-15   0.0000000000E+00   0.0000000000E+00   0.0000000000E+00   0.5765826460E+01
   0.0000000000E+00   0.9501996008E+00   0.0000000000E+00  -0.4980039920E-01   0.0000000000E+00   0.0000000000E+00   0.6657798479E+01  -0.2138073460E-12   0.3322241441E+01  -0.3902801464E-13   0.0000000000E+00   0.0000000000E+00   0.5000000000E-01  -0.4980039920E-01  -0.5850299394E-15   0.0000000000E+00   0.0000000000E+00   0.0000000000E+00   0.5765826460E+01
   0.1050000000E+01   0.9501996008E+00   0.5000000000E-01  -0.4980039920E-01   0.0000000000E+00   0.0000000000E+00   0.6657798479E+01  -0.2138073460E-12   0.3322241441E+01  -0.3902801464E-13   0.0000000000E+00   0.0000000000E+00   0.5000000000E-01  -0.4980039920E-01  -0.5850299394E-15   0.0000000000E+00   0.0000000000E+00   0.0000000000E+00   0.5765826460E+01
           1           5           9           8
           5           2           6           9
           9           6           3           7
           8           9           7           4
 VARIABLES = X,Y,DU1,DU2,U1,U2,S11,S22,S33,S12,S13,S23,E11,E22,E12,E33,E13,E23,SMISES
 ZONE, T="0.2000D+01" F=FEPOINT, I=    9 J=    4
   0.0000000000E+00   0.0000000000E+00   0.0000000000E+00   0.0000000000E+00   0.0000000000E+00   0.0000000000E+00   0.1331559696E+02  -0.6484367835E-12   0.6644482882E+01  -0.3443978242E-15   0.0000000000E+00   0.0000000000E+00   0.1000000000E+00  -0.9960079840E-01  -0.5162523384E-17   0.0000000000E+00   0.0000000000E+00   0.0000000000E+00   0.1153165292E+02
   0.2200000000E+01   0.0000000000E+00   0.1000000000E+00   0.0000000000E+00   0.1000000000E+00   0.0000000000E+00   0.1331559696E+02  -0.1550757427E-12   0.6644482882E+01  -0.1083693239E-14   0.0000000000E+00   0.0000000000E+00   0.1000000000E+00  -0.9960079840E-01  -0.1624456165E-16   0.0000000000E+00   0.0000000000E+00   0.0000000000E+00   0.1153165292E+02
   0.2200000000E+01   0.1800798403E+01   0.1000000000E+00  -0.9960079840E-01   0.1000000000E+00  -0.9960079840E-01   0.1331559696E+02   0.1085702919E-11   0.6644482882E+01  -0.1588130557E-13   0.0000000000E+00   0.0000000000E+00   0.1000000000E+00  -0.9960079840E-01  -0.2380607705E-15   0.0000000000E+00   0.0000000000E+00   0.0000000000E+00   0.1153165292E+02
   0.0000000000E+00   0.1800798403E+01   0.0000000000E+00  -0.9960079840E-01   0.0000000000E+00  -0.9960079840E-01   0.1331559696E+02   0.4963075866E-12   0.6644482882E+01  -0.1518429588E-13   0.0000000000E+00   0.0000000000E+00   0.1000000000E+00  -0.9960079840E-01  -0.2276125952E-15   0.0000000000E+00   0.0000000000E+00   0.0000000000E+00   0.1153165292E+02
   0.1100000000E+01   0.0000000000E+00   0.5000000000E-01   0.0000000000E+00   0.5000000000E-01   0.0000000000E+00   0.1331559696E+02   0.3828144110E-12   0.6644482882E+01   0.2100429027E-13   0.0000000000E+00   0.0000000000E+00   0.1000000000E+00  -0.9960079840E-01   0.3148543111E-15   0.0000000000E+00   0.0000000000E+00   0.0000000000E+00   0.1153165292E+02
   0.2200000000E+01   0.9003992016E+00   0.1000000000E+00  -0.4980039920E-01   0.1000000000E+00  -0.4980039920E-01   0.1331559696E+02  -0.3716433023E-12   0.6644482882E+01  -0.2781973991E-13   0.0000000000E+00   0.0000000000E+00   0.1000000000E+00  -0.9960079840E-01  -0.4170179013E-15   0.0000000000E+00   0.0000000000E+00   0.0000000000E+00   0.1153165292E+02
   0.1100000000E+01   0.1800798403E+01   0.5000000000E-01  -0.9960079840E-01   0.5000000000E-01  -0.9960079840E-01   0.1331559696E+02   0.8339976194E-13   0.6644482882E+01   0.4271397788E-14   0.0000000000E+00   0.0000000000E+00   0.1000000000E+00  -0.9960079840E-01   0.6402825284E-16   0.0000000000E+00   0.0000000000E+00   0.0000000000E+00   0.1153165292E+02
   0.0000000000E+00   0.9003992016E+00   0.0000000000E+00  -0.4980039920E-01   0.0000000000E+00  -0.4980039920E-01   0.1331559696E+02   0.8013026093E-13   0.6644482882E+01  -0.2871614487E-13   0.0000000000E+00   0.0000000000E+00   0.1000000000E+00  -0.9960079840E-01  -0.4304550116E-15   0.0000000000E+00   0.0000000000E+00   0.0000000000E+00   0.1153165292E+02
   0.1100000000E+01   0.9003992016E+00   0.5000000000E-01  -0.4980039920E-01   0.5000000000E-01  -0.4980039920E-01   0.1331559696E+02   0.8013026093E-13   0.6644482882E+01  -0.2871614487E-13   0.0000000000E+00   0.0000000000E+00   0.1000000000E+00  -0.9960079840E-01  -0.4304550116E-15   0.0000000000E+00   0.0000000000E+00   0.0000000000E+00   0.1153165292E+02
           1           5           9           8
           5           2           6           9
           9           6           3           7
           8           9           7           4
 VARIABLES = X,Y,DU1,DU2,U1,U2,S11,S22,S33,S12,S13,S23,E11,E22,E12,E33,E13,E23,SMISES
 ZONE, T="0.3000D+01" F=FEPOINT, I=    9 J=    4
   0.0000000000E+00   0.0000000000E+00   0.0000000000E+00   0.0000000000E+00   0.0000000000E+00   0.0000000000E+00   0.1997339544E+02  -0.1125171389E-11   0.9966724323E+01  -0.4468972686E-15   0.0000000000E+00   0.0000000000E+00   0.1500000000E+00  -0.1494011976E+00  -0.6698990057E-17   0.0000000000E+00   0.0000000000E+00   0.0000000000E+00   0.1729747938E+02
   0.2300000000E+01   0.0000000000E+00   0.1000000000E+00   0.0000000000E+00   0.2000000000E+00   0.0000000000E+00   0.1997339544E+02  -0.1009760925E-11   0.9966724323E+01  -0.1592588018E-14   0.0000000000E+00   0.0000000000E+00   0.1500000000E+00  -0.1494011976E+00  -0.2387289438E-16   0.0000000000E+00   0.0000000000E+00   0.0000000000E+00   0.1729747938E+02
   0.2300000000E+01   0.1701197605E+01   0.1000000000E+00  -0.9960079840E-01   0.2000000000E+00  -0.1992015968E+00   0.1997339544E+02   0.1974656480E-11   0.9966724323E+01  -0.9434679756E-14   0.0000000000E+00   0.0000000000E+00   0.1500000000E+00  -0.1494011976E+00  -0.1414258495E-15   0.0000000000E+00   0.0000000000E+00   0.0000000000E+00   0.1729747938E+02
   0.0000000000E+00   0.1701197605E+01   0.0000000000E+00  -0.9960079840E-01   0.0000000000E+00  -0.1992015968E+00   0.1997339544E+02   0.1283410341E-11   0.9966724323E+01  -0.1066692523E-13   0.0000000000E+00   0.0000000000E+00   0.1500000000E+00  -0.1494011976E+00  -0.1598972092E-15   0.0000000000E+00   0.0000000000E+00   0.0000000000E+00   0.1729747938E+02
   0.1150000000E+01   0.0000000000E+00   0.5000000000E-01   0.0000000000E+00   0.1000000000E+00   0.0000000000E+00   0.1997339544E+02   0.7191732476E-12   0.9966724323E+01  -0.1677057255E-14   0.0000000000E+00   0.0000000000E+00   0.1500000000E+00  -0.1494011976E+00  -0.2513908825E-16   0.0000000000E+00   0.0000000000E+00   0.0000000000E+00   0.1729747938E+02
   0.2300000000E+01   0.8505988024E+00   0.1000000000E+00  -0.4980039920E-01   0.2000000000E+00  -0.9960079840E-01   0.1997339544E+02   0.1607466389E-12   0.9966724323E+01  -0.1910897051E-14   0.0000000000E+00   0.0000000000E+00   0.1500000000E+00  -0.1494011976E+00  -0.2864434679E-16   0.0000000000E+00   0.0000000000E+00   0.0000000000E+00   0.1729747938E+02
   0.1150000000E+01   0.1701197605E+01   0.5000000000E-01  -0.9960079840E-01   0.1000000000E+00  -0.1992015968E+00   0.1997339544E+02  -0.1065274996E-11   0.9966724323E+01  -0.1333032166E-13   0.0000000000E+00   0.0000000000E+00   0.1500000000E+00  -0.1494011976E+00  -0.1998215217E-15   0.0000000000E+00   0.0000000000E+00   0.0000000000E+00   0.1729747938E+02
   0.0000000000E+00   0.8505988024E+00   0.0000000000E+00  -0.4980039920E-01   0.0000000000E+00  -0.9960079840E-01   0.1997339544E+02   0.2662369125E-12   0.9966724323E+01  -0.4002508611E-14   0.0000000000E+00   0.0000000000E+00   0.1500000000E+00  -0.1494011976E+00  -0.5999760408E-16   0.0000000000E+00   0.0000000000E+00   0.0000000000E+00   0.1729747938E+02
   0.1150000000E+01   0.8505988024E+00   0.5000000000E-01  -0.4980039920E-01   0.1000000000E+00  -0.9960079840E-01   0.1997339544E+02   0.2662369125E-12   0.9966724323E+01  -0.4002508611E-14   0.0000000000E+00   0.0000000000E+00   0.1500000000E+00  -0.1494011976E+00  -0.5999760408E-16   0.0000000000E+00   0.0000000000E+00   0.0000000000E+00   0.1729747938E+02
           1           5           9           8
           5           2           6           9
           9           6           3           7
           8           9           7           4
 VARIABLES = X,Y,DU1,DU2,U1,U2,S11,S22,S33,S12,S13,S23,E11,E22,E12,E33,E13,E23,SMISES
 ZONE, T="0.4000D+01" F=FEPOINT, I=    9 J=    4
   0.0000000000E+00   0.0000000000E+00   0.0000000000E+00   0.0000000000E+00   0.0000000000E+00   0.0000000000E+00   0.2663119392E+02   0.9633911825E-13   0.1328896576E+02   0.5285984792E-15   0.0000000000E+00   0.0000000000E+00   0.2000000000E+00  -0.1992015968E+00   0.7923691203E-17   0.0000000000E+00   0.0000000000E+00   0.0000000000E+00   0.2306330584E+02
   0.2400000000E+01   0.0000000000E+00   0.1000000000E+00   0.0000000000E+00   0.3000000000E+00   0.0000000000E+00   0.2663119392E+02  -0.6367976583E-12   0.1328896576E+02  -0.6110929354E-14   0.0000000000E+00   0.0000000000E+00   0.2000000000E+00  -0.1992015968E+00  -0.9160283101E-16   0.0000000000E+00   0.0000000000E+00   0.0000000000E+00   0.2306330584E+02
   0.2400000000E+01   0.1601596806E+01   0.1000000000E+00  -0.9960079840E-01   0.3000000000E+00  -0.2988023952E+00   0.2663119392E+02  -0.2872097572E-12   0.1328896576E+02   0.1567134649E-15   0.0000000000E+00   0.0000000000E+00   0.2000000000E+00  -0.1992015968E+00   0.2349134838E-17   0.0000000000E+00   0.0000000000E+00   0.0000000000E+00   0.2306330584E+02
   0.0000000000E+00   0.1601596806E+01   0.0000000000E+00  -0.9960079840E-01   0.0000000000E+00  -0.2988023952E+00   0.2663119392E+02   0.2541287941E-11   0.1328896576E+02  -0.3510785979E-14   0.0000000000E+00   0.0000000000E+00   0.2000000000E+00  -0.1992015968E+00  -0.5262668183E-16   0.0000000000E+00   0.0000000000E+00   0.0000000000E+00   0.2306330584E+02
   0.1200000000E+01   0.0000000000E+00   0.5000000000E-01   0.0000000000E+00   0.1500000000E+00   0.0000000000E+00   0.2663119392E+02   0.6267481454E-12   0.1328896576E+02   0.3165789685E-13   0.0000000000E+00   0.0000000000E+00   0.2000000000E+00  -0.1992015968E+00   0.4745518737E-15   0.0000000000E+00   0.0000000000E+00   0.0000000000E+00   0.2306330584E+02
   0.2400000000E+01   0.8007984032E+00   0.1000000000E+00  -0.4980039920E-01   0.3000000000E+00  -0.1494011976E+00   0.2663119392E+02   0.5430402002E-12   0.1328896576E+02  -0.3042829389E-13   0.0000000000E+00   0.0000000000E+00   0.2000000000E+00  -0.1992015968E+00  -0.4561201254E-15   0.0000000000E+00   0.0000000000E+00   0.0000000000E+00   0.2306330584E+02
   0.1200000000E+01   0.1601596806E+01   0.5000000000E-01  -0.9960079840E-01   0.1500000000E+00  -0.2988023952E+00   0.2663119392E+02   0.2791884738E-13   0.1328896576E+02   0.3106029354E-13   0.0000000000E+00   0.0000000000E+00   0.2000000000E+00  -0.1992015968E+00   0.4655938002E-15   0.0000000000E+00   0.0000000000E+00   0.0000000000E+00   0.2306330584E+02
   0.0000000000E+00   0.8007984032E+00   0.0000000000E+00  -0.4980039920E-01   0.0000000000E+00  -0.1494011976E+00   0.2663119392E+02  -0.6311124109E-12   0.1328896576E+02  -0.3491031866E-13   0.0000000000E+00   0.0000000000E+00   0.2000000000E+00  -0.1992015968E+00  -0.5233056767E-15   0.0000000000E+00   0.0000000000E+00   0.0000000000E+00   0.2306330584E+02
   0.1200000000E+01   0.8007984032E+00   0.5000000000E-01  -0.4980039920E-01   0.1500000000E+00  -0.1494011976E+00   0.2663119392E+02  -0.6311124109E-12   0.1328896576E+02  -0.3491031866E-13   0.0000000000E+00   0.0000000000E+00   0.2000000000E+00  -0.1992015968E+00  -0.5233056767E-15   0.0000000000E+00   0.0000000000E+00   0.0000000000E+00   0.2306330584E+02
           1           5           9           8
           5           2           6           9
           9           6           3           7
           8           9           7           4
 VARIABLES = X,Y,DU1,DU2,U1,U2,S11,S22,S33,S12,S13,S23,E11,E22,E12,E33,E13,E23,SMISES
 ZONE, T="0.5000D+01" F=FEPOINT, I=    9 J=    4
   0.0000000000E+00   0.0000000000E+00   0.0000000000E+00   0.0000000000E+00   0.0000000000E+00   0.0000000000E+00   0.3328899240E+02   0.2151486785E-12   0.1661120721E+02   0.1719389728E-15   0.0000000000E+00   0.0000000000E+00   0.2500000000E+00  -0.2490019960E+00   0.2577365203E-17   0.0000000000E+00   0.0000000000E+00   0.0000000000E+00   0.2882913230E+02
   0.2500000000E+01   0.0000000000E+00   0.1000000000E+00   0.0000000000E+00   0.4000000000E+00   0.0000000000E+00   0.3328899240E+02  -0.1714597711E-11   0.1661120721E+02  -0.8853010198E-14   0.0000000000E+00   0.0000000000E+00   0.2500000000E+00  -0.2490019960E+00  -0.1327066229E-15   0.0000000000E+00   0.0000000000E+00   0.0000000000E+00   0.2882913230E+02
   0.2500000000E+01   0.1501996008E+01   0.1000000000E+00  -0.9960079840E-01   0.4000000000E+00  -0.3984031936E+00   0.3328899240E+02  -0.1607559742E-12   0.1661120721E+02   0.1543391865E-14   0.0000000000E+00   0.0000000000E+00   0.2500000000E+00  -0.2490019960E+00   0.2313544406E-16   0.0000000000E+00   0.0000000000E+00   0.0000000000E+00   0.2882913230E+02
   0.0000000000E+00   0.1501996008E+01   0.0000000000E+00  -0.9960079840E-01   0.0000000000E+00  -0.3984031936E+00   0.3328899240E+02  -0.2137514334E-11   0.1661120721E+02  -0.4388797293E-14   0.0000000000E+00   0.0000000000E+00   0.2500000000E+00  -0.2490019960E+00  -0.6578807142E-16   0.0000000000E+00   0.0000000000E+00   0.0000000000E+00   0.2882913230E+02
   0.1250000000E+01   0.0000000000E+00   0.5000000000E-01   0.0000000000E+00   0.2000000000E+00   0.0000000000E+00   0.3328899240E+02  -0.4993405555E-12   0.1661120721E+02   0.2906427799E-13   0.0000000000E+00   0.0000000000E+00   0.2500000000E+00  -0.2490019960E+00   0.4356735271E-15   0.0000000000E+00   0.0000000000E+00   0.0000000000E+00   0.2882913230E+02
   0.2500000000E+01   0.7509980040E+00   0.1000000000E+00  -0.4980039920E-01   0.4000000000E+00  -0.1992015968E+00   0.3328899240E+02  -0.5595842238E-12   0.1661120721E+02  -0.2776015445E-13   0.0000000000E+00   0.0000000000E+00   0.2500000000E+00  -0.2490019960E+00  -0.4161247152E-15   0.0000000000E+00   0.0000000000E+00   0.0000000000E+00   0.2882913230E+02
   0.1250000000E+01   0.1501996008E+01   0.5000000000E-01  -0.9960079840E-01   0.2000000000E+00  -0.3984031936E+00   0.3328899240E+02   0.9977540087E-13   0.1661120721E+02   0.2906427799E-13   0.0000000000E+00   0.0000000000E+00   0.2500000000E+00  -0.2490019960E+00   0.4356735271E-15   0.0000000000E+00   0.0000000000E+00   0.0000000000E+00   0.2882913230E+02
   0.0000000000E+00   0.7509980040E+00   0.0000000000E+00  -0.4980039920E-01   0.0000000000E+00  -0.1992015968E+00   0.3328899240E+02  -0.5830902087E-12   0.1661120721E+02  -0.3373618748E-13   0.0000000000E+00   0.0000000000E+00   0.2500000000E+00  -0.2490019960E+00  -0.5057054503E-15   0.0000000000E+00   0.0000000000E+00   0.0000000000E+00   0.2882913230E+02
   0.1250000000E+01   0.7509980040E+00   0.5000000000E-01  -0.4980039920E-01   0.2000000000E+00  -0.1992015968E+00   0.3328899240E+02  -0.5830902087E-12   0.1661120721E+02  -0.3373618748E-13   0.0000000000E+00   0.0000000000E+00   0.2500000000E+00  -0.2490019960E+00  -0.5057054503E-15   0.0000000000E+00   0.0000000000E+00   0.0000000000E+00   0.2882913230E+02
           1           5           9           8
           5           2           6           9
           9           6           3           7
           8           9           7           4
 VARIABLES = X,Y,DU1,DU2,U1,U2,S11,S22,S33,S12,S13,S23,E11,E22,E12,E33,E13,E23,SMISES
 ZONE, T="0.6000D+01" F=FEPOINT, I=    9 J=    4
   0.0000000000E+00   0.0000000000E+00   0.0000000000E+00   0.0000000000E+00   0.0000000000E+00   0.0000000000E+00   0.3994679087E+02  -0.1385641263E-11   0.1993344865E+02   0.1630170477E-14   0.0000000000E+00   0.0000000000E+00   0.3000000000E+00  -0.2988023952E+00   0.2443625544E-16   0.0000000000E+00   0.0000000000E+00   0.0000000000E+00   0.3459495876E+02
   0.2600000000E+01   0.0000000000E+00   0.1000000000E+00   0.0000000000E+00   0.5000000000E+00   0.0000000000E+00   0.3994679087E+02  -0.2874368321E-11   0.1993344865E+02  -0.1415725219E-14   0.0000000000E+00   0.0000000000E+00   0.3000000000E+00  -0.2988023952E+00  -0.2122172104E-16   0.0000000000E+00   0.0000000000E+00   0.0000000000E+00   0.3459495876E+02
   0.2600000000E+01   0.1402395210E+01   0.1000000000E+00  -0.9960079840E-01   0.5000000000E+00  -0.4980039920E+00   0.3994679087E+02   0.5951679518E-12   0.1993344865E+02  -0.5538734770E-14   0.0000000000E+00   0.0000000000E+00   0.3000000000E+00  -0.2988023952E+00  -0.8302563421E-16   0.0000000000E+00   0.0000000000E+00   0.0000000000E+00   0.3459495876E+02
   0.0000000000E+00   0.1402395210E+01   0.0000000000E+00  -0.9960079840E-01   0.0000000000E+00  -0.4980039920E+00   0.3994679087E+02   0.2690816931E-11   0.1993344865E+02  -0.2234086237E-14   0.0000000000E+00   0.0000000000E+00   0.3000000000E+00  -0.2988023952E+00  -0.3348895269E-16   0.0000000000E+00   0.0000000000E+00   0.0000000000E+00   0.3459495876E+02
   0.1300000000E+01   0.0000000000E+00   0.5000000000E-01   0.0000000000E+00   0.2500000000E+00   0.0000000000E+00   0.3994679087E+02   0.4735824344E-12   0.1993344865E+02   0.1164384724E-13   0.0000000000E+00   0.0000000000E+00   0.3000000000E+00  -0.2988023952E+00   0.1745412701E-15   0.0000000000E+00   0.0000000000E+00   0.0000000000E+00   0.3459495876E+02
   0.2600000000E+01   0.7011976048E+00   0.1000000000E+00  -0.4980039920E-01   0.5000000000E+00  -0.2490019960E+00   0.3994679087E+02   0.4998517421E-12   0.1993344865E+02  -0.1139598651E-13   0.0000000000E+00   0.0000000000E+00   0.3000000000E+00  -0.2988023952E+00  -0.1708258377E-15   0.0000000000E+00   0.0000000000E+00   0.0000000000E+00   0.3459495876E+02
   0.1300000000E+01   0.1402395210E+01   0.5000000000E-01  -0.9960079840E-01   0.2500000000E+00  -0.4980039920E+00   0.3994679087E+02  -0.7240761617E-12   0.1993344865E+02   0.1373545880E-13   0.0000000000E+00   0.0000000000E+00   0.3000000000E+00  -0.2988023952E+00   0.2058945274E-15   0.0000000000E+00   0.0000000000E+00   0.0000000000E+00   0.3459495876E+02
   0.0000000000E+00   0.7011976048E+00   0.0000000000E+00  -0.4980039920E-01   0.0000000000E+00  -0.2490019960E+00   0.3994679087E+02  -0.7207395221E-12   0.1993344865E+02  -0.1169478816E-13   0.0000000000E+00   0.0000000000E+00   0.3000000000E+00  -0.2988023952E+00  -0.1753048745E-15   0.0000000000E+00   0.0000000000E+00   0.0000000000E+00   0.3459495876E+02
   0.1300000000E+01   0.7011976048E+00   0.5000000000E-01  -0.4980039920E-01   0.2500000000E+00  -0.2490019960E+00   0.3994679087E+02  -0.7207395221E-12   0.1993344865E+02  -0.1169478816E-13   0.0000000000E+00   0.0000000000E+00   0.3000000000E+00  -0.2988023952E+00  -0.1753048745E-15   0.0000000000E+00   0.0000000000E+00   0.0000000000E+00   0.3459495876E+02
           1           5           9           8
           5           2           6           9
           9           6           3           7
           8           9           7           4
 VARIABLES = X,Y,DU1,DU2,U1,U2,S11,S22,S33,S12,S13,S23,E11,E22,E12,E33,E13,E23,SMISES
 ZONE, T="0.7000D+01" F=FEPOINT, I=    9 J=    4
   0.0000000000E+00   0.0000000000E+00   0.0000000000E+00   0.0000000000E+00   0.0000000000E+00   0.0000000000E+00   0.4660458935E+02   0.2301626947E-12   0.2325569009E+02   0.2032815178E-14   0.0000000000E+00   0.0000000000E+00   0.3500000000E+00  -0.3486027944E+00   0.3047189952E-16   0.0000000000E+00   0.0000000000E+00   0.0000000000E+00   0.4036078522E+02
   0.2700000000E+01   0.0000000000E+00   0.1000000000E+00   0.0000000000E+00   0.6000000000E+00   0.0000000000E+00   0.4660458935E+02  -0.8791579555E-12   0.2325569009E+02  -0.4240387448E-14   0.0000000000E+00   0.0000000000E+00   0.3500000000E+00  -0.3486027944E+00  -0.6356340784E-16   0.0000000000E+00   0.0000000000E+00   0.0000000000E+00   0.4036078522E+02
   0.2700000000E+01   0.1302794411E+01   0.1000000000E+00  -0.9960079840E-01   0.6000000000E+00  -0.5976047904E+00   0.4660458935E+02  -0.2486020746E-11   0.2325569009E+02   0.5322356796E-14   0.0000000000E+00   0.0000000000E+00   0.3500000000E+00  -0.3486027944E+00   0.7978212838E-16   0.0000000000E+00   0.0000000000E+00   0.0000000000E+00   0.4036078522E+02
   0.0000000000E+00   0.1302794411E+01   0.0000000000E+00  -0.9960079840E-01   0.0000000000E+00  -0.5976047904E+00   0.4660458935E+02   0.1837025486E-11   0.2325569009E+02  -0.2191964322E-13   0.0000000000E+00   0.0000000000E+00   0.3500000000E+00  -0.3486027944E+00  -0.3285754518E-15   0.0000000000E+00   0.0000000000E+00   0.0000000000E+00   0.4036078522E+02
   0.1350000000E+01   0.0000000000E+00   0.5000000000E-01   0.0000000000E+00   0.3000000000E+00   0.0000000000E+00   0.4660458935E+02  -0.5300122481E-12   0.2325569009E+02  -0.3808884705E-14   0.0000000000E+00   0.0000000000E+00   0.3500000000E+00  -0.3486027944E+00  -0.5709518173E-16   0.0000000000E+00   0.0000000000E+00   0.0000000000E+00   0.4036078522E+02
   0.2700000000E+01   0.6513972056E+00   0.1000000000E+00  -0.4980039920E-01   0.6000000000E+00  -0.2988023952E+00   0.4660458935E+02   0.8419023494E-12   0.2325569009E+02   0.9417639142E-14   0.0000000000E+00   0.0000000000E+00   0.3500000000E+00  -0.3486027944E+00   0.1411704107E-15   0.0000000000E+00   0.0000000000E+00   0.0000000000E+00   0.4036078522E+02
   0.1350000000E+01   0.1302794411E+01   0.5000000000E-01  -0.9960079840E-01   0.3000000000E+00  -0.5976047904E+00   0.4660458935E+02  -0.5300122481E-12   0.2325569009E+02   0.9719417180E-15   0.0000000000E+00   0.0000000000E+00   0.3500000000E+00  -0.3486027944E+00   0.1456940635E-16   0.0000000000E+00   0.0000000000E+00   0.0000000000E+00   0.4036078522E+02
   0.0000000000E+00   0.6513972056E+00   0.0000000000E+00  -0.4980039920E-01   0.0000000000E+00  -0.2988023952E+00   0.4660458935E+02  -0.3557562466E-12   0.2325569009E+02  -0.9705666550E-14   0.0000000000E+00   0.0000000000E+00   0.3500000000E+00  -0.3486027944E+00  -0.1454879416E-15   0.0000000000E+00   0.0000000000E+00   0.0000000000E+00   0.4036078522E+02
   0.1350000000E+01   0.6513972056E+00   0.5000000000E-01  -0.4980039920E-01   0.3000000000E+00  -0.2988023952E+00   0.4660458935E+02  -0.3557562466E-12   0.2325569009E+02  -0.9705666550E-14   0.0000000000E+00   0.0000000000E+00   0.3500000000E+00  -0.3486027944E+00  -0.1454879416E-15   0.0000000000E+00   0.0000000000E+00   0.0000000000E+00   0.4036078522E+02
           1           5           9           8
           5           2           6           9
           9           6           3           7
           8           9           7           4
 VARIABLES = X,Y,DU1,DU2,U1,U2,S11,S22,S33,S12,S13,S23,E11,E22,E12,E33,E13,E23,SMISES
 ZONE, T="0.8000D+01" F=FEPOINT, I=    9 J=    4
   0.0000000000E+00   0.0000000000E+00   0.0000000000E+00   0.0000000000E+00   0.0000000000E+00   0.0000000000E+00   0.5326238783E+02   0.1428979277E-11   0.2657793153E+02   0.2237633263E-14   0.0000000000E+00   0.0000000000E+00   0.4000000000E+00  -0.3984031936E+00   0.3354212261E-16   0.0000000000E+00   0.0000000000E+00   0.0000000000E+00   0.4612661168E+02
   0.2800000000E+01   0.0000000000E+00   0.1000000000E+00   0.0000000000E+00   0.7000000000E+00   0.0000000000E+00   0.5326238783E+02  -0.4545842324E-11   0.2657793153E+02  -0.5362176773E-14   0.0000000000E+00   0.0000000000E+00   0.4000000000E+00  -0.3984031936E+00  -0.8037902983E-16   0.0000000000E+00   0.0000000000E+00   0.0000000000E+00   0.4612661168E+02
   0.2800000000E+01   0.1203193613E+01   0.1000000000E+00  -0.9960079840E-01   0.7000000000E+00  -0.6972055888E+00   0.5326238783E+02   0.3243890926E-12   0.2657793153E+02  -0.6573842146E-14   0.0000000000E+00   0.0000000000E+00   0.4000000000E+00  -0.3984031936E+00  -0.9854189377E-16   0.0000000000E+00   0.0000000000E+00   0.0000000000E+00   0.4612661168E+02
   0.0000000000E+00   0.1203193613E+01   0.0000000000E+00  -0.9960079840E-01   0.0000000000E+00  -0.6972055888E+00   0.5326238783E+02   0.3781965022E-11   0.2657793153E+02   0.2303345183E-14   0.0000000000E+00   0.0000000000E+00   0.4000000000E+00  -0.3984031936E+00   0.3452714430E-16   0.0000000000E+00   0.0000000000E+00   0.0000000000E+00   0.4612661168E+02
   0.1400000000E+01   0.0000000000E+00   0.5000000000E-01   0.0000000000E+00   0.3500000000E+00   0.0000000000E+00   0.5326238783E+02   0.1769237046E-11   0.2657793153E+02  -0.1009638560E-13   0.0000000000E+00   0.0000000000E+00   0.4000000000E+00  -0.3984031936E+00  -0.1513448201E-15   0.0000000000E+00   0.0000000000E+00   0.0000000000E+00   0.4612661168E+02
   0.2800000000E+01   0.6015968064E+00   0.1000000000E+00  -0.4980039920E-01   0.7000000000E+00  -0.3486027944E+00   0.5326238783E+02   0.4007425040E-12   0.2657793153E+02   0.7942934165E-14   0.0000000000E+00   0.0000000000E+00   0.4000000000E+00  -0.3984031936E+00   0.1190645831E-15   0.0000000000E+00   0.0000000000E+00   0.0000000000E+00   0.4612661168E+02
   0.1400000000E+01   0.1203193613E+01   0.5000000000E-01  -0.9960079840E-01   0.3500000000E+00  -0.6972055888E+00   0.5326238783E+02  -0.6260801462E-12   0.2657793153E+02  -0.5315559175E-14   0.0000000000E+00   0.0000000000E+00   0.4000000000E+00  -0.3984031936E+00  -0.7968023203E-16   0.0000000000E+00   0.0000000000E+00   0.0000000000E+00   0.4612661168E+02
   0.0000000000E+00   0.6015968064E+00   0.0000000000E+00  -0.4980039920E-01   0.0000000000E+00  -0.3486027944E+00   0.5326238783E+02  -0.7734101072E-12   0.2657793153E+02   0.4058512696E-14   0.0000000000E+00   0.0000000000E+00   0.4000000000E+00  -0.3984031936E+00   0.6083710531E-16   0.0000000000E+00   0.0000000000E+00   0.0000000000E+00   0.4612661168E+02
   0.1400000000E+01   0.6015968064E+00   0.5000000000E-01  -0.4980039920E-01   0.3500000000E+00  -0.3486027944E+00   0.5326238783E+02  -0.7734101072E-12   0.2657793153E+02   0.4058512696E-14   0.0000000000E+00   0.0000000000E+00   0.4000000000E+00  -0.3984031936E+00   0.6083710531E-16   0.0000000000E+00   0.0000000000E+00   0.0000000000E+00   0.4612661168E+02
           1           5           9           8
           5           2           6           9
           9           6           3           7
           8           9           7           4
 VARIABLES = X,Y,DU1,DU2,U1,U2,S11,S22,S33,S12,S13,S23,E11,E22,E12,E33,E13,E23,SMISES
 ZONE, T="0.9000D+01" F=FEPOINT, I=    9 J=    4
   0.0000000000E+00   0.0000000000E+00   0.0000000000E+00   0.0000000000E+00   0.0000000000E+00   0.0000000000E+00   0.5992018631E+02  -0.1738904217E-11   0.2990017297E+02   0.5117701360E-15   0.0000000000E+00   0.0000000000E+00   0.4500000000E+00  -0.4482035928E+00   0.7671434339E-17   0.0000000000E+00   0.0000000000E+00   0.0000000000E+00   0.5189243814E+02
   0.2900000000E+01   0.0000000000E+00   0.1000000000E+00   0.0000000000E+00   0.8000000000E+00   0.0000000000E+00   0.5992018631E+02  -0.1815041504E-11   0.2990017297E+02  -0.1258851308E-13   0.0000000000E+00   0.0000000000E+00   0.4500000000E+00  -0.4482035928E+00  -0.1887018111E-15   0.0000000000E+00   0.0000000000E+00   0.0000000000E+00   0.5189243814E+02
   0.2900000000E+01   0.1103592814E+01   0.1000000000E+00  -0.9960079840E-01   0.8000000000E+00  -0.7968063872E+00   0.5992018631E+02   0.2253291104E-11   0.2990017297E+02  -0.2099242732E-14   0.0000000000E+00   0.0000000000E+00   0.4500000000E+00  -0.4482035928E+00  -0.3146764856E-16   0.0000000000E+00   0.0000000000E+00   0.0000000000E+00   0.5189243814E+02
   0.0000000000E+00   0.1103592814E+01   0.0000000000E+00  -0.9960079840E-01   0.0000000000E+00  -0.7968063872E+00   0.5992018631E+02  -0.2181633761E-12   0.2990017297E+02  -0.5689078313E-15   0.0000000000E+00   0.0000000000E+00   0.4500000000E+00  -0.4482035928E+00  -0.8527928392E-17   0.0000000000E+00   0.0000000000E+00   0.0000000000E+00   0.5189243814E+02
   0.1450000000E+01   0.0000000000E+00   0.5000000000E-01   0.0000000000E+00   0.4000000000E+00   0.0000000000E+00   0.5992018631E+02   0.1413478058E-11   0.2990017297E+02  -0.4620960232E-14   0.0000000000E+00   0.0000000000E+00   0.4500000000E+00  -0.4482035928E+00  -0.6926819388E-16   0.0000000000E+00   0.0000000000E+00   0.0000000000E+00   0.5189243814E+02
   0.2900000000E+01   0.5517964072E+00   0.1000000000E+00  -0.4980039920E-01   0.8000000000E+00  -0.3984031936E+00   0.5992018631E+02  -0.1326925410E-12   0.2990017297E+02   0.4526789562E-14   0.0000000000E+00   0.0000000000E+00   0.4500000000E+00  -0.4482035928E+00   0.6785657553E-16   0.0000000000E+00   0.0000000000E+00   0.0000000000E+00   0.5189243814E+02
   0.1450000000E+01   0.1103592814E+01   0.5000000000E-01  -0.9960079840E-01   0.4000000000E+00  -0.7968063872E+00   0.5992018631E+02   0.2158194620E-12   0.2990017297E+02  -0.7907778398E-14   0.0000000000E+00   0.0000000000E+00   0.4500000000E+00  -0.4482035928E+00  -0.1185375982E-15   0.0000000000E+00   0.0000000000E+00   0.0000000000E+00   0.5189243814E+02
   0.0000000000E+00   0.5517964072E+00   0.0000000000E+00  -0.4980039920E-01   0.0000000000E+00  -0.3984031936E+00   0.5992018631E+02  -0.1330351137E-11   0.2990017297E+02   0.4825591213E-14   0.0000000000E+00   0.0000000000E+00   0.4500000000E+00  -0.4482035928E+00   0.7233561228E-16   0.0000000000E+00   0.0000000000E+00   0.0000000000E+00   0.5189243814E+02
   0.1450000000E+01   0.5517964072E+00   0.5000000000E-01  -0.4980039920E-01   0.4000000000E+00  -0.3984031936E+00   0.5992018631E+02  -0.1330351137E-11   0.2990017297E+02   0.4825591213E-14   0.0000000000E+00   0.0000000000E+00   0.4500000000E+00  -0.4482035928E+00   0.7233561228E-16   0.0000000000E+00   0.0000000000E+00   0.0000000000E+00   0.5189243814E+02
           1           5           9           8
           5           2           6           9
           9           6           3           7
           8           9           7           4
 VARIABLES = X,Y,DU1,DU2,U1,U2,S11,S22,S33,S12,S13,S23,E11,E22,E12,E33,E13,E23,SMISES
 ZONE, T="0.1000D+02" F=FEPOINT, I=    9 J=    4
   0.0000000000E+00   0.0000000000E+00   0.0000000000E+00   0.0000000000E+00   0.0000000000E+00   0.0000000000E+00   0.6657798479E+02  -0.8536560993E-12   0.3322241441E+02   0.2656596302E-14   0.0000000000E+00   0.0000000000E+00   0.5000000000E+00  -0.4980039920E+00   0.3982237856E-16   0.0000000000E+00   0.0000000000E+00   0.0000000000E+00   0.5765826460E+02
   0.3000000000E+01   0.0000000000E+00   0.1000000000E+00   0.0000000000E+00   0.9000000000E+00   0.0000000000E+00   0.6657798479E+02   0.1127859057E-11   0.3322241441E+02  -0.1888829031E-13   0.0000000000E+00   0.0000000000E+00   0.5000000000E+00  -0.4980039920E+00  -0.2831354718E-15   0.0000000000E+00   0.0000000000E+00   0.0000000000E+00   0.5765826460E+02
   0.3000000000E+01   0.1003992016E+01   0.1000000000E+00  -0.9960079840E-01   0.9000000000E+00  -0.8964071856E+00   0.6657798479E+02   0.5502897311E-11   0.3322241441E+02  -0.9963882825E-14   0.0000000000E+00   0.0000000000E+00   0.5000000000E+00  -0.4980039920E+00  -0.1493586035E-15   0.0000000000E+00   0.0000000000E+00   0.0000000000E+00   0.5765826460E+02
   0.0000000000E+00   0.1003992016E+01   0.0000000000E+00  -0.9960079840E-01   0.0000000000E+00  -0.8964071856E+00   0.6657798479E+02   0.2277932367E-11   0.3322241441E+02  -0.1842358847E-14   0.0000000000E+00   0.0000000000E+00   0.5000000000E+00  -0.4980039920E+00  -0.2761695911E-16   0.0000000000E+00   0.0000000000E+00   0.0000000000E+00   0.5765826460E+02
   0.1500000000E+01   0.0000000000E+00   0.5000000000E-01   0.0000000000E+00   0.4500000000E+00   0.0000000000E+00   0.6657798479E+02   0.1516796154E-11   0.3322241441E+02  -0.3185227195E-14   0.0000000000E+00   0.0000000000E+00   0.5000000000E+00  -0.4980039920E+00  -0.4774655566E-16   0.0000000000E+00   0.0000000000E+00   0.0000000000E+00   0.5765826460E+02
   0.3000000000E+01   0.5019960080E+00   0.1000000000E+00  -0.4980039920E-01   0.9000000000E+00  -0.4482035928E+00   0.6657798479E+02  -0.9988415423E-12   0.3322241441E+02   0.5208320753E-14   0.0000000000E+00   0.0000000000E+00   0.5000000000E+00  -0.4980039920E+00   0.7807272809E-16   0.0000000000E+00   0.0000000000E+00   0.0000000000E+00   0.5765826460E+02
   0.1500000000E+01   0.1003992016E+01   0.5000000000E-01  -0.9960079840E-01   0.4500000000E+00  -0.8964071856E+00   0.6657798479E+02   0.3185642416E-12   0.3322241441E+02  -0.5874442058E-14   0.0000000000E+00   0.0000000000E+00   0.5000000000E+00  -0.4980039920E+00  -0.8805788646E-16   0.0000000000E+00   0.0000000000E+00   0.0000000000E+00   0.5765826460E+02
   0.0000000000E+00   0.5019960080E+00   0.0000000000E+00  -0.4980039920E-01   0.0000000000E+00  -0.4482035928E+00   0.6657798479E+02   0.1349463680E-11   0.3322241441E+02  -0.7640150259E-14   0.0000000000E+00   0.0000000000E+00   0.5000000000E+00  -0.4980039920E+00  -0.1145258524E-15   0.0000000000E+00   0.0000000000E+00   0.0000000000E+00   0.5765826460E+02
   0.1500000000E+01   0.5019960080E+00   0.5000000000E-01  -0.4980039920E-01   0.4500000000E+00  -0.4482035928E+00   0.6657798479E+02   0.1349463680E-11   0.3322241441E+02  -0.7640150259E-14   0.0000000000E+00   0.0000000000E+00   0.5000000000E+00  -0.4980039920E+00  -0.1145258524E-15   0.0000000000E+00   0.0000000000E+00   0.0000000000E+00   0.5765826460E+02
           1           5           9           8
           5           2           6           9
           9           6           3           7
           8           9           7           4
