 VARIABLES = X,Y,DU1,DU2,U1,U2,S11,S22,S33,S12,S13,S23,E11,E22,E12,E33,E13,E23,SMISES
 ZONE, T="0.1000D+01" F=FEPOINT, I=    9 J=    4
   0.0000000000E+00   0.0000000000E+00   0.0000000000E+00   0.0000000000E+00   0.0000000000E+00   0.0000000000E+00   0.6657798479E+01  -0.1111648336E-12   0.3322241441E+01  -0.2723719773E-15   0.0000000000E+00   0.0000000000E+00   0.5000000000E-01  -0.4980039920E-01  -0.4082855940E-17   0.0000000000E+00   0.0000000000E+00   0.0000000000E+00   0.5765826460E+01
   0.2100000000E+01   0.0000000000E+00   0.1000000000E+00   0.0000000000E+00   0.0000000000E+00   0.0000000000E+00   0.6657798479E+01  -0.3053195143E-12   0.3322241441E+01  -0.1623843875E-14   0.0000000000E+00   0.0000000000E+00   0.5000000000E-01  -0.4980039920E-01  -0.2434141969E-16   0.0000000000E+00   0.0000000000E+00   0.0000000000E+00   0.5765826460E+01
   0.2100000000E+01   0.1900399202E+01   0.1000000000E+00  -0.9960079840E-01   0.0000000000E+00   0.0000000000E+00   0.6657798479E+01  -0.3739808423E-13   0.3322241441E+01  -0.8567939416E-13   0.0000000000E+00   0.0000000000E+00   0.5000000000E-01  -0.4980039920E-01  -0.1284334118E-14   0.0000000000E+00   0.0000000000E+00   0.0000000000E+00   0.5765826460E+01
   0.0000000000E+00   0.1900399202E+01   0.0000000000E+00  -0.9960079840E-01   0.0000000000E+00   0.0000000000E+00   0.6657798479E+01   0.1008753709E-12   0.3322241441E+01   0.8258479839E-13   0.0000000000E+00   0.0000000000E+00   0.5000000000E-01  -0.4980039920E-01   0.1237946128E-14   0.0000000000E+00   0.0000000000E+00   0.0000000000E+00   0.5765826460E+01
   0.1050000000E+01   0.0000000000E+00   0.5000000000E-01   0.0000000000E+00   0.0000000000E+00   0.0000000000E+00   0.6657798479E+01  -0.1509066706E-12   0.3322241441E+01   0.5441103250E-14   0.0000000000E+00   0.0000000000E+00   0.5000000000E-01  -0.4980039920E-01   0.8156213772E-16   0.0000000000E+00   0.0000000000E+00   0.0000000000E+00   0.5765826460E+01
   0.2100000000E+01   0.9501996008E+00   0.1000000000E+00  -0.4980039920E-01   0.0000000000E+00   0.0000000000E+00   0.6657798479E+01   0.8584111316E-13   0.3322241441E+01  -0.5373806811E-13   0.0000000000E+00   0.0000000000E+00   0.5000000000E-01  -0.4980039920E-01  -0.8055336409E-15   0.0000000000E+00   0.0000000000E+00   0.0000000000E+00   0.5765826460E+01
   0.1050000000E+01   0.1900399202E+01   0.5000000000E-01  -0.9960079840E-01   0.0000000000E+00   0.0000000000E+00   0.6657798479E+01  -0.4541639694E-13   0.3322241441E+01   0.3947094993E-14   0.0000000000E+00   0.0000000000E+00   0.5000000000E-01  -0.4980039920E-01   0.5916695395E-16   0.0000000000E+00   0.0000000000E+00   0.0000000000E+00   0.5765826460E+01
   0.0000000000E+00   0.9501996008E+00   0.0000000000E+00  -0.4980039920E-01   0.0000000000E+00   0.0000000000E+00   0.6657798479E+01  -0.1075816101E-12   0.3322241441E+01   0.3082279925E-13   0.0000000000E+00   0.0000000000E+00   0.5000000000E-01  -0.4980039920E-01   0.4620337608E-15   0.0000000000E+00   0.0000000000E+00   0.0000000000E+00   0.5765826460E+01
   0.1050000000E+01   0.9501996008E+00   0.5000000000E-01  -0.4980039920E-01   0.0000000000E+00   0.0000000000E+00   0.6657798479E+01  -0.1075816101E-12   0.3322241441E+01   0.3082279925E-13   0.0000000000E+00   0.0000000000E+00   0.5000000000E-01  -0.4980039920E-01   0.4620337608E-15   0.0000000000E+00   0.0000000000E+00   0.0000000000E+00   0.5765826460E+01
           1           5           9           8
           5           2           6           9
           9           6           3           7
           8           9           7           4
 VARIABLES = X,Y,DU1,DU2,U1,U2,S11,S22,S33,S12,S13,S23,E11,E22,E12,E33,E13,E23,SMISES
 ZONE, T="0.2000D+01" F=FEPOINT, I=    9 J=    4
   0.0000000000E+00   0.0000000000E+00   0.0000000000E+00   0.0000000000E+00   0.0000000000E+00   0.0000000000E+00   0.1331559696E+02  -0.1063851887E-12   0.6644482882E+01  -0.6647069070E-15   0.0000000000E+00   0.0000000000E+00   0.1000000000E+00  -0.9960079840E-01  -0.9963956536E-17   0.0000000000E+00   0.0000000000E+00   0.0000000000E+00   0.1153165292E+02
   0.2200000000E+01   0.0000000000E+00   0.1000000000E+00   0.0000000000E+00   0.1000000000E+00   0.0000000000E+00   0.1331559696E+02  -0.6379514627E-12   0.6644482882E+01  -0.1745691951E-14   0.0000000000E+00   0.0000000000E+00   0.1000000000E+00  -0.9960079840E-01  -0.2616792234E-16   0.0000000000E+00   0.0000000000E+00   0.0000000000E+00   0.1153165292E+02
   0.2200000000E+01   0.1800798403E+01   0.1000000000E+00  -0.9960079840E-01   0.1000000000E+00  -0.9960079840E-01   0.1331559696E+02   0.1323534424E-12   0.6644482882E+01  -0.8482511199E-14   0.0000000000E+00   0.0000000000E+00   0.1000000000E+00  -0.9960079840E-01  -0.1271528429E-15   0.0000000000E+00   0.0000000000E+00   0.0000000000E+00   0.1153165292E+02
   0.0000000000E+00   0.1800798403E+01   0.0000000000E+00  -0.9960079840E-01   0.0000000000E+00  -0.9960079840E-01   0.1331559696E+02   0.9512824426E-12   0.6644482882E+01   0.8082676871E-14   0.0000000000E+00   0.0000000000E+00   0.1000000000E+00  -0.9960079840E-01   0.1211593263E-15   0.0000000000E+00   0.0000000000E+00   0.0000000000E+00   0.1153165292E+02
   0.1100000000E+01   0.0000000000E+00   0.5000000000E-01   0.0000000000E+00   0.5000000000E-01   0.0000000000E+00   0.1331559696E+02  -0.1022492110E-13   0.6644482882E+01  -0.3390315331E-14   0.0000000000E+00   0.0000000000E+00   0.1000000000E+00  -0.9960079840E-01  -0.5082082681E-16   0.0000000000E+00   0.0000000000E+00   0.0000000000E+00   0.1153165292E+02
   0.2200000000E+01   0.9003992016E+00   0.1000000000E+00  -0.4980039920E-01   0.1000000000E+00  -0.4980039920E-01   0.1331559696E+02   0.2715670536E-12   0.6644482882E+01  -0.1393124023E-14   0.0000000000E+00   0.0000000000E+00   0.1000000000E+00  -0.9960079840E-01  -0.2088292910E-16   0.0000000000E+00   0.0000000000E+00   0.0000000000E+00   0.1153165292E+02
   0.1100000000E+01   0.1800798403E+01   0.5000000000E-01  -0.9960079840E-01   0.5000000000E-01  -0.9960079840E-01   0.1331559696E+02  -0.1039622023E-12   0.6644482882E+01  -0.3987918634E-14   0.0000000000E+00   0.0000000000E+00   0.1000000000E+00  -0.9960079840E-01  -0.5977890032E-16   0.0000000000E+00   0.0000000000E+00   0.0000000000E+00   0.1153165292E+02
   0.0000000000E+00   0.9003992016E+00   0.0000000000E+00  -0.4980039920E-01   0.0000000000E+00  -0.4980039920E-01   0.1331559696E+02  -0.2197109923E-13   0.6644482882E+01   0.7869727172E-14   0.0000000000E+00   0.0000000000E+00   0.1000000000E+00  -0.9960079840E-01   0.1179672103E-15   0.0000000000E+00   0.0000000000E+00   0.0000000000E+00   0.1153165292E+02
   0.1100000000E+01   0.9003992016E+00   0.5000000000E-01  -0.4980039920E-01   0.5000000000E-01  -0.4980039920E-01   0.1331559696E+02  -0.2197109923E-13   0.6644482882E+01   0.7869727172E-14   0.0000000000E+00   0.0000000000E+00   0.1000000000E+00  -0.9960079840E-01   0.1179672103E-15   0.0000000000E+00   0.0000000000E+00   0.0000000000E+00   0.1153165292E+02
           1           5           9           8
           5           2           6           9
           9           6           3           7
           8           9           7           4
 VARIABLES = X,Y,DU1,DU2,U1,U2,S11,S22,S33,S12,S13,S23,E11,E22,E12,E33,E13,E23,SMISES
 ZONE, T="0.3000D+01" F=FEPOINT, I=    9 J=    4
   0.0000000000E+00   0.0000000000E+00   0.0000000000E+00   0.0000000000E+00   0.0000000000E+00   0.0000000000E+00   0.1997339544E+02  -0.1537501212E-12   0.9966724323E+01   0.2316427173E-16   0.0000000000E+00   0.0000000000E+00   0.1500000000E+00  -0.1494011976E+00   0.3472324333E-18   0.0000000000E+00   0.0000000000E+00   0.0000000000E+00   0.1729747938E+02
   0.2300000000E+01   0.0000000000E+00   0.1000000000E+00   0.0000000000E+00   0.2000000000E+00   0.0000000000E+00   0.1997339544E+02   0.1668752906E-11   0.9966724323E+01  -0.2972421380E-14   0.0000000000E+00   0.0000000000E+00   0.1500000000E+00  -0.1494011976E+00  -0.4455659648E-16   0.0000000000E+00   0.0000000000E+00   0.0000000000E+00   0.1729747938E+02
   0.2300000000E+01   0.1701197605E+01   0.1000000000E+00  -0.9960079840E-01   0.2000000000E+00  -0.1992015968E+00   0.1997339544E+02   0.1596108014E-11   0.9966724323E+01  -0.1085690709E-13   0.0000000000E+00   0.0000000000E+00   0.1500000000E+00  -0.1494011976E+00  -0.1627450373E-15   0.0000000000E+00   0.0000000000E+00   0.0000000000E+00   0.1729747938E+02
   0.0000000000E+00   0.1701197605E+01   0.0000000000E+00  -0.9960079840E-01   0.0000000000E+00  -0.1992015968E+00   0.1997339544E+02  -0.5280056011E-12   0.9966724323E+01   0.1223075400E-13   0.0000000000E+00   0.0000000000E+00   0.1500000000E+00  -0.1494011976E+00   0.1833390025E-15   0.0000000000E+00   0.0000000000E+00   0.0000000000E+00   0.1729747938E+02
   0.1150000000E+01   0.0000000000E+00   0.5000000000E-01   0.0000000000E+00   0.1000000000E+00   0.0000000000E+00   0.1997339544E+02   0.8492996128E-13   0.9966724323E+01   0.1382709085E-13   0.0000000000E+00   0.0000000000E+00   0.1500000000E+00  -0.1494011976E+00   0.2072680919E-15   0.0000000000E+00   0.0000000000E+00   0.0000000000E+00   0.1729747938E+02
   0.2300000000E+01   0.8505988024E+00   0.1000000000E+00  -0.4980039920E-01   0.2000000000E+00  -0.9960079840E-01   0.1997339544E+02  -0.4577632504E-13   0.9966724323E+01  -0.1780261583E-13   0.0000000000E+00   0.0000000000E+00   0.1500000000E+00  -0.1494011976E+00  -0.2668612113E-15   0.0000000000E+00   0.0000000000E+00   0.0000000000E+00   0.1729747938E+02
   0.1150000000E+01   0.1701197605E+01   0.5000000000E-01  -0.9960079840E-01   0.1000000000E+00  -0.1992015968E+00   0.1997339544E+02   0.3308828276E-12   0.9966724323E+01   0.1442469416E-13   0.0000000000E+00   0.0000000000E+00   0.1500000000E+00  -0.1494011976E+00   0.2162261654E-15   0.0000000000E+00   0.0000000000E+00   0.0000000000E+00   0.1729747938E+02
   0.0000000000E+00   0.8505988024E+00   0.0000000000E+00  -0.4980039920E-01   0.0000000000E+00  -0.9960079840E-01   0.1997339544E+02   0.4464160659E-12   0.9966724323E+01  -0.9734971239E-14   0.0000000000E+00   0.0000000000E+00   0.1500000000E+00  -0.1494011976E+00  -0.1459272189E-15   0.0000000000E+00   0.0000000000E+00   0.0000000000E+00   0.1729747938E+02
   0.1150000000E+01   0.8505988024E+00   0.5000000000E-01  -0.4980039920E-01   0.1000000000E+00  -0.9960079840E-01   0.1997339544E+02   0.4464160659E-12   0.9966724323E+01  -0.9734971239E-14   0.0000000000E+00   0.0000000000E+00   0.1500000000E+00  -0.1494011976E+00  -0.1459272189E-15   0.0000000000E+00   0.0000000000E+00   0.0000000000E+00   0.1729747938E+02
           1           5           9           8
           5           2           6           9
           9           6           3           7
           8           9           7           4
 VARIABLES = X,Y,DU1,DU2,U1,U2,S11,S22,S33,S12,S13,S23,E11,E22,E12,E33,E13,E23,SMISES
 ZONE, T="0.4000D+01" F=FEPOINT, I=    9 J=    4
   0.0000000000E+00   0.0000000000E+00   0.0000000000E+00   0.0000000000E+00   0.0000000000E+00   0.0000000000E+00   0.2663119392E+02   0.1380566718E-11   0.1328896576E+02   0.9554226388E-15   0.0000000000E+00   0.0000000000E+00   0.2000000000E+00  -0.1992015968E+00   0.1432178536E-16   0.0000000000E+00   0.0000000000E+00   0.0000000000E+00   0.2306330584E+02
   0.2400000000E+01   0.0000000000E+00   0.1000000000E+00   0.0000000000E+00   0.3000000000E+00   0.0000000000E+00   0.2663119392E+02  -0.6790691396E-12   0.1328896576E+02  -0.9308366681E-14   0.0000000000E+00   0.0000000000E+00   0.2000000000E+00  -0.1992015968E+00  -0.1395324165E-15   0.0000000000E+00   0.0000000000E+00   0.0000000000E+00   0.2306330584E+02
   0.2400000000E+01   0.1601596806E+01   0.1000000000E+00  -0.9960079840E-01   0.3000000000E+00  -0.2988023952E+00   0.2663119392E+02  -0.1211875868E-11   0.1328896576E+02  -0.4296950141E-14   0.0000000000E+00   0.0000000000E+00   0.2000000000E+00  -0.1992015968E+00  -0.6441128261E-16   0.0000000000E+00   0.0000000000E+00   0.0000000000E+00   0.2306330584E+02
   0.0000000000E+00   0.1601596806E+01   0.0000000000E+00  -0.9960079840E-01   0.0000000000E+00  -0.2988023952E+00   0.2663119392E+02   0.1243739535E-11   0.1328896576E+02   0.6364409736E-14   0.0000000000E+00   0.0000000000E+00   0.2000000000E+00  -0.1992015968E+00   0.9540250194E-16   0.0000000000E+00   0.0000000000E+00   0.0000000000E+00   0.2306330584E+02
   0.1200000000E+01   0.0000000000E+00   0.5000000000E-01   0.0000000000E+00   0.1500000000E+00   0.0000000000E+00   0.2663119392E+02   0.6582788072E-13   0.1328896576E+02   0.1224957080E-13   0.0000000000E+00   0.0000000000E+00   0.2000000000E+00  -0.1992015968E+00   0.1836210662E-15   0.0000000000E+00   0.0000000000E+00   0.0000000000E+00   0.2306330584E+02
   0.2400000000E+01   0.8007984032E+00   0.1000000000E+00  -0.4980039920E-01   0.3000000000E+00  -0.1494011976E+00   0.2663119392E+02   0.3725386891E-12   0.1328896576E+02  -0.1379276138E-13   0.0000000000E+00   0.0000000000E+00   0.2000000000E+00  -0.1992015968E+00  -0.2067534931E-15   0.0000000000E+00   0.0000000000E+00   0.0000000000E+00   0.2306330584E+02
   0.1200000000E+01   0.1601596806E+01   0.5000000000E-01  -0.9960079840E-01   0.1500000000E+00  -0.2988023952E+00   0.2663119392E+02   0.6898831137E-12   0.1328896576E+02   0.1493878566E-13   0.0000000000E+00   0.0000000000E+00   0.2000000000E+00  -0.1992015968E+00   0.2239323970E-15   0.0000000000E+00   0.0000000000E+00   0.0000000000E+00   0.2306330584E+02
   0.0000000000E+00   0.8007984032E+00   0.0000000000E+00  -0.4980039920E-01   0.0000000000E+00  -0.1494011976E+00   0.2663119392E+02  -0.3443938501E-12   0.1328896576E+02  -0.1409156303E-13   0.0000000000E+00   0.0000000000E+00   0.2000000000E+00  -0.1992015968E+00  -0.2112325299E-15   0.0000000000E+00   0.0000000000E+00   0.0000000000E+00   0.2306330584E+02
   0.1200000000E+01   0.8007984032E+00   0.5000000000E-01  -0.4980039920E-01   0.1500000000E+00  -0.1494011976E+00   0.2663119392E+02  -0.3443938501E-12   0.1328896576E+02  -0.1409156303E-13   0.0000000000E+00   0.0000000000E+00   0.2000000000E+00  -0.1992015968E+00  -0.2112325299E-15   0.0000000000E+00   0.0000000000E+00   0.0000000000E+00   0.2306330584E+02
           1           5           9           8
           5           2           6           9
           9           6           3           7
           8           9           7           4
 VARIABLES = X,Y,DU1,DU2,U1,U2,S11,S22,S33,S12,S13,S23,E11,E22,E12,E33,E13,E23,SMISES
 ZONE, T="0.5000D+01" F=FEPOINT, I=    9 J=    4
   0.0000000000E+00   0.0000000000E+00   0.0000000000E+00   0.0000000000E+00   0.0000000000E+00   0.0000000000E+00   0.3328899240E+02  -0.8095822240E-13   0.1661120721E+02   0.1722055718E-14   0.0000000000E+00   0.0000000000E+00   0.2500000000E+00  -0.2490019960E+00   0.2581361521E-16   0.0000000000E+00   0.0000000000E+00   0.0000000000E+00   0.2882913230E+02
   0.2500000000E+01   0.0000000000E+00   0.1000000000E+00   0.0000000000E+00   0.4000000000E+00   0.0000000000E+00   0.3328899240E+02  -0.7574532143E-12   0.1661120721E+02  -0.8224294115E-14   0.0000000000E+00   0.0000000000E+00   0.2500000000E+00  -0.2490019960E+00  -0.1232821688E-15   0.0000000000E+00   0.0000000000E+00   0.0000000000E+00   0.2882913230E+02
   0.2500000000E+01   0.1501996008E+01   0.1000000000E+00  -0.9960079840E-01   0.4000000000E+00  -0.3984031936E+00   0.3328899240E+02   0.1304939358E-11   0.1661120721E+02   0.3195276811E-13   0.0000000000E+00   0.0000000000E+00   0.2500000000E+00  -0.2490019960E+00   0.4789719940E-15   0.0000000000E+00   0.0000000000E+00   0.0000000000E+00   0.2882913230E+02
   0.0000000000E+00   0.1501996008E+01   0.0000000000E+00  -0.9960079840E-01   0.0000000000E+00  -0.3984031936E+00   0.3328899240E+02   0.1496636963E-11   0.1661120721E+02  -0.4442200594E-13   0.0000000000E+00   0.0000000000E+00   0.2500000000E+00  -0.2490019960E+00  -0.6658858691E-15   0.0000000000E+00   0.0000000000E+00   0.0000000000E+00   0.2882913230E+02
   0.1250000000E+01   0.0000000000E+00   0.5000000000E-01   0.0000000000E+00   0.2000000000E+00   0.0000000000E+00   0.3328899240E+02   0.5877863000E-12   0.1661120721E+02   0.7003271330E-14   0.0000000000E+00   0.0000000000E+00   0.2500000000E+00  -0.2490019960E+00   0.1049790372E-15   0.0000000000E+00   0.0000000000E+00   0.0000000000E+00   0.2882913230E+02
   0.2500000000E+01   0.7509980040E+00   0.1000000000E+00  -0.4980039920E-01   0.4000000000E+00  -0.1992015968E+00   0.3328899240E+02  -0.6702135000E-12   0.1661120721E+02   0.1320188416E-13   0.0000000000E+00   0.0000000000E+00   0.2500000000E+00  -0.2490019960E+00   0.1978962436E-15   0.0000000000E+00   0.0000000000E+00   0.0000000000E+00   0.2882913230E+02
   0.1250000000E+01   0.1501996008E+01   0.5000000000E-01  -0.9960079840E-01   0.2000000000E+00  -0.3984031936E+00   0.3328899240E+02  -0.5863663111E-12   0.1661120721E+02   0.3716453164E-14   0.0000000000E+00   0.0000000000E+00   0.2500000000E+00  -0.2490019960E+00   0.5570963292E-16   0.0000000000E+00   0.0000000000E+00   0.0000000000E+00   0.2882913230E+02
   0.0000000000E+00   0.7509980040E+00   0.0000000000E+00  -0.4980039920E-01   0.0000000000E+00  -0.1992015968E+00   0.3328899240E+02   0.7619316283E-12   0.1661120721E+02  -0.2952675199E-13   0.0000000000E+00   0.0000000000E+00   0.2500000000E+00  -0.2490019960E+00  -0.4426060124E-15   0.0000000000E+00   0.0000000000E+00   0.0000000000E+00   0.2882913230E+02
   0.1250000000E+01   0.7509980040E+00   0.5000000000E-01  -0.4980039920E-01   0.2000000000E+00  -0.1992015968E+00   0.3328899240E+02   0.7619316283E-12   0.1661120721E+02  -0.2952675199E-13   0.0000000000E+00   0.0000000000E+00   0.2500000000E+00  -0.2490019960E+00  -0.4426060124E-15   0.0000000000E+00   0.0000000000E+00   0.0000000000E+00   0.2882913230E+02
           1           5           9           8
           5           2           6           9
           9           6           3           7
           8           9           7           4
 VARIABLES = X,Y,DU1,DU2,U1,U2,S11,S22,S33,S12,S13,S23,E11,E22,E12,E33,E13,E23,SMISES
 ZONE, T="0.6000D+01" F=FEPOINT, I=    9 J=    4
   0.0000000000E+00   0.0000000000E+00   0.0000000000E+00   0.0000000000E+00   0.0000000000E+00   0.0000000000E+00   0.3994679087E+02  -0.9785742681E-12   0.1993344865E+02   0.1002308595E-14   0.0000000000E+00   0.0000000000E+00   0.3000000000E+00  -0.2988023952E+00   0.1502460584E-16   0.0000000000E+00   0.0000000000E+00   0.0000000000E+00   0.3459495876E+02
   0.2600000000E+01   0.0000000000E+00   0.1000000000E+00   0.0000000000E+00   0.5000000000E+00   0.0000000000E+00   0.3994679087E+02  -0.2809971257E-12   0.1993344865E+02  -0.1173437940E-13   0.0000000000E+00   0.0000000000E+00   0.3000000000E+00  -0.2988023952E+00  -0.1758983472E-15   0.0000000000E+00   0.0000000000E+00   0.0000000000E+00   0.3459495876E+02
   0.2600000000E+01   0.1402395210E+01   0.1000000000E+00  -0.9960079840E-01   0.5000000000E+00  -0.4980039920E+00   0.3994679087E+02  -0.9299106495E-13   0.1993344865E+02  -0.6383531538E-13   0.0000000000E+00   0.0000000000E+00   0.3000000000E+00  -0.2988023952E+00  -0.9568913776E-15   0.0000000000E+00   0.0000000000E+00   0.0000000000E+00   0.3459495876E+02
   0.0000000000E+00   0.1402395210E+01   0.0000000000E+00  -0.9960079840E-01   0.0000000000E+00  -0.4980039920E+00   0.3994679087E+02  -0.9970696899E-12   0.1993344865E+02   0.6334287905E-13   0.0000000000E+00   0.0000000000E+00   0.3000000000E+00  -0.2988023952E+00   0.9495097570E-15   0.0000000000E+00   0.0000000000E+00   0.0000000000E+00   0.3459495876E+02
   0.1300000000E+01   0.0000000000E+00   0.5000000000E-01   0.0000000000E+00   0.2500000000E+00   0.0000000000E+00   0.3994679087E+02  -0.1130599339E-13   0.1993344865E+02   0.4311229102E-13   0.0000000000E+00   0.0000000000E+00   0.3000000000E+00  -0.2988023952E+00   0.6462532424E-15   0.0000000000E+00   0.0000000000E+00   0.0000000000E+00   0.3459495876E+02
   0.2600000000E+01   0.7011976048E+00   0.1000000000E+00  -0.4980039920E-01   0.5000000000E+00  -0.2490019960E+00   0.3994679087E+02  -0.9392858026E-12   0.1993344865E+02  -0.7261771094E-13   0.0000000000E+00   0.0000000000E+00   0.3000000000E+00  -0.2988023952E+00  -0.1088539487E-14   0.0000000000E+00   0.0000000000E+00   0.0000000000E+00   0.3459495876E+02
   0.1300000000E+01   0.1402395210E+01   0.5000000000E-01  -0.9960079840E-01   0.2500000000E+00  -0.4980039920E+00   0.3994679087E+02   0.2010782024E-11   0.1993344865E+02   0.4161828276E-13   0.0000000000E+00   0.0000000000E+00   0.3000000000E+00  -0.2988023952E+00   0.6238580586E-15   0.0000000000E+00   0.0000000000E+00   0.0000000000E+00   0.3459495876E+02
   0.0000000000E+00   0.7011976048E+00   0.0000000000E+00  -0.4980039920E-01   0.0000000000E+00  -0.2490019960E+00   0.3994679087E+02  -0.1759702007E-11   0.1993344865E+02  -0.1733940542E-13   0.0000000000E+00   0.0000000000E+00   0.3000000000E+00  -0.2988023952E+00  -0.2599176872E-15   0.0000000000E+00   0.0000000000E+00   0.0000000000E+00   0.3459495876E+02
   0.1300000000E+01   0.7011976048E+00   0.5000000000E-01  -0.4980039920E-01   0.2500000000E+00  -0.2490019960E+00   0.3994679087E+02  -0.1759702007E-11   0.1993344865E+02  -0.1733940542E-13   0.0000000000E+00   0.0000000000E+00   0.3000000000E+00  -0.2988023952E+00  -0.2599176872E-15   0.0000000000E+00   0.0000000000E+00   0.0000000000E+00   0.3459495876E+02
           1           5           9           8
           5           2           6           9
           9           6           3           7
           8           9           7           4
 VARIABLES = X,Y,DU1,DU2,U1,U2,S11,S22,S33,S12,S13,S23,E11,E22,E12,E33,E13,E23,SMISES
 ZONE, T="0.7000D+01" F=FEPOINT, I=    9 J=    4
   0.0000000000E+00   0.0000000000E+00   0.0000000000E+00   0.0000000000E+00   0.0000000000E+00   0.0000000000E+00   0.4660458935E+02   0.4974847616E-11   0.2325569009E+02   0.3379141605E-14   0.0000000000E+00   0.0000000000E+00   0.3500000000E+00  -0.3486027944E+00   0.5065333267E-16   0.0000000000E+00   0.0000000000E+00   0.0000000000E+00   0.4036078522E+02
   0.2700000000E+01   0.0000000000E+00   0.1000000000E+00   0.0000000000E+00   0.6000000000E+00   0.0000000000E+00   0.4660458935E+02  -0.3926539962E-12   0.2325569009E+02  -0.4450737589E-14   0.0000000000E+00   0.0000000000E+00   0.3500000000E+00  -0.3486027944E+00  -0.6671655646E-16   0.0000000000E+00   0.0000000000E+00   0.0000000000E+00   0.4036078522E+02
   0.2700000000E+01   0.1302794411E+01   0.1000000000E+00  -0.9960079840E-01   0.6000000000E+00  -0.5976047904E+00   0.4660458935E+02   0.8062618568E-12   0.2325569009E+02  -0.1940176086E-13   0.0000000000E+00   0.0000000000E+00   0.3500000000E+00  -0.3486027944E+00  -0.2908323954E-15   0.0000000000E+00   0.0000000000E+00   0.0000000000E+00   0.4036078522E+02
   0.0000000000E+00   0.1302794411E+01   0.0000000000E+00  -0.9960079840E-01   0.0000000000E+00  -0.5976047904E+00   0.4660458935E+02   0.3983663516E-11   0.2325569009E+02   0.9592781971E-14   0.0000000000E+00   0.0000000000E+00   0.3500000000E+00  -0.3486027944E+00   0.1437958017E-15   0.0000000000E+00   0.0000000000E+00   0.0000000000E+00   0.4036078522E+02
   0.1350000000E+01   0.0000000000E+00   0.5000000000E-01   0.0000000000E+00   0.3000000000E+00   0.0000000000E+00   0.4660458935E+02   0.3140511457E-11   0.2325569009E+02  -0.5578020128E-13   0.0000000000E+00   0.0000000000E+00   0.3500000000E+00  -0.3486027944E+00  -0.8361452172E-15   0.0000000000E+00   0.0000000000E+00   0.0000000000E+00   0.4036078522E+02
   0.2700000000E+01   0.6513972056E+00   0.1000000000E+00  -0.4980039920E-01   0.6000000000E+00  -0.2988023952E+00   0.4660458935E+02   0.5428581772E-12   0.2325569009E+02   0.5047973402E-13   0.0000000000E+00   0.0000000000E+00   0.3500000000E+00  -0.3486027944E+00   0.7566912130E-15   0.0000000000E+00   0.0000000000E+00   0.0000000000E+00   0.4036078522E+02
   0.1350000000E+01   0.1302794411E+01   0.5000000000E-01  -0.9960079840E-01   0.3000000000E+00  -0.5976047904E+00   0.4660458935E+02  -0.7081635812E-12   0.2325569009E+02  -0.5010296990E-13   0.0000000000E+00   0.0000000000E+00   0.3500000000E+00  -0.3486027944E+00  -0.7510435188E-15   0.0000000000E+00   0.0000000000E+00   0.0000000000E+00   0.4036078522E+02
   0.0000000000E+00   0.6513972056E+00   0.0000000000E+00  -0.4980039920E-01   0.0000000000E+00  -0.2988023952E+00   0.4660458935E+02  -0.1172505403E-11   0.2325569009E+02   0.5047973402E-13   0.0000000000E+00   0.0000000000E+00   0.3500000000E+00  -0.3486027944E+00   0.7566912130E-15   0.0000000000E+00   0.0000000000E+00   0.0000000000E+00   0.4036078522E+02
   0.1350000000E+01   0.6513972056E+00   0.5000000000E-01  -0.4980039920E-01   0.3000000000E+00  -0.2988023952E+00   0.4660458935E+02  -0.1172505403E-11   0.2325569009E+02   0.5047973402E-13   0.0000000000E+00   0.0000000000E+00   0.3500000000E+00  -0.3486027944E+00   0.7566912130E-15   0.0000000000E+00   0.0000000000E+00   0.0000000000E+00   0.4036078522E+02
           1           5           9           8
           5           2           6           9
           9           6           3           7
           8           9           7           4
 VARIABLES = X,Y,DU1,DU2,U1,U2,S11,S22,S33,S12,S13,S23,E11,E22,E12,E33,E13,E23,SMISES
 ZONE, T="0.8000D+01" F=FEPOINT, I=    9 J=    4
   0.0000000000E+00   0.0000000000E+00   0.0000000000E+00   0.0000000000E+00   0.0000000000E+00   0.0000000000E+00   0.5326238783E+02   0.5882150221E-11   0.2657793153E+02   0.3303340405E-14   0.0000000000E+00   0.0000000000E+00   0.4000000000E+00  -0.3984031936E+00   0.4951707266E-16   0.0000000000E+00   0.0000000000E+00   0.0000000000E+00   0.4612661168E+02
   0.2800000000E+01   0.0000000000E+00   0.1000000000E+00   0.0000000000E+00   0.7000000000E+00   0.0000000000E+00   0.5326238783E+02   0.2557979407E-11   0.2657793153E+02  -0.1734952046E-13   0.0000000000E+00   0.0000000000E+00   0.4000000000E+00  -0.3984031936E+00  -0.2600693117E-15   0.0000000000E+00   0.0000000000E+00   0.0000000000E+00   0.4612661168E+02
   0.2800000000E+01   0.1203193613E+01   0.1000000000E+00  -0.9960079840E-01   0.7000000000E+00  -0.6972055888E+00   0.5326238783E+02  -0.4871551209E-11   0.2657793153E+02   0.7713777281E-14   0.0000000000E+00   0.0000000000E+00   0.4000000000E+00  -0.3984031936E+00   0.1156295214E-15   0.0000000000E+00   0.0000000000E+00   0.0000000000E+00   0.4612661168E+02
   0.0000000000E+00   0.1203193613E+01   0.0000000000E+00  -0.9960079840E-01   0.0000000000E+00  -0.6972055888E+00   0.5326238783E+02   0.4634341406E-11   0.2657793153E+02  -0.2166090391E-13   0.0000000000E+00   0.0000000000E+00   0.4000000000E+00  -0.3984031936E+00  -0.3246969496E-15   0.0000000000E+00   0.0000000000E+00   0.0000000000E+00   0.4612661168E+02
   0.1400000000E+01   0.0000000000E+00   0.5000000000E-01   0.0000000000E+00   0.3500000000E+00   0.0000000000E+00   0.5326238783E+02  -0.9949666330E-12   0.2657793153E+02  -0.2308116676E-13   0.0000000000E+00   0.0000000000E+00   0.4000000000E+00  -0.3984031936E+00  -0.3459866897E-15   0.0000000000E+00   0.0000000000E+00   0.0000000000E+00   0.4612661168E+02
   0.2800000000E+01   0.6015968064E+00   0.1000000000E+00  -0.4980039920E-01   0.7000000000E+00  -0.3486027944E+00   0.5326238783E+02   0.1299948170E-11   0.2657793153E+02   0.3366989251E-13   0.0000000000E+00   0.0000000000E+00   0.4000000000E+00  -0.3984031936E+00   0.5047116888E-15   0.0000000000E+00   0.0000000000E+00   0.0000000000E+00   0.4612661168E+02
   0.1400000000E+01   0.1203193613E+01   0.5000000000E-01  -0.9960079840E-01   0.3500000000E+00  -0.6972055888E+00   0.5326238783E+02   0.1515587217E-11   0.2657793153E+02  -0.2726438988E-13   0.0000000000E+00   0.0000000000E+00   0.4000000000E+00  -0.3984031936E+00  -0.4086932043E-15   0.0000000000E+00   0.0000000000E+00   0.0000000000E+00   0.4612661168E+02
   0.0000000000E+00   0.6015968064E+00   0.0000000000E+00  -0.4980039920E-01   0.0000000000E+00  -0.3486027944E+00   0.5326238783E+02   0.8275352050E-12   0.2657793153E+02   0.7972950489E-14   0.0000000000E+00   0.0000000000E+00   0.4000000000E+00  -0.3984031936E+00   0.1195145278E-15   0.0000000000E+00   0.0000000000E+00   0.0000000000E+00   0.4612661168E+02
   0.1400000000E+01   0.6015968064E+00   0.5000000000E-01  -0.4980039920E-01   0.3500000000E+00  -0.3486027944E+00   0.5326238783E+02   0.8275352050E-12   0.2657793153E+02   0.7972950489E-14   0.0000000000E+00   0.0000000000E+00   0.4000000000E+00  -0.3984031936E+00   0.1195145278E-15   0.0000000000E+00   0.0000000000E+00   0.0000000000E+00   0.4612661168E+02
           1           5           9           8
           5           2           6           9
           9           6           3           7
           8           9           7           4
 VARIABLES = X,Y,DU1,DU2,U1,U2,S11,S22,S33,S12,S13,S23,E11,E22,E12,E33,E13,E23,SMISES
 ZONE, T="0.9000D+01" F=FEPOINT, I=    9 J=    4
   0.0000000000E+00   0.0000000000E+00   0.0000000000E+00   0.0000000000E+00   0.0000000000E+00   0.0000000000E+00   0.5992018631E+02   0.1166978046E-12   0.2990017297E+02   0.2127936877E-14   0.0000000000E+00   0.0000000000E+00   0.4500000000E+00  -0.4482035928E+00   0.3189777378E-16   0.0000000000E+00   0.0000000000E+00   0.0000000000E+00   0.5189243814E+02
   0.2900000000E+01   0.0000000000E+00   0.1000000000E+00   0.0000000000E+00   0.8000000000E+00   0.0000000000E+00   0.5992018631E+02  -0.4670487765E-11   0.2990017297E+02  -0.1580230040E-13   0.0000000000E+00   0.0000000000E+00   0.4500000000E+00  -0.4482035928E+00  -0.2368764830E-15   0.0000000000E+00   0.0000000000E+00   0.0000000000E+00   0.5189243814E+02
   0.2900000000E+01   0.1103592814E+01   0.1000000000E+00  -0.9960079840E-01   0.8000000000E+00  -0.7968063872E+00   0.5992018631E+02   0.6330304250E-11   0.2990017297E+02  -0.4535312398E-13   0.0000000000E+00   0.0000000000E+00   0.4500000000E+00  -0.4482035928E+00  -0.6798433285E-15   0.0000000000E+00   0.0000000000E+00   0.0000000000E+00   0.5189243814E+02
   0.0000000000E+00   0.1103592814E+01   0.0000000000E+00  -0.9960079840E-01   0.0000000000E+00  -0.7968063872E+00   0.5992018631E+02   0.4660432708E-11   0.2990017297E+02   0.3613222545E-13   0.0000000000E+00   0.0000000000E+00   0.4500000000E+00  -0.4482035928E+00   0.5416220595E-15   0.0000000000E+00   0.0000000000E+00   0.0000000000E+00   0.5189243814E+02
   0.1450000000E+01   0.0000000000E+00   0.5000000000E-01   0.0000000000E+00   0.4000000000E+00   0.0000000000E+00   0.5992018631E+02   0.7705101996E-12   0.2990017297E+02   0.5513040844E-14   0.0000000000E+00   0.0000000000E+00   0.4500000000E+00  -0.4482035928E+00   0.8264048225E-16   0.0000000000E+00   0.0000000000E+00   0.0000000000E+00   0.5189243814E+02
   0.2900000000E+01   0.5517964072E+00   0.1000000000E+00  -0.4980039920E-01   0.8000000000E+00  -0.3984031936E+00   0.5992018631E+02   0.4201847916E-12   0.2990017297E+02  -0.2414555402E-13   0.0000000000E+00   0.0000000000E+00   0.4500000000E+00  -0.4482035928E+00  -0.3619418547E-15   0.0000000000E+00   0.0000000000E+00   0.0000000000E+00   0.5189243814E+02
   0.1450000000E+01   0.1103592814E+01   0.5000000000E-01  -0.9960079840E-01   0.4000000000E+00  -0.7968063872E+00   0.5992018631E+02  -0.1339295274E-11   0.2990017297E+02   0.4334127693E-15   0.0000000000E+00   0.0000000000E+00   0.4500000000E+00  -0.4482035928E+00   0.6496857411E-17   0.0000000000E+00   0.0000000000E+00   0.0000000000E+00   0.5189243814E+02
   0.0000000000E+00   0.5517964072E+00   0.0000000000E+00  -0.4980039920E-01   0.0000000000E+00  -0.3984031936E+00   0.5992018631E+02   0.1920554608E-11   0.2990017297E+02   0.1200944581E-13   0.0000000000E+00   0.0000000000E+00   0.4500000000E+00  -0.4482035928E+00   0.1800215927E-15   0.0000000000E+00   0.0000000000E+00   0.0000000000E+00   0.5189243814E+02
   0.1450000000E+01   0.5517964072E+00   0.5000000000E-01  -0.4980039920E-01   0.4000000000E+00  -0.3984031936E+00   0.5992018631E+02   0.1920554608E-11   0.2990017297E+02   0.1200944581E-13   0.0000000000E+00   0.0000000000E+00   0.4500000000E+00  -0.4482035928E+00   0.1800215927E-15   0.0000000000E+00   0.0000000000E+00   0.0000000000E+00   0.5189243814E+02
           1           5           9           8
           5           2           6           9
           9           6           3           7
           8           9           7           4
 VARIABLES = X,Y,DU1,DU2,U1,U2,S11,S22,S33,S12,S13,S23,E11,E22,E12,E33,E13,E23,SMISES
 ZONE, T="0.1000D+02" F=FEPOINT, I=    9 J=    4
   0.0000000000E+00   0.0000000000E+00   0.0000000000E+00   0.0000000000E+00   0.0000000000E+00   0.0000000000E+00   0.6657798479E+02   0.1614227851E-11   0.3322241441E+02  -0.2699741339E-15   0.0000000000E+00   0.0000000000E+00   0.5000000000E+00  -0.4980039920E+00  -0.4046912266E-17   0.0000000000E+00   0.0000000000E+00   0.0000000000E+00   0.5765826460E+02
   0.3000000000E+01   0.0000000000E+00   0.1000000000E+00   0.0000000000E+00   0.9000000000E+00   0.0000000000E+00   0.6657798479E+02  -0.1876847413E-11   0.3322241441E+02  -0.2032911928E-13   0.0000000000E+00   0.0000000000E+00   0.5000000000E+00  -0.4980039920E+00  -0.3047334980E-15   0.0000000000E+00   0.0000000000E+00   0.0000000000E+00   0.5765826460E+02
   0.3000000000E+01   0.1003992016E+01   0.1000000000E+00  -0.9960079840E-01   0.9000000000E+00  -0.8964071856E+00   0.6657798479E+02  -0.2210941202E-11   0.3322241441E+02   0.4462892543E-13   0.0000000000E+00   0.0000000000E+00   0.5000000000E+00  -0.4980039920E+00   0.6689875922E-15   0.0000000000E+00   0.0000000000E+00   0.0000000000E+00   0.5765826460E+02
   0.0000000000E+00   0.1003992016E+01   0.0000000000E+00  -0.9960079840E-01   0.0000000000E+00  -0.8964071856E+00   0.6657798479E+02   0.8464069340E-12   0.3322241441E+02  -0.3630083109E-13   0.0000000000E+00   0.0000000000E+00   0.5000000000E+00  -0.4980039920E+00  -0.5441494581E-15   0.0000000000E+00   0.0000000000E+00   0.0000000000E+00   0.5765826460E+02
   0.1500000000E+01   0.0000000000E+00   0.5000000000E-01   0.0000000000E+00   0.4500000000E+00   0.0000000000E+00   0.6657798479E+02  -0.2903689101E-12   0.3322241441E+02  -0.7121000345E-13   0.0000000000E+00   0.0000000000E+00   0.5000000000E+00  -0.4980039920E+00  -0.1067437952E-14   0.0000000000E+00   0.0000000000E+00   0.0000000000E+00   0.5765826460E+02
   0.3000000000E+01   0.5019960080E+00   0.1000000000E+00  -0.4980039920E-01   0.9000000000E+00  -0.4482035928E+00   0.6657798479E+02  -0.1760161245E-11   0.3322241441E+02   0.9085030083E-13   0.0000000000E+00   0.0000000000E+00   0.5000000000E+00  -0.4980039920E+00   0.1361846009E-14   0.0000000000E+00   0.0000000000E+00   0.0000000000E+00   0.5765826460E+02
   0.1500000000E+01   0.1003992016E+01   0.5000000000E-01  -0.9960079840E-01   0.4500000000E+00  -0.8964071856E+00   0.6657798479E+02   0.1116550283E-11   0.3322241441E+02  -0.7509442492E-13   0.0000000000E+00   0.0000000000E+00   0.5000000000E+00  -0.4980039920E+00  -0.1125665430E-14   0.0000000000E+00   0.0000000000E+00   0.0000000000E+00   0.5765826460E+02
   0.0000000000E+00   0.5019960080E+00   0.0000000000E+00  -0.4980039920E-01   0.0000000000E+00  -0.4482035928E+00   0.6657798479E+02  -0.4438260908E-12   0.3322241441E+02   0.4991447458E-13   0.0000000000E+00   0.0000000000E+00   0.5000000000E+00  -0.4980039920E+00   0.7482179740E-15   0.0000000000E+00   0.0000000000E+00   0.0000000000E+00   0.5765826460E+02
   0.1500000000E+01   0.5019960080E+00   0.5000000000E-01  -0.4980039920E-01   0.4500000000E+00  -0.4482035928E+00   0.6657798479E+02  -0.4438260908E-12   0.3322241441E+02   0.4991447458E-13   0.0000000000E+00   0.0000000000E+00   0.5000000000E+00  -0.4980039920E+00   0.7482179740E-15   0.0000000000E+00   0.0000000000E+00   0.0000000000E+00   0.5765826460E+02
           1           5           9           8
           5           2           6           9
           9           6           3           7
           8           9           7           4
