 VARIABLES = X,Y,DU1,DU2,U1,U2,S11,S22,S33,S12,S13,S23,E11,E22,E12,E33,E13,E23,SMISES
 ZONE, T="0.1000D+01" F=FEPOINT, I=    9 J=    4
   0.0000000000E+00   0.0000000000E+00   0.0000000000E+00   0.0000000000E+00   0.0000000000E+00   0.0000000000E+00   0.5000000000E+01   0.5323784585E-15   0.0000000000E+00   0.1120230375E-15   0.0000000000E+00   0.0000000000E+00   0.5000000000E-01  -0.2495000000E-01   0.3358450666E-17  -0.2495000000E-01   0.0000000000E+00   0.0000000000E+00   0.5000000000E+01
   0.2100000000E+01   0.0000000000E+00   0.1000000000E+00   0.0000000000E+00   0.0000000000E+00   0.0000000000E+00   0.5000000000E+01   0.1459701256E-14   0.0000000000E+00  -0.1729407870E-15   0.0000000000E+00   0.0000000000E+00   0.5000000000E-01  -0.2495000000E-01  -0.5184764794E-17  -0.2495000000E-01   0.0000000000E+00   0.0000000000E+00   0.5000000000E+01
   0.2100000000E+01   0.1950100000E+01   0.1000000000E+00  -0.4990000000E-01   0.0000000000E+00   0.0000000000E+00   0.5000000000E+01  -0.2398821287E-15   0.0000000000E+00   0.1145482094E-14   0.0000000000E+00   0.0000000000E+00   0.5000000000E-01  -0.2495000000E-01   0.3434155318E-16  -0.2495000000E-01   0.0000000000E+00   0.0000000000E+00   0.5000000000E+01
   0.0000000000E+00   0.1950100000E+01   0.0000000000E+00  -0.4990000000E-01   0.0000000000E+00   0.0000000000E+00   0.5000000000E+01   0.2712431848E-14   0.0000000000E+00  -0.4601920816E-15   0.0000000000E+00   0.0000000000E+00   0.5000000000E-01  -0.2495000000E-01  -0.1379655861E-16  -0.2495000000E-01   0.0000000000E+00   0.0000000000E+00   0.5000000000E+01
   0.1050000000E+01   0.0000000000E+00   0.5000000000E-01   0.0000000000E+00   0.0000000000E+00   0.0000000000E+00   0.5000000000E+01   0.5042358140E-15   0.0000000000E+00  -0.1245291433E-15   0.0000000000E+00   0.0000000000E+00   0.5000000000E-01  -0.2495000000E-01  -0.3733383717E-17  -0.2495000000E-01   0.0000000000E+00   0.0000000000E+00   0.5000000000E+01
   0.2100000000E+01   0.9750500000E+00   0.1000000000E+00  -0.2495000000E-01   0.0000000000E+00   0.0000000000E+00   0.5000000000E+01   0.2637055439E-14   0.0000000000E+00   0.1741193734E-15   0.0000000000E+00   0.0000000000E+00   0.5000000000E-01  -0.2495000000E-01   0.5220098814E-17  -0.2495000000E-01   0.0000000000E+00   0.0000000000E+00   0.5000000000E+01
   0.1050000000E+01   0.1950100000E+01   0.5000000000E-01  -0.4990000000E-01   0.0000000000E+00   0.0000000000E+00   0.5000000000E+01  -0.6885876619E-15   0.0000000000E+00   0.1742725081E-15   0.0000000000E+00   0.0000000000E+00   0.5000000000E-01  -0.2495000000E-01   0.5224689793E-17  -0.2495000000E-01   0.0000000000E+00   0.0000000000E+00   0.5000000000E+01
   0.0000000000E+00   0.9750500000E+00   0.0000000000E+00  -0.2495000000E-01   0.0000000000E+00   0.0000000000E+00   0.5000000000E+01   0.2284534241E-15   0.0000000000E+00  -0.4234839295E-15   0.0000000000E+00   0.0000000000E+00   0.5000000000E-01  -0.2495000000E-01  -0.1269604821E-16  -0.2495000000E-01   0.0000000000E+00   0.0000000000E+00   0.5000000000E+01
   0.1050000000E+01   0.9750500000E+00   0.5000000000E-01  -0.2495000000E-01   0.0000000000E+00   0.0000000000E+00   0.5000000000E+01   0.2284534241E-15   0.0000000000E+00  -0.4234839295E-15   0.0000000000E+00   0.0000000000E+00   0.5000000000E-01  -0.2495000000E-01  -0.1269604821E-16  -0.2495000000E-01   0.0000000000E+00   0.0000000000E+00   0.5000000000E+01
           1           5           9           8
           5           2           6           9
           9           6           3           7
           8           9           7           4
 VARIABLES = X,Y,DU1,DU2,U1,U2,S11,S22,S33,S12,S13,S23,E11,E22,E12,E33,E13,E23,SMISES
 ZONE, T="0.2000D+01" F=FEPOINT, I=    9 J=    4
   0.0000000000E+00   0.0000000000E+00   0.0000000000E+00   0.0000000000E+00   0.0000000000E+00   0.0000000000E+00   0.1000000000E+02   0.3676228933E-15   0.0000000000E+00  -0.2878334771E-15   0.0000000000E+00   0.0000000000E+00   0.1000000000E+00  -0.4990000000E-01  -0.8629247644E-17  -0.4990000000E-01   0.0000000000E+00   0.0000000000E+00   0.1000000000E+02
   0.2200000000E+01   0.0000000000E+00   0.1000000000E+00   0.0000000000E+00   0.1000000000E+00   0.0000000000E+00   0.1000000000E+02  -0.2156271304E-14   0.0000000000E+00  -0.1419534885E-14   0.0000000000E+00   0.0000000000E+00   0.1000000000E+00  -0.4990000000E-01  -0.4255765586E-16  -0.4990000000E-01   0.0000000000E+00   0.0000000000E+00   0.1000000000E+02
   0.2200000000E+01   0.1900200000E+01   0.1000000000E+00  -0.4990000000E-01   0.1000000000E+00  -0.4990000000E-01   0.1000000000E+02   0.2907609987E-14   0.0000000000E+00  -0.2341918536E-14   0.0000000000E+00   0.0000000000E+00   0.1000000000E+00  -0.4990000000E-01  -0.7021071771E-16  -0.4990000000E-01   0.0000000000E+00   0.0000000000E+00   0.1000000000E+02
   0.0000000000E+00   0.1900200000E+01   0.0000000000E+00  -0.4990000000E-01   0.0000000000E+00  -0.4990000000E-01   0.1000000000E+02   0.3653412621E-14   0.0000000000E+00  -0.2243038851E-14   0.0000000000E+00   0.0000000000E+00   0.1000000000E+00  -0.4990000000E-01  -0.6724630474E-16  -0.4990000000E-01   0.0000000000E+00   0.0000000000E+00   0.1000000000E+02
   0.1100000000E+01   0.0000000000E+00   0.5000000000E-01   0.0000000000E+00   0.5000000000E-01   0.0000000000E+00   0.1000000000E+02  -0.1303967871E-15   0.0000000000E+00   0.1159977118E-14   0.0000000000E+00   0.0000000000E+00   0.1000000000E+00  -0.4990000000E-01   0.3477611400E-16  -0.4990000000E-01   0.0000000000E+00   0.0000000000E+00   0.1000000000E+02
   0.2200000000E+01   0.9501000000E+00   0.1000000000E+00  -0.2495000000E-01   0.1000000000E+00  -0.2495000000E-01   0.1000000000E+02   0.1062146749E-14   0.0000000000E+00  -0.1209334964E-14   0.0000000000E+00   0.0000000000E+00   0.1000000000E+00  -0.4990000000E-01  -0.3625586221E-16  -0.4990000000E-01   0.0000000000E+00   0.0000000000E+00   0.1000000000E+02
   0.1100000000E+01   0.1900200000E+01   0.5000000000E-01  -0.4990000000E-01   0.5000000000E-01  -0.4990000000E-01   0.1000000000E+02   0.1062146749E-14   0.0000000000E+00  -0.1828039396E-14   0.0000000000E+00   0.0000000000E+00   0.1000000000E+00  -0.4990000000E-01  -0.5480462110E-16  -0.4990000000E-01   0.0000000000E+00   0.0000000000E+00   0.1000000000E+02
   0.0000000000E+00   0.9501000000E+00   0.0000000000E+00  -0.2495000000E-01   0.0000000000E+00  -0.2495000000E-01   0.1000000000E+02  -0.1303967871E-15   0.0000000000E+00  -0.1059934138E-14   0.0000000000E+00   0.0000000000E+00   0.1000000000E+00  -0.4990000000E-01  -0.3177682545E-16  -0.4990000000E-01   0.0000000000E+00   0.0000000000E+00   0.1000000000E+02
   0.1100000000E+01   0.9501000000E+00   0.5000000000E-01  -0.2495000000E-01   0.5000000000E-01  -0.2495000000E-01   0.1000000000E+02  -0.1303967871E-15   0.0000000000E+00  -0.1059934138E-14   0.0000000000E+00   0.0000000000E+00   0.1000000000E+00  -0.4990000000E-01  -0.3177682545E-16  -0.4990000000E-01   0.0000000000E+00   0.0000000000E+00   0.1000000000E+02
           1           5           9           8
           5           2           6           9
           9           6           3           7
           8           9           7           4
 VARIABLES = X,Y,DU1,DU2,U1,U2,S11,S22,S33,S12,S13,S23,E11,E22,E12,E33,E13,E23,SMISES
 ZONE, T="0.3000D+01" F=FEPOINT, I=    9 J=    4
   0.0000000000E+00   0.0000000000E+00   0.0000000000E+00   0.0000000000E+00   0.0000000000E+00   0.0000000000E+00   0.1500000000E+02  -0.2163001978E-14   0.0000000000E+00  -0.4774878756E-15   0.0000000000E+00   0.0000000000E+00   0.1500000000E+00  -0.7485000000E-01  -0.1431508651E-16  -0.7485000000E-01   0.0000000000E+00   0.0000000000E+00   0.1500000000E+02
   0.2300000000E+01   0.0000000000E+00   0.1000000000E+00   0.0000000000E+00   0.2000000000E+00   0.0000000000E+00   0.1500000000E+02  -0.5374927739E-15   0.0000000000E+00  -0.1876354904E-14   0.0000000000E+00   0.0000000000E+00   0.1500000000E+00  -0.7485000000E-01  -0.5625312003E-16  -0.7485000000E-01   0.0000000000E+00   0.0000000000E+00   0.1500000000E+02
   0.2300000000E+01   0.1850300000E+01   0.1000000000E+00  -0.4990000000E-01   0.2000000000E+00  -0.9980000000E-01   0.1500000000E+02   0.8970763637E-14   0.0000000000E+00  -0.1435833138E-14   0.0000000000E+00   0.0000000000E+00   0.1500000000E+00  -0.7485000000E-01  -0.4304627748E-16  -0.7485000000E-01   0.0000000000E+00   0.0000000000E+00   0.1500000000E+02
   0.0000000000E+00   0.1850300000E+01   0.0000000000E+00  -0.4990000000E-01   0.0000000000E+00  -0.9980000000E-01   0.1500000000E+02   0.7106729955E-14   0.0000000000E+00   0.5113591714E-15   0.0000000000E+00   0.0000000000E+00   0.1500000000E+00  -0.7485000000E-01   0.1533054796E-16  -0.7485000000E-01   0.0000000000E+00   0.0000000000E+00   0.1500000000E+02
   0.1150000000E+01   0.0000000000E+00   0.5000000000E-01   0.0000000000E+00   0.1000000000E+00   0.0000000000E+00   0.1500000000E+02   0.3340107205E-17   0.0000000000E+00  -0.2728623106E-15   0.0000000000E+00   0.0000000000E+00   0.1500000000E+00  -0.7485000000E-01  -0.8180412071E-17  -0.7485000000E-01   0.0000000000E+00   0.0000000000E+00   0.1500000000E+02
   0.2300000000E+01   0.9251500000E+00   0.1000000000E+00  -0.2495000000E-01   0.2000000000E+00  -0.4990000000E-01   0.1500000000E+02   0.5777280082E-15   0.0000000000E+00  -0.6707328177E-15   0.0000000000E+00   0.0000000000E+00   0.1500000000E+00  -0.7485000000E-01  -0.2010856988E-16  -0.7485000000E-01   0.0000000000E+00   0.0000000000E+00   0.1500000000E+02
   0.1150000000E+01   0.1850300000E+01   0.5000000000E-01  -0.4990000000E-01   0.1000000000E+00  -0.9980000000E-01   0.1500000000E+02  -0.2382866724E-14   0.0000000000E+00  -0.8704656135E-15   0.0000000000E+00   0.0000000000E+00   0.1500000000E+00  -0.7485000000E-01  -0.2609655909E-16  -0.7485000000E-01   0.0000000000E+00   0.0000000000E+00   0.1500000000E+02
   0.0000000000E+00   0.9251500000E+00   0.0000000000E+00  -0.2495000000E-01   0.0000000000E+00  -0.4990000000E-01   0.1500000000E+02   0.2963934840E-14   0.0000000000E+00  -0.5213319920E-15   0.0000000000E+00   0.0000000000E+00   0.1500000000E+00  -0.7485000000E-01  -0.1562953312E-16  -0.7485000000E-01   0.0000000000E+00   0.0000000000E+00   0.1500000000E+02
   0.1150000000E+01   0.9251500000E+00   0.5000000000E-01  -0.2495000000E-01   0.1000000000E+00  -0.4990000000E-01   0.1500000000E+02   0.2963934840E-14   0.0000000000E+00  -0.5213319920E-15   0.0000000000E+00   0.0000000000E+00   0.1500000000E+00  -0.7485000000E-01  -0.1562953312E-16  -0.7485000000E-01   0.0000000000E+00   0.0000000000E+00   0.1500000000E+02
           1           5           9           8
           5           2           6           9
           9           6           3           7
           8           9           7           4
 VARIABLES = X,Y,DU1,DU2,U1,U2,S11,S22,S33,S12,S13,S23,E11,E22,E12,E33,E13,E23,SMISES
 ZONE, T="0.4000D+01" F=FEPOINT, I=    9 J=    4
   0.0000000000E+00   0.0000000000E+00   0.0000000000E+00   0.0000000000E+00   0.0000000000E+00   0.0000000000E+00   0.2000000000E+02  -0.5846263698E-14   0.0000000000E+00   0.8635252017E-15   0.0000000000E+00   0.0000000000E+00   0.2000000000E+00  -0.9980000000E-01   0.2588848555E-16  -0.9980000000E-01   0.0000000000E+00   0.0000000000E+00   0.2000000000E+02
   0.2400000000E+01   0.0000000000E+00   0.1000000000E+00   0.0000000000E+00   0.3000000000E+00   0.0000000000E+00   0.2000000000E+02   0.9635309989E-15   0.0000000000E+00  -0.2415377844E-14   0.0000000000E+00   0.0000000000E+00   0.2000000000E+00  -0.9980000000E-01  -0.7241302775E-16  -0.9980000000E-01   0.0000000000E+00   0.0000000000E+00   0.2000000000E+02
   0.2400000000E+01   0.1800400000E+01   0.1000000000E+00  -0.4990000000E-01   0.3000000000E+00  -0.1497000000E+00   0.2000000000E+02  -0.8046590504E-14   0.0000000000E+00  -0.8660394453E-14   0.0000000000E+00   0.0000000000E+00   0.2000000000E+00  -0.9980000000E-01  -0.2596386257E-15  -0.9980000000E-01   0.0000000000E+00   0.0000000000E+00   0.2000000000E+02
   0.0000000000E+00   0.1800400000E+01   0.0000000000E+00  -0.4990000000E-01   0.0000000000E+00  -0.1497000000E+00   0.2000000000E+02   0.3502771586E-14   0.0000000000E+00  -0.1323309845E-14   0.0000000000E+00   0.0000000000E+00   0.2000000000E+00  -0.9980000000E-01  -0.3967282915E-16  -0.9980000000E-01   0.0000000000E+00   0.0000000000E+00   0.2000000000E+02
   0.1200000000E+01   0.0000000000E+00   0.5000000000E-01   0.0000000000E+00   0.1500000000E+00   0.0000000000E+00   0.2000000000E+02   0.9097320608E-15   0.0000000000E+00  -0.2418284358E-15   0.0000000000E+00   0.0000000000E+00   0.2000000000E+00  -0.9980000000E-01  -0.7250016507E-17  -0.9980000000E-01   0.0000000000E+00   0.0000000000E+00   0.2000000000E+02
   0.2400000000E+01   0.9002000000E+00   0.1000000000E+00  -0.2495000000E-01   0.3000000000E+00  -0.7485000000E-01   0.2000000000E+02  -0.1730721229E-14   0.0000000000E+00   0.1105823310E-14   0.0000000000E+00   0.0000000000E+00   0.2000000000E+00  -0.9980000000E-01   0.3315258284E-16  -0.9980000000E-01   0.0000000000E+00   0.0000000000E+00   0.2000000000E+02
   0.1200000000E+01   0.1800400000E+01   0.5000000000E-01  -0.4990000000E-01   0.1500000000E+00  -0.1497000000E+00   0.2000000000E+02   0.1002672073E-14   0.0000000000E+00  -0.3229844950E-14   0.0000000000E+00   0.0000000000E+00   0.2000000000E+00  -0.9980000000E-01  -0.9683075161E-16  -0.9980000000E-01   0.0000000000E+00   0.0000000000E+00   0.2000000000E+02
   0.0000000000E+00   0.9002000000E+00   0.0000000000E+00  -0.2495000000E-01   0.0000000000E+00  -0.7485000000E-01   0.2000000000E+02   0.5625455901E-15   0.0000000000E+00  -0.8363874240E-15   0.0000000000E+00   0.0000000000E+00   0.2000000000E+00  -0.9980000000E-01  -0.2507489497E-16  -0.9980000000E-01   0.0000000000E+00   0.0000000000E+00   0.2000000000E+02
   0.1200000000E+01   0.9002000000E+00   0.5000000000E-01  -0.2495000000E-01   0.1500000000E+00  -0.7485000000E-01   0.2000000000E+02   0.5625455901E-15   0.0000000000E+00  -0.8363874240E-15   0.0000000000E+00   0.0000000000E+00   0.2000000000E+00  -0.9980000000E-01  -0.2507489497E-16  -0.9980000000E-01   0.0000000000E+00   0.0000000000E+00   0.2000000000E+02
           1           5           9           8
           5           2           6           9
           9           6           3           7
           8           9           7           4
 VARIABLES = X,Y,DU1,DU2,U1,U2,S11,S22,S33,S12,S13,S23,E11,E22,E12,E33,E13,E23,SMISES
 ZONE, T="0.5000D+01" F=FEPOINT, I=    9 J=    4
   0.0000000000E+00   0.0000000000E+00   0.0000000000E+00   0.0000000000E+00   0.0000000000E+00   0.0000000000E+00   0.2500000000E+02   0.2476110539E-14   0.0000000000E+00  -0.3954652135E-15   0.0000000000E+00   0.0000000000E+00   0.2500000000E+00  -0.1247500000E+00  -0.1185604710E-16  -0.1247500000E+00   0.0000000000E+00   0.0000000000E+00   0.2500000000E+02
   0.2500000000E+01   0.0000000000E+00   0.1000000000E+00   0.0000000000E+00   0.4000000000E+00   0.0000000000E+00   0.2500000000E+02  -0.3852939203E-14   0.0000000000E+00  -0.3961119105E-14   0.0000000000E+00   0.0000000000E+00   0.2500000000E+00  -0.1247500000E+00  -0.1187543508E-15  -0.1247500000E+00   0.0000000000E+00   0.0000000000E+00   0.2500000000E+02
   0.2500000000E+01   0.1750500000E+01   0.1000000000E+00  -0.4990000000E-01   0.4000000000E+00  -0.1996000000E+00   0.2500000000E+02   0.4857465080E-14   0.0000000000E+00   0.1372961284E-14   0.0000000000E+00   0.0000000000E+00   0.2500000000E+00  -0.1247500000E+00   0.4116137929E-16  -0.1247500000E+00   0.0000000000E+00   0.0000000000E+00   0.2500000000E+02
   0.0000000000E+00   0.1750500000E+01   0.0000000000E+00  -0.4990000000E-01   0.0000000000E+00  -0.1996000000E+00   0.2500000000E+02   0.1094654474E-13   0.0000000000E+00  -0.7534999116E-15   0.0000000000E+00   0.0000000000E+00   0.2500000000E+00  -0.1247500000E+00  -0.2258992735E-16  -0.1247500000E+00   0.0000000000E+00   0.0000000000E+00   0.2500000000E+02
   0.1250000000E+01   0.0000000000E+00   0.5000000000E-01   0.0000000000E+00   0.2000000000E+00   0.0000000000E+00   0.2500000000E+02   0.7664125125E-14   0.0000000000E+00  -0.4675696378E-15   0.0000000000E+00   0.0000000000E+00   0.2500000000E+00  -0.1247500000E+00  -0.1401773774E-16  -0.1247500000E+00   0.0000000000E+00   0.0000000000E+00   0.2500000000E+02
   0.2500000000E+01   0.8752500000E+00   0.1000000000E+00  -0.2495000000E-01   0.4000000000E+00  -0.9980000000E-01   0.2500000000E+02   0.5189568639E-16   0.0000000000E+00   0.3866722877E-15   0.0000000000E+00   0.0000000000E+00   0.2500000000E+00  -0.1247500000E+00   0.1159243519E-16  -0.1247500000E+00   0.0000000000E+00   0.0000000000E+00   0.2500000000E+02
   0.1250000000E+01   0.1750500000E+01   0.5000000000E-01  -0.4990000000E-01   0.2000000000E+00  -0.1996000000E+00   0.2500000000E+02   0.5088639091E-15   0.0000000000E+00   0.1026438619E-14   0.0000000000E+00   0.0000000000E+00   0.2500000000E+00  -0.1247500000E+00   0.3077262981E-16  -0.1247500000E+00   0.0000000000E+00   0.0000000000E+00   0.2500000000E+02
   0.0000000000E+00   0.8752500000E+00   0.0000000000E+00  -0.2495000000E-01   0.0000000000E+00  -0.9980000000E-01   0.2500000000E+02   0.2436982759E-14   0.0000000000E+00  -0.2750745052E-14   0.0000000000E+00   0.0000000000E+00   0.2500000000E+00  -0.1247500000E+00  -0.8246733667E-16  -0.1247500000E+00   0.0000000000E+00   0.0000000000E+00   0.2500000000E+02
   0.1250000000E+01   0.8752500000E+00   0.5000000000E-01  -0.2495000000E-01   0.2000000000E+00  -0.9980000000E-01   0.2500000000E+02   0.2436982759E-14   0.0000000000E+00  -0.2750745052E-14   0.0000000000E+00   0.0000000000E+00   0.2500000000E+00  -0.1247500000E+00  -0.8246733667E-16  -0.1247500000E+00   0.0000000000E+00   0.0000000000E+00   0.2500000000E+02
           1           5           9           8
           5           2           6           9
           9           6           3           7
           8           9           7           4
 VARIABLES = X,Y,DU1,DU2,U1,U2,S11,S22,S33,S12,S13,S23,E11,E22,E12,E33,E13,E23,SMISES
 ZONE, T="0.6000D+01" F=FEPOINT, I=    9 J=    4
   0.0000000000E+00   0.0000000000E+00   0.0000000000E+00   0.0000000000E+00   0.0000000000E+00   0.0000000000E+00   0.3000000000E+02   0.3928261271E-14   0.0000000000E+00   0.3740454383E-15   0.0000000000E+00   0.0000000000E+00   0.3000000000E+00  -0.1497000000E+00   0.1121388224E-16  -0.1497000000E+00   0.0000000000E+00   0.0000000000E+00   0.3000000000E+02
   0.2600000000E+01   0.0000000000E+00   0.1000000000E+00   0.0000000000E+00   0.5000000000E+00   0.0000000000E+00   0.3000000000E+02   0.2506896586E-14   0.0000000000E+00  -0.1053628985E-14   0.0000000000E+00   0.0000000000E+00   0.3000000000E+00  -0.1497000000E+00  -0.3158779696E-16  -0.1497000000E+00   0.0000000000E+00   0.0000000000E+00   0.3000000000E+02
   0.2600000000E+01   0.1700600000E+01   0.1000000000E+00  -0.4990000000E-01   0.5000000000E+00  -0.2495000000E+00   0.3000000000E+02  -0.1572742370E-14   0.0000000000E+00  -0.1729426514E-14   0.0000000000E+00   0.0000000000E+00   0.3000000000E+00  -0.1497000000E+00  -0.5184820690E-16  -0.1497000000E+00   0.0000000000E+00   0.0000000000E+00   0.3000000000E+02
   0.0000000000E+00   0.1700600000E+01   0.0000000000E+00  -0.4990000000E-01   0.0000000000E+00  -0.2495000000E+00   0.3000000000E+02   0.6723909691E-14   0.0000000000E+00  -0.1519679803E-14   0.0000000000E+00   0.0000000000E+00   0.3000000000E+00  -0.1497000000E+00  -0.4556000048E-16  -0.1497000000E+00   0.0000000000E+00   0.0000000000E+00   0.3000000000E+02
   0.1300000000E+01   0.0000000000E+00   0.5000000000E-01   0.0000000000E+00   0.2500000000E+00   0.0000000000E+00   0.3000000000E+02   0.4117797412E-14   0.0000000000E+00  -0.6771360331E-15   0.0000000000E+00   0.0000000000E+00   0.3000000000E+00  -0.1497000000E+00  -0.2030053827E-16  -0.1497000000E+00   0.0000000000E+00   0.0000000000E+00   0.3000000000E+02
   0.2600000000E+01   0.8503000000E+00   0.1000000000E+00  -0.2495000000E-01   0.5000000000E+00  -0.1247500000E+00   0.3000000000E+02   0.8466926331E-14   0.0000000000E+00   0.1518536948E-14   0.0000000000E+00   0.0000000000E+00   0.3000000000E+00  -0.1497000000E+00   0.4552573769E-16  -0.1497000000E+00   0.0000000000E+00   0.0000000000E+00   0.3000000000E+02
   0.1300000000E+01   0.1700600000E+01   0.5000000000E-01  -0.4990000000E-01   0.2500000000E+00  -0.2495000000E+00   0.3000000000E+02  -0.6523767320E-15   0.0000000000E+00  -0.9759376845E-15   0.0000000000E+00   0.0000000000E+00   0.3000000000E+00  -0.1497000000E+00  -0.2925861178E-16  -0.1497000000E+00   0.0000000000E+00   0.0000000000E+00   0.3000000000E+02
   0.0000000000E+00   0.8503000000E+00   0.0000000000E+00  -0.2495000000E-01   0.0000000000E+00  -0.1247500000E+00   0.3000000000E+02  -0.5478554606E-14   0.0000000000E+00   0.4727311675E-15   0.0000000000E+00   0.0000000000E+00   0.3000000000E+00  -0.1497000000E+00   0.1417248040E-16  -0.1497000000E+00   0.0000000000E+00   0.0000000000E+00   0.3000000000E+02
   0.1300000000E+01   0.8503000000E+00   0.5000000000E-01  -0.2495000000E-01   0.2500000000E+00  -0.1247500000E+00   0.3000000000E+02  -0.5478554606E-14   0.0000000000E+00   0.4727311675E-15   0.0000000000E+00   0.0000000000E+00   0.3000000000E+00  -0.1497000000E+00   0.1417248040E-16  -0.1497000000E+00   0.0000000000E+00   0.0000000000E+00   0.3000000000E+02
           1           5           9           8
           5           2           6           9
           9           6           3           7
           8           9           7           4
 VARIABLES = X,Y,DU1,DU2,U1,U2,S11,S22,S33,S12,S13,S23,E11,E22,E12,E33,E13,E23,SMISES
 ZONE, T="0.7000D+01" F=FEPOINT, I=    9 J=    4
   0.0000000000E+00   0.0000000000E+00   0.0000000000E+00   0.0000000000E+00   0.0000000000E+00   0.0000000000E+00   0.3500000000E+02   0.2303626246E-13   0.0000000000E+00   0.2943939543E-14   0.0000000000E+00   0.0000000000E+00   0.3500000000E+00  -0.1746500000E+00   0.8825930751E-16  -0.1746500000E+00   0.0000000000E+00   0.0000000000E+00   0.3500000000E+02
   0.2700000000E+01   0.0000000000E+00   0.1000000000E+00   0.0000000000E+00   0.6000000000E+00   0.0000000000E+00   0.3500000000E+02  -0.1920248163E-14   0.0000000000E+00   0.3121917961E-15   0.0000000000E+00   0.0000000000E+00   0.3500000000E+00  -0.1746500000E+00   0.9359510048E-17  -0.1746500000E+00   0.0000000000E+00   0.0000000000E+00   0.3500000000E+02
   0.2700000000E+01   0.1650700000E+01   0.1000000000E+00  -0.4990000000E-01   0.6000000000E+00  -0.2994000000E+00   0.3500000000E+02  -0.1690853382E-13   0.0000000000E+00  -0.1104927517E-13   0.0000000000E+00   0.0000000000E+00   0.3500000000E+00  -0.1746500000E+00  -0.3312572697E-15  -0.1746500000E+00   0.0000000000E+00   0.0000000000E+00   0.3500000000E+02
   0.0000000000E+00   0.1650700000E+01   0.0000000000E+00  -0.4990000000E-01   0.0000000000E+00  -0.2994000000E+00   0.3500000000E+02   0.1349211731E-13   0.0000000000E+00  -0.5209486671E-14   0.0000000000E+00   0.0000000000E+00   0.3500000000E+00  -0.1746500000E+00  -0.1561804104E-15  -0.1746500000E+00   0.0000000000E+00   0.0000000000E+00   0.3500000000E+02
   0.1350000000E+01   0.0000000000E+00   0.5000000000E-01   0.0000000000E+00   0.3000000000E+00   0.0000000000E+00   0.3500000000E+02   0.5235260053E-14   0.0000000000E+00  -0.2070372873E-14   0.0000000000E+00   0.0000000000E+00   0.3500000000E+00  -0.1746500000E+00  -0.6206977874E-16  -0.1746500000E+00   0.0000000000E+00   0.0000000000E+00   0.3500000000E+02
   0.2700000000E+01   0.8253500000E+00   0.1000000000E+00  -0.2495000000E-01   0.6000000000E+00  -0.1497000000E+00   0.3500000000E+02  -0.8988544648E-15   0.0000000000E+00   0.8371744683E-15   0.0000000000E+00   0.0000000000E+00   0.3500000000E+00  -0.1746500000E+00   0.2509849056E-16  -0.1746500000E+00   0.0000000000E+00   0.0000000000E+00   0.3500000000E+02
   0.1350000000E+01   0.1650700000E+01   0.5000000000E-01  -0.4990000000E-01   0.3000000000E+00  -0.2994000000E+00   0.3500000000E+02   0.5049380028E-14   0.0000000000E+00   0.1814048596E-14   0.0000000000E+00   0.0000000000E+00   0.3500000000E+00  -0.1746500000E+00   0.5438517690E-16  -0.1746500000E+00   0.0000000000E+00   0.0000000000E+00   0.3500000000E+02
   0.0000000000E+00   0.8253500000E+00   0.0000000000E+00  -0.2495000000E-01   0.0000000000E+00  -0.1497000000E+00   0.3500000000E+02  -0.8988544648E-15   0.0000000000E+00  -0.2300242872E-14   0.0000000000E+00   0.0000000000E+00   0.3500000000E+00  -0.1746500000E+00  -0.6896128130E-16  -0.1746500000E+00   0.0000000000E+00   0.0000000000E+00   0.3500000000E+02
   0.1350000000E+01   0.8253500000E+00   0.5000000000E-01  -0.2495000000E-01   0.3000000000E+00  -0.1497000000E+00   0.3500000000E+02  -0.8988544648E-15   0.0000000000E+00  -0.2300242872E-14   0.0000000000E+00   0.0000000000E+00   0.3500000000E+00  -0.1746500000E+00  -0.6896128130E-16  -0.1746500000E+00   0.0000000000E+00   0.0000000000E+00   0.3500000000E+02
           1           5           9           8
           5           2           6           9
           9           6           3           7
           8           9           7           4
 VARIABLES = X,Y,DU1,DU2,U1,U2,S11,S22,S33,S12,S13,S23,E11,E22,E12,E33,E13,E23,SMISES
 ZONE, T="0.8000D+01" F=FEPOINT, I=    9 J=    4
   0.0000000000E+00   0.0000000000E+00   0.0000000000E+00   0.0000000000E+00   0.0000000000E+00   0.0000000000E+00   0.4000000000E+02   0.1456372506E-14   0.0000000000E+00   0.1602358539E-14   0.0000000000E+00   0.0000000000E+00   0.4000000000E+00  -0.1996000000E+00   0.4803870900E-16  -0.1996000000E+00   0.0000000000E+00   0.0000000000E+00   0.4000000000E+02
   0.2800000000E+01   0.0000000000E+00   0.1000000000E+00   0.0000000000E+00   0.7000000000E+00   0.0000000000E+00   0.4000000000E+02  -0.8793254978E-14   0.0000000000E+00  -0.6518345152E-14   0.0000000000E+00   0.0000000000E+00   0.4000000000E+00  -0.1996000000E+00  -0.1954199877E-15  -0.1996000000E+00   0.0000000000E+00   0.0000000000E+00   0.4000000000E+02
   0.2800000000E+01   0.1600800000E+01   0.1000000000E+00  -0.4990000000E-01   0.7000000000E+00  -0.3493000000E+00   0.4000000000E+02  -0.6862691760E-14   0.0000000000E+00  -0.9377866576E-14   0.0000000000E+00   0.0000000000E+00   0.4000000000E+00  -0.1996000000E+00  -0.2811484400E-15  -0.1996000000E+00   0.0000000000E+00   0.0000000000E+00   0.4000000000E+02
   0.0000000000E+00   0.1600800000E+01   0.0000000000E+00  -0.4990000000E-01   0.0000000000E+00  -0.3493000000E+00   0.4000000000E+02   0.2258165099E-13   0.0000000000E+00  -0.7112391313E-15   0.0000000000E+00   0.0000000000E+00   0.4000000000E+00  -0.1996000000E+00  -0.2132294916E-16  -0.1996000000E+00   0.0000000000E+00   0.0000000000E+00   0.4000000000E+02
   0.1400000000E+01   0.0000000000E+00   0.5000000000E-01   0.0000000000E+00   0.3500000000E+00   0.0000000000E+00   0.4000000000E+02   0.3640583411E-14   0.0000000000E+00  -0.6215662262E-14   0.0000000000E+00   0.0000000000E+00   0.4000000000E+00  -0.1996000000E+00  -0.1863455546E-15  -0.1996000000E+00   0.0000000000E+00   0.0000000000E+00   0.4000000000E+02
   0.2800000000E+01   0.8004000000E+00   0.1000000000E+00  -0.2495000000E-01   0.7000000000E+00  -0.1746500000E+00   0.4000000000E+02  -0.2124010575E-14   0.0000000000E+00  -0.1632666896E-14   0.0000000000E+00   0.0000000000E+00   0.4000000000E+00  -0.1996000000E+00  -0.4894735356E-16  -0.1996000000E+00   0.0000000000E+00   0.0000000000E+00   0.4000000000E+02
   0.1400000000E+01   0.1600800000E+01   0.5000000000E-01  -0.4990000000E-01   0.3500000000E+00  -0.3493000000E+00   0.4000000000E+02   0.4010103943E-14   0.0000000000E+00   0.2150783978E-14   0.0000000000E+00   0.0000000000E+00   0.4000000000E+00  -0.1996000000E+00   0.6448050366E-16  -0.1996000000E+00   0.0000000000E+00   0.0000000000E+00   0.4000000000E+02
   0.0000000000E+00   0.8004000000E+00   0.0000000000E+00  -0.2495000000E-01   0.0000000000E+00  -0.1746500000E+00   0.4000000000E+02  -0.2307651082E-14   0.0000000000E+00  -0.7362619421E-15   0.0000000000E+00   0.0000000000E+00   0.4000000000E+00  -0.1996000000E+00  -0.2207313303E-16  -0.1996000000E+00   0.0000000000E+00   0.0000000000E+00   0.4000000000E+02
   0.1400000000E+01   0.8004000000E+00   0.5000000000E-01  -0.2495000000E-01   0.3500000000E+00  -0.1746500000E+00   0.4000000000E+02  -0.2307651082E-14   0.0000000000E+00  -0.7362619421E-15   0.0000000000E+00   0.0000000000E+00   0.4000000000E+00  -0.1996000000E+00  -0.2207313303E-16  -0.1996000000E+00   0.0000000000E+00   0.0000000000E+00   0.4000000000E+02
           1           5           9           8
           5           2           6           9
           9           6           3           7
           8           9           7           4
 VARIABLES = X,Y,DU1,DU2,U1,U2,S11,S22,S33,S12,S13,S23,E11,E22,E12,E33,E13,E23,SMISES
 ZONE, T="0.9000D+01" F=FEPOINT, I=    9 J=    4
   0.0000000000E+00   0.0000000000E+00   0.0000000000E+00   0.0000000000E+00   0.0000000000E+00   0.0000000000E+00   0.4500000000E+02  -0.5222751046E-14   0.0000000000E+00  -0.1736696615E-14   0.0000000000E+00   0.0000000000E+00   0.4500000000E+00  -0.2245500000E+00  -0.5206616451E-16  -0.2245500000E+00   0.0000000000E+00   0.0000000000E+00   0.4500000000E+02
   0.2900000000E+01   0.0000000000E+00   0.1000000000E+00   0.0000000000E+00   0.8000000000E+00   0.0000000000E+00   0.4500000000E+02  -0.1066282614E-13   0.0000000000E+00  -0.7256657120E-14   0.0000000000E+00   0.0000000000E+00   0.4500000000E+00  -0.2245500000E+00  -0.2175545804E-15  -0.2245500000E+00   0.0000000000E+00   0.0000000000E+00   0.4500000000E+02
   0.2900000000E+01   0.1550900000E+01   0.1000000000E+00  -0.4990000000E-01   0.8000000000E+00  -0.3992000000E+00   0.4500000000E+02  -0.2042634949E-14   0.0000000000E+00   0.5821425261E-14   0.0000000000E+00   0.0000000000E+00   0.4500000000E+00  -0.2245500000E+00   0.1745263293E-15  -0.2245500000E+00   0.0000000000E+00   0.0000000000E+00   0.4500000000E+02
   0.0000000000E+00   0.1550900000E+01   0.0000000000E+00  -0.4990000000E-01   0.0000000000E+00  -0.3992000000E+00   0.4500000000E+02   0.2187513637E-13   0.0000000000E+00   0.1207020233E-13   0.0000000000E+00   0.0000000000E+00   0.4500000000E+00  -0.2245500000E+00   0.3618646660E-15  -0.2245500000E+00   0.0000000000E+00   0.0000000000E+00   0.4500000000E+02
   0.1450000000E+01   0.0000000000E+00   0.5000000000E-01   0.0000000000E+00   0.4000000000E+00   0.0000000000E+00   0.4500000000E+02   0.7769963078E-14   0.0000000000E+00   0.2768175666E-15   0.0000000000E+00   0.0000000000E+00   0.4500000000E+00  -0.2245500000E+00   0.8298990646E-17  -0.2245500000E+00   0.0000000000E+00   0.0000000000E+00   0.4500000000E+02
   0.2900000000E+01   0.7754500000E+00   0.1000000000E+00  -0.2495000000E-01   0.8000000000E+00  -0.1996000000E+00   0.4500000000E+02   0.2305741836E-14   0.0000000000E+00   0.3185402208E-14   0.0000000000E+00   0.0000000000E+00   0.4500000000E+00  -0.2245500000E+00   0.9549835819E-16  -0.2245500000E+00   0.0000000000E+00   0.0000000000E+00   0.4500000000E+02
   0.1450000000E+01   0.1550900000E+01   0.5000000000E-01  -0.4990000000E-01   0.4000000000E+00  -0.3992000000E+00   0.4500000000E+02  -0.1586744703E-14   0.0000000000E+00  -0.2198408485E-16   0.0000000000E+00   0.0000000000E+00   0.4500000000E+00  -0.2245500000E+00  -0.6590828639E-18  -0.2245500000E+00   0.0000000000E+00   0.0000000000E+00   0.4500000000E+02
   0.0000000000E+00   0.7754500000E+00   0.0000000000E+00  -0.2495000000E-01   0.0000000000E+00  -0.1996000000E+00   0.4500000000E+02  -0.2280791801E-14   0.0000000000E+00   0.4798486769E-16   0.0000000000E+00   0.0000000000E+00   0.4500000000E+00  -0.2245500000E+00   0.1438586333E-17  -0.2245500000E+00   0.0000000000E+00   0.0000000000E+00   0.4500000000E+02
   0.1450000000E+01   0.7754500000E+00   0.5000000000E-01  -0.2495000000E-01   0.4000000000E+00  -0.1996000000E+00   0.4500000000E+02  -0.2280791801E-14   0.0000000000E+00   0.4798486769E-16   0.0000000000E+00   0.0000000000E+00   0.4500000000E+00  -0.2245500000E+00   0.1438586333E-17  -0.2245500000E+00   0.0000000000E+00   0.0000000000E+00   0.4500000000E+02
           1           5           9           8
           5           2           6           9
           9           6           3           7
           8           9           7           4
 VARIABLES = X,Y,DU1,DU2,U1,U2,S11,S22,S33,S12,S13,S23,E11,E22,E12,E33,E13,E23,SMISES
 ZONE, T="0.1000D+02" F=FEPOINT, I=    9 J=    4
   0.0000000000E+00   0.0000000000E+00   0.0000000000E+00   0.0000000000E+00   0.0000000000E+00   0.0000000000E+00   0.5000000000E+02  -0.3155235858E-14   0.0000000000E+00   0.2508497508E-14   0.0000000000E+00   0.0000000000E+00   0.5000000000E+00  -0.2495000000E+00   0.7520475528E-16  -0.2495000000E+00   0.0000000000E+00   0.0000000000E+00   0.5000000000E+02
   0.3000000000E+01   0.0000000000E+00   0.1000000000E+00   0.0000000000E+00   0.9000000000E+00   0.0000000000E+00   0.5000000000E+02  -0.1975434247E-13   0.0000000000E+00  -0.2382182017E-13   0.0000000000E+00   0.0000000000E+00   0.5000000000E+00  -0.2495000000E+00  -0.7141781687E-15  -0.2495000000E+00   0.0000000000E+00   0.0000000000E+00   0.5000000000E+02
   0.3000000000E+01   0.1501000000E+01   0.1000000000E+00  -0.4990000000E-01   0.9000000000E+00  -0.4491000000E+00   0.5000000000E+02   0.4798040406E-14   0.0000000000E+00  -0.3229859574E-14   0.0000000000E+00   0.0000000000E+00   0.5000000000E+00  -0.2495000000E+00  -0.9683119003E-16  -0.2495000000E+00   0.0000000000E+00   0.0000000000E+00   0.5000000000E+02
   0.0000000000E+00   0.1501000000E+01   0.0000000000E+00  -0.4990000000E-01   0.0000000000E+00  -0.4491000000E+00   0.5000000000E+02   0.1523887868E-13   0.0000000000E+00   0.3422504920E-14   0.0000000000E+00   0.0000000000E+00   0.5000000000E+00  -0.2495000000E+00   0.1026066975E-15  -0.2495000000E+00   0.0000000000E+00   0.0000000000E+00   0.5000000000E+02
   0.1500000000E+01   0.0000000000E+00   0.5000000000E-01   0.0000000000E+00   0.4500000000E+00   0.0000000000E+00   0.5000000000E+02   0.8237018058E-14   0.0000000000E+00   0.9812681522E-15   0.0000000000E+00   0.0000000000E+00   0.5000000000E+00  -0.2495000000E+00   0.2941841920E-16  -0.2495000000E+00   0.0000000000E+00   0.0000000000E+00   0.5000000000E+02
   0.3000000000E+01   0.7505000000E+00   0.1000000000E+00  -0.2495000000E-01   0.9000000000E+00  -0.2245500000E+00   0.5000000000E+02  -0.1592702827E-13   0.0000000000E+00  -0.4685360229E-14   0.0000000000E+00   0.0000000000E+00   0.5000000000E+00  -0.2495000000E+00  -0.1404670997E-15  -0.2495000000E+00   0.0000000000E+00   0.0000000000E+00   0.5000000000E+02
   0.1500000000E+01   0.1501000000E+01   0.5000000000E-01  -0.4990000000E-01   0.4500000000E+00  -0.4491000000E+00   0.5000000000E+02   0.1777736635E-13   0.0000000000E+00   0.1280069804E-14   0.0000000000E+00   0.0000000000E+00   0.5000000000E+00  -0.2495000000E+00   0.3837649271E-16  -0.2495000000E+00   0.0000000000E+00   0.0000000000E+00   0.5000000000E+02
   0.0000000000E+00   0.7505000000E+00   0.0000000000E+00  -0.2495000000E-01   0.0000000000E+00  -0.2245500000E+00   0.5000000000E+02  -0.6382200949E-14   0.0000000000E+00  -0.4685360229E-14   0.0000000000E+00   0.0000000000E+00   0.5000000000E+00  -0.2495000000E+00  -0.1404670997E-15  -0.2495000000E+00   0.0000000000E+00   0.0000000000E+00   0.5000000000E+02
   0.1500000000E+01   0.7505000000E+00   0.5000000000E-01  -0.2495000000E-01   0.4500000000E+00  -0.2245500000E+00   0.5000000000E+02  -0.6382200949E-14   0.0000000000E+00  -0.4685360229E-14   0.0000000000E+00   0.0000000000E+00   0.5000000000E+00  -0.2495000000E+00  -0.1404670997E-15  -0.2495000000E+00   0.0000000000E+00   0.0000000000E+00   0.5000000000E+02
           1           5           9           8
           5           2           6           9
           9           6           3           7
           8           9           7           4
