 VARIABLES = X,Y,DU1,DU2,U1,U2,S11,S22,S33,S12,S13,S23,E11,E22,E12,E33,E13,E23,SMISES
 ZONE, T="0.1000D+01" F=FEPOINT, I=    9 J=    4
   0.0000000000E+00   0.0000000000E+00   0.0000000000E+00   0.0000000000E+00   0.0000000000E+00   0.0000000000E+00   0.5000000000E+01  -0.1067826488E-14   0.0000000000E+00  -0.2192859220E-15   0.0000000000E+00   0.0000000000E+00   0.5000000000E-01  -0.2495000000E-01  -0.6574191941E-17  -0.2495000000E-01   0.0000000000E+00   0.0000000000E+00   0.5000000000E+01
   0.2100000000E+01   0.0000000000E+00   0.1000000000E+00   0.0000000000E+00   0.0000000000E+00   0.0000000000E+00   0.5000000000E+01   0.1169751691E-14   0.0000000000E+00  -0.2651652565E-15   0.0000000000E+00   0.0000000000E+00   0.5000000000E-01  -0.2495000000E-01  -0.7949654389E-17  -0.2495000000E-01   0.0000000000E+00   0.0000000000E+00   0.5000000000E+01
   0.2100000000E+01   0.1950100000E+01   0.1000000000E+00  -0.4990000000E-01   0.0000000000E+00   0.0000000000E+00   0.5000000000E+01  -0.1380612555E-14   0.0000000000E+00   0.8763930829E-15   0.0000000000E+00   0.0000000000E+00   0.5000000000E-01  -0.2495000000E-01   0.2627426463E-16  -0.2495000000E-01   0.0000000000E+00   0.0000000000E+00   0.5000000000E+01
   0.0000000000E+00   0.1950100000E+01   0.0000000000E+00  -0.4990000000E-01   0.0000000000E+00   0.0000000000E+00   0.5000000000E+01  -0.3647825593E-14   0.0000000000E+00   0.1153242876E-14   0.0000000000E+00   0.0000000000E+00   0.5000000000E-01  -0.2495000000E-01   0.3457422142E-16  -0.2495000000E-01   0.0000000000E+00   0.0000000000E+00   0.5000000000E+01
   0.1050000000E+01   0.0000000000E+00   0.5000000000E-01   0.0000000000E+00   0.0000000000E+00   0.0000000000E+00   0.5000000000E+01  -0.7237795429E-15   0.0000000000E+00   0.5952958143E-15   0.0000000000E+00   0.0000000000E+00   0.5000000000E-01  -0.2495000000E-01   0.1784696851E-16  -0.2495000000E-01   0.0000000000E+00   0.0000000000E+00   0.5000000000E+01
   0.2100000000E+01   0.9750500000E+00   0.1000000000E+00  -0.2495000000E-01   0.0000000000E+00   0.0000000000E+00   0.5000000000E+01  -0.7873004270E-15   0.0000000000E+00   0.3082602309E-15   0.0000000000E+00   0.0000000000E+00   0.5000000000E-01  -0.2495000000E-01   0.9241641722E-17  -0.2495000000E-01   0.0000000000E+00   0.0000000000E+00   0.5000000000E+01
   0.1050000000E+01   0.1950100000E+01   0.5000000000E-01  -0.4990000000E-01   0.0000000000E+00   0.0000000000E+00   0.5000000000E+01  -0.1320051311E-14   0.0000000000E+00   0.5952958143E-15   0.0000000000E+00   0.0000000000E+00   0.5000000000E-01  -0.2495000000E-01   0.1784696851E-16  -0.2495000000E-01   0.0000000000E+00   0.0000000000E+00   0.5000000000E+01
   0.0000000000E+00   0.9750500000E+00   0.0000000000E+00  -0.2495000000E-01   0.0000000000E+00   0.0000000000E+00   0.5000000000E+01  -0.2026313969E-14   0.0000000000E+00   0.1588594052E-15   0.0000000000E+00   0.0000000000E+00   0.5000000000E-01  -0.2495000000E-01   0.4762604967E-17  -0.2495000000E-01   0.0000000000E+00   0.0000000000E+00   0.5000000000E+01
   0.1050000000E+01   0.9750500000E+00   0.5000000000E-01  -0.2495000000E-01   0.0000000000E+00   0.0000000000E+00   0.5000000000E+01  -0.2026313969E-14   0.0000000000E+00   0.1588594052E-15   0.0000000000E+00   0.0000000000E+00   0.5000000000E-01  -0.2495000000E-01   0.4762604967E-17  -0.2495000000E-01   0.0000000000E+00   0.0000000000E+00   0.5000000000E+01
           1           5           9           8
           5           2           6           9
           9           6           3           7
           8           9           7           4
 VARIABLES = X,Y,DU1,DU2,U1,U2,S11,S22,S33,S12,S13,S23,E11,E22,E12,E33,E13,E23,SMISES
 ZONE, T="0.2000D+01" F=FEPOINT, I=    9 J=    4
   0.0000000000E+00   0.0000000000E+00   0.0000000000E+00   0.0000000000E+00   0.0000000000E+00   0.0000000000E+00   0.1000000000E+02  -0.4286352271E-15   0.0000000000E+00  -0.2512622279E-16   0.0000000000E+00   0.0000000000E+00   0.1000000000E+00  -0.4990000000E-01  -0.7532841593E-18  -0.4990000000E-01   0.0000000000E+00   0.0000000000E+00   0.1000000000E+02
   0.2200000000E+01   0.0000000000E+00   0.1000000000E+00   0.0000000000E+00   0.1000000000E+00   0.0000000000E+00   0.1000000000E+02   0.2139415166E-14   0.0000000000E+00  -0.1154093588E-14   0.0000000000E+00   0.0000000000E+00   0.1000000000E+00  -0.4990000000E-01  -0.3459972578E-16  -0.4990000000E-01   0.0000000000E+00   0.0000000000E+00   0.1000000000E+02
   0.2200000000E+01   0.1900200000E+01   0.1000000000E+00  -0.4990000000E-01   0.1000000000E+00  -0.4990000000E-01   0.1000000000E+02  -0.7496328612E-15   0.0000000000E+00  -0.7844345210E-15   0.0000000000E+00   0.0000000000E+00   0.1000000000E+00  -0.4990000000E-01  -0.2351734694E-16  -0.4990000000E-01   0.0000000000E+00   0.0000000000E+00   0.1000000000E+02
   0.0000000000E+00   0.1900200000E+01   0.0000000000E+00  -0.4990000000E-01   0.0000000000E+00  -0.4990000000E-01   0.1000000000E+02  -0.1836663087E-14   0.0000000000E+00   0.6618170340E-15   0.0000000000E+00   0.0000000000E+00   0.1000000000E+00  -0.4990000000E-01   0.1984127468E-16  -0.4990000000E-01   0.0000000000E+00   0.0000000000E+00   0.1000000000E+02
   0.1100000000E+01   0.0000000000E+00   0.5000000000E-01   0.0000000000E+00   0.5000000000E-01   0.0000000000E+00   0.1000000000E+02   0.4973577283E-15   0.0000000000E+00   0.5206511789E-15   0.0000000000E+00   0.0000000000E+00   0.1000000000E+00  -0.4990000000E-01   0.1560912234E-16  -0.4990000000E-01   0.0000000000E+00   0.0000000000E+00   0.1000000000E+02
   0.2200000000E+01   0.9501000000E+00   0.1000000000E+00  -0.2495000000E-01   0.1000000000E+00  -0.2495000000E-01   0.1000000000E+02  -0.6951858077E-15   0.0000000000E+00  -0.1943337347E-16   0.0000000000E+00   0.0000000000E+00   0.1000000000E+00  -0.4990000000E-01  -0.5826125365E-18  -0.4990000000E-01   0.0000000000E+00   0.0000000000E+00   0.1000000000E+02
   0.1100000000E+01   0.1900200000E+01   0.5000000000E-01  -0.4990000000E-01   0.5000000000E-01  -0.4990000000E-01   0.1000000000E+02  -0.6951858077E-15   0.0000000000E+00  -0.3757537754E-15   0.0000000000E+00   0.0000000000E+00   0.1000000000E+00  -0.4990000000E-01  -0.1126509819E-16  -0.4990000000E-01   0.0000000000E+00   0.0000000000E+00   0.1000000000E+02
   0.0000000000E+00   0.9501000000E+00   0.0000000000E+00  -0.2495000000E-01   0.0000000000E+00  -0.2495000000E-01   0.1000000000E+02   0.4973577283E-15   0.0000000000E+00  -0.3182350249E-15   0.0000000000E+00   0.0000000000E+00   0.1000000000E+00  -0.4990000000E-01  -0.9540686047E-17  -0.4990000000E-01   0.0000000000E+00   0.0000000000E+00   0.1000000000E+02
   0.1100000000E+01   0.9501000000E+00   0.5000000000E-01  -0.2495000000E-01   0.5000000000E-01  -0.2495000000E-01   0.1000000000E+02   0.4973577283E-15   0.0000000000E+00  -0.3182350249E-15   0.0000000000E+00   0.0000000000E+00   0.1000000000E+00  -0.4990000000E-01  -0.9540686047E-17  -0.4990000000E-01   0.0000000000E+00   0.0000000000E+00   0.1000000000E+02
           1           5           9           8
           5           2           6           9
           9           6           3           7
           8           9           7           4
 VARIABLES = X,Y,DU1,DU2,U1,U2,S11,S22,S33,S12,S13,S23,E11,E22,E12,E33,E13,E23,SMISES
 ZONE, T="0.3000D+01" F=FEPOINT, I=    9 J=    4
   0.0000000000E+00   0.0000000000E+00   0.0000000000E+00   0.0000000000E+00   0.0000000000E+00   0.0000000000E+00   0.1500000000E+02   0.3300626922E-14   0.0000000000E+00  -0.3563347735E-15   0.0000000000E+00   0.0000000000E+00   0.1500000000E+00  -0.7485000000E-01  -0.1068291651E-16  -0.7485000000E-01   0.0000000000E+00   0.0000000000E+00   0.1500000000E+02
   0.2300000000E+01   0.0000000000E+00   0.1000000000E+00   0.0000000000E+00   0.2000000000E+00   0.0000000000E+00   0.1500000000E+02   0.1845608964E-14   0.0000000000E+00  -0.2431211583E-14   0.0000000000E+00   0.0000000000E+00   0.1500000000E+00  -0.7485000000E-01  -0.7288772327E-16  -0.7485000000E-01   0.0000000000E+00   0.0000000000E+00   0.1500000000E+02
   0.2300000000E+01   0.1850300000E+01   0.1000000000E+00  -0.4990000000E-01   0.2000000000E+00  -0.9980000000E-01   0.1500000000E+02   0.3391700669E-14   0.0000000000E+00  -0.1568844279E-15   0.0000000000E+00   0.0000000000E+00   0.1500000000E+00  -0.7485000000E-01  -0.4703395150E-17  -0.7485000000E-01   0.0000000000E+00   0.0000000000E+00   0.1500000000E+02
   0.0000000000E+00   0.1850300000E+01   0.0000000000E+00  -0.4990000000E-01   0.0000000000E+00  -0.9980000000E-01   0.1500000000E+02   0.4965258064E-14   0.0000000000E+00   0.1550111300E-14   0.0000000000E+00   0.0000000000E+00   0.1500000000E+00  -0.7485000000E-01   0.4647233677E-16  -0.7485000000E-01   0.0000000000E+00   0.0000000000E+00   0.1500000000E+02
   0.1150000000E+01   0.0000000000E+00   0.5000000000E-01   0.0000000000E+00   0.1000000000E+00   0.0000000000E+00   0.1500000000E+02   0.2966079923E-14   0.0000000000E+00   0.5566183547E-15   0.0000000000E+00   0.0000000000E+00   0.1500000000E+00  -0.7485000000E-01   0.1668741827E-16  -0.7485000000E-01   0.0000000000E+00   0.0000000000E+00   0.1500000000E+02
   0.2300000000E+01   0.9251500000E+00   0.1000000000E+00  -0.2495000000E-01   0.2000000000E+00  -0.4990000000E-01   0.1500000000E+02  -0.8037323000E-17   0.0000000000E+00   0.5732701721E-15   0.0000000000E+00   0.0000000000E+00   0.1500000000E+00  -0.7485000000E-01   0.1718663976E-16  -0.7485000000E-01   0.0000000000E+00   0.0000000000E+00   0.1500000000E+02
   0.1150000000E+01   0.1850300000E+01   0.5000000000E-01  -0.4990000000E-01   0.1000000000E+00  -0.9980000000E-01   0.1500000000E+02   0.6728131046E-15   0.0000000000E+00  -0.9373899025E-15   0.0000000000E+00   0.0000000000E+00   0.1500000000E+00  -0.7485000000E-01  -0.2810294928E-16  -0.7485000000E-01   0.0000000000E+00   0.0000000000E+00   0.1500000000E+02
   0.0000000000E+00   0.9251500000E+00   0.0000000000E+00  -0.2495000000E-01   0.0000000000E+00  -0.4990000000E-01   0.1500000000E+02  -0.2394244154E-14   0.0000000000E+00  -0.7713372594E-15   0.0000000000E+00   0.0000000000E+00   0.1500000000E+00  -0.7485000000E-01  -0.2312469104E-16  -0.7485000000E-01   0.0000000000E+00   0.0000000000E+00   0.1500000000E+02
   0.1150000000E+01   0.9251500000E+00   0.5000000000E-01  -0.2495000000E-01   0.1000000000E+00  -0.4990000000E-01   0.1500000000E+02  -0.2394244154E-14   0.0000000000E+00  -0.7713372594E-15   0.0000000000E+00   0.0000000000E+00   0.1500000000E+00  -0.7485000000E-01  -0.2312469104E-16  -0.7485000000E-01   0.0000000000E+00   0.0000000000E+00   0.1500000000E+02
           1           5           9           8
           5           2           6           9
           9           6           3           7
           8           9           7           4
 VARIABLES = X,Y,DU1,DU2,U1,U2,S11,S22,S33,S12,S13,S23,E11,E22,E12,E33,E13,E23,SMISES
 ZONE, T="0.4000D+01" F=FEPOINT, I=    9 J=    4
   0.0000000000E+00   0.0000000000E+00   0.0000000000E+00   0.0000000000E+00   0.0000000000E+00   0.0000000000E+00   0.2000000000E+02   0.1915210273E-14   0.0000000000E+00  -0.1025110406E-15   0.0000000000E+00   0.0000000000E+00   0.2000000000E+00  -0.9980000000E-01  -0.3073280998E-17  -0.9980000000E-01   0.0000000000E+00   0.0000000000E+00   0.2000000000E+02
   0.2400000000E+01   0.0000000000E+00   0.1000000000E+00   0.0000000000E+00   0.3000000000E+00   0.0000000000E+00   0.2000000000E+02  -0.7548333288E-14   0.0000000000E+00  -0.3955578580E-14   0.0000000000E+00   0.0000000000E+00   0.2000000000E+00  -0.9980000000E-01  -0.1185882458E-15  -0.9980000000E-01   0.0000000000E+00   0.0000000000E+00   0.2000000000E+02
   0.2400000000E+01   0.1800400000E+01   0.1000000000E+00  -0.4990000000E-01   0.3000000000E+00  -0.1497000000E+00   0.2000000000E+02  -0.3588779393E-14   0.0000000000E+00  -0.3227095326E-14   0.0000000000E+00   0.0000000000E+00   0.2000000000E+00  -0.9980000000E-01  -0.9674831789E-16  -0.9980000000E-01   0.0000000000E+00   0.0000000000E+00   0.2000000000E+02
   0.0000000000E+00   0.1800400000E+01   0.0000000000E+00  -0.4990000000E-01   0.0000000000E+00  -0.1497000000E+00   0.2000000000E+02   0.5754779128E-14   0.0000000000E+00   0.1357001954E-14   0.0000000000E+00   0.0000000000E+00   0.2000000000E+00  -0.9980000000E-01   0.4068291859E-16  -0.9980000000E-01   0.0000000000E+00   0.0000000000E+00   0.2000000000E+02
   0.1200000000E+01   0.0000000000E+00   0.5000000000E-01   0.0000000000E+00   0.1500000000E+00   0.0000000000E+00   0.2000000000E+02   0.5305951580E-15   0.0000000000E+00  -0.4154663341E-15   0.0000000000E+00   0.0000000000E+00   0.2000000000E+00  -0.9980000000E-01  -0.1245568070E-16  -0.9980000000E-01   0.0000000000E+00   0.0000000000E+00   0.2000000000E+02
   0.2400000000E+01   0.9002000000E+00   0.1000000000E+00  -0.2495000000E-01   0.3000000000E+00  -0.7485000000E-01   0.2000000000E+02   0.1969312012E-15   0.0000000000E+00   0.1057064275E-14   0.0000000000E+00   0.0000000000E+00   0.2000000000E+00  -0.9980000000E-01   0.3169078698E-16  -0.9980000000E-01   0.0000000000E+00   0.0000000000E+00   0.2000000000E+02
   0.1200000000E+01   0.1800400000E+01   0.5000000000E-01  -0.4990000000E-01   0.1500000000E+00  -0.1497000000E+00   0.2000000000E+02   0.5305951580E-15   0.0000000000E+00  -0.1610672940E-14   0.0000000000E+00   0.0000000000E+00   0.2000000000E+00  -0.9980000000E-01  -0.4828797474E-16  -0.9980000000E-01   0.0000000000E+00   0.0000000000E+00   0.2000000000E+02
   0.0000000000E+00   0.9002000000E+00   0.0000000000E+00  -0.2495000000E-01   0.0000000000E+00  -0.7485000000E-01   0.2000000000E+02  -0.2096335617E-14   0.0000000000E+00  -0.8851464589E-15   0.0000000000E+00   0.0000000000E+00   0.2000000000E+00  -0.9980000000E-01  -0.2653669084E-16  -0.9980000000E-01   0.0000000000E+00   0.0000000000E+00   0.2000000000E+02
   0.1200000000E+01   0.9002000000E+00   0.5000000000E-01  -0.2495000000E-01   0.1500000000E+00  -0.7485000000E-01   0.2000000000E+02  -0.2096335617E-14   0.0000000000E+00  -0.8851464589E-15   0.0000000000E+00   0.0000000000E+00   0.2000000000E+00  -0.9980000000E-01  -0.2653669084E-16  -0.9980000000E-01   0.0000000000E+00   0.0000000000E+00   0.2000000000E+02
           1           5           9           8
           5           2           6           9
           9           6           3           7
           8           9           7           4
 VARIABLES = X,Y,DU1,DU2,U1,U2,S11,S22,S33,S12,S13,S23,E11,E22,E12,E33,E13,E23,SMISES
 ZONE, T="0.5000D+01" F=FEPOINT, I=    9 J=    4
   0.0000000000E+00   0.0000000000E+00   0.0000000000E+00   0.0000000000E+00   0.0000000000E+00   0.0000000000E+00   0.2500000000E+02  -0.2814575207E-14   0.0000000000E+00  -0.1028513747E-14   0.0000000000E+00   0.0000000000E+00   0.2500000000E+00  -0.1247500000E+00  -0.3083484214E-16  -0.1247500000E+00   0.0000000000E+00   0.0000000000E+00   0.2500000000E+02
   0.2500000000E+01   0.0000000000E+00   0.1000000000E+00   0.0000000000E+00   0.4000000000E+00   0.0000000000E+00   0.2500000000E+02  -0.4294881347E-15   0.0000000000E+00  -0.2063754124E-14   0.0000000000E+00   0.0000000000E+00   0.2500000000E+00  -0.1247500000E+00  -0.6187134863E-16  -0.1247500000E+00   0.0000000000E+00   0.0000000000E+00   0.2500000000E+02
   0.2500000000E+01   0.1750500000E+01   0.1000000000E+00  -0.4990000000E-01   0.4000000000E+00  -0.1996000000E+00   0.2500000000E+02   0.1160569913E-14   0.0000000000E+00   0.1113414815E-14   0.0000000000E+00   0.0000000000E+00   0.2500000000E+00  -0.1247500000E+00   0.3338017615E-16  -0.1247500000E+00   0.0000000000E+00   0.0000000000E+00   0.2500000000E+02
   0.0000000000E+00   0.1750500000E+01   0.0000000000E+00  -0.4990000000E-01   0.0000000000E+00  -0.1996000000E+00   0.2500000000E+02  -0.1224517159E-14   0.0000000000E+00  -0.3127929816E-15   0.0000000000E+00   0.0000000000E+00   0.2500000000E+00  -0.1247500000E+00  -0.9377533588E-17  -0.1247500000E+00   0.0000000000E+00   0.0000000000E+00   0.2500000000E+02
   0.1250000000E+01   0.0000000000E+00   0.5000000000E-01   0.0000000000E+00   0.2000000000E+00   0.0000000000E+00   0.2500000000E+02   0.1260208460E-14   0.0000000000E+00  -0.7823799582E-15   0.0000000000E+00   0.0000000000E+00   0.2500000000E+00  -0.1247500000E+00  -0.2345575115E-16  -0.1247500000E+00   0.0000000000E+00   0.0000000000E+00   0.2500000000E+02
   0.2500000000E+01   0.8752500000E+00   0.1000000000E+00  -0.2495000000E-01   0.4000000000E+00  -0.9980000000E-01   0.2500000000E+02   0.1260208460E-14   0.0000000000E+00  -0.1632390886E-15   0.0000000000E+00   0.0000000000E+00   0.2500000000E+00  -0.1247500000E+00  -0.4893907876E-17  -0.1247500000E+00   0.0000000000E+00   0.0000000000E+00   0.2500000000E+02
   0.1250000000E+01   0.1750500000E+01   0.5000000000E-01  -0.4990000000E-01   0.2000000000E+00  -0.1996000000E+00   0.2500000000E+02  -0.1124878612E-14   0.0000000000E+00  -0.4835783068E-15   0.0000000000E+00   0.0000000000E+00   0.2500000000E+00  -0.1247500000E+00  -0.1449767764E-16  -0.1247500000E+00   0.0000000000E+00   0.0000000000E+00   0.2500000000E+02
   0.0000000000E+00   0.8752500000E+00   0.0000000000E+00  -0.2495000000E-01   0.0000000000E+00  -0.9980000000E-01   0.2500000000E+02  -0.1124878612E-14   0.0000000000E+00  -0.1383826287E-16   0.0000000000E+00   0.0000000000E+00   0.2500000000E+00  -0.1247500000E+00  -0.4148711209E-18  -0.1247500000E+00   0.0000000000E+00   0.0000000000E+00   0.2500000000E+02
   0.1250000000E+01   0.8752500000E+00   0.5000000000E-01  -0.2495000000E-01   0.2000000000E+00  -0.9980000000E-01   0.2500000000E+02  -0.1124878612E-14   0.0000000000E+00  -0.1383826287E-16   0.0000000000E+00   0.0000000000E+00   0.2500000000E+00  -0.1247500000E+00  -0.4148711209E-18  -0.1247500000E+00   0.0000000000E+00   0.0000000000E+00   0.2500000000E+02
           1           5           9           8
           5           2           6           9
           9           6           3           7
           8           9           7           4
 VARIABLES = X,Y,DU1,DU2,U1,U2,S11,S22,S33,S12,S13,S23,E11,E22,E12,E33,E13,E23,SMISES
 ZONE, T="0.6000D+01" F=FEPOINT, I=    9 J=    4
   0.0000000000E+00   0.0000000000E+00   0.0000000000E+00   0.0000000000E+00   0.0000000000E+00   0.0000000000E+00   0.3000000000E+02   0.4237168407E-14   0.0000000000E+00  -0.3427649674E-15   0.0000000000E+00   0.0000000000E+00   0.3000000000E+00  -0.1497000000E+00  -0.1027609372E-16  -0.1497000000E+00   0.0000000000E+00   0.0000000000E+00   0.3000000000E+02
   0.2600000000E+01   0.0000000000E+00   0.1000000000E+00   0.0000000000E+00   0.5000000000E+00   0.0000000000E+00   0.3000000000E+02   0.4419315902E-14   0.0000000000E+00  -0.2320453334E-14   0.0000000000E+00   0.0000000000E+00   0.3000000000E+00  -0.1497000000E+00  -0.6956719094E-16  -0.1497000000E+00   0.0000000000E+00   0.0000000000E+00   0.3000000000E+02
   0.2600000000E+01   0.1700600000E+01   0.1000000000E+00  -0.4990000000E-01   0.5000000000E+00  -0.2495000000E+00   0.3000000000E+02   0.4419315902E-14   0.0000000000E+00  -0.1587212568E-14   0.0000000000E+00   0.0000000000E+00   0.3000000000E+00  -0.1497000000E+00  -0.4758463279E-16  -0.1497000000E+00   0.0000000000E+00   0.0000000000E+00   0.3000000000E+02
   0.0000000000E+00   0.1700600000E+01   0.0000000000E+00  -0.4990000000E-01   0.0000000000E+00  -0.2495000000E+00   0.3000000000E+02   0.4237168407E-14   0.0000000000E+00   0.1583470001E-14   0.0000000000E+00   0.0000000000E+00   0.3000000000E+00  -0.1497000000E+00   0.4747243063E-16  -0.1497000000E+00   0.0000000000E+00   0.0000000000E+00   0.3000000000E+02
   0.1300000000E+01   0.0000000000E+00   0.5000000000E-01   0.0000000000E+00   0.2500000000E+00   0.0000000000E+00   0.3000000000E+02   0.4209060227E-14   0.0000000000E+00   0.5084558199E-16   0.0000000000E+00   0.0000000000E+00   0.3000000000E+00  -0.1497000000E+00   0.1524350548E-17  -0.1497000000E+00   0.0000000000E+00   0.0000000000E+00   0.3000000000E+02
   0.2600000000E+01   0.8503000000E+00   0.1000000000E+00  -0.2495000000E-01   0.5000000000E+00  -0.1247500000E+00   0.3000000000E+02  -0.1739174266E-14   0.0000000000E+00   0.8984665618E-15   0.0000000000E+00   0.0000000000E+00   0.3000000000E+00  -0.1497000000E+00   0.2693602752E-16  -0.1497000000E+00   0.0000000000E+00   0.0000000000E+00   0.3000000000E+02
   0.1300000000E+01   0.1700600000E+01   0.5000000000E-01  -0.4990000000E-01   0.2500000000E+00  -0.2495000000E+00   0.3000000000E+02   0.4209060227E-14   0.0000000000E+00  -0.2479560694E-15   0.0000000000E+00   0.0000000000E+00   0.3000000000E+00  -0.1497000000E+00  -0.7433722962E-17  -0.1497000000E+00   0.0000000000E+00   0.0000000000E+00   0.3000000000E+02
   0.0000000000E+00   0.8503000000E+00   0.0000000000E+00  -0.2495000000E-01   0.0000000000E+00  -0.1247500000E+00   0.3000000000E+02  -0.1925054291E-14   0.0000000000E+00  -0.1193144998E-14   0.0000000000E+00   0.0000000000E+00   0.3000000000E+00  -0.1497000000E+00  -0.3577048705E-16  -0.1497000000E+00   0.0000000000E+00   0.0000000000E+00   0.3000000000E+02
   0.1300000000E+01   0.8503000000E+00   0.5000000000E-01  -0.2495000000E-01   0.2500000000E+00  -0.1247500000E+00   0.3000000000E+02  -0.1925054291E-14   0.0000000000E+00  -0.1193144998E-14   0.0000000000E+00   0.0000000000E+00   0.3000000000E+00  -0.1497000000E+00  -0.3577048705E-16  -0.1497000000E+00   0.0000000000E+00   0.0000000000E+00   0.3000000000E+02
           1           5           9           8
           5           2           6           9
           9           6           3           7
           8           9           7           4
 VARIABLES = X,Y,DU1,DU2,U1,U2,S11,S22,S33,S12,S13,S23,E11,E22,E12,E33,E13,E23,SMISES
 ZONE, T="0.7000D+01" F=FEPOINT, I=    9 J=    4
   0.0000000000E+00   0.0000000000E+00   0.0000000000E+00   0.0000000000E+00   0.0000000000E+00   0.0000000000E+00   0.3500000000E+02   0.6113498346E-15   0.0000000000E+00   0.2754638605E-14   0.0000000000E+00   0.0000000000E+00   0.3500000000E+00  -0.1746500000E+00   0.8258406539E-16  -0.1746500000E+00   0.0000000000E+00   0.0000000000E+00   0.3500000000E+02
   0.2700000000E+01   0.0000000000E+00   0.1000000000E+00   0.0000000000E+00   0.6000000000E+00   0.0000000000E+00   0.3500000000E+02  -0.1071210854E-13   0.0000000000E+00   0.1508789155E-14   0.0000000000E+00   0.0000000000E+00   0.3500000000E+00  -0.1746500000E+00   0.4523349887E-16  -0.1746500000E+00   0.0000000000E+00   0.0000000000E+00   0.3500000000E+02
   0.2700000000E+01   0.1650700000E+01   0.1000000000E+00  -0.4990000000E-01   0.6000000000E+00  -0.2994000000E+00   0.3500000000E+02  -0.6908952877E-14   0.0000000000E+00  -0.1054137226E-13   0.0000000000E+00   0.0000000000E+00   0.3500000000E+00  -0.1746500000E+00  -0.3160303403E-15  -0.1746500000E+00   0.0000000000E+00   0.0000000000E+00   0.3500000000E+02
   0.0000000000E+00   0.1650700000E+01   0.0000000000E+00  -0.4990000000E-01   0.0000000000E+00  -0.2994000000E+00   0.3500000000E+02   0.1081563512E-13   0.0000000000E+00  -0.3290785321E-14   0.0000000000E+00   0.0000000000E+00   0.3500000000E+00  -0.1746500000E+00  -0.9865774392E-16  -0.1746500000E+00   0.0000000000E+00   0.0000000000E+00   0.3500000000E+02
   0.1350000000E+01   0.0000000000E+00   0.5000000000E-01   0.0000000000E+00   0.3000000000E+00   0.0000000000E+00   0.3500000000E+02  -0.1565546788E-14   0.0000000000E+00  -0.4418904351E-14   0.0000000000E+00   0.0000000000E+00   0.3500000000E+00  -0.1746500000E+00  -0.1324787524E-15  -0.1746500000E+00   0.0000000000E+00   0.0000000000E+00   0.3500000000E+02
   0.2700000000E+01   0.8253500000E+00   0.1000000000E+00  -0.2495000000E-01   0.6000000000E+00  -0.1497000000E+00   0.3500000000E+02   0.4382687705E-14   0.0000000000E+00   0.5062447689E-16   0.0000000000E+00   0.0000000000E+00   0.3500000000E+00  -0.1746500000E+00   0.1517721817E-17  -0.1746500000E+00   0.0000000000E+00   0.0000000000E+00   0.3500000000E+02
   0.1350000000E+01   0.1650700000E+01   0.5000000000E-01  -0.4990000000E-01   0.3000000000E+00  -0.2994000000E+00   0.3500000000E+02  -0.6337960450E-14   0.0000000000E+00   0.1855930330E-14   0.0000000000E+00   0.0000000000E+00   0.3500000000E+00  -0.1746500000E+00   0.5564079128E-16  -0.1746500000E+00   0.0000000000E+00   0.0000000000E+00   0.3500000000E+02
   0.0000000000E+00   0.8253500000E+00   0.0000000000E+00  -0.2495000000E-01   0.0000000000E+00  -0.1497000000E+00   0.3500000000E+02  -0.2038459327E-15   0.0000000000E+00  -0.1891586258E-14   0.0000000000E+00   0.0000000000E+00   0.3500000000E+00  -0.1746500000E+00  -0.5670975600E-16  -0.1746500000E+00   0.0000000000E+00   0.0000000000E+00   0.3500000000E+02
   0.1350000000E+01   0.8253500000E+00   0.5000000000E-01  -0.2495000000E-01   0.3000000000E+00  -0.1497000000E+00   0.3500000000E+02  -0.2038459327E-15   0.0000000000E+00  -0.1891586258E-14   0.0000000000E+00   0.0000000000E+00   0.3500000000E+00  -0.1746500000E+00  -0.5670975600E-16  -0.1746500000E+00   0.0000000000E+00   0.0000000000E+00   0.3500000000E+02
           1           5           9           8
           5           2           6           9
           9           6           3           7
           8           9           7           4
 VARIABLES = X,Y,DU1,DU2,U1,U2,S11,S22,S33,S12,S13,S23,E11,E22,E12,E33,E13,E23,SMISES
 ZONE, T="0.8000D+01" F=FEPOINT, I=    9 J=    4
   0.0000000000E+00   0.0000000000E+00   0.0000000000E+00   0.0000000000E+00   0.0000000000E+00   0.0000000000E+00   0.4000000000E+02  -0.7509159918E-14   0.0000000000E+00   0.1805738736E-14   0.0000000000E+00   0.0000000000E+00   0.4000000000E+00  -0.1996000000E+00   0.5413604732E-16  -0.1996000000E+00   0.0000000000E+00   0.0000000000E+00   0.4000000000E+02
   0.2800000000E+01   0.0000000000E+00   0.1000000000E+00   0.0000000000E+00   0.7000000000E+00   0.0000000000E+00   0.4000000000E+02  -0.7439750619E-14   0.0000000000E+00  -0.6451977873E-14   0.0000000000E+00   0.0000000000E+00   0.4000000000E+00  -0.1996000000E+00  -0.1934302966E-15  -0.1996000000E+00   0.0000000000E+00   0.0000000000E+00   0.4000000000E+02
   0.2800000000E+01   0.1600800000E+01   0.1000000000E+00  -0.4990000000E-01   0.7000000000E+00  -0.3493000000E+00   0.4000000000E+02   0.3931046461E-14   0.0000000000E+00  -0.4866762570E-14   0.0000000000E+00   0.0000000000E+00   0.4000000000E+00  -0.1996000000E+00  -0.1459055419E-15  -0.1996000000E+00   0.0000000000E+00   0.0000000000E+00   0.4000000000E+02
   0.0000000000E+00   0.1600800000E+01   0.0000000000E+00  -0.4990000000E-01   0.0000000000E+00  -0.3493000000E+00   0.4000000000E+02   0.3384588206E-14   0.0000000000E+00  -0.4790744766E-14   0.0000000000E+00   0.0000000000E+00   0.4000000000E+00  -0.1996000000E+00  -0.1436265281E-15  -0.1996000000E+00   0.0000000000E+00   0.0000000000E+00   0.4000000000E+02
   0.1400000000E+01   0.0000000000E+00   0.5000000000E-01   0.0000000000E+00   0.3500000000E+00   0.0000000000E+00   0.4000000000E+02   0.3446560621E-15   0.0000000000E+00  -0.3845579351E-14   0.0000000000E+00   0.0000000000E+00   0.4000000000E+00  -0.1996000000E+00  -0.1152904690E-15  -0.1996000000E+00   0.0000000000E+00   0.0000000000E+00   0.4000000000E+02
   0.2800000000E+01   0.8004000000E+00   0.1000000000E+00  -0.2495000000E-01   0.7000000000E+00  -0.1746500000E+00   0.4000000000E+02   0.1038703160E-14   0.0000000000E+00   0.6195001638E-15   0.0000000000E+00   0.0000000000E+00   0.4000000000E+00  -0.1996000000E+00   0.1857261491E-16  -0.1996000000E+00   0.0000000000E+00   0.0000000000E+00   0.4000000000E+02
   0.1400000000E+01   0.1600800000E+01   0.5000000000E-01  -0.4990000000E-01   0.3500000000E+00  -0.3493000000E+00   0.4000000000E+02  -0.4425518082E-14   0.0000000000E+00   0.3376437689E-15   0.0000000000E+00   0.0000000000E+00   0.4000000000E+00  -0.1996000000E+00   0.1012256019E-16  -0.1996000000E+00   0.0000000000E+00   0.0000000000E+00   0.4000000000E+02
   0.0000000000E+00   0.8004000000E+00   0.0000000000E+00  -0.2495000000E-01   0.0000000000E+00  -0.1746500000E+00   0.4000000000E+02   0.1038703160E-14   0.0000000000E+00  -0.1621512222E-14   0.0000000000E+00   0.0000000000E+00   0.4000000000E+00  -0.1996000000E+00  -0.4861293642E-16  -0.1996000000E+00   0.0000000000E+00   0.0000000000E+00   0.4000000000E+02
   0.1400000000E+01   0.8004000000E+00   0.5000000000E-01  -0.2495000000E-01   0.3500000000E+00  -0.1746500000E+00   0.4000000000E+02   0.1038703160E-14   0.0000000000E+00  -0.1621512222E-14   0.0000000000E+00   0.0000000000E+00   0.4000000000E+00  -0.1996000000E+00  -0.4861293642E-16  -0.1996000000E+00   0.0000000000E+00   0.0000000000E+00   0.4000000000E+02
           1           5           9           8
           5           2           6           9
           9           6           3           7
           8           9           7           4
 VARIABLES = X,Y,DU1,DU2,U1,U2,S11,S22,S33,S12,S13,S23,E11,E22,E12,E33,E13,E23,SMISES
 ZONE, T="0.9000D+01" F=FEPOINT, I=    9 J=    4
   0.0000000000E+00   0.0000000000E+00   0.0000000000E+00   0.0000000000E+00   0.0000000000E+00   0.0000000000E+00   0.4500000000E+02   0.4926658360E-14   0.0000000000E+00  -0.6132840939E-15   0.0000000000E+00   0.0000000000E+00   0.4500000000E+00  -0.2245500000E+00  -0.1838625713E-16  -0.2245500000E+00   0.0000000000E+00   0.0000000000E+00   0.4500000000E+02
   0.2900000000E+01   0.0000000000E+00   0.1000000000E+00   0.0000000000E+00   0.8000000000E+00   0.0000000000E+00   0.4500000000E+02  -0.9514607868E-14   0.0000000000E+00  -0.7240610470E-14   0.0000000000E+00   0.0000000000E+00   0.4500000000E+00  -0.2245500000E+00  -0.2170735019E-15  -0.2245500000E+00   0.0000000000E+00   0.0000000000E+00   0.4500000000E+02
   0.2900000000E+01   0.1550900000E+01   0.1000000000E+00  -0.4990000000E-01   0.8000000000E+00  -0.3992000000E+00   0.4500000000E+02   0.3032468063E-16   0.0000000000E+00  -0.4770676969E-14   0.0000000000E+00   0.0000000000E+00   0.4500000000E+00  -0.2245500000E+00  -0.1430248955E-15  -0.2245500000E+00   0.0000000000E+00   0.0000000000E+00   0.4500000000E+02
   0.0000000000E+00   0.1550900000E+01   0.0000000000E+00  -0.4990000000E-01   0.0000000000E+00  -0.3992000000E+00   0.4500000000E+02   0.1435143986E-14   0.0000000000E+00   0.2922998340E-14   0.0000000000E+00   0.0000000000E+00   0.4500000000E+00  -0.2245500000E+00   0.8763149024E-16  -0.2245500000E+00   0.0000000000E+00   0.0000000000E+00   0.4500000000E+02
   0.1450000000E+01   0.0000000000E+00   0.5000000000E-01   0.0000000000E+00   0.4000000000E+00   0.0000000000E+00   0.4500000000E+02   0.3097850367E-14   0.0000000000E+00   0.2679095863E-14   0.0000000000E+00   0.0000000000E+00   0.4500000000E+00  -0.2245500000E+00   0.8031929397E-16  -0.2245500000E+00   0.0000000000E+00   0.0000000000E+00   0.4500000000E+02
   0.2900000000E+01   0.7754500000E+00   0.1000000000E+00  -0.2495000000E-01   0.8000000000E+00  -0.1996000000E+00   0.4500000000E+02  -0.2156011184E-14   0.0000000000E+00  -0.9312425146E-15   0.0000000000E+00   0.0000000000E+00   0.4500000000E+00  -0.2245500000E+00  -0.2791865059E-16  -0.2245500000E+00   0.0000000000E+00   0.0000000000E+00   0.4500000000E+02
   0.1450000000E+01   0.1550900000E+01   0.5000000000E-01  -0.4990000000E-01   0.4000000000E+00  -0.3992000000E+00   0.4500000000E+02  -0.1674563296E-14   0.0000000000E+00   0.1185087606E-14   0.0000000000E+00   0.0000000000E+00   0.4500000000E+00  -0.2245500000E+00   0.3552892642E-16  -0.2245500000E+00   0.0000000000E+00   0.0000000000E+00   0.4500000000E+02
   0.0000000000E+00   0.7754500000E+00   0.0000000000E+00  -0.2495000000E-01   0.0000000000E+00  -0.1996000000E+00   0.4500000000E+02  -0.2341891209E-14   0.0000000000E+00  -0.4068659855E-14   0.0000000000E+00   0.0000000000E+00   0.4500000000E+00  -0.2245500000E+00  -0.1219784224E-15  -0.2245500000E+00   0.0000000000E+00   0.0000000000E+00   0.4500000000E+02
   0.1450000000E+01   0.7754500000E+00   0.5000000000E-01  -0.2495000000E-01   0.4000000000E+00  -0.1996000000E+00   0.4500000000E+02  -0.2341891209E-14   0.0000000000E+00  -0.4068659855E-14   0.0000000000E+00   0.0000000000E+00   0.4500000000E+00  -0.2245500000E+00  -0.1219784224E-15  -0.2245500000E+00   0.0000000000E+00   0.0000000000E+00   0.4500000000E+02
           1           5           9           8
           5           2           6           9
           9           6           3           7
           8           9           7           4
 VARIABLES = X,Y,DU1,DU2,U1,U2,S11,S22,S33,S12,S13,S23,E11,E22,E12,E33,E13,E23,SMISES
 ZONE, T="0.1000D+02" F=FEPOINT, I=    9 J=    4
   0.0000000000E+00   0.0000000000E+00   0.0000000000E+00   0.0000000000E+00   0.0000000000E+00   0.0000000000E+00   0.5000000000E+02  -0.1317516513E-13   0.0000000000E+00  -0.1190118266E-15   0.0000000000E+00   0.0000000000E+00   0.5000000000E+00  -0.2495000000E+00  -0.3567974563E-17  -0.2495000000E+00   0.0000000000E+00   0.0000000000E+00   0.5000000000E+02
   0.3000000000E+01   0.0000000000E+00   0.1000000000E+00   0.0000000000E+00   0.9000000000E+00   0.0000000000E+00   0.5000000000E+02   0.4171868711E-15   0.0000000000E+00  -0.2648371784E-13   0.0000000000E+00   0.0000000000E+00   0.5000000000E+00  -0.2495000000E+00  -0.7939818607E-15  -0.2495000000E+00   0.0000000000E+00   0.0000000000E+00   0.5000000000E+02
   0.3000000000E+01   0.1501000000E+01   0.1000000000E+00  -0.4990000000E-01   0.9000000000E+00  -0.4491000000E+00   0.5000000000E+02   0.1997866493E-13   0.0000000000E+00  -0.7530838614E-15   0.0000000000E+00   0.0000000000E+00   0.5000000000E+00  -0.2495000000E+00  -0.2257745416E-16  -0.2495000000E+00   0.0000000000E+00   0.0000000000E+00   0.5000000000E+02
   0.0000000000E+00   0.1501000000E+01   0.0000000000E+00  -0.4990000000E-01   0.0000000000E+00  -0.4491000000E+00   0.5000000000E+02   0.5432215025E-14   0.0000000000E+00   0.6512295876E-14   0.0000000000E+00   0.0000000000E+00   0.5000000000E+00  -0.2495000000E+00   0.1952386304E-15  -0.2495000000E+00   0.0000000000E+00   0.0000000000E+00   0.5000000000E+02
   0.1500000000E+01   0.0000000000E+00   0.5000000000E-01   0.0000000000E+00   0.4500000000E+00   0.0000000000E+00   0.5000000000E+02   0.8047438661E-14   0.0000000000E+00   0.7300493752E-15   0.0000000000E+00   0.0000000000E+00   0.5000000000E+00  -0.2495000000E+00   0.2188688027E-16  -0.2495000000E+00   0.0000000000E+00   0.0000000000E+00   0.5000000000E+02
   0.3000000000E+01   0.7505000000E+00   0.1000000000E+00  -0.2495000000E-01   0.9000000000E+00  -0.2245500000E+00   0.5000000000E+02  -0.7924505683E-14   0.0000000000E+00   0.3410903232E-15   0.0000000000E+00   0.0000000000E+00   0.5000000000E+00  -0.2495000000E+00   0.1022588789E-16  -0.2495000000E+00   0.0000000000E+00   0.0000000000E+00   0.5000000000E+02
   0.1500000000E+01   0.1501000000E+01   0.5000000000E-01  -0.4990000000E-01   0.4500000000E+00  -0.4491000000E+00   0.5000000000E+02   0.3277264517E-14   0.0000000000E+00  -0.3751975396E-14   0.0000000000E+00   0.0000000000E+00   0.5000000000E+00  -0.2495000000E+00  -0.1124842224E-15  -0.2495000000E+00   0.0000000000E+00   0.0000000000E+00   0.5000000000E+02
   0.0000000000E+00   0.7505000000E+00   0.0000000000E+00  -0.2495000000E-01   0.0000000000E+00  -0.2245500000E+00   0.5000000000E+02   0.1248561592E-14   0.0000000000E+00  -0.3692731971E-14   0.0000000000E+00   0.0000000000E+00   0.5000000000E+00  -0.2495000000E+00  -0.1107081045E-15  -0.2495000000E+00   0.0000000000E+00   0.0000000000E+00   0.5000000000E+02
   0.1500000000E+01   0.7505000000E+00   0.5000000000E-01  -0.2495000000E-01   0.4500000000E+00  -0.2245500000E+00   0.5000000000E+02   0.1248561592E-14   0.0000000000E+00  -0.3692731971E-14   0.0000000000E+00   0.0000000000E+00   0.5000000000E+00  -0.2495000000E+00  -0.1107081045E-15  -0.2495000000E+00   0.0000000000E+00   0.0000000000E+00   0.5000000000E+02
           1           5           9           8
           5           2           6           9
           9           6           3           7
           8           9           7           4
