 VARIABLES = X,Y,DU1,DU2,U1,U2,S11,S22,S33,S12,S13,S23,E11,E22,E12,E33,E13,E23,SMISES
 ZONE, T="0.1000D+01" F=FEPOINT, I=    9 J=    4
   0.0000000000E+00   0.0000000000E+00   0.0000000000E+00   0.0000000000E+00   0.0000000000E+00   0.0000000000E+00   0.5000000000E+01  -0.1763617464E-14   0.0000000000E+00   0.1067145899E-14   0.0000000000E+00   0.0000000000E+00   0.5000000000E-01  -0.1500000000E-01   0.2774579337E-16  -0.1500000000E-01   0.0000000000E+00   0.0000000000E+00   0.5000000000E+01
   0.2100000000E+01   0.0000000000E+00   0.1000000000E+00   0.0000000000E+00   0.0000000000E+00   0.0000000000E+00   0.5000000000E+01   0.3849911163E-17   0.0000000000E+00  -0.2981063115E-15   0.0000000000E+00   0.0000000000E+00   0.5000000000E-01  -0.1500000000E-01  -0.7750764099E-17  -0.1500000000E-01   0.0000000000E+00   0.0000000000E+00   0.5000000000E+01
   0.2100000000E+01   0.1970000000E+01   0.1000000000E+00  -0.3000000000E-01   0.0000000000E+00   0.0000000000E+00   0.5000000000E+01  -0.1763617464E-14   0.0000000000E+00   0.8868613758E-15   0.0000000000E+00   0.0000000000E+00   0.5000000000E-01  -0.1500000000E-01   0.2305839577E-16  -0.1500000000E-01   0.0000000000E+00   0.0000000000E+00   0.5000000000E+01
   0.0000000000E+00   0.1970000000E+01   0.0000000000E+00  -0.3000000000E-01   0.0000000000E+00   0.0000000000E+00   0.5000000000E+01   0.6605491801E-15   0.0000000000E+00   0.1664578446E-15   0.0000000000E+00   0.0000000000E+00   0.5000000000E-01  -0.1500000000E-01   0.4327903959E-17  -0.1500000000E-01   0.0000000000E+00   0.0000000000E+00   0.5000000000E+01
   0.1050000000E+01   0.0000000000E+00   0.5000000000E-01   0.0000000000E+00   0.0000000000E+00   0.0000000000E+00   0.5000000000E+01  -0.8798837764E-15   0.0000000000E+00   0.3845197937E-15   0.0000000000E+00   0.0000000000E+00   0.5000000000E-01  -0.1500000000E-01   0.9997514637E-17  -0.1500000000E-01   0.0000000000E+00   0.0000000000E+00   0.5000000000E+01
   0.2100000000E+01   0.9850000000E+00   0.1000000000E+00  -0.1500000000E-01   0.0000000000E+00   0.0000000000E+00   0.5000000000E+01  -0.8798837764E-15   0.0000000000E+00   0.2943775322E-15   0.0000000000E+00   0.0000000000E+00   0.5000000000E-01  -0.1500000000E-01   0.7653815836E-17  -0.1500000000E-01   0.0000000000E+00   0.0000000000E+00   0.5000000000E+01
   0.1050000000E+01   0.1970000000E+01   0.5000000000E-01  -0.3000000000E-01   0.0000000000E+00   0.0000000000E+00   0.5000000000E+01  -0.5515341419E-15   0.0000000000E+00   0.5266596102E-15   0.0000000000E+00   0.0000000000E+00   0.5000000000E-01  -0.1500000000E-01   0.1369314987E-16  -0.1500000000E-01   0.0000000000E+00   0.0000000000E+00   0.5000000000E+01
   0.0000000000E+00   0.9850000000E+00   0.0000000000E+00  -0.1500000000E-01   0.0000000000E+00   0.0000000000E+00   0.5000000000E+01  -0.5515341419E-15   0.0000000000E+00   0.6168018718E-15   0.0000000000E+00   0.0000000000E+00   0.5000000000E-01  -0.1500000000E-01   0.1603684867E-16  -0.1500000000E-01   0.0000000000E+00   0.0000000000E+00   0.5000000000E+01
   0.1050000000E+01   0.9850000000E+00   0.5000000000E-01  -0.1500000000E-01   0.0000000000E+00   0.0000000000E+00   0.5000000000E+01  -0.5515341419E-15   0.0000000000E+00   0.6168018718E-15   0.0000000000E+00   0.0000000000E+00   0.5000000000E-01  -0.1500000000E-01   0.1603684867E-16  -0.1500000000E-01   0.0000000000E+00   0.0000000000E+00   0.5000000000E+01
           1           5           9           8
           5           2           6           9
           9           6           3           7
           8           9           7           4
 VARIABLES = X,Y,DU1,DU2,U1,U2,S11,S22,S33,S12,S13,S23,E11,E22,E12,E33,E13,E23,SMISES
 ZONE, T="0.2000D+01" F=FEPOINT, I=    9 J=    4
   0.0000000000E+00   0.0000000000E+00   0.0000000000E+00   0.0000000000E+00   0.0000000000E+00   0.0000000000E+00   0.1000000000E+02   0.2503716699E-14   0.0000000000E+00   0.1420001301E-14   0.0000000000E+00   0.0000000000E+00   0.1000000000E+00  -0.3000000000E-01   0.3692003383E-16  -0.3000000000E-01   0.0000000000E+00   0.0000000000E+00   0.1000000000E+02
   0.2200000000E+01   0.0000000000E+00   0.1000000000E+00   0.0000000000E+00   0.1000000000E+00   0.0000000000E+00   0.1000000000E+02  -0.1791795033E-14   0.0000000000E+00   0.1906998883E-15   0.0000000000E+00   0.0000000000E+00   0.1000000000E+00  -0.3000000000E-01   0.4958197095E-17  -0.3000000000E-01   0.0000000000E+00   0.0000000000E+00   0.1000000000E+02
   0.2200000000E+01   0.1940000000E+01   0.1000000000E+00  -0.3000000000E-01   0.1000000000E+00  -0.3000000000E-01   0.1000000000E+02   0.7399993604E-15   0.0000000000E+00   0.1936830187E-16   0.0000000000E+00   0.0000000000E+00   0.1000000000E+00  -0.3000000000E-01   0.5035758486E-18  -0.3000000000E-01   0.0000000000E+00   0.0000000000E+00   0.1000000000E+02
   0.0000000000E+00   0.1940000000E+01   0.0000000000E+00  -0.3000000000E-01   0.0000000000E+00  -0.3000000000E-01   0.1000000000E+02  -0.6962321121E-15   0.0000000000E+00   0.7976424744E-16   0.0000000000E+00   0.0000000000E+00   0.1000000000E+00  -0.3000000000E-01   0.2073870433E-17  -0.3000000000E-01   0.0000000000E+00   0.0000000000E+00   0.1000000000E+02
   0.1100000000E+01   0.0000000000E+00   0.5000000000E-01   0.0000000000E+00   0.5000000000E-01   0.0000000000E+00   0.1000000000E+02   0.3559608330E-15   0.0000000000E+00   0.8053505946E-15   0.0000000000E+00   0.0000000000E+00   0.1000000000E+00  -0.3000000000E-01   0.2093911546E-16  -0.3000000000E-01   0.0000000000E+00   0.0000000000E+00   0.1000000000E+02
   0.2200000000E+01   0.9700000000E+00   0.1000000000E+00  -0.1500000000E-01   0.1000000000E+00  -0.1500000000E-01   0.1000000000E+02  -0.5258978365E-15   0.0000000000E+00   0.1050340951E-15   0.0000000000E+00   0.0000000000E+00   0.1000000000E+00  -0.3000000000E-01   0.2730886472E-17  -0.3000000000E-01   0.0000000000E+00   0.0000000000E+00   0.1000000000E+02
   0.1100000000E+01   0.1940000000E+01   0.5000000000E-01  -0.3000000000E-01   0.5000000000E-01  -0.3000000000E-01   0.1000000000E+02   0.2188362411E-16   0.0000000000E+00   0.4956627465E-16   0.0000000000E+00   0.0000000000E+00   0.1000000000E+00  -0.3000000000E-01   0.1288723141E-17  -0.3000000000E-01   0.0000000000E+00   0.0000000000E+00   0.1000000000E+02
   0.0000000000E+00   0.9700000000E+00   0.0000000000E+00  -0.1500000000E-01   0.0000000000E+00  -0.1500000000E-01   0.1000000000E+02   0.9037422936E-15   0.0000000000E+00   0.7498827742E-15   0.0000000000E+00   0.0000000000E+00   0.1000000000E+00  -0.3000000000E-01   0.1949695213E-16  -0.3000000000E-01   0.0000000000E+00   0.0000000000E+00   0.1000000000E+02
   0.1100000000E+01   0.9700000000E+00   0.5000000000E-01  -0.1500000000E-01   0.5000000000E-01  -0.1500000000E-01   0.1000000000E+02   0.9037422936E-15   0.0000000000E+00   0.7498827742E-15   0.0000000000E+00   0.0000000000E+00   0.1000000000E+00  -0.3000000000E-01   0.1949695213E-16  -0.3000000000E-01   0.0000000000E+00   0.0000000000E+00   0.1000000000E+02
           1           5           9           8
           5           2           6           9
           9           6           3           7
           8           9           7           4
 VARIABLES = X,Y,DU1,DU2,U1,U2,S11,S22,S33,S12,S13,S23,E11,E22,E12,E33,E13,E23,SMISES
 ZONE, T="0.3000D+01" F=FEPOINT, I=    9 J=    4
   0.0000000000E+00   0.0000000000E+00   0.0000000000E+00   0.0000000000E+00   0.0000000000E+00   0.0000000000E+00   0.1500000000E+02   0.1361682161E-14   0.0000000000E+00   0.2133690773E-14   0.0000000000E+00   0.0000000000E+00   0.1500000000E+00  -0.4500000000E-01   0.5547596009E-16  -0.4500000000E-01   0.0000000000E+00   0.0000000000E+00   0.1500000000E+02
   0.2300000000E+01   0.0000000000E+00   0.1000000000E+00   0.0000000000E+00   0.2000000000E+00   0.0000000000E+00   0.1500000000E+02  -0.8460923147E-15   0.0000000000E+00  -0.2582178036E-14   0.0000000000E+00   0.0000000000E+00   0.1500000000E+00  -0.4500000000E-01  -0.6713662893E-16  -0.4500000000E-01   0.0000000000E+00   0.0000000000E+00   0.1500000000E+02
   0.2300000000E+01   0.1910000000E+01   0.1000000000E+00  -0.3000000000E-01   0.2000000000E+00  -0.6000000000E-01   0.1500000000E+02   0.2589832460E-15   0.0000000000E+00   0.1015023896E-14   0.0000000000E+00   0.0000000000E+00   0.1500000000E+00  -0.4500000000E-01   0.2639062130E-16  -0.4500000000E-01   0.0000000000E+00   0.0000000000E+00   0.1500000000E+02
   0.0000000000E+00   0.1910000000E+01   0.0000000000E+00  -0.3000000000E-01   0.0000000000E+00  -0.6000000000E-01   0.1500000000E+02  -0.1731706771E-14   0.0000000000E+00  -0.7262349217E-15   0.0000000000E+00   0.0000000000E+00   0.1500000000E+00  -0.4500000000E-01  -0.1888210796E-16  -0.4500000000E-01   0.0000000000E+00   0.0000000000E+00   0.1500000000E+02
   0.1150000000E+01   0.0000000000E+00   0.5000000000E-01   0.0000000000E+00   0.1000000000E+00   0.0000000000E+00   0.1500000000E+02   0.2577949234E-15   0.0000000000E+00  -0.2242436316E-15   0.0000000000E+00   0.0000000000E+00   0.1500000000E+00  -0.4500000000E-01  -0.5830334421E-17  -0.4500000000E-01   0.0000000000E+00   0.0000000000E+00   0.1500000000E+02
   0.2300000000E+01   0.9550000000E+00   0.1000000000E+00  -0.1500000000E-01   0.2000000000E+00  -0.3000000000E-01   0.1500000000E+02  -0.2935545343E-15   0.0000000000E+00  -0.7835770698E-15   0.0000000000E+00   0.0000000000E+00   0.1500000000E+00  -0.4500000000E-01  -0.2037300382E-16  -0.4500000000E-01   0.0000000000E+00   0.0000000000E+00   0.1500000000E+02
   0.1150000000E+01   0.1910000000E+01   0.5000000000E-01  -0.3000000000E-01   0.1000000000E+00  -0.6000000000E-01   0.1500000000E+02  -0.7363617623E-15   0.0000000000E+00   0.1443944872E-15   0.0000000000E+00   0.0000000000E+00   0.1500000000E+00  -0.4500000000E-01   0.3754256667E-17  -0.4500000000E-01   0.0000000000E+00   0.0000000000E+00   0.1500000000E+02
   0.0000000000E+00   0.9550000000E+00   0.0000000000E+00  -0.1500000000E-01   0.0000000000E+00  -0.3000000000E-01   0.1500000000E+02  -0.1850123046E-15   0.0000000000E+00   0.7037279254E-15   0.0000000000E+00   0.0000000000E+00   0.1500000000E+00  -0.4500000000E-01   0.1829692606E-16  -0.4500000000E-01   0.0000000000E+00   0.0000000000E+00   0.1500000000E+02
   0.1150000000E+01   0.9550000000E+00   0.5000000000E-01  -0.1500000000E-01   0.1000000000E+00  -0.3000000000E-01   0.1500000000E+02  -0.1850123046E-15   0.0000000000E+00   0.7037279254E-15   0.0000000000E+00   0.0000000000E+00   0.1500000000E+00  -0.4500000000E-01   0.1829692606E-16  -0.4500000000E-01   0.0000000000E+00   0.0000000000E+00   0.1500000000E+02
           1           5           9           8
           5           2           6           9
           9           6           3           7
           8           9           7           4
 VARIABLES = X,Y,DU1,DU2,U1,U2,S11,S22,S33,S12,S13,S23,E11,E22,E12,E33,E13,E23,SMISES
 ZONE, T="0.4000D+01" F=FEPOINT, I=    9 J=    4
   0.0000000000E+00   0.0000000000E+00   0.0000000000E+00   0.0000000000E+00   0.0000000000E+00   0.0000000000E+00   0.2000000000E+02   0.2670894746E-14   0.0000000000E+00   0.3030544088E-14   0.0000000000E+00   0.0000000000E+00   0.2000000000E+00  -0.6000000000E-01   0.7879414628E-16  -0.6000000000E-01   0.0000000000E+00   0.0000000000E+00   0.2000000000E+02
   0.2400000000E+01   0.0000000000E+00   0.1000000000E+00   0.0000000000E+00   0.3000000000E+00   0.0000000000E+00   0.2000000000E+02  -0.1341514605E-14   0.0000000000E+00  -0.3481883309E-14   0.0000000000E+00   0.0000000000E+00   0.2000000000E+00  -0.6000000000E-01  -0.9052896602E-16  -0.6000000000E-01   0.0000000000E+00   0.0000000000E+00   0.2000000000E+02
   0.2400000000E+01   0.1880000000E+01   0.1000000000E+00  -0.3000000000E-01   0.3000000000E+00  -0.9000000000E-01   0.2000000000E+02   0.2469101408E-15   0.0000000000E+00   0.1327179800E-14   0.0000000000E+00   0.0000000000E+00   0.2000000000E+00  -0.6000000000E-01   0.3450667481E-16  -0.6000000000E-01   0.0000000000E+00   0.0000000000E+00   0.2000000000E+02
   0.0000000000E+00   0.1880000000E+01   0.0000000000E+00  -0.3000000000E-01   0.0000000000E+00  -0.9000000000E-01   0.2000000000E+02  -0.2226377904E-14   0.0000000000E+00  -0.1103594708E-14   0.0000000000E+00   0.0000000000E+00   0.2000000000E+00  -0.6000000000E-01  -0.2869346240E-16  -0.6000000000E-01   0.0000000000E+00   0.0000000000E+00   0.2000000000E+02
   0.1200000000E+01   0.0000000000E+00   0.5000000000E-01   0.0000000000E+00   0.1500000000E+00   0.0000000000E+00   0.2000000000E+02   0.6646900703E-15   0.0000000000E+00  -0.2256696104E-15   0.0000000000E+00   0.0000000000E+00   0.2000000000E+00  -0.6000000000E-01  -0.5867409870E-17  -0.6000000000E-01   0.0000000000E+00   0.0000000000E+00   0.2000000000E+02
   0.2400000000E+01   0.9400000000E+00   0.1000000000E+00  -0.1500000000E-01   0.3000000000E+00  -0.4500000000E-01   0.2000000000E+02  -0.5473022323E-15   0.0000000000E+00  -0.1077351754E-14   0.0000000000E+00   0.0000000000E+00   0.2000000000E+00  -0.6000000000E-01  -0.2801114561E-16  -0.6000000000E-01   0.0000000000E+00   0.0000000000E+00   0.2000000000E+02
   0.1200000000E+01   0.1880000000E+01   0.5000000000E-01  -0.3000000000E-01   0.1500000000E+00  -0.9000000000E-01   0.2000000000E+02  -0.9897338816E-15   0.0000000000E+00   0.1117925462E-15   0.0000000000E+00   0.0000000000E+00   0.2000000000E+00  -0.6000000000E-01   0.2906606202E-17  -0.6000000000E-01   0.0000000000E+00   0.0000000000E+00   0.2000000000E+02
   0.0000000000E+00   0.9400000000E+00   0.0000000000E+00  -0.1500000000E-01   0.0000000000E+00  -0.4500000000E-01   0.2000000000E+02   0.2222584209E-15   0.0000000000E+00   0.9634746900E-15   0.0000000000E+00   0.0000000000E+00   0.2000000000E+00  -0.6000000000E-01   0.2505034194E-16  -0.6000000000E-01   0.0000000000E+00   0.0000000000E+00   0.2000000000E+02
   0.1200000000E+01   0.9400000000E+00   0.5000000000E-01  -0.1500000000E-01   0.1500000000E+00  -0.4500000000E-01   0.2000000000E+02   0.2222584209E-15   0.0000000000E+00   0.9634746900E-15   0.0000000000E+00   0.0000000000E+00   0.2000000000E+00  -0.6000000000E-01   0.2505034194E-16  -0.6000000000E-01   0.0000000000E+00   0.0000000000E+00   0.2000000000E+02
           1           5           9           8
           5           2           6           9
           9           6           3           7
           8           9           7           4
 VARIABLES = X,Y,DU1,DU2,U1,U2,S11,S22,S33,S12,S13,S23,E11,E22,E12,E33,E13,E23,SMISES
 ZONE, T="0.5000D+01" F=FEPOINT, I=    9 J=    4
   0.0000000000E+00   0.0000000000E+00   0.0000000000E+00   0.0000000000E+00   0.0000000000E+00   0.0000000000E+00   0.2500000000E+02   0.2573090431E-14   0.0000000000E+00   0.2153644324E-14   0.0000000000E+00   0.0000000000E+00   0.2500000000E+00  -0.7500000000E-01   0.5599475244E-16  -0.7500000000E-01   0.0000000000E+00   0.0000000000E+00   0.2500000000E+02
   0.2500000000E+01   0.0000000000E+00   0.1000000000E+00   0.0000000000E+00   0.4000000000E+00   0.0000000000E+00   0.2500000000E+02  -0.4101985586E-14   0.0000000000E+00  -0.6063672719E-15   0.0000000000E+00   0.0000000000E+00   0.2500000000E+00  -0.7500000000E-01  -0.1576554907E-16  -0.7500000000E-01   0.0000000000E+00   0.0000000000E+00   0.2500000000E+02
   0.2500000000E+01   0.1850000000E+01   0.1000000000E+00  -0.3000000000E-01   0.4000000000E+00  -0.1200000000E+00   0.2500000000E+02   0.3442930584E-14   0.0000000000E+00   0.2523410985E-14   0.0000000000E+00   0.0000000000E+00   0.2500000000E+00  -0.7500000000E-01   0.6560868560E-16  -0.7500000000E-01   0.0000000000E+00   0.0000000000E+00   0.2500000000E+02
   0.0000000000E+00   0.1850000000E+01   0.0000000000E+00  -0.3000000000E-01   0.0000000000E+00  -0.1200000000E+00   0.2500000000E+02  -0.5895740545E-15   0.0000000000E+00  -0.9414877047E-15   0.0000000000E+00   0.0000000000E+00   0.2500000000E+00  -0.7500000000E-01  -0.2447868032E-16  -0.7500000000E-01   0.0000000000E+00   0.0000000000E+00   0.2500000000E+02
   0.1250000000E+01   0.0000000000E+00   0.5000000000E-01   0.0000000000E+00   0.2000000000E+00   0.0000000000E+00   0.2500000000E+02  -0.7644475777E-15   0.0000000000E+00   0.7736385263E-15   0.0000000000E+00   0.0000000000E+00   0.2500000000E+00  -0.7500000000E-01   0.2011460168E-16  -0.7500000000E-01   0.0000000000E+00   0.0000000000E+00   0.2500000000E+02
   0.2500000000E+01   0.9250000000E+00   0.1000000000E+00  -0.1500000000E-01   0.4000000000E+00  -0.6000000000E-01   0.2500000000E+02  -0.3295275013E-15   0.0000000000E+00   0.9585218565E-15   0.0000000000E+00   0.0000000000E+00   0.2500000000E+00  -0.7500000000E-01   0.2492156827E-16  -0.7500000000E-01   0.0000000000E+00   0.0000000000E+00   0.2500000000E+02
   0.1250000000E+01   0.1850000000E+01   0.5000000000E-01  -0.3000000000E-01   0.2000000000E+00  -0.1200000000E+00   0.2500000000E+02   0.1426678265E-14   0.0000000000E+00   0.7909616401E-15   0.0000000000E+00   0.0000000000E+00   0.2500000000E+00  -0.7500000000E-01   0.2056500264E-16  -0.7500000000E-01   0.0000000000E+00   0.0000000000E+00   0.2500000000E+02
   0.0000000000E+00   0.9250000000E+00   0.0000000000E+00  -0.1500000000E-01   0.0000000000E+00  -0.6000000000E-01   0.2500000000E+02   0.9917581883E-15   0.0000000000E+00   0.6060783099E-15   0.0000000000E+00   0.0000000000E+00   0.2500000000E+00  -0.7500000000E-01   0.1575803606E-16  -0.7500000000E-01   0.0000000000E+00   0.0000000000E+00   0.2500000000E+02
   0.1250000000E+01   0.9250000000E+00   0.5000000000E-01  -0.1500000000E-01   0.2000000000E+00  -0.6000000000E-01   0.2500000000E+02   0.9917581883E-15   0.0000000000E+00   0.6060783099E-15   0.0000000000E+00   0.0000000000E+00   0.2500000000E+00  -0.7500000000E-01   0.1575803606E-16  -0.7500000000E-01   0.0000000000E+00   0.0000000000E+00   0.2500000000E+02
           1           5           9           8
           5           2           6           9
           9           6           3           7
           8           9           7           4
 VARIABLES = X,Y,DU1,DU2,U1,U2,S11,S22,S33,S12,S13,S23,E11,E22,E12,E33,E13,E23,SMISES
 ZONE, T="0.6000D+01" F=FEPOINT, I=    9 J=    4
   0.0000000000E+00   0.0000000000E+00   0.0000000000E+00   0.0000000000E+00   0.0000000000E+00   0.0000000000E+00   0.3000000000E+02   0.5912323859E-14   0.0000000000E+00   0.3348393356E-14   0.0000000000E+00   0.0000000000E+00   0.3000000000E+00  -0.9000000000E-01   0.8705822725E-16  -0.9000000000E-01   0.0000000000E+00   0.0000000000E+00   0.3000000000E+02
   0.2600000000E+01   0.0000000000E+00   0.1000000000E+00   0.0000000000E+00   0.5000000000E+00   0.0000000000E+00   0.3000000000E+02  -0.2546663762E-14   0.0000000000E+00   0.1678687180E-14   0.0000000000E+00   0.0000000000E+00   0.3000000000E+00  -0.9000000000E-01   0.4364586668E-16  -0.9000000000E-01   0.0000000000E+00   0.0000000000E+00   0.3000000000E+02
   0.2600000000E+01   0.1820000000E+01   0.1000000000E+00  -0.3000000000E-01   0.5000000000E+00  -0.1500000000E+00   0.3000000000E+02   0.6301857302E-15   0.0000000000E+00  -0.2757487615E-15   0.0000000000E+00   0.0000000000E+00   0.3000000000E+00  -0.9000000000E-01  -0.7169467799E-17  -0.9000000000E-01   0.0000000000E+00   0.0000000000E+00   0.3000000000E+02
   0.0000000000E+00   0.1820000000E+01   0.0000000000E+00  -0.3000000000E-01   0.0000000000E+00  -0.1500000000E+00   0.3000000000E+02  -0.3882221440E-14   0.0000000000E+00  -0.1312117383E-14   0.0000000000E+00   0.0000000000E+00   0.3000000000E+00  -0.9000000000E-01  -0.3411505195E-16  -0.9000000000E-01   0.0000000000E+00   0.0000000000E+00   0.3000000000E+02
   0.1300000000E+01   0.0000000000E+00   0.5000000000E-01   0.0000000000E+00   0.2500000000E+00   0.0000000000E+00   0.3000000000E+02   0.1682830049E-14   0.0000000000E+00   0.2513540268E-14   0.0000000000E+00   0.0000000000E+00   0.3000000000E+00  -0.9000000000E-01   0.6535204696E-16  -0.9000000000E-01   0.0000000000E+00   0.0000000000E+00   0.3000000000E+02
   0.2600000000E+01   0.9100000000E+00   0.1000000000E+00  -0.1500000000E-01   0.5000000000E+00  -0.7500000000E-01   0.3000000000E+02  -0.9582390158E-15   0.0000000000E+00   0.7014692092E-15   0.0000000000E+00   0.0000000000E+00   0.3000000000E+00  -0.9000000000E-01   0.1823819944E-16  -0.9000000000E-01   0.0000000000E+00   0.0000000000E+00   0.3000000000E+02
   0.1300000000E+01   0.1820000000E+01   0.5000000000E-01  -0.3000000000E-01   0.2500000000E+00  -0.1500000000E+00   0.3000000000E+02  -0.1626017855E-14   0.0000000000E+00  -0.7939330722E-15   0.0000000000E+00   0.0000000000E+00   0.3000000000E+00  -0.9000000000E-01  -0.2064225988E-16  -0.9000000000E-01   0.0000000000E+00   0.0000000000E+00   0.3000000000E+02
   0.0000000000E+00   0.9100000000E+00   0.0000000000E+00  -0.1500000000E-01   0.0000000000E+00  -0.7500000000E-01   0.3000000000E+02   0.1015051210E-14   0.0000000000E+00   0.1018137987E-14   0.0000000000E+00   0.0000000000E+00   0.3000000000E+00  -0.9000000000E-01   0.2647158765E-16  -0.9000000000E-01   0.0000000000E+00   0.0000000000E+00   0.3000000000E+02
   0.1300000000E+01   0.9100000000E+00   0.5000000000E-01  -0.1500000000E-01   0.2500000000E+00  -0.7500000000E-01   0.3000000000E+02   0.1015051210E-14   0.0000000000E+00   0.1018137987E-14   0.0000000000E+00   0.0000000000E+00   0.3000000000E+00  -0.9000000000E-01   0.2647158765E-16  -0.9000000000E-01   0.0000000000E+00   0.0000000000E+00   0.3000000000E+02
           1           5           9           8
           5           2           6           9
           9           6           3           7
           8           9           7           4
 VARIABLES = X,Y,DU1,DU2,U1,U2,S11,S22,S33,S12,S13,S23,E11,E22,E12,E33,E13,E23,SMISES
 ZONE, T="0.7000D+01" F=FEPOINT, I=    9 J=    4
   0.0000000000E+00   0.0000000000E+00   0.0000000000E+00   0.0000000000E+00   0.0000000000E+00   0.0000000000E+00   0.3500000000E+02   0.6547995907E-14   0.0000000000E+00   0.3321357140E-14   0.0000000000E+00   0.0000000000E+00   0.3500000000E+00  -0.1050000000E+00   0.8635528565E-16  -0.1050000000E+00   0.0000000000E+00   0.0000000000E+00   0.3500000000E+02
   0.2700000000E+01   0.0000000000E+00   0.1000000000E+00   0.0000000000E+00   0.6000000000E+00   0.0000000000E+00   0.3500000000E+02  -0.9288045525E-14   0.0000000000E+00   0.3050452705E-14   0.0000000000E+00   0.0000000000E+00   0.3500000000E+00  -0.1050000000E+00   0.7931177032E-16  -0.1050000000E+00   0.0000000000E+00   0.0000000000E+00   0.3500000000E+02
   0.2700000000E+01   0.1790000000E+01   0.1000000000E+00  -0.3000000000E-01   0.6000000000E+00  -0.1800000000E+00   0.3500000000E+02   0.4342598076E-14   0.0000000000E+00  -0.2517748959E-15   0.0000000000E+00   0.0000000000E+00   0.3500000000E+00  -0.1050000000E+00  -0.6546147294E-17  -0.1050000000E+00   0.0000000000E+00   0.0000000000E+00   0.3500000000E+02
   0.0000000000E+00   0.1790000000E+01   0.0000000000E+00  -0.3000000000E-01   0.0000000000E+00  -0.1800000000E+00   0.3500000000E+02  -0.2698893694E-14   0.0000000000E+00  -0.1691072436E-15   0.0000000000E+00   0.0000000000E+00   0.3500000000E+00  -0.1050000000E+00  -0.4396788333E-17  -0.1050000000E+00   0.0000000000E+00   0.0000000000E+00   0.3500000000E+02
   0.1350000000E+01   0.0000000000E+00   0.5000000000E-01   0.0000000000E+00   0.3000000000E+00   0.0000000000E+00   0.3500000000E+02  -0.1370024809E-14   0.0000000000E+00   0.3185904923E-14   0.0000000000E+00   0.0000000000E+00   0.3500000000E+00  -0.1050000000E+00   0.8283352799E-16  -0.1050000000E+00   0.0000000000E+00   0.0000000000E+00   0.3500000000E+02
   0.2700000000E+01   0.8950000000E+00   0.1000000000E+00  -0.1500000000E-01   0.6000000000E+00  -0.9000000000E-01   0.3500000000E+02  -0.2472723724E-14   0.0000000000E+00   0.1399338904E-14   0.0000000000E+00   0.0000000000E+00   0.3500000000E+00  -0.1050000000E+00   0.3638281151E-16  -0.1050000000E+00   0.0000000000E+00   0.0000000000E+00   0.3500000000E+02
   0.1350000000E+01   0.1790000000E+01   0.5000000000E-01  -0.3000000000E-01   0.3000000000E+00  -0.1800000000E+00   0.3500000000E+02   0.8218521906E-15   0.0000000000E+00  -0.2104410698E-15   0.0000000000E+00   0.0000000000E+00   0.3500000000E+00  -0.1050000000E+00  -0.5471467814E-17  -0.1050000000E+00   0.0000000000E+00   0.0000000000E+00   0.3500000000E+02
   0.0000000000E+00   0.8950000000E+00   0.0000000000E+00  -0.1500000000E-01   0.0000000000E+00  -0.9000000000E-01   0.3500000000E+02   0.1924551106E-14   0.0000000000E+00   0.1576124948E-14   0.0000000000E+00   0.0000000000E+00   0.3500000000E+00  -0.1050000000E+00   0.4097924866E-16  -0.1050000000E+00   0.0000000000E+00   0.0000000000E+00   0.3500000000E+02
   0.1350000000E+01   0.8950000000E+00   0.5000000000E-01  -0.1500000000E-01   0.3000000000E+00  -0.9000000000E-01   0.3500000000E+02   0.1924551106E-14   0.0000000000E+00   0.1576124948E-14   0.0000000000E+00   0.0000000000E+00   0.3500000000E+00  -0.1050000000E+00   0.4097924866E-16  -0.1050000000E+00   0.0000000000E+00   0.0000000000E+00   0.3500000000E+02
           1           5           9           8
           5           2           6           9
           9           6           3           7
           8           9           7           4
 VARIABLES = X,Y,DU1,DU2,U1,U2,S11,S22,S33,S12,S13,S23,E11,E22,E12,E33,E13,E23,SMISES
 ZONE, T="0.8000D+01" F=FEPOINT, I=    9 J=    4
   0.0000000000E+00   0.0000000000E+00   0.0000000000E+00   0.0000000000E+00   0.0000000000E+00   0.0000000000E+00   0.4000000000E+02   0.1019937776E-13   0.0000000000E+00   0.1416287122E-14   0.0000000000E+00   0.0000000000E+00   0.4000000000E+00  -0.1200000000E+00   0.3682346516E-16  -0.1200000000E+00   0.0000000000E+00   0.0000000000E+00   0.4000000000E+02
   0.2800000000E+01   0.0000000000E+00   0.1000000000E+00   0.0000000000E+00   0.7000000000E+00   0.0000000000E+00   0.4000000000E+02  -0.8442344116E-14   0.0000000000E+00   0.1144684951E-13   0.0000000000E+00   0.0000000000E+00   0.4000000000E+00  -0.1200000000E+00   0.2976180871E-15  -0.1200000000E+00   0.0000000000E+00   0.0000000000E+00   0.4000000000E+02
   0.2800000000E+01   0.1760000000E+01   0.1000000000E+00  -0.3000000000E-01   0.7000000000E+00  -0.2100000000E+00   0.4000000000E+02  -0.2571798640E-14   0.0000000000E+00  -0.4821783086E-14   0.0000000000E+00   0.0000000000E+00   0.4000000000E+00  -0.1200000000E+00  -0.1253663602E-15  -0.1200000000E+00   0.0000000000E+00   0.0000000000E+00   0.4000000000E+02
   0.0000000000E+00   0.1760000000E+01   0.0000000000E+00  -0.3000000000E-01   0.0000000000E+00  -0.2100000000E+00   0.4000000000E+02   0.7878767784E-15   0.0000000000E+00   0.1989275777E-14   0.0000000000E+00   0.0000000000E+00   0.4000000000E+00  -0.1200000000E+00   0.5172117020E-16  -0.1200000000E+00   0.0000000000E+00   0.0000000000E+00   0.4000000000E+02
   0.1400000000E+01   0.0000000000E+00   0.5000000000E-01   0.0000000000E+00   0.3500000000E+00   0.0000000000E+00   0.4000000000E+02   0.8785168238E-15   0.0000000000E+00   0.6431568313E-14   0.0000000000E+00   0.0000000000E+00   0.4000000000E+00  -0.1200000000E+00   0.1672207762E-15  -0.1200000000E+00   0.0000000000E+00   0.0000000000E+00   0.4000000000E+02
   0.2800000000E+01   0.8800000000E+00   0.1000000000E+00  -0.1500000000E-01   0.7000000000E+00  -0.1050000000E+00   0.4000000000E+02  -0.5507071378E-14   0.0000000000E+00   0.3312533210E-14   0.0000000000E+00   0.0000000000E+00   0.4000000000E+00  -0.1200000000E+00   0.8612586345E-16  -0.1200000000E+00   0.0000000000E+00   0.0000000000E+00   0.4000000000E+02
   0.1400000000E+01   0.1760000000E+01   0.5000000000E-01  -0.3000000000E-01   0.3500000000E+00  -0.2100000000E+00   0.4000000000E+02  -0.8919609308E-15   0.0000000000E+00  -0.1416253655E-14   0.0000000000E+00   0.0000000000E+00   0.4000000000E+00  -0.1200000000E+00  -0.3682259502E-16  -0.1200000000E+00   0.0000000000E+00   0.0000000000E+00   0.4000000000E+02
   0.0000000000E+00   0.8800000000E+00   0.0000000000E+00  -0.1500000000E-01   0.0000000000E+00  -0.1050000000E+00   0.4000000000E+02   0.5493627271E-14   0.0000000000E+00   0.1702781449E-14   0.0000000000E+00   0.0000000000E+00   0.4000000000E+00  -0.1200000000E+00   0.4427231768E-16  -0.1200000000E+00   0.0000000000E+00   0.0000000000E+00   0.4000000000E+02
   0.1400000000E+01   0.8800000000E+00   0.5000000000E-01  -0.1500000000E-01   0.3500000000E+00  -0.1050000000E+00   0.4000000000E+02   0.5493627271E-14   0.0000000000E+00   0.1702781449E-14   0.0000000000E+00   0.0000000000E+00   0.4000000000E+00  -0.1200000000E+00   0.4427231768E-16  -0.1200000000E+00   0.0000000000E+00   0.0000000000E+00   0.4000000000E+02
           1           5           9           8
           5           2           6           9
           9           6           3           7
           8           9           7           4
 VARIABLES = X,Y,DU1,DU2,U1,U2,S11,S22,S33,S12,S13,S23,E11,E22,E12,E33,E13,E23,SMISES
 ZONE, T="0.9000D+01" F=FEPOINT, I=    9 J=    4
   0.0000000000E+00   0.0000000000E+00   0.0000000000E+00   0.0000000000E+00   0.0000000000E+00   0.0000000000E+00   0.4500000000E+02   0.2353600484E-14   0.0000000000E+00   0.5510108180E-14   0.0000000000E+00   0.0000000000E+00   0.4500000000E+00  -0.1350000000E+00   0.1432628127E-15  -0.1350000000E+00   0.0000000000E+00   0.0000000000E+00   0.4500000000E+02
   0.2900000000E+01   0.0000000000E+00   0.1000000000E+00   0.0000000000E+00   0.8000000000E+00   0.0000000000E+00   0.4500000000E+02  -0.2228612053E-14   0.0000000000E+00  -0.4489770586E-14   0.0000000000E+00   0.0000000000E+00   0.4500000000E+00  -0.1350000000E+00  -0.1167340352E-15  -0.1350000000E+00   0.0000000000E+00   0.0000000000E+00   0.4500000000E+02
   0.2900000000E+01   0.1730000000E+01   0.1000000000E+00  -0.3000000000E-01   0.8000000000E+00  -0.2400000000E+00   0.4500000000E+02  -0.2058697493E-14   0.0000000000E+00   0.4581149149E-14   0.0000000000E+00   0.0000000000E+00   0.4500000000E+00  -0.1350000000E+00   0.1191098779E-15  -0.1350000000E+00   0.0000000000E+00   0.0000000000E+00   0.4500000000E+02
   0.0000000000E+00   0.1730000000E+01   0.0000000000E+00  -0.3000000000E-01   0.0000000000E+00  -0.2400000000E+00   0.4500000000E+02   0.1719470713E-14   0.0000000000E+00  -0.2388821087E-14   0.0000000000E+00   0.0000000000E+00   0.4500000000E+00  -0.1350000000E+00  -0.6210934827E-16  -0.1350000000E+00   0.0000000000E+00   0.0000000000E+00   0.4500000000E+02
   0.1450000000E+01   0.0000000000E+00   0.5000000000E-01   0.0000000000E+00   0.4000000000E+00   0.0000000000E+00   0.4500000000E+02   0.6249421543E-16   0.0000000000E+00   0.5101687971E-15   0.0000000000E+00   0.0000000000E+00   0.4500000000E+00  -0.1350000000E+00   0.1326438872E-16  -0.1350000000E+00   0.0000000000E+00   0.0000000000E+00   0.4500000000E+02
   0.2900000000E+01   0.8650000000E+00   0.1000000000E+00  -0.1500000000E-01   0.8000000000E+00  -0.1200000000E+00   0.4500000000E+02  -0.2143654773E-14   0.0000000000E+00   0.4568928163E-16   0.0000000000E+00   0.0000000000E+00   0.4500000000E+00  -0.1350000000E+00   0.1187921322E-17  -0.1350000000E+00   0.0000000000E+00   0.0000000000E+00   0.4500000000E+02
   0.1450000000E+01   0.1730000000E+01   0.5000000000E-01  -0.3000000000E-01   0.4000000000E+00  -0.2400000000E+00   0.4500000000E+02  -0.1696133901E-15   0.0000000000E+00   0.1096164031E-14   0.0000000000E+00   0.0000000000E+00   0.4500000000E+00  -0.1350000000E+00   0.2850026481E-16  -0.1350000000E+00   0.0000000000E+00   0.0000000000E+00   0.4500000000E+02
   0.0000000000E+00   0.8650000000E+00   0.0000000000E+00  -0.1500000000E-01   0.0000000000E+00  -0.1200000000E+00   0.4500000000E+02   0.2036535598E-14   0.0000000000E+00   0.1560643546E-14   0.0000000000E+00   0.0000000000E+00   0.4500000000E+00  -0.1350000000E+00   0.4057673221E-16  -0.1350000000E+00   0.0000000000E+00   0.0000000000E+00   0.4500000000E+02
   0.1450000000E+01   0.8650000000E+00   0.5000000000E-01  -0.1500000000E-01   0.4000000000E+00  -0.1200000000E+00   0.4500000000E+02   0.2036535598E-14   0.0000000000E+00   0.1560643546E-14   0.0000000000E+00   0.0000000000E+00   0.4500000000E+00  -0.1350000000E+00   0.4057673221E-16  -0.1350000000E+00   0.0000000000E+00   0.0000000000E+00   0.4500000000E+02
           1           5           9           8
           5           2           6           9
           9           6           3           7
           8           9           7           4
 VARIABLES = X,Y,DU1,DU2,U1,U2,S11,S22,S33,S12,S13,S23,E11,E22,E12,E33,E13,E23,SMISES
 ZONE, T="0.1000D+02" F=FEPOINT, I=    9 J=    4
   0.0000000000E+00   0.0000000000E+00   0.0000000000E+00   0.0000000000E+00   0.0000000000E+00   0.0000000000E+00   0.5000000000E+02   0.9114729813E-14   0.0000000000E+00   0.9854603970E-14   0.0000000000E+00   0.0000000000E+00   0.5000000000E+00  -0.1500000000E+00   0.2562197032E-15  -0.1500000000E+00   0.0000000000E+00   0.0000000000E+00   0.5000000000E+02
   0.3000000000E+01   0.0000000000E+00   0.1000000000E+00   0.0000000000E+00   0.9000000000E+00   0.0000000000E+00   0.5000000000E+02  -0.6203175857E-14   0.0000000000E+00  -0.4743651476E-14   0.0000000000E+00   0.0000000000E+00   0.5000000000E+00  -0.1500000000E+00  -0.1233349384E-15  -0.1500000000E+00   0.0000000000E+00   0.0000000000E+00   0.5000000000E+02
   0.3000000000E+01   0.1700000000E+01   0.1000000000E+00  -0.3000000000E-01   0.9000000000E+00  -0.2700000000E+00   0.5000000000E+02  -0.6734689204E-14   0.0000000000E+00   0.3313858901E-14   0.0000000000E+00   0.0000000000E+00   0.5000000000E+00  -0.1500000000E+00   0.8616033143E-16  -0.1500000000E+00   0.0000000000E+00   0.0000000000E+00   0.5000000000E+02
   0.0000000000E+00   0.1700000000E+01   0.0000000000E+00  -0.3000000000E-01   0.0000000000E+00  -0.2700000000E+00   0.5000000000E+02   0.6975127803E-14   0.0000000000E+00  -0.3044914209E-14   0.0000000000E+00   0.0000000000E+00   0.5000000000E+00  -0.1500000000E+00  -0.7916776943E-16  -0.1500000000E+00   0.0000000000E+00   0.0000000000E+00   0.5000000000E+02
   0.1500000000E+01   0.0000000000E+00   0.5000000000E-01   0.0000000000E+00   0.4500000000E+00   0.0000000000E+00   0.5000000000E+02   0.1455776978E-14   0.0000000000E+00   0.2555476247E-14   0.0000000000E+00   0.0000000000E+00   0.5000000000E+00  -0.1500000000E+00   0.6644238242E-16  -0.1500000000E+00   0.0000000000E+00   0.0000000000E+00   0.5000000000E+02
   0.3000000000E+01   0.8500000000E+00   0.1000000000E+00  -0.1500000000E-01   0.9000000000E+00  -0.1350000000E+00   0.5000000000E+02  -0.6468932530E-14   0.0000000000E+00  -0.7148962874E-15   0.0000000000E+00   0.0000000000E+00   0.5000000000E+00  -0.1500000000E+00  -0.1858730347E-16  -0.1500000000E+00   0.0000000000E+00   0.0000000000E+00   0.5000000000E+02
   0.1500000000E+01   0.1700000000E+01   0.5000000000E-01  -0.3000000000E-01   0.4500000000E+00  -0.2700000000E+00   0.5000000000E+02   0.1202192998E-15   0.0000000000E+00   0.1344723461E-15   0.0000000000E+00   0.0000000000E+00   0.5000000000E+00  -0.1500000000E+00   0.3496280999E-17  -0.1500000000E+00   0.0000000000E+00   0.0000000000E+00   0.5000000000E+02
   0.0000000000E+00   0.8500000000E+00   0.0000000000E+00  -0.1500000000E-01   0.0000000000E+00  -0.1350000000E+00   0.5000000000E+02   0.8044928808E-14   0.0000000000E+00   0.3404844881E-14   0.0000000000E+00   0.0000000000E+00   0.5000000000E+00  -0.1500000000E+00   0.8852596689E-16  -0.1500000000E+00   0.0000000000E+00   0.0000000000E+00   0.5000000000E+02
   0.1500000000E+01   0.8500000000E+00   0.5000000000E-01  -0.1500000000E-01   0.4500000000E+00  -0.1350000000E+00   0.5000000000E+02   0.8044928808E-14   0.0000000000E+00   0.3404844881E-14   0.0000000000E+00   0.0000000000E+00   0.5000000000E+00  -0.1500000000E+00   0.8852596689E-16  -0.1500000000E+00   0.0000000000E+00   0.0000000000E+00   0.5000000000E+02
           1           5           9           8
           5           2           6           9
           9           6           3           7
           8           9           7           4
