 VARIABLES = X,Y,DU1,DU2,U1,U2,S11,S22,S33,S12,S13,S23,E11,E22,E12,E33,E13,E23,SMISES
 ZONE, T="0.1000D+01" F=FEPOINT, I=    9 J=    4
   0.0000000000E+00   0.0000000000E+00   0.0000000000E+00   0.0000000000E+00   0.0000000000E+00   0.0000000000E+00   0.5494505495E+01   0.7418168220E-15   0.1648351648E+01   0.1291604555E-14   0.0000000000E+00   0.0000000000E+00   0.5000000000E-01  -0.2142857143E-01   0.1679085922E-16   0.0000000000E+00   0.0000000000E+00   0.0000000000E+00   0.4883623306E+01
   0.2100000000E+01   0.0000000000E+00   0.1000000000E+00   0.0000000000E+00   0.0000000000E+00   0.0000000000E+00   0.5494505495E+01  -0.1689496347E-15   0.1648351648E+01  -0.7806860763E-15   0.0000000000E+00   0.0000000000E+00   0.5000000000E-01  -0.2142857143E-01  -0.1014891899E-16   0.0000000000E+00   0.0000000000E+00   0.0000000000E+00   0.4883623306E+01
   0.2100000000E+01   0.1957142857E+01   0.1000000000E+00  -0.4285714286E-01   0.0000000000E+00   0.0000000000E+00   0.5494505495E+01  -0.3342600993E-14   0.1648351648E+01  -0.2618894059E-15   0.0000000000E+00   0.0000000000E+00   0.5000000000E-01  -0.2142857143E-01  -0.3404562276E-17   0.0000000000E+00   0.0000000000E+00   0.0000000000E+00   0.4883623306E+01
   0.0000000000E+00   0.1957142857E+01   0.0000000000E+00  -0.4285714286E-01   0.0000000000E+00   0.0000000000E+00   0.5494505495E+01   0.1289797841E-14   0.1648351648E+01  -0.3399059347E-15   0.0000000000E+00   0.0000000000E+00   0.5000000000E-01  -0.2142857143E-01  -0.4418777152E-17   0.0000000000E+00   0.0000000000E+00   0.0000000000E+00   0.4883623306E+01
   0.1050000000E+01   0.0000000000E+00   0.5000000000E-01   0.0000000000E+00   0.0000000000E+00   0.0000000000E+00   0.5494505495E+01   0.2864335936E-15   0.1648351648E+01   0.2554592394E-15   0.0000000000E+00   0.0000000000E+00   0.5000000000E-01  -0.2142857143E-01   0.3320970113E-17   0.0000000000E+00   0.0000000000E+00   0.0000000000E+00   0.4883623306E+01
   0.2100000000E+01   0.9785714286E+00   0.1000000000E+00  -0.2142857143E-01   0.0000000000E+00   0.0000000000E+00   0.5494505495E+01  -0.1755775314E-14   0.1648351648E+01  -0.5212877411E-15   0.0000000000E+00   0.0000000000E+00   0.5000000000E-01  -0.2142857143E-01  -0.6776740634E-17   0.0000000000E+00   0.0000000000E+00   0.0000000000E+00   0.4883623306E+01
   0.1050000000E+01   0.1957142857E+01   0.5000000000E-01  -0.4285714286E-01   0.0000000000E+00   0.0000000000E+00   0.5494505495E+01  -0.1026401576E-14   0.1648351648E+01  -0.3008976703E-15   0.0000000000E+00   0.0000000000E+00   0.5000000000E-01  -0.2142857143E-01  -0.3911669714E-17   0.0000000000E+00   0.0000000000E+00   0.0000000000E+00   0.4883623306E+01
   0.0000000000E+00   0.9785714286E+00   0.0000000000E+00  -0.2142857143E-01   0.0000000000E+00   0.0000000000E+00   0.5494505495E+01   0.1015807331E-14   0.1648351648E+01   0.4758493102E-15   0.0000000000E+00   0.0000000000E+00   0.5000000000E-01  -0.2142857143E-01   0.6186041032E-17   0.0000000000E+00   0.0000000000E+00   0.0000000000E+00   0.4883623306E+01
   0.1050000000E+01   0.9785714286E+00   0.5000000000E-01  -0.2142857143E-01   0.0000000000E+00   0.0000000000E+00   0.5494505495E+01   0.1015807331E-14   0.1648351648E+01   0.4758493102E-15   0.0000000000E+00   0.0000000000E+00   0.5000000000E-01  -0.2142857143E-01   0.6186041032E-17   0.0000000000E+00   0.0000000000E+00   0.0000000000E+00   0.4883623306E+01
           1           5           9           8
           5           2           6           9
           9           6           3           7
           8           9           7           4
 VARIABLES = X,Y,DU1,DU2,U1,U2,S11,S22,S33,S12,S13,S23,E11,E22,E12,E33,E13,E23,SMISES
 ZONE, T="0.2000D+01" F=FEPOINT, I=    9 J=    4
   0.0000000000E+00   0.0000000000E+00   0.0000000000E+00   0.0000000000E+00   0.0000000000E+00   0.0000000000E+00   0.1098901099E+02   0.1619277062E-14   0.3296703297E+01   0.1579889446E-14   0.0000000000E+00   0.0000000000E+00   0.1000000000E+00  -0.4285714286E-01   0.2053856279E-16   0.0000000000E+00   0.0000000000E+00   0.0000000000E+00   0.9767246612E+01
   0.2200000000E+01   0.0000000000E+00   0.1000000000E+00   0.0000000000E+00   0.1000000000E+00   0.0000000000E+00   0.1098901099E+02  -0.3726195846E-14   0.3296703297E+01  -0.1276501619E-14   0.0000000000E+00   0.0000000000E+00   0.1000000000E+00  -0.4285714286E-01  -0.1659452105E-16   0.0000000000E+00   0.0000000000E+00   0.0000000000E+00   0.9767246612E+01
   0.2200000000E+01   0.1914285714E+01   0.1000000000E+00  -0.4285714286E-01   0.1000000000E+00  -0.4285714286E-01   0.1098901099E+02   0.1539654388E-14   0.3296703297E+01   0.6685920910E-15   0.0000000000E+00   0.0000000000E+00   0.1000000000E+00  -0.4285714286E-01   0.8691697183E-17   0.0000000000E+00   0.0000000000E+00   0.0000000000E+00   0.9767246612E+01
   0.0000000000E+00   0.1914285714E+01   0.0000000000E+00  -0.4285714286E-01   0.0000000000E+00  -0.4285714286E-01   0.1098901099E+02  -0.2347071044E-14   0.3296703297E+01   0.1250906403E-15   0.0000000000E+00   0.0000000000E+00   0.1000000000E+00  -0.4285714286E-01   0.1626178323E-17   0.0000000000E+00   0.0000000000E+00   0.0000000000E+00   0.9767246612E+01
   0.1100000000E+01   0.0000000000E+00   0.5000000000E-01   0.0000000000E+00   0.5000000000E-01   0.0000000000E+00   0.1098901099E+02  -0.1053459392E-14   0.3296703297E+01   0.1516939132E-15   0.0000000000E+00   0.0000000000E+00   0.1000000000E+00  -0.4285714286E-01   0.1972020871E-17   0.0000000000E+00   0.0000000000E+00   0.0000000000E+00   0.9767246612E+01
   0.2200000000E+01   0.9571428571E+00   0.1000000000E+00  -0.2142857143E-01   0.1000000000E+00  -0.2142857143E-01   0.1098901099E+02  -0.1093270729E-14   0.3296703297E+01  -0.3039547641E-15   0.0000000000E+00   0.0000000000E+00   0.1000000000E+00  -0.4285714286E-01  -0.3951411934E-17   0.0000000000E+00   0.0000000000E+00   0.0000000000E+00   0.9767246612E+01
   0.1100000000E+01   0.1914285714E+01   0.5000000000E-01  -0.4285714286E-01   0.5000000000E-01  -0.4285714286E-01   0.1098901099E+02  -0.4037083279E-15   0.3296703297E+01   0.3968413656E-15   0.0000000000E+00   0.0000000000E+00   0.1000000000E+00  -0.4285714286E-01   0.5158937753E-17   0.0000000000E+00   0.0000000000E+00   0.0000000000E+00   0.9767246612E+01
   0.0000000000E+00   0.9571428571E+00   0.0000000000E+00  -0.2142857143E-01   0.0000000000E+00  -0.2142857143E-01   0.1098901099E+02  -0.3638969911E-15   0.3296703297E+01   0.8524900430E-15   0.0000000000E+00   0.0000000000E+00   0.1000000000E+00  -0.4285714286E-01   0.1108237056E-16   0.0000000000E+00   0.0000000000E+00   0.0000000000E+00   0.9767246612E+01
   0.1100000000E+01   0.9571428571E+00   0.5000000000E-01  -0.2142857143E-01   0.5000000000E-01  -0.2142857143E-01   0.1098901099E+02  -0.3638969911E-15   0.3296703297E+01   0.8524900430E-15   0.0000000000E+00   0.0000000000E+00   0.1000000000E+00  -0.4285714286E-01   0.1108237056E-16   0.0000000000E+00   0.0000000000E+00   0.0000000000E+00   0.9767246612E+01
           1           5           9           8
           5           2           6           9
           9           6           3           7
           8           9           7           4
 VARIABLES = X,Y,DU1,DU2,U1,U2,S11,S22,S33,S12,S13,S23,E11,E22,E12,E33,E13,E23,SMISES
 ZONE, T="0.3000D+01" F=FEPOINT, I=    9 J=    4
   0.0000000000E+00   0.0000000000E+00   0.0000000000E+00   0.0000000000E+00   0.0000000000E+00   0.0000000000E+00   0.1648351648E+02   0.3680661567E-15   0.4945054945E+01   0.2256076010E-14   0.0000000000E+00   0.0000000000E+00   0.1500000000E+00  -0.6428571429E-01   0.2932898813E-16   0.0000000000E+00   0.0000000000E+00   0.0000000000E+00   0.1465086992E+02
   0.2300000000E+01   0.0000000000E+00   0.1000000000E+00   0.0000000000E+00   0.2000000000E+00   0.0000000000E+00   0.1648351648E+02  -0.1739702179E-14   0.4945054945E+01  -0.5868108060E-15   0.0000000000E+00   0.0000000000E+00   0.1500000000E+00  -0.6428571429E-01  -0.7628540478E-17   0.0000000000E+00   0.0000000000E+00   0.0000000000E+00   0.1465086992E+02
   0.2300000000E+01   0.1871428571E+01   0.1000000000E+00  -0.4285714286E-01   0.2000000000E+00  -0.8571428571E-01   0.1648351648E+02  -0.3025662522E-14   0.4945054945E+01   0.1466943286E-14   0.0000000000E+00   0.0000000000E+00   0.1500000000E+00  -0.6428571429E-01   0.1907026271E-16   0.0000000000E+00   0.0000000000E+00   0.0000000000E+00   0.1465086992E+02
   0.0000000000E+00   0.1871428571E+01   0.0000000000E+00  -0.4285714286E-01   0.0000000000E+00  -0.8571428571E-01   0.1648351648E+02   0.4413778417E-14   0.4945054945E+01  -0.9401289723E-15   0.0000000000E+00   0.0000000000E+00   0.1500000000E+00  -0.6428571429E-01  -0.1222167664E-16   0.0000000000E+00   0.0000000000E+00   0.0000000000E+00   0.1465086992E+02
   0.1150000000E+01   0.0000000000E+00   0.5000000000E-01   0.0000000000E+00   0.1000000000E+00   0.0000000000E+00   0.1648351648E+02  -0.6858180112E-15   0.4945054945E+01   0.8346326022E-15   0.0000000000E+00   0.0000000000E+00   0.1500000000E+00  -0.6428571429E-01   0.1085022383E-16   0.0000000000E+00   0.0000000000E+00   0.0000000000E+00   0.1465086992E+02
   0.2300000000E+01   0.9357142857E+00   0.1000000000E+00  -0.2142857143E-01   0.2000000000E+00  -0.4285714286E-01   0.1648351648E+02  -0.2382682350E-14   0.4945054945E+01   0.4400662398E-15   0.0000000000E+00   0.0000000000E+00   0.1500000000E+00  -0.6428571429E-01   0.5720861117E-17   0.0000000000E+00   0.0000000000E+00   0.0000000000E+00   0.1465086992E+02
   0.1150000000E+01   0.1871428571E+01   0.5000000000E-01  -0.4285714286E-01   0.1000000000E+00  -0.8571428571E-01   0.1648351648E+02   0.6940579477E-15   0.4945054945E+01   0.2634071566E-15   0.0000000000E+00   0.0000000000E+00   0.1500000000E+00  -0.6428571429E-01   0.3424293036E-17   0.0000000000E+00   0.0000000000E+00   0.0000000000E+00   0.1465086992E+02
   0.0000000000E+00   0.9357142857E+00   0.0000000000E+00  -0.2142857143E-01   0.0000000000E+00  -0.4285714286E-01   0.1648351648E+02   0.2390922287E-14   0.4945054945E+01   0.6579735190E-15   0.0000000000E+00   0.0000000000E+00   0.1500000000E+00  -0.6428571429E-01   0.8553655747E-17   0.0000000000E+00   0.0000000000E+00   0.0000000000E+00   0.1465086992E+02
   0.1150000000E+01   0.9357142857E+00   0.5000000000E-01  -0.2142857143E-01   0.1000000000E+00  -0.4285714286E-01   0.1648351648E+02   0.2390922287E-14   0.4945054945E+01   0.6579735190E-15   0.0000000000E+00   0.0000000000E+00   0.1500000000E+00  -0.6428571429E-01   0.8553655747E-17   0.0000000000E+00   0.0000000000E+00   0.0000000000E+00   0.1465086992E+02
           1           5           9           8
           5           2           6           9
           9           6           3           7
           8           9           7           4
 VARIABLES = X,Y,DU1,DU2,U1,U2,S11,S22,S33,S12,S13,S23,E11,E22,E12,E33,E13,E23,SMISES
 ZONE, T="0.4000D+01" F=FEPOINT, I=    9 J=    4
   0.0000000000E+00   0.0000000000E+00   0.0000000000E+00   0.0000000000E+00   0.0000000000E+00   0.0000000000E+00   0.2197802198E+02   0.7007708163E-14   0.6593406593E+01   0.3037668207E-14   0.0000000000E+00   0.0000000000E+00   0.2000000000E+00  -0.8571428571E-01   0.3948968669E-16   0.0000000000E+00   0.0000000000E+00   0.0000000000E+00   0.1953449322E+02
   0.2400000000E+01   0.0000000000E+00   0.1000000000E+00   0.0000000000E+00   0.3000000000E+00   0.0000000000E+00   0.2197802198E+02   0.1286790813E-14   0.6593406593E+01  -0.3529367691E-14   0.0000000000E+00   0.0000000000E+00   0.2000000000E+00  -0.8571428571E-01  -0.4588177998E-16   0.0000000000E+00   0.0000000000E+00   0.0000000000E+00   0.1953449322E+02
   0.2400000000E+01   0.1828571429E+01   0.1000000000E+00  -0.4285714286E-01   0.3000000000E+00  -0.1285714286E+00   0.2197802198E+02   0.5357368720E-15   0.6593406593E+01   0.1792830378E-14   0.0000000000E+00   0.0000000000E+00   0.2000000000E+00  -0.8571428571E-01   0.2330679492E-16   0.0000000000E+00   0.0000000000E+00   0.0000000000E+00   0.1953449322E+02
   0.0000000000E+00   0.1828571429E+01   0.0000000000E+00  -0.4285714286E-01   0.0000000000E+00  -0.1285714286E+00   0.2197802198E+02  -0.5502168859E-14   0.6593406593E+01  -0.8417458333E-15   0.0000000000E+00   0.0000000000E+00   0.2000000000E+00  -0.8571428571E-01  -0.1094269583E-16   0.0000000000E+00   0.0000000000E+00   0.0000000000E+00   0.1953449322E+02
   0.1200000000E+01   0.0000000000E+00   0.5000000000E-01   0.0000000000E+00   0.1500000000E+00   0.0000000000E+00   0.2197802198E+02   0.4147249488E-14   0.6593406593E+01  -0.2458497418E-15   0.0000000000E+00   0.0000000000E+00   0.2000000000E+00  -0.8571428571E-01  -0.3196046644E-17   0.0000000000E+00   0.0000000000E+00   0.0000000000E+00   0.1953449322E+02
   0.2400000000E+01   0.9142857143E+00   0.1000000000E+00  -0.2142857143E-01   0.3000000000E+00  -0.6428571429E-01   0.2197802198E+02   0.9112638422E-15   0.6593406593E+01  -0.8682686564E-15   0.0000000000E+00   0.0000000000E+00   0.2000000000E+00  -0.8571428571E-01  -0.1128749253E-16   0.0000000000E+00   0.0000000000E+00   0.0000000000E+00   0.1953449322E+02
   0.1200000000E+01   0.1828571429E+01   0.5000000000E-01  -0.4285714286E-01   0.1500000000E+00  -0.1285714286E+00   0.2197802198E+02  -0.2483215994E-14   0.6593406593E+01   0.4755422724E-15   0.0000000000E+00   0.0000000000E+00   0.2000000000E+00  -0.8571428571E-01   0.6182049541E-17   0.0000000000E+00   0.0000000000E+00   0.0000000000E+00   0.1953449322E+02
   0.0000000000E+00   0.9142857143E+00   0.0000000000E+00  -0.2142857143E-01   0.0000000000E+00  -0.6428571429E-01   0.2197802198E+02   0.7527696521E-15   0.6593406593E+01   0.1097961187E-14   0.0000000000E+00   0.0000000000E+00   0.2000000000E+00  -0.8571428571E-01   0.1427349543E-16   0.0000000000E+00   0.0000000000E+00   0.0000000000E+00   0.1953449322E+02
   0.1200000000E+01   0.9142857143E+00   0.5000000000E-01  -0.2142857143E-01   0.1500000000E+00  -0.6428571429E-01   0.2197802198E+02   0.7527696521E-15   0.6593406593E+01   0.1097961187E-14   0.0000000000E+00   0.0000000000E+00   0.2000000000E+00  -0.8571428571E-01   0.1427349543E-16   0.0000000000E+00   0.0000000000E+00   0.0000000000E+00   0.1953449322E+02
           1           5           9           8
           5           2           6           9
           9           6           3           7
           8           9           7           4
 VARIABLES = X,Y,DU1,DU2,U1,U2,S11,S22,S33,S12,S13,S23,E11,E22,E12,E33,E13,E23,SMISES
 ZONE, T="0.5000D+01" F=FEPOINT, I=    9 J=    4
   0.0000000000E+00   0.0000000000E+00   0.0000000000E+00   0.0000000000E+00   0.0000000000E+00   0.0000000000E+00   0.2747252747E+02   0.4194679441E-14   0.8241758242E+01   0.3565008078E-14   0.0000000000E+00   0.0000000000E+00   0.2500000000E+00  -0.1071428571E+00   0.4634510502E-16   0.0000000000E+00   0.0000000000E+00   0.0000000000E+00   0.2441811653E+02
   0.2500000000E+01   0.0000000000E+00   0.1000000000E+00   0.0000000000E+00   0.4000000000E+00   0.0000000000E+00   0.2747252747E+02  -0.7206152967E-14   0.8241758242E+01  -0.2929234107E-14   0.0000000000E+00   0.0000000000E+00   0.2500000000E+00  -0.1071428571E+00  -0.3808004339E-16   0.0000000000E+00   0.0000000000E+00   0.0000000000E+00   0.2441811653E+02
   0.2500000000E+01   0.1785714286E+01   0.1000000000E+00  -0.4285714286E-01   0.4000000000E+00  -0.1714285714E+00   0.2747252747E+02  -0.2436537198E-14   0.8241758242E+01   0.2962423283E-14   0.0000000000E+00   0.0000000000E+00   0.2500000000E+00  -0.1071428571E+00   0.3851150267E-16   0.0000000000E+00   0.0000000000E+00   0.0000000000E+00   0.2441811653E+02
   0.0000000000E+00   0.1785714286E+01   0.0000000000E+00  -0.4285714286E-01   0.0000000000E+00  -0.1714285714E+00   0.2747252747E+02   0.1707079548E-14   0.8241758242E+01  -0.4941798625E-15   0.0000000000E+00   0.0000000000E+00   0.2500000000E+00  -0.1071428571E+00  -0.6424338213E-17   0.0000000000E+00   0.0000000000E+00   0.0000000000E+00   0.2441811653E+02
   0.1250000000E+01   0.0000000000E+00   0.5000000000E-01   0.0000000000E+00   0.2000000000E+00   0.0000000000E+00   0.2747252747E+02  -0.1505736763E-14   0.8241758242E+01   0.3178869858E-15   0.0000000000E+00   0.0000000000E+00   0.2500000000E+00  -0.1071428571E+00   0.4132530815E-17   0.0000000000E+00   0.0000000000E+00   0.0000000000E+00   0.2441811653E+02
   0.2500000000E+01   0.8928571429E+00   0.1000000000E+00  -0.2142857143E-01   0.4000000000E+00  -0.8571428571E-01   0.2747252747E+02  -0.4821345082E-14   0.8241758242E+01   0.1659458797E-16   0.0000000000E+00   0.0000000000E+00   0.2500000000E+00  -0.1071428571E+00   0.2157296436E-18   0.0000000000E+00   0.0000000000E+00   0.0000000000E+00   0.2441811653E+02
   0.1250000000E+01   0.1785714286E+01   0.5000000000E-01  -0.4285714286E-01   0.2000000000E+00  -0.1714285714E+00   0.2747252747E+02  -0.3647288251E-15   0.8241758242E+01   0.1234121710E-14   0.0000000000E+00   0.0000000000E+00   0.2500000000E+00  -0.1071428571E+00   0.1604358223E-16   0.0000000000E+00   0.0000000000E+00   0.0000000000E+00   0.2441811653E+02
   0.0000000000E+00   0.8928571429E+00   0.0000000000E+00  -0.2142857143E-01   0.0000000000E+00  -0.8571428571E-01   0.2747252747E+02   0.2950879494E-14   0.8241758242E+01   0.1535414108E-14   0.0000000000E+00   0.0000000000E+00   0.2500000000E+00  -0.1071428571E+00   0.1996038340E-16   0.0000000000E+00   0.0000000000E+00   0.0000000000E+00   0.2441811653E+02
   0.1250000000E+01   0.8928571429E+00   0.5000000000E-01  -0.2142857143E-01   0.2000000000E+00  -0.8571428571E-01   0.2747252747E+02   0.2950879494E-14   0.8241758242E+01   0.1535414108E-14   0.0000000000E+00   0.0000000000E+00   0.2500000000E+00  -0.1071428571E+00   0.1996038340E-16   0.0000000000E+00   0.0000000000E+00   0.0000000000E+00   0.2441811653E+02
           1           5           9           8
           5           2           6           9
           9           6           3           7
           8           9           7           4
 VARIABLES = X,Y,DU1,DU2,U1,U2,S11,S22,S33,S12,S13,S23,E11,E22,E12,E33,E13,E23,SMISES
 ZONE, T="0.6000D+01" F=FEPOINT, I=    9 J=    4
   0.0000000000E+00   0.0000000000E+00   0.0000000000E+00   0.0000000000E+00   0.0000000000E+00   0.0000000000E+00   0.3296703297E+02   0.3221381495E-14   0.9890109890E+01   0.4299731364E-14   0.0000000000E+00   0.0000000000E+00   0.3000000000E+00  -0.1285714286E+00   0.5589650773E-16   0.0000000000E+00   0.0000000000E+00   0.0000000000E+00   0.2930173984E+02
   0.2600000000E+01   0.0000000000E+00   0.1000000000E+00   0.0000000000E+00   0.5000000000E+00   0.0000000000E+00   0.3296703297E+02  -0.5964018587E-14   0.9890109890E+01   0.1560090551E-14   0.0000000000E+00   0.0000000000E+00   0.3000000000E+00  -0.1285714286E+00   0.2028117716E-16   0.0000000000E+00   0.0000000000E+00   0.0000000000E+00   0.2930173984E+02
   0.2600000000E+01   0.1742857143E+01   0.1000000000E+00  -0.4285714286E-01   0.5000000000E+00  -0.2142857143E+00   0.3296703297E+02   0.3221381495E-14   0.9890109890E+01  -0.4565637022E-15   0.0000000000E+00   0.0000000000E+00   0.3000000000E+00  -0.1285714286E+00  -0.5935328129E-17   0.0000000000E+00   0.0000000000E+00   0.0000000000E+00   0.2930173984E+02
   0.0000000000E+00   0.1742857143E+01   0.0000000000E+00  -0.4285714286E-01   0.0000000000E+00  -0.2142857143E+00   0.3296703297E+02  -0.4475193803E-15   0.9890109890E+01  -0.1111195667E-14   0.0000000000E+00   0.0000000000E+00   0.3000000000E+00  -0.1285714286E+00  -0.1444554367E-16   0.0000000000E+00   0.0000000000E+00   0.0000000000E+00   0.2930173984E+02
   0.1300000000E+01   0.0000000000E+00   0.5000000000E-01   0.0000000000E+00   0.2500000000E+00   0.0000000000E+00   0.3296703297E+02  -0.1371318546E-14   0.9890109890E+01   0.2929910957E-14   0.0000000000E+00   0.0000000000E+00   0.3000000000E+00  -0.1285714286E+00   0.3808884245E-16   0.0000000000E+00   0.0000000000E+00   0.0000000000E+00   0.2930173984E+02
   0.2600000000E+01   0.8714285714E+00   0.1000000000E+00  -0.2142857143E-01   0.5000000000E+00  -0.1071428571E+00   0.3296703297E+02  -0.1371318546E-14   0.9890109890E+01   0.5517634243E-15   0.0000000000E+00   0.0000000000E+00   0.3000000000E+00  -0.1285714286E+00   0.7172924516E-17   0.0000000000E+00   0.0000000000E+00   0.0000000000E+00   0.2930173984E+02
   0.1300000000E+01   0.1742857143E+01   0.5000000000E-01  -0.4285714286E-01   0.2500000000E+00  -0.2142857143E+00   0.3296703297E+02   0.1386931057E-14   0.9890109890E+01  -0.7838796846E-15   0.0000000000E+00   0.0000000000E+00   0.3000000000E+00  -0.1285714286E+00  -0.1019043590E-16   0.0000000000E+00   0.0000000000E+00   0.0000000000E+00   0.2930173984E+02
   0.0000000000E+00   0.8714285714E+00   0.0000000000E+00  -0.2142857143E-01   0.0000000000E+00  -0.1071428571E+00   0.3296703297E+02   0.1386931057E-14   0.9890109890E+01   0.1594267849E-14   0.0000000000E+00   0.0000000000E+00   0.3000000000E+00  -0.1285714286E+00   0.2072548203E-16   0.0000000000E+00   0.0000000000E+00   0.0000000000E+00   0.2930173984E+02
   0.1300000000E+01   0.8714285714E+00   0.5000000000E-01  -0.2142857143E-01   0.2500000000E+00  -0.1071428571E+00   0.3296703297E+02   0.1386931057E-14   0.9890109890E+01   0.1594267849E-14   0.0000000000E+00   0.0000000000E+00   0.3000000000E+00  -0.1285714286E+00   0.2072548203E-16   0.0000000000E+00   0.0000000000E+00   0.0000000000E+00   0.2930173984E+02
           1           5           9           8
           5           2           6           9
           9           6           3           7
           8           9           7           4
 VARIABLES = X,Y,DU1,DU2,U1,U2,S11,S22,S33,S12,S13,S23,E11,E22,E12,E33,E13,E23,SMISES
 ZONE, T="0.7000D+01" F=FEPOINT, I=    9 J=    4
   0.0000000000E+00   0.0000000000E+00   0.0000000000E+00   0.0000000000E+00   0.0000000000E+00   0.0000000000E+00   0.3846153846E+02   0.2470623380E-14   0.1153846154E+02   0.4821732248E-14   0.0000000000E+00   0.0000000000E+00   0.3500000000E+00  -0.1500000000E+00   0.6268251922E-16   0.0000000000E+00   0.0000000000E+00   0.0000000000E+00   0.3418536314E+02
   0.2700000000E+01   0.0000000000E+00   0.1000000000E+00   0.0000000000E+00   0.6000000000E+00   0.0000000000E+00   0.3846153846E+02   0.3736245155E-14   0.1153846154E+02   0.1639042992E-14   0.0000000000E+00   0.0000000000E+00   0.3500000000E+00  -0.1500000000E+00   0.2130755889E-16   0.0000000000E+00   0.0000000000E+00   0.0000000000E+00   0.3418536314E+02
   0.2700000000E+01   0.1700000000E+01   0.1000000000E+00  -0.4285714286E-01   0.6000000000E+00  -0.2571428571E+00   0.3846153846E+02  -0.4319838606E-14   0.1153846154E+02   0.1574523030E-14   0.0000000000E+00   0.0000000000E+00   0.3500000000E+00  -0.1500000000E+00   0.2046879939E-16   0.0000000000E+00   0.0000000000E+00   0.0000000000E+00   0.3418536314E+02
   0.0000000000E+00   0.1700000000E+01   0.0000000000E+00  -0.4285714286E-01   0.0000000000E+00  -0.2571428571E+00   0.3846153846E+02   0.3417754460E-14   0.1153846154E+02  -0.1867398474E-15   0.0000000000E+00   0.0000000000E+00   0.3500000000E+00  -0.1500000000E+00  -0.2427618017E-17   0.0000000000E+00   0.0000000000E+00   0.0000000000E+00   0.3418536314E+02
   0.1350000000E+01   0.0000000000E+00   0.5000000000E-01   0.0000000000E+00   0.3000000000E+00   0.0000000000E+00   0.3846153846E+02   0.3103434268E-14   0.1153846154E+02   0.3230387620E-14   0.0000000000E+00   0.0000000000E+00   0.3500000000E+00  -0.1500000000E+00   0.4199503906E-16   0.0000000000E+00   0.0000000000E+00   0.0000000000E+00   0.3418536314E+02
   0.2700000000E+01   0.8500000000E+00   0.1000000000E+00  -0.2142857143E-01   0.6000000000E+00  -0.1285714286E+00   0.3846153846E+02  -0.2917967255E-15   0.1153846154E+02   0.1606783011E-14   0.0000000000E+00   0.0000000000E+00   0.3500000000E+00  -0.1500000000E+00   0.2088817914E-16   0.0000000000E+00   0.0000000000E+00   0.0000000000E+00   0.3418536314E+02
   0.1350000000E+01   0.1700000000E+01   0.5000000000E-01  -0.4285714286E-01   0.3000000000E+00  -0.2571428571E+00   0.3846153846E+02  -0.4510420729E-15   0.1153846154E+02   0.6938915912E-15   0.0000000000E+00   0.0000000000E+00   0.3500000000E+00  -0.1500000000E+00   0.9020590686E-17   0.0000000000E+00   0.0000000000E+00   0.0000000000E+00   0.3418536314E+02
   0.0000000000E+00   0.8500000000E+00   0.0000000000E+00  -0.2142857143E-01   0.0000000000E+00  -0.1285714286E+00   0.3846153846E+02   0.2944188920E-14   0.1153846154E+02   0.2317496200E-14   0.0000000000E+00   0.0000000000E+00   0.3500000000E+00  -0.1500000000E+00   0.3012745060E-16   0.0000000000E+00   0.0000000000E+00   0.0000000000E+00   0.3418536314E+02
   0.1350000000E+01   0.8500000000E+00   0.5000000000E-01  -0.2142857143E-01   0.3000000000E+00  -0.1285714286E+00   0.3846153846E+02   0.2944188920E-14   0.1153846154E+02   0.2317496200E-14   0.0000000000E+00   0.0000000000E+00   0.3500000000E+00  -0.1500000000E+00   0.3012745060E-16   0.0000000000E+00   0.0000000000E+00   0.0000000000E+00   0.3418536314E+02
           1           5           9           8
           5           2           6           9
           9           6           3           7
           8           9           7           4
 VARIABLES = X,Y,DU1,DU2,U1,U2,S11,S22,S33,S12,S13,S23,E11,E22,E12,E33,E13,E23,SMISES
 ZONE, T="0.8000D+01" F=FEPOINT, I=    9 J=    4
   0.0000000000E+00   0.0000000000E+00   0.0000000000E+00   0.0000000000E+00   0.0000000000E+00   0.0000000000E+00   0.4395604396E+02   0.1112168936E-13   0.1318681319E+02   0.3227455703E-14   0.0000000000E+00   0.0000000000E+00   0.4000000000E+00  -0.1714285714E+00   0.4195692414E-16   0.0000000000E+00   0.0000000000E+00   0.0000000000E+00   0.3906898645E+02
   0.2800000000E+01   0.0000000000E+00   0.1000000000E+00   0.0000000000E+00   0.7000000000E+00   0.0000000000E+00   0.4395604396E+02  -0.9591984523E-14   0.1318681319E+02   0.9894099656E-14   0.0000000000E+00   0.0000000000E+00   0.4000000000E+00  -0.1714285714E+00   0.1286232955E-15   0.0000000000E+00   0.0000000000E+00   0.0000000000E+00   0.3906898645E+02
   0.2800000000E+01   0.1657142857E+01   0.1000000000E+00  -0.4285714286E-01   0.7000000000E+00  -0.3000000000E+00   0.4395604396E+02   0.4331227369E-14   0.1318681319E+02  -0.5097965076E-14   0.0000000000E+00   0.0000000000E+00   0.4000000000E+00  -0.1714285714E+00  -0.6627354599E-16   0.0000000000E+00   0.0000000000E+00   0.0000000000E+00   0.3906898645E+02
   0.0000000000E+00   0.1657142857E+01   0.0000000000E+00  -0.4285714286E-01   0.0000000000E+00  -0.3000000000E+00   0.4395604396E+02  -0.1022896591E-13   0.1318681319E+02  -0.1544798160E-14   0.0000000000E+00   0.0000000000E+00   0.4000000000E+00  -0.1714285714E+00  -0.2008237608E-16   0.0000000000E+00   0.0000000000E+00   0.0000000000E+00   0.3906898645E+02
   0.1400000000E+01   0.0000000000E+00   0.5000000000E-01   0.0000000000E+00   0.3500000000E+00   0.0000000000E+00   0.4395604396E+02   0.7648524159E-15   0.1318681319E+02   0.6560777680E-14   0.0000000000E+00   0.0000000000E+00   0.4000000000E+00  -0.1714285714E+00   0.8529010984E-16   0.0000000000E+00   0.0000000000E+00   0.0000000000E+00   0.3906898645E+02
   0.2800000000E+01   0.8285714286E+00   0.1000000000E+00  -0.2142857143E-01   0.7000000000E+00  -0.1500000000E+00   0.4395604396E+02  -0.2630378577E-14   0.1318681319E+02   0.2398067290E-14   0.0000000000E+00   0.0000000000E+00   0.4000000000E+00  -0.1714285714E+00   0.3117487477E-16   0.0000000000E+00   0.0000000000E+00   0.0000000000E+00   0.3906898645E+02
   0.1400000000E+01   0.1657142857E+01   0.5000000000E-01  -0.4285714286E-01   0.3500000000E+00  -0.3000000000E+00   0.4395604396E+02  -0.2948869272E-14   0.1318681319E+02  -0.3321381618E-14   0.0000000000E+00   0.0000000000E+00   0.4000000000E+00  -0.1714285714E+00  -0.4317796104E-16   0.0000000000E+00   0.0000000000E+00   0.0000000000E+00   0.3906898645E+02
   0.0000000000E+00   0.8285714286E+00   0.0000000000E+00  -0.2142857143E-01   0.0000000000E+00  -0.1500000000E+00   0.4395604396E+02   0.4463617210E-15   0.1318681319E+02   0.8413287716E-15   0.0000000000E+00   0.0000000000E+00   0.4000000000E+00  -0.1714285714E+00   0.1093727403E-16   0.0000000000E+00   0.0000000000E+00   0.0000000000E+00   0.3906898645E+02
   0.1400000000E+01   0.8285714286E+00   0.5000000000E-01  -0.2142857143E-01   0.3500000000E+00  -0.1500000000E+00   0.4395604396E+02   0.4463617210E-15   0.1318681319E+02   0.8413287716E-15   0.0000000000E+00   0.0000000000E+00   0.4000000000E+00  -0.1714285714E+00   0.1093727403E-16   0.0000000000E+00   0.0000000000E+00   0.0000000000E+00   0.3906898645E+02
           1           5           9           8
           5           2           6           9
           9           6           3           7
           8           9           7           4
 VARIABLES = X,Y,DU1,DU2,U1,U2,S11,S22,S33,S12,S13,S23,E11,E22,E12,E33,E13,E23,SMISES
 ZONE, T="0.9000D+01" F=FEPOINT, I=    9 J=    4
   0.0000000000E+00   0.0000000000E+00   0.0000000000E+00   0.0000000000E+00   0.0000000000E+00   0.0000000000E+00   0.4945054945E+02   0.2303246760E-14   0.1483516484E+02   0.5797258877E-14   0.0000000000E+00   0.0000000000E+00   0.4500000000E+00  -0.1928571429E+00   0.7536436541E-16   0.0000000000E+00   0.0000000000E+00   0.0000000000E+00   0.4395260976E+02
   0.2900000000E+01   0.0000000000E+00   0.1000000000E+00   0.0000000000E+00   0.8000000000E+00   0.0000000000E+00   0.4945054945E+02  -0.5384479947E-14   0.1483516484E+02   0.2799836194E-14   0.0000000000E+00   0.0000000000E+00   0.4500000000E+00  -0.1928571429E+00   0.3639787052E-16   0.0000000000E+00   0.0000000000E+00   0.0000000000E+00   0.4395260976E+02
   0.2900000000E+01   0.1614285714E+01   0.1000000000E+00  -0.4285714286E-01   0.8000000000E+00  -0.3428571429E+00   0.4945054945E+02   0.1669270000E-14   0.1483516484E+02   0.7854352136E-16   0.0000000000E+00   0.0000000000E+00   0.4500000000E+00  -0.1928571429E+00   0.1021065778E-17   0.0000000000E+00   0.0000000000E+00   0.0000000000E+00   0.4395260976E+02
   0.0000000000E+00   0.1614285714E+01   0.0000000000E+00  -0.4285714286E-01   0.0000000000E+00  -0.3428571429E+00   0.4945054945E+02   0.6603990551E-14   0.1483516484E+02  -0.1264719289E-14   0.0000000000E+00   0.0000000000E+00   0.4500000000E+00  -0.1928571429E+00  -0.1644135076E-16   0.0000000000E+00   0.0000000000E+00   0.0000000000E+00   0.4395260976E+02
   0.1450000000E+01   0.0000000000E+00   0.5000000000E-01   0.0000000000E+00   0.4000000000E+00   0.0000000000E+00   0.4945054945E+02  -0.1540616593E-14   0.1483516484E+02   0.4298547535E-14   0.0000000000E+00   0.0000000000E+00   0.4500000000E+00  -0.1928571429E+00   0.5588111796E-16   0.0000000000E+00   0.0000000000E+00   0.0000000000E+00   0.4395260976E+02
   0.2900000000E+01   0.8071428571E+00   0.1000000000E+00  -0.2142857143E-01   0.8000000000E+00  -0.1714285714E+00   0.4945054945E+02  -0.1857604974E-14   0.1483516484E+02   0.1439189857E-14   0.0000000000E+00   0.0000000000E+00   0.4500000000E+00  -0.1928571429E+00   0.1870946815E-16   0.0000000000E+00   0.0000000000E+00   0.0000000000E+00   0.4395260976E+02
   0.1450000000E+01   0.1614285714E+01   0.5000000000E-01  -0.4285714286E-01   0.4000000000E+00  -0.3428571429E+00   0.4945054945E+02   0.4136630275E-14   0.1483516484E+02  -0.5930878840E-15   0.0000000000E+00   0.0000000000E+00   0.4500000000E+00  -0.1928571429E+00  -0.7710142492E-17   0.0000000000E+00   0.0000000000E+00   0.0000000000E+00   0.4395260976E+02
   0.0000000000E+00   0.8071428571E+00   0.0000000000E+00  -0.2142857143E-01   0.0000000000E+00  -0.1714285714E+00   0.4945054945E+02   0.4453618656E-14   0.1483516484E+02   0.2266269794E-14   0.0000000000E+00   0.0000000000E+00   0.4500000000E+00  -0.1928571429E+00   0.2946150732E-16   0.0000000000E+00   0.0000000000E+00   0.0000000000E+00   0.4395260976E+02
   0.1450000000E+01   0.8071428571E+00   0.5000000000E-01  -0.2142857143E-01   0.4000000000E+00  -0.1714285714E+00   0.4945054945E+02   0.4453618656E-14   0.1483516484E+02   0.2266269794E-14   0.0000000000E+00   0.0000000000E+00   0.4500000000E+00  -0.1928571429E+00   0.2946150732E-16   0.0000000000E+00   0.0000000000E+00   0.0000000000E+00   0.4395260976E+02
           1           5           9           8
           5           2           6           9
           9           6           3           7
           8           9           7           4
 VARIABLES = X,Y,DU1,DU2,U1,U2,S11,S22,S33,S12,S13,S23,E11,E22,E12,E33,E13,E23,SMISES
 ZONE, T="0.1000D+02" F=FEPOINT, I=    9 J=    4
   0.0000000000E+00   0.0000000000E+00   0.0000000000E+00   0.0000000000E+00   0.0000000000E+00   0.0000000000E+00   0.5494505495E+02   0.1474299183E-13   0.1648351648E+02   0.9364135682E-14   0.0000000000E+00   0.0000000000E+00   0.5000000000E+00  -0.2142857143E+00   0.1217337639E-15   0.0000000000E+00   0.0000000000E+00   0.0000000000E+00   0.4883623306E+02
   0.3000000000E+01   0.0000000000E+00   0.1000000000E+00   0.0000000000E+00   0.9000000000E+00   0.0000000000E+00   0.5494505495E+02  -0.3403965537E-14   0.1648351648E+02  -0.7066409741E-14   0.0000000000E+00   0.0000000000E+00   0.5000000000E+00  -0.2142857143E+00  -0.9186332663E-16   0.0000000000E+00   0.0000000000E+00   0.0000000000E+00   0.4883623306E+02
   0.3000000000E+01   0.1571428571E+01   0.1000000000E+00  -0.4285714286E-01   0.9000000000E+00  -0.3857142857E+00   0.5494505495E+02  -0.4672922048E-14   0.1648351648E+02   0.5270068836E-14   0.0000000000E+00   0.0000000000E+00   0.5000000000E+00  -0.2142857143E+00   0.6851089487E-16   0.0000000000E+00   0.0000000000E+00   0.0000000000E+00   0.4883623306E+02
   0.0000000000E+00   0.1571428571E+01   0.0000000000E+00  -0.4285714286E-01   0.0000000000E+00  -0.3857142857E+00   0.5494505495E+02  -0.1114689498E-13   0.1648351648E+02  -0.3005268097E-14   0.0000000000E+00   0.0000000000E+00   0.5000000000E+00  -0.2142857143E+00  -0.3906848525E-16   0.0000000000E+00   0.0000000000E+00   0.0000000000E+00   0.4883623306E+02
   0.1500000000E+01   0.0000000000E+00   0.5000000000E-01   0.0000000000E+00   0.4500000000E+00   0.0000000000E+00   0.5494505495E+02   0.5669513144E-14   0.1648351648E+02   0.1148862971E-14   0.0000000000E+00   0.0000000000E+00   0.5000000000E+00  -0.2142857143E+00   0.1493521862E-16   0.0000000000E+00   0.0000000000E+00   0.0000000000E+00   0.4883623306E+02
   0.3000000000E+01   0.7857142857E+00   0.1000000000E+00  -0.2142857143E-01   0.9000000000E+00  -0.1928571429E+00   0.5494505495E+02  -0.4038443793E-14   0.1648351648E+02  -0.8981704523E-15   0.0000000000E+00   0.0000000000E+00   0.5000000000E+00  -0.2142857143E+00  -0.1167621588E-16   0.0000000000E+00   0.0000000000E+00   0.0000000000E+00   0.4883623306E+02
   0.1500000000E+01   0.1571428571E+01   0.5000000000E-01  -0.4285714286E-01   0.4500000000E+00  -0.3857142857E+00   0.5494505495E+02  -0.7909908514E-14   0.1648351648E+02   0.1132400370E-14   0.0000000000E+00   0.0000000000E+00   0.5000000000E+00  -0.2142857143E+00   0.1472120481E-16   0.0000000000E+00   0.0000000000E+00   0.0000000000E+00   0.4883623306E+02
   0.0000000000E+00   0.7857142857E+00   0.0000000000E+00  -0.2142857143E-01   0.0000000000E+00  -0.1928571429E+00   0.5494505495E+02   0.1798048423E-14   0.1648351648E+02   0.3179433793E-14   0.0000000000E+00   0.0000000000E+00   0.5000000000E+00  -0.2142857143E+00   0.4133263931E-16   0.0000000000E+00   0.0000000000E+00   0.0000000000E+00   0.4883623306E+02
   0.1500000000E+01   0.7857142857E+00   0.5000000000E-01  -0.2142857143E-01   0.4500000000E+00  -0.1928571429E+00   0.5494505495E+02   0.1798048423E-14   0.1648351648E+02   0.3179433793E-14   0.0000000000E+00   0.0000000000E+00   0.5000000000E+00  -0.2142857143E+00   0.4133263931E-16   0.0000000000E+00   0.0000000000E+00   0.0000000000E+00   0.4883623306E+02
           1           5           9           8
           5           2           6           9
           9           6           3           7
           8           9           7           4
