 VARIABLES = X,Y,DU1,DU2,U1,U2,S11,S22,S33,S12,S13,S23,E11,E22,E12,E33,E13,E23,SMISES
 ZONE, T="0.1000D+01" F=FEPOINT, I=  259 J=  457
   0.3707585061E-01   0.1124024661E+00   0.1941201151E-04  -0.3282987469E-04   0.0000000000E+00   0.0000000000E+00   0.5269879183E-01   0.5570588808E-02   0.1748081419E-01  -0.6010487336E-02   0.0000000000E+00   0.0000000000E+00   0.4578337093E-03  -0.1548329300E-03  -0.7813633536E-04   0.0000000000E+00   0.0000000000E+00   0.0000000000E+00   0.4360938593E-01
   0.1952372141E-01   0.9804619608E-01   0.1468901177E-04  -0.3233051595E-04   0.0000000000E+00   0.0000000000E+00   0.7058312759E-01   0.7277489746E-02   0.2335818520E-01  -0.8176195341E-02   0.0000000000E+00   0.0000000000E+00   0.6139242510E-03  -0.2090490409E-03  -0.1062905394E-03   0.0000000000E+00   0.0000000000E+00   0.0000000000E+00   0.5866777490E-01
   0.3829743100E-01   0.9235870962E-01   0.2908839679E-04  -0.2924228052E-04   0.0000000000E+00   0.0000000000E+00   0.6546352299E-01   0.1131332338E-01   0.2303305391E-01  -0.1681969127E-01   0.0000000000E+00   0.0000000000E+00   0.5515960981E-03  -0.1523564969E-03  -0.2186559866E-03   0.0000000000E+00   0.0000000000E+00   0.0000000000E+00   0.5691055933E-01
   0.1069362848E+00   0.2330856341E+00   0.2644377234E-04  -0.3516485853E-04   0.0000000000E+00   0.0000000000E+00   0.3148086920E-01  -0.2069444277E-03   0.9382177432E-02   0.1605257006E-02   0.0000000000E+00   0.0000000000E+00   0.2872829930E-03  -0.1246585842E-03   0.2086834108E-04   0.0000000000E+00   0.0000000000E+00   0.0000000000E+00   0.2829409512E-01
   0.9724341642E-01   0.2499610736E+00   0.2119252365E-04  -0.3892640651E-04   0.0000000000E+00   0.0000000000E+00   0.3004955504E-01  -0.8055992593E-04   0.8990698534E-02   0.7623797148E-03   0.0000000000E+00   0.0000000000E+00   0.2737651346E-03  -0.1179263600E-03   0.9910936292E-05   0.0000000000E+00   0.0000000000E+00   0.0000000000E+00   0.2678242410E-01
   0.8739015184E-01   0.2329874499E+00   0.2098553643E-04  -0.3866714709E-04   0.0000000000E+00   0.0000000000E+00   0.2989501120E-01  -0.9687291621E-04   0.8939441485E-02   0.1838818474E-02   0.0000000000E+00   0.0000000000E+00   0.2724224063E-03  -0.1174720872E-03   0.2390464016E-04   0.0000000000E+00   0.0000000000E+00   0.0000000000E+00   0.2685220681E-01
   0.8879015353E-01   0.7379175206E-01   0.5497542748E-04  -0.1458594200E-04   0.0000000000E+00   0.0000000000E+00   0.1904202982E-01  -0.2523486243E-02   0.4955563073E-02  -0.7261753272E-02   0.0000000000E+00   0.0000000000E+00   0.1831240677E-03  -0.9722764110E-04  -0.9440279253E-04   0.0000000000E+00   0.0000000000E+00   0.0000000000E+00   0.2284115225E-01
   0.7333659444E-01   0.8912394687E-01   0.4355673570E-04  -0.2084923025E-04   0.0000000000E+00   0.0000000000E+00   0.3004351980E-01   0.9478414075E-03   0.9297408361E-02  -0.9105454869E-02   0.0000000000E+00   0.0000000000E+00   0.2696994487E-03  -0.1085443704E-03  -0.1183709133E-03   0.0000000000E+00   0.0000000000E+00   0.0000000000E+00   0.3077416901E-01
   0.7076475256E-01   0.7068998908E-01   0.5407115790E-04  -0.2069231709E-04   0.0000000000E+00   0.0000000000E+00   0.1928168041E-01   0.6039351510E-02   0.7596309575E-02  -0.1016869243E-01   0.0000000000E+00   0.0000000000E+00   0.1519098208E-03  -0.2024045485E-04  -0.1321930015E-03   0.0000000000E+00   0.0000000000E+00   0.0000000000E+00   0.2065342187E-01
   0.1653174955E+00   0.2330812419E+00   0.4411246148E-04  -0.2566909036E-04   0.0000000000E+00   0.0000000000E+00   0.3424261637E-01  -0.2717394330E-03   0.1019126308E-01   0.4217632903E-03   0.0000000000E+00   0.0000000000E+00   0.3126675928E-03  -0.1360190327E-03   0.5482922774E-05   0.0000000000E+00   0.0000000000E+00   0.0000000000E+00   0.3066169356E-01
   0.1555943611E+00   0.2499706545E+00   0.3880011876E-04  -0.2934553547E-04   0.0000000000E+00   0.0000000000E+00   0.3537236954E-01  -0.4664173315E-04   0.1059771834E-01   0.2716030394E-03   0.0000000000E+00   0.0000000000E+00   0.3220704656E-03  -0.1383766810E-03   0.3530839512E-05   0.0000000000E+00   0.0000000000E+00   0.0000000000E+00   0.3147726391E-01
   0.1458642770E+00   0.2330899002E+00   0.3807095796E-04  -0.2851478869E-04   0.0000000000E+00   0.0000000000E+00   0.3371558368E-01  -0.2950287661E-03   0.1002616648E-01   0.8314729958E-03   0.0000000000E+00   0.0000000000E+00   0.3079624237E-03  -0.1341755381E-03   0.1080914895E-04   0.0000000000E+00   0.0000000000E+00   0.0000000000E+00   0.3023951721E-01
   0.1018805320E+00   0.5682393309E-01   0.6457102540E-04  -0.9188814991E-05   0.0000000000E+00   0.0000000000E+00   0.1095177409E-01  -0.5996718575E-02   0.1486516655E-02  -0.5446018307E-02   0.0000000000E+00   0.0000000000E+00   0.1230483467E-03  -0.9728205799E-04  -0.7079823799E-04   0.0000000000E+00   0.0000000000E+00   0.0000000000E+00   0.1747023717E-01
   0.8321041350E-01   0.5554157154E-01   0.6345400012E-04  -0.1545215750E-04   0.0000000000E+00   0.0000000000E+00   0.5530019881E-02  -0.5007858815E-02   0.1566483199E-03  -0.2500244717E-02   0.0000000000E+00   0.0000000000E+00   0.6985383030E-04  -0.6713859275E-04  -0.3250318132E-04   0.0000000000E+00   0.0000000000E+00   0.0000000000E+00   0.1094272680E-01
   0.9815336692E-01   0.1950423300E-01   0.7484032045E-04  -0.4799400208E-05   0.0000000000E+00   0.0000000000E+00  -0.1253079428E-02  -0.1940601075E-01  -0.6197727054E-02   0.7426882352E-03   0.0000000000E+00   0.0000000000E+00   0.6428041913E-04  -0.1717076881E-03   0.9654947058E-05   0.0000000000E+00   0.0000000000E+00   0.0000000000E+00   0.1647418831E-01
   0.1000752398E+00   0.0000000000E+00   0.7523880562E-04   0.0000000000E+00   0.0000000000E+00   0.0000000000E+00   0.1957212600E-02  -0.3629254404E-01  -0.1030059943E-01  -0.1225041625E-02   0.0000000000E+00   0.0000000000E+00   0.1593515564E-03  -0.3378952799E-03  -0.1592554113E-04   0.0000000000E+00   0.0000000000E+00   0.0000000000E+00   0.3348573712E-01
   0.1209108328E+00   0.0000000000E+00   0.7750281467E-04   0.0000000000E+00   0.0000000000E+00   0.0000000000E+00  -0.9167465092E-03  -0.1539709981E-01  -0.4894153894E-02   0.2116473718E-03   0.0000000000E+00   0.0000000000E+00   0.5170629601E-04  -0.1365382968E-03   0.2751415834E-05   0.0000000000E+00   0.0000000000E+00   0.0000000000E+00   0.1343369682E-01
   0.1555790609E+00   0.2161704170E+00   0.4318394341E-04  -0.2474904393E-04   0.0000000000E+00   0.0000000000E+00   0.3322397680E-01  -0.7741591685E-03   0.9734945289E-02   0.9915267923E-03   0.0000000000E+00   0.0000000000E+00   0.3053574096E-03  -0.1366183579E-03   0.1288984830E-04   0.0000000000E+00   0.0000000000E+00   0.0000000000E+00   0.3019564000E-01
   0.1750413902E+00   0.2161567854E+00   0.4912721475E-04  -0.2210861187E-04   0.0000000000E+00   0.0000000000E+00   0.3323757866E-01  -0.6470608772E-03   0.9777155334E-02   0.3202386722E-03   0.0000000000E+00   0.0000000000E+00   0.3049855032E-03  -0.1355148107E-03   0.4163102738E-05   0.0000000000E+00   0.0000000000E+00   0.0000000000E+00   0.3006383123E-01
   0.1752219784E-01   0.2244893388E+00   0.4126342857E-05  -0.4690115214E-04   0.0000000000E+00   0.0000000000E+00   0.2704582680E-01   0.8272336218E-03   0.8361918126E-02   0.7370494146E-03   0.0000000000E+00   0.0000000000E+00   0.2428908127E-03  -0.9795089856E-04   0.9581642390E-05   0.0000000000E+00   0.0000000000E+00   0.0000000000E+00   0.2345484683E-01
   0.0000000000E+00   0.2312019693E+00   0.0000000000E+00  -0.4803372350E-04   0.0000000000E+00   0.0000000000E+00   0.2362667542E-01   0.6697529840E-03   0.7288928522E-02   0.1704090418E-03   0.0000000000E+00   0.0000000000E+00   0.2123907097E-03  -0.8604928199E-04   0.2215317544E-05   0.0000000000E+00   0.0000000000E+00   0.0000000000E+00   0.2048455167E-01
   0.0000000000E+00   0.2124537276E+00   0.0000000000E+00  -0.4627835925E-04   0.0000000000E+00   0.0000000000E+00   0.2823333251E-01   0.1596538116E-02   0.8948961188E-02   0.8480308920E-03   0.0000000000E+00   0.0000000000E+00   0.2506968272E-03  -0.9558149994E-04   0.1102440160E-04   0.0000000000E+00   0.0000000000E+00   0.0000000000E+00   0.2386365079E-01
   0.0000000000E+00   0.1187128590E+00   0.0000000000E+00  -0.3714004802E-04   0.0000000000E+00   0.0000000000E+00   0.6696620664E-01   0.7023715092E-02   0.2219697652E-01  -0.1912841950E-02   0.0000000000E+00   0.0000000000E+00   0.5819999915E-03  -0.1972523985E-03  -0.2486694536E-04   0.0000000000E+00   0.0000000000E+00   0.0000000000E+00   0.5447558974E-01
   0.0000000000E+00   0.9996850138E-01   0.0000000000E+00  -0.3149962457E-04   0.0000000000E+00   0.0000000000E+00   0.9922800295E-01  -0.1264318748E-02   0.2938910526E-01  -0.5107556294E-03   0.0000000000E+00   0.0000000000E+00   0.9079056700E-03  -0.3984945121E-03  -0.6639823182E-05   0.0000000000E+00   0.0000000000E+00   0.0000000000E+00   0.8838820868E-01
   0.1824452368E-01   0.1245353146E+00   0.8175276058E-05  -0.3684340132E-04   0.0000000000E+00   0.0000000000E+00   0.4882685418E-01   0.6923894184E-02   0.1672522451E-01  -0.2026836092E-02   0.0000000000E+00   0.0000000000E+00   0.4173211857E-03  -0.1274172942E-03  -0.2634886920E-04   0.0000000000E+00   0.0000000000E+00   0.0000000000E+00   0.3826330092E-01
   0.5561651183E-01   0.1017741163E+00   0.3139192580E-04  -0.2726465151E-04   0.0000000000E+00   0.0000000000E+00   0.4121014238E-01   0.2424943622E-02   0.1309052580E-01  -0.8722848383E-02   0.0000000000E+00   0.0000000000E+00   0.3655550155E-03  -0.1386525683E-03  -0.1133970290E-03   0.0000000000E+00   0.0000000000E+00   0.0000000000E+00   0.3809960650E-01
   0.5559950941E-01   0.8312154650E-01   0.4248571004E-04  -0.2541299733E-04   0.0000000000E+00   0.0000000000E+00   0.4083578801E-01   0.1164470838E-01   0.1574414892E-01  -0.1687276327E-01   0.0000000000E+00   0.0000000000E+00   0.3261913082E-03  -0.5329272698E-04  -0.2193459226E-03   0.0000000000E+00   0.0000000000E+00   0.0000000000E+00   0.3899340910E-01
   0.3652413570E-01   0.2153712134E+00   0.9197800863E-05  -0.4450264583E-04   0.0000000000E+00   0.0000000000E+00   0.2863918551E-01   0.1018790195E-02   0.8897392711E-02   0.2312495899E-02   0.0000000000E+00   0.0000000000E+00   0.2566433064E-03  -0.1024218327E-03   0.3006244668E-04   0.0000000000E+00   0.0000000000E+00   0.0000000000E+00   0.2496836276E-01
   0.5762512503E-01   0.2158434399E+00   0.1468032773E-04  -0.4170714757E-04   0.0000000000E+00   0.0000000000E+00   0.2944689208E-01   0.3081367815E-03   0.8926508659E-02   0.3000328936E-02   0.0000000000E+00   0.0000000000E+00   0.2667649845E-03  -0.1120388344E-03   0.3900427616E-04   0.0000000000E+00   0.0000000000E+00   0.0000000000E+00   0.2642654984E-01
   0.4852931062E-01   0.2330418772E+00   0.1102542486E-04  -0.4482782298E-04   0.0000000000E+00   0.0000000000E+00   0.2680375409E-01   0.4429759241E-03   0.8174019005E-02   0.1769688365E-02   0.0000000000E+00   0.0000000000E+00   0.2421865561E-03  -0.1005035601E-03   0.2300594875E-04   0.0000000000E+00   0.0000000000E+00   0.0000000000E+00   0.2368973169E-01
   0.1744749234E-01   0.1456156426E+00   0.6212139837E-05  -0.3933338926E-04   0.0000000000E+00   0.0000000000E+00   0.4207457918E-01   0.6505134950E-02   0.1457391424E-01   0.9746448833E-03   0.0000000000E+00   0.0000000000E+00   0.3575086442E-03  -0.1048941308E-03   0.1267038348E-04   0.0000000000E+00   0.0000000000E+00   0.0000000000E+00   0.3235331340E-01
   0.0000000000E+00   0.1562088474E+00   0.0000000000E+00  -0.4115263408E-04   0.0000000000E+00   0.0000000000E+00   0.3942408612E-01   0.7348759800E-02   0.1403185378E-01   0.1025628712E-02   0.0000000000E+00   0.0000000000E+00   0.3300990205E-03  -0.8688022170E-04   0.1333317326E-04   0.0000000000E+00   0.0000000000E+00   0.0000000000E+00   0.2943385113E-01
   0.0000000000E+00   0.1374605527E+00   0.0000000000E+00  -0.3945028195E-04   0.0000000000E+00   0.0000000000E+00   0.4676460976E-01   0.9509173293E-02   0.1688213492E-01   0.2626672592E-02   0.0000000000E+00   0.0000000000E+00   0.3884721730E-03  -0.9584850111E-04   0.3414674370E-04   0.0000000000E+00   0.0000000000E+00   0.0000000000E+00   0.3416928444E-01
   0.3594364495E-01   0.1343222230E+00   0.1409175419E-04  -0.3588499247E-04   0.0000000000E+00   0.0000000000E+00   0.4514841253E-01   0.6324586543E-02   0.1544189972E-01   0.8116149362E-03   0.0000000000E+00   0.0000000000E+00   0.3861846665E-03  -0.1185250713E-03   0.1055099417E-04   0.0000000000E+00   0.0000000000E+00   0.0000000000E+00   0.3516851197E-01
   0.3216470377E-01   0.2345317684E+00   0.7092667677E-05  -0.4679655008E-04   0.0000000000E+00   0.0000000000E+00   0.2456911573E-01   0.1616737917E-03   0.7419236856E-02   0.1292341423E-02   0.0000000000E+00   0.0000000000E+00   0.2229484253E-03  -0.9434831983E-04   0.1680043850E-04   0.0000000000E+00   0.0000000000E+00   0.0000000000E+00   0.2181021816E-01
   0.1944808278E-01   0.2499508407E+00   0.3637683758E-05  -0.4915930531E-04   0.0000000000E+00   0.0000000000E+00   0.2215435848E-01   0.2016825898E-03   0.6706812322E-02   0.3561878549E-03   0.0000000000E+00   0.0000000000E+00   0.2008181001E-03  -0.8456668651E-04   0.4630442113E-05   0.0000000000E+00   0.0000000000E+00   0.0000000000E+00   0.1956953271E-01
   0.1289772280E+00   0.2146500577E-01   0.7610399698E-04  -0.1517634148E-05   0.0000000000E+00   0.0000000000E+00   0.2477570715E-02  -0.6063109756E-02  -0.1075661712E-02  -0.2367873350E-02   0.0000000000E+00   0.0000000000E+00   0.4619202156E-04  -0.6483682457E-04  -0.3078235355E-04   0.0000000000E+00   0.0000000000E+00   0.0000000000E+00   0.8720838828E-02
   0.3292638861E+00   0.0000000000E+00   0.9720509032E-04   0.0000000000E+00   0.0000000000E+00   0.0000000000E+00   0.1674737950E-01   0.4695465414E-02   0.6432853474E-02  -0.6773013602E-04   0.0000000000E+00   0.0000000000E+00   0.1340888383E-03  -0.2258604478E-04  -0.8804917683E-06   0.0000000000E+00   0.0000000000E+00   0.0000000000E+00   0.1128407267E-01
   0.3500999940E+00   0.0000000000E+00   0.1000000000E-03   0.0000000000E+00   0.0000000000E+00   0.0000000000E+00   0.1663076383E-01   0.4667452487E-02   0.6389464894E-02   0.3229563233E-04   0.0000000000E+00   0.0000000000E+00   0.1331368861E-03  -0.2238616130E-04   0.4198432203E-06   0.0000000000E+00   0.0000000000E+00   0.0000000000E+00   0.1120183931E-01
   0.3500999940E+00   0.1923033306E-01   0.1000000000E-03  -0.4368373714E-06   0.0000000000E+00   0.0000000000E+00   0.1698678077E-01   0.4697213436E-02   0.6505198260E-02   0.3138871359E-05   0.0000000000E+00   0.0000000000E+00   0.1362605726E-03  -0.2350380272E-04   0.4080532766E-07   0.0000000000E+00   0.0000000000E+00   0.0000000000E+00   0.1149295895E-01
   0.3315267061E+00   0.2617108982E-01   0.9743306808E-04  -0.6111768354E-06   0.0000000000E+00   0.0000000000E+00   0.1722026032E-01   0.4655720063E-02   0.6562794114E-02  -0.1814305591E-03   0.0000000000E+00   0.0000000000E+00   0.1385470606E-03  -0.2479196266E-04  -0.2358597269E-05   0.0000000000E+00   0.0000000000E+00   0.0000000000E+00   0.1172995673E-01
   0.3500999940E+00   0.3846061145E-01   0.1000000000E-03  -0.9284490916E-06   0.0000000000E+00   0.0000000000E+00   0.1757425395E-01   0.4439279958E-02   0.6604060173E-02  -0.1659514847E-04   0.0000000000E+00   0.0000000000E+00   0.1426125191E-03  -0.2814214278E-04  -0.2157369301E-06   0.0000000000E+00   0.0000000000E+00   0.0000000000E+00   0.1219732230E-01
   0.3158751442E+00   0.7695323783E-01   0.9432622658E-04  -0.2333973297E-05   0.0000000000E+00   0.0000000000E+00   0.1968363119E-01   0.3467974289E-02   0.6945481644E-02  -0.9234991689E-03   0.0000000000E+00   0.0000000000E+00   0.1655959441E-03  -0.4520759561E-04  -0.1200548920E-04   0.0000000000E+00   0.0000000000E+00   0.0000000000E+00   0.1487170008E-01
   0.3328256055E+00   0.6720748662E-01   0.9724946777E-04  -0.1906182922E-05   0.0000000000E+00   0.0000000000E+00   0.1910831602E-01   0.3809612195E-02   0.6875378466E-02  -0.4036642008E-03   0.0000000000E+00   0.0000000000E+00   0.1590281883E-03  -0.3985496152E-04  -0.5247634610E-05   0.0000000000E+00   0.0000000000E+00   0.0000000000E+00   0.1403527461E-01
   0.3331818045E+00   0.8655470107E-01   0.9707249753E-04  -0.2769230808E-05   0.0000000000E+00   0.0000000000E+00   0.2042605125E-01   0.3298488269E-02   0.7117361854E-02  -0.4563851452E-03   0.0000000000E+00   0.0000000000E+00   0.1730129621E-03  -0.4964535661E-04  -0.5933006888E-05   0.0000000000E+00   0.0000000000E+00   0.0000000000E+00   0.1559235799E-01
   0.3115097981E+00   0.3581605242E-01   0.9454306042E-04  -0.8666808515E-06   0.0000000000E+00   0.0000000000E+00   0.1723544778E-01   0.4311405404E-02   0.6464055954E-02  -0.6293741022E-03   0.0000000000E+00   0.0000000000E+00   0.1400280937E-03  -0.2798445715E-04  -0.8181863329E-05   0.0000000000E+00   0.0000000000E+00   0.0000000000E+00   0.1204189701E-01
   0.3158685520E+00   0.1595461428E-01   0.9536301880E-04  -0.3645236782E-06   0.0000000000E+00   0.0000000000E+00   0.1669235861E-01   0.4573196245E-02   0.6379666457E-02  -0.2465494083E-03   0.0000000000E+00   0.0000000000E+00   0.1340649980E-03  -0.2348411276E-04  -0.3205142308E-05   0.0000000000E+00   0.0000000000E+00   0.0000000000E+00   0.1133378850E-01
   0.2776904481E+00   0.1796134590E-01   0.9030906378E-04  -0.4058028712E-06   0.0000000000E+00   0.0000000000E+00   0.1592162043E-01   0.4194147119E-02   0.6034730266E-02  -0.5653902955E-03   0.0000000000E+00   0.0000000000E+00   0.1285295722E-03  -0.2392758091E-04  -0.7350073842E-05   0.0000000000E+00   0.0000000000E+00   0.0000000000E+00   0.1097340525E-01
   0.2667557764E+00   0.0000000000E+00   0.8909537818E-04   0.0000000000E+00   0.0000000000E+00   0.0000000000E+00   0.1525979467E-01   0.4140559541E-02   0.5820106262E-02  -0.2353876006E-03   0.0000000000E+00   0.0000000000E+00   0.1227159493E-03  -0.2183410737E-04  -0.3060038808E-05   0.0000000000E+00   0.0000000000E+00   0.0000000000E+00   0.1037578381E-01
   0.2875917070E+00   0.0000000000E+00   0.9171301002E-04   0.0000000000E+00   0.0000000000E+00   0.0000000000E+00   0.1598734234E-01   0.4422500815E-02   0.6122952946E-02  -0.1803089062E-03   0.0000000000E+00   0.0000000000E+00   0.1282370621E-03  -0.2210587771E-04  -0.2344015781E-05   0.0000000000E+00   0.0000000000E+00   0.0000000000E+00   0.1081565494E-01
   0.2355705536E+00   0.1793950496E-01   0.8517855705E-04  -0.3978398820E-06   0.0000000000E+00   0.0000000000E+00   0.1396961573E-01   0.3367453602E-02   0.5201120799E-02  -0.1043909071E-02   0.0000000000E+00   0.0000000000E+00   0.1139904341E-03  -0.2383767356E-04  -0.1357081792E-04   0.0000000000E+00   0.0000000000E+00   0.0000000000E+00   0.1000374103E-01
   0.2459199516E+00   0.0000000000E+00   0.8661460806E-04   0.0000000000E+00   0.0000000000E+00   0.0000000000E+00   0.1423865336E-01   0.3735366323E-02   0.5392205905E-02  -0.3228873842E-03   0.0000000000E+00   0.0000000000E+00   0.1150038169E-03  -0.2153891457E-04  -0.4197535995E-05   0.0000000000E+00   0.0000000000E+00   0.0000000000E+00   0.9771164670E-02
   0.2565967874E+00   0.1801991494E-01   0.8766242762E-04  -0.4038623832E-06   0.0000000000E+00   0.0000000000E+00   0.1506710854E-01   0.3848020946E-02   0.5674538845E-02  -0.8020571945E-03   0.0000000000E+00   0.0000000000E+00   0.1221034060E-03  -0.2374473270E-04  -0.1042674353E-04   0.0000000000E+00   0.0000000000E+00   0.0000000000E+00   0.1053286931E-01
   0.2989884171E+00   0.8661713070E-01   0.9115108225E-04  -0.2834995102E-05   0.0000000000E+00   0.0000000000E+00   0.2031603348E-01   0.2967940554E-02   0.6985192210E-02  -0.1424644761E-02   0.0000000000E+00   0.0000000000E+00   0.1733009365E-03  -0.5222427153E-04  -0.1852038190E-04   0.0000000000E+00   0.0000000000E+00   0.0000000000E+00   0.1591936276E-01
   0.3162542635E+00   0.9621609140E-01   0.9388252582E-04  -0.3306704314E-05   0.0000000000E+00   0.0000000000E+00   0.2113628532E-01   0.2912896404E-02   0.7214754516E-02  -0.9731500864E-03   0.0000000000E+00   0.0000000000E+00   0.1809799004E-03  -0.5592415546E-04  -0.1265095112E-04   0.0000000000E+00   0.0000000000E+00   0.0000000000E+00   0.1658341556E-01
   0.2993765086E+00   0.1058809790E+00   0.9041160451E-04  -0.3945999953E-05   0.0000000000E+00   0.0000000000E+00   0.2190547695E-01   0.2412482718E-02   0.7295387901E-02  -0.1468377405E-02   0.0000000000E+00   0.0000000000E+00   0.1899311577E-03  -0.6347776738E-04  -0.1908890627E-04   0.0000000000E+00   0.0000000000E+00   0.0000000000E+00   0.1775051018E-01
   0.1936991608E+00   0.1783112250E-01   0.8086283346E-04  -0.4171990993E-06   0.0000000000E+00   0.0000000000E+00   0.1072021772E-01   0.1714958064E-02   0.3730552735E-02  -0.1717440276E-02   0.0000000000E+00   0.0000000000E+00   0.9086564481E-04  -0.2620273073E-04  -0.2232672359E-04   0.0000000000E+00   0.0000000000E+00   0.0000000000E+00   0.8793340811E-02
   0.2042489287E+00   0.0000000000E+00   0.8226269061E-04   0.0000000000E+00   0.0000000000E+00   0.0000000000E+00   0.1112252650E-01   0.2399995280E-02   0.4056756535E-02  -0.5791398071E-03   0.0000000000E+00   0.0000000000E+00   0.9185500958E-04  -0.2153789632E-04  -0.7528817492E-05   0.0000000000E+00   0.0000000000E+00   0.0000000000E+00   0.8012006132E-02
   0.2146481158E+00   0.1790966792E-01   0.8289880062E-04  -0.4009839229E-06   0.0000000000E+00   0.0000000000E+00   0.1253031993E-01   0.2678980714E-02   0.4562790192E-02  -0.1354213485E-02   0.0000000000E+00   0.0000000000E+00   0.1035778866E-03  -0.2448952322E-04  -0.1760477530E-04   0.0000000000E+00   0.0000000000E+00   0.0000000000E+00   0.9402180946E-02
   0.1321671702E+00   0.4107684037E-01   0.7271220213E-04  -0.2975130336E-05   0.0000000000E+00   0.0000000000E+00   0.7577293398E-02  -0.6200293385E-02   0.4131000039E-03  -0.5806930156E-02   0.0000000000E+00   0.0000000000E+00   0.9313451412E-04  -0.8597411405E-04  -0.7549009203E-04   0.0000000000E+00   0.0000000000E+00   0.0000000000E+00   0.1565091190E-01
   0.1251536479E+00   0.5990077134E-01   0.6669990856E-04  -0.5398455227E-05   0.0000000000E+00   0.0000000000E+00   0.1291149329E-01  -0.7050641825E-02   0.1758255439E-02  -0.7642154356E-02   0.0000000000E+00   0.0000000000E+00   0.1449920920E-03  -0.1145156644E-03  -0.9934800663E-04   0.0000000000E+00   0.0000000000E+00   0.0000000000E+00   0.2188052643E-01
   0.1130683940E+00   0.3922608706E-01   0.7163702634E-04  -0.4967444060E-05   0.0000000000E+00   0.0000000000E+00   0.3954215574E-02  -0.1027307252E-01  -0.1895657084E-02  -0.3907590569E-02   0.0000000000E+00   0.0000000000E+00   0.7604834455E-04  -0.1089064007E-03  -0.5079867739E-04   0.0000000000E+00   0.0000000000E+00   0.0000000000E+00   0.1438855765E-01
   0.1728041079E+00   0.1762992123E-01   0.7913089277E-04  -0.4695721429E-06   0.0000000000E+00   0.0000000000E+00   0.8451868750E-02   0.4189093098E-03   0.2661233418E-02  -0.2147862463E-02   0.0000000000E+00   0.0000000000E+00   0.7527825932E-04  -0.2915021341E-04  -0.2792221202E-04   0.0000000000E+00   0.0000000000E+00   0.0000000000E+00   0.8190815215E-02
   0.1834138493E+00   0.0000000000E+00   0.8051233002E-04   0.0000000000E+00   0.0000000000E+00   0.0000000000E+00   0.8804983774E-02   0.1268874424E-02   0.3022157459E-02  -0.8198961623E-03   0.0000000000E+00   0.0000000000E+00   0.7517674209E-04  -0.2279267946E-04  -0.1065865011E-04   0.0000000000E+00   0.0000000000E+00   0.0000000000E+00   0.6868530189E-02
   0.9245827088E-01   0.3825829631E-01   0.7031898010E-04  -0.1004629308E-04   0.0000000000E+00   0.0000000000E+00  -0.1821913523E-03  -0.1845160518E-01  -0.5590138961E-02   0.1581868356E-02   0.0000000000E+00   0.0000000000E+00   0.7030331891E-04  -0.1671990609E-03   0.2056428863E-04   0.0000000000E+00   0.0000000000E+00   0.0000000000E+00   0.1573234336E-01
   0.3306497495E+00   0.2499818585E+00   0.9419153145E-04  -0.1814150357E-04   0.0000000000E+00   0.0000000000E+00   0.3273207635E-01   0.2847742157E-04   0.9828166133E-02  -0.1440108465E-05   0.0000000000E+00   0.0000000000E+00   0.2977508329E-03  -0.1273959532E-03  -0.1872141004E-07   0.0000000000E+00   0.0000000000E+00   0.0000000000E+00   0.2906973721E-01
   0.3500999940E+00   0.2307535840E+00   0.1000000000E-03  -0.1564803975E-04   0.0000000000E+00   0.0000000000E+00   0.3194942136E-01   0.2009711011E-04   0.9590855540E-02  -0.4397788134E-04   0.0000000000E+00   0.0000000000E+00   0.2906613556E-03  -0.1244198596E-03  -0.5717124574E-06   0.0000000000E+00   0.0000000000E+00   0.0000000000E+00   0.2838196771E-01
   0.3500999940E+00   0.2499818831E+00   0.1000000000E-03  -0.1811690379E-04   0.0000000000E+00   0.0000000000E+00   0.3327105001E-01  -0.1205357172E-03   0.9945154288E-02   0.1200268375E-03   0.0000000000E+00   0.0000000000E+00   0.3032366444E-03  -0.1308539701E-03   0.1560348887E-05   0.0000000000E+00   0.0000000000E+00   0.0000000000E+00   0.2966832977E-01
   0.3241553030E+00   0.2323429774E+00   0.9244899176E-04  -0.1596961045E-04   0.0000000000E+00   0.0000000000E+00   0.3199170238E-01   0.6251964004E-04   0.9616266605E-02  -0.2551425350E-03   0.0000000000E+00   0.0000000000E+00   0.2908806650E-03  -0.1241987105E-03  -0.3316852954E-05   0.0000000000E+00   0.0000000000E+00   0.0000000000E+00   0.2838813399E-01
   0.3111994724E+00   0.2499816431E+00   0.8835043679E-04  -0.1835685885E-04   0.0000000000E+00   0.0000000000E+00   0.3317480497E-01   0.1360099598E-03   0.9993244478E-02  -0.2849612390E-04   0.0000000000E+00   0.0000000000E+00   0.3013602863E-03  -0.1281440487E-03  -0.3704496107E-06   0.0000000000E+00   0.0000000000E+00   0.0000000000E+00   0.2937732174E-01
   0.2834014758E+00   0.1997121532E+00   0.8197283816E-04  -0.1274481796E-04   0.0000000000E+00   0.0000000000E+00   0.3019090275E-01   0.3060579119E-03   0.9149088199E-02  -0.9393970290E-03   0.0000000000E+00   0.0000000000E+00   0.2735435892E-03  -0.1149593937E-03  -0.1221216138E-04   0.0000000000E+00   0.0000000000E+00   0.0000000000E+00   0.2663867995E-01
   0.2730371199E+00   0.2161498180E+00   0.7821489395E-04  -0.1499395812E-04   0.0000000000E+00   0.0000000000E+00   0.3160131312E-01   0.8952947372E-04   0.9507252778E-02  -0.8001192986E-03   0.0000000000E+00   0.0000000000E+00   0.2872227844E-03  -0.1224304030E-03  -0.1040155088E-04   0.0000000000E+00   0.0000000000E+00   0.0000000000E+00   0.2804979445E-01
   0.2634099835E+00   0.1994714597E+00   0.7648453726E-04  -0.1332028604E-04   0.0000000000E+00   0.0000000000E+00   0.3046692162E-01   0.1331489048E-03   0.9180021158E-02  -0.1110627349E-02   0.0000000000E+00   0.0000000000E+00   0.2767297060E-03  -0.1176093393E-03  -0.1443815554E-04   0.0000000000E+00   0.0000000000E+00   0.0000000000E+00   0.2704129250E-01
   0.3156803292E+00   0.1923690470E+00   0.9093119617E-04  -0.1136598808E-04   0.0000000000E+00   0.0000000000E+00   0.2914375343E-01   0.4733992850E-03   0.8885145814E-02  -0.6055604099E-03   0.0000000000E+00   0.0000000000E+00   0.2633618990E-03  -0.1093527049E-03  -0.7872285328E-05   0.0000000000E+00   0.0000000000E+00   0.0000000000E+00   0.2554847130E-01
   0.3332063484E+00   0.1825869817E+00   0.9568844018E-04  -0.1017834764E-04   0.0000000000E+00   0.0000000000E+00   0.2842138734E-01   0.7690587312E-03   0.8757133820E-02  -0.3415244640E-03   0.0000000000E+00   0.0000000000E+00   0.2556352957E-03  -0.1038449762E-03  -0.4439818031E-05   0.0000000000E+00   0.0000000000E+00   0.0000000000E+00   0.2465668206E-01
   0.3332271735E+00   0.2016128536E+00   0.9544247375E-04  -0.1224042933E-04   0.0000000000E+00   0.0000000000E+00   0.3000626169E-01   0.4443549207E-03   0.9135184983E-02  -0.2943707453E-03   0.0000000000E+00   0.0000000000E+00   0.2713239972E-03  -0.1129807908E-03  -0.3826819689E-05   0.0000000000E+00   0.0000000000E+00   0.0000000000E+00   0.2632162642E-01
   0.3333051722E+00   0.1634035749E+00   0.9598519135E-04  -0.8281110182E-05   0.0000000000E+00   0.0000000000E+00   0.2680056819E-01   0.1187729438E-02   0.8396489288E-02  -0.4055900078E-03   0.0000000000E+00   0.0000000000E+00   0.2392530257E-03  -0.9371387805E-04  -0.5272670102E-05   0.0000000000E+00   0.0000000000E+00   0.0000000000E+00   0.2288800420E-01
   0.3500999940E+00   0.1730677501E+00   0.1000000000E-03  -0.9177871342E-05   0.0000000000E+00   0.0000000000E+00   0.2758520058E-01   0.9677518347E-03   0.8565885725E-02   0.6033205817E-05   0.0000000000E+00   0.0000000000E+00   0.2472510931E-03  -0.9877574058E-04   0.7843167562E-07   0.0000000000E+00   0.0000000000E+00   0.0000000000E+00   0.2374876947E-01
   0.3500999940E+00   0.1538387805E+00   0.1000000000E-03  -0.7379511093E-05   0.0000000000E+00   0.0000000000E+00   0.2596502789E-01   0.1439704253E-02   0.8221419644E-02   0.2111034257E-05   0.0000000000E+00   0.0000000000E+00   0.2306669072E-03  -0.8816230008E-04   0.2744344534E-07   0.0000000000E+00   0.0000000000E+00   0.0000000000E+00   0.2193539901E-01
   0.2677319246E+00   0.3629317179E-01   0.8853264907E-04  -0.8862074536E-06   0.0000000000E+00   0.0000000000E+00   0.1623608573E-01   0.3756087323E-02   0.5997651916E-02  -0.1393987803E-02   0.0000000000E+00   0.0000000000E+00   0.1330996396E-03  -0.2914033971E-04  -0.1812184144E-04   0.0000000000E+00   0.0000000000E+00   0.0000000000E+00   0.1176227221E-01
   0.3164919059E+00   0.1346215877E+00   0.9280894746E-04  -0.5888344265E-05   0.0000000000E+00   0.0000000000E+00   0.2437776772E-01   0.1804896777E-02   0.7854799349E-02  -0.9231228239E-03   0.0000000000E+00   0.0000000000E+00   0.2147985888E-03  -0.7864873344E-04  -0.1200059671E-04   0.0000000000E+00   0.0000000000E+00   0.0000000000E+00   0.2030052960E-01
   0.3164705369E+00   0.1154517781E+00   0.9337391188E-04  -0.4489895082E-05   0.0000000000E+00   0.0000000000E+00   0.2271634394E-01   0.2348688247E-02   0.7519509655E-02  -0.9703761589E-03   0.0000000000E+00   0.0000000000E+00   0.1975588457E-03  -0.6722067831E-04  -0.1261489007E-04   0.0000000000E+00   0.0000000000E+00   0.0000000000E+00   0.1841335771E-01
   0.3333383515E+00   0.1250133499E+00   0.9656050119E-04  -0.5098057489E-05   0.0000000000E+00   0.0000000000E+00   0.2350867243E-01   0.2189024334E-02   0.7709309029E-02  -0.4716663681E-03   0.0000000000E+00   0.0000000000E+00   0.2053917242E-03  -0.7176370103E-04  -0.6131662785E-05   0.0000000000E+00   0.0000000000E+00   0.0000000000E+00   0.1918247329E-01
   0.3500999940E+00   0.9615058792E-01   0.1000000000E-03  -0.3259976031E-05   0.0000000000E+00   0.0000000000E+00   0.2115959837E-01   0.3054639507E-02   0.7264271364E-02  -0.2012443917E-04   0.0000000000E+00   0.0000000000E+00   0.1806392511E-03  -0.5472521415E-04  -0.2616177092E-06   0.0000000000E+00   0.0000000000E+00   0.0000000000E+00   0.1640914690E-01
   0.3332965109E+00   0.1057874509E+00   0.9683089282E-04  -0.3827144101E-05   0.0000000000E+00   0.0000000000E+00   0.2191230338E-01   0.2744834959E-02   0.7397141502E-02  -0.4773237525E-03   0.0000000000E+00   0.0000000000E+00   0.1886971044E-03  -0.6047998505E-04  -0.6205208783E-05   0.0000000000E+00   0.0000000000E+00   0.0000000000E+00   0.1733558079E-01
   0.3500999940E+00   0.7692077207E-01   0.1000000000E-03  -0.2307727201E-05   0.0000000000E+00   0.0000000000E+00   0.1977183066E-01   0.3582532166E-02   0.7006308847E-02  -0.1745905360E-04   0.0000000000E+00   0.0000000000E+00   0.1659517835E-03  -0.4450909685E-04  -0.2269676969E-06   0.0000000000E+00   0.0000000000E+00   0.0000000000E+00   0.1477692516E-01
   0.3319527735E+00   0.4723306672E-01   0.9732751395E-04  -0.1196580282E-05   0.0000000000E+00   0.0000000000E+00   0.1796966936E-01   0.4254182773E-02   0.6667155641E-02  -0.3499182966E-03   0.0000000000E+00   0.0000000000E+00   0.1469326784E-03  -0.3136864729E-04  -0.4548937856E-05   0.0000000000E+00   0.0000000000E+00   0.0000000000E+00   0.1269625887E-01
   0.3500999940E+00   0.5769076907E-01   0.1000000000E-03  -0.1538934116E-05   0.0000000000E+00   0.0000000000E+00   0.1856196251E-01   0.4036231299E-02   0.6779458141E-02  -0.1106679180E-04   0.0000000000E+00   0.0000000000E+00   0.1531725567E-03  -0.3566194895E-04  -0.1438682934E-06   0.0000000000E+00   0.0000000000E+00   0.0000000000E+00   0.1336567492E-01
   0.0000000000E+00   0.2499505422E+00   0.0000000000E+00  -0.4945776087E-04   0.0000000000E+00   0.0000000000E+00   0.1871410197E-01   0.7028172931E-03   0.5825075778E-02   0.9174048263E-03   0.0000000000E+00   0.0000000000E+00   0.1675573405E-03  -0.6658936030E-04   0.1192626274E-04   0.0000000000E+00   0.0000000000E+00   0.0000000000E+00   0.1610312838E-01
   0.3889624810E-01   0.2499524703E+00   0.7357802020E-05  -0.4752971173E-04   0.0000000000E+00   0.0000000000E+00   0.2160921010E-01  -0.8580750662E-04   0.6457020779E-02   0.6044715480E-03   0.0000000000E+00   0.0000000000E+00   0.1969784612E-03  -0.8505676771E-04   0.7858130124E-05   0.0000000000E+00   0.0000000000E+00   0.0000000000E+00   0.1928186194E-01
   0.5552941247E-01   0.1231078419E+00   0.2389837062E-04  -0.3039905284E-04   0.0000000000E+00   0.0000000000E+00   0.4317869588E-01   0.2622511762E-02   0.1374036229E-01  -0.5255705303E-03   0.0000000000E+00   0.0000000000E+00   0.3826983366E-03  -0.1445320569E-03  -0.6832416894E-05   0.0000000000E+00   0.0000000000E+00   0.0000000000E+00   0.3601983085E-01
   0.6783402659E-01   0.2329287243E+00   0.1582448774E-04  -0.4199066471E-04   0.0000000000E+00   0.0000000000E+00   0.2816899263E-01   0.6666253720E-04   0.8470696551E-02   0.1878698218E-02   0.0000000000E+00   0.0000000000E+00   0.2560778491E-03  -0.1092524422E-03   0.2442307684E-04   0.0000000000E+00   0.0000000000E+00   0.0000000000E+00   0.2521275685E-01
   0.5834483002E-01   0.2499548293E+00   0.1149642408E-04  -0.4517074934E-04   0.0000000000E+00   0.0000000000E+00   0.2465748757E-01  -0.4789159106E-04   0.7382878794E-02   0.7449807437E-03   0.0000000000E+00   0.0000000000E+00   0.2245699141E-03  -0.9660001501E-04   0.9684749668E-05   0.0000000000E+00   0.0000000000E+00   0.0000000000E+00   0.2196088596E-01
   0.7779388254E-01   0.2499577875E+00   0.1610194302E-04  -0.4221253647E-04   0.0000000000E+00   0.0000000000E+00   0.2739045797E-01  -0.5829807323E-04   0.8199647970E-02   0.8454833587E-03   0.0000000000E+00   0.0000000000E+00   0.2494805300E-03  -0.1073532986E-03   0.1099128366E-04   0.0000000000E+00   0.0000000000E+00   0.0000000000E+00   0.2440972809E-01
   0.1264086373E+00   0.2330972437E+00   0.3215730460E-04  -0.3172133343E-04   0.0000000000E+00   0.0000000000E+00   0.3278668951E-01  -0.2701551412E-03   0.9754960309E-02   0.1247275259E-02   0.0000000000E+00   0.0000000000E+00   0.2994124796E-03  -0.1303265009E-03   0.1621457836E-04   0.0000000000E+00   0.0000000000E+00   0.0000000000E+00   0.2944275792E-01
   0.1166933960E+00   0.2499644392E+00   0.2672899411E-04  -0.3556076233E-04   0.0000000000E+00   0.0000000000E+00   0.3236859106E-01  -0.7639779777E-04   0.9687657980E-02   0.6230689166E-03   0.0000000000E+00   0.0000000000E+00   0.2948521301E-03  -0.1269327251E-03   0.8099895916E-05   0.0000000000E+00   0.0000000000E+00   0.0000000000E+00   0.2883493652E-01
   0.1361437419E+00   0.2499676819E+00   0.3263188493E-04  -0.3231806522E-04   0.0000000000E+00   0.0000000000E+00   0.3417429244E-01  -0.6362762351E-04   0.1023319944E-01   0.4529375544E-03   0.0000000000E+00   0.0000000000E+00   0.3112342089E-03  -0.1338587519E-03   0.5888188208E-05   0.0000000000E+00   0.0000000000E+00   0.0000000000E+00   0.3042723571E-01
   0.1361236615E+00   0.2162030779E+00   0.3725752590E-04  -0.2782107648E-04   0.0000000000E+00   0.0000000000E+00   0.3296805639E-01  -0.7966462051E-03   0.9651423056E-02   0.1738291169E-02   0.0000000000E+00   0.0000000000E+00   0.3031162334E-03  -0.1358249004E-03   0.2259778519E-04   0.0000000000E+00   0.0000000000E+00   0.0000000000E+00   0.3008517142E-01
   0.1847719492E+00   0.2330779584E+00   0.5021115937E-04  -0.2324557095E-04   0.0000000000E+00   0.0000000000E+00   0.3441009787E-01  -0.2191790807E-03   0.1025727564E-01   0.7403002066E-04   0.0000000000E+00   0.0000000000E+00   0.3139866890E-03  -0.1361939113E-03   0.9623902686E-06   0.0000000000E+00   0.0000000000E+00   0.0000000000E+00   0.3075946303E-01
   0.1750451223E+00   0.2499732634E+00   0.4512533631E-04  -0.2673656327E-04   0.0000000000E+00   0.0000000000E+00   0.3597818160E-01  -0.2343017422E-04   0.1078642543E-01   0.1065811519E-03   0.0000000000E+00   0.0000000000E+00   0.3274928303E-03  -0.1405281228E-03   0.1385554974E-05   0.0000000000E+00   0.0000000000E+00   0.0000000000E+00   0.3199680266E-01
   0.2042264311E+00   0.2330831545E+00   0.5630814867E-04  -0.2125353871E-04   0.0000000000E+00   0.0000000000E+00   0.3429718348E-01  -0.1554624242E-03   0.1024251632E-01  -0.1844355360E-03   0.0000000000E+00   0.0000000000E+00   0.3127106731E-03  -0.1351737236E-03  -0.2397661968E-05   0.0000000000E+00   0.0000000000E+00   0.0000000000E+00   0.3060972338E-01
   0.1944959576E+00   0.2499754695E+00   0.5150955272E-04  -0.2453052379E-04   0.0000000000E+00   0.0000000000E+00   0.3608452412E-01   0.5638801840E-06   0.1082552640E-01  -0.2339196468E-04   0.0000000000E+00   0.0000000000E+00   0.3283669703E-03  -0.1407245128E-03  -0.3040955408E-06   0.0000000000E+00   0.0000000000E+00   0.0000000000E+00   0.3207215191E-01
   0.2236798399E+00   0.2330965729E+00   0.6236094008E-04  -0.1966609174E-04   0.0000000000E+00   0.0000000000E+00   0.3398946095E-01  -0.9058107238E-04   0.1016966396E-01  -0.3465347124E-03   0.0000000000E+00   0.0000000000E+00   0.3096573608E-03  -0.1333831854E-03  -0.4504951261E-05   0.0000000000E+00   0.0000000000E+00   0.0000000000E+00   0.3028902364E-01
   0.2139467598E+00   0.2499772756E+00   0.5787581347E-04  -0.2272439270E-04   0.0000000000E+00   0.0000000000E+00   0.3582389800E-01   0.2189511642E-04   0.1075373793E-01  -0.1109580457E-03   0.0000000000E+00   0.0000000000E+00   0.3259120808E-03  -0.1395139566E-03  -0.1442454594E-05   0.0000000000E+00   0.0000000000E+00   0.0000000000E+00   0.3182352825E-01
   0.2431473552E+00   0.2331088169E+00   0.6834822368E-04  -0.1843414761E-04   0.0000000000E+00   0.0000000000E+00   0.3356769577E-01  -0.3475079355E-04   0.1005988349E-01  -0.4202757830E-03   0.0000000000E+00   0.0000000000E+00   0.3056015596E-03  -0.1312302457E-03  -0.5463585179E-05   0.0000000000E+00   0.0000000000E+00   0.0000000000E+00   0.2987274546E-01
   0.2333975059E+00   0.2499787126E+00   0.6417189818E-04  -0.2128741004E-04   0.0000000000E+00   0.0000000000E+00   0.3533654542E-01   0.3747220430E-04   0.1061220529E-01  -0.1563188965E-03   0.0000000000E+00   0.0000000000E+00   0.3214164217E-03  -0.1374715301E-03  -0.2032145654E-05   0.0000000000E+00   0.0000000000E+00   0.0000000000E+00   0.3137787593E-01
   0.2627778453E+00   0.2330461168E+00   0.7430734189E-04  -0.1749115819E-04   0.0000000000E+00   0.0000000000E+00   0.3310644473E-01   0.6834639673E-05   0.9933983812E-02  -0.4239552602E-03   0.0000000000E+00   0.0000000000E+00   0.3012419920E-03  -0.1290529392E-03  -0.5511418383E-05   0.0000000000E+00   0.0000000000E+00   0.0000000000E+00   0.2942971234E-01
   0.2528481550E+00   0.2499798235E+00   0.7036998968E-04  -0.2017652559E-04   0.0000000000E+00   0.0000000000E+00   0.3474985049E-01   0.5071404309E-04   0.1044016936E-01  -0.1659891455E-03   0.0000000000E+00   0.0000000000E+00   0.3160258547E-03  -0.1350629191E-03  -0.2157858892E-05   0.0000000000E+00   0.0000000000E+00   0.0000000000E+00   0.3084573435E-01
   0.2826569419E+00   0.2328480421E+00   0.8026194488E-04  -0.1678485799E-04   0.0000000000E+00   0.0000000000E+00   0.3267102970E-01   0.3998953335E-04   0.9813305770E-02  -0.3739338965E-03   0.0000000000E+00   0.0000000000E+00   0.2971504111E-03  -0.1270531111E-03  -0.4861140654E-05   0.0000000000E+00   0.0000000000E+00   0.0000000000E+00   0.2901392274E-01
   0.2722986823E+00   0.2499806537E+00   0.7646129132E-04  -0.1934627401E-04   0.0000000000E+00   0.0000000000E+00   0.3414894712E-01   0.6046861683E-04   0.1026282472E-01  -0.1511582541E-03   0.0000000000E+00   0.0000000000E+00   0.3105195912E-03  -0.1326306293E-03  -0.1965057303E-05   0.0000000000E+00   0.0000000000E+00   0.0000000000E+00   0.3030389602E-01
   0.3030436224E+00   0.2323308050E+00   0.8629639206E-04  -0.1625101137E-04   0.0000000000E+00   0.0000000000E+00   0.3224313264E-01   0.6777992646E-04   0.9693273771E-02  -0.2937289081E-03   0.0000000000E+00   0.0000000000E+00   0.2931481653E-03  -0.1251314200E-03  -0.3818475805E-05   0.0000000000E+00   0.0000000000E+00   0.0000000000E+00   0.2860839868E-01
   0.2917491078E+00   0.2499812459E+00   0.8245076167E-04  -0.1875414357E-04   0.0000000000E+00   0.0000000000E+00   0.3361842002E-01   0.8046191469E-04   0.1010966458E-01  -0.1204004182E-03   0.0000000000E+00   0.0000000000E+00   0.3056138207E-03  -0.1303796347E-03  -0.1565205437E-05   0.0000000000E+00   0.0000000000E+00   0.0000000000E+00   0.2981651439E-01
   0.1653171919E+00   0.1646785026E+00   0.5264492073E-04  -0.1610441091E-04   0.0000000000E+00   0.0000000000E+00   0.3098730503E-01  -0.2726684998E-02   0.8478186010E-02  -0.7268409039E-03   0.0000000000E+00   0.0000000000E+00   0.2926185473E-03  -0.1456633231E-03  -0.9448931751E-05   0.0000000000E+00   0.0000000000E+00   0.0000000000E+00   0.2975550861E-01
   0.1554137999E+00   0.1822271311E+00   0.4731992262E-04  -0.1998588413E-04   0.0000000000E+00   0.0000000000E+00   0.3221465071E-01  -0.2247496171E-02   0.8990146361E-02   0.4811665820E-03   0.0000000000E+00   0.0000000000E+00   0.3019185565E-03  -0.1460893529E-03   0.6255165566E-05   0.0000000000E+00   0.0000000000E+00   0.0000000000E+00   0.3044804998E-01
   0.1452840073E+00   0.1648037645E+00   0.4663629242E-04  -0.1884354062E-04   0.0000000000E+00   0.0000000000E+00   0.3218316448E-01  -0.3298283719E-02   0.8665464228E-02   0.1445984449E-03   0.0000000000E+00   0.0000000000E+00   0.3057301033E-03  -0.1555287233E-03   0.1879779784E-05   0.0000000000E+00   0.0000000000E+00   0.0000000000E+00   0.3125937882E-01
   0.2250843133E+00   0.0000000000E+00   0.8431926674E-04   0.0000000000E+00   0.0000000000E+00   0.0000000000E+00   0.1289833412E-01   0.3189908404E-02   0.4826472758E-02  -0.4322022080E-03   0.0000000000E+00   0.0000000000E+00   0.1049341977E-03  -0.2127533660E-04  -0.5618628704E-05   0.0000000000E+00   0.0000000000E+00   0.0000000000E+00   0.8989592508E-02
   0.1614991015E+00   0.7205032207E-01   0.6945749155E-04  -0.3959729420E-05   0.0000000000E+00   0.0000000000E+00   0.1748814750E-01  -0.3473152224E-02   0.4204498583E-02  -0.6937589052E-02   0.0000000000E+00   0.0000000000E+00   0.1726874359E-03  -0.9980946049E-04  -0.9018865768E-04   0.0000000000E+00   0.0000000000E+00   0.0000000000E+00   0.2192985611E-01
   0.1831179694E+00   0.7144634268E-01   0.7319340108E-04  -0.3153219885E-05   0.0000000000E+00   0.0000000000E+00   0.1756441336E-01  -0.1158385504E-02   0.4921808356E-02  -0.5703293818E-02   0.0000000000E+00   0.0000000000E+00   0.1643538650E-03  -0.7904252017E-04  -0.7414281963E-04   0.0000000000E+00   0.0000000000E+00   0.0000000000E+00   0.1925811744E-01
   0.1726194077E+00   0.9033765095E-01   0.6765671972E-04  -0.5340149371E-05   0.0000000000E+00   0.0000000000E+00   0.2164226002E-01  -0.2752471030E-02   0.5666936698E-02  -0.5606248317E-02   0.0000000000E+00   0.0000000000E+00   0.2076792032E-03  -0.1094523005E-03  -0.7288122812E-04   0.0000000000E+00   0.0000000000E+00   0.0000000000E+00   0.2356169368E-01
   0.1739326069E-01   0.2040677724E+00   0.4587189689E-05  -0.4493656316E-04   0.0000000000E+00   0.0000000000E+00   0.3005316465E-01   0.2355255189E-02   0.9722525951E-02   0.1257273844E-02   0.0000000000E+00   0.0000000000E+00   0.2642983030E-03  -0.9577451990E-04   0.1634455998E-04   0.0000000000E+00   0.0000000000E+00   0.0000000000E+00   0.2497467460E-01
   0.0000000000E+00   0.1937054982E+00   0.0000000000E+00  -0.4449576948E-04   0.0000000000E+00   0.0000000000E+00   0.3162449635E-01   0.3292129416E-02   0.1047498773E-01   0.7622611734E-03   0.0000000000E+00   0.0000000000E+00   0.2749436121E-03  -0.9337715808E-04   0.9909395255E-05   0.0000000000E+00   0.0000000000E+00   0.0000000000E+00   0.2553289323E-01
   0.1683781116E-01   0.1844836816E+00   0.4818757143E-05  -0.4308944962E-04   0.0000000000E+00   0.0000000000E+00   0.3325432714E-01   0.3837313327E-02   0.1112749214E-01   0.1421991622E-02   0.0000000000E+00   0.0000000000E+00   0.2876488550E-03  -0.9477232458E-04   0.1848589108E-04   0.0000000000E+00   0.0000000000E+00   0.0000000000E+00   0.2669169747E-01
   0.0000000000E+00   0.1749572086E+00   0.0000000000E+00  -0.4278843599E-04   0.0000000000E+00   0.0000000000E+00   0.3496791992E-01   0.5243712632E-02   0.1206348977E-01   0.9139660199E-03   0.0000000000E+00   0.0000000000E+00   0.2977575920E-03  -0.8865710275E-04   0.1188155826E-04   0.0000000000E+00   0.0000000000E+00   0.0000000000E+00   0.2699470239E-01
   0.1691212602E-01   0.1652829017E+00   0.5289017049E-05  -0.4127929360E-04   0.0000000000E+00   0.0000000000E+00   0.3680688059E-01   0.5433185508E-02   0.1267201983E-01   0.1449966057E-02   0.0000000000E+00   0.0000000000E+00   0.3137531899E-03  -0.9410484617E-04   0.1884955874E-04   0.0000000000E+00   0.0000000000E+00   0.0000000000E+00   0.2859985484E-01
   0.3380709279E-01   0.1749490519E+00   0.1014538663E-04  -0.4058906859E-04   0.0000000000E+00   0.0000000000E+00   0.3504542541E-01   0.3650335389E-02   0.1160872824E-01   0.2999777313E-02   0.0000000000E+00   0.0000000000E+00   0.3046770632E-03  -0.1034591071E-03   0.3899710506E-04   0.0000000000E+00   0.0000000000E+00   0.0000000000E+00   0.2874520553E-01
   0.3459730775E-01   0.1552031272E+00   0.1151145197E-04  -0.3842177743E-04   0.0000000000E+00   0.0000000000E+00   0.3874615162E-01   0.4880199060E-02   0.1308790520E-01   0.2686312569E-02   0.0000000000E+00   0.0000000000E+00   0.3335572034E-03  -0.1067001799E-03   0.3492206339E-04   0.0000000000E+00   0.0000000000E+00   0.0000000000E+00   0.3097442531E-01
   0.3374350607E-01   0.1942113827E+00   0.9337173269E-05  -0.4258333161E-04   0.0000000000E+00   0.0000000000E+00   0.3193133173E-01   0.2183660751E-02   0.1023449774E-01   0.2725435377E-02   0.0000000000E+00   0.0000000000E+00   0.2820588418E-03  -0.1046608809E-03   0.3543065991E-04   0.0000000000E+00   0.0000000000E+00   0.0000000000E+00   0.2706444366E-01
   0.5386265589E-01   0.1449765750E+00   0.1916509064E-04  -0.3383695617E-04   0.0000000000E+00   0.0000000000E+00   0.3975532801E-01   0.2353505737E-02   0.1263265013E-01   0.2802647567E-02   0.0000000000E+00   0.0000000000E+00   0.3525948126E-03  -0.1336288770E-03   0.3643441838E-04   0.0000000000E+00   0.0000000000E+00   0.0000000000E+00   0.3383253510E-01
   0.9713857039E-01   0.2160962687E+00   0.2568378723E-04  -0.3482231031E-04   0.0000000000E+00   0.0000000000E+00   0.3159736748E-01  -0.4759828282E-03   0.9336415396E-02   0.3000670497E-02   0.0000000000E+00   0.0000000000E+00   0.2893923771E-03  -0.1275611769E-03   0.3900871646E-04   0.0000000000E+00   0.0000000000E+00   0.0000000000E+00   0.2892149945E-01
   0.1417448604E+00   0.0000000000E+00   0.7819443345E-04   0.0000000000E+00   0.0000000000E+00   0.0000000000E+00   0.2566379331E-02  -0.4074673095E-02  -0.4524881291E-03  -0.2652425795E-02   0.0000000000E+00   0.0000000000E+00   0.3924527698E-04  -0.4708840455E-04  -0.3448153534E-04   0.0000000000E+00   0.0000000000E+00   0.0000000000E+00   0.6841762334E-02
   0.1521298898E+00   0.1778472738E-01   0.7771078703E-04  -0.7156151622E-06   0.0000000000E+00   0.0000000000E+00   0.5710272029E-02  -0.2315671462E-02   0.1018380170E-02  -0.2128223009E-02   0.0000000000E+00   0.0000000000E+00   0.6099459417E-04  -0.4334267122E-04  -0.2766689912E-04   0.0000000000E+00   0.0000000000E+00   0.0000000000E+00   0.8178704625E-02
   0.1625791443E+00   0.0000000000E+00   0.7915031555E-04   0.0000000000E+00   0.0000000000E+00   0.0000000000E+00   0.5641920108E-02  -0.9933536943E-03   0.1394569924E-02  -0.1130129262E-02   0.0000000000E+00   0.0000000000E+00   0.5521555239E-04  -0.3104300704E-04  -0.1469168040E-04   0.0000000000E+00   0.0000000000E+00   0.0000000000E+00   0.6109266491E-02
   0.3500999940E+00   0.1153801985E+00   0.1000000000E-03  -0.4417510903E-05   0.0000000000E+00   0.0000000000E+00   0.2269644366E-01   0.2501594083E-02   0.7559411321E-02  -0.1491510979E-04   0.0000000000E+00   0.0000000000E+00   0.1967814203E-03  -0.6575162410E-04  -0.1938964272E-06   0.0000000000E+00   0.0000000000E+00   0.0000000000E+00   0.1820012492E-01
   0.3500999940E+00   0.1346096004E+00   0.1000000000E-03  -0.5790553006E-05   0.0000000000E+00   0.0000000000E+00   0.2431171910E-01   0.1952745783E-02   0.7879339465E-02  -0.6333699210E-05   0.0000000000E+00   0.0000000000E+00   0.2136209353E-03  -0.7704571787E-04  -0.8233808973E-07   0.0000000000E+00   0.0000000000E+00   0.0000000000E+00   0.2006291989E-01
   0.3333589323E+00   0.1442233639E+00   0.9628025520E-04  -0.6585067313E-05   0.0000000000E+00   0.0000000000E+00   0.2515620730E-01   0.1660690920E-02   0.8045069466E-02  -0.4442893970E-03   0.0000000000E+00   0.0000000000E+00   0.2224447918E-03  -0.8299692110E-04  -0.5775762161E-05   0.0000000000E+00   0.0000000000E+00   0.0000000000E+00   0.2105692266E-01
   0.1623211609E+00   0.3474145933E-01   0.7654294237E-04  -0.1238768559E-05   0.0000000000E+00   0.0000000000E+00   0.9748863173E-02  -0.1152225046E-02   0.2578991438E-02  -0.4672726599E-02   0.0000000000E+00   0.0000000000E+00   0.9320833256E-04  -0.4850581429E-04  -0.6074544579E-04   0.0000000000E+00   0.0000000000E+00   0.0000000000E+00   0.1254690799E-01
   0.1830937439E+00   0.3537150642E-01   0.7847193212E-04  -0.1026483295E-05   0.0000000000E+00   0.0000000000E+00   0.1133949853E-01   0.3715210085E-03   0.3513305861E-02  -0.3937991134E-02   0.0000000000E+00   0.0000000000E+00   0.1017405047E-03  -0.4084320308E-04  -0.5119388474E-04   0.0000000000E+00   0.0000000000E+00   0.0000000000E+00   0.1191354232E-01
   0.1448690241E+00   0.3344391145E-01   0.7524513134E-04  -0.1729952182E-05   0.0000000000E+00   0.0000000000E+00   0.6042077204E-02  -0.4057637323E-02   0.5953319643E-03  -0.5469677053E-02   0.0000000000E+00   0.0000000000E+00   0.7080768812E-04  -0.6048860074E-04  -0.7110580169E-04   0.0000000000E+00   0.0000000000E+00   0.0000000000E+00   0.1270832930E-01
   0.2139708994E+00   0.2161743706E+00   0.6090037777E-04  -0.1817339284E-04   0.0000000000E+00   0.0000000000E+00   0.3276840638E-01  -0.2938282624E-03   0.9742373436E-02  -0.5702157881E-03   0.0000000000E+00   0.0000000000E+00   0.2993384283E-03  -0.1304706221E-03  -0.7412805245E-05   0.0000000000E+00   0.0000000000E+00   0.0000000000E+00   0.2937548860E-01
   0.2889714532E+00   0.3564753117E-01   0.9143323809E-04  -0.8669348658E-06   0.0000000000E+00   0.0000000000E+00   0.1682093318E-01   0.4110776419E-02   0.6279512881E-02  -0.1028087073E-02   0.0000000000E+00   0.0000000000E+00   0.1370384639E-03  -0.2819357401E-04  -0.1336513195E-04   0.0000000000E+00   0.0000000000E+00   0.0000000000E+00   0.1190905471E-01
   0.2987377316E+00   0.5045083812E-01   0.9238457033E-04  -0.1315979293E-05   0.0000000000E+00   0.0000000000E+00   0.1775037089E-01   0.4048367128E-02   0.6539621405E-02  -0.1080169480E-02   0.0000000000E+00   0.0000000000E+00   0.1457397433E-03  -0.3238630559E-04  -0.1404220324E-04   0.0000000000E+00   0.0000000000E+00   0.0000000000E+00   0.1277147927E-01
   0.3149454624E+00   0.5754501337E-01   0.9462544989E-04  -0.1553832960E-05   0.0000000000E+00   0.0000000000E+00   0.1851861289E-01   0.4042424472E-02   0.6768311207E-02  -0.8060847266E-03   0.0000000000E+00   0.0000000000E+00   0.1527539218E-03  -0.3543652756E-04  -0.1047910145E-04   0.0000000000E+00   0.0000000000E+00   0.0000000000E+00   0.1339586455E-01
   0.6705639498E-01   0.1969256793E+00   0.1872318336E-04  -0.3794374760E-04   0.0000000000E+00   0.0000000000E+00   0.3226862894E-01   0.3993511213E-03   0.9800394018E-02   0.3888214690E-02   0.0000000000E+00   0.0000000000E+00   0.2920870540E-03  -0.1222135577E-03   0.5054679097E-04   0.0000000000E+00   0.0000000000E+00   0.0000000000E+00   0.2915618436E-01
   0.4892290807E-01   0.2014183581E+00   0.1324767214E-04  -0.4139290783E-04   0.0000000000E+00   0.0000000000E+00   0.3127022289E-01   0.1297138333E-02   0.9770208366E-02   0.3538987700E-02   0.0000000000E+00   0.0000000000E+00   0.2795001888E-03  -0.1101499104E-03   0.4600684010E-04   0.0000000000E+00   0.0000000000E+00   0.0000000000E+00   0.2745425658E-01
   0.7742377468E-01   0.2156235818E+00   0.2012497981E-04  -0.3837616541E-04   0.0000000000E+00   0.0000000000E+00   0.3072036797E-01  -0.5003249520E-04   0.9201100643E-02   0.3313099441E-02   0.0000000000E+00   0.0000000000E+00   0.2797504753E-03  -0.1202647308E-03   0.4307029274E-04   0.0000000000E+00   0.0000000000E+00   0.0000000000E+00   0.2792598825E-01
   0.8759942810E-01   0.1993749344E+00   0.2456620184E-04  -0.3444661583E-04   0.0000000000E+00   0.0000000000E+00   0.3248911599E-01  -0.5879131950E-03   0.9570360837E-02   0.3654681933E-02   0.0000000000E+00   0.0000000000E+00   0.2979438169E-03  -0.1320575624E-03   0.4751086513E-04   0.0000000000E+00   0.0000000000E+00   0.0000000000E+00   0.3002483132E-01
   0.1068036027E+00   0.1994556544E+00   0.3033774819E-04  -0.3079464044E-04   0.0000000000E+00   0.0000000000E+00   0.3289717220E-01  -0.1105173354E-02   0.9537599653E-02   0.3110321538E-02   0.0000000000E+00   0.0000000000E+00   0.3036744431E-03  -0.1383560491E-03   0.4043417999E-04   0.0000000000E+00   0.0000000000E+00   0.0000000000E+00   0.3060524999E-01
   0.1120195750E+00   0.1455560974E+00   0.3915204637E-04  -0.2136358926E-04   0.0000000000E+00   0.0000000000E+00   0.3459792908E-01  -0.4188452599E-02   0.9122842945E-02   0.6854922912E-03   0.0000000000E+00   0.0000000000E+00   0.3311761198E-03  -0.1730468421E-03   0.8911399785E-05   0.0000000000E+00   0.0000000000E+00   0.0000000000E+00   0.3412377365E-01
   0.1041132605E+00   0.1665517639E+00   0.3333553163E-04  -0.2642512143E-04   0.0000000000E+00   0.0000000000E+00   0.3456259444E-01  -0.2827827041E-02   0.9520430218E-02   0.2463849963E-02   0.0000000000E+00   0.0000000000E+00   0.3255481348E-03  -0.1605273444E-03   0.3203004952E-04   0.0000000000E+00   0.0000000000E+00   0.0000000000E+00   0.3327500417E-01
   0.9068261099E-01   0.1518000735E+00   0.3100939411E-04  -0.2679951012E-04   0.0000000000E+00   0.0000000000E+00   0.3599280854E-01  -0.2457921484E-02   0.1006046612E-01   0.2569785874E-02   0.0000000000E+00   0.0000000000E+00   0.3371204515E-03  -0.1627390388E-03   0.3340721636E-04   0.0000000000E+00   0.0000000000E+00   0.0000000000E+00   0.3421674388E-01
   0.9494406230E-01   0.9628467431E-01   0.4662820323E-04  -0.1609898710E-04   0.0000000000E+00   0.0000000000E+00   0.3075362112E-01  -0.5240985936E-02   0.7653790556E-02  -0.5556412026E-02   0.0000000000E+00   0.0000000000E+00   0.3002977974E-03  -0.1676320944E-03  -0.7223335634E-04   0.0000000000E+00   0.0000000000E+00   0.0000000000E+00   0.3285028011E-01
   0.1089559078E+00   0.7685405540E-01   0.5789377345E-04  -0.1014989721E-04   0.0000000000E+00   0.0000000000E+00   0.2015951856E-01  -0.7086523613E-02   0.3921898484E-02  -0.7720346051E-02   0.0000000000E+00   0.0000000000E+00   0.2110890610E-03  -0.1431094873E-03  -0.1003644987E-03   0.0000000000E+00   0.0000000000E+00   0.0000000000E+00   0.2721773167E-01
   0.1945058981E+00   0.2161515656E+00   0.5504312632E-04  -0.1992243394E-04   0.0000000000E+00   0.0000000000E+00   0.3306417081E-01  -0.4735102890E-03   0.9777198157E-02  -0.2065475933E-03   0.0000000000E+00   0.0000000000E+00   0.3027306445E-03  -0.1332592098E-03  -0.2685118713E-05   0.0000000000E+00   0.0000000000E+00   0.0000000000E+00   0.2976802288E-01
   0.2251519456E+00   0.3586877710E-01   0.8312258372E-04  -0.8957992124E-06   0.0000000000E+00   0.0000000000E+00   0.1438034200E-01   0.2638340336E-02   0.5105604700E-02  -0.2476572476E-02   0.0000000000E+00   0.0000000000E+00   0.1205715849E-03  -0.3207443673E-04  -0.3219544219E-04   0.0000000000E+00   0.0000000000E+00   0.0000000000E+00   0.1153110500E-01
   0.2462749025E+00   0.3605583742E-01   0.8574054102E-04  -0.8822801871E-06   0.0000000000E+00   0.0000000000E+00   0.1548543688E-01   0.3287739457E-02   0.5631952901E-02  -0.1885934270E-02   0.0000000000E+00   0.0000000000E+00   0.1280952917E-03  -0.3047477477E-04  -0.2451714551E-04   0.0000000000E+00   0.0000000000E+00   0.0000000000E+00   0.1166438408E-01
   0.2740818424E+00   0.1830352396E+00   0.8039339853E-04  -0.1111640452E-04   0.0000000000E+00   0.0000000000E+00   0.2898841178E-01   0.3369544826E-03   0.8797609878E-02  -0.1352935338E-02   0.0000000000E+00   0.0000000000E+00   0.2624804247E-03  -0.1099885201E-03  -0.1758815939E-04   0.0000000000E+00   0.0000000000E+00   0.0000000000E+00   0.2560342129E-01
   0.2334677241E+00   0.2162017347E+00   0.6669405328E-04  -0.1681125956E-04   0.0000000000E+00   0.0000000000E+00   0.3239737645E-01  -0.1233042237E-03   0.9682221666E-02  -0.7733553626E-03   0.0000000000E+00   0.0000000000E+00   0.2952970121E-03  -0.1274718366E-03  -0.1005361971E-04   0.0000000000E+00   0.0000000000E+00   0.0000000000E+00   0.2892342841E-01
   0.3149775179E+00   0.2132851675E+00   0.9020285210E-04  -0.1374952002E-04   0.0000000000E+00   0.0000000000E+00   0.3089441866E-01   0.2439838449E-03   0.9341520751E-02  -0.4518356373E-03   0.0000000000E+00   0.0000000000E+00   0.2801876728E-03  -0.1182679798E-03  -0.5873863285E-05   0.0000000000E+00   0.0000000000E+00   0.0000000000E+00   0.2727633260E-01
   0.3500999940E+00   0.1922965232E+00   0.1000000000E-03  -0.1117277250E-04   0.0000000000E+00   0.0000000000E+00   0.2910989971E-01   0.5435962121E-03   0.8896048776E-02  -0.4843842762E-05   0.0000000000E+00   0.0000000000E+00   0.2627800621E-03  -0.1085818833E-03  -0.6296995591E-07   0.0000000000E+00   0.0000000000E+00   0.0000000000E+00   0.2544091089E-01
   0.2930389475E+00   0.2158142819E+00   0.8393648815E-04  -0.1442007428E-04   0.0000000000E+00   0.0000000000E+00   0.3121961254E-01   0.1271022360E-03   0.9404014432E-02  -0.6825162497E-03   0.0000000000E+00   0.0000000000E+00   0.2836027754E-03  -0.1205998585E-03  -0.8872711246E-05   0.0000000000E+00   0.0000000000E+00   0.0000000000E+00   0.2767159344E-01
   0.3345646460E+00   0.2178835753E+00   0.9562597456E-04  -0.1413768225E-04   0.0000000000E+00   0.0000000000E+00   0.3110647799E-01   0.1619926271E-03   0.9380541185E-02  -0.1852051410E-03   0.0000000000E+00   0.0000000000E+00   0.2824371785E-03  -0.1198411313E-03  -0.2407666833E-05   0.0000000000E+00   0.0000000000E+00   0.0000000000E+00   0.2752082125E-01
   0.5149857081E-01   0.1655927476E+00   0.1626210523E-04  -0.3687736825E-04   0.0000000000E+00   0.0000000000E+00   0.3635680961E-01   0.2344461730E-02   0.1161038140E-01   0.3728760136E-02   0.0000000000E+00   0.0000000000E+00   0.3217035667E-03  -0.1204569557E-03   0.4847388177E-04   0.0000000000E+00   0.0000000000E+00   0.0000000000E+00   0.3114322947E-01
   0.2473971268E+00   0.9581401526E-01   0.8133278368E-04  -0.3751839124E-05   0.0000000000E+00   0.0000000000E+00   0.2124027870E-01   0.1613334312E-02   0.6856083903E-02  -0.3042470556E-02   0.0000000000E+00   0.0000000000E+00   0.1869945323E-03  -0.6815574468E-04  -0.3955211723E-04   0.0000000000E+00   0.0000000000E+00   0.0000000000E+00   0.1837103073E-01
   0.2648018236E+00   0.8646085184E-01   0.8522856238E-04  -0.2979561731E-05   0.0000000000E+00   0.0000000000E+00   0.1995838159E-01   0.2199777944E-02   0.6647447861E-02  -0.2505693389E-02   0.0000000000E+00   0.0000000000E+00   0.1730421385E-03  -0.5781970893E-04  -0.3257401405E-04   0.0000000000E+00   0.0000000000E+00   0.0000000000E+00   0.1658222965E-01
   0.2646576278E+00   0.1059537868E+00   0.8375575922E-04  -0.4235230529E-05   0.0000000000E+00   0.0000000000E+00   0.2199835432E-01   0.1660800483E-02   0.7097746442E-02  -0.2472228573E-02   0.0000000000E+00   0.0000000000E+00   0.1937079025E-03  -0.7068029747E-04  -0.3213897145E-04   0.0000000000E+00   0.0000000000E+00   0.0000000000E+00   0.1873225186E-01
   0.3500999940E+00   0.2115251181E+00   0.1000000000E-03  -0.1334590767E-04   0.0000000000E+00   0.0000000000E+00   0.3036981847E-01   0.2099009306E-03   0.9173915820E-02   0.5048891449E-04   0.0000000000E+00   0.0000000000E+00   0.2755467344E-03  -0.1165321936E-03   0.6563558884E-06   0.0000000000E+00   0.0000000000E+00   0.0000000000E+00   0.2682643525E-01
   0.3006115928E+00   0.2008346701E+00   0.8661280102E-04  -0.1252394443E-04   0.0000000000E+00   0.0000000000E+00   0.3018040605E-01   0.3905376958E-03   0.9171283125E-02  -0.8181906001E-03   0.0000000000E+00   0.0000000000E+00   0.2731185981E-03  -0.1141496906E-03  -0.1063647780E-04   0.0000000000E+00   0.0000000000E+00   0.0000000000E+00   0.2655187153E-01
   0.2959597241E+00   0.1829923881E+00   0.8611209591E-04  -0.1061989748E-04   0.0000000000E+00   0.0000000000E+00   0.2876308419E-01   0.6227067375E-03   0.8815737277E-02  -0.1038635633E-02   0.0000000000E+00   0.0000000000E+00   0.2593155098E-03  -0.1065093970E-03  -0.1350226323E-04   0.0000000000E+00   0.0000000000E+00   0.0000000000E+00   0.2513373673E-01
   0.2994915200E+00   0.1250437980E+00   0.8958096474E-04  -0.5272015348E-05   0.0000000000E+00   0.0000000000E+00   0.2359115290E-01   0.1867864087E-02   0.7637705095E-02  -0.1434655580E-02   0.0000000000E+00   0.0000000000E+00   0.2073948214E-03  -0.7500793311E-04  -0.1865052254E-04   0.0000000000E+00   0.0000000000E+00   0.0000000000E+00   0.1964769407E-01
   0.2798057381E+00   0.5578629076E-01   0.8942511934E-04  -0.1510935844E-05   0.0000000000E+00   0.0000000000E+00   0.1769167150E-01   0.3558666422E-02   0.6375101377E-02  -0.1649354749E-02   0.0000000000E+00   0.0000000000E+00   0.1471154116E-03  -0.3661365442E-04  -0.2144161174E-04   0.0000000000E+00   0.0000000000E+00   0.0000000000E+00   0.1327156528E-01
   0.2983375072E+00   0.6737420406E-01   0.9177918794E-04  -0.1932743700E-05   0.0000000000E+00   0.0000000000E+00   0.1875381737E-01   0.3448112006E-02   0.6660578812E-02  -0.1336262739E-02   0.0000000000E+00   0.0000000000E+00   0.1572121012E-03  -0.4176206848E-04  -0.1737141560E-04   0.0000000000E+00   0.0000000000E+00   0.0000000000E+00   0.1416800230E-01
   0.3162658904E+00   0.1537014385E+00   0.9218840939E-04  -0.7496504528E-05   0.0000000000E+00   0.0000000000E+00   0.2604136936E-01   0.1313003785E-02   0.8206311943E-02  -0.8325929005E-03   0.0000000000E+00   0.0000000000E+00   0.2318557464E-03  -0.8961300605E-04  -0.1082370771E-04   0.0000000000E+00   0.0000000000E+00   0.0000000000E+00   0.2215004168E-01
   0.2237656215E+00   0.1992629004E+00   0.6535154740E-04  -0.1529060226E-04   0.0000000000E+00   0.0000000000E+00   0.3127389580E-01  -0.3867619143E-03   0.9266140165E-02  -0.1021391021E-02   0.0000000000E+00   0.0000000000E+00   0.2861008232E-03  -0.1254877270E-03  -0.1327808328E-04   0.0000000000E+00   0.0000000000E+00   0.0000000000E+00   0.2816095990E-01
   0.2042533783E+00   0.1992040034E+00   0.5972634615E-04  -0.1677364474E-04   0.0000000000E+00   0.0000000000E+00   0.3170131582E-01  -0.7100243228E-03   0.9297387450E-02  -0.7162618369E-03   0.0000000000E+00   0.0000000000E+00   0.2912510688E-03  -0.1300963530E-03  -0.9311403880E-05   0.0000000000E+00   0.0000000000E+00   0.0000000000E+00   0.2877068428E-01
   0.2531623410E+00   0.2162162326E+00   0.7246601828E-04  -0.1576940575E-04   0.0000000000E+00   0.0000000000E+00   0.3198990281E-01   0.3118812495E-05   0.9597906486E-02  -0.8348066633E-03   0.0000000000E+00   0.0000000000E+00   0.2910959522E-03  -0.1247322398E-03  -0.1085248662E-04   0.0000000000E+00   0.0000000000E+00   0.0000000000E+00   0.2846589431E-01
   0.1166508486E+00   0.2162007835E+00   0.3140355172E-04  -0.3123346478E-04   0.0000000000E+00   0.0000000000E+00   0.3243059382E-01  -0.6820728273E-03   0.9524556298E-02   0.2448056636E-02   0.0000000000E+00   0.0000000000E+00   0.2977784878E-03  -0.1326861786E-03   0.3182473626E-04   0.0000000000E+00   0.0000000000E+00   0.0000000000E+00   0.2966480782E-01
   0.1457975833E+00   0.1992532290E+00   0.4226234506E-04  -0.2388903121E-04   0.0000000000E+00   0.0000000000E+00   0.3283239961E-01  -0.1524623987E-02   0.9392332686E-02   0.1357204169E-02   0.0000000000E+00   0.0000000000E+00   0.3047208700E-03  -0.1419204367E-03   0.1764365420E-04   0.0000000000E+00   0.0000000000E+00   0.0000000000E+00   0.3049409822E-01
   0.1356936117E+00   0.1823294364E+00   0.4127874233E-04  -0.2306162498E-04   0.0000000000E+00   0.0000000000E+00   0.3296642655E-01  -0.2409642297E-02   0.9167035275E-02   0.1487949112E-02   0.0000000000E+00   0.0000000000E+00   0.3093920865E-03  -0.1504968084E-03   0.1934333846E-04   0.0000000000E+00   0.0000000000E+00   0.0000000000E+00   0.3134091195E-01
   0.2041056909E+00   0.3564658433E-01   0.8069088099E-04  -0.9308689699E-06   0.0000000000E+00   0.0000000000E+00   0.1303203608E-01   0.1775429811E-02   0.4442239767E-02  -0.3145448217E-02   0.0000000000E+00   0.0000000000E+00   0.1116673521E-03  -0.3466852942E-04  -0.4089082682E-04   0.0000000000E+00   0.0000000000E+00   0.0000000000E+00   0.1152847934E-01
   0.1750045793E+00   0.1821847121E+00   0.5316027313E-04  -0.1744785510E-04   0.0000000000E+00   0.0000000000E+00   0.3150737756E-01  -0.1841496484E-02   0.8899764322E-02  -0.3562358936E-03   0.0000000000E+00   0.0000000000E+00   0.2938989721E-03  -0.1396363905E-03  -0.4631066617E-05   0.0000000000E+00   0.0000000000E+00   0.0000000000E+00   0.2948728518E-01
   0.1652909828E+00   0.1992050249E+00   0.4817684922E-04  -0.2104111738E-04   0.0000000000E+00   0.0000000000E+00   0.3253285771E-01  -0.1354917760E-02   0.9353381986E-02   0.4912715415E-03   0.0000000000E+00   0.0000000000E+00   0.3013331844E-03  -0.1392078967E-03   0.6386530040E-05   0.0000000000E+00   0.0000000000E+00   0.0000000000E+00   0.3001204192E-01
   0.1847715991E+00   0.1991883771E+00   0.5400312350E-04  -0.1867586586E-04   0.0000000000E+00   0.0000000000E+00   0.3214566986E-01  -0.1048064886E-02   0.9329281491E-02  -0.2140149940E-03   0.0000000000E+00   0.0000000000E+00   0.2966130488E-03  -0.1349055029E-03  -0.2782194922E-05   0.0000000000E+00   0.0000000000E+00   0.0000000000E+00   0.2941163061E-01
   0.1935960597E+00   0.5329125600E-01   0.7752574879E-04  -0.1763496775E-05   0.0000000000E+00   0.0000000000E+00   0.1470799654E-01   0.4495991427E-03   0.4547278706E-02  -0.4584439494E-02   0.0000000000E+00   0.0000000000E+00   0.1320893319E-03  -0.5326983432E-04  -0.5959771342E-04   0.0000000000E+00   0.0000000000E+00   0.0000000000E+00   0.1501416588E-01
   0.2145678759E+00   0.5363362839E-01   0.8029392365E-04  -0.1614908091E-05   0.0000000000E+00   0.0000000000E+00   0.1562042215E-01   0.1577801613E-02   0.5159467128E-02  -0.3700227651E-02   0.0000000000E+00   0.0000000000E+00   0.1359924152E-03  -0.4656165169E-04  -0.4810295947E-04   0.0000000000E+00   0.0000000000E+00   0.0000000000E+00   0.1418483690E-01
   0.2434557677E+00   0.1993304627E+00   0.7092973118E-04  -0.1415733287E-04   0.0000000000E+00   0.0000000000E+00   0.3086685933E-01  -0.9645555588E-04   0.9231121133E-02  -0.1153340029E-02   0.0000000000E+00   0.0000000000E+00   0.2812645966E-03  -0.1212584970E-03  -0.1499342038E-04   0.0000000000E+00   0.0000000000E+00   0.0000000000E+00   0.2758420805E-01
   0.5024788746E-01   0.1848864195E+00   0.1457176330E-04  -0.3934548866E-04   0.0000000000E+00   0.0000000000E+00   0.3344336796E-01   0.1753519235E-02   0.1055906616E-01   0.3764972089E-02   0.0000000000E+00   0.0000000000E+00   0.2974959235E-03  -0.1144721100E-03   0.4894463716E-04   0.0000000000E+00   0.0000000000E+00   0.0000000000E+00   0.2908577872E-01
   0.3157372469E+00   0.1729727096E+00   0.9149289683E-04  -0.9327413347E-05   0.0000000000E+00   0.0000000000E+00   0.2773984589E-01   0.8887665108E-03   0.8588583719E-02  -0.7405715197E-03   0.0000000000E+00   0.0000000000E+00   0.2489664082E-03  -0.1000976237E-03  -0.9627429756E-05   0.0000000000E+00   0.0000000000E+00   0.0000000000E+00   0.2398378953E-01
   0.2984124751E+00   0.1763009884E-01   0.9301610573E-04  -0.4018609195E-06   0.0000000000E+00   0.0000000000E+00   0.1642918776E-01   0.4431238050E-02   0.6258127743E-02  -0.3648184538E-03   0.0000000000E+00   0.0000000000E+00   0.1322237802E-03  -0.2374956601E-04  -0.4742639899E-05   0.0000000000E+00   0.0000000000E+00   0.0000000000E+00   0.1121353304E-01
   0.3084277656E+00   0.0000000000E+00   0.9442861150E-04   0.0000000000E+00   0.0000000000E+00   0.0000000000E+00   0.1653674724E-01   0.4617501327E-02   0.6346274572E-02  -0.1128617444E-03   0.0000000000E+00   0.0000000000E+00   0.1324761447E-03  -0.2247405217E-04  -0.1467202678E-05   0.0000000000E+00   0.0000000000E+00   0.0000000000E+00   0.1115625879E-01
   0.2660526893E+00   0.6955991561E-01   0.8657229915E-04  -0.2117191741E-05   0.0000000000E+00   0.0000000000E+00   0.1852932518E-01   0.2990781825E-02   0.6456032101E-02  -0.2304675670E-02   0.0000000000E+00   0.0000000000E+00   0.1569528100E-03  -0.4504825358E-04  -0.2996078371E-04   0.0000000000E+00   0.0000000000E+00   0.0000000000E+00   0.1467009326E-01
   0.2468726634E+00   0.7419756707E-01   0.8319341711E-04  -0.2437228834E-05   0.0000000000E+00   0.0000000000E+00   0.1864991785E-01   0.2205938780E-02   0.6256756989E-02  -0.2989138532E-02   0.0000000000E+00   0.0000000000E+00   0.1611110912E-03  -0.5266063671E-04  -0.3885880092E-04   0.0000000000E+00   0.0000000000E+00   0.0000000000E+00   0.1571822578E-01
   0.1721883296E+00   0.5294357021E-01   0.7479161473E-04  -0.2088391227E-05   0.0000000000E+00   0.0000000000E+00   0.1347070079E-01  -0.1288295039E-02   0.3654721724E-02  -0.5632804310E-02   0.0000000000E+00   0.0000000000E+00   0.1276077278E-03  -0.6425921792E-04  -0.7322645603E-04   0.0000000000E+00   0.0000000000E+00   0.0000000000E+00   0.1631239908E-01
   0.2324799302E+00   0.8725611739E-01   0.7948320817E-04  -0.3383808425E-05   0.0000000000E+00   0.0000000000E+00   0.1982040758E-01   0.1127727888E-02   0.6284440640E-02  -0.3661854610E-02   0.0000000000E+00   0.0000000000E+00   0.1759675702E-03  -0.6703726578E-04  -0.4760410992E-04   0.0000000000E+00   0.0000000000E+00   0.0000000000E+00   0.1787900639E-01
   0.2148084671E+00   0.8963389570E-01   0.7601407209E-04  -0.3853196070E-05   0.0000000000E+00   0.0000000000E+00   0.2041758688E-01   0.1148414863E-03   0.6159728510E-02  -0.4333185235E-02   0.0000000000E+00   0.0000000000E+00   0.1853521588E-03  -0.7858353131E-04  -0.5633140806E-04   0.0000000000E+00   0.0000000000E+00   0.0000000000E+00   0.1954301818E-01
   0.2246839834E+00   0.7173303812E-01   0.7988335576E-04  -0.2500375409E-05   0.0000000000E+00   0.0000000000E+00   0.1811631515E-01   0.1378729779E-02   0.5848513479E-02  -0.3809090611E-02   0.0000000000E+00   0.0000000000E+00   0.1594814217E-03  -0.5810718810E-04  -0.4951817794E-04   0.0000000000E+00   0.0000000000E+00   0.0000000000E+00   0.1639973650E-01
   0.2357593815E+00   0.5426731581E-01   0.8316748699E-04  -0.1554691318E-05   0.0000000000E+00   0.0000000000E+00   0.1647862510E-01   0.2418100364E-02   0.5669017640E-02  -0.2890134921E-02   0.0000000000E+00   0.0000000000E+00   0.1405248970E-03  -0.4226192458E-04  -0.3757175397E-04   0.0000000000E+00   0.0000000000E+00   0.0000000000E+00   0.1370255728E-01
   0.7470201166E-01   0.1106277874E+00   0.3476655517E-04  -0.2359359881E-04   0.0000000000E+00   0.0000000000E+00   0.3855884731E-01  -0.1695136481E-02   0.1105911325E-01  -0.2989175547E-02   0.0000000000E+00   0.0000000000E+00   0.3574965428E-03  -0.1658052465E-03  -0.3885928211E-04   0.0000000000E+00   0.0000000000E+00   0.0000000000E+00   0.3563242251E-01
   0.1262832964E+00   0.1993330837E+00   0.3629240136E-04  -0.2718226231E-04   0.0000000000E+00   0.0000000000E+00   0.3297581592E-01  -0.1465684061E-02   0.9453039559E-02   0.2284150870E-02   0.0000000000E+00   0.0000000000E+00   0.3057960927E-03  -0.1419434071E-03   0.2969396132E-04   0.0000000000E+00   0.0000000000E+00   0.0000000000E+00   0.3073996624E-01
   0.1158687100E+00   0.1827142696E+00   0.3504800033E-04  -0.2665739471E-04   0.0000000000E+00   0.0000000000E+00   0.3360983608E-01  -0.2148304035E-02   0.9438459614E-02   0.2574064795E-02   0.0000000000E+00   0.0000000000E+00   0.3142278941E-03  -0.1506279274E-03   0.3346284234E-04   0.0000000000E+00   0.0000000000E+00   0.0000000000E+00   0.3190825069E-01
   0.1487484693E+00   0.5215096103E-01   0.7196933986E-04  -0.2760472441E-05   0.0000000000E+00   0.0000000000E+00   0.1252604724E-01  -0.3434674177E-02   0.2727411919E-02  -0.6474551267E-02   0.0000000000E+00   0.0000000000E+00   0.1273822592E-03  -0.8010711924E-04  -0.8416916648E-04   0.0000000000E+00   0.0000000000E+00   0.0000000000E+00   0.1793984243E-01
   0.7063067556E-01   0.1572263259E+00   0.2340075986E-04  -0.3200609809E-04   0.0000000000E+00   0.0000000000E+00   0.3735290230E-01  -0.1061138039E-03   0.1117403655E-01   0.3536108107E-02   0.0000000000E+00   0.0000000000E+00   0.3403252547E-03  -0.1466419546E-03   0.4596940539E-04   0.0000000000E+00   0.0000000000E+00   0.0000000000E+00   0.3380854127E-01
   0.8500705054E-01   0.1702287659E+00   0.2666704170E-04  -0.3090309479E-04   0.0000000000E+00   0.0000000000E+00   0.3517296262E-01  -0.1302084230E-02   0.1016126352E-01   0.3516111521E-02   0.0000000000E+00   0.0000000000E+00   0.3251520883E-03  -0.1490235207E-03   0.4570944977E-04   0.0000000000E+00   0.0000000000E+00   0.0000000000E+00   0.3288627561E-01
   0.8063514088E-01   0.1853211289E+00   0.2376287966E-04  -0.3390807866E-04   0.0000000000E+00   0.0000000000E+00   0.3357599887E-01  -0.4080811283E-03   0.9950375323E-02   0.3985939835E-02   0.0000000000E+00   0.0000000000E+00   0.3071331061E-03  -0.1346599339E-03   0.5181721786E-04   0.0000000000E+00   0.0000000000E+00   0.0000000000E+00   0.3094737509E-01
   0.6748172198E-01   0.1766656493E+00   0.2043247854E-04  -0.3530071751E-04   0.0000000000E+00   0.0000000000E+00   0.3467246599E-01   0.4993571718E-03   0.1055154695E-01   0.4100789978E-02   0.0000000000E+00   0.0000000000E+00   0.3135719475E-03  -0.1306784671E-03   0.5331026971E-04   0.0000000000E+00   0.0000000000E+00   0.0000000000E+00   0.3124023062E-01
   0.9662896961E-01   0.1838347266E+00   0.2887671452E-04  -0.3055244630E-04   0.0000000000E+00   0.0000000000E+00   0.3386456417E-01  -0.1357784646E-02   0.9752033857E-02   0.3505562125E-02   0.0000000000E+00   0.0000000000E+00   0.3134628940E-03  -0.1444276405E-03   0.4557230762E-04   0.0000000000E+00   0.0000000000E+00   0.0000000000E+00   0.3176579390E-01
   0.2988904754E+00   0.1627429696E+00   0.8774239678E-04  -0.8526350248E-05   0.0000000000E+00   0.0000000000E+00   0.2684795726E-01   0.8937453452E-03   0.8322510781E-02  -0.1201325319E-02   0.0000000000E+00   0.0000000000E+00   0.2408308042E-03  -0.9657395066E-04  -0.1561722914E-04   0.0000000000E+00   0.0000000000E+00   0.0000000000E+00   0.2324502954E-01
   0.2832153090E+00   0.1692503158E+00   0.8356104818E-04  -0.9441165863E-05   0.0000000000E+00   0.0000000000E+00   0.2775503452E-01   0.6465162622E-03   0.8520465236E-02  -0.1375664853E-02   0.0000000000E+00   0.0000000000E+00   0.2500494007E-03  -0.1023613367E-03  -0.1788364309E-04   0.0000000000E+00   0.0000000000E+00   0.0000000000E+00   0.2427080267E-01
   0.2824116614E+00   0.1531928951E+00   0.8430741951E-04  -0.7864868203E-05   0.0000000000E+00   0.0000000000E+00   0.2642322167E-01   0.9743310908E-03   0.8219265829E-02  -0.1618149758E-02   0.0000000000E+00   0.0000000000E+00   0.2366514260E-03  -0.9418415160E-04  -0.2103594685E-04   0.0000000000E+00   0.0000000000E+00   0.0000000000E+00   0.2288418743E-01
   0.2040565582E+00   0.7156944731E-01   0.7658920632E-04  -0.2722394025E-05   0.0000000000E+00   0.0000000000E+00   0.1795100068E-01   0.3084126284E-03   0.5477823994E-02  -0.4728671362E-02   0.0000000000E+00   0.0000000000E+00   0.1621512970E-03  -0.6720234775E-04  -0.6147272770E-04   0.0000000000E+00   0.0000000000E+00   0.0000000000E+00   0.1772009154E-01
   0.2993560430E+00   0.1439987641E+00   0.8869097262E-04  -0.6802914340E-05   0.0000000000E+00   0.0000000000E+00   0.2528571190E-01   0.1355443513E-02   0.7992346625E-02  -0.1332622778E-02   0.0000000000E+00   0.0000000000E+00   0.2248137486E-03  -0.8627974045E-04  -0.1732409612E-04   0.0000000000E+00   0.0000000000E+00   0.0000000000E+00   0.2152292950E-01
   0.2817075638E+00   0.7700392560E-01   0.8867076971E-04  -0.2414398213E-05   0.0000000000E+00   0.0000000000E+00   0.1959598419E-01   0.3113390306E-02   0.6812812350E-02  -0.1886077165E-02   0.0000000000E+00   0.0000000000E+00   0.1661812340E-03  -0.4809248657E-04  -0.2451900315E-04   0.0000000000E+00   0.0000000000E+00   0.0000000000E+00   0.1533055751E-01
   0.1282019410E+00   0.8319536574E-01   0.5986700584E-04  -0.8121355960E-05   0.0000000000E+00   0.0000000000E+00   0.2270752368E-01  -0.6243180749E-02   0.4939302878E-02  -0.7070856651E-02   0.0000000000E+00   0.0000000000E+00   0.2309868704E-03  -0.1453722872E-03  -0.9192113647E-04   0.0000000000E+00   0.0000000000E+00   0.0000000000E+00   0.2804638287E-01
   0.1283843129E+00   0.1031182578E+00   0.5403788878E-04  -0.1115918132E-04   0.0000000000E+00   0.0000000000E+00   0.2748215332E-01  -0.6227170304E-02   0.6376494905E-02  -0.5268927090E-02   0.0000000000E+00   0.0000000000E+00   0.2743735594E-03  -0.1638476477E-03  -0.6849605217E-04   0.0000000000E+00   0.0000000000E+00   0.0000000000E+00   0.3089144160E-01
   0.1143988683E+00   0.9387546893E-01   0.5299026334E-04  -0.1183777201E-04   0.0000000000E+00   0.0000000000E+00   0.2732528052E-01  -0.5961673844E-02   0.6409082003E-02  -0.6102185605E-02   0.0000000000E+00   0.0000000000E+00   0.2719105807E-03  -0.1608198260E-03  -0.7932841287E-04   0.0000000000E+00   0.0000000000E+00   0.0000000000E+00   0.3111359738E-01
   0.1945284878E+00   0.1822084648E+00   0.5881276988E-04  -0.1542118773E-04   0.0000000000E+00   0.0000000000E+00   0.3082011177E-01  -0.1291665435E-02   0.8858533899E-02  -0.9688509797E-03   0.0000000000E+00   0.0000000000E+00   0.2855005123E-03  -0.1319525913E-03  -0.1259506274E-04   0.0000000000E+00   0.0000000000E+00   0.0000000000E+00   0.2847629150E-01
   0.2537629986E+00   0.1824312783E+00   0.7508055518E-04  -0.1171471631E-04   0.0000000000E+00   0.0000000000E+00   0.2928749678E-01   0.1079293005E-03   0.8818627826E-02  -0.1456874138E-02   0.0000000000E+00   0.0000000000E+00   0.2660952965E-03  -0.1132390808E-03  -0.1893936380E-04   0.0000000000E+00   0.0000000000E+00   0.0000000000E+00   0.2606560570E-01
   0.2336570384E+00   0.1824641032E+00   0.6966939632E-04  -0.1264078109E-04   0.0000000000E+00   0.0000000000E+00   0.2975079281E-01  -0.3093379498E-03   0.8832436459E-02  -0.1481708481E-02   0.0000000000E+00   0.0000000000E+00   0.2719386326E-03  -0.1188430673E-03  -0.1926221025E-04   0.0000000000E+00   0.0000000000E+00   0.0000000000E+00   0.2681194758E-01
   0.2513399098E+00   0.1519983039E+00   0.7697678851E-04  -0.8531081945E-05   0.0000000000E+00   0.0000000000E+00   0.2688731915E-01   0.4068423878E-03   0.8188248461E-02  -0.2201418595E-02   0.0000000000E+00   0.0000000000E+00   0.2430879189E-03  -0.1011582790E-03  -0.2861844173E-04   0.0000000000E+00   0.0000000000E+00   0.0000000000E+00   0.2387807861E-01
   0.2345331107E+00   0.1494354738E+00   0.7312972711E-04  -0.8853209451E-05   0.0000000000E+00   0.0000000000E+00   0.2680608783E-01  -0.2886996569E-03   0.7955216451E-02  -0.2475051364E-02   0.0000000000E+00   0.0000000000E+00   0.2450613279E-03  -0.1071709094E-03  -0.3217566773E-04   0.0000000000E+00   0.0000000000E+00   0.0000000000E+00   0.2443761418E-01
   0.2481145587E+00   0.1359811290E+00   0.7769774264E-04  -0.7046978892E-05   0.0000000000E+00   0.0000000000E+00   0.2519973723E-01   0.4493524083E-03   0.7694726892E-02  -0.2584862735E-02   0.0000000000E+00   0.0000000000E+00   0.2275651344E-03  -0.9418986829E-04  -0.3360321556E-04   0.0000000000E+00   0.0000000000E+00   0.0000000000E+00   0.2248915455E-01
   0.7635856433E-01   0.1347426272E+00   0.2887862848E-04  -0.2722982892E-04   0.0000000000E+00   0.0000000000E+00   0.3844858640E-01  -0.1531248276E-02   0.1107520144E-01   0.1181927966E-02   0.0000000000E+00   0.0000000000E+00   0.3558540045E-03  -0.1638838463E-03   0.1536506356E-04   0.0000000000E+00   0.0000000000E+00   0.0000000000E+00   0.3553161628E-01
   0.2140642872E+00   0.1823185987E+00   0.6430017819E-04  -0.1384230638E-04   0.0000000000E+00   0.0000000000E+00   0.3021845978E-01  -0.7635575364E-03   0.8836470672E-02  -0.1312367051E-02   0.0000000000E+00   0.0000000000E+00   0.2779658584E-03  -0.1248003667E-03  -0.1706077167E-04   0.0000000000E+00   0.0000000000E+00   0.0000000000E+00   0.2756105469E-01
   0.2570755059E+00   0.5435068018E-01   0.8620592160E-04  -0.1502723491E-05   0.0000000000E+00   0.0000000000E+00   0.1712552209E-01   0.3105196492E-02   0.6069215574E-02  -0.2279871098E-02   0.0000000000E+00   0.0000000000E+00   0.1437319847E-03  -0.3853224807E-04  -0.2963832427E-04   0.0000000000E+00   0.0000000000E+00   0.0000000000E+00   0.1340120850E-01
   0.2820639288E+00   0.9624824383E-01   0.8767582844E-04  -0.3452467152E-05   0.0000000000E+00   0.0000000000E+00   0.2109006920E-01   0.2424593326E-02   0.7054398757E-02  -0.1981417910E-02   0.0000000000E+00   0.0000000000E+00   0.1824637157E-03  -0.6018747061E-04  -0.2575843283E-04   0.0000000000E+00   0.0000000000E+00   0.0000000000E+00   0.1718045307E-01
   0.1425589943E+00   0.7227616575E-01   0.6598425080E-04  -0.5217252584E-05   0.0000000000E+00   0.0000000000E+00   0.1779057307E-01  -0.5048903944E-02   0.3822500737E-02  -0.7148263861E-02   0.0000000000E+00   0.0000000000E+00   0.1815849403E-03  -0.1153282609E-03  -0.9292743019E-04   0.0000000000E+00   0.0000000000E+00   0.0000000000E+00   0.2344340160E-01
   0.1247333995E+00   0.1649781424E+00   0.4019954422E-04  -0.2225162219E-04   0.0000000000E+00   0.0000000000E+00   0.3339355456E-01  -0.3405143372E-02   0.8996523357E-02   0.1346017372E-02   0.0000000000E+00   0.0000000000E+00   0.3171614056E-03  -0.1612216675E-03   0.1749822584E-04   0.0000000000E+00   0.0000000000E+00   0.0000000000E+00   0.3250173754E-01
   0.2656151264E+00   0.1442561202E+00   0.8099339070E-04  -0.7385750085E-05   0.0000000000E+00   0.0000000000E+00   0.2561510190E-01   0.7404136035E-03   0.7906654650E-02  -0.2065922927E-02   0.0000000000E+00   0.0000000000E+00   0.2302098142E-03  -0.9316113361E-04  -0.2685699805E-04   0.0000000000E+00   0.0000000000E+00   0.0000000000E+00   0.2246500456E-01
   0.2823548745E+00   0.1345840255E+00   0.8542649807E-04  -0.6212490076E-05   0.0000000000E+00   0.0000000000E+00   0.2459513156E-01   0.1365822601E-02   0.7788286248E-02  -0.1810236995E-02   0.0000000000E+00   0.0000000000E+00   0.2184889890E-03  -0.8349202741E-04  -0.2353308094E-04   0.0000000000E+00   0.0000000000E+00   0.0000000000E+00   0.2101234530E-01
   0.2822076235E+00   0.1155380989E+00   0.8656145024E-04  -0.4730069929E-05   0.0000000000E+00   0.0000000000E+00   0.2282028679E-01   0.1847478022E-02   0.7400329444E-02  -0.1937377436E-02   0.0000000000E+00   0.0000000000E+00   0.2004594455E-03  -0.7218706848E-04  -0.2518590667E-04   0.0000000000E+00   0.0000000000E+00   0.0000000000E+00   0.1911750685E-01
   0.2240735464E+00   0.1656276376E+00   0.6877135983E-04  -0.1118139800E-04   0.0000000000E+00   0.0000000000E+00   0.2848902008E-01  -0.6410217854E-03   0.8354399488E-02  -0.1913181215E-02   0.0000000000E+00   0.0000000000E+00   0.2617500677E-03  -0.1169404766E-03  -0.2487135580E-04   0.0000000000E+00   0.0000000000E+00   0.0000000000E+00   0.2604485260E-01
   0.2435854180E+00   0.1660139809E+00   0.7378603568E-04  -0.1028712287E-04   0.0000000000E+00   0.0000000000E+00   0.2808172598E-01  -0.1316614200E-03   0.8385019367E-02  -0.1911438440E-02   0.0000000000E+00   0.0000000000E+00   0.2560571859E-03  -0.1107168502E-03  -0.2484869972E-04   0.0000000000E+00   0.0000000000E+00   0.0000000000E+00   0.2528011594E-01
   0.1821864509E+00   0.1088830000E+00   0.6630689825E-04  -0.6921998310E-05   0.0000000000E+00   0.0000000000E+00   0.2418308996E-01  -0.2688224865E-02   0.6448459529E-02  -0.4565581288E-02   0.0000000000E+00   0.0000000000E+00   0.2305501956E-03  -0.1187768971E-03  -0.5935255674E-04   0.0000000000E+00   0.0000000000E+00   0.0000000000E+00   0.2494206098E-01
   0.2056958655E+00   0.1120478411E+00   0.7106148492E-04  -0.6119867277E-05   0.0000000000E+00   0.0000000000E+00   0.2360635854E-01  -0.1035688911E-02   0.6771200889E-02  -0.4012989791E-02   0.0000000000E+00   0.0000000000E+00   0.2188570495E-03  -0.1014895674E-03  -0.5216886728E-04   0.0000000000E+00   0.0000000000E+00   0.0000000000E+00   0.2289312230E-01
   0.1888937943E+00   0.1288827075E+00   0.6455128247E-04  -0.8924502956E-05   0.0000000000E+00   0.0000000000E+00   0.2628823057E-01  -0.2341681408E-02   0.7183964750E-02  -0.3536378965E-02   0.0000000000E+00   0.0000000000E+00   0.2483554557E-03  -0.1238334000E-03  -0.4597292655E-04   0.0000000000E+00   0.0000000000E+00   0.0000000000E+00   0.2598369089E-01
   0.2648514209E+00   0.1643045743E+00   0.7930387870E-04  -0.9367702802E-05   0.0000000000E+00   0.0000000000E+00   0.2759458690E-01   0.4428750066E-03   0.8411238573E-02  -0.1719857268E-02   0.0000000000E+00   0.0000000000E+00   0.2493835283E-03  -0.1035887264E-03  -0.2235814448E-04   0.0000000000E+00   0.0000000000E+00   0.0000000000E+00   0.2435693947E-01
   0.1937324043E+00   0.9047351978E-01   0.7186232587E-04  -0.4468315220E-05   0.0000000000E+00   0.0000000000E+00   0.2105514298E-01  -0.1064381148E-02   0.5997228549E-02  -0.4957577554E-02   0.0000000000E+00   0.0000000000E+00   0.1957528876E-03  -0.9180092607E-04  -0.6444850820E-04   0.0000000000E+00   0.0000000000E+00   0.0000000000E+00   0.2137112123E-01
   0.1350477601E+00   0.1461613313E+00   0.4642809209E-04  -0.1740574678E-04   0.0000000000E+00   0.0000000000E+00   0.3228754507E-01  -0.4375706996E-02   0.8373551422E-02  -0.6590810592E-03   0.0000000000E+00   0.0000000000E+00   0.3108819174E-03  -0.1657403594E-03  -0.8568053770E-05   0.0000000000E+00   0.0000000000E+00   0.0000000000E+00   0.3223995100E-01
   0.1850633605E+00   0.1648333469E+00   0.5829152026E-04  -0.1398214185E-04   0.0000000000E+00   0.0000000000E+00   0.3003137702E-01  -0.2066392688E-02   0.8389495299E-02  -0.1402822459E-02   0.0000000000E+00   0.0000000000E+00   0.2813444623E-03  -0.1359265438E-03  -0.1823669197E-04   0.0000000000E+00   0.0000000000E+00   0.0000000000E+00   0.2845048447E-01
   0.1959045275E+00   0.1477976751E+00   0.6354247705E-04  -0.1083186603E-04   0.0000000000E+00   0.0000000000E+00   0.2814526726E-01  -0.1879517320E-02   0.7879724982E-02  -0.2527522794E-02   0.0000000000E+00   0.0000000000E+00   0.2634520496E-03  -0.1268701499E-03  -0.3285779632E-04   0.0000000000E+00   0.0000000000E+00   0.0000000000E+00   0.2688312115E-01
   0.1762042311E+00   0.1463255298E+00   0.5845409821E-04  -0.1227719457E-04   0.0000000000E+00   0.0000000000E+00   0.2894616976E-01  -0.2986907137E-02   0.7787778787E-02  -0.2256387047E-02   0.0000000000E+00   0.0000000000E+00   0.2750590826E-03  -0.1400709170E-03  -0.2933303161E-04   0.0000000000E+00   0.0000000000E+00   0.0000000000E+00   0.2839876742E-01
   0.9340759131E-01   0.1194184662E+00   0.3862141379E-04  -0.2061383980E-04   0.0000000000E+00   0.0000000000E+00   0.3539646069E-01  -0.4822247575E-02   0.9172263934E-02  -0.1992808147E-02   0.0000000000E+00   0.0000000000E+00   0.3409145578E-03  -0.1819286496E-03  -0.2590650591E-04   0.0000000000E+00   0.0000000000E+00   0.0000000000E+00   0.3552520074E-01
   0.2046034265E+00   0.1652222280E+00   0.6363545411E-04  -0.1239698249E-04   0.0000000000E+00   0.0000000000E+00   0.2925059615E-01  -0.1245354119E-02   0.8401572611E-02  -0.1812734626E-02   0.0000000000E+00   0.0000000000E+00   0.2710373061E-03  -0.1254100475E-03  -0.2356555013E-04   0.0000000000E+00   0.0000000000E+00   0.0000000000E+00   0.2717780437E-01
   0.2648845799E+00   0.1254145555E+00   0.8230293932E-04  -0.5731520663E-05   0.0000000000E+00   0.0000000000E+00   0.2382538065E-01   0.1042760453E-02   0.7460442332E-02  -0.2335543078E-02   0.0000000000E+00   0.0000000000E+00   0.2127441982E-03  -0.8342986443E-04  -0.3036206002E-04   0.0000000000E+00   0.0000000000E+00   0.0000000000E+00   0.2074664841E-01
   0.2466743930E+00   0.1161074443E+00   0.7927895943E-04  -0.5294710601E-05   0.0000000000E+00   0.0000000000E+00   0.2331487768E-01   0.8189723779E-03   0.7240155018E-02  -0.2880306244E-02   0.0000000000E+00   0.0000000000E+00   0.2089713946E-03  -0.8347537432E-04  -0.3744398117E-04   0.0000000000E+00   0.0000000000E+00   0.0000000000E+00   0.2068543002E-01
   0.2263549887E+00   0.1285787270E+00   0.7352473290E-04  -0.6998985108E-05   0.0000000000E+00   0.0000000000E+00   0.2479800176E-01  -0.4212642609E-03   0.7313021249E-02  -0.3091046521E-02   0.0000000000E+00   0.0000000000E+00   0.2273047466E-03  -0.1005457116E-03  -0.4018360477E-04   0.0000000000E+00   0.0000000000E+00   0.0000000000E+00   0.2300939634E-01
   0.1259888718E+00   0.1249157348E+00   0.4783381875E-04  -0.1524317565E-04   0.0000000000E+00   0.0000000000E+00   0.3148691675E-01  -0.5818071745E-02   0.7700653502E-02  -0.2655132981E-02   0.0000000000E+00   0.0000000000E+00   0.3092214222E-03  -0.1757434282E-03  -0.3451672875E-04   0.0000000000E+00   0.0000000000E+00   0.0000000000E+00   0.3301961094E-01
   0.1076709467E+00   0.1274401652E+00   0.4137965587E-04  -0.1898875257E-04   0.0000000000E+00   0.0000000000E+00   0.3467366263E-01  -0.5134782925E-02   0.8861663911E-02  -0.1308697862E-02   0.0000000000E+00   0.0000000000E+00   0.3355559833E-03  -0.1819538089E-03  -0.1701307221E-04   0.0000000000E+00   0.0000000000E+00   0.0000000000E+00   0.3505746477E-01
   0.1108877614E+00   0.1108558964E+00   0.4680738592E-04  -0.1532161133E-04   0.0000000000E+00   0.0000000000E+00   0.3078640501E-01  -0.6434300220E-02   0.7305631436E-02  -0.3688364881E-02   0.0000000000E+00   0.0000000000E+00   0.3052500564E-03  -0.1786191115E-03  -0.4794874345E-04   0.0000000000E+00   0.0000000000E+00   0.0000000000E+00   0.3316819466E-01
   0.9601864816E-01   0.1358663244E+00   0.3558995526E-04  -0.2295261923E-04   0.0000000000E+00   0.0000000000E+00   0.3628514322E-01  -0.3905914096E-02   0.9713768738E-02   0.6075410163E-03   0.0000000000E+00   0.0000000000E+00   0.3454278683E-03  -0.1770558768E-03   0.7898033212E-05   0.0000000000E+00   0.0000000000E+00   0.0000000000E+00   0.3540742355E-01
   0.2288960545E+00   0.1049077351E+00   0.7681845799E-04  -0.4761891542E-05   0.0000000000E+00   0.0000000000E+00   0.2215446753E-01   0.4160642460E-03   0.6771159532E-02  -0.3523741269E-02   0.0000000000E+00   0.0000000000E+00   0.1999830040E-03  -0.8261623872E-04  -0.4580863650E-04   0.0000000000E+00   0.0000000000E+00   0.0000000000E+00   0.2029176956E-01
   0.1558408421E+00   0.1460882111E+00   0.5271806216E-04  -0.1450088103E-04   0.0000000000E+00   0.0000000000E+00   0.3070450888E-01  -0.3655001383E-02   0.8114852251E-02  -0.1636511436E-02   0.0000000000E+00   0.0000000000E+00   0.2936655362E-03  -0.1530080972E-03  -0.2127464866E-04   0.0000000000E+00   0.0000000000E+00   0.0000000000E+00   0.3035403110E-01
   0.2063305638E+00   0.1331298366E+00   0.6819878842E-04  -0.8432371108E-05   0.0000000000E+00   0.0000000000E+00   0.2633043024E-01  -0.1447919297E-02   0.7464753283E-02  -0.3301781498E-02   0.0000000000E+00   0.0000000000E+00   0.2452538005E-03  -0.1158647435E-03  -0.4292315947E-04   0.0000000000E+00   0.0000000000E+00   0.0000000000E+00   0.2521211977E-01
   0.2150574913E+00   0.1483501586E+00   0.6842529390E-04  -0.9691376414E-05   0.0000000000E+00   0.0000000000E+00   0.2754095733E-01  -0.7617366043E-03   0.8033766219E-02  -0.2442947212E-02   0.0000000000E+00   0.0000000000E+00   0.2535934845E-03  -0.1143415367E-03  -0.3175831376E-04   0.0000000000E+00   0.0000000000E+00   0.0000000000E+00   0.2543288658E-01
   0.1465054074E+00   0.1281336697E+00   0.5329341505E-04  -0.1285929642E-04   0.0000000000E+00   0.0000000000E+00   0.2962323810E-01  -0.4687691577E-02   0.7480663956E-02  -0.2935177700E-02   0.0000000000E+00   0.0000000000E+00   0.2878534639E-03  -0.1581886219E-03  -0.3815731010E-04   0.0000000000E+00   0.0000000000E+00   0.0000000000E+00   0.3054824923E-01
   0.1669725647E+00   0.1253656499E+00   0.5951766449E-04  -0.1020212695E-04   0.0000000000E+00   0.0000000000E+00   0.2778201796E-01  -0.3504942017E-02   0.7283122784E-02  -0.3508532785E-02   0.0000000000E+00   0.0000000000E+00   0.2664856373E-03  -0.1402448424E-03  -0.4561092621E-04   0.0000000000E+00   0.0000000000E+00   0.0000000000E+00   0.2818289036E-01
   0.1491916061E+00   0.9408188275E-01   0.6173808214E-04  -0.7357051614E-05   0.0000000000E+00   0.0000000000E+00   0.2336344770E-01  -0.4962471417E-02   0.5520292884E-02  -0.6015505748E-02   0.0000000000E+00   0.0000000000E+00   0.2319610126E-03  -0.1362759359E-03  -0.7820157472E-04   0.0000000000E+00   0.0000000000E+00   0.0000000000E+00   0.2693332250E-01
   0.1538464974E+00   0.1132503338E+00   0.5846741680E-04  -0.9756240121E-05   0.0000000000E+00   0.0000000000E+00   0.2693186215E-01  -0.5111786014E-02   0.6546022842E-02  -0.4700417086E-02   0.0000000000E+00   0.0000000000E+00   0.2650159110E-03  -0.1515515151E-03  -0.6110542212E-04   0.0000000000E+00   0.0000000000E+00   0.0000000000E+00   0.2923230749E-01
   0.1649632892E+00   0.1063837828E+00   0.6271819546E-04  -0.7833180590E-05   0.0000000000E+00   0.0000000000E+00   0.2421849915E-01  -0.4068865694E-02   0.6044890036E-02  -0.4886935840E-02   0.0000000000E+00   0.0000000000E+00   0.2362569185E-03  -0.1314788245E-03  -0.6353016593E-04   0.0000000000E+00   0.0000000000E+00   0.0000000000E+00   0.2619420126E-01
   0.1407833605E+00   0.1127001229E+00   0.5509548119E-04  -0.1112807777E-04   0.0000000000E+00   0.0000000000E+00   0.2877149112E-01  -0.5271895807E-02   0.7049878593E-02  -0.4152190073E-02   0.0000000000E+00   0.0000000000E+00   0.2823809628E-03  -0.1601830672E-03  -0.5397847095E-04   0.0000000000E+00   0.0000000000E+00   0.0000000000E+00   0.3061576861E-01
           1           2           3           3
           4           5           6           6
           7           8           9           9
          10          11          12          12
          13           7          14          14
          15          16          17          17
          18          19          10          10
          20          21          22          22
          23          24           2           2
          25          23           2           2
          26           3          27          27
          28          29          30          30
          31          32          33          33
          34          31          25          25
          35          36          20          20
          26          27           8           8
          37          15          17          17
          38          39          40          40
          41          40          42          42
          43          44          45          45
          46          47          41          41
          48          49          50          50
          51          52          53          53
          54          55          56          56
          57          58          59          59
          60          61          62          62
          63          64          57          57
          62          13          65          65
          66          67          68          68
          69          66          70          70
          71          72          73          73
          74          75          76          76
          75          77          78          78
          77          79          78          78
          80          53          48          48
          81          82          83          83
          45          84          85          85
          44          86          45          45
          87          88          44          44
          41          42          87          87
          36          89          21          21
          20          36          21          21
          35          30          90          90
          91           1          26          26
          92          93          30          30
           6          94          92          92
          95          96           4           4
          12          97          95          95
          98          12          95          95
          99         100          10          10
         101         102          99          99
         103         104         101         101
         105         106         103         103
         107         108         105         105
         109         110         107         107
         111         112         109         109
          69          70         111         111
           8          27           9           9
           7           9          14          14
          13          14          65          65
         113         114         115         115
          59          58         116         116
          51         116          52          52
          62          65          15          15
         117         118         119         119
         120         121         122         122
         122         123         124         124
          31          33          25          25
          25          33          23          23
          28          20         120         120
         124          32          31          31
         125         124         126         126
         124         123          32          32
         127         120         122         122
         122         121         123         123
         120          20          22          22
         120          22         121         121
          91         128          34          34
         129           4           6           6
          37          17         130         130
         131         132          63          63
          53          52          49          49
          85         133          83          83
          83         134         135         135
          51          59         116         116
          57          64          58          58
          19          99          10          10
         136          63         137         137
          63         132          64          64
         138          60          37          37
         131         130         132         132
          37          62          15          15
          37         130         131         131
         135         134          79          79
         139         103         101         101
          56          55          82          82
          83         133         134         134
          55          45          85          85
          85          84         133         133
         140          46         141         141
          45          86          84          84
         142          44          43          43
          44          88          86          86
          46          87         142         142
          87          42          88          88
          47          38          41          41
          41          38          40          40
         143          29         144         144
          30          93          90          90
         145          92          29          29
          92          94          93          93
         146         147         129         129
           6           5          94          94
         148         149         150         150
           4          96           5           5
         151           7         152         152
          95          97          96          96
          18          12          98          98
          12          11          97          97
         153         139         101         101
          10         100          11          11
         153          99          19          19
          99         102         100         100
         154          51         155         155
         101         104         102         102
         156          71          73          73
         103         106         104         104
         157         103         139         139
         105         108         106         106
          74          76         158         158
         107         110         108         108
          76          75         159         159
         109         112         110         110
         160         109          72          72
         111          70         112         112
         161          67          69          69
          69          67          66          66
         126         124          31          31
         128         162         126         126
         144          28         127         127
         125         127         122         122
         125         122         124         124
         143         146         145         145
          77         135          79          79
          75          78         159         159
          82          85          83          83
         163         164         165         165
          76         159         166         166
         167         168          74          74
          81          83         135         135
         169          56          82          82
          55          43          45          45
          55          85          82          82
         170         141         171         171
         142          87          44          44
         161          76         166         166
         158          69         111         111
         172         135          77          77
         173         139         174         174
         161         166          67          67
         158         161          69          69
          72         109         107         107
         175         107         105         105
         176          95           4           4
         152           7          13          13
         145           6          92          92
         114         177         178         178
          18          10          12          12
         154          59          51          51
         153         101          99          99
         179         137          57          57
         114         180         181         181
         181         182          19          19
         183         179         184         184
         174         153         182         182
         173         185         157         157
         157         105         103         103
          29          92          30          30
         186         127         125         125
          35          90          36          36
          28          35          20          20
         186         144         127         127
         145         129           6           6
         176          98          95          95
         176           4         129         129
         175          72         107         107
         175         105         157         157
          74         187          75          75
         160         111         109         109
           1          25           2           2
           1           3          26          26
          48          53          49          49
         188          48          50          50
         188          50         189         189
          47         188         189         189
         155          51          53          53
         190         164         191         191
         137          63          57          57
         179          57          59          59
         154         179          59          59
         183         192         137         137
         193         194         195         195
         196         184         154         154
          60          62          37          37
         136         131          63          63
          47         189          38          38
          46          41          87          87
          28          30          35          35
          28         120         127         127
         141          46         142         142
          46         188          47          47
         197          26           8           8
         151           8           7           7
         178         198         199         199
          61         152          13          13
          61          13          62          62
         200         136         192         192
         198         176         147         147
         151         197           8           8
          34         126          31          31
          34          25           1           1
         158          76         161         161
         158         111         160         160
         144          29          28          28
         162         125         126         126
         162         186         125         125
         201         162         128         128
         128         126          34          34
         202         203         204         204
         140         188          46          46
         171         142          43          43
          91          34           1           1
         205         199         147         147
         168         206         187         187
         187          77          75          75
         167         158         160         160
         207         208         206         206
         169          82          81          81
         195         209         184         184
         210          81         172         172
         173         157         139         139
         190         170         211         211
          54          43          55          55
         171         141         142         142
         171          43          54          54
         172          81         135         135
         172          77         187         187
         182         153          19          19
         181          19          18          18
         147         176         129         129
         146         129         145         145
         177          18          98          98
         212         213         214         214
         143         145          29          29
         204         203         143         143
          73          72         175         175
         185         175         157         157
         215         182         180         180
         174         139         153         153
         216         185         217         217
         185          73         175         175
         198          98         176         176
         199         198         147         147
         167          71         168         168
          71         160          72          72
         177         181          18          18
         177          98         198         198
         215         174         182         182
         218         219         220         220
         143         144         186         186
         202         204         201         201
          91          26         197         197
         221          91         197         197
          80         155          53          53
         140          80          48          48
         184         179         154         154
         196         154         155         155
         192         136         137         137
         183         137         179         179
         215         222         174         174
         209         118         183         183
         223         155          80          80
         224          54          56          56
         138          37         131         131
         138         200          60          60
         140          48         188         188
         170         140         141         141
         170          80         140         140
         211          54         224         224
         225          61         200         200
         200          61          60          60
         221         128          91          91
         149         226         199         199
         227         228         208         208
         206         172         187         187
         229          56         169         169
         229         224          56          56
         211         170         171         171
         211         171          54          54
         168         187          74          74
         156         168          71          71
         228         169         210         210
         217         185         173         173
         210         169          81          81
         210         172         206         206
         167          74         158         158
         167         160          71          71
         222         173         174         174
         230         231         217         217
         205         147         146         146
         226         178         199         199
         232         233         234         234
         178         177         198         198
         235         156         216         216
         216          73         185         185
         207         168         156         156
         156          73         216         216
         180         182         181         181
         114         181         177         177
         203         205         146         146
         150         202         201         201
         194         236         209         209
         222         217         173         173
         115         178         226         226
         237         115         226         226
         203         146         143         143
         204         143         186         186
         238         180         113         113
         239         238         240         240
         221         201         128         128
         241         197         151         151
         223         196         155         155
         223          80         170         170
         118         192         183         183
         209         183         184         184
         195         184         196         196
         242         215         238         238
         191         196         223         223
         165         164         224         224
         204         186         162         162
         204         162         201         201
         227         208         235         235
         208         210         206         206
         164         211         224         224
         165         224         229         229
         243         229         228         228
         244         220         245         245
         207         206         168         168
         235         207         156         156
         149         199         205         205
         246         148         247         247
         231         216         217         217
         230         217         222         222
         138         131         136         136
         138         136         200         200
         235         208         207         207
         235         216         231         231
         213         248         214         214
         115         114         178         178
         202         149         205         205
         249         221         241         241
         242         222         215         215
         250         244         245         245
         202         205         203         203
         150         201         221         221
         251         115         237         237
         113         180         114         114
         240         113         251         251
         238         215         180         180
         252         233         245         245
         242         230         222         222
         228         229         169         169
         228         210         208         208
         191         195         196         196
         190         191         223         223
         236         118         209         209
         194         209         195         195
         193         195         191         191
         253         219         230         230
         190         223         170         170
         190         211         164         164
         241         221         197         197
         150         149         202         202
         248         241         151         151
         249         148         150         150
         218         235         231         231
         218         220         227         227
         148         237         226         226
         254         251         237         237
         148         226         149         149
         246         247         248         248
         219         231         230         230
         253         230         242         242
         255         251         254         254
         251         113         115         115
         239         242         238         238
         252         245         253         253
         234         252         239         239
         240         238         113         113
         234         240         255         255
         239         253         242         242
         243         165         229         229
         243         228         227         227
         163         191         164         164
         244         243         220         220
         225         212          61          61
         119         118         236         236
         249         150         221         221
         247         249         241         241
         233         236         194         194
         250         245         233         233
         214         151         152         152
         256         213         212         212
         247         148         249         249
         247         241         248         248
         220         243         227         227
         245         220         219         219
         213         246         248         248
         246         237         148         148
         257         255         254         254
         254         237         246         246
         245         219         253         253
         250         233         194         194
         163         244         250         250
         244         165         243         243
         232         234         255         255
         255         240         251         251
         252         253         239         239
         234         239         240         240
         258         255         257         257
         234         233         252         252
         232         119         236         236
         232         236         233         233
         250         194         193         193
         163         250         193         193
         117         200         192         192
         117         192         118         118
         218         227         235         235
         218         231         219         219
         214         248         151         151
         212         214         152         152
         259         256         257         257
         259         246         213         213
         212         152          61          61
         225         256         212         212
         258         257         256         256
         259         257         254         254
         163         193         191         191
         163         165         244         244
         256         117         119         119
         258         256         119         119
         259         254         246         246
         259         213         256         256
         258         119         232         232
         258         232         255         255
         225         200         117         117
         225         117         256         256
 VARIABLES = X,Y,DU1,DU2,U1,U2,S11,S22,S33,S12,S13,S23,E11,E22,E12,E33,E13,E23,SMISES
 ZONE, T="0.2000D+01" F=FEPOINT, I=  259 J=  457
   0.3709526262E-01   0.1123696363E+00   0.1941201151E-04  -0.3282987469E-04   0.1941201151E-04  -0.3282987469E-04   0.1053975837E+00   0.1114117762E-01   0.3496162838E-01  -0.1202097467E-01   0.0000000000E+00   0.0000000000E+00   0.9156674185E-03  -0.3096658599E-03  -0.1562726707E-03   0.0000000000E+00   0.0000000000E+00   0.0000000000E+00   0.8721877185E-01
   0.1953841042E-01   0.9801386557E-01   0.1468901177E-04  -0.3233051595E-04   0.1468901177E-04  -0.3233051595E-04   0.1411662552E+00   0.1455497949E-01   0.4671637040E-01  -0.1635239068E-01   0.0000000000E+00   0.0000000000E+00   0.1227848502E-02  -0.4180980818E-03  -0.2125810789E-03   0.0000000000E+00   0.0000000000E+00   0.0000000000E+00   0.1173355498E+00
   0.3832651939E-01   0.9232946734E-01   0.2908839679E-04  -0.2924228052E-04   0.2908839679E-04  -0.2924228052E-04   0.1309270460E+00   0.2262664675E-01   0.4606610782E-01  -0.3363938255E-01   0.0000000000E+00   0.0000000000E+00   0.1103192196E-02  -0.3047129939E-03  -0.4373119731E-03   0.0000000000E+00   0.0000000000E+00   0.0000000000E+00   0.1138211187E+00
   0.1069627285E+00   0.2330504693E+00   0.2644377234E-04  -0.3516485853E-04   0.2644377234E-04  -0.3516485853E-04   0.6296173840E-01  -0.4138888555E-03   0.1876435486E-01   0.3210514013E-02   0.0000000000E+00   0.0000000000E+00   0.5745659860E-03  -0.2493171684E-03   0.4173668216E-04   0.0000000000E+00   0.0000000000E+00   0.0000000000E+00   0.5658819024E-01
   0.9726460895E-01   0.2499221472E+00   0.2119252365E-04  -0.3892640651E-04   0.2119252365E-04  -0.3892640651E-04   0.6009911008E-01  -0.1611198519E-03   0.1798139707E-01   0.1524759430E-02   0.0000000000E+00   0.0000000000E+00   0.5475302691E-03  -0.2358527200E-03   0.1982187258E-04   0.0000000000E+00   0.0000000000E+00   0.0000000000E+00   0.5356484820E-01
   0.8741113737E-01   0.2329487827E+00   0.2098553643E-04  -0.3866714709E-04   0.2098553643E-04  -0.3866714709E-04   0.5979002240E-01  -0.1937458324E-03   0.1787888297E-01   0.3677636947E-02   0.0000000000E+00   0.0000000000E+00   0.5448448126E-03  -0.2349441744E-03   0.4780928031E-04   0.0000000000E+00   0.0000000000E+00   0.0000000000E+00   0.5370441363E-01
   0.8884512895E-01   0.7377716612E-01   0.5497542748E-04  -0.1458594200E-04   0.5497542748E-04  -0.1458594200E-04   0.3808405964E-01  -0.5046972486E-02   0.9911126145E-02  -0.1452350654E-01   0.0000000000E+00   0.0000000000E+00   0.3662481354E-03  -0.1944552822E-03  -0.1888055851E-03   0.0000000000E+00   0.0000000000E+00   0.0000000000E+00   0.4568230450E-01
   0.7338015117E-01   0.8910309764E-01   0.4355673570E-04  -0.2084923025E-04   0.4355673570E-04  -0.2084923025E-04   0.6008703959E-01   0.1895682815E-02   0.1859481672E-01  -0.1821090974E-01   0.0000000000E+00   0.0000000000E+00   0.5393988973E-03  -0.2170887408E-03  -0.2367418266E-03   0.0000000000E+00   0.0000000000E+00   0.0000000000E+00   0.6154833802E-01
   0.7081882372E-01   0.7066929677E-01   0.5407115790E-04  -0.2069231709E-04   0.5407115790E-04  -0.2069231709E-04   0.3856336081E-01   0.1207870302E-01   0.1519261915E-01  -0.2033738485E-01   0.0000000000E+00   0.0000000000E+00   0.3038196416E-03  -0.4048090970E-04  -0.2643860031E-03   0.0000000000E+00   0.0000000000E+00   0.0000000000E+00   0.4130684373E-01
   0.1653616079E+00   0.2330555728E+00   0.4411246148E-04  -0.2566909036E-04   0.4411246148E-04  -0.2566909036E-04   0.6848523274E-01  -0.5434788659E-03   0.2038252616E-01   0.8435265806E-03   0.0000000000E+00   0.0000000000E+00   0.6253351856E-03  -0.2720380654E-03   0.1096584555E-04   0.0000000000E+00   0.0000000000E+00   0.0000000000E+00   0.6132338712E-01
   0.1556331612E+00   0.2499413089E+00   0.3880011876E-04  -0.2934553547E-04   0.3880011876E-04  -0.2934553547E-04   0.7074473908E-01  -0.9328346631E-04   0.2119543668E-01   0.5432060788E-03   0.0000000000E+00   0.0000000000E+00   0.6441409311E-03  -0.2767533619E-03   0.7061679025E-05   0.0000000000E+00   0.0000000000E+00   0.0000000000E+00   0.6295452782E-01
   0.1459023479E+00   0.2330613854E+00   0.3807095796E-04  -0.2851478869E-04   0.3807095796E-04  -0.2851478869E-04   0.6743116737E-01  -0.5900575323E-03   0.2005233295E-01   0.1662945992E-02   0.0000000000E+00   0.0000000000E+00   0.6159248474E-03  -0.2683510763E-03   0.2161829789E-04   0.0000000000E+00   0.0000000000E+00   0.0000000000E+00   0.6047903442E-01
   0.1019451031E+00   0.5681474427E-01   0.6457102540E-04  -0.9188814991E-05   0.6457102540E-04  -0.9188814991E-05   0.2190354819E-01  -0.1199343715E-01   0.2973033311E-02  -0.1089203661E-01   0.0000000000E+00   0.0000000000E+00   0.2460966934E-03  -0.1945641160E-03  -0.1415964760E-03   0.0000000000E+00   0.0000000000E+00   0.0000000000E+00   0.3494047434E-01
   0.8327386750E-01   0.5552611938E-01   0.6345400012E-04  -0.1545215750E-04   0.6345400012E-04  -0.1545215750E-04   0.1106003976E-01  -0.1001571763E-01   0.3132966398E-03  -0.5000489435E-02   0.0000000000E+00   0.0000000000E+00   0.1397076606E-03  -0.1342771855E-03  -0.6500636265E-04   0.0000000000E+00   0.0000000000E+00   0.0000000000E+00   0.2188545361E-01
   0.9822820724E-01   0.1949943360E-01   0.7484032045E-04  -0.4799400208E-05   0.7484032045E-04  -0.4799400208E-05  -0.2506158856E-02  -0.3881202150E-01  -0.1239545411E-01   0.1485376470E-02   0.0000000000E+00   0.0000000000E+00   0.1285608383E-03  -0.3434153761E-03   0.1930989412E-04   0.0000000000E+00   0.0000000000E+00   0.0000000000E+00   0.3294837661E-01
   0.1001504786E+00   0.0000000000E+00   0.7523880562E-04   0.0000000000E+00   0.7523880562E-04   0.0000000000E+00   0.3914425201E-02  -0.7258508808E-01  -0.2060119886E-01  -0.2450083250E-02   0.0000000000E+00   0.0000000000E+00   0.3187031128E-03  -0.6757905598E-03  -0.3185108225E-04   0.0000000000E+00   0.0000000000E+00   0.0000000000E+00   0.6697147423E-01
   0.1209883356E+00   0.0000000000E+00   0.7750281467E-04   0.0000000000E+00   0.7750281467E-04   0.0000000000E+00  -0.1833493018E-02  -0.3079419961E-01  -0.9788307789E-02   0.4232947437E-03   0.0000000000E+00   0.0000000000E+00   0.1034125920E-03  -0.2730765937E-03   0.5502831668E-05   0.0000000000E+00   0.0000000000E+00   0.0000000000E+00   0.2686739364E-01
   0.1556222449E+00   0.2161456679E+00   0.4318394341E-04  -0.2474904393E-04   0.4318394341E-04  -0.2474904393E-04   0.6644795360E-01  -0.1548318337E-02   0.1946989058E-01   0.1983053585E-02   0.0000000000E+00   0.0000000000E+00   0.6107148192E-03  -0.2732367159E-03   0.2577969660E-04   0.0000000000E+00   0.0000000000E+00   0.0000000000E+00   0.6039127999E-01
   0.1750905174E+00   0.2161346768E+00   0.4912721475E-04  -0.2210861187E-04   0.4912721475E-04  -0.2210861187E-04   0.6647515732E-01  -0.1294121754E-02   0.1955431067E-01   0.6404773444E-03   0.0000000000E+00   0.0000000000E+00   0.6099710064E-03  -0.2710296215E-03   0.8326205477E-05   0.0000000000E+00   0.0000000000E+00   0.0000000000E+00   0.6012766246E-01
   0.1752632419E-01   0.2244424377E+00   0.4126342857E-05  -0.4690115214E-04   0.4126342857E-05  -0.4690115214E-04   0.5409165360E-01   0.1654467244E-02   0.1672383625E-01   0.1474098829E-02   0.0000000000E+00   0.0000000000E+00   0.4857816255E-03  -0.1959017971E-03   0.1916328478E-04   0.0000000000E+00   0.0000000000E+00   0.0000000000E+00   0.4690969366E-01
   0.0000000000E+00   0.2311539356E+00   0.0000000000E+00  -0.4803372350E-04   0.0000000000E+00  -0.4803372350E-04   0.4725335084E-01   0.1339505968E-02   0.1457785704E-01   0.3408180837E-03   0.0000000000E+00   0.0000000000E+00   0.4247814194E-03  -0.1720985640E-03   0.4430635088E-05   0.0000000000E+00   0.0000000000E+00   0.0000000000E+00   0.4096910334E-01
   0.0000000000E+00   0.2124074493E+00   0.0000000000E+00  -0.4627835925E-04   0.0000000000E+00  -0.4627835925E-04   0.5646666502E-01   0.3193076231E-02   0.1789792238E-01   0.1696061784E-02   0.0000000000E+00   0.0000000000E+00   0.5013936544E-03  -0.1911629999E-03   0.2204880319E-04   0.0000000000E+00   0.0000000000E+00   0.0000000000E+00   0.4772730157E-01
   0.0000000000E+00   0.1186757189E+00   0.0000000000E+00  -0.3714004802E-04   0.0000000000E+00  -0.3714004802E-04   0.1339324133E+00   0.1404743018E-01   0.4439395304E-01  -0.3825683901E-02   0.0000000000E+00   0.0000000000E+00   0.1163999983E-02  -0.3945047971E-03  -0.4973389071E-04   0.0000000000E+00   0.0000000000E+00   0.0000000000E+00   0.1089511795E+00
   0.0000000000E+00   0.9993700175E-01   0.0000000000E+00  -0.3149962457E-04   0.0000000000E+00  -0.3149962457E-04   0.1984560059E+00  -0.2528637496E-02   0.5877821052E-01  -0.1021511259E-02   0.0000000000E+00   0.0000000000E+00   0.1815811340E-02  -0.7969890243E-03  -0.1327964636E-04   0.0000000000E+00   0.0000000000E+00   0.0000000000E+00   0.1767764174E+00
   0.1825269895E-01   0.1244984712E+00   0.8175276058E-05  -0.3684340132E-04   0.8175276058E-05  -0.3684340132E-04   0.9765370836E-01   0.1384778837E-01   0.3345044902E-01  -0.4053672185E-02   0.0000000000E+00   0.0000000000E+00   0.8346423714E-03  -0.2548345884E-03  -0.5269773840E-04   0.0000000000E+00   0.0000000000E+00   0.0000000000E+00   0.7652660183E-01
   0.5564790375E-01   0.1017468517E+00   0.3139192580E-04  -0.2726465151E-04   0.3139192580E-04  -0.2726465151E-04   0.8242028476E-01   0.4849887244E-02   0.2618105160E-01  -0.1744569677E-01   0.0000000000E+00   0.0000000000E+00   0.7311100311E-03  -0.2773051366E-03  -0.2267940580E-03   0.0000000000E+00   0.0000000000E+00   0.0000000000E+00   0.7619921300E-01
   0.5564199512E-01   0.8309613351E-01   0.4248571004E-04  -0.2541299733E-04   0.4248571004E-04  -0.2541299733E-04   0.8167157601E-01   0.2328941676E-01   0.3148829783E-01  -0.3374552655E-01   0.0000000000E+00   0.0000000000E+00   0.6523826164E-03  -0.1065854540E-03  -0.4386918451E-03   0.0000000000E+00   0.0000000000E+00   0.0000000000E+00   0.7798681820E-01
   0.3653333350E-01   0.2153267107E+00   0.9197800863E-05  -0.4450264583E-04   0.9197800863E-05  -0.4450264583E-04   0.5727837101E-01   0.2037580391E-02   0.1779478542E-01   0.4624991798E-02   0.0000000000E+00   0.0000000000E+00   0.5132866127E-03  -0.2048436654E-03   0.6012489337E-04   0.0000000000E+00   0.0000000000E+00   0.0000000000E+00   0.4993672552E-01
   0.5763980536E-01   0.2158017327E+00   0.1468032773E-04  -0.4170714757E-04   0.1468032773E-04  -0.4170714757E-04   0.5889378417E-01   0.6162735630E-03   0.1785301732E-01   0.6000657871E-02   0.0000000000E+00   0.0000000000E+00   0.5335299690E-03  -0.2240776688E-03   0.7800855232E-04   0.0000000000E+00   0.0000000000E+00   0.0000000000E+00   0.5285309969E-01
   0.4854033605E-01   0.2329970494E+00   0.1102542486E-04  -0.4482782298E-04   0.1102542486E-04  -0.4482782298E-04   0.5360750818E-01   0.8859518482E-03   0.1634803801E-01   0.3539376730E-02   0.0000000000E+00   0.0000000000E+00   0.4843731123E-03  -0.2010071201E-03   0.4601189749E-04   0.0000000000E+00   0.0000000000E+00   0.0000000000E+00   0.4737946337E-01
   0.1745370448E-01   0.1455763092E+00   0.6212139837E-05  -0.3933338926E-04   0.6212139837E-05  -0.3933338926E-04   0.8414915836E-01   0.1301026990E-01   0.2914782848E-01   0.1949289767E-02   0.0000000000E+00   0.0000000000E+00   0.7150172885E-03  -0.2097882615E-03   0.2534076697E-04   0.0000000000E+00   0.0000000000E+00   0.0000000000E+00   0.6470662680E-01
   0.0000000000E+00   0.1561676947E+00   0.0000000000E+00  -0.4115263408E-04   0.0000000000E+00  -0.4115263408E-04   0.7884817225E-01   0.1469751960E-01   0.2806370755E-01   0.2051257424E-02   0.0000000000E+00   0.0000000000E+00   0.6601980410E-03  -0.1737604434E-03   0.2666634652E-04   0.0000000000E+00   0.0000000000E+00   0.0000000000E+00   0.5886770225E-01
   0.0000000000E+00   0.1374211024E+00   0.0000000000E+00  -0.3945028195E-04   0.0000000000E+00  -0.3945028195E-04   0.9352921953E-01   0.1901834659E-01   0.3376426983E-01   0.5253345184E-02   0.0000000000E+00   0.0000000000E+00   0.7769443460E-03  -0.1916970022E-03   0.6829348740E-04   0.0000000000E+00   0.0000000000E+00   0.0000000000E+00   0.6833856889E-01
   0.3595773671E-01   0.1342863380E+00   0.1409175419E-04  -0.3588499247E-04   0.1409175419E-04  -0.3588499247E-04   0.9029682506E-01   0.1264917309E-01   0.3088379944E-01   0.1623229872E-02   0.0000000000E+00   0.0000000000E+00   0.7723693330E-03  -0.2370501426E-03   0.2110198834E-04   0.0000000000E+00   0.0000000000E+00   0.0000000000E+00   0.7033702394E-01
   0.3217179644E-01   0.2344849719E+00   0.7092667677E-05  -0.4679655008E-04   0.7092667677E-05  -0.4679655008E-04   0.4913823145E-01   0.3233475833E-03   0.1483847371E-01   0.2584682847E-02   0.0000000000E+00   0.0000000000E+00   0.4458968507E-03  -0.1886966397E-03   0.3360087701E-04   0.0000000000E+00   0.0000000000E+00   0.0000000000E+00   0.4362043632E-01
   0.1945172047E-01   0.2499016814E+00   0.3637683758E-05  -0.4915930531E-04   0.3637683758E-05  -0.4915930531E-04   0.4430871696E-01   0.4033651796E-03   0.1341362464E-01   0.7123757097E-03   0.0000000000E+00   0.0000000000E+00   0.4016362002E-03  -0.1691333730E-03   0.9260884226E-05   0.0000000000E+00   0.0000000000E+00   0.0000000000E+00   0.3913906542E-01
   0.1290533320E+00   0.2146348813E-01   0.7610399698E-04  -0.1517634148E-05   0.7610399698E-04  -0.1517634148E-05   0.4955141430E-02  -0.1212621951E-01  -0.2151323425E-02  -0.4735746701E-02   0.0000000000E+00   0.0000000000E+00   0.9238404311E-04  -0.1296736491E-03  -0.6156470711E-04   0.0000000000E+00   0.0000000000E+00   0.0000000000E+00   0.1744167766E-01
   0.3293610912E+00   0.0000000000E+00   0.9720509032E-04   0.0000000000E+00   0.9720509032E-04   0.0000000000E+00   0.3349475900E-01   0.9390930828E-02   0.1286570695E-01  -0.1354602720E-03   0.0000000000E+00   0.0000000000E+00   0.2681776767E-03  -0.4517208956E-04  -0.1760983537E-05   0.0000000000E+00   0.0000000000E+00   0.0000000000E+00   0.2256814534E-01
   0.3501999940E+00   0.0000000000E+00   0.1000000000E-03   0.0000000000E+00   0.1000000000E-03   0.0000000000E+00   0.3326152766E-01   0.9334904974E-02   0.1277892979E-01   0.6459126466E-04   0.0000000000E+00   0.0000000000E+00   0.2662737723E-03  -0.4477232260E-04   0.8396864406E-06   0.0000000000E+00   0.0000000000E+00   0.0000000000E+00   0.2240367862E-01
   0.3501999940E+00   0.1922989623E-01   0.1000000000E-03  -0.4368373714E-06   0.1000000000E-03  -0.4368373714E-06   0.3397356153E-01   0.9394426872E-02   0.1301039652E-01   0.6277742717E-05   0.0000000000E+00   0.0000000000E+00   0.2725211451E-03  -0.4700760544E-04   0.8161065532E-07   0.0000000000E+00   0.0000000000E+00   0.0000000000E+00   0.2298591790E-01
   0.3316241391E+00   0.2617047865E-01   0.9743306808E-04  -0.6111768354E-06   0.9743306808E-04  -0.6111768354E-06   0.3444052063E-01   0.9311440125E-02   0.1312558823E-01  -0.3628611183E-03   0.0000000000E+00   0.0000000000E+00   0.2770941213E-03  -0.4958392533E-04  -0.4717194538E-05   0.0000000000E+00   0.0000000000E+00   0.0000000000E+00   0.2345991346E-01
   0.3501999940E+00   0.3845968300E-01   0.1000000000E-03  -0.9284490916E-06   0.1000000000E-03  -0.9284490916E-06   0.3514850790E-01   0.8878559917E-02   0.1320812035E-01  -0.3319029694E-04   0.0000000000E+00   0.0000000000E+00   0.2852250382E-03  -0.5628428557E-04  -0.4314738602E-06   0.0000000000E+00   0.0000000000E+00   0.0000000000E+00   0.2439464460E-01
   0.3159694705E+00   0.7695090385E-01   0.9432622658E-04  -0.2333973297E-05   0.9432622658E-04  -0.2333973297E-05   0.3936726238E-01   0.6935948578E-02   0.1389096329E-01  -0.1846998338E-02   0.0000000000E+00   0.0000000000E+00   0.3311918882E-03  -0.9041519122E-04  -0.2401097839E-04   0.0000000000E+00   0.0000000000E+00   0.0000000000E+00   0.2974340017E-01
   0.3329228549E+00   0.6720558043E-01   0.9724946777E-04  -0.1906182922E-05   0.9724946777E-04  -0.1906182922E-05   0.3821663205E-01   0.7619224389E-02   0.1375075693E-01  -0.8073284015E-03   0.0000000000E+00   0.0000000000E+00   0.3180563765E-03  -0.7970992304E-04  -0.1049526922E-04   0.0000000000E+00   0.0000000000E+00   0.0000000000E+00   0.2807054923E-01
   0.3332788770E+00   0.8655193184E-01   0.9707249753E-04  -0.2769230808E-05   0.9707249753E-04  -0.2769230808E-05   0.4085210249E-01   0.6596976538E-02   0.1423472371E-01  -0.9127702905E-03   0.0000000000E+00   0.0000000000E+00   0.3460259242E-03  -0.9929071322E-04  -0.1186601378E-04   0.0000000000E+00   0.0000000000E+00   0.0000000000E+00   0.3118471598E-01
   0.3116043411E+00   0.3581518574E-01   0.9454306042E-04  -0.8666808515E-06   0.9454306042E-04  -0.8666808515E-06   0.3447089555E-01   0.8622810808E-02   0.1292811191E-01  -0.1258748204E-02   0.0000000000E+00   0.0000000000E+00   0.2800561874E-03  -0.5596891431E-04  -0.1636372666E-04   0.0000000000E+00   0.0000000000E+00   0.0000000000E+00   0.2408379401E-01
   0.3159639150E+00   0.1595424975E-01   0.9536301880E-04  -0.3645236782E-06   0.9536301880E-04  -0.3645236782E-06   0.3338471723E-01   0.9146392490E-02   0.1275933291E-01  -0.4930988167E-03   0.0000000000E+00   0.0000000000E+00   0.2681299961E-03  -0.4696822553E-04  -0.6410284617E-05   0.0000000000E+00   0.0000000000E+00   0.0000000000E+00   0.2266757700E-01
   0.2777807571E+00   0.1796094009E-01   0.9030906378E-04  -0.4058028712E-06   0.9030906378E-04  -0.4058028712E-06   0.3184324087E-01   0.8388294238E-02   0.1206946053E-01  -0.1130780591E-02   0.0000000000E+00   0.0000000000E+00   0.2570591444E-03  -0.4785516181E-04  -0.1470014768E-04   0.0000000000E+00   0.0000000000E+00   0.0000000000E+00   0.2194681051E-01
   0.2668448718E+00   0.0000000000E+00   0.8909537818E-04   0.0000000000E+00   0.8909537818E-04   0.0000000000E+00   0.3051958933E-01   0.8281119083E-02   0.1164021252E-01  -0.4707752012E-03   0.0000000000E+00   0.0000000000E+00   0.2454318985E-03  -0.4366821474E-04  -0.6120077616E-05   0.0000000000E+00   0.0000000000E+00   0.0000000000E+00   0.2075156762E-01
   0.2876834200E+00   0.0000000000E+00   0.9171301002E-04   0.0000000000E+00   0.9171301002E-04   0.0000000000E+00   0.3197468468E-01   0.8845001629E-02   0.1224590589E-01  -0.3606178125E-03   0.0000000000E+00   0.0000000000E+00   0.2564741242E-03  -0.4421175541E-04  -0.4688031562E-05   0.0000000000E+00   0.0000000000E+00   0.0000000000E+00   0.2163130989E-01
   0.2356557321E+00   0.1793910712E-01   0.8517855705E-04  -0.3978398820E-06   0.8517855705E-04  -0.3978398820E-06   0.2793923146E-01   0.6734907205E-02   0.1040224160E-01  -0.2087818142E-02   0.0000000000E+00   0.0000000000E+00   0.2279808682E-03  -0.4767534712E-04  -0.2714163584E-04   0.0000000000E+00   0.0000000000E+00   0.0000000000E+00   0.2000748205E-01
   0.2460065662E+00   0.0000000000E+00   0.8661460806E-04   0.0000000000E+00   0.8661460806E-04   0.0000000000E+00   0.2847730672E-01   0.7470732645E-02   0.1078441181E-01  -0.6457747684E-03   0.0000000000E+00   0.0000000000E+00   0.2300076339E-03  -0.4307782915E-04  -0.8395071989E-05   0.0000000000E+00   0.0000000000E+00   0.0000000000E+00   0.1954232934E-01
   0.2566844499E+00   0.1801951108E-01   0.8766242762E-04  -0.4038623832E-06   0.8766242762E-04  -0.4038623832E-06   0.3013421708E-01   0.7696041891E-02   0.1134907769E-01  -0.1604114389E-02   0.0000000000E+00   0.0000000000E+00   0.2442068120E-03  -0.4748946539E-04  -0.2085348706E-04   0.0000000000E+00   0.0000000000E+00   0.0000000000E+00   0.2106573862E-01
   0.2990795682E+00   0.8661429571E-01   0.9115108225E-04  -0.2834995102E-05   0.9115108225E-04  -0.2834995102E-05   0.4063206696E-01   0.5935881108E-02   0.1397038442E-01  -0.2849289523E-02   0.0000000000E+00   0.0000000000E+00   0.3466018730E-03  -0.1044485431E-03  -0.3704076380E-04   0.0000000000E+00   0.0000000000E+00   0.0000000000E+00   0.3183872553E-01
   0.3163481461E+00   0.9621278469E-01   0.9388252582E-04  -0.3306704314E-05   0.9388252582E-04  -0.3306704314E-05   0.4227257063E-01   0.5825792807E-02   0.1442950903E-01  -0.1946300173E-02   0.0000000000E+00   0.0000000000E+00   0.3619598008E-03  -0.1118483109E-03  -0.2530190225E-04   0.0000000000E+00   0.0000000000E+00   0.0000000000E+00   0.3316683112E-01
   0.2994669202E+00   0.1058770330E+00   0.9041160451E-04  -0.3945999953E-05   0.9041160451E-04  -0.3945999953E-05   0.4381095390E-01   0.4824965436E-02   0.1459077580E-01  -0.2936754810E-02   0.0000000000E+00   0.0000000000E+00   0.3798623153E-03  -0.1269555348E-03  -0.3817781254E-04   0.0000000000E+00   0.0000000000E+00   0.0000000000E+00   0.3550102036E-01
   0.1937800237E+00   0.1783070530E-01   0.8086283346E-04  -0.4171990993E-06   0.8086283346E-04  -0.4171990993E-06   0.2144043544E-01   0.3429916128E-02   0.7461105471E-02  -0.3434880552E-02   0.0000000000E+00   0.0000000000E+00   0.1817312896E-03  -0.5240546146E-04  -0.4465344717E-04   0.0000000000E+00   0.0000000000E+00   0.0000000000E+00   0.1758668162E-01
   0.2043311914E+00   0.0000000000E+00   0.8226269061E-04   0.0000000000E+00   0.8226269061E-04   0.0000000000E+00   0.2224505300E-01   0.4799990559E-02   0.8113513069E-02  -0.1158279614E-02   0.0000000000E+00   0.0000000000E+00   0.1837100192E-03  -0.4307579263E-04  -0.1505763498E-04   0.0000000000E+00   0.0000000000E+00   0.0000000000E+00   0.1602401226E-01
   0.2147310146E+00   0.1790926693E-01   0.8289880062E-04  -0.4009839229E-06   0.8289880062E-04  -0.4009839229E-06   0.2506063985E-01   0.5357961428E-02   0.9125580385E-02  -0.2708426969E-02   0.0000000000E+00   0.0000000000E+00   0.2071557731E-03  -0.4897904644E-04  -0.3520955060E-04   0.0000000000E+00   0.0000000000E+00   0.0000000000E+00   0.1880436189E-01
   0.1322398824E+00   0.4107386524E-01   0.7271220213E-04  -0.2975130336E-05   0.7271220213E-04  -0.2975130336E-05   0.1515458680E-01  -0.1240058677E-01   0.8262000078E-03  -0.1161386031E-01   0.0000000000E+00   0.0000000000E+00   0.1862690282E-03  -0.1719482281E-03  -0.1509801841E-03   0.0000000000E+00   0.0000000000E+00   0.0000000000E+00   0.3130182381E-01
   0.1252203478E+00   0.5989537289E-01   0.6669990856E-04  -0.5398455227E-05   0.6669990856E-04  -0.5398455227E-05   0.2582298657E-01  -0.1410128365E-01   0.3516510877E-02  -0.1528430871E-01   0.0000000000E+00   0.0000000000E+00   0.2899841841E-03  -0.2290313289E-03  -0.1986960133E-03   0.0000000000E+00   0.0000000000E+00   0.0000000000E+00   0.4376105285E-01
   0.1131400311E+00   0.3922111961E-01   0.7163702634E-04  -0.4967444060E-05   0.7163702634E-04  -0.4967444060E-05   0.7908431148E-02  -0.2054614504E-01  -0.3791314167E-02  -0.7815181137E-02   0.0000000000E+00   0.0000000000E+00   0.1520966891E-03  -0.2178128013E-03  -0.1015973548E-03   0.0000000000E+00   0.0000000000E+00   0.0000000000E+00   0.2877711531E-01
   0.1728832388E+00   0.1762945166E-01   0.7913089277E-04  -0.4695721429E-06   0.7913089277E-04  -0.4695721429E-06   0.1690373750E-01   0.8378186196E-03   0.5322466836E-02  -0.4295724926E-02   0.0000000000E+00   0.0000000000E+00   0.1505565186E-03  -0.5830042682E-04  -0.5584442403E-04   0.0000000000E+00   0.0000000000E+00   0.0000000000E+00   0.1638163043E-01
   0.1834943617E+00   0.0000000000E+00   0.8051233002E-04   0.0000000000E+00   0.8051233002E-04   0.0000000000E+00   0.1760996755E-01   0.2537748848E-02   0.6044314919E-02  -0.1639792325E-02   0.0000000000E+00   0.0000000000E+00   0.1503534842E-03  -0.4558535892E-04  -0.2131730022E-04   0.0000000000E+00   0.0000000000E+00   0.0000000000E+00   0.1373706038E-01
   0.9252858986E-01   0.3824825001E-01   0.7031898010E-04  -0.1004629308E-04   0.7031898010E-04  -0.1004629308E-04  -0.3643827047E-03  -0.3690321037E-01  -0.1118027792E-01   0.3163736712E-02   0.0000000000E+00   0.0000000000E+00   0.1406066378E-03  -0.3343981218E-03   0.4112857726E-04   0.0000000000E+00   0.0000000000E+00   0.0000000000E+00   0.3146468672E-01
   0.3307439411E+00   0.2499637170E+00   0.9419153145E-04  -0.1814150357E-04   0.9419153145E-04  -0.1814150357E-04   0.6546415271E-01   0.5695484315E-04   0.1965633227E-01  -0.2880216930E-05   0.0000000000E+00   0.0000000000E+00   0.5955016658E-03  -0.2547919065E-03  -0.3744282009E-07   0.0000000000E+00   0.0000000000E+00   0.0000000000E+00   0.5813947442E-01
   0.3501999940E+00   0.2307379359E+00   0.1000000000E-03  -0.1564803975E-04   0.1000000000E-03  -0.1564803975E-04   0.6389884272E-01   0.4019422022E-04   0.1918171108E-01  -0.8795576268E-04   0.0000000000E+00   0.0000000000E+00   0.5813227113E-03  -0.2488397192E-03  -0.1143424915E-05   0.0000000000E+00   0.0000000000E+00   0.0000000000E+00   0.5676393542E-01
   0.3501999940E+00   0.2499637662E+00   0.1000000000E-03  -0.1811690379E-04   0.1000000000E-03  -0.1811690379E-04   0.6654210002E-01  -0.2410714344E-03   0.1989030858E-01   0.2400536749E-03   0.0000000000E+00   0.0000000000E+00   0.6064732888E-03  -0.2617079401E-03   0.3120697774E-05   0.0000000000E+00   0.0000000000E+00   0.0000000000E+00   0.5933665953E-01
   0.3242477520E+00   0.2323270078E+00   0.9244899176E-04  -0.1596961045E-04   0.9244899176E-04  -0.1596961045E-04   0.6398340475E-01   0.1250392801E-03   0.1923253321E-01  -0.5102850699E-03   0.0000000000E+00   0.0000000000E+00   0.5817613301E-03  -0.2483974211E-03  -0.6633705909E-05   0.0000000000E+00   0.0000000000E+00   0.0000000000E+00   0.5677626798E-01
   0.3112878229E+00   0.2499632863E+00   0.8835043679E-04  -0.1835685885E-04   0.8835043679E-04  -0.1835685885E-04   0.6634960993E-01   0.2720199196E-03   0.1998648896E-01  -0.5699224779E-04   0.0000000000E+00   0.0000000000E+00   0.6027205727E-03  -0.2562880975E-03  -0.7408992213E-06   0.0000000000E+00   0.0000000000E+00   0.0000000000E+00   0.5875464347E-01
   0.2834834487E+00   0.1996994084E+00   0.8197283816E-04  -0.1274481796E-04   0.8197283816E-04  -0.1274481796E-04   0.6038180550E-01   0.6121158239E-03   0.1829817640E-01  -0.1878794058E-02   0.0000000000E+00   0.0000000000E+00   0.5470871784E-03  -0.2299187875E-03  -0.2442432275E-04   0.0000000000E+00   0.0000000000E+00   0.0000000000E+00   0.5327735990E-01
   0.2731153348E+00   0.2161348241E+00   0.7821489395E-04  -0.1499395812E-04   0.7821489395E-04  -0.1499395812E-04   0.6320262624E-01   0.1790589474E-03   0.1901450556E-01  -0.1600238597E-02   0.0000000000E+00   0.0000000000E+00   0.5744455689E-03  -0.2448608059E-03  -0.2080310176E-04   0.0000000000E+00   0.0000000000E+00   0.0000000000E+00   0.5609958890E-01
   0.2634864681E+00   0.1994581394E+00   0.7648453726E-04  -0.1332028604E-04   0.7648453726E-04  -0.1332028604E-04   0.6093384324E-01   0.2662978096E-03   0.1836004232E-01  -0.2221254699E-02   0.0000000000E+00   0.0000000000E+00   0.5534594121E-03  -0.2352186786E-03  -0.2887631109E-04   0.0000000000E+00   0.0000000000E+00   0.0000000000E+00   0.5408258501E-01
   0.3157712604E+00   0.1923576810E+00   0.9093119617E-04  -0.1136598808E-04   0.9093119617E-04  -0.1136598808E-04   0.5828750686E-01   0.9467985699E-03   0.1777029163E-01  -0.1211120820E-02   0.0000000000E+00   0.0000000000E+00   0.5267237980E-03  -0.2187054098E-03  -0.1574457066E-04   0.0000000000E+00   0.0000000000E+00   0.0000000000E+00   0.5109694261E-01
   0.3333020369E+00   0.1825768033E+00   0.9568844018E-04  -0.1017834764E-04   0.9568844018E-04  -0.1017834764E-04   0.5684277467E-01   0.1538117462E-02   0.1751426764E-01  -0.6830489279E-03   0.0000000000E+00   0.0000000000E+00   0.5112705914E-03  -0.2076899523E-03  -0.8879636063E-05   0.0000000000E+00   0.0000000000E+00   0.0000000000E+00   0.4931336413E-01
   0.3333226159E+00   0.2016006131E+00   0.9544247375E-04  -0.1224042933E-04   0.9544247375E-04  -0.1224042933E-04   0.6001252338E-01   0.8887098415E-03   0.1827036997E-01  -0.5887414907E-03   0.0000000000E+00   0.0000000000E+00   0.5426479943E-03  -0.2259615816E-03  -0.7653639379E-05   0.0000000000E+00   0.0000000000E+00   0.0000000000E+00   0.5264325283E-01
   0.3334011574E+00   0.1633952938E+00   0.9598519135E-04  -0.8281110182E-05   0.9598519135E-04  -0.8281110182E-05   0.5360113638E-01   0.2375458876E-02   0.1679297858E-01  -0.8111800157E-03   0.0000000000E+00   0.0000000000E+00   0.4785060514E-03  -0.1874277561E-03  -0.1054534020E-04   0.0000000000E+00   0.0000000000E+00   0.0000000000E+00   0.4577600839E-01
   0.3501999940E+00   0.1730585723E+00   0.1000000000E-03  -0.9177871342E-05   0.1000000000E-03  -0.9177871342E-05   0.5517040117E-01   0.1935503669E-02   0.1713177145E-01   0.1206641163E-04   0.0000000000E+00   0.0000000000E+00   0.4945021863E-03  -0.1975514812E-03   0.1568633512E-06   0.0000000000E+00   0.0000000000E+00   0.0000000000E+00   0.4749753894E-01
   0.3501999940E+00   0.1538314010E+00   0.1000000000E-03  -0.7379511093E-05   0.1000000000E-03  -0.7379511093E-05   0.5193005579E-01   0.2879408505E-02   0.1644283929E-01   0.4222068513E-05   0.0000000000E+00   0.0000000000E+00   0.4613338145E-03  -0.1763246002E-03   0.5488689067E-07   0.0000000000E+00   0.0000000000E+00   0.0000000000E+00   0.4387079802E-01
   0.2678204573E+00   0.3629228559E-01   0.8853264907E-04  -0.8862074536E-06   0.8853264907E-04  -0.8862074536E-06   0.3247217146E-01   0.7512174645E-02   0.1199530383E-01  -0.2787975607E-02   0.0000000000E+00   0.0000000000E+00   0.2661992792E-03  -0.5828067941E-04  -0.3624368289E-04   0.0000000000E+00   0.0000000000E+00   0.0000000000E+00   0.2352454443E-01
   0.3165847149E+00   0.1346156993E+00   0.9280894746E-04  -0.5888344265E-05   0.9280894746E-04  -0.5888344265E-05   0.4875553544E-01   0.3609793554E-02   0.1570959870E-01  -0.1846245648E-02   0.0000000000E+00   0.0000000000E+00   0.4295971776E-03  -0.1572974669E-03  -0.2400119342E-04   0.0000000000E+00   0.0000000000E+00   0.0000000000E+00   0.4060105920E-01
   0.3165639108E+00   0.1154472882E+00   0.9337391188E-04  -0.4489895082E-05   0.9337391188E-04  -0.4489895082E-05   0.4543268788E-01   0.4697376494E-02   0.1503901931E-01  -0.1940752318E-02   0.0000000000E+00   0.0000000000E+00   0.3951176913E-03  -0.1344413566E-03  -0.2522978013E-04   0.0000000000E+00   0.0000000000E+00   0.0000000000E+00   0.3682671541E-01
   0.3334349120E+00   0.1250082519E+00   0.9656050119E-04  -0.5098057489E-05   0.9656050119E-04  -0.5098057489E-05   0.4701734486E-01   0.4378048668E-02   0.1541861806E-01  -0.9433327362E-03   0.0000000000E+00   0.0000000000E+00   0.4107834484E-03  -0.1435274021E-03  -0.1226332557E-04   0.0000000000E+00   0.0000000000E+00   0.0000000000E+00   0.3836494659E-01
   0.3501999940E+00   0.9614732795E-01   0.1000000000E-03  -0.3259976031E-05   0.1000000000E-03  -0.3259976031E-05   0.4231919675E-01   0.6109279014E-02   0.1452854273E-01  -0.4024887834E-04   0.0000000000E+00   0.0000000000E+00   0.3612785023E-03  -0.1094504283E-03  -0.5232354184E-06   0.0000000000E+00   0.0000000000E+00   0.0000000000E+00   0.3281829379E-01
   0.3333933418E+00   0.1057836237E+00   0.9683089282E-04  -0.3827144101E-05   0.9683089282E-04  -0.3827144101E-05   0.4382460676E-01   0.5489669919E-02   0.1479428300E-01  -0.9546475051E-03   0.0000000000E+00   0.0000000000E+00   0.3773942088E-03  -0.1209599701E-03  -0.1241041757E-04   0.0000000000E+00   0.0000000000E+00   0.0000000000E+00   0.3467116158E-01
   0.3501999940E+00   0.7691846435E-01   0.1000000000E-03  -0.2307727201E-05   0.1000000000E-03  -0.2307727201E-05   0.3954366132E-01   0.7165064333E-02   0.1401261769E-01  -0.3491810721E-04   0.0000000000E+00   0.0000000000E+00   0.3319035671E-03  -0.8901819371E-04  -0.4539353937E-06   0.0000000000E+00   0.0000000000E+00   0.0000000000E+00   0.2955385033E-01
   0.3320501010E+00   0.4723187014E-01   0.9732751395E-04  -0.1196580282E-05   0.9732751395E-04  -0.1196580282E-05   0.3593933873E-01   0.8508365546E-02   0.1333431128E-01  -0.6998365933E-03   0.0000000000E+00   0.0000000000E+00   0.2938653568E-03  -0.6273729457E-04  -0.9097875712E-05   0.0000000000E+00   0.0000000000E+00   0.0000000000E+00   0.2539251774E-01
   0.3501999940E+00   0.5768923013E-01   0.1000000000E-03  -0.1538934116E-05   0.1000000000E-03  -0.1538934116E-05   0.3712392501E-01   0.8072462599E-02   0.1355891628E-01  -0.2213358359E-04   0.0000000000E+00   0.0000000000E+00   0.3063451135E-03  -0.7132389789E-04  -0.2877365867E-06   0.0000000000E+00   0.0000000000E+00   0.0000000000E+00   0.2673134983E-01
   0.0000000000E+00   0.2499010845E+00   0.0000000000E+00  -0.4945776087E-04   0.0000000000E+00  -0.4945776087E-04   0.3742820393E-01   0.1405634586E-02   0.1165015156E-01   0.1834809653E-02   0.0000000000E+00   0.0000000000E+00   0.3351146809E-03  -0.1331787206E-03   0.2385252548E-04   0.0000000000E+00   0.0000000000E+00   0.0000000000E+00   0.3220625675E-01
   0.3890360590E-01   0.2499049406E+00   0.7357802020E-05  -0.4752971173E-04   0.7357802020E-05  -0.4752971173E-04   0.4321842021E-01  -0.1716150132E-03   0.1291404156E-01   0.1208943096E-02   0.0000000000E+00   0.0000000000E+00   0.3939569224E-03  -0.1701135354E-03   0.1571626025E-04   0.0000000000E+00   0.0000000000E+00   0.0000000000E+00   0.3856372388E-01
   0.5555331084E-01   0.1230774429E+00   0.2389837062E-04  -0.3039905284E-04   0.2389837062E-04  -0.3039905284E-04   0.8635739176E-01   0.5245023524E-02   0.2748072458E-01  -0.1051141061E-02   0.0000000000E+00   0.0000000000E+00   0.7653966732E-03  -0.2890641138E-03  -0.1366483379E-04   0.0000000000E+00   0.0000000000E+00   0.0000000000E+00   0.7203966171E-01
   0.6784985108E-01   0.2328867337E+00   0.1582448774E-04  -0.4199066471E-04   0.1582448774E-04  -0.4199066471E-04   0.5633798527E-01   0.1333250744E-03   0.1694139310E-01   0.3757396436E-02   0.0000000000E+00   0.0000000000E+00   0.5121556981E-03  -0.2185048844E-03   0.4884615367E-04   0.0000000000E+00   0.0000000000E+00   0.0000000000E+00   0.5042551370E-01
   0.5835632645E-01   0.2499096585E+00   0.1149642408E-04  -0.4517074934E-04   0.1149642408E-04  -0.4517074934E-04   0.4931497514E-01  -0.9578318212E-04   0.1476575759E-01   0.1489961487E-02   0.0000000000E+00   0.0000000000E+00   0.4491398282E-03  -0.1932000300E-03   0.1936949934E-04   0.0000000000E+00   0.0000000000E+00   0.0000000000E+00   0.4392177192E-01
   0.7780998449E-01   0.2499155749E+00   0.1610194302E-04  -0.4221253647E-04   0.1610194302E-04  -0.4221253647E-04   0.5478091595E-01  -0.1165961465E-03   0.1639929594E-01   0.1690966717E-02   0.0000000000E+00   0.0000000000E+00   0.4989610601E-03  -0.2147065971E-03   0.2198256733E-04   0.0000000000E+00   0.0000000000E+00   0.0000000000E+00   0.4881945619E-01
   0.1264407946E+00   0.2330655223E+00   0.3215730460E-04  -0.3172133343E-04   0.3215730460E-04  -0.3172133343E-04   0.6557337901E-01  -0.5403102824E-03   0.1950992062E-01   0.2494550517E-02   0.0000000000E+00   0.0000000000E+00   0.5988249591E-03  -0.2606530017E-03   0.3242915672E-04   0.0000000000E+00   0.0000000000E+00   0.0000000000E+00   0.5888551585E-01
   0.1167201250E+00   0.2499288785E+00   0.2672899411E-04  -0.3556076233E-04   0.2672899411E-04  -0.3556076233E-04   0.6473718213E-01  -0.1527955955E-03   0.1937531596E-01   0.1246137833E-02   0.0000000000E+00   0.0000000000E+00   0.5897042602E-03  -0.2538654502E-03   0.1619979183E-04   0.0000000000E+00   0.0000000000E+00   0.0000000000E+00   0.5766987303E-01
   0.1361763738E+00   0.2499353639E+00   0.3263188493E-04  -0.3231806522E-04   0.3263188493E-04  -0.3231806522E-04   0.6834858487E-01  -0.1272552470E-03   0.2046639889E-01   0.9058751089E-03   0.0000000000E+00   0.0000000000E+00   0.6224684178E-03  -0.2677175038E-03   0.1177637642E-04   0.0000000000E+00   0.0000000000E+00   0.0000000000E+00   0.6085447142E-01
   0.1361609191E+00   0.2161752568E+00   0.3725752590E-04  -0.2782107648E-04   0.3725752590E-04  -0.2782107648E-04   0.6593611279E-01  -0.1593292410E-02   0.1930284611E-01   0.3476582337E-02   0.0000000000E+00   0.0000000000E+00   0.6062324667E-03  -0.2716498008E-03   0.4519557038E-04   0.0000000000E+00   0.0000000000E+00   0.0000000000E+00   0.6017034284E-01
   0.1848221603E+00   0.2330547129E+00   0.5021115937E-04  -0.2324557095E-04   0.5021115937E-04  -0.2324557095E-04   0.6882019573E-01  -0.4383581613E-03   0.2051455127E-01   0.1480600413E-03   0.0000000000E+00   0.0000000000E+00   0.6279733780E-03  -0.2723878226E-03   0.1924780537E-05   0.0000000000E+00   0.0000000000E+00   0.0000000000E+00   0.6151892606E-01
   0.1750902477E+00   0.2499465269E+00   0.4512533631E-04  -0.2673656327E-04   0.4512533631E-04  -0.2673656327E-04   0.7195636320E-01  -0.4686034844E-04   0.2157285086E-01   0.2131623037E-03   0.0000000000E+00   0.0000000000E+00   0.6549856605E-03  -0.2810562457E-03   0.2771109949E-05   0.0000000000E+00   0.0000000000E+00   0.0000000000E+00   0.6399360532E-01
   0.2042827393E+00   0.2330619009E+00   0.5630814867E-04  -0.2125353871E-04   0.5630814867E-04  -0.2125353871E-04   0.6859436696E-01  -0.3109248484E-03   0.2048503263E-01  -0.3688710720E-03   0.0000000000E+00   0.0000000000E+00   0.6254213462E-03  -0.2703474473E-03  -0.4795323936E-05   0.0000000000E+00   0.0000000000E+00   0.0000000000E+00   0.6121944676E-01
   0.1945474671E+00   0.2499509390E+00   0.5150955272E-04  -0.2453052379E-04   0.5150955272E-04  -0.2453052379E-04   0.7216904824E-01   0.1127760368E-05   0.2165105280E-01  -0.4678392936E-04   0.0000000000E+00   0.0000000000E+00   0.6567339407E-03  -0.2814490255E-03  -0.6081910817E-06   0.0000000000E+00   0.0000000000E+00   0.0000000000E+00   0.6414430382E-01
   0.2237422009E+00   0.2330769068E+00   0.6236094008E-04  -0.1966609174E-04   0.6236094008E-04  -0.1966609174E-04   0.6797892189E-01  -0.1811621448E-03   0.2033932792E-01  -0.6930694248E-03   0.0000000000E+00   0.0000000000E+00   0.6193147216E-03  -0.2667663709E-03  -0.9009902522E-05   0.0000000000E+00   0.0000000000E+00   0.0000000000E+00   0.6057804729E-01
   0.2140046356E+00   0.2499545512E+00   0.5787581347E-04  -0.2272439270E-04   0.5787581347E-04  -0.2272439270E-04   0.7164779600E-01   0.4379023285E-04   0.2150747587E-01  -0.2219160914E-03   0.0000000000E+00   0.0000000000E+00   0.6518241617E-03  -0.2790279133E-03  -0.2884909188E-05   0.0000000000E+00   0.0000000000E+00   0.0000000000E+00   0.6364705650E-01
   0.2432157034E+00   0.2330903827E+00   0.6834822368E-04  -0.1843414761E-04   0.6834822368E-04  -0.1843414761E-04   0.6713539154E-01  -0.6950158709E-04   0.2011976699E-01  -0.8405515659E-03   0.0000000000E+00   0.0000000000E+00   0.6112031192E-03  -0.2624604915E-03  -0.1092717036E-04   0.0000000000E+00   0.0000000000E+00   0.0000000000E+00   0.5974549093E-01
   0.2334616778E+00   0.2499574252E+00   0.6417189818E-04  -0.2128741004E-04   0.6417189818E-04  -0.2128741004E-04   0.7067309083E-01   0.7494440860E-04   0.2122441057E-01  -0.3126377929E-03   0.0000000000E+00   0.0000000000E+00   0.6428328434E-03  -0.2749430601E-03  -0.4064291308E-05   0.0000000000E+00   0.0000000000E+00   0.0000000000E+00   0.6275575186E-01
   0.2628521527E+00   0.2330286257E+00   0.7430734189E-04  -0.1749115819E-04   0.7430734189E-04  -0.1749115819E-04   0.6621288947E-01   0.1366927935E-04   0.1986796762E-01  -0.8479105204E-03   0.0000000000E+00   0.0000000000E+00   0.6024839840E-03  -0.2581058785E-03  -0.1102283677E-04   0.0000000000E+00   0.0000000000E+00   0.0000000000E+00   0.5885942469E-01
   0.2529185250E+00   0.2499596469E+00   0.7036998968E-04  -0.2017652559E-04   0.7036998968E-04  -0.2017652559E-04   0.6949970097E-01   0.1014280862E-03   0.2088033872E-01  -0.3319782910E-03   0.0000000000E+00   0.0000000000E+00   0.6320517093E-03  -0.2701258382E-03  -0.4315717783E-05   0.0000000000E+00   0.0000000000E+00   0.0000000000E+00   0.6169146870E-01
   0.2827372039E+00   0.2328312573E+00   0.8026194488E-04  -0.1678485799E-04   0.8026194488E-04  -0.1678485799E-04   0.6534205940E-01   0.7997906671E-04   0.1962661154E-01  -0.7478677929E-03   0.0000000000E+00   0.0000000000E+00   0.5943008222E-03  -0.2541062222E-03  -0.9722281308E-05   0.0000000000E+00   0.0000000000E+00   0.0000000000E+00   0.5802784548E-01
   0.2723751436E+00   0.2499613075E+00   0.7646129132E-04  -0.1934627401E-04   0.7646129132E-04  -0.1934627401E-04   0.6829789423E-01   0.1209372337E-03   0.2052564944E-01  -0.3023165082E-03   0.0000000000E+00   0.0000000000E+00   0.6210391823E-03  -0.2652612587E-03  -0.3930114606E-05   0.0000000000E+00   0.0000000000E+00   0.0000000000E+00   0.6060779204E-01
   0.3031299188E+00   0.2323145540E+00   0.8629639206E-04  -0.1625101137E-04   0.8629639206E-04  -0.1625101137E-04   0.6448626528E-01   0.1355598529E-03   0.1938654754E-01  -0.5874578162E-03   0.0000000000E+00   0.0000000000E+00   0.5862963307E-03  -0.2502628399E-03  -0.7636951611E-05   0.0000000000E+00   0.0000000000E+00   0.0000000000E+00   0.5721679735E-01
   0.2918315585E+00   0.2499624917E+00   0.8245076167E-04  -0.1875414357E-04   0.8245076167E-04  -0.1875414357E-04   0.6723684005E-01   0.1609238294E-03   0.2021932916E-01  -0.2408008364E-03   0.0000000000E+00   0.0000000000E+00   0.6112276415E-03  -0.2607592693E-03  -0.3130410874E-05   0.0000000000E+00   0.0000000000E+00   0.0000000000E+00   0.5963302878E-01
   0.1653698368E+00   0.1646623982E+00   0.5264492073E-04  -0.1610441091E-04   0.5264492073E-04  -0.1610441091E-04   0.6197461007E-01  -0.5453369997E-02   0.1695637202E-01  -0.1453681808E-02   0.0000000000E+00   0.0000000000E+00   0.5852370946E-03  -0.2913266462E-03  -0.1889786350E-04   0.0000000000E+00   0.0000000000E+00   0.0000000000E+00   0.5951101722E-01
   0.1554611198E+00   0.1822071452E+00   0.4731992262E-04  -0.1998588413E-04   0.4731992262E-04  -0.1998588413E-04   0.6442930142E-01  -0.4494992343E-02   0.1798029272E-01   0.9623331640E-03   0.0000000000E+00   0.0000000000E+00   0.6038371130E-03  -0.2921787058E-03   0.1251033113E-04   0.0000000000E+00   0.0000000000E+00   0.0000000000E+00   0.6089609996E-01
   0.1453306436E+00   0.1647849209E+00   0.4663629242E-04  -0.1884354062E-04   0.4663629242E-04  -0.1884354062E-04   0.6436632896E-01  -0.6596567438E-02   0.1733092846E-01   0.2891968898E-03   0.0000000000E+00   0.0000000000E+00   0.6114602065E-03  -0.3110574466E-03   0.3759559567E-05   0.0000000000E+00   0.0000000000E+00   0.0000000000E+00   0.6251875764E-01
   0.2251686325E+00   0.0000000000E+00   0.8431926674E-04   0.0000000000E+00   0.8431926674E-04   0.0000000000E+00   0.2579666824E-01   0.6379816808E-02   0.9652945515E-02  -0.8644044160E-03   0.0000000000E+00   0.0000000000E+00   0.2098683955E-03  -0.4255067319E-04  -0.1123725741E-04   0.0000000000E+00   0.0000000000E+00   0.0000000000E+00   0.1797918502E-01
   0.1615685590E+00   0.7204636234E-01   0.6945749155E-04  -0.3959729420E-05   0.6945749155E-04  -0.3959729420E-05   0.3497629500E-01  -0.6946304448E-02   0.8408997165E-02  -0.1387517810E-01   0.0000000000E+00   0.0000000000E+00   0.3453748718E-03  -0.1996189210E-03  -0.1803773154E-03   0.0000000000E+00   0.0000000000E+00   0.0000000000E+00   0.4385971222E-01
   0.1831911628E+00   0.7144318946E-01   0.7319340108E-04  -0.3153219885E-05   0.7319340108E-04  -0.3153219885E-05   0.3512882671E-01  -0.2316771008E-02   0.9843616711E-02  -0.1140658764E-01   0.0000000000E+00   0.0000000000E+00   0.3287077300E-03  -0.1580850403E-03  -0.1482856393E-03   0.0000000000E+00   0.0000000000E+00   0.0000000000E+00   0.3851623489E-01
   0.1726870644E+00   0.9033231080E-01   0.6765671972E-04  -0.5340149371E-05   0.6765671972E-04  -0.5340149371E-05   0.4328452004E-01  -0.5504942060E-02   0.1133387340E-01  -0.1121249663E-01   0.0000000000E+00   0.0000000000E+00   0.4153584064E-03  -0.2189046009E-03  -0.1457624562E-03   0.0000000000E+00   0.0000000000E+00   0.0000000000E+00   0.4712338737E-01
   0.1739784788E-01   0.2040228359E+00   0.4587189689E-05  -0.4493656316E-04   0.4587189689E-05  -0.4493656316E-04   0.6010632929E-01   0.4710510377E-02   0.1944505190E-01   0.2514547689E-02   0.0000000000E+00   0.0000000000E+00   0.5285966061E-03  -0.1915490398E-03   0.3268911995E-04   0.0000000000E+00   0.0000000000E+00   0.0000000000E+00   0.4994934919E-01
   0.0000000000E+00   0.1936610025E+00   0.0000000000E+00  -0.4449576948E-04   0.0000000000E+00  -0.4449576948E-04   0.6324899270E-01   0.6584258832E-02   0.2094997546E-01   0.1524522347E-02   0.0000000000E+00   0.0000000000E+00   0.5498872241E-03  -0.1867543162E-03   0.1981879051E-04   0.0000000000E+00   0.0000000000E+00   0.0000000000E+00   0.5106578646E-01
   0.1684262991E-01   0.1844405921E+00   0.4818757143E-05  -0.4308944962E-04   0.4818757143E-05  -0.4308944962E-04   0.6650865429E-01   0.7674626655E-02   0.2225498428E-01   0.2843983243E-02   0.0000000000E+00   0.0000000000E+00   0.5752977101E-03  -0.1895446492E-03   0.3697178216E-04   0.0000000000E+00   0.0000000000E+00   0.0000000000E+00   0.5338339494E-01
   0.0000000000E+00   0.1749144201E+00   0.0000000000E+00  -0.4278843599E-04   0.0000000000E+00  -0.4278843599E-04   0.6993583985E-01   0.1048742526E-01   0.2412697953E-01   0.1827932040E-02   0.0000000000E+00   0.0000000000E+00   0.5955151841E-03  -0.1773142055E-03   0.2376311652E-04   0.0000000000E+00   0.0000000000E+00   0.0000000000E+00   0.5398940478E-01
   0.1691741503E-01   0.1652416224E+00   0.5289017049E-05  -0.4127929360E-04   0.5289017049E-05  -0.4127929360E-04   0.7361376118E-01   0.1086637102E-01   0.2534403966E-01   0.2899932114E-02   0.0000000000E+00   0.0000000000E+00   0.6275063798E-03  -0.1882096923E-03   0.3769911748E-04   0.0000000000E+00   0.0000000000E+00   0.0000000000E+00   0.5719970968E-01
   0.3381723817E-01   0.1749084629E+00   0.1014538663E-04  -0.4058906859E-04   0.1014538663E-04  -0.4058906859E-04   0.7009085082E-01   0.7300670777E-02   0.2321745648E-01   0.5999554625E-02   0.0000000000E+00   0.0000000000E+00   0.6093541265E-03  -0.2069182141E-03   0.7799421013E-04   0.0000000000E+00   0.0000000000E+00   0.0000000000E+00   0.5749041107E-01
   0.3460881920E-01   0.1551647054E+00   0.1151145197E-04  -0.3842177743E-04   0.1151145197E-04  -0.3842177743E-04   0.7749230324E-01   0.9760398120E-02   0.2617581041E-01   0.5372625137E-02   0.0000000000E+00   0.0000000000E+00   0.6671144068E-03  -0.2134003597E-03   0.6984412679E-04   0.0000000000E+00   0.0000000000E+00   0.0000000000E+00   0.6194885061E-01
   0.3375284325E-01   0.1941687993E+00   0.9337173269E-05  -0.4258333161E-04   0.9337173269E-05  -0.4258333161E-04   0.6386266345E-01   0.4367321502E-02   0.2046899549E-01   0.5450870755E-02   0.0000000000E+00   0.0000000000E+00   0.5641176835E-03  -0.2093217618E-03   0.7086131981E-04   0.0000000000E+00   0.0000000000E+00   0.0000000000E+00   0.5412888731E-01
   0.5388182098E-01   0.1449427381E+00   0.1916509064E-04  -0.3383695617E-04   0.1916509064E-04  -0.3383695617E-04   0.7951065603E-01   0.4707011475E-02   0.2526530025E-01   0.5605295135E-02   0.0000000000E+00   0.0000000000E+00   0.7051896251E-03  -0.2672577541E-03   0.7286883675E-04   0.0000000000E+00   0.0000000000E+00   0.0000000000E+00   0.6766507020E-01
   0.9716425417E-01   0.2160614464E+00   0.2568378723E-04  -0.3482231031E-04   0.2568378723E-04  -0.3482231031E-04   0.6319473496E-01  -0.9519656563E-03   0.1867283079E-01   0.6001340994E-02   0.0000000000E+00   0.0000000000E+00   0.5787847542E-03  -0.2551223538E-03   0.7801743292E-04   0.0000000000E+00   0.0000000000E+00   0.0000000000E+00   0.5784299890E-01
   0.1418230549E+00   0.0000000000E+00   0.7819443345E-04   0.0000000000E+00   0.7819443345E-04   0.0000000000E+00   0.5132758662E-02  -0.8149346190E-02  -0.9049762581E-03  -0.5304851590E-02   0.0000000000E+00   0.0000000000E+00   0.7849055397E-04  -0.9417680911E-04  -0.6896307067E-04   0.0000000000E+00   0.0000000000E+00   0.0000000000E+00   0.1368352467E-01
   0.1522076006E+00   0.1778401177E-01   0.7771078703E-04  -0.7156151622E-06   0.7771078703E-04  -0.7156151622E-06   0.1142054406E-01  -0.4631342923E-02   0.2036760340E-02  -0.4256446018E-02   0.0000000000E+00   0.0000000000E+00   0.1219891883E-03  -0.8668534243E-04  -0.5533379824E-04   0.0000000000E+00   0.0000000000E+00   0.0000000000E+00   0.1635740925E-01
   0.1626582946E+00   0.0000000000E+00   0.7915031555E-04   0.0000000000E+00   0.7915031555E-04   0.0000000000E+00   0.1128384022E-01  -0.1986707389E-02   0.2789139848E-02  -0.2260258523E-02   0.0000000000E+00   0.0000000000E+00   0.1104311048E-03  -0.6208601408E-04  -0.2938336080E-04   0.0000000000E+00   0.0000000000E+00   0.0000000000E+00   0.1221853298E-01
   0.3501999940E+00   0.1153757810E+00   0.1000000000E-03  -0.4417510903E-05   0.1000000000E-03  -0.4417510903E-05   0.4539288731E-01   0.5003188165E-02   0.1511882264E-01  -0.2983021958E-04   0.0000000000E+00   0.0000000000E+00   0.3935628407E-03  -0.1315032482E-03  -0.3877928545E-06   0.0000000000E+00   0.0000000000E+00   0.0000000000E+00   0.3640024983E-01
   0.3501999940E+00   0.1346038099E+00   0.1000000000E-03  -0.5790553006E-05   0.1000000000E-03  -0.5790553006E-05   0.4862343820E-01   0.3905491566E-02   0.1575867893E-01  -0.1266739842E-04   0.0000000000E+00   0.0000000000E+00   0.4272418705E-03  -0.1540914357E-03  -0.1646761795E-06   0.0000000000E+00   0.0000000000E+00   0.0000000000E+00   0.4012583978E-01
   0.3334552125E+00   0.1442167789E+00   0.9628025520E-04  -0.6585067313E-05   0.9628025520E-04  -0.6585067313E-05   0.5031241460E-01   0.3321381839E-02   0.1609013893E-01  -0.8885787941E-03   0.0000000000E+00   0.0000000000E+00   0.4448895837E-03  -0.1659938422E-03  -0.1155152432E-04   0.0000000000E+00   0.0000000000E+00   0.0000000000E+00   0.4211384532E-01
   0.1623977039E+00   0.3474022056E-01   0.7654294237E-04  -0.1238768559E-05   0.7654294237E-04  -0.1238768559E-05   0.1949772635E-01  -0.2304450092E-02   0.5157982877E-02  -0.9345453198E-02   0.0000000000E+00   0.0000000000E+00   0.1864166651E-03  -0.9701162859E-04  -0.1214908916E-03   0.0000000000E+00   0.0000000000E+00   0.0000000000E+00   0.2509381598E-01
   0.1831722159E+00   0.3537047993E-01   0.7847193212E-04  -0.1026483295E-05   0.7847193212E-04  -0.1026483295E-05   0.2267899706E-01   0.7430420169E-03   0.7026611722E-02  -0.7875982268E-02   0.0000000000E+00   0.0000000000E+00   0.2034810093E-03  -0.8168640616E-04  -0.1023877695E-03   0.0000000000E+00   0.0000000000E+00   0.0000000000E+00   0.2382708464E-01
   0.1449442693E+00   0.3344218150E-01   0.7524513134E-04  -0.1729952182E-05   0.7524513134E-04  -0.1729952182E-05   0.1208415441E-01  -0.8115274647E-02   0.1190663929E-02  -0.1093935411E-01   0.0000000000E+00   0.0000000000E+00   0.1416153762E-03  -0.1209772015E-03  -0.1422116034E-03   0.0000000000E+00   0.0000000000E+00   0.0000000000E+00   0.2541665860E-01
   0.2140317998E+00   0.2161561972E+00   0.6090037777E-04  -0.1817339284E-04   0.6090037777E-04  -0.1817339284E-04   0.6553681276E-01  -0.5876565248E-03   0.1948474687E-01  -0.1140431576E-02   0.0000000000E+00   0.0000000000E+00   0.5986768566E-03  -0.2609412442E-03  -0.1482561049E-04   0.0000000000E+00   0.0000000000E+00   0.0000000000E+00   0.5875097720E-01
   0.2890628865E+00   0.3564666423E-01   0.9143323809E-04  -0.8669348658E-06   0.9143323809E-04  -0.8669348658E-06   0.3364186637E-01   0.8221552837E-02   0.1255902576E-01  -0.2056174146E-02   0.0000000000E+00   0.0000000000E+00   0.2740769279E-03  -0.5638714801E-04  -0.2673026390E-04   0.0000000000E+00   0.0000000000E+00   0.0000000000E+00   0.2381810942E-01
   0.2988301161E+00   0.5044952214E-01   0.9238457033E-04  -0.1315979293E-05   0.9238457033E-04  -0.1315979293E-05   0.3550074177E-01   0.8096734256E-02   0.1307924281E-01  -0.2160338961E-02   0.0000000000E+00   0.0000000000E+00   0.2914794866E-03  -0.6477261119E-04  -0.2808440649E-04   0.0000000000E+00   0.0000000000E+00   0.0000000000E+00   0.2554295854E-01
   0.3150400879E+00   0.5754345953E-01   0.9462544989E-04  -0.1553832960E-05   0.9462544989E-04  -0.1553832960E-05   0.3703722577E-01   0.8084848944E-02   0.1353662241E-01  -0.1612169453E-02   0.0000000000E+00   0.0000000000E+00   0.3055078436E-03  -0.7087305511E-04  -0.2095820289E-04   0.0000000000E+00   0.0000000000E+00   0.0000000000E+00   0.2679172910E-01
   0.6707511817E-01   0.1968877355E+00   0.1872318336E-04  -0.3794374760E-04   0.1872318336E-04  -0.3794374760E-04   0.6453725788E-01   0.7987022427E-03   0.1960078804E-01   0.7776429380E-02   0.0000000000E+00   0.0000000000E+00   0.5841741079E-03  -0.2444271153E-03   0.1010935819E-03   0.0000000000E+00   0.0000000000E+00   0.0000000000E+00   0.5831236872E-01
   0.4893615574E-01   0.2013769652E+00   0.1324767214E-04  -0.4139290783E-04   0.1324767214E-04  -0.4139290783E-04   0.6254044577E-01   0.2594276666E-02   0.1954041673E-01   0.7077975399E-02   0.0000000000E+00   0.0000000000E+00   0.5590003775E-03  -0.2202998208E-03   0.9201368019E-04   0.0000000000E+00   0.0000000000E+00   0.0000000000E+00   0.5490851315E-01
   0.7744389966E-01   0.2155852057E+00   0.2012497981E-04  -0.3837616541E-04   0.2012497981E-04  -0.3837616541E-04   0.6144073594E-01  -0.1000649904E-03   0.1840220129E-01   0.6626198882E-02   0.0000000000E+00   0.0000000000E+00   0.5595009505E-03  -0.2405294616E-03   0.8614058547E-04   0.0000000000E+00   0.0000000000E+00   0.0000000000E+00   0.5585197650E-01
   0.8762399430E-01   0.1993404878E+00   0.2456620184E-04  -0.3444661583E-04   0.2456620184E-04  -0.3444661583E-04   0.6497823197E-01  -0.1175826390E-02   0.1914072167E-01   0.7309363866E-02   0.0000000000E+00   0.0000000000E+00   0.5958876339E-03  -0.2641151248E-03   0.9502173025E-04   0.0000000000E+00   0.0000000000E+00   0.0000000000E+00   0.6004966264E-01
   0.1068339405E+00   0.1994248597E+00   0.3033774819E-04  -0.3079464044E-04   0.3033774819E-04  -0.3079464044E-04   0.6579434439E-01  -0.2210346708E-02   0.1907519931E-01   0.6220643076E-02   0.0000000000E+00   0.0000000000E+00   0.6073488861E-03  -0.2767120982E-03   0.8086835998E-04   0.0000000000E+00   0.0000000000E+00   0.0000000000E+00   0.6121049998E-01
   0.1120587271E+00   0.1455347338E+00   0.3915204637E-04  -0.2136358926E-04   0.3915204637E-04  -0.2136358926E-04   0.6919585817E-01  -0.8376905197E-02   0.1824568589E-01   0.1370984582E-02   0.0000000000E+00   0.0000000000E+00   0.6623522396E-03  -0.3460936841E-03   0.1782279957E-04   0.0000000000E+00   0.0000000000E+00   0.0000000000E+00   0.6824754730E-01
   0.1041465961E+00   0.1665253388E+00   0.3333553163E-04  -0.2642512143E-04   0.3333553163E-04  -0.2642512143E-04   0.6912518887E-01  -0.5655654082E-02   0.1904086044E-01   0.4927699926E-02   0.0000000000E+00   0.0000000000E+00   0.6510962696E-03  -0.3210546887E-03   0.6406009904E-04   0.0000000000E+00   0.0000000000E+00   0.0000000000E+00   0.6655000834E-01
   0.9071362039E-01   0.1517732740E+00   0.3100939411E-04  -0.2679951012E-04   0.3100939411E-04  -0.2679951012E-04   0.7198561708E-01  -0.4915842969E-02   0.2012093223E-01   0.5139571748E-02   0.0000000000E+00   0.0000000000E+00   0.6742409030E-03  -0.3254780776E-03   0.6681443272E-04   0.0000000000E+00   0.0000000000E+00   0.0000000000E+00   0.6843348776E-01
   0.9499069051E-01   0.9626857533E-01   0.4662820323E-04  -0.1609898710E-04   0.4662820323E-04  -0.1609898710E-04   0.6150724225E-01  -0.1048197187E-01   0.1530758111E-01  -0.1111282405E-01   0.0000000000E+00   0.0000000000E+00   0.6005955948E-03  -0.3352641888E-03  -0.1444667127E-03   0.0000000000E+00   0.0000000000E+00   0.0000000000E+00   0.6570056022E-01
   0.1090138015E+00   0.7684390551E-01   0.5789377345E-04  -0.1014989721E-04   0.5789377345E-04  -0.1014989721E-04   0.4031903712E-01  -0.1417304723E-01   0.7843796969E-02  -0.1544069210E-01   0.0000000000E+00   0.0000000000E+00   0.4221781220E-03  -0.2862189745E-03  -0.2007289973E-03   0.0000000000E+00   0.0000000000E+00   0.0000000000E+00   0.5443546334E-01
   0.1945609413E+00   0.2161316431E+00   0.5504312632E-04  -0.1992243394E-04   0.5504312632E-04  -0.1992243394E-04   0.6612834162E-01  -0.9470205780E-03   0.1955439631E-01  -0.4130951866E-03   0.0000000000E+00   0.0000000000E+00   0.6054612890E-03  -0.2665184196E-03  -0.5370237426E-05   0.0000000000E+00   0.0000000000E+00   0.0000000000E+00   0.5953604576E-01
   0.2252350682E+00   0.3586788130E-01   0.8312258372E-04  -0.8957992124E-06   0.8312258372E-04  -0.8957992124E-06   0.2876068399E-01   0.5276680673E-02   0.1021120940E-01  -0.4953144953E-02   0.0000000000E+00   0.0000000000E+00   0.2411431697E-03  -0.6414887345E-04  -0.6439088438E-04   0.0000000000E+00   0.0000000000E+00   0.0000000000E+00   0.2306221000E-01
   0.2463606431E+00   0.3605495514E-01   0.8574054102E-04  -0.8822801871E-06   0.8574054102E-04  -0.8822801871E-06   0.3097087376E-01   0.6575478915E-02   0.1126390580E-01  -0.3771868540E-02   0.0000000000E+00   0.0000000000E+00   0.2561905834E-03  -0.6094954954E-04  -0.4903429103E-04   0.0000000000E+00   0.0000000000E+00   0.0000000000E+00   0.2332876816E-01
   0.2741622358E+00   0.1830241232E+00   0.8039339853E-04  -0.1111640452E-04   0.8039339853E-04  -0.1111640452E-04   0.5797682355E-01   0.6739089652E-03   0.1759521976E-01  -0.2705870675E-02   0.0000000000E+00   0.0000000000E+00   0.5249608494E-03  -0.2199770403E-03  -0.3517631878E-04   0.0000000000E+00   0.0000000000E+00   0.0000000000E+00   0.5120684258E-01
   0.2335344181E+00   0.2161849235E+00   0.6669405328E-04  -0.1681125956E-04   0.6669405328E-04  -0.1681125956E-04   0.6479475289E-01  -0.2466084474E-03   0.1936444333E-01  -0.1546710725E-02   0.0000000000E+00   0.0000000000E+00   0.5905940242E-03  -0.2549436731E-03  -0.2010723943E-04   0.0000000000E+00   0.0000000000E+00   0.0000000000E+00   0.5784685682E-01
   0.3150677207E+00   0.2132714180E+00   0.9020285210E-04  -0.1374952002E-04   0.9020285210E-04  -0.1374952002E-04   0.6178883732E-01   0.4879676898E-03   0.1868304150E-01  -0.9036712746E-03   0.0000000000E+00   0.0000000000E+00   0.5603753456E-03  -0.2365359596E-03  -0.1174772657E-04   0.0000000000E+00   0.0000000000E+00   0.0000000000E+00   0.5455266521E-01
   0.3501999940E+00   0.1922853505E+00   0.1000000000E-03  -0.1117277250E-04   0.1000000000E-03  -0.1117277250E-04   0.5821979941E-01   0.1087192424E-02   0.1779209755E-01  -0.9687685524E-05   0.0000000000E+00   0.0000000000E+00   0.5255601242E-03  -0.2171637667E-03  -0.1259399118E-06   0.0000000000E+00   0.0000000000E+00   0.0000000000E+00   0.5088182178E-01
   0.2931228840E+00   0.2157998619E+00   0.8393648815E-04  -0.1442007428E-04   0.8393648815E-04  -0.1442007428E-04   0.6243922507E-01   0.2542044719E-03   0.1880802886E-01  -0.1365032499E-02   0.0000000000E+00   0.0000000000E+00   0.5672055507E-03  -0.2411997171E-03  -0.1774542249E-04   0.0000000000E+00   0.0000000000E+00   0.0000000000E+00   0.5534318688E-01
   0.3346602719E+00   0.2178694376E+00   0.9562597456E-04  -0.1413768225E-04   0.9562597456E-04  -0.1413768225E-04   0.6221295598E-01   0.3239852542E-03   0.1876108237E-01  -0.3704102820E-03   0.0000000000E+00   0.0000000000E+00   0.5648743569E-03  -0.2396822625E-03  -0.4815333666E-05   0.0000000000E+00   0.0000000000E+00   0.0000000000E+00   0.5504164250E-01
   0.5151483291E-01   0.1655558703E+00   0.1626210523E-04  -0.3687736825E-04   0.1626210523E-04  -0.3687736825E-04   0.7271361922E-01   0.4688923460E-02   0.2322076280E-01   0.7457520273E-02   0.0000000000E+00   0.0000000000E+00   0.6434071334E-03  -0.2409139115E-03   0.9694776354E-04   0.0000000000E+00   0.0000000000E+00   0.0000000000E+00   0.6228645893E-01
   0.2474784596E+00   0.9581026342E-01   0.8133278368E-04  -0.3751839124E-05   0.8133278368E-04  -0.3751839124E-05   0.4248055739E-01   0.3226668624E-02   0.1371216781E-01  -0.6084941112E-02   0.0000000000E+00   0.0000000000E+00   0.3739890647E-03  -0.1363114894E-03  -0.7910423446E-04   0.0000000000E+00   0.0000000000E+00   0.0000000000E+00   0.3674206145E-01
   0.2648870521E+00   0.8645787228E-01   0.8522856238E-04  -0.2979561731E-05   0.8522856238E-04  -0.2979561731E-05   0.3991676319E-01   0.4399555888E-02   0.1329489572E-01  -0.5011386777E-02   0.0000000000E+00   0.0000000000E+00   0.3460842770E-03  -0.1156394179E-03  -0.6514802810E-04   0.0000000000E+00   0.0000000000E+00   0.0000000000E+00   0.3316445929E-01
   0.2647413835E+00   0.1059495515E+00   0.8375575922E-04  -0.4235230529E-05   0.8375575922E-04  -0.4235230529E-05   0.4399670865E-01   0.3321600966E-02   0.1419549288E-01  -0.4944457146E-02   0.0000000000E+00   0.0000000000E+00   0.3874158049E-03  -0.1413605949E-03  -0.6427794290E-04   0.0000000000E+00   0.0000000000E+00   0.0000000000E+00   0.3746450371E-01
   0.3501999940E+00   0.2115117722E+00   0.1000000000E-03  -0.1334590767E-04   0.1000000000E-03  -0.1334590767E-04   0.6073963694E-01   0.4198018613E-03   0.1834783164E-01   0.1009778290E-03   0.0000000000E+00   0.0000000000E+00   0.5510934689E-03  -0.2330643871E-03   0.1312711777E-05   0.0000000000E+00   0.0000000000E+00   0.0000000000E+00   0.5365287051E-01
   0.3006982056E+00   0.2008221461E+00   0.8661280102E-04  -0.1252394443E-04   0.8661280102E-04  -0.1252394443E-04   0.6036081211E-01   0.7810753916E-03   0.1834256625E-01  -0.1636381200E-02   0.0000000000E+00   0.0000000000E+00   0.5462371962E-03  -0.2282993812E-03  -0.2127295560E-04   0.0000000000E+00   0.0000000000E+00   0.0000000000E+00   0.5310374305E-01
   0.2960458362E+00   0.1829817682E+00   0.8611209591E-04  -0.1061989748E-04   0.8611209591E-04  -0.1061989748E-04   0.5752616837E-01   0.1245413475E-02   0.1763147455E-01  -0.2077271266E-02   0.0000000000E+00   0.0000000000E+00   0.5186310196E-03  -0.2130187940E-03  -0.2700452646E-04   0.0000000000E+00   0.0000000000E+00   0.0000000000E+00   0.5026747346E-01
   0.2995811009E+00   0.1250385260E+00   0.8958096474E-04  -0.5272015348E-05   0.8958096474E-04  -0.5272015348E-05   0.4718230579E-01   0.3735728174E-02   0.1527541019E-01  -0.2869311160E-02   0.0000000000E+00   0.0000000000E+00   0.4147896428E-03  -0.1500158662E-03  -0.3730104508E-04   0.0000000000E+00   0.0000000000E+00   0.0000000000E+00   0.3929538815E-01
   0.2798951632E+00   0.5578477983E-01   0.8942511934E-04  -0.1510935844E-05   0.8942511934E-04  -0.1510935844E-05   0.3538334300E-01   0.7117332844E-02   0.1275020275E-01  -0.3298709499E-02   0.0000000000E+00   0.0000000000E+00   0.2942308233E-03  -0.7322730884E-04  -0.4288322348E-04   0.0000000000E+00   0.0000000000E+00   0.0000000000E+00   0.2654313055E-01
   0.2984292864E+00   0.6737227131E-01   0.9177918794E-04  -0.1932743700E-05   0.9177918794E-04  -0.1932743700E-05   0.3750763473E-01   0.6896224011E-02   0.1332115762E-01  -0.2672525477E-02   0.0000000000E+00   0.0000000000E+00   0.3144242024E-03  -0.8352413696E-04  -0.3474283120E-04   0.0000000000E+00   0.0000000000E+00   0.0000000000E+00   0.2833600460E-01
   0.3163580788E+00   0.1536939420E+00   0.9218840939E-04  -0.7496504528E-05   0.9218840939E-04  -0.7496504528E-05   0.5208273872E-01   0.2626007571E-02   0.1641262389E-01  -0.1665185801E-02   0.0000000000E+00   0.0000000000E+00   0.4637114928E-03  -0.1792260121E-03  -0.2164741541E-04   0.0000000000E+00   0.0000000000E+00   0.0000000000E+00   0.4430008335E-01
   0.2238309731E+00   0.1992476098E+00   0.6535154740E-04  -0.1529060226E-04   0.6535154740E-04  -0.1529060226E-04   0.6254779160E-01  -0.7735238287E-03   0.1853228033E-01  -0.2042782042E-02   0.0000000000E+00   0.0000000000E+00   0.5722016465E-03  -0.2509754541E-03  -0.2655616655E-04   0.0000000000E+00   0.0000000000E+00   0.0000000000E+00   0.5632191980E-01
   0.2043131047E+00   0.1991872297E+00   0.5972634615E-04  -0.1677364474E-04   0.5972634615E-04  -0.1677364474E-04   0.6340263165E-01  -0.1420048646E-02   0.1859477490E-01  -0.1432523674E-02   0.0000000000E+00   0.0000000000E+00   0.5825021377E-03  -0.2601927061E-03  -0.1862280776E-04   0.0000000000E+00   0.0000000000E+00   0.0000000000E+00   0.5754136857E-01
   0.2532348070E+00   0.2162004632E+00   0.7246601828E-04  -0.1576940575E-04   0.7246601828E-04  -0.1576940575E-04   0.6397980562E-01   0.6237624990E-05   0.1919581297E-01  -0.1669613327E-02   0.0000000000E+00   0.0000000000E+00   0.5821919044E-03  -0.2494644795E-03  -0.2170497325E-04   0.0000000000E+00   0.0000000000E+00   0.0000000000E+00   0.5693178862E-01
   0.1166822521E+00   0.2161695501E+00   0.3140355172E-04  -0.3123346478E-04   0.3140355172E-04  -0.3123346478E-04   0.6486118764E-01  -0.1364145655E-02   0.1904911260E-01   0.4896113271E-02   0.0000000000E+00   0.0000000000E+00   0.5955569756E-03  -0.2653723573E-03   0.6364947253E-04   0.0000000000E+00   0.0000000000E+00   0.0000000000E+00   0.5932961564E-01
   0.1458398457E+00   0.1992293399E+00   0.4226234506E-04  -0.2388903121E-04   0.4226234506E-04  -0.2388903121E-04   0.6566479921E-01  -0.3049247974E-02   0.1878466537E-01   0.2714408338E-02   0.0000000000E+00   0.0000000000E+00   0.6094417399E-03  -0.2838408735E-03   0.3528730839E-04   0.0000000000E+00   0.0000000000E+00   0.0000000000E+00   0.6098819645E-01
   0.1357348905E+00   0.1823063748E+00   0.4127874233E-04  -0.2306162498E-04   0.4127874233E-04  -0.2306162498E-04   0.6593285309E-01  -0.4819284595E-02   0.1833407055E-01   0.2975898224E-02   0.0000000000E+00   0.0000000000E+00   0.6187841731E-03  -0.3009936169E-03   0.3868667692E-04   0.0000000000E+00   0.0000000000E+00   0.0000000000E+00   0.6268182390E-01
   0.2041863818E+00   0.3564565346E-01   0.8069088099E-04  -0.9308689699E-06   0.8069088099E-04  -0.9308689699E-06   0.2606407216E-01   0.3550859623E-02   0.8884479534E-02  -0.6290896434E-02   0.0000000000E+00   0.0000000000E+00   0.2233347041E-03  -0.6933705885E-04  -0.8178165365E-04   0.0000000000E+00   0.0000000000E+00   0.0000000000E+00   0.2305695868E-01
   0.1750577395E+00   0.1821672643E+00   0.5316027313E-04  -0.1744785510E-04   0.5316027313E-04  -0.1744785510E-04   0.6301475511E-01  -0.3682992968E-02   0.1779952864E-01  -0.7124717873E-03   0.0000000000E+00   0.0000000000E+00   0.5877979441E-03  -0.2792727810E-03  -0.9262133235E-05   0.0000000000E+00   0.0000000000E+00   0.0000000000E+00   0.5897457036E-01
   0.1653391597E+00   0.1991839838E+00   0.4817684922E-04  -0.2104111738E-04   0.4817684922E-04  -0.2104111738E-04   0.6506571542E-01  -0.2709835519E-02   0.1870676397E-01   0.9825430830E-03   0.0000000000E+00   0.0000000000E+00   0.6026663689E-03  -0.2784157934E-03   0.1277306008E-04   0.0000000000E+00   0.0000000000E+00   0.0000000000E+00   0.6002408383E-01
   0.1848256022E+00   0.1991697013E+00   0.5400312350E-04  -0.1867586586E-04   0.5400312350E-04  -0.1867586586E-04   0.6429133971E-01  -0.2096129773E-02   0.1865856298E-01  -0.4280299880E-03   0.0000000000E+00   0.0000000000E+00   0.5932260975E-03  -0.2698110058E-03  -0.5564389844E-05   0.0000000000E+00   0.0000000000E+00   0.0000000000E+00   0.5882326121E-01
   0.1936735855E+00   0.5328949251E-01   0.7752574879E-04  -0.1763496775E-05   0.7752574879E-04  -0.1763496775E-05   0.2941599309E-01   0.8991982855E-03   0.9094557411E-02  -0.9168878988E-02   0.0000000000E+00   0.0000000000E+00   0.2641786638E-03  -0.1065396686E-03  -0.1191954268E-03   0.0000000000E+00   0.0000000000E+00   0.0000000000E+00   0.3002833176E-01
   0.2146481698E+00   0.5363201348E-01   0.8029392365E-04  -0.1614908091E-05   0.8029392365E-04  -0.1614908091E-05   0.3124084429E-01   0.3155603227E-02   0.1031893426E-01  -0.7400455302E-02   0.0000000000E+00   0.0000000000E+00   0.2719848305E-03  -0.9312330338E-04  -0.9620591893E-04   0.0000000000E+00   0.0000000000E+00   0.0000000000E+00   0.2836967381E-01
   0.2435266975E+00   0.1993163053E+00   0.7092973118E-04  -0.1415733287E-04   0.7092973118E-04  -0.1415733287E-04   0.6173371867E-01  -0.1929111118E-03   0.1846224227E-01  -0.2306680059E-02   0.0000000000E+00   0.0000000000E+00   0.5625291932E-03  -0.2425169939E-03  -0.2998684076E-04   0.0000000000E+00   0.0000000000E+00   0.0000000000E+00   0.5516841609E-01
   0.5026245923E-01   0.1848470740E+00   0.1457176330E-04  -0.3934548866E-04   0.1457176330E-04  -0.3934548866E-04   0.6688673593E-01   0.3507038469E-02   0.2111813232E-01   0.7529944178E-02   0.0000000000E+00   0.0000000000E+00   0.5949918469E-03  -0.2289442200E-03   0.9788927431E-04   0.0000000000E+00   0.0000000000E+00   0.0000000000E+00   0.5817155744E-01
   0.3158287398E+00   0.1729633822E+00   0.9149289683E-04  -0.9327413347E-05   0.9149289683E-04  -0.9327413347E-05   0.5547969177E-01   0.1777533022E-02   0.1717716744E-01  -0.1481143039E-02   0.0000000000E+00   0.0000000000E+00   0.4979328164E-03  -0.2001952474E-03  -0.1925485951E-04   0.0000000000E+00   0.0000000000E+00   0.0000000000E+00   0.4796757905E-01
   0.2985054912E+00   0.1762969698E-01   0.9301610573E-04  -0.4018609195E-06   0.9301610573E-04  -0.4018609195E-06   0.3285837552E-01   0.8862476101E-02   0.1251625549E-01  -0.7296369075E-03   0.0000000000E+00   0.0000000000E+00   0.2644475605E-03  -0.4749913202E-04  -0.9485279798E-05   0.0000000000E+00   0.0000000000E+00   0.0000000000E+00   0.2242706608E-01
   0.3085221942E+00   0.0000000000E+00   0.9442861150E-04   0.0000000000E+00   0.9442861150E-04   0.0000000000E+00   0.3307349449E-01   0.9235002655E-02   0.1269254914E-01  -0.2257234889E-03   0.0000000000E+00   0.0000000000E+00   0.2649522895E-03  -0.4494810435E-04  -0.2934405355E-05   0.0000000000E+00   0.0000000000E+00   0.0000000000E+00   0.2231251758E-01
   0.2661392616E+00   0.6955779842E-01   0.8657229915E-04  -0.2117191741E-05   0.8657229915E-04  -0.2117191741E-05   0.3705865036E-01   0.5981563651E-02   0.1291206420E-01  -0.4609351340E-02   0.0000000000E+00   0.0000000000E+00   0.3139056200E-03  -0.9009650717E-04  -0.5992156742E-04   0.0000000000E+00   0.0000000000E+00   0.0000000000E+00   0.2934018652E-01
   0.2469558568E+00   0.7419512984E-01   0.8319341711E-04  -0.2437228834E-05   0.8319341711E-04  -0.2437228834E-05   0.3729983570E-01   0.4411877560E-02   0.1251351398E-01  -0.5978277065E-02   0.0000000000E+00   0.0000000000E+00   0.3222221824E-03  -0.1053212734E-03  -0.7771760184E-04   0.0000000000E+00   0.0000000000E+00   0.0000000000E+00   0.3143645156E-01
   0.1722631212E+00   0.5294148182E-01   0.7479161473E-04  -0.2088391227E-05   0.7479161473E-04  -0.2088391227E-05   0.2694140157E-01  -0.2576590077E-02   0.7309443449E-02  -0.1126560862E-01   0.0000000000E+00   0.0000000000E+00   0.2552154556E-03  -0.1285184358E-03  -0.1464529121E-03   0.0000000000E+00   0.0000000000E+00   0.0000000000E+00   0.3262479817E-01
   0.2325594134E+00   0.8725273358E-01   0.7948320817E-04  -0.3383808425E-05   0.7948320817E-04  -0.3383808425E-05   0.3964081516E-01   0.2255455776E-02   0.1256888128E-01  -0.7323709219E-02   0.0000000000E+00   0.0000000000E+00   0.3519351404E-03  -0.1340745316E-03  -0.9520821985E-04   0.0000000000E+00   0.0000000000E+00   0.0000000000E+00   0.3575801278E-01
   0.2148844811E+00   0.8963004251E-01   0.7601407209E-04  -0.3853196070E-05   0.7601407209E-04  -0.3853196070E-05   0.4083517376E-01   0.2296829725E-03   0.1231945702E-01  -0.8666370471E-02   0.0000000000E+00   0.0000000000E+00   0.3707043177E-03  -0.1571670626E-03  -0.1126628161E-03   0.0000000000E+00   0.0000000000E+00   0.0000000000E+00   0.3908603636E-01
   0.2247638667E+00   0.7173053775E-01   0.7988335576E-04  -0.2500375409E-05   0.7988335576E-04  -0.2500375409E-05   0.3623263030E-01   0.2757459559E-02   0.1169702696E-01  -0.7618181222E-02   0.0000000000E+00   0.0000000000E+00   0.3189628435E-03  -0.1162143762E-03  -0.9903635588E-04   0.0000000000E+00   0.0000000000E+00   0.0000000000E+00   0.3279947301E-01
   0.2358425490E+00   0.5426576112E-01   0.8316748699E-04  -0.1554691318E-05   0.8316748699E-04  -0.1554691318E-05   0.3295725020E-01   0.4836200729E-02   0.1133803528E-01  -0.5780269841E-02   0.0000000000E+00   0.0000000000E+00   0.2810497940E-03  -0.8452384917E-04  -0.7514350794E-04   0.0000000000E+00   0.0000000000E+00   0.0000000000E+00   0.2740511456E-01
   0.7473677821E-01   0.1106041938E+00   0.3476655517E-04  -0.2359359881E-04   0.3476655517E-04  -0.2359359881E-04   0.7711769461E-01  -0.3390272963E-02   0.2211822649E-01  -0.5978351094E-02   0.0000000000E+00   0.0000000000E+00   0.7149930855E-03  -0.3316104929E-03  -0.7771856423E-04   0.0000000000E+00   0.0000000000E+00   0.0000000000E+00   0.7126484501E-01
   0.1263195888E+00   0.1993059015E+00   0.3629240136E-04  -0.2718226231E-04   0.3629240136E-04  -0.2718226231E-04   0.6595163185E-01  -0.2931368122E-02   0.1890607912E-01   0.4568301741E-02   0.0000000000E+00   0.0000000000E+00   0.6115921855E-03  -0.2838868141E-03   0.5938792263E-04   0.0000000000E+00   0.0000000000E+00   0.0000000000E+00   0.6147993248E-01
   0.1159037580E+00   0.1826876122E+00   0.3504800033E-04  -0.2665739471E-04   0.3504800033E-04  -0.2665739471E-04   0.6721967216E-01  -0.4296608070E-02   0.1887691923E-01   0.5148129591E-02   0.0000000000E+00   0.0000000000E+00   0.6284557882E-03  -0.3012558549E-03   0.6692568468E-04   0.0000000000E+00   0.0000000000E+00   0.0000000000E+00   0.6381650138E-01
   0.1488204387E+00   0.5214820056E-01   0.7196933986E-04  -0.2760472441E-05   0.7196933986E-04  -0.2760472441E-05   0.2505209448E-01  -0.6869348353E-02   0.5454823838E-02  -0.1294910253E-01   0.0000000000E+00   0.0000000000E+00   0.2547645183E-03  -0.1602142385E-03  -0.1683383330E-03   0.0000000000E+00   0.0000000000E+00   0.0000000000E+00   0.3587968487E-01
   0.7065407632E-01   0.1571943198E+00   0.2340075986E-04  -0.3200609809E-04   0.2340075986E-04  -0.3200609809E-04   0.7470580459E-01  -0.2122276078E-03   0.2234807310E-01   0.7072216214E-02   0.0000000000E+00   0.0000000000E+00   0.6806505095E-03  -0.2932839091E-03   0.9193881078E-04   0.0000000000E+00   0.0000000000E+00   0.0000000000E+00   0.6761708254E-01
   0.8503371758E-01   0.1701978628E+00   0.2666704170E-04  -0.3090309479E-04   0.2666704170E-04  -0.3090309479E-04   0.7034592523E-01  -0.2604168461E-02   0.2032252703E-01   0.7032223041E-02   0.0000000000E+00   0.0000000000E+00   0.6503041766E-03  -0.2980470414E-03   0.9141889954E-04   0.0000000000E+00   0.0000000000E+00   0.0000000000E+00   0.6577255122E-01
   0.8065890376E-01   0.1852872208E+00   0.2376287966E-04  -0.3390807866E-04   0.2376287966E-04  -0.3390807866E-04   0.6715199774E-01  -0.8161622566E-03   0.1990075065E-01   0.7971879671E-02   0.0000000000E+00   0.0000000000E+00   0.6142662123E-03  -0.2693198677E-03   0.1036344357E-03   0.0000000000E+00   0.0000000000E+00   0.0000000000E+00   0.6189475017E-01
   0.6750215446E-01   0.1766303486E+00   0.2043247854E-04  -0.3530071751E-04   0.2043247854E-04  -0.3530071751E-04   0.6934493197E-01   0.9987143436E-03   0.2110309390E-01   0.8201579956E-02   0.0000000000E+00   0.0000000000E+00   0.6271438950E-03  -0.2613569342E-03   0.1066205394E-03   0.0000000000E+00   0.0000000000E+00   0.0000000000E+00   0.6248046124E-01
   0.9665784633E-01   0.1838041741E+00   0.2887671452E-04  -0.3055244630E-04   0.2887671452E-04  -0.3055244630E-04   0.6772912834E-01  -0.2715569292E-02   0.1950406771E-01   0.7011124250E-02   0.0000000000E+00   0.0000000000E+00   0.6269257881E-03  -0.2888552811E-03   0.9114461525E-04   0.0000000000E+00   0.0000000000E+00   0.0000000000E+00   0.6353158781E-01
   0.2989782178E+00   0.1627344433E+00   0.8774239678E-04  -0.8526350248E-05   0.8774239678E-04  -0.8526350248E-05   0.5369591452E-01   0.1787490690E-02   0.1664502156E-01  -0.2402650637E-02   0.0000000000E+00   0.0000000000E+00   0.4816616084E-03  -0.1931479013E-03  -0.3123445828E-04   0.0000000000E+00   0.0000000000E+00   0.0000000000E+00   0.4649005908E-01
   0.2832988701E+00   0.1692408747E+00   0.8356104818E-04  -0.9441165863E-05   0.8356104818E-04  -0.9441165863E-05   0.5551006905E-01   0.1293032524E-02   0.1704093047E-01  -0.2751329706E-02   0.0000000000E+00   0.0000000000E+00   0.5000988015E-03  -0.2047226733E-03  -0.3576728618E-04   0.0000000000E+00   0.0000000000E+00   0.0000000000E+00   0.4854160534E-01
   0.2824959688E+00   0.1531850303E+00   0.8430741951E-04  -0.7864868203E-05   0.8430741951E-04  -0.7864868203E-05   0.5284644335E-01   0.1948662182E-02   0.1643853166E-01  -0.3236299516E-02   0.0000000000E+00   0.0000000000E+00   0.4733028519E-03  -0.1883683032E-03  -0.4207189370E-04   0.0000000000E+00   0.0000000000E+00   0.0000000000E+00   0.4576837486E-01
   0.2041331474E+00   0.7156672491E-01   0.7658920632E-04  -0.2722394025E-05   0.7658920632E-04  -0.2722394025E-05   0.3590200137E-01   0.6168252568E-03   0.1095564799E-01  -0.9457342723E-02   0.0000000000E+00   0.0000000000E+00   0.3243025939E-03  -0.1344046955E-03  -0.1229454554E-03   0.0000000000E+00   0.0000000000E+00   0.0000000000E+00   0.3544018308E-01
   0.2994447339E+00   0.1439919612E+00   0.8869097262E-04  -0.6802914340E-05   0.8869097262E-04  -0.6802914340E-05   0.5057142381E-01   0.2710887027E-02   0.1598469325E-01  -0.2665245556E-02   0.0000000000E+00   0.0000000000E+00   0.4496274972E-03  -0.1725594809E-03  -0.3464819223E-04   0.0000000000E+00   0.0000000000E+00   0.0000000000E+00   0.4304585900E-01
   0.2817962345E+00   0.7700151120E-01   0.8867076971E-04  -0.2414398213E-05   0.8867076971E-04  -0.2414398213E-05   0.3919196839E-01   0.6226780612E-02   0.1362562470E-01  -0.3772154330E-02   0.0000000000E+00   0.0000000000E+00   0.3323624679E-03  -0.9618497314E-04  -0.4903800630E-04   0.0000000000E+00   0.0000000000E+00   0.0000000000E+00   0.3066111502E-01
   0.1282618080E+00   0.8318724439E-01   0.5986700584E-04  -0.8121355960E-05   0.5986700584E-04  -0.8121355960E-05   0.4541504735E-01  -0.1248636150E-01   0.9878605756E-02  -0.1414171330E-01   0.0000000000E+00   0.0000000000E+00   0.4619737408E-03  -0.2907445743E-03  -0.1838422729E-03   0.0000000000E+00   0.0000000000E+00   0.0000000000E+00   0.5609276574E-01
   0.1284383508E+00   0.1031070986E+00   0.5403788878E-04  -0.1115918132E-04   0.5403788878E-04  -0.1115918132E-04   0.5496430664E-01  -0.1245434061E-01   0.1275298981E-01  -0.1053785418E-01   0.0000000000E+00   0.0000000000E+00   0.5487471188E-03  -0.3276952954E-03  -0.1369921043E-03   0.0000000000E+00   0.0000000000E+00   0.0000000000E+00   0.6178288319E-01
   0.1144518585E+00   0.9386363116E-01   0.5299026334E-04  -0.1183777201E-04   0.5299026334E-04  -0.1183777201E-04   0.5465056104E-01  -0.1192334769E-01   0.1281816401E-01  -0.1220437121E-01   0.0000000000E+00   0.0000000000E+00   0.5438211614E-03  -0.3216396520E-03  -0.1586568257E-03   0.0000000000E+00   0.0000000000E+00   0.0000000000E+00   0.6222719476E-01
   0.1945873005E+00   0.1821930436E+00   0.5881276988E-04  -0.1542118773E-04   0.5881276988E-04  -0.1542118773E-04   0.6164022353E-01  -0.2583330870E-02   0.1771706780E-01  -0.1937701959E-02   0.0000000000E+00   0.0000000000E+00   0.5710010245E-03  -0.2639051827E-03  -0.2519012547E-04   0.0000000000E+00   0.0000000000E+00   0.0000000000E+00   0.5695258301E-01
   0.2538380791E+00   0.1824195636E+00   0.7508055518E-04  -0.1171471631E-04   0.7508055518E-04  -0.1171471631E-04   0.5857499357E-01   0.2158586010E-03   0.1763725565E-01  -0.2913748276E-02   0.0000000000E+00   0.0000000000E+00   0.5321905929E-03  -0.2264781617E-03  -0.3787872759E-04   0.0000000000E+00   0.0000000000E+00   0.0000000000E+00   0.5213121141E-01
   0.2337267078E+00   0.1824514624E+00   0.6966939632E-04  -0.1264078109E-04   0.6966939632E-04  -0.1264078109E-04   0.5950158562E-01  -0.6186758997E-03   0.1766487292E-01  -0.2963416961E-02   0.0000000000E+00   0.0000000000E+00   0.5438772652E-03  -0.2376861346E-03  -0.3852442050E-04   0.0000000000E+00   0.0000000000E+00   0.0000000000E+00   0.5362389516E-01
   0.2514168866E+00   0.1519897728E+00   0.7697678851E-04  -0.8531081945E-05   0.7697678851E-04  -0.8531081945E-05   0.5377463830E-01   0.8136847756E-03   0.1637649692E-01  -0.4402837190E-02   0.0000000000E+00   0.0000000000E+00   0.4861758379E-03  -0.2023165579E-03  -0.5723688347E-04   0.0000000000E+00   0.0000000000E+00   0.0000000000E+00   0.4775615722E-01
   0.2346062405E+00   0.1494266206E+00   0.7312972711E-04  -0.8853209451E-05   0.7312972711E-04  -0.8853209451E-05   0.5361217565E-01  -0.5773993137E-03   0.1591043290E-01  -0.4950102728E-02   0.0000000000E+00   0.0000000000E+00   0.4901226558E-03  -0.2143418188E-03  -0.6435133547E-04   0.0000000000E+00   0.0000000000E+00   0.0000000000E+00   0.4887522837E-01
   0.2481922565E+00   0.1359740820E+00   0.7769774264E-04  -0.7046978892E-05   0.7769774264E-04  -0.7046978892E-05   0.5039947447E-01   0.8987048165E-03   0.1538945378E-01  -0.5169725471E-02   0.0000000000E+00   0.0000000000E+00   0.4551302688E-03  -0.1883797366E-03  -0.6720643112E-04   0.0000000000E+00   0.0000000000E+00   0.0000000000E+00   0.4497830910E-01
   0.7638744296E-01   0.1347153973E+00   0.2887862848E-04  -0.2722982892E-04   0.2887862848E-04  -0.2722982892E-04   0.7689717279E-01  -0.3062496552E-02   0.2215040287E-01   0.2363855932E-02   0.0000000000E+00   0.0000000000E+00   0.7117080090E-03  -0.3277676925E-03   0.3073012712E-04   0.0000000000E+00   0.0000000000E+00   0.0000000000E+00   0.7106323256E-01
   0.2141285874E+00   0.1823047564E+00   0.6430017819E-04  -0.1384230638E-04   0.6430017819E-04  -0.1384230638E-04   0.6043691955E-01  -0.1527115073E-02   0.1767294134E-01  -0.2624734103E-02   0.0000000000E+00   0.0000000000E+00   0.5559317167E-03  -0.2496007334E-03  -0.3412154334E-04   0.0000000000E+00   0.0000000000E+00   0.0000000000E+00   0.5512210937E-01
   0.2571617118E+00   0.5434917745E-01   0.8620592160E-04  -0.1502723491E-05   0.8620592160E-04  -0.1502723491E-05   0.3425104418E-01   0.6210392984E-02   0.1213843115E-01  -0.4559742195E-02   0.0000000000E+00   0.0000000000E+00   0.2874639694E-03  -0.7706449614E-04  -0.5927664854E-04   0.0000000000E+00   0.0000000000E+00   0.0000000000E+00   0.2680241700E-01
   0.2821516047E+00   0.9624479137E-01   0.8767582844E-04  -0.3452467152E-05   0.8767582844E-04  -0.3452467152E-05   0.4218013840E-01   0.4849186652E-02   0.1410879751E-01  -0.3962835820E-02   0.0000000000E+00   0.0000000000E+00   0.3649274315E-03  -0.1203749412E-03  -0.5151686565E-04   0.0000000000E+00   0.0000000000E+00   0.0000000000E+00   0.3436090613E-01
   0.1426249785E+00   0.7227094849E-01   0.6598425080E-04  -0.5217252584E-05   0.6598425080E-04  -0.5217252584E-05   0.3558114613E-01  -0.1009780789E-01   0.7645001474E-02  -0.1429652772E-01   0.0000000000E+00   0.0000000000E+00   0.3631698806E-03  -0.2306565217E-03  -0.1858548604E-03   0.0000000000E+00   0.0000000000E+00   0.0000000000E+00   0.4688680319E-01
   0.1247735991E+00   0.1649558908E+00   0.4019954422E-04  -0.2225162219E-04   0.4019954422E-04  -0.2225162219E-04   0.6678710912E-01  -0.6810286743E-02   0.1799304671E-01   0.2692034744E-02   0.0000000000E+00   0.0000000000E+00   0.6343228113E-03  -0.3224433349E-03   0.3499645168E-04   0.0000000000E+00   0.0000000000E+00   0.0000000000E+00   0.6500347507E-01
   0.2656961198E+00   0.1442487345E+00   0.8099339070E-04  -0.7385750085E-05   0.8099339070E-04  -0.7385750085E-05   0.5123020379E-01   0.1480827207E-02   0.1581330930E-01  -0.4131845854E-02   0.0000000000E+00   0.0000000000E+00   0.4604196284E-03  -0.1863222672E-03  -0.5371399610E-04   0.0000000000E+00   0.0000000000E+00   0.0000000000E+00   0.4493000913E-01
   0.2824403010E+00   0.1345778130E+00   0.8542649807E-04  -0.6212490076E-05   0.8542649807E-04  -0.6212490076E-05   0.4919026312E-01   0.2731645203E-02   0.1557657250E-01  -0.3620473990E-02   0.0000000000E+00   0.0000000000E+00   0.4369779781E-03  -0.1669840548E-03  -0.4706616188E-04   0.0000000000E+00   0.0000000000E+00   0.0000000000E+00   0.4202469059E-01
   0.2822941849E+00   0.1155333689E+00   0.8656145024E-04  -0.4730069929E-05   0.8656145024E-04  -0.4730069929E-05   0.4564057358E-01   0.3694956045E-02   0.1480065889E-01  -0.3874754872E-02   0.0000000000E+00   0.0000000000E+00   0.4009188910E-03  -0.1443741370E-03  -0.5037181333E-04   0.0000000000E+00   0.0000000000E+00   0.0000000000E+00   0.3823501369E-01
   0.2241423177E+00   0.1656164562E+00   0.6877135983E-04  -0.1118139800E-04   0.6877135983E-04  -0.1118139800E-04   0.5697804016E-01  -0.1282043571E-02   0.1670879898E-01  -0.3826362430E-02   0.0000000000E+00   0.0000000000E+00   0.5235001354E-03  -0.2338809531E-03  -0.4974271160E-04   0.0000000000E+00   0.0000000000E+00   0.0000000000E+00   0.5208970520E-01
   0.2436592041E+00   0.1660036938E+00   0.7378603568E-04  -0.1028712287E-04   0.7378603568E-04  -0.1028712287E-04   0.5616345195E-01  -0.2633228399E-03   0.1677003873E-01  -0.3822876879E-02   0.0000000000E+00   0.0000000000E+00   0.5121143719E-03  -0.2214337005E-03  -0.4969739943E-04   0.0000000000E+00   0.0000000000E+00   0.0000000000E+00   0.5056023188E-01
   0.1822527578E+00   0.1088760780E+00   0.6630689825E-04  -0.6921998310E-05   0.6630689825E-04  -0.6921998310E-05   0.4836617993E-01  -0.5376449731E-02   0.1289691906E-01  -0.9131162575E-02   0.0000000000E+00   0.0000000000E+00   0.4611003913E-03  -0.2375537943E-03  -0.1187051135E-03   0.0000000000E+00   0.0000000000E+00   0.0000000000E+00   0.4988412196E-01
   0.2057669270E+00   0.1120417213E+00   0.7106148492E-04  -0.6119867277E-05   0.7106148492E-04  -0.6119867277E-05   0.4721271708E-01  -0.2071377822E-02   0.1354240178E-01  -0.8025979582E-02   0.0000000000E+00   0.0000000000E+00   0.4377140990E-03  -0.2029791348E-03  -0.1043377346E-03   0.0000000000E+00   0.0000000000E+00   0.0000000000E+00   0.4578624461E-01
   0.1889583456E+00   0.1288737830E+00   0.6455128247E-04  -0.8924502956E-05   0.6455128247E-04  -0.8924502956E-05   0.5257646115E-01  -0.4683362815E-02   0.1436792950E-01  -0.7072757931E-02   0.0000000000E+00   0.0000000000E+00   0.4967109114E-03  -0.2476668001E-03  -0.9194585310E-04   0.0000000000E+00   0.0000000000E+00   0.0000000000E+00   0.5196738178E-01
   0.2649307248E+00   0.1642952066E+00   0.7930387870E-04  -0.9367702802E-05   0.7930387870E-04  -0.9367702802E-05   0.5518917380E-01   0.8857500133E-03   0.1682247715E-01  -0.3439714536E-02   0.0000000000E+00   0.0000000000E+00   0.4987670566E-03  -0.2071774527E-03  -0.4471628897E-04   0.0000000000E+00   0.0000000000E+00   0.0000000000E+00   0.4871387893E-01
   0.1938042667E+00   0.9046905147E-01   0.7186232587E-04  -0.4468315220E-05   0.7186232587E-04  -0.4468315220E-05   0.4211028596E-01  -0.2128762297E-02   0.1199445710E-01  -0.9915155107E-02   0.0000000000E+00   0.0000000000E+00   0.3915057752E-03  -0.1836018521E-03  -0.1288970164E-03   0.0000000000E+00   0.0000000000E+00   0.0000000000E+00   0.4274224246E-01
   0.1350941882E+00   0.1461439255E+00   0.4642809209E-04  -0.1740574678E-04   0.4642809209E-04  -0.1740574678E-04   0.6457509014E-01  -0.8751413992E-02   0.1674710284E-01  -0.1318162118E-02   0.0000000000E+00   0.0000000000E+00   0.6217638348E-03  -0.3314807189E-03  -0.1713610754E-04   0.0000000000E+00   0.0000000000E+00   0.0000000000E+00   0.6447990201E-01
   0.1851216520E+00   0.1648193647E+00   0.5829152026E-04  -0.1398214185E-04   0.5829152026E-04  -0.1398214185E-04   0.6006275404E-01  -0.4132785377E-02   0.1677899060E-01  -0.2805644918E-02   0.0000000000E+00   0.0000000000E+00   0.5626889247E-03  -0.2718530877E-03  -0.3647338393E-04   0.0000000000E+00   0.0000000000E+00   0.0000000000E+00   0.5690096894E-01
   0.1959680700E+00   0.1477868433E+00   0.6354247705E-04  -0.1083186603E-04   0.6354247705E-04  -0.1083186603E-04   0.5629053452E-01  -0.3759034640E-02   0.1575944996E-01  -0.5055045587E-02   0.0000000000E+00   0.0000000000E+00   0.5269040993E-03  -0.2537402999E-03  -0.6571559263E-04   0.0000000000E+00   0.0000000000E+00   0.0000000000E+00   0.5376624231E-01
   0.1762626852E+00   0.1463132526E+00   0.5845409821E-04  -0.1227719457E-04   0.5845409821E-04  -0.1227719457E-04   0.5789233952E-01  -0.5973814275E-02   0.1557555757E-01  -0.4512774094E-02   0.0000000000E+00   0.0000000000E+00   0.5501181653E-03  -0.2801418340E-03  -0.5866606322E-04   0.0000000000E+00   0.0000000000E+00   0.0000000000E+00   0.5679753484E-01
   0.9344621273E-01   0.1193978523E+00   0.3862141379E-04  -0.2061383980E-04   0.3862141379E-04  -0.2061383980E-04   0.7079292138E-01  -0.9644495151E-02   0.1834452787E-01  -0.3985616293E-02   0.0000000000E+00   0.0000000000E+00   0.6818291156E-03  -0.3638572992E-03  -0.5181301181E-04   0.0000000000E+00   0.0000000000E+00   0.0000000000E+00   0.7105040148E-01
   0.2046670619E+00   0.1652098310E+00   0.6363545411E-04  -0.1239698249E-04   0.6363545411E-04  -0.1239698249E-04   0.5850119231E-01  -0.2490708237E-02   0.1680314522E-01  -0.3625469251E-02   0.0000000000E+00   0.0000000000E+00   0.5420746121E-03  -0.2508200950E-03  -0.4713110027E-04   0.0000000000E+00   0.0000000000E+00   0.0000000000E+00   0.5435560875E-01
   0.2649668829E+00   0.1254088240E+00   0.8230293932E-04  -0.5731520663E-05   0.8230293932E-04  -0.5731520663E-05   0.4765076131E-01   0.2085520906E-02   0.1492088466E-01  -0.4671086157E-02   0.0000000000E+00   0.0000000000E+00   0.4254883964E-03  -0.1668597289E-03  -0.6072412004E-04   0.0000000000E+00   0.0000000000E+00   0.0000000000E+00   0.4149329681E-01
   0.2467536719E+00   0.1161021496E+00   0.7927895943E-04  -0.5294710601E-05   0.7927895943E-04  -0.5294710601E-05   0.4662975537E-01   0.1637944756E-02   0.1448031004E-01  -0.5760612488E-02   0.0000000000E+00   0.0000000000E+00   0.4179427893E-03  -0.1669507486E-03  -0.7488796235E-04   0.0000000000E+00   0.0000000000E+00   0.0000000000E+00   0.4137086005E-01
   0.2264285135E+00   0.1285717280E+00   0.7352473290E-04  -0.6998985108E-05   0.7352473290E-04  -0.6998985108E-05   0.4959600352E-01  -0.8425285219E-03   0.1462604250E-01  -0.6182093042E-02   0.0000000000E+00   0.0000000000E+00   0.4546094933E-03  -0.2010914233E-03  -0.8036720954E-04   0.0000000000E+00   0.0000000000E+00   0.0000000000E+00   0.4601879268E-01
   0.1260367056E+00   0.1249004916E+00   0.4783381875E-04  -0.1524317565E-04   0.4783381875E-04  -0.1524317565E-04   0.6297383350E-01  -0.1163614349E-01   0.1540130700E-01  -0.5310265962E-02   0.0000000000E+00   0.0000000000E+00   0.6184428445E-03  -0.3514868564E-03  -0.6903345750E-04   0.0000000000E+00   0.0000000000E+00   0.0000000000E+00   0.6603922189E-01
   0.1077123263E+00   0.1274211765E+00   0.4137965587E-04  -0.1898875257E-04   0.4137965587E-04  -0.1898875257E-04   0.6934732526E-01  -0.1026956585E-01   0.1772332782E-01  -0.2617395724E-02   0.0000000000E+00   0.0000000000E+00   0.6711119667E-03  -0.3639076177E-03  -0.3402614442E-04   0.0000000000E+00   0.0000000000E+00   0.0000000000E+00   0.7011492954E-01
   0.1109345688E+00   0.1108405748E+00   0.4680738592E-04  -0.1532161133E-04   0.4680738592E-04  -0.1532161133E-04   0.6157281001E-01  -0.1286860044E-01   0.1461126287E-01  -0.7376729762E-02   0.0000000000E+00   0.0000000000E+00   0.6105001128E-03  -0.3572382230E-03  -0.9589748691E-04   0.0000000000E+00   0.0000000000E+00   0.0000000000E+00   0.6633638932E-01
   0.9605423811E-01   0.1358433718E+00   0.3558995526E-04  -0.2295261923E-04   0.3558995526E-04  -0.2295261923E-04   0.7257028645E-01  -0.7811828192E-02   0.1942753748E-01   0.1215082033E-02   0.0000000000E+00   0.0000000000E+00   0.6908557366E-03  -0.3541117537E-03   0.1579606642E-04   0.0000000000E+00   0.0000000000E+00   0.0000000000E+00   0.7081484710E-01
   0.2289728729E+00   0.1049029732E+00   0.7681845799E-04  -0.4761891542E-05   0.7681845799E-04  -0.4761891542E-05   0.4430893506E-01   0.8321284919E-03   0.1354231906E-01  -0.7047482539E-02   0.0000000000E+00   0.0000000000E+00   0.3999660079E-03  -0.1652324774E-03  -0.9161727301E-04   0.0000000000E+00   0.0000000000E+00   0.0000000000E+00   0.4058353913E-01
   0.1558935601E+00   0.1460737102E+00   0.5271806216E-04  -0.1450088103E-04   0.5271806216E-04  -0.1450088103E-04   0.6140901777E-01  -0.7310002765E-02   0.1622970450E-01  -0.3273022871E-02   0.0000000000E+00   0.0000000000E+00   0.5873310725E-03  -0.3060161945E-03  -0.4254929732E-04   0.0000000000E+00   0.0000000000E+00   0.0000000000E+00   0.6070806220E-01
   0.2063987626E+00   0.1331214043E+00   0.6819878842E-04  -0.8432371108E-05   0.6819878842E-04  -0.8432371108E-05   0.5266086048E-01  -0.2895838593E-02   0.1492950657E-01  -0.6603562995E-02   0.0000000000E+00   0.0000000000E+00   0.4905076009E-03  -0.2317294871E-03  -0.8584631894E-04   0.0000000000E+00   0.0000000000E+00   0.0000000000E+00   0.5042423953E-01
   0.2151259166E+00   0.1483404672E+00   0.6842529390E-04  -0.9691376414E-05   0.6842529390E-04  -0.9691376414E-05   0.5508191467E-01  -0.1523473209E-02   0.1606753244E-01  -0.4885894424E-02   0.0000000000E+00   0.0000000000E+00   0.5071869690E-03  -0.2286830734E-03  -0.6351662752E-04   0.0000000000E+00   0.0000000000E+00   0.0000000000E+00   0.5086577315E-01
   0.1465587008E+00   0.1281208104E+00   0.5329341505E-04  -0.1285929642E-04   0.5329341505E-04  -0.1285929642E-04   0.5924647620E-01  -0.9375383155E-02   0.1496132791E-01  -0.5870355399E-02   0.0000000000E+00   0.0000000000E+00   0.5757069277E-03  -0.3163772439E-03  -0.7631462019E-04   0.0000000000E+00   0.0000000000E+00   0.0000000000E+00   0.6109649846E-01
   0.1670320823E+00   0.1253554477E+00   0.5951766449E-04  -0.1020212695E-04   0.5951766449E-04  -0.1020212695E-04   0.5556403593E-01  -0.7009884034E-02   0.1456624557E-01  -0.7017065570E-02   0.0000000000E+00   0.0000000000E+00   0.5329712747E-03  -0.2804896848E-03  -0.9122185242E-04   0.0000000000E+00   0.0000000000E+00   0.0000000000E+00   0.5636578071E-01
   0.1492533442E+00   0.9407452570E-01   0.6173808214E-04  -0.7357051614E-05   0.6173808214E-04  -0.7357051614E-05   0.4672689539E-01  -0.9924942834E-02   0.1104058577E-01  -0.1203101150E-01   0.0000000000E+00   0.0000000000E+00   0.4639220251E-03  -0.2725518718E-03  -0.1564031494E-03   0.0000000000E+00   0.0000000000E+00   0.0000000000E+00   0.5386664500E-01
   0.1539049648E+00   0.1132405775E+00   0.5846741680E-04  -0.9756240121E-05   0.5846741680E-04  -0.9756240121E-05   0.5386372430E-01  -0.1022357203E-01   0.1309204568E-01  -0.9400834172E-02   0.0000000000E+00   0.0000000000E+00   0.5300318221E-03  -0.3031030302E-03  -0.1222108442E-03   0.0000000000E+00   0.0000000000E+00   0.0000000000E+00   0.5846461497E-01
   0.1650260074E+00   0.1063759496E+00   0.6271819546E-04  -0.7833180590E-05   0.6271819546E-04  -0.7833180590E-05   0.4843699830E-01  -0.8137731389E-02   0.1208978007E-01  -0.9773871681E-02   0.0000000000E+00   0.0000000000E+00   0.4725138369E-03  -0.2629576490E-03  -0.1270603319E-03   0.0000000000E+00   0.0000000000E+00   0.0000000000E+00   0.5238840252E-01
   0.1408384560E+00   0.1126889948E+00   0.5509548119E-04  -0.1112807777E-04   0.5509548119E-04  -0.1112807777E-04   0.5754298224E-01  -0.1054379161E-01   0.1409975719E-01  -0.8304380146E-02   0.0000000000E+00   0.0000000000E+00   0.5647619256E-03  -0.3203661344E-03  -0.1079569419E-03   0.0000000000E+00   0.0000000000E+00   0.0000000000E+00   0.6123153722E-01
           1           2           3           3
           4           5           6           6
           7           8           9           9
          10          11          12          12
          13           7          14          14
          15          16          17          17
          18          19          10          10
          20          21          22          22
          23          24           2           2
          25          23           2           2
          26           3          27          27
          28          29          30          30
          31          32          33          33
          34          31          25          25
          35          36          20          20
          26          27           8           8
          37          15          17          17
          38          39          40          40
          41          40          42          42
          43          44          45          45
          46          47          41          41
          48          49          50          50
          51          52          53          53
          54          55          56          56
          57          58          59          59
          60          61          62          62
          63          64          57          57
          62          13          65          65
          66          67          68          68
          69          66          70          70
          71          72          73          73
          74          75          76          76
          75          77          78          78
          77          79          78          78
          80          53          48          48
          81          82          83          83
          45          84          85          85
          44          86          45          45
          87          88          44          44
          41          42          87          87
          36          89          21          21
          20          36          21          21
          35          30          90          90
          91           1          26          26
          92          93          30          30
           6          94          92          92
          95          96           4           4
          12          97          95          95
          98          12          95          95
          99         100          10          10
         101         102          99          99
         103         104         101         101
         105         106         103         103
         107         108         105         105
         109         110         107         107
         111         112         109         109
          69          70         111         111
           8          27           9           9
           7           9          14          14
          13          14          65          65
         113         114         115         115
          59          58         116         116
          51         116          52          52
          62          65          15          15
         117         118         119         119
         120         121         122         122
         122         123         124         124
          31          33          25          25
          25          33          23          23
          28          20         120         120
         124          32          31          31
         125         124         126         126
         124         123          32          32
         127         120         122         122
         122         121         123         123
         120          20          22          22
         120          22         121         121
          91         128          34          34
         129           4           6           6
          37          17         130         130
         131         132          63          63
          53          52          49          49
          85         133          83          83
          83         134         135         135
          51          59         116         116
          57          64          58          58
          19          99          10          10
         136          63         137         137
          63         132          64          64
         138          60          37          37
         131         130         132         132
          37          62          15          15
          37         130         131         131
         135         134          79          79
         139         103         101         101
          56          55          82          82
          83         133         134         134
          55          45          85          85
          85          84         133         133
         140          46         141         141
          45          86          84          84
         142          44          43          43
          44          88          86          86
          46          87         142         142
          87          42          88          88
          47          38          41          41
          41          38          40          40
         143          29         144         144
          30          93          90          90
         145          92          29          29
          92          94          93          93
         146         147         129         129
           6           5          94          94
         148         149         150         150
           4          96           5           5
         151           7         152         152
          95          97          96          96
          18          12          98          98
          12          11          97          97
         153         139         101         101
          10         100          11          11
         153          99          19          19
          99         102         100         100
         154          51         155         155
         101         104         102         102
         156          71          73          73
         103         106         104         104
         157         103         139         139
         105         108         106         106
          74          76         158         158
         107         110         108         108
          76          75         159         159
         109         112         110         110
         160         109          72          72
         111          70         112         112
         161          67          69          69
          69          67          66          66
         126         124          31          31
         128         162         126         126
         144          28         127         127
         125         127         122         122
         125         122         124         124
         143         146         145         145
          77         135          79          79
          75          78         159         159
          82          85          83          83
         163         164         165         165
          76         159         166         166
         167         168          74          74
          81          83         135         135
         169          56          82          82
          55          43          45          45
          55          85          82          82
         170         141         171         171
         142          87          44          44
         161          76         166         166
         158          69         111         111
         172         135          77          77
         173         139         174         174
         161         166          67          67
         158         161          69          69
          72         109         107         107
         175         107         105         105
         176          95           4           4
         152           7          13          13
         145           6          92          92
         114         177         178         178
          18          10          12          12
         154          59          51          51
         153         101          99          99
         179         137          57          57
         114         180         181         181
         181         182          19          19
         183         179         184         184
         174         153         182         182
         173         185         157         157
         157         105         103         103
          29          92          30          30
         186         127         125         125
          35          90          36          36
          28          35          20          20
         186         144         127         127
         145         129           6           6
         176          98          95          95
         176           4         129         129
         175          72         107         107
         175         105         157         157
          74         187          75          75
         160         111         109         109
           1          25           2           2
           1           3          26          26
          48          53          49          49
         188          48          50          50
         188          50         189         189
          47         188         189         189
         155          51          53          53
         190         164         191         191
         137          63          57          57
         179          57          59          59
         154         179          59          59
         183         192         137         137
         193         194         195         195
         196         184         154         154
          60          62          37          37
         136         131          63          63
          47         189          38          38
          46          41          87          87
          28          30          35          35
          28         120         127         127
         141          46         142         142
          46         188          47          47
         197          26           8           8
         151           8           7           7
         178         198         199         199
          61         152          13          13
          61          13          62          62
         200         136         192         192
         198         176         147         147
         151         197           8           8
          34         126          31          31
          34          25           1           1
         158          76         161         161
         158         111         160         160
         144          29          28          28
         162         125         126         126
         162         186         125         125
         201         162         128         128
         128         126          34          34
         202         203         204         204
         140         188          46          46
         171         142          43          43
          91          34           1           1
         205         199         147         147
         168         206         187         187
         187          77          75          75
         167         158         160         160
         207         208         206         206
         169          82          81          81
         195         209         184         184
         210          81         172         172
         173         157         139         139
         190         170         211         211
          54          43          55          55
         171         141         142         142
         171          43          54          54
         172          81         135         135
         172          77         187         187
         182         153          19          19
         181          19          18          18
         147         176         129         129
         146         129         145         145
         177          18          98          98
         212         213         214         214
         143         145          29          29
         204         203         143         143
          73          72         175         175
         185         175         157         157
         215         182         180         180
         174         139         153         153
         216         185         217         217
         185          73         175         175
         198          98         176         176
         199         198         147         147
         167          71         168         168
          71         160          72          72
         177         181          18          18
         177          98         198         198
         215         174         182         182
         218         219         220         220
         143         144         186         186
         202         204         201         201
          91          26         197         197
         221          91         197         197
          80         155          53          53
         140          80          48          48
         184         179         154         154
         196         154         155         155
         192         136         137         137
         183         137         179         179
         215         222         174         174
         209         118         183         183
         223         155          80          80
         224          54          56          56
         138          37         131         131
         138         200          60          60
         140          48         188         188
         170         140         141         141
         170          80         140         140
         211          54         224         224
         225          61         200         200
         200          61          60          60
         221         128          91          91
         149         226         199         199
         227         228         208         208
         206         172         187         187
         229          56         169         169
         229         224          56          56
         211         170         171         171
         211         171          54          54
         168         187          74          74
         156         168          71          71
         228         169         210         210
         217         185         173         173
         210         169          81          81
         210         172         206         206
         167          74         158         158
         167         160          71          71
         222         173         174         174
         230         231         217         217
         205         147         146         146
         226         178         199         199
         232         233         234         234
         178         177         198         198
         235         156         216         216
         216          73         185         185
         207         168         156         156
         156          73         216         216
         180         182         181         181
         114         181         177         177
         203         205         146         146
         150         202         201         201
         194         236         209         209
         222         217         173         173
         115         178         226         226
         237         115         226         226
         203         146         143         143
         204         143         186         186
         238         180         113         113
         239         238         240         240
         221         201         128         128
         241         197         151         151
         223         196         155         155
         223          80         170         170
         118         192         183         183
         209         183         184         184
         195         184         196         196
         242         215         238         238
         191         196         223         223
         165         164         224         224
         204         186         162         162
         204         162         201         201
         227         208         235         235
         208         210         206         206
         164         211         224         224
         165         224         229         229
         243         229         228         228
         244         220         245         245
         207         206         168         168
         235         207         156         156
         149         199         205         205
         246         148         247         247
         231         216         217         217
         230         217         222         222
         138         131         136         136
         138         136         200         200
         235         208         207         207
         235         216         231         231
         213         248         214         214
         115         114         178         178
         202         149         205         205
         249         221         241         241
         242         222         215         215
         250         244         245         245
         202         205         203         203
         150         201         221         221
         251         115         237         237
         113         180         114         114
         240         113         251         251
         238         215         180         180
         252         233         245         245
         242         230         222         222
         228         229         169         169
         228         210         208         208
         191         195         196         196
         190         191         223         223
         236         118         209         209
         194         209         195         195
         193         195         191         191
         253         219         230         230
         190         223         170         170
         190         211         164         164
         241         221         197         197
         150         149         202         202
         248         241         151         151
         249         148         150         150
         218         235         231         231
         218         220         227         227
         148         237         226         226
         254         251         237         237
         148         226         149         149
         246         247         248         248
         219         231         230         230
         253         230         242         242
         255         251         254         254
         251         113         115         115
         239         242         238         238
         252         245         253         253
         234         252         239         239
         240         238         113         113
         234         240         255         255
         239         253         242         242
         243         165         229         229
         243         228         227         227
         163         191         164         164
         244         243         220         220
         225         212          61          61
         119         118         236         236
         249         150         221         221
         247         249         241         241
         233         236         194         194
         250         245         233         233
         214         151         152         152
         256         213         212         212
         247         148         249         249
         247         241         248         248
         220         243         227         227
         245         220         219         219
         213         246         248         248
         246         237         148         148
         257         255         254         254
         254         237         246         246
         245         219         253         253
         250         233         194         194
         163         244         250         250
         244         165         243         243
         232         234         255         255
         255         240         251         251
         252         253         239         239
         234         239         240         240
         258         255         257         257
         234         233         252         252
         232         119         236         236
         232         236         233         233
         250         194         193         193
         163         250         193         193
         117         200         192         192
         117         192         118         118
         218         227         235         235
         218         231         219         219
         214         248         151         151
         212         214         152         152
         259         256         257         257
         259         246         213         213
         212         152          61          61
         225         256         212         212
         258         257         256         256
         259         257         254         254
         163         193         191         191
         163         165         244         244
         256         117         119         119
         258         256         119         119
         259         254         246         246
         259         213         256         256
         258         119         232         232
         258         232         255         255
         225         200         117         117
         225         117         256         256
 VARIABLES = X,Y,DU1,DU2,U1,U2,S11,S22,S33,S12,S13,S23,E11,E22,E12,E33,E13,E23,SMISES
 ZONE, T="0.3000D+01" F=FEPOINT, I=  259 J=  457
   0.3711467463E-01   0.1123368064E+00   0.1941201151E-04  -0.3282987469E-04   0.3882402303E-04  -0.6565974937E-04   0.1580963755E+00   0.1671176642E-01   0.5244244257E-01  -0.1803146201E-01   0.0000000000E+00   0.0000000000E+00   0.1373501128E-02  -0.4644987899E-03  -0.2344090061E-03   0.0000000000E+00   0.0000000000E+00   0.0000000000E+00   0.1308281578E+00
   0.1955309944E-01   0.9798153505E-01   0.1468901177E-04  -0.3233051595E-04   0.2937802353E-04  -0.6466103191E-04   0.2117493828E+00   0.2183246924E-01   0.7007455560E-01  -0.2452858602E-01   0.0000000000E+00   0.0000000000E+00   0.1841772753E-02  -0.6271471227E-03  -0.3188716183E-03   0.0000000000E+00   0.0000000000E+00   0.0000000000E+00   0.1760033247E+00
   0.3835560779E-01   0.9230022506E-01   0.2908839679E-04  -0.2924228052E-04   0.5817679358E-04  -0.5848456103E-04   0.1963905690E+00   0.3393997013E-01   0.6909916173E-01  -0.5045907382E-01   0.0000000000E+00   0.0000000000E+00   0.1654788294E-02  -0.4570694908E-03  -0.6559679597E-03   0.0000000000E+00   0.0000000000E+00   0.0000000000E+00   0.1707316780E+00
   0.1069891723E+00   0.2330153044E+00   0.2644377234E-04  -0.3516485853E-04   0.5288754467E-04  -0.7032971706E-04   0.9444260761E-01  -0.6208332832E-03   0.2814653230E-01   0.4815771019E-02   0.0000000000E+00   0.0000000000E+00   0.8618489790E-03  -0.3739757525E-03   0.6260502324E-04   0.0000000000E+00   0.0000000000E+00   0.0000000000E+00   0.8488228536E-01
   0.9728580147E-01   0.2498832208E+00   0.2119252365E-04  -0.3892640651E-04   0.4238504730E-04  -0.7785281302E-04   0.9014866512E-01  -0.2416797778E-03   0.2697209560E-01   0.2287139144E-02   0.0000000000E+00   0.0000000000E+00   0.8212954037E-03  -0.3537790799E-03   0.2973280888E-04   0.0000000000E+00   0.0000000000E+00   0.0000000000E+00   0.8034727230E-01
   0.8743212291E-01   0.2329101156E+00   0.2098553643E-04  -0.3866714709E-04   0.4197107286E-04  -0.7733429418E-04   0.8968503360E-01  -0.2906187486E-03   0.2681832446E-01   0.5516455421E-02   0.0000000000E+00   0.0000000000E+00   0.8172672189E-03  -0.3524162617E-03   0.7171392047E-04   0.0000000000E+00   0.0000000000E+00   0.0000000000E+00   0.8055662044E-01
   0.8890010438E-01   0.7376258017E-01   0.5497542748E-04  -0.1458594200E-04   0.1099508550E-03  -0.2917188400E-04   0.5712608945E-01  -0.7570458729E-02   0.1486668922E-01  -0.2178525981E-01   0.0000000000E+00   0.0000000000E+00   0.5493722031E-03  -0.2916829233E-03  -0.2832083776E-03   0.0000000000E+00   0.0000000000E+00   0.0000000000E+00   0.6852345676E-01
   0.7342370791E-01   0.8908224841E-01   0.4355673570E-04  -0.2084923025E-04   0.8711347139E-04  -0.4169846051E-04   0.9013055939E-01   0.2843524223E-02   0.2789222508E-01  -0.2731636461E-01   0.0000000000E+00   0.0000000000E+00   0.8090983460E-03  -0.3256331112E-03  -0.3551127399E-03   0.0000000000E+00   0.0000000000E+00   0.0000000000E+00   0.9232250704E-01
   0.7087289487E-01   0.7064860445E-01   0.5407115790E-04  -0.2069231709E-04   0.1081423158E-03  -0.4138463418E-04   0.5784504122E-01   0.1811805453E-01   0.2278892872E-01  -0.3050607728E-01   0.0000000000E+00   0.0000000000E+00   0.4557294624E-03  -0.6072136455E-04  -0.3965790046E-03   0.0000000000E+00   0.0000000000E+00   0.0000000000E+00   0.6196026560E-01
   0.1654057204E+00   0.2330299037E+00   0.4411246148E-04  -0.2566909036E-04   0.8822492295E-04  -0.5133818072E-04   0.1027278491E+00  -0.8152182989E-03   0.3057378925E-01   0.1265289871E-02   0.0000000000E+00   0.0000000000E+00   0.9380027783E-03  -0.4080570981E-03   0.1644876832E-04   0.0000000000E+00   0.0000000000E+00   0.0000000000E+00   0.9198508068E-01
   0.1556719614E+00   0.2499119634E+00   0.3880011876E-04  -0.2934553547E-04   0.7760023753E-04  -0.5869107094E-04   0.1061171086E+00  -0.1399251995E-03   0.3179315502E-01   0.8148091183E-03   0.0000000000E+00   0.0000000000E+00   0.9662113967E-03  -0.4151300429E-03   0.1059251854E-04   0.0000000000E+00   0.0000000000E+00   0.0000000000E+00   0.9443179173E-01
   0.1459404189E+00   0.2330328706E+00   0.3807095796E-04  -0.2851478869E-04   0.7614191591E-04  -0.5702957738E-04   0.1011467510E+00  -0.8850862984E-03   0.3007849943E-01   0.2494418987E-02   0.0000000000E+00   0.0000000000E+00   0.9238872711E-03  -0.4025266144E-03   0.3242744684E-04   0.0000000000E+00   0.0000000000E+00   0.0000000000E+00   0.9071855163E-01
   0.1020096741E+00   0.5680555546E-01   0.6457102540E-04  -0.9188814991E-05   0.1291420508E-03  -0.1837762998E-04   0.3285532228E-01  -0.1799015572E-01   0.4459549966E-02  -0.1633805492E-01   0.0000000000E+00   0.0000000000E+00   0.3691450401E-03  -0.2918461740E-03  -0.2123947140E-03   0.0000000000E+00   0.0000000000E+00   0.0000000000E+00   0.5241071151E-01
   0.8333732150E-01   0.5551066723E-01   0.6345400012E-04  -0.1545215750E-04   0.1269080002E-03  -0.3090431500E-04   0.1659005964E-01  -0.1502357644E-01   0.4699449597E-03  -0.7500734152E-02   0.0000000000E+00   0.0000000000E+00   0.2095614909E-03  -0.2014157783E-03  -0.9750954397E-04   0.0000000000E+00   0.0000000000E+00   0.0000000000E+00   0.3282818041E-01
   0.9830304756E-01   0.1949463420E-01   0.7484032045E-04  -0.4799400208E-05   0.1496806409E-03  -0.9598800417E-05  -0.3759238285E-02  -0.5821803225E-01  -0.1859318116E-01   0.2228064706E-02   0.0000000000E+00   0.0000000000E+00   0.1928412574E-03  -0.5151230642E-03   0.2896484117E-04   0.0000000000E+00   0.0000000000E+00   0.0000000000E+00   0.4942256492E-01
   0.1002257174E+00   0.0000000000E+00   0.7523880562E-04   0.0000000000E+00   0.1504776112E-03   0.0000000000E+00   0.5871637801E-02  -0.1088776321E+00  -0.3090179830E-01  -0.3675124875E-02   0.0000000000E+00   0.0000000000E+00   0.4780546692E-03  -0.1013685840E-02  -0.4777662338E-04   0.0000000000E+00   0.0000000000E+00   0.0000000000E+00   0.1004572113E+00
   0.1210658384E+00   0.0000000000E+00   0.7750281467E-04   0.0000000000E+00   0.1550056293E-03   0.0000000000E+00  -0.2750239528E-02  -0.4619129942E-01  -0.1468246168E-01   0.6349421155E-03   0.0000000000E+00   0.0000000000E+00   0.1551188880E-03  -0.4096148905E-03   0.8254247502E-05   0.0000000000E+00   0.0000000000E+00   0.0000000000E+00   0.4030109046E-01
   0.1556654288E+00   0.2161209189E+00   0.4318394341E-04  -0.2474904393E-04   0.8636788682E-04  -0.4949808785E-04   0.9967193040E-01  -0.2322477506E-02   0.2920483587E-01   0.2974580377E-02   0.0000000000E+00   0.0000000000E+00   0.9160722289E-03  -0.4098550738E-03   0.3866954490E-04   0.0000000000E+00   0.0000000000E+00   0.0000000000E+00   0.9058691999E-01
   0.1751396446E+00   0.2161125682E+00   0.4912721475E-04  -0.2210861187E-04   0.9825442951E-04  -0.4421722374E-04   0.9971273597E-01  -0.1941182632E-02   0.2933146600E-01   0.9607160165E-03   0.0000000000E+00   0.0000000000E+00   0.9149565096E-03  -0.4065444322E-03   0.1248930822E-04   0.0000000000E+00   0.0000000000E+00   0.0000000000E+00   0.9019149369E-01
   0.1753045053E-01   0.2243955365E+00   0.4126342857E-05  -0.4690115214E-04   0.8252685715E-05  -0.9380230429E-04   0.8113748040E-01   0.2481700865E-02   0.2508575438E-01   0.2211148244E-02   0.0000000000E+00   0.0000000000E+00   0.7286724382E-03  -0.2938526957E-03   0.2874492717E-04   0.0000000000E+00   0.0000000000E+00   0.0000000000E+00   0.7036454049E-01
   0.0000000000E+00   0.2311059018E+00   0.0000000000E+00  -0.4803372350E-04   0.0000000000E+00  -0.9606744699E-04   0.7088002627E-01   0.2009258952E-02   0.2186678557E-01   0.5112271255E-03   0.0000000000E+00   0.0000000000E+00   0.6371721291E-03  -0.2581478460E-03   0.6645952631E-05   0.0000000000E+00   0.0000000000E+00   0.0000000000E+00   0.6145365501E-01
   0.0000000000E+00   0.2123611709E+00   0.0000000000E+00  -0.4627835925E-04   0.0000000000E+00  -0.9255671850E-04   0.8469999753E-01   0.4789614347E-02   0.2684688356E-01   0.2544092676E-02   0.0000000000E+00   0.0000000000E+00   0.7520904816E-03  -0.2867444998E-03   0.3307320479E-04   0.0000000000E+00   0.0000000000E+00   0.0000000000E+00   0.7159095236E-01
   0.0000000000E+00   0.1186385789E+00   0.0000000000E+00  -0.3714004802E-04   0.0000000000E+00  -0.7428009604E-04   0.2008986199E+00   0.2107114528E-01   0.6659092956E-01  -0.5738525851E-02   0.0000000000E+00   0.0000000000E+00   0.1745999975E-02  -0.5917571956E-03  -0.7460083607E-04   0.0000000000E+00   0.0000000000E+00   0.0000000000E+00   0.1634267692E+00
   0.0000000000E+00   0.9990550213E-01   0.0000000000E+00  -0.3149962457E-04   0.0000000000E+00  -0.6299924914E-04   0.2976840089E+00  -0.3792956245E-02   0.8816731579E-01  -0.1532266888E-02   0.0000000000E+00   0.0000000000E+00   0.2723717010E-02  -0.1195483536E-02  -0.1991946954E-04   0.0000000000E+00   0.0000000000E+00   0.0000000000E+00   0.2651646260E+00
   0.1826087423E-01   0.1244616278E+00   0.8175276058E-05  -0.3684340132E-04   0.1635055212E-04  -0.7368680264E-04   0.1464805625E+00   0.2077168255E-01   0.5017567353E-01  -0.6080508277E-02   0.0000000000E+00   0.0000000000E+00   0.1251963557E-02  -0.3822518827E-03  -0.7904660760E-04   0.0000000000E+00   0.0000000000E+00   0.0000000000E+00   0.1147899027E+00
   0.5567929568E-01   0.1017195870E+00   0.3139192580E-04  -0.2726465151E-04   0.6278385159E-04  -0.5452930301E-04   0.1236304271E+00   0.7274830865E-02   0.3927157740E-01  -0.2616854515E-01   0.0000000000E+00   0.0000000000E+00   0.1096665047E-02  -0.4159577050E-03  -0.3401910869E-03   0.0000000000E+00   0.0000000000E+00   0.0000000000E+00   0.1142988195E+00
   0.5568448083E-01   0.8307072051E-01   0.4248571004E-04  -0.2541299733E-04   0.8497142008E-04  -0.5082599465E-04   0.1225073640E+00   0.3493412513E-01   0.4723244675E-01  -0.5061828982E-01   0.0000000000E+00   0.0000000000E+00   0.9785739245E-03  -0.1598781809E-03  -0.6580377677E-03   0.0000000000E+00   0.0000000000E+00   0.0000000000E+00   0.1169802273E+00
   0.3654253130E-01   0.2152822081E+00   0.9197800863E-05  -0.4450264583E-04   0.1839560173E-04  -0.8900529167E-04   0.8591755652E-01   0.3056370586E-02   0.2669217813E-01   0.6937487696E-02   0.0000000000E+00   0.0000000000E+00   0.7699299191E-03  -0.3072654981E-03   0.9018734005E-04   0.0000000000E+00   0.0000000000E+00   0.0000000000E+00   0.7490508828E-01
   0.5765448568E-01   0.2157600256E+00   0.1468032773E-04  -0.4170714757E-04   0.2936065546E-04  -0.8341429513E-04   0.8834067625E-01   0.9244103445E-03   0.2677952598E-01   0.9000986807E-02   0.0000000000E+00   0.0000000000E+00   0.8002949535E-03  -0.3361165032E-03   0.1170128285E-03   0.0000000000E+00   0.0000000000E+00   0.0000000000E+00   0.7927964953E-01
   0.4855136147E-01   0.2329522215E+00   0.1102542486E-04  -0.4482782298E-04   0.2205084972E-04  -0.8965564596E-04   0.8041126228E-01   0.1328927772E-02   0.2452205701E-01   0.5309065095E-02   0.0000000000E+00   0.0000000000E+00   0.7265596684E-03  -0.3015106802E-03   0.6901784624E-04   0.0000000000E+00   0.0000000000E+00   0.0000000000E+00   0.7106919506E-01
   0.1745991662E-01   0.1455369758E+00   0.6212139837E-05  -0.3933338926E-04   0.1242427967E-04  -0.7866677853E-04   0.1262237375E+00   0.1951540485E-01   0.4372174272E-01   0.2923934650E-02   0.0000000000E+00   0.0000000000E+00   0.1072525933E-02  -0.3146823923E-03   0.3801115045E-04   0.0000000000E+00   0.0000000000E+00   0.0000000000E+00   0.9705994020E-01
   0.0000000000E+00   0.1561265421E+00   0.0000000000E+00  -0.4115263408E-04   0.0000000000E+00  -0.8230526817E-04   0.1182722584E+00   0.2204627940E-01   0.4209556133E-01   0.3076886136E-02   0.0000000000E+00   0.0000000000E+00   0.9902970615E-03  -0.2606406651E-03   0.3999951977E-04   0.0000000000E+00   0.0000000000E+00   0.0000000000E+00   0.8830155338E-01
   0.0000000000E+00   0.1373816522E+00   0.0000000000E+00  -0.3945028195E-04   0.0000000000E+00  -0.7890056390E-04   0.1402938293E+00   0.2852751988E-01   0.5064640475E-01   0.7880017777E-02   0.0000000000E+00   0.0000000000E+00   0.1165416519E-02  -0.2875455033E-03   0.1024402311E-03   0.0000000000E+00   0.0000000000E+00   0.0000000000E+00   0.1025078533E+00
   0.3597182846E-01   0.1342504530E+00   0.1409175419E-04  -0.3588499247E-04   0.2818350838E-04  -0.7176998494E-04   0.1354452376E+00   0.1897375963E-01   0.4632569917E-01   0.2434844809E-02   0.0000000000E+00   0.0000000000E+00   0.1158554000E-02  -0.3555752140E-03   0.3165298251E-04   0.0000000000E+00   0.0000000000E+00   0.0000000000E+00   0.1055055359E+00
   0.3217888910E-01   0.2344381753E+00   0.7092667677E-05  -0.4679655008E-04   0.1418533535E-04  -0.9359310016E-04   0.7370734718E-01   0.4850213750E-03   0.2225771057E-01   0.3877024270E-02   0.0000000000E+00   0.0000000000E+00   0.6688452760E-03  -0.2830449595E-03   0.5040131551E-04   0.0000000000E+00   0.0000000000E+00   0.0000000000E+00   0.6543065448E-01
   0.1945535815E-01   0.2498525221E+00   0.3637683758E-05  -0.4915930531E-04   0.7275367516E-05  -0.9831861063E-04   0.6646307545E-01   0.6050477694E-03   0.2012043697E-01   0.1068563565E-02   0.0000000000E+00   0.0000000000E+00   0.6024543003E-03  -0.2537000595E-03   0.1389132634E-04   0.0000000000E+00   0.0000000000E+00   0.0000000000E+00   0.5870859814E-01
   0.1291294360E+00   0.2146197050E-01   0.7610399698E-04  -0.1517634148E-05   0.1522079940E-03  -0.3035268296E-05   0.7432712145E-02  -0.1818932927E-01  -0.3226985137E-02  -0.7103620051E-02   0.0000000000E+00   0.0000000000E+00   0.1385760647E-03  -0.1945104737E-03  -0.9234706066E-04   0.0000000000E+00   0.0000000000E+00   0.0000000000E+00   0.2616251648E-01
   0.3294582963E+00   0.0000000000E+00   0.9720509032E-04   0.0000000000E+00   0.1944101806E-03   0.0000000000E+00   0.5024213850E-01   0.1408639624E-01   0.1929856042E-01  -0.2031904081E-03   0.0000000000E+00   0.0000000000E+00   0.4022665150E-03  -0.6775813433E-04  -0.2641475305E-05   0.0000000000E+00   0.0000000000E+00   0.0000000000E+00   0.3385221801E-01
   0.3502999940E+00   0.0000000000E+00   0.1000000000E-03   0.0000000000E+00   0.2000000000E-03   0.0000000000E+00   0.4989229148E-01   0.1400235746E-01   0.1916839468E-01   0.9688689700E-04   0.0000000000E+00   0.0000000000E+00   0.3994106584E-03  -0.6715848389E-04   0.1259529661E-05   0.0000000000E+00   0.0000000000E+00   0.0000000000E+00   0.3360551792E-01
   0.3502999940E+00   0.1922945939E-01   0.1000000000E-03  -0.4368373714E-06   0.2000000000E-03  -0.8736747428E-06   0.5096034230E-01   0.1409164031E-01   0.1951559478E-01   0.9416614076E-05   0.0000000000E+00   0.0000000000E+00   0.4087817177E-03  -0.7051140815E-04   0.1224159830E-06   0.0000000000E+00   0.0000000000E+00   0.0000000000E+00   0.3447887685E-01
   0.3317215722E+00   0.2616986747E-01   0.9743306808E-04  -0.6111768354E-06   0.1948661362E-03  -0.1222353671E-05   0.5166078095E-01   0.1396716019E-01   0.1968838234E-01  -0.5442916774E-03   0.0000000000E+00   0.0000000000E+00   0.4156411819E-03  -0.7437588799E-04  -0.7075791807E-05   0.0000000000E+00   0.0000000000E+00   0.0000000000E+00   0.3518987020E-01
   0.3502999940E+00   0.3845875455E-01   0.1000000000E-03  -0.9284490916E-06   0.2000000000E-03  -0.1856898183E-05   0.5272276185E-01   0.1331783988E-01   0.1981218052E-01  -0.4978544540E-04   0.0000000000E+00   0.0000000000E+00   0.4278375573E-03  -0.8442642835E-04  -0.6472107902E-06   0.0000000000E+00   0.0000000000E+00   0.0000000000E+00   0.3659196690E-01
   0.3160637967E+00   0.7694856988E-01   0.9432622658E-04  -0.2333973297E-05   0.1886524532E-03  -0.4667946594E-05   0.5905089357E-01   0.1040392287E-01   0.2083644493E-01  -0.2770497507E-02   0.0000000000E+00   0.0000000000E+00   0.4967878323E-03  -0.1356227868E-03  -0.3601646759E-04   0.0000000000E+00   0.0000000000E+00   0.0000000000E+00   0.4461510025E-01
   0.3330201044E+00   0.6720367425E-01   0.9724946777E-04  -0.1906182922E-05   0.1944989355E-03  -0.3812365845E-05   0.5732494807E-01   0.1142883658E-01   0.2062613540E-01  -0.1210992602E-02   0.0000000000E+00   0.0000000000E+00   0.4770845648E-03  -0.1195648846E-03  -0.1574290383E-04   0.0000000000E+00   0.0000000000E+00   0.0000000000E+00   0.4210582384E-01
   0.3333759495E+00   0.8654916261E-01   0.9707249753E-04  -0.2769230808E-05   0.1941449951E-03  -0.5538461617E-05   0.6127815374E-01   0.9895464807E-02   0.2135208556E-01  -0.1369155436E-02   0.0000000000E+00   0.0000000000E+00   0.5190388862E-03  -0.1489360698E-03  -0.1779902066E-04   0.0000000000E+00   0.0000000000E+00   0.0000000000E+00   0.4677707397E-01
   0.3116988842E+00   0.3581431906E-01   0.9454306042E-04  -0.8666808515E-06   0.1890861208E-03  -0.1733361703E-05   0.5170634333E-01   0.1293421621E-01   0.1939216786E-01  -0.1888122307E-02   0.0000000000E+00   0.0000000000E+00   0.4200842811E-03  -0.8395337146E-04  -0.2454558999E-04   0.0000000000E+00   0.0000000000E+00   0.0000000000E+00   0.3612569102E-01
   0.3160592781E+00   0.1595388523E-01   0.9536301880E-04  -0.3645236782E-06   0.1907260376E-03  -0.7290473564E-06   0.5007707584E-01   0.1371958873E-01   0.1913899937E-01  -0.7396482250E-03   0.0000000000E+00   0.0000000000E+00   0.4021949941E-03  -0.7045233829E-04  -0.9615426925E-05   0.0000000000E+00   0.0000000000E+00   0.0000000000E+00   0.3400136549E-01
   0.2778710662E+00   0.1796053429E-01   0.9030906378E-04  -0.4058028712E-06   0.1806181276E-03  -0.8116057423E-06   0.4776486130E-01   0.1258244136E-01   0.1810419080E-01  -0.1696170887E-02   0.0000000000E+00   0.0000000000E+00   0.3855887165E-03  -0.7178274272E-04  -0.2205022153E-04   0.0000000000E+00   0.0000000000E+00   0.0000000000E+00   0.3292021576E-01
   0.2669339671E+00   0.0000000000E+00   0.8909537818E-04   0.0000000000E+00   0.1781907564E-03   0.0000000000E+00   0.4577938400E-01   0.1242167862E-01   0.1746031879E-01  -0.7061628018E-03   0.0000000000E+00   0.0000000000E+00   0.3681478478E-03  -0.6550232212E-04  -0.9180116424E-05   0.0000000000E+00   0.0000000000E+00   0.0000000000E+00   0.3112735142E-01
   0.2877751330E+00   0.0000000000E+00   0.9171301002E-04   0.0000000000E+00   0.1834260200E-03   0.0000000000E+00   0.4796202701E-01   0.1326750244E-01   0.1836885884E-01  -0.5409267187E-03   0.0000000000E+00   0.0000000000E+00   0.3847111863E-03  -0.6631763312E-04  -0.7032047343E-05   0.0000000000E+00   0.0000000000E+00   0.0000000000E+00   0.3244696483E-01
   0.2357409107E+00   0.1793870928E-01   0.8517855705E-04  -0.3978398820E-06   0.1703571141E-03  -0.7956797640E-06   0.4190884719E-01   0.1010236081E-01   0.1560336240E-01  -0.3131727212E-02   0.0000000000E+00   0.0000000000E+00   0.3419713023E-03  -0.7151302069E-04  -0.4071245376E-04   0.0000000000E+00   0.0000000000E+00   0.0000000000E+00   0.3001122308E-01
   0.2460931808E+00   0.0000000000E+00   0.8661460806E-04   0.0000000000E+00   0.1732292161E-03   0.0000000000E+00   0.4271596008E-01   0.1120609897E-01   0.1617661772E-01  -0.9686621526E-03   0.0000000000E+00   0.0000000000E+00   0.3450114508E-03  -0.6461674372E-04  -0.1259260798E-04   0.0000000000E+00   0.0000000000E+00   0.0000000000E+00   0.2931349401E-01
   0.2567721123E+00   0.1801910721E-01   0.8766242762E-04  -0.4038623832E-06   0.1753248552E-03  -0.8077247664E-06   0.4520132562E-01   0.1154406284E-01   0.1702361654E-01  -0.2406171583E-02   0.0000000000E+00   0.0000000000E+00   0.3663102181E-03  -0.7123419809E-04  -0.3128023058E-04   0.0000000000E+00   0.0000000000E+00   0.0000000000E+00   0.3159860793E-01
   0.2991707192E+00   0.8661146071E-01   0.9115108225E-04  -0.2834995102E-05   0.1823021645E-03  -0.5669990205E-05   0.6094810044E-01   0.8903821661E-02   0.2095557663E-01  -0.4273934284E-02   0.0000000000E+00   0.0000000000E+00   0.5199028095E-03  -0.1566728146E-03  -0.5556114570E-04   0.0000000000E+00   0.0000000000E+00   0.0000000000E+00   0.4775808829E-01
   0.3164420286E+00   0.9620947799E-01   0.9388252582E-04  -0.3306704314E-05   0.1877650516E-03  -0.6613408629E-05   0.6340885595E-01   0.8738689211E-02   0.2164426355E-01  -0.2919450259E-02   0.0000000000E+00   0.0000000000E+00   0.5429397012E-03  -0.1677724664E-03  -0.3795285337E-04   0.0000000000E+00   0.0000000000E+00   0.0000000000E+00   0.4975024668E-01
   0.2995573318E+00   0.1058730870E+00   0.9041160451E-04  -0.3945999953E-05   0.1808232090E-03  -0.7891999906E-05   0.6571643086E-01   0.7237448153E-02   0.2188616370E-01  -0.4405132216E-02   0.0000000000E+00   0.0000000000E+00   0.5697934730E-03  -0.1904333021E-03  -0.5726671880E-04   0.0000000000E+00   0.0000000000E+00   0.0000000000E+00   0.5325153055E-01
   0.1938608865E+00   0.1783028810E-01   0.8086283346E-04  -0.4171990993E-06   0.1617256669E-03  -0.8343981987E-06   0.3216065316E-01   0.5144874192E-02   0.1119165821E-01  -0.5152320828E-02   0.0000000000E+00   0.0000000000E+00   0.2725969344E-03  -0.7860819219E-04  -0.6698017076E-04   0.0000000000E+00   0.0000000000E+00   0.0000000000E+00   0.2638002243E-01
   0.2044134541E+00   0.0000000000E+00   0.8226269061E-04   0.0000000000E+00   0.1645253812E-03   0.0000000000E+00   0.3336757951E-01   0.7199985839E-02   0.1217026960E-01  -0.1737419421E-02   0.0000000000E+00   0.0000000000E+00   0.2755650287E-03  -0.6461368895E-04  -0.2258645248E-04   0.0000000000E+00   0.0000000000E+00   0.0000000000E+00   0.2403601840E-01
   0.2148139134E+00   0.1790886595E-01   0.8289880062E-04  -0.4009839229E-06   0.1657976012E-03  -0.8019678459E-06   0.3759095978E-01   0.8036942142E-02   0.1368837058E-01  -0.4062640454E-02   0.0000000000E+00   0.0000000000E+00   0.3107336597E-03  -0.7346856965E-04  -0.5281432590E-04   0.0000000000E+00   0.0000000000E+00   0.0000000000E+00   0.2820654284E-01
   0.1323125946E+00   0.4107089011E-01   0.7271220213E-04  -0.2975130336E-05   0.1454244043E-03  -0.5950260673E-05   0.2273188019E-01  -0.1860088015E-01   0.1239300012E-02  -0.1742079047E-01   0.0000000000E+00   0.0000000000E+00   0.2794035424E-03  -0.2579223422E-03  -0.2264702761E-03   0.0000000000E+00   0.0000000000E+00   0.0000000000E+00   0.4695273571E-01
   0.1252870477E+00   0.5988997443E-01   0.6669990856E-04  -0.5398455227E-05   0.1333998171E-03  -0.1079691045E-04   0.3873447986E-01  -0.2115192548E-01   0.5274766316E-02  -0.2292646307E-01   0.0000000000E+00   0.0000000000E+00   0.4349762761E-03  -0.3435469933E-03  -0.2980440199E-03   0.0000000000E+00   0.0000000000E+00   0.0000000000E+00   0.6564157928E-01
   0.1132116681E+00   0.3921615217E-01   0.7163702634E-04  -0.4967444060E-05   0.1432740527E-03  -0.9934888121E-05   0.1186264672E-01  -0.3081921756E-01  -0.5686971251E-02  -0.1172277171E-01   0.0000000000E+00   0.0000000000E+00   0.2281450336E-03  -0.3267192020E-03  -0.1523960322E-03   0.0000000000E+00   0.0000000000E+00   0.0000000000E+00   0.4316567296E-01
   0.1729623697E+00   0.1762898208E-01   0.7913089277E-04  -0.4695721429E-06   0.1582617855E-03  -0.9391442857E-06   0.2535560625E-01   0.1256727929E-02   0.7983700254E-02  -0.6443587388E-02   0.0000000000E+00   0.0000000000E+00   0.2258347780E-03  -0.8745064022E-04  -0.8376663605E-04   0.0000000000E+00   0.0000000000E+00   0.0000000000E+00   0.2457244565E-01
   0.1835748740E+00   0.0000000000E+00   0.8051233002E-04   0.0000000000E+00   0.1610246600E-03   0.0000000000E+00   0.2641495132E-01   0.3806623272E-02   0.9066472378E-02  -0.2459688487E-02   0.0000000000E+00   0.0000000000E+00   0.2255302263E-03  -0.6837803838E-04  -0.3197595033E-04   0.0000000000E+00   0.0000000000E+00   0.0000000000E+00   0.2060559057E-01
   0.9259890884E-01   0.3823820372E-01   0.7031898010E-04  -0.1004629308E-04   0.1406379602E-03  -0.2009258616E-04  -0.5465740570E-03  -0.5535481555E-01  -0.1677041688E-01   0.4745605069E-02   0.0000000000E+00   0.0000000000E+00   0.2109099567E-03  -0.5015971827E-03   0.6169286589E-04   0.0000000000E+00   0.0000000000E+00   0.0000000000E+00   0.4719703008E-01
   0.3308381326E+00   0.2499455755E+00   0.9419153145E-04  -0.1814150357E-04   0.1883830629E-03  -0.3628300714E-04   0.9819622906E-01   0.8543226472E-04   0.2948449840E-01  -0.4320325395E-05   0.0000000000E+00   0.0000000000E+00   0.8932524987E-03  -0.3821878597E-03  -0.5616423013E-07   0.0000000000E+00   0.0000000000E+00   0.0000000000E+00   0.8720921163E-01
   0.3502999940E+00   0.2307222879E+00   0.1000000000E-03  -0.1564803975E-04   0.2000000000E-03  -0.3129607951E-04   0.9584826407E-01   0.6029133032E-04   0.2877256662E-01  -0.1319336440E-03   0.0000000000E+00   0.0000000000E+00   0.8719840669E-03  -0.3732595788E-03  -0.1715137372E-05   0.0000000000E+00   0.0000000000E+00   0.0000000000E+00   0.8514590312E-01
   0.3502999940E+00   0.2499456493E+00   0.1000000000E-03  -0.1811690379E-04   0.2000000000E-03  -0.3623380758E-04   0.9981315003E-01  -0.3616071516E-03   0.2983546286E-01   0.3600805124E-03   0.0000000000E+00   0.0000000000E+00   0.9097099331E-03  -0.3925619102E-03   0.4681046661E-05   0.0000000000E+00   0.0000000000E+00   0.0000000000E+00   0.8900498930E-01
   0.3243402010E+00   0.2323110382E+00   0.9244899176E-04  -0.1596961045E-04   0.1848979835E-03  -0.3193922090E-04   0.9597510713E-01   0.1875589201E-03   0.2884879982E-01  -0.7654276049E-03   0.0000000000E+00   0.0000000000E+00   0.8726419951E-03  -0.3725961316E-03  -0.9950558863E-05   0.0000000000E+00   0.0000000000E+00   0.0000000000E+00   0.8516440197E-01
   0.3113761733E+00   0.2499449294E+00   0.8835043679E-04  -0.1835685885E-04   0.1767008736E-03  -0.3671371769E-04   0.9952441490E-01   0.4080298793E-03   0.2997973343E-01  -0.8548837169E-04   0.0000000000E+00   0.0000000000E+00   0.9040808590E-03  -0.3844321462E-03  -0.1111348832E-05   0.0000000000E+00   0.0000000000E+00   0.0000000000E+00   0.8813196521E-01
   0.2835654215E+00   0.1996866635E+00   0.8197283816E-04  -0.1274481796E-04   0.1639456763E-03  -0.2548963593E-04   0.9057270825E-01   0.9181737358E-03   0.2744726460E-01  -0.2818191087E-02   0.0000000000E+00   0.0000000000E+00   0.8206307675E-03  -0.3448781812E-03  -0.3663648413E-04   0.0000000000E+00   0.0000000000E+00   0.0000000000E+00   0.7991603985E-01
   0.2731935497E+00   0.2161198301E+00   0.7821489395E-04  -0.1499395812E-04   0.1564297879E-03  -0.2998791624E-04   0.9480393936E-01   0.2685884212E-03   0.2852175833E-01  -0.2400357896E-02   0.0000000000E+00   0.0000000000E+00   0.8616683533E-03  -0.3672912089E-03  -0.3120465264E-04   0.0000000000E+00   0.0000000000E+00   0.0000000000E+00   0.8414938335E-01
   0.2635629526E+00   0.1994448191E+00   0.7648453726E-04  -0.1332028604E-04   0.1529690745E-03  -0.2664057208E-04   0.9140076486E-01   0.3994467144E-03   0.2754006347E-01  -0.3331882048E-02   0.0000000000E+00   0.0000000000E+00   0.8301891181E-03  -0.3528280179E-03  -0.4331446663E-04   0.0000000000E+00   0.0000000000E+00   0.0000000000E+00   0.8112387751E-01
   0.3158621916E+00   0.1923463150E+00   0.9093119617E-04  -0.1136598808E-04   0.1818623923E-03  -0.2273197616E-04   0.8743126029E-01   0.1420197855E-02   0.2665543744E-01  -0.1816681230E-02   0.0000000000E+00   0.0000000000E+00   0.7900856970E-03  -0.3280581147E-03  -0.2361685598E-04   0.0000000000E+00   0.0000000000E+00   0.0000000000E+00   0.7664541391E-01
   0.3333977253E+00   0.1825666250E+00   0.9568844018E-04  -0.1017834764E-04   0.1913768804E-03  -0.2035669528E-04   0.8526416201E-01   0.2307176194E-02   0.2627140146E-01  -0.1024573392E-02   0.0000000000E+00   0.0000000000E+00   0.7669058871E-03  -0.3115349285E-03  -0.1331945409E-04   0.0000000000E+00   0.0000000000E+00   0.0000000000E+00   0.7397004619E-01
   0.3334180584E+00   0.2015883727E+00   0.9544247375E-04  -0.1224042933E-04   0.1908849475E-03  -0.2448085865E-04   0.9001878506E-01   0.1333064762E-02   0.2740555495E-01  -0.8831122360E-03   0.0000000000E+00   0.0000000000E+00   0.8139719915E-03  -0.3389423724E-03  -0.1148045907E-04   0.0000000000E+00   0.0000000000E+00   0.0000000000E+00   0.7896487925E-01
   0.3334971426E+00   0.1633870127E+00   0.9598519135E-04  -0.8281110182E-05   0.1919703827E-03  -0.1656222036E-04   0.8040170457E-01   0.3563188314E-02   0.2518946786E-01  -0.1216770024E-02   0.0000000000E+00   0.0000000000E+00   0.7177590771E-03  -0.2811416342E-03  -0.1581801031E-04   0.0000000000E+00   0.0000000000E+00   0.0000000000E+00   0.6866401259E-01
   0.3502999940E+00   0.1730493944E+00   0.1000000000E-03  -0.9177871342E-05   0.2000000000E-03  -0.1835574268E-04   0.8275560175E-01   0.2903255504E-02   0.2569765718E-01   0.1809961745E-04   0.0000000000E+00   0.0000000000E+00   0.7417532794E-03  -0.2963272217E-03   0.2352950269E-06   0.0000000000E+00   0.0000000000E+00   0.0000000000E+00   0.7124630841E-01
   0.3502999940E+00   0.1538240215E+00   0.1000000000E-03  -0.7379511093E-05   0.2000000000E-03  -0.1475902219E-04   0.7789508368E-01   0.4319112758E-02   0.2466425893E-01   0.6333102770E-05   0.0000000000E+00   0.0000000000E+00   0.6920007217E-03  -0.2644869002E-03   0.8233033601E-07   0.0000000000E+00   0.0000000000E+00   0.0000000000E+00   0.6580619703E-01
   0.2679089899E+00   0.3629139938E-01   0.8853264907E-04  -0.8862074536E-06   0.1770652981E-03  -0.1772414907E-05   0.4870825719E-01   0.1126826197E-01   0.1799295575E-01  -0.4181963410E-02   0.0000000000E+00   0.0000000000E+00   0.3992989187E-03  -0.8742101912E-04  -0.5436552433E-04   0.0000000000E+00   0.0000000000E+00   0.0000000000E+00   0.3528681664E-01
   0.3166775238E+00   0.1346098110E+00   0.9280894746E-04  -0.5888344265E-05   0.1856178949E-03  -0.1177668853E-04   0.7313330316E-01   0.5414690331E-02   0.2356439805E-01  -0.2769368472E-02   0.0000000000E+00   0.0000000000E+00   0.6443957665E-03  -0.2359462003E-03  -0.3600179013E-04   0.0000000000E+00   0.0000000000E+00   0.0000000000E+00   0.6090158880E-01
   0.3166572847E+00   0.1154427983E+00   0.9337391188E-04  -0.4489895082E-05   0.1867478238E-03  -0.8979790165E-05   0.6814903181E-01   0.7046064740E-02   0.2255852897E-01  -0.2911128477E-02   0.0000000000E+00   0.0000000000E+00   0.5926765370E-03  -0.2016620349E-03  -0.3784467020E-04   0.0000000000E+00   0.0000000000E+00   0.0000000000E+00   0.5524007312E-01
   0.3335314725E+00   0.1250031538E+00   0.9656050119E-04  -0.5098057489E-05   0.1931210024E-03  -0.1019611498E-04   0.7052601729E-01   0.6567073002E-02   0.2312792709E-01  -0.1414999104E-02   0.0000000000E+00   0.0000000000E+00   0.6161751726E-03  -0.2152911031E-03  -0.1839498836E-04   0.0000000000E+00   0.0000000000E+00   0.0000000000E+00   0.5754741988E-01
   0.3502999940E+00   0.9614406797E-01   0.1000000000E-03  -0.3259976031E-05   0.2000000000E-03  -0.6519952062E-05   0.6347879512E-01   0.9163918521E-02   0.2179281409E-01  -0.6037331751E-04   0.0000000000E+00   0.0000000000E+00   0.5419177534E-03  -0.1641756424E-03  -0.7848531277E-06   0.0000000000E+00   0.0000000000E+00   0.0000000000E+00   0.4922744069E-01
   0.3334901727E+00   0.1057797966E+00   0.9683089282E-04  -0.3827144101E-05   0.1936617856E-03  -0.7654288202E-05   0.6573691014E-01   0.8234504878E-02   0.2219142451E-01  -0.1431971258E-02   0.0000000000E+00   0.0000000000E+00   0.5660913132E-03  -0.1814399552E-03  -0.1861562635E-04   0.0000000000E+00   0.0000000000E+00   0.0000000000E+00   0.5200674237E-01
   0.3502999940E+00   0.7691615662E-01   0.1000000000E-03  -0.2307727201E-05   0.2000000000E-03  -0.4615454402E-05   0.5931549198E-01   0.1074759650E-01   0.2101892654E-01  -0.5237716081E-04   0.0000000000E+00   0.0000000000E+00   0.4978553506E-03  -0.1335272906E-03  -0.6809030906E-06   0.0000000000E+00   0.0000000000E+00   0.0000000000E+00   0.4433077549E-01
   0.3321474285E+00   0.4723067356E-01   0.9732751395E-04  -0.1196580282E-05   0.1946550279E-03  -0.2393160564E-05   0.5390900809E-01   0.1276254832E-01   0.2000146692E-01  -0.1049754890E-02   0.0000000000E+00   0.0000000000E+00   0.4407980352E-03  -0.9410594186E-04  -0.1364681357E-04   0.0000000000E+00   0.0000000000E+00   0.0000000000E+00   0.3808877661E-01
   0.3502999940E+00   0.5768769120E-01   0.1000000000E-03  -0.1538934116E-05   0.2000000000E-03  -0.3077868232E-05   0.5568588752E-01   0.1210869390E-01   0.2033837442E-01  -0.3320037539E-04   0.0000000000E+00   0.0000000000E+00   0.4595176702E-03  -0.1069858468E-03  -0.4316048801E-06   0.0000000000E+00   0.0000000000E+00   0.0000000000E+00   0.4009702475E-01
   0.0000000000E+00   0.2498516267E+00   0.0000000000E+00  -0.4945776087E-04   0.0000000000E+00  -0.9891552175E-04   0.5614230590E-01   0.2108451879E-02   0.1747522733E-01   0.2752214479E-02   0.0000000000E+00   0.0000000000E+00   0.5026720214E-03  -0.1997680809E-03   0.3577878823E-04   0.0000000000E+00   0.0000000000E+00   0.0000000000E+00   0.4830938513E-01
   0.3891096371E-01   0.2498574109E+00   0.7357802020E-05  -0.4752971173E-04   0.1471560404E-04  -0.9505942345E-04   0.6482763031E-01  -0.2574225199E-03   0.1937106234E-01   0.1813414644E-02   0.0000000000E+00   0.0000000000E+00   0.5909353836E-03  -0.2551703031E-03   0.2357439037E-04   0.0000000000E+00   0.0000000000E+00   0.0000000000E+00   0.5784558583E-01
   0.5557720921E-01   0.1230470438E+00   0.2389837062E-04  -0.3039905284E-04   0.4779674125E-04  -0.6079810567E-04   0.1295360876E+00   0.7867535286E-02   0.4122108688E-01  -0.1576711591E-02   0.0000000000E+00   0.0000000000E+00   0.1148095010E-02  -0.4335961707E-03  -0.2049725068E-04   0.0000000000E+00   0.0000000000E+00   0.0000000000E+00   0.1080594926E+00
   0.6786567556E-01   0.2328447430E+00   0.1582448774E-04  -0.4199066471E-04   0.3164897548E-04  -0.8398132942E-04   0.8450697790E-01   0.1999876116E-03   0.2541208965E-01   0.5636094655E-02   0.0000000000E+00   0.0000000000E+00   0.7682335472E-03  -0.3277573265E-03   0.7326923051E-04   0.0000000000E+00   0.0000000000E+00   0.0000000000E+00   0.7563827054E-01
   0.5836782287E-01   0.2498644878E+00   0.1149642408E-04  -0.4517074934E-04   0.2299284817E-04  -0.9034149867E-04   0.7397246272E-01  -0.1436747732E-03   0.2214863638E-01   0.2234942231E-02   0.0000000000E+00   0.0000000000E+00   0.6737097423E-03  -0.2898000450E-03   0.2905424900E-04   0.0000000000E+00   0.0000000000E+00   0.0000000000E+00   0.6588265788E-01
   0.7782608643E-01   0.2498733624E+00   0.1610194302E-04  -0.4221253647E-04   0.3220388604E-04  -0.8442507294E-04   0.8217137392E-01  -0.1748942197E-03   0.2459894391E-01   0.2536450076E-02   0.0000000000E+00   0.0000000000E+00   0.7484415901E-03  -0.3220598957E-03   0.3297385099E-04   0.0000000000E+00   0.0000000000E+00   0.0000000000E+00   0.7322918428E-01
   0.1264729519E+00   0.2330338010E+00   0.3215730460E-04  -0.3172133343E-04   0.6431460920E-04  -0.6344266687E-04   0.9836006852E-01  -0.8104654236E-03   0.2926488093E-01   0.3741825776E-02   0.0000000000E+00   0.0000000000E+00   0.8982374387E-03  -0.3909795026E-03   0.4864373509E-04   0.0000000000E+00   0.0000000000E+00   0.0000000000E+00   0.8832827377E-01
   0.1167468540E+00   0.2498933177E+00   0.2672899411E-04  -0.3556076233E-04   0.5345798823E-04  -0.7112152466E-04   0.9710577319E-01  -0.2291933933E-03   0.2906297394E-01   0.1869206750E-02   0.0000000000E+00   0.0000000000E+00   0.8845563903E-03  -0.3807981753E-03   0.2429968775E-04   0.0000000000E+00   0.0000000000E+00   0.0000000000E+00   0.8650480955E-01
   0.1362090057E+00   0.2499030458E+00   0.3263188493E-04  -0.3231806522E-04   0.6526376987E-04  -0.6463613044E-04   0.1025228773E+00  -0.1908828705E-03   0.3069959833E-01   0.1358812663E-02   0.0000000000E+00   0.0000000000E+00   0.9337026267E-03  -0.4015762556E-03   0.1766456462E-04   0.0000000000E+00   0.0000000000E+00   0.0000000000E+00   0.9128170712E-01
   0.1361981766E+00   0.2161474358E+00   0.3725752590E-04  -0.2782107648E-04   0.7451505181E-04  -0.5564215296E-04   0.9890416918E-01  -0.2389938615E-02   0.2895426917E-01   0.5214873506E-02   0.0000000000E+00   0.0000000000E+00   0.9093487001E-03  -0.4074747012E-03   0.6779335558E-04   0.0000000000E+00   0.0000000000E+00   0.0000000000E+00   0.9025551425E-01
   0.1848723715E+00   0.2330314673E+00   0.5021115937E-04  -0.2324557095E-04   0.1004223187E-03  -0.4649114189E-04   0.1032302936E+00  -0.6575372420E-03   0.3077182691E-01   0.2220900620E-03   0.0000000000E+00   0.0000000000E+00   0.9419600670E-03  -0.4085817339E-03   0.2887170806E-05   0.0000000000E+00   0.0000000000E+00   0.0000000000E+00   0.9227838909E-01
   0.1751353730E+00   0.2499197903E+00   0.4512533631E-04  -0.2673656327E-04   0.9025067261E-04  -0.5347312654E-04   0.1079345448E+00  -0.7029052266E-04   0.3235927629E-01   0.3197434556E-03   0.0000000000E+00   0.0000000000E+00   0.9824784908E-03  -0.4215843685E-03   0.4156664923E-05   0.0000000000E+00   0.0000000000E+00   0.0000000000E+00   0.9599040797E-01
   0.2043390474E+00   0.2330406474E+00   0.5630814867E-04  -0.2125353871E-04   0.1126162973E-03  -0.4250707742E-04   0.1028915504E+00  -0.4663872726E-03   0.3072754895E-01  -0.5533066080E-03   0.0000000000E+00   0.0000000000E+00   0.9381320194E-03  -0.4055211709E-03  -0.7192985904E-05   0.0000000000E+00   0.0000000000E+00   0.0000000000E+00   0.9182917014E-01
   0.1945989767E+00   0.2499264084E+00   0.5150955272E-04  -0.2453052379E-04   0.1030191054E-03  -0.4906104759E-04   0.1082535724E+00   0.1691640553E-05   0.3247657920E-01  -0.7017589404E-04   0.0000000000E+00   0.0000000000E+00   0.9851009110E-03  -0.4221735383E-03  -0.9122866225E-06   0.0000000000E+00   0.0000000000E+00   0.0000000000E+00   0.9621645572E-01
   0.2238045618E+00   0.2330572407E+00   0.6236094008E-04  -0.1966609174E-04   0.1247218802E-03  -0.3933218348E-04   0.1019683828E+00  -0.2717432171E-03   0.3050899189E-01  -0.1039604137E-02   0.0000000000E+00   0.0000000000E+00   0.9289720824E-03  -0.4001495563E-03  -0.1351485378E-04   0.0000000000E+00   0.0000000000E+00   0.0000000000E+00   0.9086707093E-01
   0.2140625114E+00   0.2499318268E+00   0.5787581347E-04  -0.2272439270E-04   0.1157516269E-03  -0.4544878539E-04   0.1074716940E+00   0.6568534927E-04   0.3226121380E-01  -0.3328741371E-03   0.0000000000E+00   0.0000000000E+00   0.9777362425E-03  -0.4185418699E-03  -0.4327363782E-05   0.0000000000E+00   0.0000000000E+00   0.0000000000E+00   0.9547058476E-01
   0.2432840517E+00   0.2330719486E+00   0.6834822368E-04  -0.1843414761E-04   0.1366964474E-03  -0.3686829523E-04   0.1007030873E+00  -0.1042523806E-03   0.3017965048E-01  -0.1260827349E-02   0.0000000000E+00   0.0000000000E+00   0.9168046788E-03  -0.3936907372E-03  -0.1639075554E-04   0.0000000000E+00   0.0000000000E+00   0.0000000000E+00   0.8961823639E-01
   0.2335258497E+00   0.2499361378E+00   0.6417189818E-04  -0.2128741004E-04   0.1283437964E-03  -0.4257482008E-04   0.1060096362E+00   0.1124166129E-03   0.3183661586E-01  -0.4689566894E-03   0.0000000000E+00   0.0000000000E+00   0.9642492650E-03  -0.4124145902E-03  -0.6096436962E-05   0.0000000000E+00   0.0000000000E+00   0.0000000000E+00   0.9413362778E-01
   0.2629264600E+00   0.2330111345E+00   0.7430734189E-04  -0.1749115819E-04   0.1486146838E-03  -0.3498231638E-04   0.9931933420E-01   0.2050391902E-04   0.2980195144E-01  -0.1271865781E-02   0.0000000000E+00   0.0000000000E+00   0.9037259759E-03  -0.3871588177E-03  -0.1653425515E-04   0.0000000000E+00   0.0000000000E+00   0.0000000000E+00   0.8828913703E-01
   0.2529888950E+00   0.2499394704E+00   0.7036998968E-04  -0.2017652559E-04   0.1407399794E-03  -0.4035305119E-04   0.1042495515E+00   0.1521421293E-03   0.3132050808E-01  -0.4979674365E-03   0.0000000000E+00   0.0000000000E+00   0.9480775640E-03  -0.4051887573E-03  -0.6473576675E-05   0.0000000000E+00   0.0000000000E+00   0.0000000000E+00   0.9253720304E-01
   0.2828174658E+00   0.2328144724E+00   0.8026194488E-04  -0.1678485799E-04   0.1605238898E-03  -0.3356971597E-04   0.9801308910E-01   0.1199686001E-03   0.2943991731E-01  -0.1121801689E-02   0.0000000000E+00   0.0000000000E+00   0.8914512333E-03  -0.3811593332E-03  -0.1458342196E-04   0.0000000000E+00   0.0000000000E+00   0.0000000000E+00   0.8704176823E-01
   0.2724516049E+00   0.2499419612E+00   0.7646129132E-04  -0.1934627401E-04   0.1529225826E-03  -0.3869254802E-04   0.1024468413E+00   0.1814058505E-03   0.3078847416E-01  -0.4534747623E-03   0.0000000000E+00   0.0000000000E+00   0.9315587735E-03  -0.3978918880E-03  -0.5895171909E-05   0.0000000000E+00   0.0000000000E+00   0.0000000000E+00   0.9091168807E-01
   0.3032162152E+00   0.2322983030E+00   0.8629639206E-04  -0.1625101137E-04   0.1725927841E-03  -0.3250202275E-04   0.9672939793E-01   0.2033397794E-03   0.2907982131E-01  -0.8811867243E-03   0.0000000000E+00   0.0000000000E+00   0.8794444960E-03  -0.3753942599E-03  -0.1145542742E-04   0.0000000000E+00   0.0000000000E+00   0.0000000000E+00   0.8582519603E-01
   0.2919140093E+00   0.2499437376E+00   0.8245076167E-04  -0.1875414357E-04   0.1649015233E-03  -0.3750828715E-04   0.1008552601E+00   0.2413857441E-03   0.3032899374E-01  -0.3612012547E-03   0.0000000000E+00   0.0000000000E+00   0.9168414622E-03  -0.3911389040E-03  -0.4695616311E-05   0.0000000000E+00   0.0000000000E+00   0.0000000000E+00   0.8944954316E-01
   0.1654224818E+00   0.1646462938E+00   0.5264492073E-04  -0.1610441091E-04   0.1052898415E-03  -0.3220882183E-04   0.9296191510E-01  -0.8180054995E-02   0.2543455803E-01  -0.2180522712E-02   0.0000000000E+00   0.0000000000E+00   0.8778556419E-03  -0.4369899693E-03  -0.2834679525E-04   0.0000000000E+00   0.0000000000E+00   0.0000000000E+00   0.8926652584E-01
   0.1555084398E+00   0.1821871593E+00   0.4731992262E-04  -0.1998588413E-04   0.9463984525E-04  -0.3997176826E-04   0.9664395212E-01  -0.6742488514E-02   0.2697043908E-01   0.1443499746E-02   0.0000000000E+00   0.0000000000E+00   0.9057556695E-03  -0.4382680588E-03   0.1876549670E-04   0.0000000000E+00   0.0000000000E+00   0.0000000000E+00   0.9134414994E-01
   0.1453772799E+00   0.1647660774E+00   0.4663629242E-04  -0.1884354062E-04   0.9327258483E-04  -0.3768708125E-04   0.9654949344E-01  -0.9894851158E-02   0.2599639268E-01   0.4337953347E-03   0.0000000000E+00   0.0000000000E+00   0.9171903098E-03  -0.4665861699E-03   0.5639339351E-05   0.0000000000E+00   0.0000000000E+00   0.0000000000E+00   0.9377813646E-01
   0.2252529518E+00   0.0000000000E+00   0.8431926674E-04   0.0000000000E+00   0.1686385335E-03   0.0000000000E+00   0.3869500236E-01   0.9569725212E-02   0.1447941827E-01  -0.1296606624E-02   0.0000000000E+00   0.0000000000E+00   0.3148025932E-03  -0.6382600979E-04  -0.1685588611E-04   0.0000000000E+00   0.0000000000E+00   0.0000000000E+00   0.2696877752E-01
   0.1616380165E+00   0.7204240261E-01   0.6945749155E-04  -0.3959729420E-05   0.1389149831E-03  -0.7919458840E-05   0.5246444250E-01  -0.1041945667E-01   0.1261349575E-01  -0.2081276716E-01   0.0000000000E+00   0.0000000000E+00   0.5180623078E-03  -0.2994283815E-03  -0.2705659730E-03   0.0000000000E+00   0.0000000000E+00   0.0000000000E+00   0.6578956833E-01
   0.1832643562E+00   0.7144003624E-01   0.7319340108E-04  -0.3153219885E-05   0.1463868022E-03  -0.6306439770E-05   0.5269324007E-01  -0.3475156511E-02   0.1476542507E-01  -0.1710988145E-01   0.0000000000E+00   0.0000000000E+00   0.4930615950E-03  -0.2371275605E-03  -0.2224284589E-03   0.0000000000E+00   0.0000000000E+00   0.0000000000E+00   0.5777435233E-01
   0.1727547212E+00   0.9032697065E-01   0.6765671972E-04  -0.5340149371E-05   0.1353134394E-03  -0.1068029874E-04   0.6492678007E-01  -0.8257413090E-02   0.1700081009E-01  -0.1681874495E-01   0.0000000000E+00   0.0000000000E+00   0.6230376097E-03  -0.3283569014E-03  -0.2186436844E-03   0.0000000000E+00   0.0000000000E+00   0.0000000000E+00   0.7068508105E-01
   0.1740243507E-01   0.2039778993E+00   0.4587189689E-05  -0.4493656316E-04   0.9174379378E-05  -0.8987312632E-04   0.9015949394E-01   0.7065765566E-02   0.2916757785E-01   0.3771821533E-02   0.0000000000E+00   0.0000000000E+00   0.7928949091E-03  -0.2873235597E-03   0.4903367993E-04   0.0000000000E+00   0.0000000000E+00   0.0000000000E+00   0.7492402379E-01
   0.0000000000E+00   0.1936165067E+00   0.0000000000E+00  -0.4449576948E-04   0.0000000000E+00  -0.8899153896E-04   0.9487348905E-01   0.9876388249E-02   0.3142496319E-01   0.2286783520E-02   0.0000000000E+00   0.0000000000E+00   0.8248308362E-03  -0.2801314742E-03   0.2972818576E-04   0.0000000000E+00   0.0000000000E+00   0.0000000000E+00   0.7659867969E-01
   0.1684744867E-01   0.1843975027E+00   0.4818757143E-05  -0.4308944962E-04   0.9637514286E-05  -0.8617889924E-04   0.9976298143E-01   0.1151193998E-01   0.3338247642E-01   0.4265974865E-02   0.0000000000E+00   0.0000000000E+00   0.8629465651E-03  -0.2843169737E-03   0.5545767324E-04   0.0000000000E+00   0.0000000000E+00   0.0000000000E+00   0.8007509241E-01
   0.0000000000E+00   0.1748716317E+00   0.0000000000E+00  -0.4278843599E-04   0.0000000000E+00  -0.8557687198E-04   0.1049037598E+00   0.1573113790E-01   0.3619046930E-01   0.2741898060E-02   0.0000000000E+00   0.0000000000E+00   0.8932727761E-03  -0.2659713082E-03   0.3564467478E-04   0.0000000000E+00   0.0000000000E+00   0.0000000000E+00   0.8098410718E-01
   0.1692270405E-01   0.1652003431E+00   0.5289017049E-05  -0.4127929360E-04   0.1057803410E-04  -0.8255858720E-04   0.1104206418E+00   0.1629955652E-01   0.3801605949E-01   0.4349898171E-02   0.0000000000E+00   0.0000000000E+00   0.9412595696E-03  -0.2823145385E-03   0.5654867622E-04   0.0000000000E+00   0.0000000000E+00   0.0000000000E+00   0.8579956452E-01
   0.3382738356E-01   0.1748678738E+00   0.1014538663E-04  -0.4058906859E-04   0.2029077327E-04  -0.8117813718E-04   0.1051362762E+00   0.1095100617E-01   0.3482618472E-01   0.8999331938E-02   0.0000000000E+00   0.0000000000E+00   0.9140311897E-03  -0.3103773212E-03   0.1169913152E-03   0.0000000000E+00   0.0000000000E+00   0.0000000000E+00   0.8623561660E-01
   0.3462033066E-01   0.1551262837E+00   0.1151145197E-04  -0.3842177743E-04   0.2302290394E-04  -0.7684355485E-04   0.1162384549E+00   0.1464059718E-01   0.3926371561E-01   0.8058937706E-02   0.0000000000E+00   0.0000000000E+00   0.1000671610E-02  -0.3201005396E-03   0.1047661902E-03   0.0000000000E+00   0.0000000000E+00   0.0000000000E+00   0.9292327592E-01
   0.3376218042E-01   0.1941262160E+00   0.9337173269E-05  -0.4258333161E-04   0.1867434654E-04  -0.8516666321E-04   0.9579399518E-01   0.6550982253E-02   0.3070349323E-01   0.8176306132E-02   0.0000000000E+00   0.0000000000E+00   0.8461765253E-03  -0.3139826427E-03   0.1062919797E-03   0.0000000000E+00   0.0000000000E+00   0.0000000000E+00   0.8119333097E-01
   0.5390098607E-01   0.1449089011E+00   0.1916509064E-04  -0.3383695617E-04   0.3833018128E-04  -0.6767391234E-04   0.1192659840E+00   0.7060517212E-02   0.3789795038E-01   0.8407942702E-02   0.0000000000E+00   0.0000000000E+00   0.1057784438E-02  -0.4008866311E-03   0.1093032551E-03   0.0000000000E+00   0.0000000000E+00   0.0000000000E+00   0.1014976053E+00
   0.9718993796E-01   0.2160266241E+00   0.2568378723E-04  -0.3482231031E-04   0.5136757446E-04  -0.6964462062E-04   0.9479210244E-01  -0.1427948484E-02   0.2800924619E-01   0.9002011491E-02   0.0000000000E+00   0.0000000000E+00   0.8681771313E-03  -0.3826835307E-03   0.1170261494E-03   0.0000000000E+00   0.0000000000E+00   0.0000000000E+00   0.8676449835E-01
   0.1419012493E+00   0.0000000000E+00   0.7819443345E-04   0.0000000000E+00   0.1563888669E-03   0.0000000000E+00   0.7699137994E-02  -0.1222401928E-01  -0.1357464387E-02  -0.7957277385E-02   0.0000000000E+00   0.0000000000E+00   0.1177358310E-03  -0.1412652137E-03  -0.1034446060E-03   0.0000000000E+00   0.0000000000E+00   0.0000000000E+00   0.2052528700E-01
   0.1522853114E+00   0.1778329615E-01   0.7771078703E-04  -0.7156151622E-06   0.1554215741E-03  -0.1431230324E-05   0.1713081609E-01  -0.6947014385E-02   0.3055140511E-02  -0.6384669027E-02   0.0000000000E+00   0.0000000000E+00   0.1829837825E-03  -0.1300280136E-03  -0.8300069736E-04   0.0000000000E+00   0.0000000000E+00   0.0000000000E+00   0.2453611388E-01
   0.1627374449E+00   0.0000000000E+00   0.7915031555E-04   0.0000000000E+00   0.1583006311E-03   0.0000000000E+00   0.1692576032E-01  -0.2980061083E-02   0.4183709772E-02  -0.3390387785E-02   0.0000000000E+00   0.0000000000E+00   0.1656466572E-03  -0.9312902112E-04  -0.4407504121E-04   0.0000000000E+00   0.0000000000E+00   0.0000000000E+00   0.1832779947E-01
   0.3502999940E+00   0.1153713635E+00   0.1000000000E-03  -0.4417510903E-05   0.2000000000E-03  -0.8835021805E-05   0.6808933097E-01   0.7504782248E-02   0.2267823396E-01  -0.4474532937E-04   0.0000000000E+00   0.0000000000E+00   0.5903442610E-03  -0.1972548723E-03  -0.5816892817E-06   0.0000000000E+00   0.0000000000E+00   0.0000000000E+00   0.5460037475E-01
   0.3502999940E+00   0.1345980193E+00   0.1000000000E-03  -0.5790553006E-05   0.2000000000E-03  -0.1158110601E-04   0.7293515730E-01   0.5858237349E-02   0.2363801839E-01  -0.1900109763E-04   0.0000000000E+00   0.0000000000E+00   0.6408628058E-03  -0.2311371536E-03  -0.2470142692E-06   0.0000000000E+00   0.0000000000E+00   0.0000000000E+00   0.6018875967E-01
   0.3335514928E+00   0.1442101938E+00   0.9628025520E-04  -0.6585067313E-05   0.1925605104E-03  -0.1317013463E-04   0.7546862190E-01   0.4982072759E-02   0.2413520840E-01  -0.1332868191E-02   0.0000000000E+00   0.0000000000E+00   0.6673343755E-03  -0.2489907633E-03  -0.1732728648E-04   0.0000000000E+00   0.0000000000E+00   0.0000000000E+00   0.6317076798E-01
   0.1624742468E+00   0.3473898179E-01   0.7654294237E-04  -0.1238768559E-05   0.1530858847E-03  -0.2477537119E-05   0.2924658952E-01  -0.3456675138E-02   0.7736974315E-02  -0.1401817980E-01   0.0000000000E+00   0.0000000000E+00   0.2796249977E-03  -0.1455174429E-03  -0.1822363374E-03   0.0000000000E+00   0.0000000000E+00   0.0000000000E+00   0.3764072396E-01
   0.1832506878E+00   0.3536945345E-01   0.7847193212E-04  -0.1026483295E-05   0.1569438642E-03  -0.2052966590E-05   0.3401849558E-01   0.1114563025E-02   0.1053991758E-01  -0.1181397340E-01   0.0000000000E+00   0.0000000000E+00   0.3052215140E-03  -0.1225296092E-03  -0.1535816542E-03   0.0000000000E+00   0.0000000000E+00   0.0000000000E+00   0.3574062695E-01
   0.1450195144E+00   0.3344045154E-01   0.7524513134E-04  -0.1729952182E-05   0.1504902627E-03  -0.3459904363E-05   0.1812623161E-01  -0.1217291197E-01   0.1785995893E-02  -0.1640903116E-01   0.0000000000E+00   0.0000000000E+00   0.2124230644E-03  -0.1814658022E-03  -0.2133174051E-03   0.0000000000E+00   0.0000000000E+00   0.0000000000E+00   0.3812498790E-01
   0.2140927001E+00   0.2161380238E+00   0.6090037777E-04  -0.1817339284E-04   0.1218007555E-03  -0.3634678568E-04   0.9830521914E-01  -0.8814847873E-03   0.2922712031E-01  -0.1710647364E-02   0.0000000000E+00   0.0000000000E+00   0.8980152849E-03  -0.3914118662E-03  -0.2223841573E-04   0.0000000000E+00   0.0000000000E+00   0.0000000000E+00   0.8812646580E-01
   0.2891543197E+00   0.3564579730E-01   0.9143323809E-04  -0.8669348658E-06   0.1828664762E-03  -0.1733869732E-05   0.5046279955E-01   0.1233232926E-01   0.1883853864E-01  -0.3084261219E-02   0.0000000000E+00   0.0000000000E+00   0.4111153918E-03  -0.8458072202E-04  -0.4009539584E-04   0.0000000000E+00   0.0000000000E+00   0.0000000000E+00   0.3572716414E-01
   0.2989225007E+00   0.5044820616E-01   0.9238457033E-04  -0.1315979293E-05   0.1847691407E-03  -0.2631958587E-05   0.5325111266E-01   0.1214510138E-01   0.1961886421E-01  -0.3240508441E-02   0.0000000000E+00   0.0000000000E+00   0.4372192298E-03  -0.9715891678E-04  -0.4212660973E-04   0.0000000000E+00   0.0000000000E+00   0.0000000000E+00   0.3831443781E-01
   0.3151347133E+00   0.5754190570E-01   0.9462544989E-04  -0.1553832960E-05   0.1892508998E-03  -0.3107665921E-05   0.5555583866E-01   0.1212727342E-01   0.2030493362E-01  -0.2418254180E-02   0.0000000000E+00   0.0000000000E+00   0.4582617654E-03  -0.1063095827E-03  -0.3143730434E-04   0.0000000000E+00   0.0000000000E+00   0.0000000000E+00   0.4018759365E-01
   0.6709384135E-01   0.1968497918E+00   0.1872318336E-04  -0.3794374760E-04   0.3744636673E-04  -0.7588749520E-04   0.9680588682E-01   0.1198053364E-02   0.2940118205E-01   0.1166464407E-01   0.0000000000E+00   0.0000000000E+00   0.8762611619E-03  -0.3666406730E-03   0.1516403729E-03   0.0000000000E+00   0.0000000000E+00   0.0000000000E+00   0.8746855307E-01
   0.4894940342E-01   0.2013355723E+00   0.1324767214E-04  -0.4139290783E-04   0.2649534429E-04  -0.8278581567E-04   0.9381066866E-01   0.3891414999E-02   0.2931062510E-01   0.1061696310E-01   0.0000000000E+00   0.0000000000E+00   0.8385005663E-03  -0.3304497313E-03   0.1380205203E-03   0.0000000000E+00   0.0000000000E+00   0.0000000000E+00   0.8236276973E-01
   0.7746402464E-01   0.2155468295E+00   0.2012497981E-04  -0.3837616541E-04   0.4024995962E-04  -0.7675233082E-04   0.9216110391E-01  -0.1500974856E-03   0.2760330193E-01   0.9939298324E-02   0.0000000000E+00   0.0000000000E+00   0.8392514258E-03  -0.3607941924E-03   0.1292108782E-03   0.0000000000E+00   0.0000000000E+00   0.0000000000E+00   0.8377796474E-01
   0.8764856051E-01   0.1993060412E+00   0.2456620184E-04  -0.3444661583E-04   0.4913240368E-04  -0.6889323166E-04   0.9746734796E-01  -0.1763739585E-02   0.2871108251E-01   0.1096404580E-01   0.0000000000E+00   0.0000000000E+00   0.8938314508E-03  -0.3961726873E-03   0.1425325954E-03   0.0000000000E+00   0.0000000000E+00   0.0000000000E+00   0.9007449396E-01
   0.1068642782E+00   0.1993940651E+00   0.3033774819E-04  -0.3079464044E-04   0.6067549639E-04  -0.6158928087E-04   0.9869151659E-01  -0.3315520062E-02   0.2861279896E-01   0.9330964613E-02   0.0000000000E+00   0.0000000000E+00   0.9110233292E-03  -0.4150681473E-03   0.1213025400E-03   0.0000000000E+00   0.0000000000E+00   0.0000000000E+00   0.9181574997E-01
   0.1120978791E+00   0.1455133702E+00   0.3915204637E-04  -0.2136358926E-04   0.7830409273E-04  -0.4272717852E-04   0.1037937872E+00  -0.1256535780E-01   0.2736852884E-01   0.2056476873E-02   0.0000000000E+00   0.0000000000E+00   0.9935283594E-03  -0.5191405262E-03   0.2673419936E-04   0.0000000000E+00   0.0000000000E+00   0.0000000000E+00   0.1023713210E+00
   0.1041799316E+00   0.1664989136E+00   0.3333553163E-04  -0.2642512143E-04   0.6667106325E-04  -0.5285024285E-04   0.1036877833E+00  -0.8483481122E-02   0.2856129065E-01   0.7391549890E-02   0.0000000000E+00   0.0000000000E+00   0.9766444045E-03  -0.4815820331E-03   0.9609014857E-04   0.0000000000E+00   0.0000000000E+00   0.0000000000E+00   0.9982501251E-01
   0.9074462978E-01   0.1517464745E+00   0.3100939411E-04  -0.2679951012E-04   0.6201878821E-04  -0.5359902024E-04   0.1079784256E+00  -0.7373764453E-02   0.3018139835E-01   0.7709357621E-02   0.0000000000E+00   0.0000000000E+00   0.1011361355E-02  -0.4882171165E-03   0.1002216491E-03   0.0000000000E+00   0.0000000000E+00   0.0000000000E+00   0.1026502316E+00
   0.9503731871E-01   0.9625247634E-01   0.4662820323E-04  -0.1609898710E-04   0.9325640646E-04  -0.3219797420E-04   0.9226086337E-01  -0.1572295781E-01   0.2296137167E-01  -0.1666923608E-01   0.0000000000E+00   0.0000000000E+00   0.9008933921E-03  -0.5028962832E-03  -0.2167000690E-03   0.0000000000E+00   0.0000000000E+00   0.0000000000E+00   0.9855084033E-01
   0.1090716953E+00   0.7683375561E-01   0.5789377345E-04  -0.1014989721E-04   0.1157875469E-03  -0.2029979443E-04   0.6047855568E-01  -0.2125957084E-01   0.1176569545E-01  -0.2316103815E-01   0.0000000000E+00   0.0000000000E+00   0.6332671830E-03  -0.4293284618E-03  -0.3010934960E-03   0.0000000000E+00   0.0000000000E+00   0.0000000000E+00   0.8165319501E-01
   0.1946159844E+00   0.2161117207E+00   0.5504312632E-04  -0.1992243394E-04   0.1100862526E-03  -0.3984486788E-04   0.9919251243E-01  -0.1420530867E-02   0.2933159447E-01  -0.6196427799E-03   0.0000000000E+00   0.0000000000E+00   0.9081919335E-03  -0.3997776294E-03  -0.8055356139E-05   0.0000000000E+00   0.0000000000E+00   0.0000000000E+00   0.8930406864E-01
   0.2253181908E+00   0.3586698550E-01   0.8312258372E-04  -0.8957992124E-06   0.1662451674E-03  -0.1791598425E-05   0.4314102599E-01   0.7915021009E-02   0.1531681410E-01  -0.7429717429E-02   0.0000000000E+00   0.0000000000E+00   0.3617147546E-03  -0.9622331018E-04  -0.9658632657E-04   0.0000000000E+00   0.0000000000E+00   0.0000000000E+00   0.3459331500E-01
   0.2464463836E+00   0.3605407286E-01   0.8574054102E-04  -0.8822801871E-06   0.1714810820E-03  -0.1764560374E-05   0.4645631064E-01   0.9863218372E-02   0.1689585870E-01  -0.5657802811E-02   0.0000000000E+00   0.0000000000E+00   0.3842858752E-03  -0.9142432430E-04  -0.7355143654E-04   0.0000000000E+00   0.0000000000E+00   0.0000000000E+00   0.3499315224E-01
   0.2742426292E+00   0.1830130068E+00   0.8039339853E-04  -0.1111640452E-04   0.1607867971E-03  -0.2223280905E-04   0.8696523533E-01   0.1010863448E-02   0.2639282963E-01  -0.4058806013E-02   0.0000000000E+00   0.0000000000E+00   0.7874412741E-03  -0.3299655604E-03  -0.5276447817E-04   0.0000000000E+00   0.0000000000E+00   0.0000000000E+00   0.7681026387E-01
   0.2336011122E+00   0.2161681122E+00   0.6669405328E-04  -0.1681125956E-04   0.1333881066E-03  -0.3362251911E-04   0.9719212934E-01  -0.3699126711E-03   0.2904666500E-01  -0.2320066088E-02   0.0000000000E+00   0.0000000000E+00   0.8858910364E-03  -0.3824155097E-03  -0.3016085914E-04   0.0000000000E+00   0.0000000000E+00   0.0000000000E+00   0.8677028523E-01
   0.3151579236E+00   0.2132576684E+00   0.9020285210E-04  -0.1374952002E-04   0.1804057042E-03  -0.2749904004E-04   0.9268325597E-01   0.7319515347E-03   0.2802456225E-01  -0.1355506912E-02   0.0000000000E+00   0.0000000000E+00   0.8405630184E-03  -0.3548039393E-03  -0.1762158985E-04   0.0000000000E+00   0.0000000000E+00   0.0000000000E+00   0.8182899781E-01
   0.3502999940E+00   0.1922741777E+00   0.1000000000E-03  -0.1117277250E-04   0.2000000000E-03  -0.2234554500E-04   0.8732969912E-01   0.1630788636E-02   0.2668814633E-01  -0.1453152829E-04   0.0000000000E+00   0.0000000000E+00   0.7883401863E-03  -0.3257456500E-03  -0.1889098677E-06   0.0000000000E+00   0.0000000000E+00   0.0000000000E+00   0.7632273268E-01
   0.2932068205E+00   0.2157854418E+00   0.8393648815E-04  -0.1442007428E-04   0.1678729763E-03  -0.2884014857E-04   0.9365883761E-01   0.3813067079E-03   0.2821204329E-01  -0.2047548749E-02   0.0000000000E+00   0.0000000000E+00   0.8508083261E-03  -0.3617995756E-03  -0.2661813374E-04   0.0000000000E+00   0.0000000000E+00   0.0000000000E+00   0.8301478033E-01
   0.3347558979E+00   0.2178553000E+00   0.9562597456E-04  -0.1413768225E-04   0.1912519491E-03  -0.2827536450E-04   0.9331943397E-01   0.4859778814E-03   0.2814162355E-01  -0.5556154230E-03   0.0000000000E+00   0.0000000000E+00   0.8473115354E-03  -0.3595233938E-03  -0.7223000499E-05   0.0000000000E+00   0.0000000000E+00   0.0000000000E+00   0.8256246374E-01
   0.5153109502E-01   0.1655189929E+00   0.1626210523E-04  -0.3687736825E-04   0.3252421045E-04  -0.7375473651E-04   0.1090704288E+00   0.7033385190E-02   0.3483114420E-01   0.1118628041E-01   0.0000000000E+00   0.0000000000E+00   0.9651107001E-03  -0.3613708672E-03   0.1454216453E-03   0.0000000000E+00   0.0000000000E+00   0.0000000000E+00   0.9342968840E-01
   0.2475597924E+00   0.9580651158E-01   0.8133278368E-04  -0.3751839124E-05   0.1626655674E-03  -0.7503678248E-05   0.6372083609E-01   0.4840002936E-02   0.2056825171E-01  -0.9127411668E-02   0.0000000000E+00   0.0000000000E+00   0.5609835970E-03  -0.2044672340E-03  -0.1186563517E-03   0.0000000000E+00   0.0000000000E+00   0.0000000000E+00   0.5511309218E-01
   0.2649722807E+00   0.8645489271E-01   0.8522856238E-04  -0.2979561731E-05   0.1704571248E-03  -0.5959123461E-05   0.5987514478E-01   0.6599333831E-02   0.1994234358E-01  -0.7517080166E-02   0.0000000000E+00   0.0000000000E+00   0.5191264156E-03  -0.1734591268E-03  -0.9772204215E-04   0.0000000000E+00   0.0000000000E+00   0.0000000000E+00   0.4974668894E-01
   0.2648251393E+00   0.1059453163E+00   0.8375575922E-04  -0.4235230529E-05   0.1675115184E-03  -0.8470461059E-05   0.6599506297E-01   0.4982401448E-02   0.2129323933E-01  -0.7416685719E-02   0.0000000000E+00   0.0000000000E+00   0.5811237074E-03  -0.2120408924E-03  -0.9641691434E-04   0.0000000000E+00   0.0000000000E+00   0.0000000000E+00   0.5619675557E-01
   0.3502999940E+00   0.2114984263E+00   0.1000000000E-03  -0.1334590767E-04   0.2000000000E-03  -0.2669181533E-04   0.9110945540E-01   0.6297027919E-03   0.2752174746E-01   0.1514667435E-03   0.0000000000E+00   0.0000000000E+00   0.8266402033E-03  -0.3495965807E-03   0.1969067665E-05   0.0000000000E+00   0.0000000000E+00   0.0000000000E+00   0.8047930576E-01
   0.3007848184E+00   0.2008096222E+00   0.8661280102E-04  -0.1252394443E-04   0.1732256020E-03  -0.2504788885E-04   0.9054121816E-01   0.1171613087E-02   0.2751384938E-01  -0.2454571800E-02   0.0000000000E+00   0.0000000000E+00   0.8193557942E-03  -0.3424490717E-03  -0.3190943340E-04   0.0000000000E+00   0.0000000000E+00   0.0000000000E+00   0.7965561458E-01
   0.2961319483E+00   0.1829711483E+00   0.8611209591E-04  -0.1061989748E-04   0.1722241918E-03  -0.2123979496E-04   0.8628925256E-01   0.1868120213E-02   0.2644721183E-01  -0.3115906899E-02   0.0000000000E+00   0.0000000000E+00   0.7779465295E-03  -0.3195281910E-03  -0.4050678969E-04   0.0000000000E+00   0.0000000000E+00   0.0000000000E+00   0.7540121020E-01
   0.2996706819E+00   0.1250332540E+00   0.8958096474E-04  -0.5272015348E-05   0.1791619295E-03  -0.1054403070E-04   0.7077345869E-01   0.5603592261E-02   0.2291311529E-01  -0.4303966739E-02   0.0000000000E+00   0.0000000000E+00   0.6221844643E-03  -0.2250237993E-03  -0.5595156761E-04   0.0000000000E+00   0.0000000000E+00   0.0000000000E+00   0.5894308222E-01
   0.2799845884E+00   0.5578326889E-01   0.8942511934E-04  -0.1510935844E-05   0.1788502387E-03  -0.3021871688E-05   0.5307501451E-01   0.1067599927E-01   0.1912530413E-01  -0.4948064248E-02   0.0000000000E+00   0.0000000000E+00   0.4413462349E-03  -0.1098409633E-03  -0.6432483522E-04   0.0000000000E+00   0.0000000000E+00   0.0000000000E+00   0.3981469583E-01
   0.2985210656E+00   0.6737033857E-01   0.9177918794E-04  -0.1932743700E-05   0.1835583759E-03  -0.3865487401E-05   0.5626145210E-01   0.1034433602E-01   0.1998173644E-01  -0.4008788216E-02   0.0000000000E+00   0.0000000000E+00   0.4716363037E-03  -0.1252862054E-03  -0.5211424680E-04   0.0000000000E+00   0.0000000000E+00   0.0000000000E+00   0.4250400691E-01
   0.3164502672E+00   0.1536864455E+00   0.9218840939E-04  -0.7496504528E-05   0.1843768188E-03  -0.1499300906E-04   0.7812410807E-01   0.3939011356E-02   0.2461893583E-01  -0.2497778701E-02   0.0000000000E+00   0.0000000000E+00   0.6955672392E-03  -0.2688390181E-03  -0.3247112312E-04   0.0000000000E+00   0.0000000000E+00   0.0000000000E+00   0.6645012503E-01
   0.2238963246E+00   0.1992323192E+00   0.6535154740E-04  -0.1529060226E-04   0.1307030948E-03  -0.3058120451E-04   0.9382168740E-01  -0.1160285743E-02   0.2779842050E-01  -0.3064173064E-02   0.0000000000E+00   0.0000000000E+00   0.8583024697E-03  -0.3764631811E-03  -0.3983424983E-04   0.0000000000E+00   0.0000000000E+00   0.0000000000E+00   0.8448287970E-01
   0.2043728310E+00   0.1991704561E+00   0.5972634615E-04  -0.1677364474E-04   0.1194526923E-03  -0.3354728948E-04   0.9510394747E-01  -0.2130072968E-02   0.2789216235E-01  -0.2148785511E-02   0.0000000000E+00   0.0000000000E+00   0.8737532065E-03  -0.3902890591E-03  -0.2793421164E-04   0.0000000000E+00   0.0000000000E+00   0.0000000000E+00   0.8631205285E-01
   0.2533072731E+00   0.2161846938E+00   0.7246601828E-04  -0.1576940575E-04   0.1449320366E-03  -0.3153881150E-04   0.9596970843E-01   0.9356437485E-05   0.2879371946E-01  -0.2504419990E-02   0.0000000000E+00   0.0000000000E+00   0.8732878566E-03  -0.3741967193E-03  -0.3255745987E-04   0.0000000000E+00   0.0000000000E+00   0.0000000000E+00   0.8539768293E-01
   0.1167136557E+00   0.2161383166E+00   0.3140355172E-04  -0.3123346478E-04   0.6280710344E-04  -0.6246692956E-04   0.9729178147E-01  -0.2046218482E-02   0.2857366890E-01   0.7344169907E-02   0.0000000000E+00   0.0000000000E+00   0.8933354634E-03  -0.3980585359E-03   0.9547420879E-04   0.0000000000E+00   0.0000000000E+00   0.0000000000E+00   0.8899442346E-01
   0.1458821080E+00   0.1992054509E+00   0.4226234506E-04  -0.2388903121E-04   0.8452469013E-04  -0.4777806243E-04   0.9849719882E-01  -0.4573871961E-02   0.2817699806E-01   0.4071612507E-02   0.0000000000E+00   0.0000000000E+00   0.9141626099E-03  -0.4257613102E-03   0.5293096259E-04   0.0000000000E+00   0.0000000000E+00   0.0000000000E+00   0.9148229467E-01
   0.1357761692E+00   0.1822833131E+00   0.4127874233E-04  -0.2306162498E-04   0.8255748467E-04  -0.4612324995E-04   0.9889927964E-01  -0.7228926892E-02   0.2750110582E-01   0.4463847337E-02   0.0000000000E+00   0.0000000000E+00   0.9281762596E-03  -0.4514904253E-03   0.5803001538E-04   0.0000000000E+00   0.0000000000E+00   0.0000000000E+00   0.9402273585E-01
   0.2042670726E+00   0.3564472259E-01   0.8069088099E-04  -0.9308689699E-06   0.1613817620E-03  -0.1861737940E-05   0.3909610824E-01   0.5326289434E-02   0.1332671930E-01  -0.9436344652E-02   0.0000000000E+00   0.0000000000E+00   0.3350020562E-03  -0.1040055883E-03  -0.1226724805E-03   0.0000000000E+00   0.0000000000E+00   0.0000000000E+00   0.3458543802E-01
   0.1751108998E+00   0.1821498164E+00   0.5316027313E-04  -0.1744785510E-04   0.1063205463E-03  -0.3489571020E-04   0.9452213267E-01  -0.5524489452E-02   0.2669929297E-01  -0.1068707681E-02   0.0000000000E+00   0.0000000000E+00   0.8816969162E-03  -0.4189091714E-03  -0.1389319985E-04   0.0000000000E+00   0.0000000000E+00   0.0000000000E+00   0.8846185554E-01
   0.1653873365E+00   0.1991629426E+00   0.4817684922E-04  -0.2104111738E-04   0.9635369845E-04  -0.4208223477E-04   0.9759857314E-01  -0.4064753279E-02   0.2806014596E-01   0.1473814625E-02   0.0000000000E+00   0.0000000000E+00   0.9039995533E-03  -0.4176236901E-03   0.1915959012E-04   0.0000000000E+00   0.0000000000E+00   0.0000000000E+00   0.9003612575E-01
   0.1848796054E+00   0.1991510254E+00   0.5400312350E-04  -0.1867586586E-04   0.1080062470E-03  -0.3735173172E-04   0.9643700957E-01  -0.3144194659E-02   0.2798784447E-01  -0.6420449820E-03   0.0000000000E+00   0.0000000000E+00   0.8898391463E-03  -0.4047165087E-03  -0.8346584765E-05   0.0000000000E+00   0.0000000000E+00   0.0000000000E+00   0.8823489182E-01
   0.1937511112E+00   0.5328772901E-01   0.7752574879E-04  -0.1763496775E-05   0.1550514976E-03  -0.3526993551E-05   0.4412398963E-01   0.1348797428E-02   0.1364183612E-01  -0.1375331848E-01   0.0000000000E+00   0.0000000000E+00   0.3962679957E-03  -0.1598095030E-03  -0.1787931403E-03   0.0000000000E+00   0.0000000000E+00   0.0000000000E+00   0.4504249764E-01
   0.2147284638E+00   0.5363039858E-01   0.8029392365E-04  -0.1614908091E-05   0.1605878473E-03  -0.3229816181E-05   0.4686126644E-01   0.4733404840E-02   0.1547840138E-01  -0.1110068295E-01   0.0000000000E+00   0.0000000000E+00   0.4079772457E-03  -0.1396849551E-03  -0.1443088784E-03   0.0000000000E+00   0.0000000000E+00   0.0000000000E+00   0.4255451071E-01
   0.2435976272E+00   0.1993021480E+00   0.7092973118E-04  -0.1415733287E-04   0.1418594624E-03  -0.2831466574E-04   0.9260057800E-01  -0.2893666676E-03   0.2769336340E-01  -0.3460020088E-02   0.0000000000E+00   0.0000000000E+00   0.8437937898E-03  -0.3637754909E-03  -0.4498026114E-04   0.0000000000E+00   0.0000000000E+00   0.0000000000E+00   0.8275262414E-01
   0.5027703099E-01   0.1848077285E+00   0.1457176330E-04  -0.3934548866E-04   0.2914352660E-04  -0.7869097733E-04   0.1003301039E+00   0.5260557704E-02   0.3167719848E-01   0.1129491627E-01   0.0000000000E+00   0.0000000000E+00   0.8924877704E-03  -0.3434163301E-03   0.1468339115E-03   0.0000000000E+00   0.0000000000E+00   0.0000000000E+00   0.8725733616E-01
   0.3159202327E+00   0.1729540548E+00   0.9149289683E-04  -0.9327413347E-05   0.1829857937E-03  -0.1865482669E-04   0.8321953766E-01   0.2666299532E-02   0.2576575116E-01  -0.2221714559E-02   0.0000000000E+00   0.0000000000E+00   0.7468992245E-03  -0.3002928711E-03  -0.2888228927E-04   0.0000000000E+00   0.0000000000E+00   0.0000000000E+00   0.7195136858E-01
   0.2985985073E+00   0.1762929512E-01   0.9301610573E-04  -0.4018609195E-06   0.1860322115E-03  -0.8037218391E-06   0.4928756328E-01   0.1329371415E-01   0.1877438323E-01  -0.1094455361E-02   0.0000000000E+00   0.0000000000E+00   0.3966713407E-03  -0.7124869803E-04  -0.1422791970E-04   0.0000000000E+00   0.0000000000E+00   0.0000000000E+00   0.3364059913E-01
   0.3086166228E+00   0.0000000000E+00   0.9442861150E-04   0.0000000000E+00   0.1888572230E-03   0.0000000000E+00   0.4961024173E-01   0.1385250398E-01   0.1903882371E-01  -0.3385852333E-03   0.0000000000E+00   0.0000000000E+00   0.3974284342E-03  -0.6742215652E-04  -0.4401608033E-05   0.0000000000E+00   0.0000000000E+00   0.0000000000E+00   0.3346877637E-01
   0.2662258339E+00   0.6955568122E-01   0.8657229915E-04  -0.2117191741E-05   0.1731445983E-03  -0.4234383482E-05   0.5558797553E-01   0.8972345476E-02   0.1936809630E-01  -0.6914027009E-02   0.0000000000E+00   0.0000000000E+00   0.4708584300E-03  -0.1351447608E-03  -0.8988235112E-04   0.0000000000E+00   0.0000000000E+00   0.0000000000E+00   0.4401027978E-01
   0.2470390503E+00   0.7419269261E-01   0.8319341711E-04  -0.2437228834E-05   0.1663868342E-03  -0.4874457667E-05   0.5594975355E-01   0.6617816341E-02   0.1877027097E-01  -0.8967415597E-02   0.0000000000E+00   0.0000000000E+00   0.4833332736E-03  -0.1579819101E-03  -0.1165764028E-03   0.0000000000E+00   0.0000000000E+00   0.0000000000E+00   0.4715467734E-01
   0.1723379128E+00   0.5293939343E-01   0.7479161473E-04  -0.2088391227E-05   0.1495832295E-03  -0.4176782454E-05   0.4041210236E-01  -0.3864885116E-02   0.1096416517E-01  -0.1689841293E-01   0.0000000000E+00   0.0000000000E+00   0.3828231834E-03  -0.1927776538E-03  -0.2196793681E-03   0.0000000000E+00   0.0000000000E+00   0.0000000000E+00   0.4893719725E-01
   0.2326388966E+00   0.8724934977E-01   0.7948320817E-04  -0.3383808425E-05   0.1589664163E-03  -0.6767616850E-05   0.5946122274E-01   0.3383183664E-02   0.1885332192E-01  -0.1098556383E-01   0.0000000000E+00   0.0000000000E+00   0.5279027106E-03  -0.2011117973E-03  -0.1428123298E-03   0.0000000000E+00   0.0000000000E+00   0.0000000000E+00   0.5363701917E-01
   0.2149604952E+00   0.8962618931E-01   0.7601407209E-04  -0.3853196070E-05   0.1520281442E-03  -0.7706392140E-05   0.6125276065E-01   0.3445244588E-03   0.1847918553E-01  -0.1299955571E-01   0.0000000000E+00   0.0000000000E+00   0.5560564765E-03  -0.2357505939E-03  -0.1689942242E-03   0.0000000000E+00   0.0000000000E+00   0.0000000000E+00   0.5862905454E-01
   0.2248437501E+00   0.7172803737E-01   0.7988335576E-04  -0.2500375409E-05   0.1597667115E-03  -0.5000750817E-05   0.5434894546E-01   0.4136189338E-02   0.1754554044E-01  -0.1142727183E-01   0.0000000000E+00   0.0000000000E+00   0.4784442652E-03  -0.1743215643E-03  -0.1485545338E-03   0.0000000000E+00   0.0000000000E+00   0.0000000000E+00   0.4919920951E-01
   0.2359257165E+00   0.5426420643E-01   0.8316748699E-04  -0.1554691318E-05   0.1663349740E-03  -0.3109382637E-05   0.4943587531E-01   0.7254301093E-02   0.1700705292E-01  -0.8670404762E-02   0.0000000000E+00   0.0000000000E+00   0.4215746910E-03  -0.1267857737E-03  -0.1127152619E-03   0.0000000000E+00   0.0000000000E+00   0.0000000000E+00   0.4110767184E-01
   0.7477154477E-01   0.1105806002E+00   0.3476655517E-04  -0.2359359881E-04   0.6953311034E-04  -0.4718719762E-04   0.1156765419E+00  -0.5085409444E-02   0.3317733974E-01  -0.8967526642E-02   0.0000000000E+00   0.0000000000E+00   0.1072489628E-02  -0.4974157394E-03  -0.1165778463E-03   0.0000000000E+00   0.0000000000E+00   0.0000000000E+00   0.1068972675E+00
   0.1263558812E+00   0.1992787192E+00   0.3629240136E-04  -0.2718226231E-04   0.7258480273E-04  -0.5436452463E-04   0.9892744777E-01  -0.4397052183E-02   0.2835911868E-01   0.6852452611E-02   0.0000000000E+00   0.0000000000E+00   0.9173882782E-03  -0.4258302212E-03   0.8908188395E-04   0.0000000000E+00   0.0000000000E+00   0.0000000000E+00   0.9221989872E-01
   0.1159388060E+00   0.1826609548E+00   0.3504800033E-04  -0.2665739471E-04   0.7009600067E-04  -0.5331478942E-04   0.1008295082E+00  -0.6444912105E-02   0.2831537884E-01   0.7722194386E-02   0.0000000000E+00   0.0000000000E+00   0.9426836822E-03  -0.4518837823E-03   0.1003885270E-03   0.0000000000E+00   0.0000000000E+00   0.0000000000E+00   0.9572475208E-01
   0.1488924080E+00   0.5214544008E-01   0.7196933986E-04  -0.2760472441E-05   0.1439386797E-03  -0.5520944881E-05   0.3757814172E-01  -0.1030402253E-01   0.8182235756E-02  -0.1942365380E-01   0.0000000000E+00   0.0000000000E+00   0.3821467775E-03  -0.2403213577E-03  -0.2525074994E-03   0.0000000000E+00   0.0000000000E+00   0.0000000000E+00   0.5381952730E-01
   0.7067747708E-01   0.1571623137E+00   0.2340075986E-04  -0.3200609809E-04   0.4680151972E-04  -0.6401219618E-04   0.1120587069E+00  -0.3183414118E-03   0.3352210964E-01   0.1060832432E-01   0.0000000000E+00   0.0000000000E+00   0.1020975764E-02  -0.4399258637E-03   0.1379082162E-03   0.0000000000E+00   0.0000000000E+00   0.0000000000E+00   0.1014256238E+00
   0.8506038463E-01   0.1701669597E+00   0.2666704170E-04  -0.3090309479E-04   0.5333408340E-04  -0.6180618959E-04   0.1055188878E+00  -0.3906252691E-02   0.3048379055E-01   0.1054833456E-01   0.0000000000E+00   0.0000000000E+00   0.9754562649E-03  -0.4470705621E-03   0.1371283493E-03   0.0000000000E+00   0.0000000000E+00   0.0000000000E+00   0.9865882683E-01
   0.8068266664E-01   0.1852533128E+00   0.2376287966E-04  -0.3390807866E-04   0.4752575933E-04  -0.6781615732E-04   0.1007279966E+00  -0.1224243385E-02   0.2985112597E-01   0.1195781951E-01   0.0000000000E+00   0.0000000000E+00   0.9213993184E-03  -0.4039798016E-03   0.1554516536E-03   0.0000000000E+00   0.0000000000E+00   0.0000000000E+00   0.9284212526E-01
   0.6752258694E-01   0.1765950478E+00   0.2043247854E-04  -0.3530071751E-04   0.4086495708E-04  -0.7060143501E-04   0.1040173980E+00   0.1498071515E-02   0.3165464084E-01   0.1230236993E-01   0.0000000000E+00   0.0000000000E+00   0.9407158425E-03  -0.3920354013E-03   0.1599308091E-03   0.0000000000E+00   0.0000000000E+00   0.0000000000E+00   0.9372069186E-01
   0.9668672304E-01   0.1837736217E+00   0.2887671452E-04  -0.3055244630E-04   0.5775342904E-04  -0.6110489259E-04   0.1015936925E+00  -0.4073353938E-02   0.2925610157E-01   0.1051668637E-01   0.0000000000E+00   0.0000000000E+00   0.9403886821E-03  -0.4332829216E-03   0.1367169229E-03   0.0000000000E+00   0.0000000000E+00   0.0000000000E+00   0.9529738171E-01
   0.2990659602E+00   0.1627259169E+00   0.8774239678E-04  -0.8526350248E-05   0.1754847936E-03  -0.1705270050E-04   0.8054387177E-01   0.2681236036E-02   0.2496753234E-01  -0.3603975956E-02   0.0000000000E+00   0.0000000000E+00   0.7224924126E-03  -0.2897218520E-03  -0.4685168742E-04   0.0000000000E+00   0.0000000000E+00   0.0000000000E+00   0.6973508862E-01
   0.2833824311E+00   0.1692314335E+00   0.8356104818E-04  -0.9441165863E-05   0.1671220964E-03  -0.1888233173E-04   0.8326510357E-01   0.1939548787E-02   0.2556139571E-01  -0.4126994560E-02   0.0000000000E+00   0.0000000000E+00   0.7501482022E-03  -0.3070840100E-03  -0.5365092928E-04   0.0000000000E+00   0.0000000000E+00   0.0000000000E+00   0.7281240801E-01
   0.2825802763E+00   0.1531771654E+00   0.8430741951E-04  -0.7864868203E-05   0.1686148390E-03  -0.1572973641E-04   0.7926966502E-01   0.2922993273E-02   0.2465779749E-01  -0.4854449273E-02   0.0000000000E+00   0.0000000000E+00   0.7099542779E-03  -0.2825524548E-03  -0.6310784055E-04   0.0000000000E+00   0.0000000000E+00   0.0000000000E+00   0.6865256230E-01
   0.2042097366E+00   0.7156400252E-01   0.7658920632E-04  -0.2722394025E-05   0.1531784126E-03  -0.5444788049E-05   0.5385300205E-01   0.9252378852E-03   0.1643347198E-01  -0.1418601409E-01   0.0000000000E+00   0.0000000000E+00   0.4864538909E-03  -0.2016070432E-03  -0.1844181831E-03   0.0000000000E+00   0.0000000000E+00   0.0000000000E+00   0.5316027462E-01
   0.2995334249E+00   0.1439851583E+00   0.8869097262E-04  -0.6802914340E-05   0.1773819452E-03  -0.1360582868E-04   0.7585713571E-01   0.4066330540E-02   0.2397703987E-01  -0.3997868335E-02   0.0000000000E+00   0.0000000000E+00   0.6744412459E-03  -0.2588392214E-03  -0.5197228835E-04   0.0000000000E+00   0.0000000000E+00   0.0000000000E+00   0.6456878850E-01
   0.2818849053E+00   0.7699909681E-01   0.8867076971E-04  -0.2414398213E-05   0.1773415394E-03  -0.4828796427E-05   0.5878795258E-01   0.9340170918E-02   0.2043843705E-01  -0.5658231496E-02   0.0000000000E+00   0.0000000000E+00   0.4985437019E-03  -0.1442774597E-03  -0.7355700944E-04   0.0000000000E+00   0.0000000000E+00   0.0000000000E+00   0.4599167252E-01
   0.1283216750E+00   0.8317912303E-01   0.5986700584E-04  -0.8121355960E-05   0.1197340117E-03  -0.1624271192E-04   0.6812257103E-01  -0.1872954225E-01   0.1481790863E-01  -0.2121256995E-01   0.0000000000E+00   0.0000000000E+00   0.6929606111E-03  -0.4361168615E-03  -0.2757634094E-03   0.0000000000E+00   0.0000000000E+00   0.0000000000E+00   0.8413914861E-01
   0.1284923887E+00   0.1030959395E+00   0.5403788878E-04  -0.1115918132E-04   0.1080757776E-03  -0.2231836264E-04   0.8244645996E-01  -0.1868151091E-01   0.1912948471E-01  -0.1580678127E-01   0.0000000000E+00   0.0000000000E+00   0.8231206782E-03  -0.4915429431E-03  -0.2054881565E-03   0.0000000000E+00   0.0000000000E+00   0.0000000000E+00   0.9267432479E-01
   0.1145048488E+00   0.9385179338E-01   0.5299026334E-04  -0.1183777201E-04   0.1059805267E-03  -0.2367554402E-04   0.8197584156E-01  -0.1788502153E-01   0.1922724601E-01  -0.1830655682E-01   0.0000000000E+00   0.0000000000E+00   0.8157317421E-03  -0.4824594780E-03  -0.2379852386E-03   0.0000000000E+00   0.0000000000E+00   0.0000000000E+00   0.9334079213E-01
   0.1946461133E+00   0.1821776224E+00   0.5881276988E-04  -0.1542118773E-04   0.1176255398E-03  -0.3084237545E-04   0.9246033530E-01  -0.3874996305E-02   0.2657560170E-01  -0.2906552939E-02   0.0000000000E+00   0.0000000000E+00   0.8565015368E-03  -0.3958577740E-03  -0.3778518821E-04   0.0000000000E+00   0.0000000000E+00   0.0000000000E+00   0.8542887451E-01
   0.2539131597E+00   0.1824078489E+00   0.7508055518E-04  -0.1171471631E-04   0.1501611104E-03  -0.2342943262E-04   0.8786249035E-01   0.3237879015E-03   0.2645588348E-01  -0.4370622415E-02   0.0000000000E+00   0.0000000000E+00   0.7982858894E-03  -0.3397172425E-03  -0.5681809139E-04   0.0000000000E+00   0.0000000000E+00   0.0000000000E+00   0.7819681711E-01
   0.2337963772E+00   0.1824388217E+00   0.6966939632E-04  -0.1264078109E-04   0.1393387926E-03  -0.2528156217E-04   0.8925237844E-01  -0.9280138495E-03   0.2649730938E-01  -0.4445125442E-02   0.0000000000E+00   0.0000000000E+00   0.8158158978E-03  -0.3565292019E-03  -0.5778663075E-04   0.0000000000E+00   0.0000000000E+00   0.0000000000E+00   0.8043584275E-01
   0.2514938634E+00   0.1519812418E+00   0.7697678851E-04  -0.8531081945E-05   0.1539535770E-03  -0.1706216389E-04   0.8066195745E-01   0.1220527163E-02   0.2456474538E-01  -0.6604255785E-02   0.0000000000E+00   0.0000000000E+00   0.7292637568E-03  -0.3034748369E-03  -0.8585532520E-04   0.0000000000E+00   0.0000000000E+00   0.0000000000E+00   0.7163423583E-01
   0.2346793702E+00   0.1494177674E+00   0.7312972711E-04  -0.8853209451E-05   0.1462594542E-03  -0.1770641890E-04   0.8041826348E-01  -0.8660989706E-03   0.2386564935E-01  -0.7425154092E-02   0.0000000000E+00   0.0000000000E+00   0.7351839836E-03  -0.3215127282E-03  -0.9652700320E-04   0.0000000000E+00   0.0000000000E+00   0.0000000000E+00   0.7331284255E-01
   0.2482699542E+00   0.1359670351E+00   0.7769774264E-04  -0.7046978892E-05   0.1553954853E-03  -0.1409395778E-04   0.7559921170E-01   0.1348057225E-02   0.2308418068E-01  -0.7754588206E-02   0.0000000000E+00   0.0000000000E+00   0.6826954033E-03  -0.2825696049E-03  -0.1008096467E-03   0.0000000000E+00   0.0000000000E+00   0.0000000000E+00   0.6746746364E-01
   0.7641632159E-01   0.1346881675E+00   0.2887862848E-04  -0.2722982892E-04   0.5775725695E-04  -0.5445965783E-04   0.1153457592E+00  -0.4593744828E-02   0.3322560431E-01   0.3545783899E-02   0.0000000000E+00   0.0000000000E+00   0.1067562013E-02  -0.4916515388E-03   0.4609519068E-04   0.0000000000E+00   0.0000000000E+00   0.0000000000E+00   0.1065948488E+00
   0.2141928875E+00   0.1822909141E+00   0.6430017819E-04  -0.1384230638E-04   0.1286003564E-03  -0.2768461275E-04   0.9065537933E-01  -0.2290672609E-02   0.2650941202E-01  -0.3937101154E-02   0.0000000000E+00   0.0000000000E+00   0.8338975751E-03  -0.3744011001E-03  -0.5118231500E-04   0.0000000000E+00   0.0000000000E+00   0.0000000000E+00   0.8268316406E-01
   0.2572479178E+00   0.5434767473E-01   0.8620592160E-04  -0.1502723491E-05   0.1724118432E-03  -0.3005446981E-05   0.5137656627E-01   0.9315589477E-02   0.1820764672E-01  -0.6839613293E-02   0.0000000000E+00   0.0000000000E+00   0.4311959541E-03  -0.1155967442E-03  -0.8891497281E-04   0.0000000000E+00   0.0000000000E+00   0.0000000000E+00   0.4020362550E-01
   0.2822392805E+00   0.9624133890E-01   0.8767582844E-04  -0.3452467152E-05   0.1753516569E-03  -0.6904934305E-05   0.6327020760E-01   0.7273779978E-02   0.2116319627E-01  -0.5944253729E-02   0.0000000000E+00   0.0000000000E+00   0.5473911472E-03  -0.1805624118E-03  -0.7727529848E-04   0.0000000000E+00   0.0000000000E+00   0.0000000000E+00   0.5154135920E-01
   0.1426909628E+00   0.7226573124E-01   0.6598425080E-04  -0.5217252584E-05   0.1319685016E-03  -0.1043450517E-04   0.5337171920E-01  -0.1514671183E-01   0.1146750221E-01  -0.2144479158E-01   0.0000000000E+00   0.0000000000E+00   0.5447548209E-03  -0.3459847826E-03  -0.2787822906E-03   0.0000000000E+00   0.0000000000E+00   0.0000000000E+00   0.7033020479E-01
   0.1248137986E+00   0.1649336391E+00   0.4019954422E-04  -0.2225162219E-04   0.8039908844E-04  -0.4450324439E-04   0.1001806637E+00  -0.1021543011E-01   0.2698957007E-01   0.4038052116E-02   0.0000000000E+00   0.0000000000E+00   0.9514842169E-03  -0.4836650024E-03   0.5249467751E-04   0.0000000000E+00   0.0000000000E+00   0.0000000000E+00   0.9750521261E-01
   0.2657771132E+00   0.1442413487E+00   0.8099339070E-04  -0.7385750085E-05   0.1619867814E-03  -0.1477150017E-04   0.7684530569E-01   0.2221240811E-02   0.2371996395E-01  -0.6197768780E-02   0.0000000000E+00   0.0000000000E+00   0.6906294426E-03  -0.2794834008E-03  -0.8057099415E-04   0.0000000000E+00   0.0000000000E+00   0.0000000000E+00   0.6739501369E-01
   0.2825257275E+00   0.1345716005E+00   0.8542649807E-04  -0.6212490076E-05   0.1708529961E-03  -0.1242498015E-04   0.7378539467E-01   0.4097467804E-02   0.2336485874E-01  -0.5430710986E-02   0.0000000000E+00   0.0000000000E+00   0.6554669671E-03  -0.2504760822E-03  -0.7059924281E-04   0.0000000000E+00   0.0000000000E+00   0.0000000000E+00   0.6303703589E-01
   0.2823807464E+00   0.1155286388E+00   0.8656145024E-04  -0.4730069929E-05   0.1731229005E-03  -0.9460139857E-05   0.6846086037E-01   0.5542434067E-02   0.2220098833E-01  -0.5812132307E-02   0.0000000000E+00   0.0000000000E+00   0.6013783365E-03  -0.2165612054E-03  -0.7555772000E-04   0.0000000000E+00   0.0000000000E+00   0.0000000000E+00   0.5735252054E-01
   0.2242110891E+00   0.1656052748E+00   0.6877135983E-04  -0.1118139800E-04   0.1375427197E-03  -0.2236279601E-04   0.8546706024E-01  -0.1923065356E-02   0.2506319846E-01  -0.5739543646E-02   0.0000000000E+00   0.0000000000E+00   0.7852502031E-03  -0.3508214297E-03  -0.7461406739E-04   0.0000000000E+00   0.0000000000E+00   0.0000000000E+00   0.7813455780E-01
   0.2437329901E+00   0.1659934066E+00   0.7378603568E-04  -0.1028712287E-04   0.1475720714E-03  -0.2057424575E-04   0.8424517793E-01  -0.3949842599E-03   0.2515505810E-01  -0.5734315319E-02   0.0000000000E+00   0.0000000000E+00   0.7681715578E-03  -0.3321505507E-03  -0.7454609915E-04   0.0000000000E+00   0.0000000000E+00   0.0000000000E+00   0.7584034782E-01
   0.1823190647E+00   0.1088691560E+00   0.6630689825E-04  -0.6921998310E-05   0.1326137965E-03  -0.1384399662E-04   0.7254926989E-01  -0.8064674596E-02   0.1934537859E-01  -0.1369674386E-01   0.0000000000E+00   0.0000000000E+00   0.6916505869E-03  -0.3563306914E-03  -0.1780576702E-03   0.0000000000E+00   0.0000000000E+00   0.0000000000E+00   0.7482618294E-01
   0.2058379885E+00   0.1120356014E+00   0.7106148492E-04  -0.6119867277E-05   0.1421229698E-03  -0.1223973455E-04   0.7081907562E-01  -0.3107066733E-02   0.2031360267E-01  -0.1203896937E-01   0.0000000000E+00   0.0000000000E+00   0.6565711484E-03  -0.3044687022E-03  -0.1565066018E-03   0.0000000000E+00   0.0000000000E+00   0.0000000000E+00   0.6867936691E-01
   0.1890228968E+00   0.1288648585E+00   0.6455128247E-04  -0.8924502956E-05   0.1291025649E-03  -0.1784900591E-04   0.7886469172E-01  -0.7025044223E-02   0.2155189425E-01  -0.1060913690E-01   0.0000000000E+00   0.0000000000E+00   0.7450663671E-03  -0.3715002001E-03  -0.1379187796E-03   0.0000000000E+00   0.0000000000E+00   0.0000000000E+00   0.7795107267E-01
   0.2650100286E+00   0.1642858389E+00   0.7930387870E-04  -0.9367702802E-05   0.1586077574E-03  -0.1873540560E-04   0.8278376071E-01   0.1328625020E-02   0.2523371572E-01  -0.5159571804E-02   0.0000000000E+00   0.0000000000E+00   0.7481505848E-03  -0.3107661791E-03  -0.6707443345E-04   0.0000000000E+00   0.0000000000E+00   0.0000000000E+00   0.7307081840E-01
   0.1938761290E+00   0.9046458315E-01   0.7186232587E-04  -0.4468315220E-05   0.1437246517E-03  -0.8936630441E-05   0.6316542893E-01  -0.3193143445E-02   0.1799168565E-01  -0.1487273266E-01   0.0000000000E+00   0.0000000000E+00   0.5872586627E-03  -0.2754027782E-03  -0.1933455246E-03   0.0000000000E+00   0.0000000000E+00   0.0000000000E+00   0.6411336369E-01
   0.1351406163E+00   0.1461265198E+00   0.4642809209E-04  -0.1740574678E-04   0.9285618418E-04  -0.3481149355E-04   0.9686263521E-01  -0.1312712099E-01   0.2512065427E-01  -0.1977243178E-02   0.0000000000E+00   0.0000000000E+00   0.9326457522E-03  -0.4972210783E-03  -0.2570416131E-04   0.0000000000E+00   0.0000000000E+00   0.0000000000E+00   0.9671985301E-01
   0.1851799436E+00   0.1648053826E+00   0.5829152026E-04  -0.1398214185E-04   0.1165830405E-03  -0.2796428370E-04   0.9009413105E-01  -0.6199178065E-02   0.2516848590E-01  -0.4208467377E-02   0.0000000000E+00   0.0000000000E+00   0.8440333870E-03  -0.4077796315E-03  -0.5471007590E-04   0.0000000000E+00   0.0000000000E+00   0.0000000000E+00   0.8535145340E-01
   0.1960316124E+00   0.1477760114E+00   0.6354247705E-04  -0.1083186603E-04   0.1270849541E-03  -0.2166373206E-04   0.8443580178E-01  -0.5638551960E-02   0.2363917495E-01  -0.7582568381E-02   0.0000000000E+00   0.0000000000E+00   0.7903561489E-03  -0.3806104498E-03  -0.9857338895E-04   0.0000000000E+00   0.0000000000E+00   0.0000000000E+00   0.8064936346E-01
   0.1763211393E+00   0.1463009754E+00   0.5845409821E-04  -0.1227719457E-04   0.1169081964E-03  -0.2455438913E-04   0.8683850928E-01  -0.8960721412E-02   0.2336333636E-01  -0.6769161141E-02   0.0000000000E+00   0.0000000000E+00   0.8251772479E-03  -0.4202127510E-03  -0.8799909484E-04   0.0000000000E+00   0.0000000000E+00   0.0000000000E+00   0.8519630226E-01
   0.9348483414E-01   0.1193772385E+00   0.3862141379E-04  -0.2061383980E-04   0.7724282759E-04  -0.4122767960E-04   0.1061893821E+00  -0.1446674273E-01   0.2751679180E-01  -0.5978424440E-02   0.0000000000E+00   0.0000000000E+00   0.1022743673E-02  -0.5457859489E-03  -0.7771951772E-04   0.0000000000E+00   0.0000000000E+00   0.0000000000E+00   0.1065756022E+00
   0.2047306974E+00   0.1651974341E+00   0.6363545411E-04  -0.1239698249E-04   0.1272709082E-03  -0.2479396499E-04   0.8775178846E-01  -0.3736062356E-02   0.2520471783E-01  -0.5438203877E-02   0.0000000000E+00   0.0000000000E+00   0.8131119182E-03  -0.3762301424E-03  -0.7069665040E-04   0.0000000000E+00   0.0000000000E+00   0.0000000000E+00   0.8153341312E-01
   0.2650491858E+00   0.1254030924E+00   0.8230293932E-04  -0.5731520663E-05   0.1646058786E-03  -0.1146304133E-04   0.7147614196E-01   0.3128281359E-02   0.2238132700E-01  -0.7006629235E-02   0.0000000000E+00   0.0000000000E+00   0.6382325945E-03  -0.2502895933E-03  -0.9108618006E-04   0.0000000000E+00   0.0000000000E+00   0.0000000000E+00   0.6223994522E-01
   0.2468329509E+00   0.1160968549E+00   0.7927895943E-04  -0.5294710601E-05   0.1585579189E-03  -0.1058942120E-04   0.6994463305E-01   0.2456917134E-02   0.2172046505E-01  -0.8640918732E-02   0.0000000000E+00   0.0000000000E+00   0.6269141839E-03  -0.2504261230E-03  -0.1123319435E-03   0.0000000000E+00   0.0000000000E+00   0.0000000000E+00   0.6205629007E-01
   0.2265020382E+00   0.1285647290E+00   0.7352473290E-04  -0.6998985108E-05   0.1470494658E-03  -0.1399797022E-04   0.7439400528E-01  -0.1263792783E-02   0.2193906375E-01  -0.9273139562E-02   0.0000000000E+00   0.0000000000E+00   0.6819142399E-03  -0.3016371349E-03  -0.1205508143E-03   0.0000000000E+00   0.0000000000E+00   0.0000000000E+00   0.6902818902E-01
   0.1260845395E+00   0.1248852485E+00   0.4783381875E-04  -0.1524317565E-04   0.9566763751E-04  -0.3048635129E-04   0.9446075026E-01  -0.1745421523E-01   0.2310196051E-01  -0.7965398942E-02   0.0000000000E+00   0.0000000000E+00   0.9276642667E-03  -0.5272302846E-03  -0.1035501863E-03   0.0000000000E+00   0.0000000000E+00   0.0000000000E+00   0.9905883283E-01
   0.1077537060E+00   0.1274021877E+00   0.4137965587E-04  -0.1898875257E-04   0.8275931174E-04  -0.3797750515E-04   0.1040209879E+00  -0.1540434878E-01   0.2658499173E-01  -0.3926093586E-02   0.0000000000E+00   0.0000000000E+00   0.1006667950E-02  -0.5458614266E-03  -0.5103921662E-04   0.0000000000E+00   0.0000000000E+00   0.0000000000E+00   0.1051723943E+00
   0.1109813762E+00   0.1108252532E+00   0.4680738592E-04  -0.1532161133E-04   0.9361477183E-04  -0.3064322266E-04   0.9235921502E-01  -0.1930290066E-01   0.2191689431E-01  -0.1106509464E-01   0.0000000000E+00   0.0000000000E+00   0.9157501692E-03  -0.5358573346E-03  -0.1438462304E-03   0.0000000000E+00   0.0000000000E+00   0.0000000000E+00   0.9950458397E-01
   0.9608982807E-01   0.1358204191E+00   0.3558995526E-04  -0.2295261923E-04   0.7117991052E-04  -0.4590523845E-04   0.1088554297E+00  -0.1171774229E-01   0.2914130621E-01   0.1822623049E-02   0.0000000000E+00   0.0000000000E+00   0.1036283605E-02  -0.5311676305E-03   0.2369409964E-04   0.0000000000E+00   0.0000000000E+00   0.0000000000E+00   0.1062222707E+00
   0.2290496914E+00   0.1048982113E+00   0.7681845799E-04  -0.4761891542E-05   0.1536369160E-03  -0.9523783084E-05   0.6646340259E-01   0.1248192738E-02   0.2031347860E-01  -0.1057122381E-01   0.0000000000E+00   0.0000000000E+00   0.5999490119E-03  -0.2478487162E-03  -0.1374259095E-03   0.0000000000E+00   0.0000000000E+00   0.0000000000E+00   0.6087530869E-01
   0.1559462782E+00   0.1460592094E+00   0.5271806216E-04  -0.1450088103E-04   0.1054361243E-03  -0.2900176206E-04   0.9211352665E-01  -0.1096500415E-01   0.2434455675E-01  -0.4909534307E-02   0.0000000000E+00   0.0000000000E+00   0.8809966087E-03  -0.4590242917E-03  -0.6382394599E-04   0.0000000000E+00   0.0000000000E+00   0.0000000000E+00   0.9106209331E-01
   0.2064669614E+00   0.1331129719E+00   0.6819878842E-04  -0.8432371108E-05   0.1363975768E-03  -0.1686474222E-04   0.7899129072E-01  -0.4343757890E-02   0.2239425985E-01  -0.9905344493E-02   0.0000000000E+00   0.0000000000E+00   0.7357614014E-03  -0.3475942306E-03  -0.1287694784E-03   0.0000000000E+00   0.0000000000E+00   0.0000000000E+00   0.7563635930E-01
   0.2151943419E+00   0.1483307759E+00   0.6842529390E-04  -0.9691376414E-05   0.1368505878E-03  -0.1938275283E-04   0.8262287200E-01  -0.2285209813E-02   0.2410129866E-01  -0.7328841636E-02   0.0000000000E+00   0.0000000000E+00   0.7607804535E-03  -0.3430246101E-03  -0.9527494127E-04   0.0000000000E+00   0.0000000000E+00   0.0000000000E+00   0.7629865973E-01
   0.1466119942E+00   0.1281079511E+00   0.5329341505E-04  -0.1285929642E-04   0.1065868301E-03  -0.2571859284E-04   0.8886971430E-01  -0.1406307473E-01   0.2244199187E-01  -0.8805533099E-02   0.0000000000E+00   0.0000000000E+00   0.8635603916E-03  -0.4745658658E-03  -0.1144719303E-03   0.0000000000E+00   0.0000000000E+00   0.0000000000E+00   0.9164474770E-01
   0.1670916000E+00   0.1253452456E+00   0.5951766449E-04  -0.1020212695E-04   0.1190353290E-03  -0.2040425391E-04   0.8334605389E-01  -0.1051482605E-01   0.2184936835E-01  -0.1052559836E-01   0.0000000000E+00   0.0000000000E+00   0.7994569120E-03  -0.4207345272E-03  -0.1368327786E-03   0.0000000000E+00   0.0000000000E+00   0.0000000000E+00   0.8454867107E-01
   0.1493150822E+00   0.9406716865E-01   0.6173808214E-04  -0.7357051614E-05   0.1234761643E-03  -0.1471410323E-04   0.7009034309E-01  -0.1488741425E-01   0.1656087865E-01  -0.1804651724E-01   0.0000000000E+00   0.0000000000E+00   0.6958830377E-03  -0.4088278077E-03  -0.2346047242E-03   0.0000000000E+00   0.0000000000E+00   0.0000000000E+00   0.8079996750E-01
   0.1539634323E+00   0.1132308213E+00   0.5846741680E-04  -0.9756240121E-05   0.1169348336E-03  -0.1951248024E-04   0.8079558646E-01  -0.1533535804E-01   0.1963806852E-01  -0.1410125126E-01   0.0000000000E+00   0.0000000000E+00   0.7950477331E-03  -0.4546545454E-03  -0.1833162664E-03   0.0000000000E+00   0.0000000000E+00   0.0000000000E+00   0.8769692246E-01
   0.1650887256E+00   0.1063681165E+00   0.6271819546E-04  -0.7833180590E-05   0.1254363909E-03  -0.1566636118E-04   0.7265549745E-01  -0.1220659708E-01   0.1813467011E-01  -0.1466080752E-01   0.0000000000E+00   0.0000000000E+00   0.7087707554E-03  -0.3944364735E-03  -0.1905904978E-03   0.0000000000E+00   0.0000000000E+00   0.0000000000E+00   0.7858260377E-01
   0.1408935514E+00   0.1126778668E+00   0.5509548119E-04  -0.1112807777E-04   0.1101909624E-03  -0.2225615554E-04   0.8631447335E-01  -0.1581568742E-01   0.2114963578E-01  -0.1245657022E-01   0.0000000000E+00   0.0000000000E+00   0.8471428885E-03  -0.4805492016E-03  -0.1619354128E-03   0.0000000000E+00   0.0000000000E+00   0.0000000000E+00   0.9184730582E-01
           1           2           3           3
           4           5           6           6
           7           8           9           9
          10          11          12          12
          13           7          14          14
          15          16          17          17
          18          19          10          10
          20          21          22          22
          23          24           2           2
          25          23           2           2
          26           3          27          27
          28          29          30          30
          31          32          33          33
          34          31          25          25
          35          36          20          20
          26          27           8           8
          37          15          17          17
          38          39          40          40
          41          40          42          42
          43          44          45          45
          46          47          41          41
          48          49          50          50
          51          52          53          53
          54          55          56          56
          57          58          59          59
          60          61          62          62
          63          64          57          57
          62          13          65          65
          66          67          68          68
          69          66          70          70
          71          72          73          73
          74          75          76          76
          75          77          78          78
          77          79          78          78
          80          53          48          48
          81          82          83          83
          45          84          85          85
          44          86          45          45
          87          88          44          44
          41          42          87          87
          36          89          21          21
          20          36          21          21
          35          30          90          90
          91           1          26          26
          92          93          30          30
           6          94          92          92
          95          96           4           4
          12          97          95          95
          98          12          95          95
          99         100          10          10
         101         102          99          99
         103         104         101         101
         105         106         103         103
         107         108         105         105
         109         110         107         107
         111         112         109         109
          69          70         111         111
           8          27           9           9
           7           9          14          14
          13          14          65          65
         113         114         115         115
          59          58         116         116
          51         116          52          52
          62          65          15          15
         117         118         119         119
         120         121         122         122
         122         123         124         124
          31          33          25          25
          25          33          23          23
          28          20         120         120
         124          32          31          31
         125         124         126         126
         124         123          32          32
         127         120         122         122
         122         121         123         123
         120          20          22          22
         120          22         121         121
          91         128          34          34
         129           4           6           6
          37          17         130         130
         131         132          63          63
          53          52          49          49
          85         133          83          83
          83         134         135         135
          51          59         116         116
          57          64          58          58
          19          99          10          10
         136          63         137         137
          63         132          64          64
         138          60          37          37
         131         130         132         132
          37          62          15          15
          37         130         131         131
         135         134          79          79
         139         103         101         101
          56          55          82          82
          83         133         134         134
          55          45          85          85
          85          84         133         133
         140          46         141         141
          45          86          84          84
         142          44          43          43
          44          88          86          86
          46          87         142         142
          87          42          88          88
          47          38          41          41
          41          38          40          40
         143          29         144         144
          30          93          90          90
         145          92          29          29
          92          94          93          93
         146         147         129         129
           6           5          94          94
         148         149         150         150
           4          96           5           5
         151           7         152         152
          95          97          96          96
          18          12          98          98
          12          11          97          97
         153         139         101         101
          10         100          11          11
         153          99          19          19
          99         102         100         100
         154          51         155         155
         101         104         102         102
         156          71          73          73
         103         106         104         104
         157         103         139         139
         105         108         106         106
          74          76         158         158
         107         110         108         108
          76          75         159         159
         109         112         110         110
         160         109          72          72
         111          70         112         112
         161          67          69          69
          69          67          66          66
         126         124          31          31
         128         162         126         126
         144          28         127         127
         125         127         122         122
         125         122         124         124
         143         146         145         145
          77         135          79          79
          75          78         159         159
          82          85          83          83
         163         164         165         165
          76         159         166         166
         167         168          74          74
          81          83         135         135
         169          56          82          82
          55          43          45          45
          55          85          82          82
         170         141         171         171
         142          87          44          44
         161          76         166         166
         158          69         111         111
         172         135          77          77
         173         139         174         174
         161         166          67          67
         158         161          69          69
          72         109         107         107
         175         107         105         105
         176          95           4           4
         152           7          13          13
         145           6          92          92
         114         177         178         178
          18          10          12          12
         154          59          51          51
         153         101          99          99
         179         137          57          57
         114         180         181         181
         181         182          19          19
         183         179         184         184
         174         153         182         182
         173         185         157         157
         157         105         103         103
          29          92          30          30
         186         127         125         125
          35          90          36          36
          28          35          20          20
         186         144         127         127
         145         129           6           6
         176          98          95          95
         176           4         129         129
         175          72         107         107
         175         105         157         157
          74         187          75          75
         160         111         109         109
           1          25           2           2
           1           3          26          26
          48          53          49          49
         188          48          50          50
         188          50         189         189
          47         188         189         189
         155          51          53          53
         190         164         191         191
         137          63          57          57
         179          57          59          59
         154         179          59          59
         183         192         137         137
         193         194         195         195
         196         184         154         154
          60          62          37          37
         136         131          63          63
          47         189          38          38
          46          41          87          87
          28          30          35          35
          28         120         127         127
         141          46         142         142
          46         188          47          47
         197          26           8           8
         151           8           7           7
         178         198         199         199
          61         152          13          13
          61          13          62          62
         200         136         192         192
         198         176         147         147
         151         197           8           8
          34         126          31          31
          34          25           1           1
         158          76         161         161
         158         111         160         160
         144          29          28          28
         162         125         126         126
         162         186         125         125
         201         162         128         128
         128         126          34          34
         202         203         204         204
         140         188          46          46
         171         142          43          43
          91          34           1           1
         205         199         147         147
         168         206         187         187
         187          77          75          75
         167         158         160         160
         207         208         206         206
         169          82          81          81
         195         209         184         184
         210          81         172         172
         173         157         139         139
         190         170         211         211
          54          43          55          55
         171         141         142         142
         171          43          54          54
         172          81         135         135
         172          77         187         187
         182         153          19          19
         181          19          18          18
         147         176         129         129
         146         129         145         145
         177          18          98          98
         212         213         214         214
         143         145          29          29
         204         203         143         143
          73          72         175         175
         185         175         157         157
         215         182         180         180
         174         139         153         153
         216         185         217         217
         185          73         175         175
         198          98         176         176
         199         198         147         147
         167          71         168         168
          71         160          72          72
         177         181          18          18
         177          98         198         198
         215         174         182         182
         218         219         220         220
         143         144         186         186
         202         204         201         201
          91          26         197         197
         221          91         197         197
          80         155          53          53
         140          80          48          48
         184         179         154         154
         196         154         155         155
         192         136         137         137
         183         137         179         179
         215         222         174         174
         209         118         183         183
         223         155          80          80
         224          54          56          56
         138          37         131         131
         138         200          60          60
         140          48         188         188
         170         140         141         141
         170          80         140         140
         211          54         224         224
         225          61         200         200
         200          61          60          60
         221         128          91          91
         149         226         199         199
         227         228         208         208
         206         172         187         187
         229          56         169         169
         229         224          56          56
         211         170         171         171
         211         171          54          54
         168         187          74          74
         156         168          71          71
         228         169         210         210
         217         185         173         173
         210         169          81          81
         210         172         206         206
         167          74         158         158
         167         160          71          71
         222         173         174         174
         230         231         217         217
         205         147         146         146
         226         178         199         199
         232         233         234         234
         178         177         198         198
         235         156         216         216
         216          73         185         185
         207         168         156         156
         156          73         216         216
         180         182         181         181
         114         181         177         177
         203         205         146         146
         150         202         201         201
         194         236         209         209
         222         217         173         173
         115         178         226         226
         237         115         226         226
         203         146         143         143
         204         143         186         186
         238         180         113         113
         239         238         240         240
         221         201         128         128
         241         197         151         151
         223         196         155         155
         223          80         170         170
         118         192         183         183
         209         183         184         184
         195         184         196         196
         242         215         238         238
         191         196         223         223
         165         164         224         224
         204         186         162         162
         204         162         201         201
         227         208         235         235
         208         210         206         206
         164         211         224         224
         165         224         229         229
         243         229         228         228
         244         220         245         245
         207         206         168         168
         235         207         156         156
         149         199         205         205
         246         148         247         247
         231         216         217         217
         230         217         222         222
         138         131         136         136
         138         136         200         200
         235         208         207         207
         235         216         231         231
         213         248         214         214
         115         114         178         178
         202         149         205         205
         249         221         241         241
         242         222         215         215
         250         244         245         245
         202         205         203         203
         150         201         221         221
         251         115         237         237
         113         180         114         114
         240         113         251         251
         238         215         180         180
         252         233         245         245
         242         230         222         222
         228         229         169         169
         228         210         208         208
         191         195         196         196
         190         191         223         223
         236         118         209         209
         194         209         195         195
         193         195         191         191
         253         219         230         230
         190         223         170         170
         190         211         164         164
         241         221         197         197
         150         149         202         202
         248         241         151         151
         249         148         150         150
         218         235         231         231
         218         220         227         227
         148         237         226         226
         254         251         237         237
         148         226         149         149
         246         247         248         248
         219         231         230         230
         253         230         242         242
         255         251         254         254
         251         113         115         115
         239         242         238         238
         252         245         253         253
         234         252         239         239
         240         238         113         113
         234         240         255         255
         239         253         242         242
         243         165         229         229
         243         228         227         227
         163         191         164         164
         244         243         220         220
         225         212          61          61
         119         118         236         236
         249         150         221         221
         247         249         241         241
         233         236         194         194
         250         245         233         233
         214         151         152         152
         256         213         212         212
         247         148         249         249
         247         241         248         248
         220         243         227         227
         245         220         219         219
         213         246         248         248
         246         237         148         148
         257         255         254         254
         254         237         246         246
         245         219         253         253
         250         233         194         194
         163         244         250         250
         244         165         243         243
         232         234         255         255
         255         240         251         251
         252         253         239         239
         234         239         240         240
         258         255         257         257
         234         233         252         252
         232         119         236         236
         232         236         233         233
         250         194         193         193
         163         250         193         193
         117         200         192         192
         117         192         118         118
         218         227         235         235
         218         231         219         219
         214         248         151         151
         212         214         152         152
         259         256         257         257
         259         246         213         213
         212         152          61          61
         225         256         212         212
         258         257         256         256
         259         257         254         254
         163         193         191         191
         163         165         244         244
         256         117         119         119
         258         256         119         119
         259         254         246         246
         259         213         256         256
         258         119         232         232
         258         232         255         255
         225         200         117         117
         225         117         256         256
 VARIABLES = X,Y,DU1,DU2,U1,U2,S11,S22,S33,S12,S13,S23,E11,E22,E12,E33,E13,E23,SMISES
 ZONE, T="0.4000D+01" F=FEPOINT, I=  259 J=  457
   0.3713408665E-01   0.1123039765E+00   0.1941201151E-04  -0.3282987469E-04   0.5823603454E-04  -0.9848962406E-04   0.2107951673E+00   0.2228235523E-01   0.6992325676E-01  -0.2404194934E-01   0.0000000000E+00   0.0000000000E+00   0.1831334837E-02  -0.6193317199E-03  -0.3125453415E-03   0.0000000000E+00   0.0000000000E+00   0.0000000000E+00   0.1744375437E+00
   0.1956778845E-01   0.9794920454E-01   0.1468901177E-04  -0.3233051595E-04   0.4406703530E-04  -0.9699154786E-04   0.2823325104E+00   0.2910995899E-01   0.9343274080E-01  -0.3270478136E-01   0.0000000000E+00   0.0000000000E+00   0.2455697004E-02  -0.8361961636E-03  -0.4251621577E-03   0.0000000000E+00   0.0000000000E+00   0.0000000000E+00   0.2346710996E+00
   0.3838469619E-01   0.9227098278E-01   0.2908839679E-04  -0.2924228052E-04   0.8726519037E-04  -0.8772684155E-04   0.2618540920E+00   0.4525329350E-01   0.9213221564E-01  -0.6727876510E-01   0.0000000000E+00   0.0000000000E+00   0.2206384392E-02  -0.6094259878E-03  -0.8746239463E-03   0.0000000000E+00   0.0000000000E+00   0.0000000000E+00   0.2276422373E+00
   0.1070156161E+00   0.2329801396E+00   0.2644377234E-04  -0.3516485853E-04   0.7933131701E-04  -0.1054945756E-03   0.1259234768E+00  -0.8277777109E-03   0.3752870973E-01   0.6421028025E-02   0.0000000000E+00   0.0000000000E+00   0.1149131972E-02  -0.4986343367E-03   0.8347336433E-04   0.0000000000E+00   0.0000000000E+00   0.0000000000E+00   0.1131763805E+00
   0.9730699399E-01   0.2498442944E+00   0.2119252365E-04  -0.3892640651E-04   0.6357757095E-04  -0.1167792195E-03   0.1201982202E+00  -0.3222397037E-03   0.3596279414E-01   0.3049518859E-02   0.0000000000E+00   0.0000000000E+00   0.1095060538E-02  -0.4717054399E-03   0.3964374517E-04   0.0000000000E+00   0.0000000000E+00   0.0000000000E+00   0.1071296964E+00
   0.8745310845E-01   0.2328714484E+00   0.2098553643E-04  -0.3866714709E-04   0.6295660928E-04  -0.1160014413E-03   0.1195800448E+00  -0.3874916648E-03   0.3575776594E-01   0.7355273895E-02   0.0000000000E+00   0.0000000000E+00   0.1089689625E-02  -0.4698883489E-03   0.9561856063E-04   0.0000000000E+00   0.0000000000E+00   0.0000000000E+00   0.1074088273E+00
   0.8895507981E-01   0.7374799423E-01   0.5497542748E-04  -0.1458594200E-04   0.1649262824E-03  -0.4375782600E-04   0.7616811927E-01  -0.1009394497E-01   0.1982225229E-01  -0.2904701309E-01   0.0000000000E+00   0.0000000000E+00   0.7324962708E-03  -0.3889105644E-03  -0.3776111701E-03   0.0000000000E+00   0.0000000000E+00   0.0000000000E+00   0.9136460901E-01
   0.7346726464E-01   0.8906139918E-01   0.4355673570E-04  -0.2084923025E-04   0.1306702071E-03  -0.6254769076E-04   0.1201740792E+00   0.3791365630E-02   0.3718963345E-01  -0.3642181948E-01   0.0000000000E+00   0.0000000000E+00   0.1078797795E-02  -0.4341774816E-03  -0.4734836532E-03   0.0000000000E+00   0.0000000000E+00   0.0000000000E+00   0.1230966760E+00
   0.7092696603E-01   0.7062791213E-01   0.5407115790E-04  -0.2069231709E-04   0.1622134737E-03  -0.6207695127E-04   0.7712672163E-01   0.2415740604E-01   0.3038523830E-01  -0.4067476970E-01   0.0000000000E+00   0.0000000000E+00   0.6076392833E-03  -0.8096181940E-04  -0.5287720061E-03   0.0000000000E+00   0.0000000000E+00   0.0000000000E+00   0.8261368747E-01
   0.1654498328E+00   0.2330042346E+00   0.4411246148E-04  -0.2566909036E-04   0.1323373844E-03  -0.7700727108E-04   0.1369704655E+00  -0.1086957732E-02   0.4076505233E-01   0.1687053161E-02   0.0000000000E+00   0.0000000000E+00   0.1250670371E-02  -0.5440761308E-03   0.2193169110E-04   0.0000000000E+00   0.0000000000E+00   0.0000000000E+00   0.1226467742E+00
   0.1557107615E+00   0.2498826179E+00   0.3880011876E-04  -0.2934553547E-04   0.1164003563E-03  -0.8803660640E-04   0.1414894782E+00  -0.1865669326E-03   0.4239087337E-01   0.1086412158E-02   0.0000000000E+00   0.0000000000E+00   0.1288281862E-02  -0.5535067239E-03   0.1412335805E-04   0.0000000000E+00   0.0000000000E+00   0.0000000000E+00   0.1259090556E+00
   0.1459784898E+00   0.2330043558E+00   0.3807095796E-04  -0.2851478869E-04   0.1142128739E-03  -0.8554436607E-04   0.1348623347E+00  -0.1180115065E-02   0.4010466590E-01   0.3325891983E-02   0.0000000000E+00   0.0000000000E+00   0.1231849695E-02  -0.5367021525E-03   0.4323659578E-04   0.0000000000E+00   0.0000000000E+00   0.0000000000E+00   0.1209580688E+00
   0.1020742451E+00   0.5679636664E-01   0.6457102540E-04  -0.9188814991E-05   0.1937130762E-03  -0.2756644497E-04   0.4380709637E-01  -0.2398687430E-01   0.5946066622E-02  -0.2178407323E-01   0.0000000000E+00   0.0000000000E+00   0.4921933867E-03  -0.3891282320E-03  -0.2831929519E-03   0.0000000000E+00   0.0000000000E+00   0.0000000000E+00   0.6988094867E-01
   0.8340077550E-01   0.5549521507E-01   0.6345400012E-04  -0.1545215750E-04   0.1903620004E-03  -0.4635647250E-04   0.2212007952E-01  -0.2003143526E-01   0.6265932796E-03  -0.1000097887E-01   0.0000000000E+00   0.0000000000E+00   0.2794153212E-03  -0.2685543710E-03  -0.1300127253E-03   0.0000000000E+00   0.0000000000E+00   0.0000000000E+00   0.4377090721E-01
   0.9837788788E-01   0.1948983480E-01   0.7484032045E-04  -0.4799400208E-05   0.2245209613E-03  -0.1439820063E-04  -0.5012317713E-02  -0.7762404300E-01  -0.2479090822E-01   0.2970752941E-02   0.0000000000E+00   0.0000000000E+00   0.2571216765E-03  -0.6868307523E-03   0.3861978823E-04   0.0000000000E+00   0.0000000000E+00   0.0000000000E+00   0.6589675323E-01
   0.1003009562E+00   0.0000000000E+00   0.7523880562E-04   0.0000000000E+00   0.2257164169E-03   0.0000000000E+00   0.7828850401E-02  -0.1451701762E+00  -0.4120239773E-01  -0.4900166500E-02   0.0000000000E+00   0.0000000000E+00   0.6374062257E-03  -0.1351581120E-02  -0.6370216450E-04   0.0000000000E+00   0.0000000000E+00   0.0000000000E+00   0.1339429485E+00
   0.1211433413E+00   0.0000000000E+00   0.7750281467E-04   0.0000000000E+00   0.2325084440E-03   0.0000000000E+00  -0.3666986037E-02  -0.6158839922E-01  -0.1957661558E-01   0.8465894874E-03   0.0000000000E+00   0.0000000000E+00   0.2068251840E-03  -0.5461531874E-03   0.1100566334E-04   0.0000000000E+00   0.0000000000E+00   0.0000000000E+00   0.5373478728E-01
   0.1557086128E+00   0.2160961698E+00   0.4318394341E-04  -0.2474904393E-04   0.1295518302E-03  -0.7424713178E-04   0.1328959072E+00  -0.3096636674E-02   0.3893978116E-01   0.3966107169E-02   0.0000000000E+00   0.0000000000E+00   0.1221429638E-02  -0.5464734318E-03   0.5155939320E-04   0.0000000000E+00   0.0000000000E+00   0.0000000000E+00   0.1207825600E+00
   0.1751887719E+00   0.2160904596E+00   0.4912721475E-04  -0.2210861187E-04   0.1473816443E-03  -0.6632583561E-04   0.1329503146E+00  -0.2588243509E-02   0.3910862134E-01   0.1280954689E-02   0.0000000000E+00   0.0000000000E+00   0.1219942013E-02  -0.5420592430E-03   0.1665241095E-04   0.0000000000E+00   0.0000000000E+00   0.0000000000E+00   0.1202553249E+00
   0.1753457687E-01   0.2243486354E+00   0.4126342857E-05  -0.4690115214E-04   0.1237902857E-04  -0.1407034564E-03   0.1081833072E+00   0.3308934487E-02   0.3344767250E-01   0.2948197659E-02   0.0000000000E+00   0.0000000000E+00   0.9715632510E-03  -0.3918035942E-03   0.3832656956E-04   0.0000000000E+00   0.0000000000E+00   0.0000000000E+00   0.9381938732E-01
   0.0000000000E+00   0.2310578681E+00   0.0000000000E+00  -0.4803372350E-04   0.0000000000E+00  -0.1441011705E-03   0.9450670169E-01   0.2679011936E-02   0.2915571409E-01   0.6816361673E-03   0.0000000000E+00   0.0000000000E+00   0.8495628388E-03  -0.3441971280E-03   0.8861270175E-05   0.0000000000E+00   0.0000000000E+00   0.0000000000E+00   0.8193820668E-01
   0.0000000000E+00   0.2123148926E+00   0.0000000000E+00  -0.4627835925E-04   0.0000000000E+00  -0.1388350777E-03   0.1129333300E+00   0.6386152462E-02   0.3579584475E-01   0.3392123568E-02   0.0000000000E+00   0.0000000000E+00   0.1002787309E-02  -0.3823259998E-03   0.4409760639E-04   0.0000000000E+00   0.0000000000E+00   0.0000000000E+00   0.9545460314E-01
   0.0000000000E+00   0.1186014388E+00   0.0000000000E+00  -0.3714004802E-04   0.0000000000E+00  -0.1114201441E-03   0.2678648266E+00   0.2809486037E-01   0.8878790608E-01  -0.7651367802E-02   0.0000000000E+00   0.0000000000E+00   0.2327999966E-02  -0.7890095942E-03  -0.9946778142E-04   0.0000000000E+00   0.0000000000E+00   0.0000000000E+00   0.2179023590E+00
   0.0000000000E+00   0.9987400250E-01   0.0000000000E+00  -0.3149962457E-04   0.0000000000E+00  -0.9449887372E-04   0.3969120118E+00  -0.5057274993E-02   0.1175564210E+00  -0.2043022517E-02   0.0000000000E+00   0.0000000000E+00   0.3631622680E-02  -0.1593978049E-02  -0.2655929273E-04   0.0000000000E+00   0.0000000000E+00   0.0000000000E+00   0.3535528347E+00
   0.1826904950E-01   0.1244247844E+00   0.8175276058E-05  -0.3684340132E-04   0.2452582817E-04  -0.1105302040E-03   0.1953074167E+00   0.2769557674E-01   0.6690089803E-01  -0.8107344369E-02   0.0000000000E+00   0.0000000000E+00   0.1669284743E-02  -0.5096691769E-03  -0.1053954768E-03   0.0000000000E+00   0.0000000000E+00   0.0000000000E+00   0.1530532037E+00
   0.5571068760E-01   0.1016923224E+00   0.3139192580E-04  -0.2726465151E-04   0.9417577739E-04  -0.8179395452E-04   0.1648405695E+00   0.9699774487E-02   0.5236210320E-01  -0.3489139353E-01   0.0000000000E+00   0.0000000000E+00   0.1462220062E-02  -0.5546102733E-03  -0.4535881159E-03   0.0000000000E+00   0.0000000000E+00   0.0000000000E+00   0.1523984260E+00
   0.5572696654E-01   0.8304530751E-01   0.4248571004E-04  -0.2541299733E-04   0.1274571301E-03  -0.7623899198E-04   0.1633431520E+00   0.4657883351E-01   0.6297659566E-01  -0.6749105309E-01   0.0000000000E+00   0.0000000000E+00   0.1304765233E-02  -0.2131709079E-03  -0.8773836902E-03   0.0000000000E+00   0.0000000000E+00   0.0000000000E+00   0.1559736364E+00
   0.3655172910E-01   0.2152377054E+00   0.9197800863E-05  -0.4450264583E-04   0.2759340259E-04  -0.1335079375E-03   0.1145567420E+00   0.4075160782E-02   0.3558957084E-01   0.9249983595E-02   0.0000000000E+00   0.0000000000E+00   0.1026573225E-02  -0.4096873308E-03   0.1202497867E-03   0.0000000000E+00   0.0000000000E+00   0.0000000000E+00   0.9987345104E-01
   0.5766916601E-01   0.2157183184E+00   0.1468032773E-04  -0.4170714757E-04   0.4404098319E-04  -0.1251214427E-03   0.1177875683E+00   0.1232547126E-02   0.3570603464E-01   0.1200131574E-01   0.0000000000E+00   0.0000000000E+00   0.1067059938E-02  -0.4481553377E-03   0.1560171046E-03   0.0000000000E+00   0.0000000000E+00   0.0000000000E+00   0.1057061994E+00
   0.4856238690E-01   0.2329073937E+00   0.1102542486E-04  -0.4482782298E-04   0.3307627457E-04  -0.1344834689E-03   0.1072150164E+00   0.1771903696E-02   0.3269607602E-01   0.7078753460E-02   0.0000000000E+00   0.0000000000E+00   0.9687462245E-03  -0.4020142402E-03   0.9202379498E-04   0.0000000000E+00   0.0000000000E+00   0.0000000000E+00   0.9475892675E-01
   0.1746612876E-01   0.1454976424E+00   0.6212139837E-05  -0.3933338926E-04   0.1863641951E-04  -0.1180001678E-03   0.1682983167E+00   0.2602053980E-01   0.5829565696E-01   0.3898579533E-02   0.0000000000E+00   0.0000000000E+00   0.1430034577E-02  -0.4195765230E-03   0.5068153393E-04   0.0000000000E+00   0.0000000000E+00   0.0000000000E+00   0.1294132536E+00
   0.0000000000E+00   0.1560853895E+00   0.0000000000E+00  -0.4115263408E-04   0.0000000000E+00  -0.1234579023E-03   0.1576963445E+00   0.2939503920E-01   0.5612741511E-01   0.4102514849E-02   0.0000000000E+00   0.0000000000E+00   0.1320396082E-02  -0.3475208868E-03   0.5333269303E-04   0.0000000000E+00   0.0000000000E+00   0.0000000000E+00   0.1177354045E+00
   0.0000000000E+00   0.1373422019E+00   0.0000000000E+00  -0.3945028195E-04   0.0000000000E+00  -0.1183508459E-03   0.1870584391E+00   0.3803669317E-01   0.6752853967E-01   0.1050669037E-01   0.0000000000E+00   0.0000000000E+00   0.1553888692E-02  -0.3833940044E-03   0.1365869748E-03   0.0000000000E+00   0.0000000000E+00   0.0000000000E+00   0.1366771378E+00
   0.3598592022E-01   0.1342145680E+00   0.1409175419E-04  -0.3588499247E-04   0.4227526258E-04  -0.1076549774E-03   0.1805936501E+00   0.2529834617E-01   0.6176759889E-01   0.3246459745E-02   0.0000000000E+00   0.0000000000E+00   0.1544738666E-02  -0.4741002853E-03   0.4220397668E-04   0.0000000000E+00   0.0000000000E+00   0.0000000000E+00   0.1406740479E+00
   0.3218598177E-01   0.2343913788E+00   0.7092667677E-05  -0.4679655008E-04   0.2127800303E-04  -0.1403896502E-03   0.9827646291E-01   0.6466951666E-03   0.2967694742E-01   0.5169365693E-02   0.0000000000E+00   0.0000000000E+00   0.8917937013E-03  -0.3773932793E-03   0.6720175401E-04   0.0000000000E+00   0.0000000000E+00   0.0000000000E+00   0.8724087264E-01
   0.1945899584E-01   0.2498033628E+00   0.3637683758E-05  -0.4915930531E-04   0.1091305127E-04  -0.1474779159E-03   0.8861743393E-01   0.8067303592E-03   0.2682724929E-01   0.1424751419E-02   0.0000000000E+00   0.0000000000E+00   0.8032724004E-03  -0.3382667461E-03   0.1852176845E-04   0.0000000000E+00   0.0000000000E+00   0.0000000000E+00   0.7827813085E-01
   0.1292055400E+00   0.2146045286E-01   0.7610399698E-04  -0.1517634148E-05   0.2283119909E-03  -0.4552902444E-05   0.9910282860E-02  -0.2425243902E-01  -0.4302646849E-02  -0.9471493401E-02   0.0000000000E+00   0.0000000000E+00   0.1847680862E-03  -0.2593472983E-03  -0.1231294142E-03   0.0000000000E+00   0.0000000000E+00   0.0000000000E+00   0.3488335531E-01
   0.3295555014E+00   0.0000000000E+00   0.9720509032E-04   0.0000000000E+00   0.2916152709E-03   0.0000000000E+00   0.6698951800E-01   0.1878186166E-01   0.2573141390E-01  -0.2709205441E-03   0.0000000000E+00   0.0000000000E+00   0.5363553533E-03  -0.9034417911E-04  -0.3521967073E-05   0.0000000000E+00   0.0000000000E+00   0.0000000000E+00   0.4513629068E-01
   0.3503999940E+00   0.0000000000E+00   0.1000000000E-03   0.0000000000E+00   0.3000000000E-03   0.0000000000E+00   0.6652305531E-01   0.1866980995E-01   0.2555785958E-01   0.1291825293E-03   0.0000000000E+00   0.0000000000E+00   0.5325475445E-03  -0.8954464519E-04   0.1679372881E-05   0.0000000000E+00   0.0000000000E+00   0.0000000000E+00   0.4480735723E-01
   0.3503999940E+00   0.1922902255E-01   0.1000000000E-03  -0.4368373714E-06   0.3000000000E-03  -0.1310512114E-05   0.6794712306E-01   0.1878885374E-01   0.2602079304E-01   0.1255548543E-04   0.0000000000E+00   0.0000000000E+00   0.5450422903E-03  -0.9401521087E-04   0.1632213106E-06   0.0000000000E+00   0.0000000000E+00   0.0000000000E+00   0.4597183581E-01
   0.3318190053E+00   0.2616925629E-01   0.9743306808E-04  -0.6111768354E-06   0.2922992043E-03  -0.1833530506E-05   0.6888104127E-01   0.1862288025E-01   0.2625117645E-01  -0.7257222366E-03   0.0000000000E+00   0.0000000000E+00   0.5541882425E-03  -0.9916785065E-04  -0.9434389075E-05   0.0000000000E+00   0.0000000000E+00   0.0000000000E+00   0.4691982693E-01
   0.3503999940E+00   0.3845782610E-01   0.1000000000E-03  -0.9284490916E-06   0.3000000000E-03  -0.2785347275E-05   0.7029701580E-01   0.1775711983E-01   0.2641624069E-01  -0.6638059387E-04   0.0000000000E+00   0.0000000000E+00   0.5704500764E-03  -0.1125685711E-03  -0.8629477203E-06   0.0000000000E+00   0.0000000000E+00   0.0000000000E+00   0.4878928920E-01
   0.3161581229E+00   0.7694623591E-01   0.9432622658E-04  -0.2333973297E-05   0.2829786798E-03  -0.7001919892E-05   0.7873452476E-01   0.1387189716E-01   0.2778192657E-01  -0.3693996675E-02   0.0000000000E+00   0.0000000000E+00   0.6623837764E-03  -0.1808303824E-03  -0.4802195678E-04   0.0000000000E+00   0.0000000000E+00   0.0000000000E+00   0.5948680033E-01
   0.3331173539E+00   0.6720176807E-01   0.9724946777E-04  -0.1906182922E-05   0.2917484033E-03  -0.5718548767E-05   0.7643326410E-01   0.1523844878E-01   0.2750151386E-01  -0.1614656803E-02   0.0000000000E+00   0.0000000000E+00   0.6361127530E-03  -0.1594198461E-03  -0.2099053844E-04   0.0000000000E+00   0.0000000000E+00   0.0000000000E+00   0.5614109846E-01
   0.3334730220E+00   0.8654639338E-01   0.9707249753E-04  -0.2769230808E-05   0.2912174926E-03  -0.8307692425E-05   0.8170420498E-01   0.1319395308E-01   0.2846944742E-01  -0.1825540581E-02   0.0000000000E+00   0.0000000000E+00   0.6920518483E-03  -0.1985814264E-03  -0.2373202755E-04   0.0000000000E+00   0.0000000000E+00   0.0000000000E+00   0.6236943196E-01
   0.3117934272E+00   0.3581345238E-01   0.9454306042E-04  -0.8666808515E-06   0.2836291813E-03  -0.2600042555E-05   0.6894179111E-01   0.1724562162E-01   0.2585622382E-01  -0.2517496409E-02   0.0000000000E+00   0.0000000000E+00   0.5601123748E-03  -0.1119378286E-03  -0.3272745331E-04   0.0000000000E+00   0.0000000000E+00   0.0000000000E+00   0.4816758802E-01
   0.3161546411E+00   0.1595352071E-01   0.9536301880E-04  -0.3645236782E-06   0.2860890564E-03  -0.1093571035E-05   0.6676943445E-01   0.1829278498E-01   0.2551866583E-01  -0.9861976333E-03   0.0000000000E+00   0.0000000000E+00   0.5362599921E-03  -0.9393645106E-04  -0.1282056923E-04   0.0000000000E+00   0.0000000000E+00   0.0000000000E+00   0.4533515399E-01
   0.2779613753E+00   0.1796012849E-01   0.9030906378E-04  -0.4058028712E-06   0.2709271914E-03  -0.1217408614E-05   0.6368648173E-01   0.1677658848E-01   0.2413892106E-01  -0.2261561182E-02   0.0000000000E+00   0.0000000000E+00   0.5141182887E-03  -0.9571032363E-04  -0.2940029537E-04   0.0000000000E+00   0.0000000000E+00   0.0000000000E+00   0.4389362101E-01
   0.2670230625E+00   0.0000000000E+00   0.8909537818E-04   0.0000000000E+00   0.2672861345E-03   0.0000000000E+00   0.6103917866E-01   0.1656223817E-01   0.2328042505E-01  -0.9415504025E-03   0.0000000000E+00   0.0000000000E+00   0.4908637970E-03  -0.8733642949E-04  -0.1224015523E-04   0.0000000000E+00   0.0000000000E+00   0.0000000000E+00   0.4150313523E-01
   0.2878668460E+00   0.0000000000E+00   0.9171301002E-04   0.0000000000E+00   0.2751390300E-03   0.0000000000E+00   0.6394936935E-01   0.1769000326E-01   0.2449181178E-01  -0.7212356250E-03   0.0000000000E+00   0.0000000000E+00   0.5129482484E-03  -0.8842351082E-04  -0.9376063125E-05   0.0000000000E+00   0.0000000000E+00   0.0000000000E+00   0.4326261978E-01
   0.2358260892E+00   0.1793831144E-01   0.8517855705E-04  -0.3978398820E-06   0.2555356711E-03  -0.1193519646E-05   0.5587846292E-01   0.1346981441E-01   0.2080448320E-01  -0.4175636283E-02   0.0000000000E+00   0.0000000000E+00   0.4559617363E-03  -0.9535069425E-04  -0.5428327168E-04   0.0000000000E+00   0.0000000000E+00   0.0000000000E+00   0.4001496410E-01
   0.2461797954E+00   0.0000000000E+00   0.8661460806E-04   0.0000000000E+00   0.2598438242E-03   0.0000000000E+00   0.5695461345E-01   0.1494146529E-01   0.2156882362E-01  -0.1291549537E-02   0.0000000000E+00   0.0000000000E+00   0.4600152677E-03  -0.8615565829E-04  -0.1679014398E-04   0.0000000000E+00   0.0000000000E+00   0.0000000000E+00   0.3908465868E-01
   0.2568597747E+00   0.1801870335E-01   0.8766242762E-04  -0.4038623832E-06   0.2629872829E-03  -0.1211587150E-05   0.6026843416E-01   0.1539208378E-01   0.2269815538E-01  -0.3208228778E-02   0.0000000000E+00   0.0000000000E+00   0.4884136241E-03  -0.9497893079E-04  -0.4170697411E-04   0.0000000000E+00   0.0000000000E+00   0.0000000000E+00   0.4213147724E-01
   0.2992618703E+00   0.8660862572E-01   0.9115108225E-04  -0.2834995102E-05   0.2734532467E-03  -0.8504985307E-05   0.8126413392E-01   0.1187176222E-01   0.2794076884E-01  -0.5698579046E-02   0.0000000000E+00   0.0000000000E+00   0.6932037460E-03  -0.2088970861E-03  -0.7408152760E-04   0.0000000000E+00   0.0000000000E+00   0.0000000000E+00   0.6367745105E-01
   0.3165359111E+00   0.9620617128E-01   0.9388252582E-04  -0.3306704314E-05   0.2816475775E-03  -0.9920112943E-05   0.8454514127E-01   0.1165158561E-01   0.2885901807E-01  -0.3892600346E-02   0.0000000000E+00   0.0000000000E+00   0.7239196017E-03  -0.2236966219E-03  -0.5060380449E-04   0.0000000000E+00   0.0000000000E+00   0.0000000000E+00   0.6633366224E-01
   0.2996477434E+00   0.1058691410E+00   0.9041160451E-04  -0.3945999953E-05   0.2712348135E-03  -0.1183799986E-04   0.8762190781E-01   0.9649930871E-02   0.2918155160E-01  -0.5873509621E-02   0.0000000000E+00   0.0000000000E+00   0.7597246307E-03  -0.2539110695E-03  -0.7635562507E-04   0.0000000000E+00   0.0000000000E+00   0.0000000000E+00   0.7100204073E-01
   0.1939417493E+00   0.1782987090E-01   0.8086283346E-04  -0.4171990993E-06   0.2425885004E-03  -0.1251597298E-05   0.4288087088E-01   0.6859832256E-02   0.1492221094E-01  -0.6869761104E-02   0.0000000000E+00   0.0000000000E+00   0.3634625792E-03  -0.1048109229E-03  -0.8930689435E-04   0.0000000000E+00   0.0000000000E+00   0.0000000000E+00   0.3517336324E-01
   0.2044957168E+00   0.0000000000E+00   0.8226269061E-04   0.0000000000E+00   0.2467880718E-03   0.0000000000E+00   0.4449010601E-01   0.9599981118E-02   0.1622702614E-01  -0.2316559228E-02   0.0000000000E+00   0.0000000000E+00   0.3674200383E-03  -0.8615158526E-04  -0.3011526997E-04   0.0000000000E+00   0.0000000000E+00   0.0000000000E+00   0.3204802453E-01
   0.2148968122E+00   0.1790846496E-01   0.8289880062E-04  -0.4009839229E-06   0.2486964019E-03  -0.1202951769E-05   0.5012127971E-01   0.1071592286E-01   0.1825116077E-01  -0.5416853938E-02   0.0000000000E+00   0.0000000000E+00   0.4143115462E-03  -0.9795809287E-04  -0.7041910120E-04   0.0000000000E+00   0.0000000000E+00   0.0000000000E+00   0.3760872378E-01
   0.1323853068E+00   0.4106791498E-01   0.7271220213E-04  -0.2975130336E-05   0.2181366064E-03  -0.8925391009E-05   0.3030917359E-01  -0.2480117354E-01   0.1652400016E-02  -0.2322772062E-01   0.0000000000E+00   0.0000000000E+00   0.3725380565E-03  -0.3438964562E-03  -0.3019603681E-03   0.0000000000E+00   0.0000000000E+00   0.0000000000E+00   0.6260364762E-01
   0.1253537476E+00   0.5988457598E-01   0.6669990856E-04  -0.5398455227E-05   0.2000997257E-03  -0.1619536568E-04   0.5164597315E-01  -0.2820256730E-01   0.7033021754E-02  -0.3056861743E-01   0.0000000000E+00   0.0000000000E+00   0.5799683681E-03  -0.4580626577E-03  -0.3973920265E-03   0.0000000000E+00   0.0000000000E+00   0.0000000000E+00   0.8752210571E-01
   0.1132833051E+00   0.3921118472E-01   0.7163702634E-04  -0.4967444060E-05   0.2149110790E-03  -0.1490233218E-04   0.1581686230E-01  -0.4109229008E-01  -0.7582628334E-02  -0.1563036227E-01   0.0000000000E+00   0.0000000000E+00   0.3041933782E-03  -0.4356256027E-03  -0.2031947096E-03   0.0000000000E+00   0.0000000000E+00   0.0000000000E+00   0.5755423061E-01
   0.1730415006E+00   0.1762851251E-01   0.7913089277E-04  -0.4695721429E-06   0.2373926783E-03  -0.1408716429E-05   0.3380747500E-01   0.1675637239E-02   0.1064493367E-01  -0.8591449851E-02   0.0000000000E+00   0.0000000000E+00   0.3011130373E-03  -0.1166008536E-03  -0.1116888481E-03   0.0000000000E+00   0.0000000000E+00   0.0000000000E+00   0.3276326086E-01
   0.1836553863E+00   0.0000000000E+00   0.8051233002E-04   0.0000000000E+00   0.2415369901E-03   0.0000000000E+00   0.3521993509E-01   0.5075497696E-02   0.1208862984E-01  -0.3279584649E-02   0.0000000000E+00   0.0000000000E+00   0.3007069683E-03  -0.9117071784E-04  -0.4263460044E-04   0.0000000000E+00   0.0000000000E+00   0.0000000000E+00   0.2747412075E-01
   0.9266922782E-01   0.3822815743E-01   0.7031898010E-04  -0.1004629308E-04   0.2109569403E-03  -0.3013887925E-04  -0.7287654093E-03  -0.7380642074E-01  -0.2236055584E-01   0.6327473425E-02   0.0000000000E+00   0.0000000000E+00   0.2812132757E-03  -0.6687962436E-03   0.8225715452E-04   0.0000000000E+00   0.0000000000E+00   0.0000000000E+00   0.6292937344E-01
   0.3309323241E+00   0.2499274340E+00   0.9419153145E-04  -0.1814150357E-04   0.2825745944E-03  -0.5442451071E-04   0.1309283054E+00   0.1139096863E-03   0.3931266453E-01  -0.5760433860E-05   0.0000000000E+00   0.0000000000E+00   0.1191003332E-02  -0.5095838130E-03  -0.7488564017E-07   0.0000000000E+00   0.0000000000E+00   0.0000000000E+00   0.1162789488E+00
   0.3503999940E+00   0.2307066398E+00   0.1000000000E-03  -0.1564803975E-04   0.3000000000E-03  -0.4694411926E-04   0.1277976854E+00   0.8038844043E-04   0.3836342216E-01  -0.1759115254E-03   0.0000000000E+00   0.0000000000E+00   0.1162645423E-02  -0.4976794384E-03  -0.2286849830E-05   0.0000000000E+00   0.0000000000E+00   0.0000000000E+00   0.1135278708E+00
   0.3503999940E+00   0.2499275324E+00   0.1000000000E-03  -0.1811690379E-04   0.3000000000E-03  -0.5435071138E-04   0.1330842000E+00  -0.4821428688E-03   0.3978061715E-01   0.4801073498E-03   0.0000000000E+00   0.0000000000E+00   0.1212946578E-02  -0.5234158803E-03   0.6241395547E-05   0.0000000000E+00   0.0000000000E+00   0.0000000000E+00   0.1186733191E+00
   0.3244326500E+00   0.2322950686E+00   0.9244899176E-04  -0.1596961045E-04   0.2773469753E-03  -0.4790883135E-04   0.1279668095E+00   0.2500785602E-03   0.3846506642E-01  -0.1020570140E-02   0.0000000000E+00   0.0000000000E+00   0.1163522660E-02  -0.4967948422E-03  -0.1326741182E-04   0.0000000000E+00   0.0000000000E+00   0.0000000000E+00   0.1135525360E+00
   0.3114645237E+00   0.2499265726E+00   0.8835043679E-04  -0.1835685885E-04   0.2650513104E-03  -0.5507057654E-04   0.1326992199E+00   0.5440398391E-03   0.3997297791E-01  -0.1139844956E-03   0.0000000000E+00   0.0000000000E+00   0.1205441145E-02  -0.5125761949E-03  -0.1481798443E-05   0.0000000000E+00   0.0000000000E+00   0.0000000000E+00   0.1175092869E+00
   0.2836473944E+00   0.1996739187E+00   0.8197283816E-04  -0.1274481796E-04   0.2459185145E-03  -0.3823445389E-04   0.1207636110E+00   0.1224231648E-02   0.3659635280E-01  -0.3757588116E-02   0.0000000000E+00   0.0000000000E+00   0.1094174357E-02  -0.4598375749E-03  -0.4884864551E-04   0.0000000000E+00   0.0000000000E+00   0.0000000000E+00   0.1065547198E+00
   0.2732717646E+00   0.2161048362E+00   0.7821489395E-04  -0.1499395812E-04   0.2346446819E-03  -0.4498187435E-04   0.1264052525E+00   0.3581178949E-03   0.3802901111E-01  -0.3200477194E-02   0.0000000000E+00   0.0000000000E+00   0.1148891138E-02  -0.4897216118E-03  -0.4160620353E-04   0.0000000000E+00   0.0000000000E+00   0.0000000000E+00   0.1121991778E+00
   0.2636394371E+00   0.1994314989E+00   0.7648453726E-04  -0.1332028604E-04   0.2294536118E-03  -0.3996085812E-04   0.1218676865E+00   0.5325956192E-03   0.3672008463E-01  -0.4442509398E-02   0.0000000000E+00   0.0000000000E+00   0.1106918824E-02  -0.4704373572E-03  -0.5775262217E-04   0.0000000000E+00   0.0000000000E+00   0.0000000000E+00   0.1081651700E+00
   0.3159531228E+00   0.1923349490E+00   0.9093119617E-04  -0.1136598808E-04   0.2727935885E-03  -0.3409796424E-04   0.1165750137E+00   0.1893597140E-02   0.3554058326E-01  -0.2422241639E-02   0.0000000000E+00   0.0000000000E+00   0.1053447596E-02  -0.4374108195E-03  -0.3148914131E-04   0.0000000000E+00   0.0000000000E+00   0.0000000000E+00   0.1021938852E+00
   0.3334934138E+00   0.1825564466E+00   0.9568844018E-04  -0.1017834764E-04   0.2870653205E-03  -0.3053504292E-04   0.1136855493E+00   0.3076234925E-02   0.3502853528E-01  -0.1366097856E-02   0.0000000000E+00   0.0000000000E+00   0.1022541183E-02  -0.4153799046E-03  -0.1775927213E-04   0.0000000000E+00   0.0000000000E+00   0.0000000000E+00   0.9862672825E-01
   0.3335135009E+00   0.2015761323E+00   0.9544247375E-04  -0.1224042933E-04   0.2863274212E-03  -0.3672128798E-04   0.1200250468E+00   0.1777419683E-02   0.3654073993E-01  -0.1177482981E-02   0.0000000000E+00   0.0000000000E+00   0.1085295989E-02  -0.4519231632E-03  -0.1530727876E-04   0.0000000000E+00   0.0000000000E+00   0.0000000000E+00   0.1052865057E+00
   0.3335931278E+00   0.1633787316E+00   0.9598519135E-04  -0.8281110182E-05   0.2879555740E-03  -0.2484333055E-04   0.1072022728E+00   0.4750917752E-02   0.3358595715E-01  -0.1622360031E-02   0.0000000000E+00   0.0000000000E+00   0.9570121028E-03  -0.3748555122E-03  -0.2109068041E-04   0.0000000000E+00   0.0000000000E+00   0.0000000000E+00   0.9155201679E-01
   0.3503999940E+00   0.1730402165E+00   0.1000000000E-03  -0.9177871342E-05   0.3000000000E-03  -0.2753361403E-04   0.1103408023E+00   0.3871007339E-02   0.3426354290E-01   0.2413282327E-04   0.0000000000E+00   0.0000000000E+00   0.9890043726E-03  -0.3951029623E-03   0.3137267025E-06   0.0000000000E+00   0.0000000000E+00   0.0000000000E+00   0.9499507789E-01
   0.3503999940E+00   0.1538166420E+00   0.1000000000E-03  -0.7379511093E-05   0.3000000000E-03  -0.2213853328E-04   0.1038601116E+00   0.5758817010E-02   0.3288567857E-01   0.8444137026E-05   0.0000000000E+00   0.0000000000E+00   0.9226676290E-03  -0.3526492003E-03   0.1097737813E-06   0.0000000000E+00   0.0000000000E+00   0.0000000000E+00   0.8774159604E-01
   0.2679975226E+00   0.3629051317E-01   0.8853264907E-04  -0.8862074536E-06   0.2655979472E-03  -0.2658622361E-05   0.6494434292E-01   0.1502434929E-01   0.2399060766E-01  -0.5575951214E-02   0.0000000000E+00   0.0000000000E+00   0.5323985583E-03  -0.1165613588E-03  -0.7248736578E-04   0.0000000000E+00   0.0000000000E+00   0.0000000000E+00   0.4704908886E-01
   0.3167703328E+00   0.1346039226E+00   0.9280894746E-04  -0.5888344265E-05   0.2784268424E-03  -0.1766503280E-04   0.9751107088E-01   0.7219587108E-02   0.3141919740E-01  -0.3692491295E-02   0.0000000000E+00   0.0000000000E+00   0.8591943553E-03  -0.3145949338E-03  -0.4800238684E-04   0.0000000000E+00   0.0000000000E+00   0.0000000000E+00   0.8120211840E-01
   0.3167506586E+00   0.1154383084E+00   0.9337391188E-04  -0.4489895082E-05   0.2801217356E-03  -0.1346968525E-04   0.9086537575E-01   0.9394752987E-02   0.3007803862E-01  -0.3881504635E-02   0.0000000000E+00   0.0000000000E+00   0.7902353827E-03  -0.2688827132E-03  -0.5045956026E-04   0.0000000000E+00   0.0000000000E+00   0.0000000000E+00   0.7365343082E-01
   0.3336280330E+00   0.1249980558E+00   0.9656050119E-04  -0.5098057489E-05   0.2896815036E-03  -0.1529417247E-04   0.9403468972E-01   0.8756097336E-02   0.3083723612E-01  -0.1886665472E-02   0.0000000000E+00   0.0000000000E+00   0.8215668968E-03  -0.2870548041E-03  -0.2452665114E-04   0.0000000000E+00   0.0000000000E+00   0.0000000000E+00   0.7672989318E-01
   0.3503999940E+00   0.9614080800E-01   0.1000000000E-03  -0.3259976031E-05   0.3000000000E-03  -0.9779928092E-05   0.8463839350E-01   0.1221855803E-01   0.2905708546E-01  -0.8049775668E-04   0.0000000000E+00   0.0000000000E+00   0.7225570045E-03  -0.2189008566E-03  -0.1046470837E-05   0.0000000000E+00   0.0000000000E+00   0.0000000000E+00   0.6563658758E-01
   0.3335870036E+00   0.1057759694E+00   0.9683089282E-04  -0.3827144101E-05   0.2904926784E-03  -0.1148143230E-04   0.8764921352E-01   0.1097933984E-01   0.2958856601E-01  -0.1909295010E-02   0.0000000000E+00   0.0000000000E+00   0.7547884177E-03  -0.2419199402E-03  -0.2482083513E-04   0.0000000000E+00   0.0000000000E+00   0.0000000000E+00   0.6934232316E-01
   0.3503999940E+00   0.7691384889E-01   0.1000000000E-03  -0.2307727201E-05   0.3000000000E-03  -0.6923181602E-05   0.7908732263E-01   0.1433012867E-01   0.2802523539E-01  -0.6983621442E-04   0.0000000000E+00   0.0000000000E+00   0.6638071342E-03  -0.1780363874E-03  -0.9078707874E-06   0.0000000000E+00   0.0000000000E+00   0.0000000000E+00   0.5910770065E-01
   0.3322447561E+00   0.4722947698E-01   0.9732751395E-04  -0.1196580282E-05   0.2919825419E-03  -0.3589740845E-05   0.7187867746E-01   0.1701673109E-01   0.2666862256E-01  -0.1399673187E-02   0.0000000000E+00   0.0000000000E+00   0.5877307136E-03  -0.1254745891E-03  -0.1819575142E-04   0.0000000000E+00   0.0000000000E+00   0.0000000000E+00   0.5078503548E-01
   0.3503999940E+00   0.5768615226E-01   0.1000000000E-03  -0.1538934116E-05   0.3000000000E-03  -0.4616802348E-05   0.7424785002E-01   0.1614492520E-01   0.2711783257E-01  -0.4426716719E-04   0.0000000000E+00   0.0000000000E+00   0.6126902269E-03  -0.1426477958E-03  -0.5754731735E-06   0.0000000000E+00   0.0000000000E+00   0.0000000000E+00   0.5346269967E-01
   0.0000000000E+00   0.2498021690E+00   0.0000000000E+00  -0.4945776087E-04   0.0000000000E+00  -0.1483732826E-03   0.7485640787E-01   0.2811269172E-02   0.2330030311E-01   0.3669619305E-02   0.0000000000E+00   0.0000000000E+00   0.6702293618E-03  -0.2663574412E-03   0.4770505097E-04   0.0000000000E+00   0.0000000000E+00   0.0000000000E+00   0.6441251350E-01
   0.3891832151E-01   0.2498098812E+00   0.7357802020E-05  -0.4752971173E-04   0.2207340606E-04  -0.1425891352E-03   0.8643684041E-01  -0.3432300265E-03   0.2582808312E-01   0.2417886192E-02   0.0000000000E+00   0.0000000000E+00   0.7879138449E-03  -0.3402270708E-03   0.3143252050E-04   0.0000000000E+00   0.0000000000E+00   0.0000000000E+00   0.7712744777E-01
   0.5560110758E-01   0.1230166448E+00   0.2389837062E-04  -0.3039905284E-04   0.7169511187E-04  -0.9119715851E-04   0.1727147835E+00   0.1049004705E-01   0.5496144917E-01  -0.2102282121E-02   0.0000000000E+00   0.0000000000E+00   0.1530793346E-02  -0.5781282276E-03  -0.2732966758E-04   0.0000000000E+00   0.0000000000E+00   0.0000000000E+00   0.1440793234E+00
   0.6788150005E-01   0.2328027523E+00   0.1582448774E-04  -0.4199066471E-04   0.4747346322E-04  -0.1259719941E-03   0.1126759705E+00   0.2666501488E-03   0.3388278621E-01   0.7514792873E-02   0.0000000000E+00   0.0000000000E+00   0.1024311396E-02  -0.4370097687E-03   0.9769230735E-04   0.0000000000E+00   0.0000000000E+00   0.0000000000E+00   0.1008510274E+00
   0.5837931930E-01   0.2498193170E+00   0.1149642408E-04  -0.4517074934E-04   0.3448927225E-04  -0.1355122480E-03   0.9862995029E-01  -0.1915663642E-03   0.2953151518E-01   0.2979922975E-02   0.0000000000E+00   0.0000000000E+00   0.8982796565E-03  -0.3864000600E-03   0.3873899867E-04   0.0000000000E+00   0.0000000000E+00   0.0000000000E+00   0.8784354384E-01
   0.7784218837E-01   0.2498311499E+00   0.1610194302E-04  -0.4221253647E-04   0.4830582906E-04  -0.1266376094E-03   0.1095618319E+00  -0.2331922929E-03   0.3279859188E-01   0.3381933435E-02   0.0000000000E+00   0.0000000000E+00   0.9979221202E-03  -0.4294131943E-03   0.4396513465E-04   0.0000000000E+00   0.0000000000E+00   0.0000000000E+00   0.9763891238E-01
   0.1265051092E+00   0.2330020797E+00   0.3215730460E-04  -0.3172133343E-04   0.9647191380E-04  -0.9516400030E-04   0.1311467580E+00  -0.1080620565E-02   0.3901984124E-01   0.4989101034E-02   0.0000000000E+00   0.0000000000E+00   0.1197649918E-02  -0.5213060034E-03   0.6485831345E-04   0.0000000000E+00   0.0000000000E+00   0.0000000000E+00   0.1177710317E+00
   0.1167735830E+00   0.2498577570E+00   0.2672899411E-04  -0.3556076233E-04   0.8018698234E-04  -0.1066822870E-03   0.1294743643E+00  -0.3055911911E-03   0.3875063192E-01   0.2492275666E-02   0.0000000000E+00   0.0000000000E+00   0.1179408520E-02  -0.5077309004E-03   0.3239958366E-04   0.0000000000E+00   0.0000000000E+00   0.0000000000E+00   0.1153397461E+00
   0.1362416375E+00   0.2498707277E+00   0.3263188493E-04  -0.3231806522E-04   0.9789565480E-04  -0.9695419566E-04   0.1366971697E+00  -0.2545104940E-03   0.4093279778E-01   0.1811750218E-02   0.0000000000E+00   0.0000000000E+00   0.1244936836E-02  -0.5354350075E-03   0.2355275283E-04   0.0000000000E+00   0.0000000000E+00   0.0000000000E+00   0.1217089428E+00
   0.1362354341E+00   0.2161196147E+00   0.3725752590E-04  -0.2782107648E-04   0.1117725777E-03  -0.8346322944E-04   0.1318722256E+00  -0.3186584820E-02   0.3860569223E-01   0.6953164675E-02   0.0000000000E+00   0.0000000000E+00   0.1212464933E-02  -0.5432996016E-03   0.9039114077E-04   0.0000000000E+00   0.0000000000E+00   0.0000000000E+00   0.1203406857E+00
   0.1849225826E+00   0.2330082217E+00   0.5021115937E-04  -0.2324557095E-04   0.1506334781E-03  -0.6973671284E-04   0.1376403915E+00  -0.8767163227E-03   0.4102910254E-01   0.2961200826E-03   0.0000000000E+00   0.0000000000E+00   0.1255946756E-02  -0.5447756452E-03   0.3849561074E-05   0.0000000000E+00   0.0000000000E+00   0.0000000000E+00   0.1230378521E+00
   0.1751804983E+00   0.2498930537E+00   0.4512533631E-04  -0.2673656327E-04   0.1353760089E-03  -0.8020968981E-04   0.1439127264E+00  -0.9372069688E-04   0.4314570171E-01   0.4263246075E-03   0.0000000000E+00   0.0000000000E+00   0.1309971321E-02  -0.5621124913E-03   0.5542219897E-05   0.0000000000E+00   0.0000000000E+00   0.0000000000E+00   0.1279872106E+00
   0.2043953556E+00   0.2330193938E+00   0.5630814867E-04  -0.2125353871E-04   0.1689244460E-03  -0.6376061613E-04   0.1371887339E+00  -0.6218496968E-03   0.4097006527E-01  -0.7377421440E-03   0.0000000000E+00   0.0000000000E+00   0.1250842692E-02  -0.5406948945E-03  -0.9590647871E-05   0.0000000000E+00   0.0000000000E+00   0.0000000000E+00   0.1224388935E+00
   0.1946504862E+00   0.2499018779E+00   0.5150955272E-04  -0.2453052379E-04   0.1545286582E-03  -0.7359157138E-04   0.1443380965E+00   0.2255520737E-05   0.4330210560E-01  -0.9356785872E-04   0.0000000000E+00   0.0000000000E+00   0.1313467881E-02  -0.5628980510E-03  -0.1216382163E-05   0.0000000000E+00   0.0000000000E+00   0.0000000000E+00   0.1282886076E+00
   0.2238669228E+00   0.2330375746E+00   0.6236094008E-04  -0.1966609174E-04   0.1870828202E-03  -0.5899827523E-04   0.1359578438E+00  -0.3623242895E-03   0.4067865585E-01  -0.1386138850E-02   0.0000000000E+00   0.0000000000E+00   0.1238629443E-02  -0.5335327418E-03  -0.1801980504E-04   0.0000000000E+00   0.0000000000E+00   0.0000000000E+00   0.1211560946E+00
   0.2141203873E+00   0.2499091024E+00   0.5787581347E-04  -0.2272439270E-04   0.1736274404E-03  -0.6817317809E-04   0.1432955920E+00   0.8758046569E-04   0.4301495174E-01  -0.4438321828E-03   0.0000000000E+00   0.0000000000E+00   0.1303648323E-02  -0.5580558265E-03  -0.5769818376E-05   0.0000000000E+00   0.0000000000E+00   0.0000000000E+00   0.1272941130E+00
   0.2433523999E+00   0.2330535144E+00   0.6834822368E-04  -0.1843414761E-04   0.2050446710E-03  -0.5530244284E-04   0.1342707831E+00  -0.1390031742E-03   0.4023953397E-01  -0.1681103132E-02   0.0000000000E+00   0.0000000000E+00   0.1222406238E-02  -0.5249209829E-03  -0.2185434071E-04   0.0000000000E+00   0.0000000000E+00   0.0000000000E+00   0.1194909819E+00
   0.2335900216E+00   0.2499148504E+00   0.6417189818E-04  -0.2128741004E-04   0.1925156946E-03  -0.6386223012E-04   0.1413461817E+00   0.1498888172E-03   0.4244882114E-01  -0.6252755858E-03   0.0000000000E+00   0.0000000000E+00   0.1285665687E-02  -0.5498861202E-03  -0.8128582616E-05   0.0000000000E+00   0.0000000000E+00   0.0000000000E+00   0.1255115037E+00
   0.2630007674E+00   0.2329936434E+00   0.7430734189E-04  -0.1749115819E-04   0.2229220257E-03  -0.5247347457E-04   0.1324257789E+00   0.2733855869E-04   0.3973593525E-01  -0.1695821041E-02   0.0000000000E+00   0.0000000000E+00   0.1204967968E-02  -0.5162117570E-03  -0.2204567353E-04   0.0000000000E+00   0.0000000000E+00   0.0000000000E+00   0.1177188494E+00
   0.2530592650E+00   0.2499192939E+00   0.7036998968E-04  -0.2017652559E-04   0.2111099690E-03  -0.6052957678E-04   0.1389994019E+00   0.2028561724E-03   0.4176067744E-01  -0.6639565820E-03   0.0000000000E+00   0.0000000000E+00   0.1264103419E-02  -0.5402516764E-03  -0.8631435566E-05   0.0000000000E+00   0.0000000000E+00   0.0000000000E+00   0.1233829374E+00
   0.2828977278E+00   0.2327976876E+00   0.8026194488E-04  -0.1678485799E-04   0.2407858346E-03  -0.5035457396E-04   0.1306841188E+00   0.1599581334E-03   0.3925322308E-01  -0.1495735586E-02   0.0000000000E+00   0.0000000000E+00   0.1188601644E-02  -0.5082124443E-03  -0.1944456262E-04   0.0000000000E+00   0.0000000000E+00   0.0000000000E+00   0.1160556910E+00
   0.2725280662E+00   0.2499226149E+00   0.7646129132E-04  -0.1934627401E-04   0.2293838740E-03  -0.5803882203E-04   0.1365957885E+00   0.2418744673E-03   0.4105129888E-01  -0.6046330163E-03   0.0000000000E+00   0.0000000000E+00   0.1242078365E-02  -0.5305225174E-03  -0.7860229212E-05   0.0000000000E+00   0.0000000000E+00   0.0000000000E+00   0.1212155841E+00
   0.3033025116E+00   0.2322820520E+00   0.8629639206E-04  -0.1625101137E-04   0.2588891762E-03  -0.4875303412E-04   0.1289725306E+00   0.2711197058E-03   0.3877309508E-01  -0.1174915632E-02   0.0000000000E+00   0.0000000000E+00   0.1172592661E-02  -0.5005256799E-03  -0.1527390322E-04   0.0000000000E+00   0.0000000000E+00   0.0000000000E+00   0.1144335947E+00
   0.2919964600E+00   0.2499249834E+00   0.8245076167E-04  -0.1875414357E-04   0.2473522850E-03  -0.5626243072E-04   0.1344736801E+00   0.3218476588E-03   0.4043865833E-01  -0.4816016729E-03   0.0000000000E+00   0.0000000000E+00   0.1222455283E-02  -0.5215185387E-03  -0.6260821748E-05   0.0000000000E+00   0.0000000000E+00   0.0000000000E+00   0.1192660576E+00
   0.1654751267E+00   0.1646301894E+00   0.5264492073E-04  -0.1610441091E-04   0.1579347622E-03  -0.4831323274E-04   0.1239492201E+00  -0.1090673999E-01   0.3391274404E-01  -0.2907363616E-02   0.0000000000E+00   0.0000000000E+00   0.1170474189E-02  -0.5826532925E-03  -0.3779572700E-04   0.0000000000E+00   0.0000000000E+00   0.0000000000E+00   0.1190220344E+00
   0.1555557597E+00   0.1821671735E+00   0.4731992262E-04  -0.1998588413E-04   0.1419597679E-03  -0.5995765239E-04   0.1288586028E+00  -0.8989984685E-02   0.3596058544E-01   0.1924666328E-02   0.0000000000E+00   0.0000000000E+00   0.1207674226E-02  -0.5843574117E-03   0.2502066226E-04   0.0000000000E+00   0.0000000000E+00   0.0000000000E+00   0.1217921999E+00
   0.1454239162E+00   0.1647472338E+00   0.4663629242E-04  -0.1884354062E-04   0.1399088772E-03  -0.5653062187E-04   0.1287326579E+00  -0.1319313488E-01   0.3466185691E-01   0.5783937796E-03   0.0000000000E+00   0.0000000000E+00   0.1222920413E-02  -0.6221148932E-03   0.7519119135E-05   0.0000000000E+00   0.0000000000E+00   0.0000000000E+00   0.1250375153E+00
   0.2253372711E+00   0.0000000000E+00   0.8431926674E-04   0.0000000000E+00   0.2529578002E-03   0.0000000000E+00   0.5159333649E-01   0.1275963362E-01   0.1930589103E-01  -0.1728808832E-02   0.0000000000E+00   0.0000000000E+00   0.4197367909E-03  -0.8510134639E-04  -0.2247451481E-04   0.0000000000E+00   0.0000000000E+00   0.0000000000E+00   0.3595837003E-01
   0.1617074740E+00   0.7203844288E-01   0.6945749155E-04  -0.3959729420E-05   0.2083724747E-03  -0.1187918826E-04   0.6995259000E-01  -0.1389260890E-01   0.1681799433E-01  -0.2775035621E-01   0.0000000000E+00   0.0000000000E+00   0.6907497437E-03  -0.3992378420E-03  -0.3607546307E-03   0.0000000000E+00   0.0000000000E+00   0.0000000000E+00   0.8771942444E-01
   0.1833375496E+00   0.7143688302E-01   0.7319340108E-04  -0.3153219885E-05   0.2195802032E-03  -0.9459659655E-05   0.7025765342E-01  -0.4633542015E-02   0.1968723342E-01  -0.2281317527E-01   0.0000000000E+00   0.0000000000E+00   0.6574154600E-03  -0.3161700807E-03  -0.2965712785E-03   0.0000000000E+00   0.0000000000E+00   0.0000000000E+00   0.7703246977E-01
   0.1728223779E+00   0.9032163050E-01   0.6765671972E-04  -0.5340149371E-05   0.2029701592E-03  -0.1602044811E-04   0.8656904009E-01  -0.1100988412E-01   0.2266774679E-01  -0.2242499327E-01   0.0000000000E+00   0.0000000000E+00   0.8307168129E-03  -0.4378092018E-03  -0.2915249125E-03   0.0000000000E+00   0.0000000000E+00   0.0000000000E+00   0.9424677473E-01
   0.1740702226E-01   0.2039329627E+00   0.4587189689E-05  -0.4493656316E-04   0.1376156907E-04  -0.1348096895E-03   0.1202126586E+00   0.9421020755E-02   0.3889010380E-01   0.5029095377E-02   0.0000000000E+00   0.0000000000E+00   0.1057193212E-02  -0.3830980796E-03   0.6537823990E-04   0.0000000000E+00   0.0000000000E+00   0.0000000000E+00   0.9989869838E-01
   0.0000000000E+00   0.1935720109E+00   0.0000000000E+00  -0.4449576948E-04   0.0000000000E+00  -0.1334873084E-03   0.1264979854E+00   0.1316851766E-01   0.4189995092E-01   0.3049044694E-02   0.0000000000E+00   0.0000000000E+00   0.1099774448E-02  -0.3735086323E-03   0.3963758102E-04   0.0000000000E+00   0.0000000000E+00   0.0000000000E+00   0.1021315729E+00
   0.1685226743E-01   0.1843544132E+00   0.4818757143E-05  -0.4308944962E-04   0.1445627143E-04  -0.1292683489E-03   0.1330173086E+00   0.1534925331E-01   0.4450996857E-01   0.5687966486E-02   0.0000000000E+00   0.0000000000E+00   0.1150595420E-02  -0.3790892983E-03   0.7394356432E-04   0.0000000000E+00   0.0000000000E+00   0.0000000000E+00   0.1067667899E+00
   0.0000000000E+00   0.1748288433E+00   0.0000000000E+00  -0.4278843599E-04   0.0000000000E+00  -0.1283653080E-03   0.1398716797E+00   0.2097485053E-01   0.4825395907E-01   0.3655864080E-02   0.0000000000E+00   0.0000000000E+00   0.1191030368E-02  -0.3546284110E-03   0.4752623304E-04   0.0000000000E+00   0.0000000000E+00   0.0000000000E+00   0.1079788096E+00
   0.1692799307E-01   0.1651590638E+00   0.5289017049E-05  -0.4127929360E-04   0.1586705115E-04  -0.1238378808E-03   0.1472275224E+00   0.2173274203E-01   0.5068807932E-01   0.5799864228E-02   0.0000000000E+00   0.0000000000E+00   0.1255012760E-02  -0.3764193847E-03   0.7539823496E-04   0.0000000000E+00   0.0000000000E+00   0.0000000000E+00   0.1143994194E+00
   0.3383752895E-01   0.1748272847E+00   0.1014538663E-04  -0.4058906859E-04   0.3043615990E-04  -0.1217672058E-03   0.1401817016E+00   0.1460134155E-01   0.4643491296E-01   0.1199910925E-01   0.0000000000E+00   0.0000000000E+00   0.1218708253E-02  -0.4138364283E-03   0.1559884203E-03   0.0000000000E+00   0.0000000000E+00   0.0000000000E+00   0.1149808221E+00
   0.3463184211E-01   0.1550878619E+00   0.1151145197E-04  -0.3842177743E-04   0.3453435591E-04  -0.1152653323E-03   0.1549846065E+00   0.1952079624E-01   0.5235162082E-01   0.1074525027E-01   0.0000000000E+00   0.0000000000E+00   0.1334228814E-02  -0.4268007195E-03   0.1396882536E-03   0.0000000000E+00   0.0000000000E+00   0.0000000000E+00   0.1238977012E+00
   0.3377151759E-01   0.1940836327E+00   0.9337173269E-05  -0.4258333161E-04   0.2801151981E-04  -0.1277499948E-03   0.1277253269E+00   0.8734643003E-02   0.4093799097E-01   0.1090174151E-01   0.0000000000E+00   0.0000000000E+00   0.1128235367E-02  -0.4186435236E-03   0.1417226396E-03   0.0000000000E+00   0.0000000000E+00   0.0000000000E+00   0.1082577746E+00
   0.5392015116E-01   0.1448750642E+00   0.1916509064E-04  -0.3383695617E-04   0.5749527192E-04  -0.1015108685E-03   0.1590213121E+00   0.9414022950E-02   0.5053060050E-01   0.1121059027E-01   0.0000000000E+00   0.0000000000E+00   0.1410379250E-02  -0.5345155082E-03   0.1457376735E-03   0.0000000000E+00   0.0000000000E+00   0.0000000000E+00   0.1353301404E+00
   0.9721562175E-01   0.2159918018E+00   0.2568378723E-04  -0.3482231031E-04   0.7705136169E-04  -0.1044669309E-03   0.1263894699E+00  -0.1903931313E-02   0.3734566158E-01   0.1200268199E-01   0.0000000000E+00   0.0000000000E+00   0.1157569508E-02  -0.5102447077E-03   0.1560348658E-03   0.0000000000E+00   0.0000000000E+00   0.0000000000E+00   0.1156859978E+00
   0.1419794437E+00   0.0000000000E+00   0.7819443345E-04   0.0000000000E+00   0.2345833003E-03   0.0000000000E+00   0.1026551732E-01  -0.1629869238E-01  -0.1809952516E-02  -0.1060970318E-01   0.0000000000E+00   0.0000000000E+00   0.1569811079E-03  -0.1883536182E-03  -0.1379261413E-03   0.0000000000E+00   0.0000000000E+00   0.0000000000E+00   0.2736704934E-01
   0.1523630221E+00   0.1778258054E-01   0.7771078703E-04  -0.7156151622E-06   0.2331323611E-03  -0.2146845487E-05   0.2284108812E-01  -0.9262685847E-02   0.4073520681E-02  -0.8512892037E-02   0.0000000000E+00   0.0000000000E+00   0.2439783767E-03  -0.1733706849E-03  -0.1106675965E-03   0.0000000000E+00   0.0000000000E+00   0.0000000000E+00   0.3271481850E-01
   0.1628165953E+00   0.0000000000E+00   0.7915031555E-04   0.0000000000E+00   0.2374509467E-03   0.0000000000E+00   0.2256768043E-01  -0.3973414777E-02   0.5578279697E-02  -0.4520517047E-02   0.0000000000E+00   0.0000000000E+00   0.2208622096E-03  -0.1241720282E-03  -0.5876672161E-04   0.0000000000E+00   0.0000000000E+00   0.0000000000E+00   0.2443706596E-01
   0.3503999940E+00   0.1153669460E+00   0.1000000000E-03  -0.4417510903E-05   0.3000000000E-03  -0.1325253271E-04   0.9078577462E-01   0.1000637633E-01   0.3023764529E-01  -0.5966043915E-04   0.0000000000E+00   0.0000000000E+00   0.7871256814E-03  -0.2630064964E-03  -0.7755857090E-06   0.0000000000E+00   0.0000000000E+00   0.0000000000E+00   0.7280049967E-01
   0.3503999940E+00   0.1345922288E+00   0.1000000000E-03  -0.5790553006E-05   0.3000000000E-03  -0.1737165902E-04   0.9724687640E-01   0.7810983132E-02   0.3151735786E-01  -0.2533479684E-04   0.0000000000E+00   0.0000000000E+00   0.8544837410E-03  -0.3081828715E-03  -0.3293523589E-06   0.0000000000E+00   0.0000000000E+00   0.0000000000E+00   0.8025167956E-01
   0.3336477730E+00   0.1442036087E+00   0.9628025520E-04  -0.6585067313E-05   0.2888407656E-03  -0.1975520194E-04   0.1006248292E+00   0.6642763679E-02   0.3218027786E-01  -0.1777157588E-02   0.0000000000E+00   0.0000000000E+00   0.8897791673E-03  -0.3319876844E-03  -0.2310304865E-04   0.0000000000E+00   0.0000000000E+00   0.0000000000E+00   0.8422769065E-01
   0.1625507898E+00   0.3473774303E-01   0.7654294237E-04  -0.1238768559E-05   0.2296288271E-03  -0.3716305678E-05   0.3899545269E-01  -0.4608900184E-02   0.1031596575E-01  -0.1869090640E-01   0.0000000000E+00   0.0000000000E+00   0.3728333302E-03  -0.1940232572E-03  -0.2429817831E-03   0.0000000000E+00   0.0000000000E+00   0.0000000000E+00   0.5018763195E-01
   0.1833291597E+00   0.3536842697E-01   0.7847193212E-04  -0.1026483295E-05   0.2354157964E-03  -0.3079449885E-05   0.4535799411E-01   0.1486084034E-02   0.1405322344E-01  -0.1575196454E-01   0.0000000000E+00   0.0000000000E+00   0.4069620187E-03  -0.1633728123E-03  -0.2047755390E-03   0.0000000000E+00   0.0000000000E+00   0.0000000000E+00   0.4765416927E-01
   0.1450947595E+00   0.3343872159E-01   0.7524513134E-04  -0.1729952182E-05   0.2257353940E-03  -0.5189856545E-05   0.2416830882E-01  -0.1623054929E-01   0.2381327857E-02  -0.2187870821E-01   0.0000000000E+00   0.0000000000E+00   0.2832307525E-03  -0.2419544030E-03  -0.2844232068E-03   0.0000000000E+00   0.0000000000E+00   0.0000000000E+00   0.5083331719E-01
   0.2141536005E+00   0.2161198504E+00   0.6090037777E-04  -0.1817339284E-04   0.1827011333E-03  -0.5452017853E-04   0.1310736255E+00  -0.1175313050E-02   0.3896949374E-01  -0.2280863152E-02   0.0000000000E+00   0.0000000000E+00   0.1197353713E-02  -0.5218824883E-03  -0.2965122098E-04   0.0000000000E+00   0.0000000000E+00   0.0000000000E+00   0.1175019544E+00
   0.2892457530E+00   0.3564493036E-01   0.9143323809E-04  -0.8669348658E-06   0.2742997143E-03  -0.2600804597E-05   0.6728373273E-01   0.1644310567E-01   0.2511805152E-01  -0.4112348292E-02   0.0000000000E+00   0.0000000000E+00   0.5481538558E-03  -0.1127742960E-03  -0.5346052779E-04   0.0000000000E+00   0.0000000000E+00   0.0000000000E+00   0.4763621885E-01
   0.2990148853E+00   0.5044689018E-01   0.9238457033E-04  -0.1315979293E-05   0.2771537110E-03  -0.3947937880E-05   0.7100148355E-01   0.1619346851E-01   0.2615848562E-01  -0.4320677921E-02   0.0000000000E+00   0.0000000000E+00   0.5829589731E-03  -0.1295452224E-03  -0.5616881298E-04   0.0000000000E+00   0.0000000000E+00   0.0000000000E+00   0.5108591708E-01
   0.3152293388E+00   0.5754035187E-01   0.9462544989E-04  -0.1553832960E-05   0.2838763497E-03  -0.4661498881E-05   0.7407445154E-01   0.1616969789E-01   0.2707324483E-01  -0.3224338906E-02   0.0000000000E+00   0.0000000000E+00   0.6110156873E-03  -0.1417461102E-03  -0.4191640578E-04   0.0000000000E+00   0.0000000000E+00   0.0000000000E+00   0.5358345819E-01
   0.6711256453E-01   0.1968118480E+00   0.1872318336E-04  -0.3794374760E-04   0.5616955009E-04  -0.1138312428E-03   0.1290745158E+00   0.1597404485E-02   0.3920157607E-01   0.1555285876E-01   0.0000000000E+00   0.0000000000E+00   0.1168348216E-02  -0.4888542306E-03   0.2021871639E-03   0.0000000000E+00   0.0000000000E+00   0.0000000000E+00   0.1166247374E+00
   0.4896265109E-01   0.2012941794E+00   0.1324767214E-04  -0.4139290783E-04   0.3974301643E-04  -0.1241787235E-03   0.1250808915E+00   0.5188553332E-02   0.3908083346E-01   0.1415595080E-01   0.0000000000E+00   0.0000000000E+00   0.1118000755E-02  -0.4405996417E-03   0.1840273604E-03   0.0000000000E+00   0.0000000000E+00   0.0000000000E+00   0.1098170263E+00
   0.7748414962E-01   0.2155084533E+00   0.2012497981E-04  -0.3837616541E-04   0.6037493943E-04  -0.1151284962E-03   0.1228814719E+00  -0.2001299808E-03   0.3680440257E-01   0.1325239776E-01   0.0000000000E+00   0.0000000000E+00   0.1119001901E-02  -0.4810589232E-03   0.1722811709E-03   0.0000000000E+00   0.0000000000E+00   0.0000000000E+00   0.1117039530E+00
   0.8767312671E-01   0.1992715945E+00   0.2456620184E-04  -0.3444661583E-04   0.7369860551E-04  -0.1033398475E-03   0.1299564639E+00  -0.2351652780E-02   0.3828144335E-01   0.1461872773E-01   0.0000000000E+00   0.0000000000E+00   0.1191775268E-02  -0.5282302497E-03   0.1900434605E-03   0.0000000000E+00   0.0000000000E+00   0.0000000000E+00   0.1200993253E+00
   0.1068946160E+00   0.1993632704E+00   0.3033774819E-04  -0.3079464044E-04   0.9101324458E-04  -0.9238392131E-04   0.1315886888E+00  -0.4420693417E-02   0.3815039861E-01   0.1244128615E-01   0.0000000000E+00   0.0000000000E+00   0.1214697772E-02  -0.5534241964E-03   0.1617367200E-03   0.0000000000E+00   0.0000000000E+00   0.0000000000E+00   0.1224210000E+00
   0.1121370312E+00   0.1454920066E+00   0.3915204637E-04  -0.2136358926E-04   0.1174561391E-03  -0.6409076777E-04   0.1383917163E+00  -0.1675381039E-01   0.3649137178E-01   0.2741969165E-02   0.0000000000E+00   0.0000000000E+00   0.1324704479E-02  -0.6921873683E-03   0.3564559914E-04   0.0000000000E+00   0.0000000000E+00   0.0000000000E+00   0.1364950946E+00
   0.1042132671E+00   0.1664724885E+00   0.3333553163E-04  -0.2642512143E-04   0.1000065949E-03  -0.7927536428E-04   0.1382503777E+00  -0.1131130816E-01   0.3808172087E-01   0.9855399853E-02   0.0000000000E+00   0.0000000000E+00   0.1302192539E-02  -0.6421093775E-03   0.1281201981E-03   0.0000000000E+00   0.0000000000E+00   0.0000000000E+00   0.1331000167E+00
   0.9077563918E-01   0.1517196750E+00   0.3100939411E-04  -0.2679951012E-04   0.9302818232E-04  -0.8039853037E-04   0.1439712342E+00  -0.9831685937E-02   0.4024186447E-01   0.1027914350E-01   0.0000000000E+00   0.0000000000E+00   0.1348481806E-02  -0.6509561553E-03   0.1336288654E-03   0.0000000000E+00   0.0000000000E+00   0.0000000000E+00   0.1368669755E+00
   0.9508394691E-01   0.9623637735E-01   0.4662820323E-04  -0.1609898710E-04   0.1398846097E-03  -0.4829696130E-04   0.1230144845E+00  -0.2096394374E-01   0.3061516223E-01  -0.2222564810E-01   0.0000000000E+00   0.0000000000E+00   0.1201191190E-02  -0.6705283776E-03  -0.2889334254E-03   0.0000000000E+00   0.0000000000E+00   0.0000000000E+00   0.1314011204E+00
   0.1091295891E+00   0.7682360571E-01   0.5789377345E-04  -0.1014989721E-04   0.1736813203E-03  -0.3044969164E-04   0.8063807425E-01  -0.2834609445E-01   0.1568759394E-01  -0.3088138420E-01   0.0000000000E+00   0.0000000000E+00   0.8443562440E-03  -0.5724379491E-03  -0.4014579947E-03   0.0000000000E+00   0.0000000000E+00   0.0000000000E+00   0.1088709267E+00
   0.1946710275E+00   0.2160917983E+00   0.5504312632E-04  -0.1992243394E-04   0.1651293790E-03  -0.5976730181E-04   0.1322566832E+00  -0.1894041156E-02   0.3910879263E-01  -0.8261903733E-03   0.0000000000E+00   0.0000000000E+00   0.1210922578E-02  -0.5330368392E-03  -0.1074047485E-04   0.0000000000E+00   0.0000000000E+00   0.0000000000E+00   0.1190720915E+00
   0.2254013133E+00   0.3586608970E-01   0.8312258372E-04  -0.8957992124E-06   0.2493677512E-03  -0.2687397637E-05   0.5752136799E-01   0.1055336135E-01   0.2042241880E-01  -0.9906289905E-02   0.0000000000E+00   0.0000000000E+00   0.4822863394E-03  -0.1282977469E-03  -0.1287817688E-03   0.0000000000E+00   0.0000000000E+00   0.0000000000E+00   0.4612442000E-01
   0.2465321242E+00   0.3605319058E-01   0.8574054102E-04  -0.8822801871E-06   0.2572216231E-03  -0.2646840561E-05   0.6194174752E-01   0.1315095783E-01   0.2252781160E-01  -0.7543737081E-02   0.0000000000E+00   0.0000000000E+00   0.5123811669E-03  -0.1218990991E-03  -0.9806858205E-04   0.0000000000E+00   0.0000000000E+00   0.0000000000E+00   0.4665753632E-01
   0.2743230226E+00   0.1830018904E+00   0.8039339853E-04  -0.1111640452E-04   0.2411801956E-03  -0.3334921357E-04   0.1159536471E+00   0.1347817930E-02   0.3519043951E-01  -0.5411741351E-02   0.0000000000E+00   0.0000000000E+00   0.1049921699E-02  -0.4399540805E-03  -0.7035263756E-04   0.0000000000E+00   0.0000000000E+00   0.0000000000E+00   0.1024136852E+00
   0.2336678062E+00   0.2161513010E+00   0.6669405328E-04  -0.1681125956E-04   0.2000821598E-03  -0.5043377867E-04   0.1295895058E+00  -0.4932168947E-03   0.3872888667E-01  -0.3093421450E-02   0.0000000000E+00   0.0000000000E+00   0.1181188048E-02  -0.5098873463E-03  -0.4021447885E-04   0.0000000000E+00   0.0000000000E+00   0.0000000000E+00   0.1156937136E+00
   0.3152481264E+00   0.2132439189E+00   0.9020285210E-04  -0.1374952002E-04   0.2706085563E-03  -0.4124856006E-04   0.1235776746E+00   0.9759353796E-03   0.3736608300E-01  -0.1807342549E-02   0.0000000000E+00   0.0000000000E+00   0.1120750691E-02  -0.4730719191E-03  -0.2349545314E-04   0.0000000000E+00   0.0000000000E+00   0.0000000000E+00   0.1091053304E+00
   0.3503999940E+00   0.1922630049E+00   0.1000000000E-03  -0.1117277250E-04   0.3000000000E-03  -0.3351831749E-04   0.1164395988E+00   0.2174384849E-02   0.3558419510E-01  -0.1937537105E-04   0.0000000000E+00   0.0000000000E+00   0.1051120248E-02  -0.4343275333E-03  -0.2518798236E-06   0.0000000000E+00   0.0000000000E+00   0.0000000000E+00   0.1017636436E+00
   0.2932907570E+00   0.2157710217E+00   0.8393648815E-04  -0.1442007428E-04   0.2518094644E-03  -0.4326022285E-04   0.1248784501E+00   0.5084089439E-03   0.3761605773E-01  -0.2730064999E-02   0.0000000000E+00   0.0000000000E+00   0.1134411101E-02  -0.4823994342E-03  -0.3549084498E-04   0.0000000000E+00   0.0000000000E+00   0.0000000000E+00   0.1106863738E+00
   0.3348515239E+00   0.2178411623E+00   0.9562597456E-04  -0.1413768225E-04   0.2868779237E-03  -0.4241304676E-04   0.1244259120E+00   0.6479705085E-03   0.3752216474E-01  -0.7408205640E-03   0.0000000000E+00   0.0000000000E+00   0.1129748714E-02  -0.4793645250E-03  -0.9630667332E-05   0.0000000000E+00   0.0000000000E+00   0.0000000000E+00   0.1100832850E+00
   0.5154735712E-01   0.1654821155E+00   0.1626210523E-04  -0.3687736825E-04   0.4878631568E-04  -0.1106321048E-03   0.1454272384E+00   0.9377846920E-02   0.4644152561E-01   0.1491504055E-01   0.0000000000E+00   0.0000000000E+00   0.1286814267E-02  -0.4818278229E-03   0.1938955271E-03   0.0000000000E+00   0.0000000000E+00   0.0000000000E+00   0.1245729179E+00
   0.2476411251E+00   0.9580275974E-01   0.8133278368E-04  -0.3751839124E-05   0.2439983510E-03  -0.1125551737E-04   0.8496111479E-01   0.6453337248E-02   0.2742433561E-01  -0.1216988222E-01   0.0000000000E+00   0.0000000000E+00   0.7479781293E-03  -0.2726229787E-03  -0.1582084689E-03   0.0000000000E+00   0.0000000000E+00   0.0000000000E+00   0.7348412291E-01
   0.2650575092E+00   0.8645191315E-01   0.8522856238E-04  -0.2979561731E-05   0.2556856871E-03  -0.8938685192E-05   0.7983352637E-01   0.8799111775E-02   0.2658979144E-01  -0.1002277355E-01   0.0000000000E+00   0.0000000000E+00   0.6921685541E-03  -0.2312788357E-03  -0.1302960562E-03   0.0000000000E+00   0.0000000000E+00   0.0000000000E+00   0.6632891858E-01
   0.2649088950E+00   0.1059410811E+00   0.8375575922E-04  -0.4235230529E-05   0.2512672776E-03  -0.1270569159E-04   0.8799341729E-01   0.6643201931E-02   0.2839098577E-01  -0.9888914292E-02   0.0000000000E+00   0.0000000000E+00   0.7748316098E-03  -0.2827211899E-03  -0.1285558858E-03   0.0000000000E+00   0.0000000000E+00   0.0000000000E+00   0.7492900743E-01
   0.3503999940E+00   0.2114850804E+00   0.1000000000E-03  -0.1334590767E-04   0.3000000000E-03  -0.4003772300E-04   0.1214792739E+00   0.8396037225E-03   0.3669566328E-01   0.2019556580E-03   0.0000000000E+00   0.0000000000E+00   0.1102186938E-02  -0.4661287742E-03   0.2625423553E-05   0.0000000000E+00   0.0000000000E+00   0.0000000000E+00   0.1073057410E+00
   0.3008714312E+00   0.2007970982E+00   0.8661280102E-04  -0.1252394443E-04   0.2598384031E-03  -0.3757183328E-04   0.1207216242E+00   0.1562150783E-02   0.3668513250E-01  -0.3272762400E-02   0.0000000000E+00   0.0000000000E+00   0.1092474392E-02  -0.4565987623E-03  -0.4254591120E-04   0.0000000000E+00   0.0000000000E+00   0.0000000000E+00   0.1062074861E+00
   0.2962180604E+00   0.1829605284E+00   0.8611209591E-04  -0.1061989748E-04   0.2583362877E-03  -0.3185969244E-04   0.1150523367E+00   0.2490826950E-02   0.3526294911E-01  -0.4154542532E-02   0.0000000000E+00   0.0000000000E+00   0.1037262039E-02  -0.4260375881E-03  -0.5400905292E-04   0.0000000000E+00   0.0000000000E+00   0.0000000000E+00   0.1005349469E+00
   0.2997602629E+00   0.1250279819E+00   0.8958096474E-04  -0.5272015348E-05   0.2687428942E-03  -0.1581604604E-04   0.9436461159E-01   0.7471456348E-02   0.3055082038E-01  -0.5738622319E-02   0.0000000000E+00   0.0000000000E+00   0.8295792857E-03  -0.3000317324E-03  -0.7460209015E-04   0.0000000000E+00   0.0000000000E+00   0.0000000000E+00   0.7859077630E-01
   0.2800740135E+00   0.5578175796E-01   0.8942511934E-04  -0.1510935844E-05   0.2682753580E-03  -0.4532807532E-05   0.7076668601E-01   0.1423466569E-01   0.2550040551E-01  -0.6597418997E-02   0.0000000000E+00   0.0000000000E+00   0.5884616465E-03  -0.1464546177E-03  -0.8576644696E-04   0.0000000000E+00   0.0000000000E+00   0.0000000000E+00   0.5308626110E-01
   0.2986128448E+00   0.6736840583E-01   0.9177918794E-04  -0.1932743700E-05   0.2753375638E-03  -0.5798231101E-05   0.7501526947E-01   0.1379244802E-01   0.2664231525E-01  -0.5345050954E-02   0.0000000000E+00   0.0000000000E+00   0.6288484049E-03  -0.1670482739E-03  -0.6948566241E-04   0.0000000000E+00   0.0000000000E+00   0.0000000000E+00   0.5667200921E-01
   0.3165424556E+00   0.1536789490E+00   0.9218840939E-04  -0.7496504528E-05   0.2765652282E-03  -0.2248951358E-04   0.1041654774E+00   0.5252015141E-02   0.3282524777E-01  -0.3330371602E-02   0.0000000000E+00   0.0000000000E+00   0.9274229856E-03  -0.3584520242E-03  -0.4329483083E-04   0.0000000000E+00   0.0000000000E+00   0.0000000000E+00   0.8860016671E-01
   0.2239616762E+00   0.1992170286E+00   0.6535154740E-04  -0.1529060226E-04   0.1960546422E-03  -0.4587180677E-04   0.1250955832E+00  -0.1547047657E-02   0.3706456066E-01  -0.4085564085E-02   0.0000000000E+00   0.0000000000E+00   0.1144403293E-02  -0.5019509081E-03  -0.5311233310E-04   0.0000000000E+00   0.0000000000E+00   0.0000000000E+00   0.1126438396E+00
   0.2044325574E+00   0.1991536824E+00   0.5972634615E-04  -0.1677364474E-04   0.1791790385E-03  -0.5032093422E-04   0.1268052633E+00  -0.2840097291E-02   0.3718954980E-01  -0.2865047348E-02   0.0000000000E+00   0.0000000000E+00   0.1165004275E-02  -0.5203854122E-03  -0.3724561552E-04   0.0000000000E+00   0.0000000000E+00   0.0000000000E+00   0.1150827371E+00
   0.2533797391E+00   0.2161689244E+00   0.7246601828E-04  -0.1576940575E-04   0.2173980548E-03  -0.4730821725E-04   0.1279596112E+00   0.1247524998E-04   0.3839162595E-01  -0.3339226653E-02   0.0000000000E+00   0.0000000000E+00   0.1164383809E-02  -0.4989289590E-03  -0.4340994649E-04   0.0000000000E+00   0.0000000000E+00   0.0000000000E+00   0.1138635772E+00
   0.1167450592E+00   0.2161070831E+00   0.3140355172E-04  -0.3123346478E-04   0.9421065517E-04  -0.9370039434E-04   0.1297223753E+00  -0.2728291309E-02   0.3809822519E-01   0.9792226543E-02   0.0000000000E+00   0.0000000000E+00   0.1191113951E-02  -0.5307447145E-03   0.1272989451E-03   0.0000000000E+00   0.0000000000E+00   0.0000000000E+00   0.1186592313E+00
   0.1459243704E+00   0.1991815619E+00   0.4226234506E-04  -0.2388903121E-04   0.1267870352E-03  -0.7166709364E-04   0.1313295984E+00  -0.6098495948E-02   0.3756933074E-01   0.5428816676E-02   0.0000000000E+00   0.0000000000E+00   0.1218883480E-02  -0.5676817470E-03   0.7057461678E-04   0.0000000000E+00   0.0000000000E+00   0.0000000000E+00   0.1219763929E+00
   0.1358174480E+00   0.1822602515E+00   0.4127874233E-04  -0.2306162498E-04   0.1238362270E-03  -0.6918487493E-04   0.1318657062E+00  -0.9638569190E-02   0.3666814110E-01   0.5951796449E-02   0.0000000000E+00   0.0000000000E+00   0.1237568346E-02  -0.6019872338E-03   0.7737335384E-04   0.0000000000E+00   0.0000000000E+00   0.0000000000E+00   0.1253636478E+00
   0.2043477635E+00   0.3564379172E-01   0.8069088099E-04  -0.9308689699E-06   0.2420726430E-03  -0.2792606910E-05   0.5212814431E-01   0.7101719245E-02   0.1776895907E-01  -0.1258179287E-01   0.0000000000E+00   0.0000000000E+00   0.4466694082E-03  -0.1386741177E-03  -0.1635633073E-03   0.0000000000E+00   0.0000000000E+00   0.0000000000E+00   0.4611391736E-01
   0.1751640601E+00   0.1821323686E+00   0.5316027313E-04  -0.1744785510E-04   0.1594808194E-03  -0.5234356529E-04   0.1260295102E+00  -0.7365985936E-02   0.3559905729E-01  -0.1424943575E-02   0.0000000000E+00   0.0000000000E+00   0.1175595888E-02  -0.5585455619E-03  -0.1852426647E-04   0.0000000000E+00   0.0000000000E+00   0.0000000000E+00   0.1179491407E+00
   0.1654355134E+00   0.1991419015E+00   0.4817684922E-04  -0.2104111738E-04   0.1445305477E-03  -0.6312335215E-04   0.1301314308E+00  -0.5419671038E-02   0.3741352794E-01   0.1965086166E-02   0.0000000000E+00   0.0000000000E+00   0.1205332738E-02  -0.5568315868E-03   0.2554612016E-04   0.0000000000E+00   0.0000000000E+00   0.0000000000E+00   0.1200481677E+00
   0.1849336085E+00   0.1991323495E+00   0.5400312350E-04  -0.1867586586E-04   0.1620093705E-03  -0.5602759757E-04   0.1285826794E+00  -0.4192259546E-02   0.3731712596E-01  -0.8560599759E-03   0.0000000000E+00   0.0000000000E+00   0.1186452195E-02  -0.5396220116E-03  -0.1112877969E-04   0.0000000000E+00   0.0000000000E+00   0.0000000000E+00   0.1176465224E+00
   0.1938286370E+00   0.5328596551E-01   0.7752574879E-04  -0.1763496775E-05   0.2325772464E-03  -0.5290490326E-05   0.5883198617E-01   0.1798396571E-02   0.1818911482E-01  -0.1833775798E-01   0.0000000000E+00   0.0000000000E+00   0.5283573275E-03  -0.2130793373E-03  -0.2383908537E-03   0.0000000000E+00   0.0000000000E+00   0.0000000000E+00   0.6005666352E-01
   0.2148087577E+00   0.5362878367E-01   0.8029392365E-04  -0.1614908091E-05   0.2408817710E-03  -0.4844724272E-05   0.6248168858E-01   0.6311206453E-02   0.2063786851E-01  -0.1480091060E-01   0.0000000000E+00   0.0000000000E+00   0.5439696609E-03  -0.1862466068E-03  -0.1924118379E-03   0.0000000000E+00   0.0000000000E+00   0.0000000000E+00   0.5673934761E-01
   0.2436685569E+00   0.1992879907E+00   0.7092973118E-04  -0.1415733287E-04   0.2127891936E-03  -0.4247199861E-04   0.1234674373E+00  -0.3858222235E-03   0.3692448453E-01  -0.4613360117E-02   0.0000000000E+00   0.0000000000E+00   0.1125058386E-02  -0.4850339878E-03  -0.5997368152E-04   0.0000000000E+00   0.0000000000E+00   0.0000000000E+00   0.1103368322E+00
   0.5029160275E-01   0.1847683830E+00   0.1457176330E-04  -0.3934548866E-04   0.4371528990E-04  -0.1180364660E-03   0.1337734719E+00   0.7014076938E-02   0.4223626464E-01   0.1505988836E-01   0.0000000000E+00   0.0000000000E+00   0.1189983694E-02  -0.4578884401E-03   0.1957785486E-03   0.0000000000E+00   0.0000000000E+00   0.0000000000E+00   0.1163431149E+00
   0.3160117256E+00   0.1729447273E+00   0.9149289683E-04  -0.9327413347E-05   0.2744786905E-03  -0.2798224004E-04   0.1109593835E+00   0.3555066043E-02   0.3435433488E-01  -0.2962286079E-02   0.0000000000E+00   0.0000000000E+00   0.9958656327E-03  -0.4003904948E-03  -0.3850971903E-04   0.0000000000E+00   0.0000000000E+00   0.0000000000E+00   0.9593515811E-01
   0.2986915234E+00   0.1762889326E-01   0.9301610573E-04  -0.4018609195E-06   0.2790483172E-03  -0.1205582759E-05   0.6571675105E-01   0.1772495220E-01   0.2503251097E-01  -0.1459273815E-02   0.0000000000E+00   0.0000000000E+00   0.5288951209E-03  -0.9499826405E-04  -0.1897055960E-04   0.0000000000E+00   0.0000000000E+00   0.0000000000E+00   0.4485413217E-01
   0.3087110514E+00   0.0000000000E+00   0.9442861150E-04   0.0000000000E+00   0.2832858345E-03   0.0000000000E+00   0.6614698898E-01   0.1847000531E-01   0.2538509829E-01  -0.4514469777E-03   0.0000000000E+00   0.0000000000E+00   0.5299045790E-03  -0.8989620870E-04  -0.5868810711E-05   0.0000000000E+00   0.0000000000E+00   0.0000000000E+00   0.4462503516E-01
   0.2663124062E+00   0.6955356403E-01   0.8657229915E-04  -0.2117191741E-05   0.2597168975E-03  -0.6351575223E-05   0.7411730071E-01   0.1196312730E-01   0.2582412840E-01  -0.9218702679E-02   0.0000000000E+00   0.0000000000E+00   0.6278112400E-03  -0.1801930143E-03  -0.1198431348E-03   0.0000000000E+00   0.0000000000E+00   0.0000000000E+00   0.5868037304E-01
   0.2471222437E+00   0.7419025538E-01   0.8319341711E-04  -0.2437228834E-05   0.2495802513E-03  -0.7311686501E-05   0.7459967140E-01   0.8823755121E-02   0.2502702796E-01  -0.1195655413E-01   0.0000000000E+00   0.0000000000E+00   0.6444443647E-03  -0.2106425468E-03  -0.1554352037E-03   0.0000000000E+00   0.0000000000E+00   0.0000000000E+00   0.6287290313E-01
   0.1724127045E+00   0.5293730504E-01   0.7479161473E-04  -0.2088391227E-05   0.2243748442E-03  -0.6265173681E-05   0.5388280315E-01  -0.5153180154E-02   0.1461888690E-01  -0.2253121724E-01   0.0000000000E+00   0.0000000000E+00   0.5104309112E-03  -0.2570368717E-03  -0.2929058241E-03   0.0000000000E+00   0.0000000000E+00   0.0000000000E+00   0.6524959634E-01
   0.2327183798E+00   0.8724596597E-01   0.7948320817E-04  -0.3383808425E-05   0.2384496245E-03  -0.1015142528E-04   0.7928163032E-01   0.4510911552E-02   0.2513776256E-01  -0.1464741844E-01   0.0000000000E+00   0.0000000000E+00   0.7038702809E-03  -0.2681490631E-03  -0.1904164397E-03   0.0000000000E+00   0.0000000000E+00   0.0000000000E+00   0.7151602556E-01
   0.2150365093E+00   0.8962233612E-01   0.7601407209E-04  -0.3853196070E-05   0.2280422163E-03  -0.1155958821E-04   0.8167034753E-01   0.4593659450E-03   0.2463891404E-01  -0.1733274094E-01   0.0000000000E+00   0.0000000000E+00   0.7414086353E-03  -0.3143341253E-03  -0.2253256322E-03   0.0000000000E+00   0.0000000000E+00   0.0000000000E+00   0.7817207272E-01
   0.2249236334E+00   0.7172553700E-01   0.7988335576E-04  -0.2500375409E-05   0.2396500673E-03  -0.7501126226E-05   0.7246526061E-01   0.5514919117E-02   0.2339405392E-01  -0.1523636244E-01   0.0000000000E+00   0.0000000000E+00   0.6379256870E-03  -0.2324287524E-03  -0.1980727118E-03   0.0000000000E+00   0.0000000000E+00   0.0000000000E+00   0.6559894601E-01
   0.2360088839E+00   0.5426265173E-01   0.8316748699E-04  -0.1554691318E-05   0.2495024610E-03  -0.4664073955E-05   0.6591450041E-01   0.9672401458E-02   0.2267607056E-01  -0.1156053968E-01   0.0000000000E+00   0.0000000000E+00   0.5620995880E-03  -0.1690476983E-03  -0.1502870159E-03   0.0000000000E+00   0.0000000000E+00   0.0000000000E+00   0.5481022912E-01
   0.7480631132E-01   0.1105570066E+00   0.3476655517E-04  -0.2359359881E-04   0.1042996655E-03  -0.7078079643E-04   0.1542353892E+00  -0.6780545925E-02   0.4423645299E-01  -0.1195670219E-01   0.0000000000E+00   0.0000000000E+00   0.1429986171E-02  -0.6632209859E-03  -0.1554371285E-03   0.0000000000E+00   0.0000000000E+00   0.0000000000E+00   0.1425296900E+00
   0.1263921736E+00   0.1992515370E+00   0.3629240136E-04  -0.2718226231E-04   0.1088772041E-03  -0.8154678694E-04   0.1319032637E+00  -0.5862736244E-02   0.3781215823E-01   0.9136603482E-02   0.0000000000E+00   0.0000000000E+00   0.1223184371E-02  -0.5677736282E-03   0.1187758453E-03   0.0000000000E+00   0.0000000000E+00   0.0000000000E+00   0.1229598650E+00
   0.1159738540E+00   0.1826342974E+00   0.3504800033E-04  -0.2665739471E-04   0.1051440010E-03  -0.7997218412E-04   0.1344393443E+00  -0.8593216139E-02   0.3775383846E-01   0.1029625918E-01   0.0000000000E+00   0.0000000000E+00   0.1256911576E-02  -0.6025117097E-03   0.1338513694E-03   0.0000000000E+00   0.0000000000E+00   0.0000000000E+00   0.1276330028E+00
   0.1489643774E+00   0.5214267961E-01   0.7196933986E-04  -0.2760472441E-05   0.2159080196E-03  -0.8281417322E-05   0.5010418896E-01  -0.1373869671E-01   0.1090964768E-01  -0.2589820507E-01   0.0000000000E+00   0.0000000000E+00   0.5095290367E-03  -0.3204284770E-03  -0.3366766659E-03   0.0000000000E+00   0.0000000000E+00   0.0000000000E+00   0.7175936973E-01
   0.7070087784E-01   0.1571303076E+00   0.2340075986E-04  -0.3200609809E-04   0.7020227958E-04  -0.9601829427E-04   0.1494116092E+00  -0.4244552157E-03   0.4469614619E-01   0.1414443243E-01   0.0000000000E+00   0.0000000000E+00   0.1361301019E-02  -0.5865678183E-03   0.1838776216E-03   0.0000000000E+00   0.0000000000E+00   0.0000000000E+00   0.1352341651E+00
   0.8508705167E-01   0.1701360566E+00   0.2666704170E-04  -0.3090309479E-04   0.8000112510E-04  -0.9270928438E-04   0.1406918505E+00  -0.5208336921E-02   0.4064505406E-01   0.1406444608E-01   0.0000000000E+00   0.0000000000E+00   0.1300608353E-02  -0.5960940828E-03   0.1828377991E-03   0.0000000000E+00   0.0000000000E+00   0.0000000000E+00   0.1315451024E+00
   0.8070642952E-01   0.1852194047E+00   0.2376287966E-04  -0.3390807866E-04   0.7128863899E-04  -0.1017242360E-03   0.1343039955E+00  -0.1632324513E-02   0.3980150129E-01   0.1594375934E-01   0.0000000000E+00   0.0000000000E+00   0.1228532425E-02  -0.5386397355E-03   0.2072688714E-03   0.0000000000E+00   0.0000000000E+00   0.0000000000E+00   0.1237895003E+00
   0.6754301941E-01   0.1765597471E+00   0.2043247854E-04  -0.3530071751E-04   0.6129743562E-04  -0.1059021525E-03   0.1386898639E+00   0.1997428687E-02   0.4220618779E-01   0.1640315991E-01   0.0000000000E+00   0.0000000000E+00   0.1254287790E-02  -0.5227138683E-03   0.2132410789E-03   0.0000000000E+00   0.0000000000E+00   0.0000000000E+00   0.1249609225E+00
   0.9671559976E-01   0.1837430692E+00   0.2887671452E-04  -0.3055244630E-04   0.8663014356E-04  -0.9165733889E-04   0.1354582567E+00  -0.5431138584E-02   0.3900813543E-01   0.1402224850E-01   0.0000000000E+00   0.0000000000E+00   0.1253851576E-02  -0.5777105621E-03   0.1822892305E-03   0.0000000000E+00   0.0000000000E+00   0.0000000000E+00   0.1270631756E+00
   0.2991537026E+00   0.1627173906E+00   0.8774239678E-04  -0.8526350248E-05   0.2632271903E-03  -0.2557905075E-04   0.1073918290E+00   0.3574981381E-02   0.3329004312E-01  -0.4805301274E-02   0.0000000000E+00   0.0000000000E+00   0.9633232168E-03  -0.3862958027E-03  -0.6246891656E-04   0.0000000000E+00   0.0000000000E+00   0.0000000000E+00   0.9298011816E-01
   0.2834659922E+00   0.1692219923E+00   0.8356104818E-04  -0.9441165863E-05   0.2506831446E-03  -0.2832349759E-04   0.1110201381E+00   0.2586065049E-02   0.3408186094E-01  -0.5502659413E-02   0.0000000000E+00   0.0000000000E+00   0.1000197603E-02  -0.4094453466E-03  -0.7153457237E-04   0.0000000000E+00   0.0000000000E+00   0.0000000000E+00   0.9708321069E-01
   0.2826645837E+00   0.1531693005E+00   0.8430741951E-04  -0.7864868203E-05   0.2529222585E-03  -0.2359460461E-04   0.1056928867E+00   0.3897324363E-02   0.3287706332E-01  -0.6472599031E-02   0.0000000000E+00   0.0000000000E+00   0.9466057039E-03  -0.3767366064E-03  -0.8414378741E-04   0.0000000000E+00   0.0000000000E+00   0.0000000000E+00   0.9153674973E-01
   0.2042863258E+00   0.7156128012E-01   0.7658920632E-04  -0.2722394025E-05   0.2297676190E-03  -0.8167182074E-05   0.7180400274E-01   0.1233650514E-02   0.2191129597E-01  -0.1891468545E-01   0.0000000000E+00   0.0000000000E+00   0.6486051879E-03  -0.2688093910E-03  -0.2458909108E-03   0.0000000000E+00   0.0000000000E+00   0.0000000000E+00   0.7088036616E-01
   0.2996221159E+00   0.1439783553E+00   0.8869097262E-04  -0.6802914340E-05   0.2660729179E-03  -0.2040874302E-04   0.1011428476E+00   0.5421774053E-02   0.3196938650E-01  -0.5330491113E-02   0.0000000000E+00   0.0000000000E+00   0.8992549945E-03  -0.3451189618E-03  -0.6929638447E-04   0.0000000000E+00   0.0000000000E+00   0.0000000000E+00   0.8609171800E-01
   0.2819735761E+00   0.7699668241E-01   0.8867076971E-04  -0.2414398213E-05   0.2660123091E-03  -0.7243194640E-05   0.7838393677E-01   0.1245356122E-01   0.2725124940E-01  -0.7544308661E-02   0.0000000000E+00   0.0000000000E+00   0.6647249359E-03  -0.1923699463E-03  -0.9807601259E-04   0.0000000000E+00   0.0000000000E+00   0.0000000000E+00   0.6132223003E-01
   0.1283815420E+00   0.8317100168E-01   0.5986700584E-04  -0.8121355960E-05   0.1796010175E-03  -0.2436406788E-04   0.9083009471E-01  -0.2497272300E-01   0.1975721151E-01  -0.2828342661E-01   0.0000000000E+00   0.0000000000E+00   0.9239474815E-03  -0.5814891486E-03  -0.3676845459E-03   0.0000000000E+00   0.0000000000E+00   0.0000000000E+00   0.1121855315E+00
   0.1285464266E+00   0.1030847803E+00   0.5403788878E-04  -0.1115918132E-04   0.1621136663E-03  -0.3347754397E-04   0.1099286133E+00  -0.2490868121E-01   0.2550597962E-01  -0.2107570836E-01   0.0000000000E+00   0.0000000000E+00   0.1097494238E-02  -0.6553905908E-03  -0.2739842087E-03   0.0000000000E+00   0.0000000000E+00   0.0000000000E+00   0.1235657664E+00
   0.1145578391E+00   0.9383995561E-01   0.5299026334E-04  -0.1183777201E-04   0.1589707900E-03  -0.3551331603E-04   0.1093011221E+00  -0.2384669537E-01   0.2563632801E-01  -0.2440874242E-01   0.0000000000E+00   0.0000000000E+00   0.1087642323E-02  -0.6432793040E-03  -0.3173136515E-03   0.0000000000E+00   0.0000000000E+00   0.0000000000E+00   0.1244543895E+00
   0.1947049261E+00   0.1821622012E+00   0.5881276988E-04  -0.1542118773E-04   0.1764383096E-03  -0.4626356318E-04   0.1232804471E+00  -0.5166661739E-02   0.3543413560E-01  -0.3875403919E-02   0.0000000000E+00   0.0000000000E+00   0.1142002049E-02  -0.5278103654E-03  -0.5038025095E-04   0.0000000000E+00   0.0000000000E+00   0.0000000000E+00   0.1139051660E+00
   0.2539882402E+00   0.1823961341E+00   0.7508055518E-04  -0.1171471631E-04   0.2252416655E-03  -0.3514414893E-04   0.1171499871E+00   0.4317172021E-03   0.3527451130E-01  -0.5827496553E-02   0.0000000000E+00   0.0000000000E+00   0.1064381186E-02  -0.4529563233E-03  -0.7575745519E-04   0.0000000000E+00   0.0000000000E+00   0.0000000000E+00   0.1042624228E+00
   0.2338660466E+00   0.1824261809E+00   0.6966939632E-04  -0.1264078109E-04   0.2090081890E-03  -0.3792234326E-04   0.1190031712E+00  -0.1237351799E-02   0.3532974583E-01  -0.5926833923E-02   0.0000000000E+00   0.0000000000E+00   0.1087754530E-02  -0.4753722692E-03  -0.7704884099E-04   0.0000000000E+00   0.0000000000E+00   0.0000000000E+00   0.1072477903E+00
   0.2515708402E+00   0.1519727107E+00   0.7697678851E-04  -0.8531081945E-05   0.2309303655E-03  -0.2559324584E-04   0.1075492766E+00   0.1627369551E-02   0.3275299384E-01  -0.8805674379E-02   0.0000000000E+00   0.0000000000E+00   0.9723516758E-03  -0.4046331158E-03  -0.1144737669E-03   0.0000000000E+00   0.0000000000E+00   0.0000000000E+00   0.9551231443E-01
   0.2347524999E+00   0.1494089142E+00   0.7312972711E-04  -0.8853209451E-05   0.2193891813E-03  -0.2655962835E-04   0.1072243513E+00  -0.1154798627E-02   0.3182086580E-01  -0.9900205456E-02   0.0000000000E+00   0.0000000000E+00   0.9802453115E-03  -0.4286836376E-03  -0.1287026709E-03   0.0000000000E+00   0.0000000000E+00   0.0000000000E+00   0.9775045673E-01
   0.2483476520E+00   0.1359599881E+00   0.7769774264E-04  -0.7046978892E-05   0.2330932279E-03  -0.2114093668E-04   0.1007989489E+00   0.1797409633E-02   0.3077890757E-01  -0.1033945094E-01   0.0000000000E+00   0.0000000000E+00   0.9102605377E-03  -0.3767594732E-03  -0.1344128622E-03   0.0000000000E+00   0.0000000000E+00   0.0000000000E+00   0.8995661819E-01
   0.7644520021E-01   0.1346609377E+00   0.2887862848E-04  -0.2722982892E-04   0.8663588543E-04  -0.8168948675E-04   0.1537943456E+00  -0.6124993104E-02   0.4430080574E-01   0.4727711865E-02   0.0000000000E+00   0.0000000000E+00   0.1423416018E-02  -0.6555353850E-03   0.6146025424E-04   0.0000000000E+00   0.0000000000E+00   0.0000000000E+00   0.1421264651E+00
   0.2142571877E+00   0.1822770718E+00   0.6430017819E-04  -0.1384230638E-04   0.1929005346E-03  -0.4152691913E-04   0.1208738391E+00  -0.3054230146E-02   0.3534588269E-01  -0.5249468206E-02   0.0000000000E+00   0.0000000000E+00   0.1111863433E-02  -0.4992014668E-03  -0.6824308667E-04   0.0000000000E+00   0.0000000000E+00   0.0000000000E+00   0.1102442187E+00
   0.2573341237E+00   0.5434617201E-01   0.8620592160E-04  -0.1502723491E-05   0.2586177648E-03  -0.4508170472E-05   0.6850208836E-01   0.1242078597E-01   0.2427686230E-01  -0.9119484390E-02   0.0000000000E+00   0.0000000000E+00   0.5749279388E-03  -0.1541289923E-03  -0.1185532971E-03   0.0000000000E+00   0.0000000000E+00   0.0000000000E+00   0.5360483400E-01
   0.2823269563E+00   0.9623788643E-01   0.8767582844E-04  -0.3452467152E-05   0.2630274853E-03  -0.1035740146E-04   0.8436027679E-01   0.9698373304E-02   0.2821759503E-01  -0.7925671639E-02   0.0000000000E+00   0.0000000000E+00   0.7298548629E-03  -0.2407498824E-03  -0.1030337313E-03   0.0000000000E+00   0.0000000000E+00   0.0000000000E+00   0.6872181226E-01
   0.1427569470E+00   0.7226051399E-01   0.6598425080E-04  -0.5217252584E-05   0.1979527524E-03  -0.1565175775E-04   0.7116229227E-01  -0.2019561578E-01   0.1529000295E-01  -0.2859305544E-01   0.0000000000E+00   0.0000000000E+00   0.7263397612E-03  -0.4613130434E-03  -0.3717097208E-03   0.0000000000E+00   0.0000000000E+00   0.0000000000E+00   0.9377360638E-01
   0.1248539982E+00   0.1649113875E+00   0.4019954422E-04  -0.2225162219E-04   0.1205986327E-03  -0.6675486658E-04   0.1335742182E+00  -0.1362057349E-01   0.3598609343E-01   0.5384069488E-02   0.0000000000E+00   0.0000000000E+00   0.1268645623E-02  -0.6448866699E-03   0.6999290335E-04   0.0000000000E+00   0.0000000000E+00   0.0000000000E+00   0.1300069501E+00
   0.2658581066E+00   0.1442339630E+00   0.8099339070E-04  -0.7385750085E-05   0.2429801721E-03  -0.2215725025E-04   0.1024604076E+00   0.2961654414E-02   0.3162661860E-01  -0.8263691707E-02   0.0000000000E+00   0.0000000000E+00   0.9208392568E-03  -0.3726445344E-03  -0.1074279922E-03   0.0000000000E+00   0.0000000000E+00   0.0000000000E+00   0.8986001825E-01
   0.2826111540E+00   0.1345653880E+00   0.8542649807E-04  -0.6212490076E-05   0.2562794942E-03  -0.1863747023E-04   0.9838052623E-01   0.5463290405E-02   0.3115314499E-01  -0.7240947981E-02   0.0000000000E+00   0.0000000000E+00   0.8739559561E-03  -0.3339681096E-03  -0.9413232375E-04   0.0000000000E+00   0.0000000000E+00   0.0000000000E+00   0.8404938119E-01
   0.2824673078E+00   0.1155239087E+00   0.8656145024E-04  -0.4730069929E-05   0.2596843507E-03  -0.1419020979E-04   0.9128114716E-01   0.7389912089E-02   0.2960131778E-01  -0.7749509743E-02   0.0000000000E+00   0.0000000000E+00   0.8018377820E-03  -0.2887482739E-03  -0.1007436267E-03   0.0000000000E+00   0.0000000000E+00   0.0000000000E+00   0.7647002738E-01
   0.2242798604E+00   0.1655940934E+00   0.6877135983E-04  -0.1118139800E-04   0.2063140795E-03  -0.3354419401E-04   0.1139560803E+00  -0.2564087142E-02   0.3341759795E-01  -0.7652724861E-02   0.0000000000E+00   0.0000000000E+00   0.1047000271E-02  -0.4677619062E-03  -0.9948542319E-04   0.0000000000E+00   0.0000000000E+00   0.0000000000E+00   0.1041794104E+00
   0.2438067761E+00   0.1659831195E+00   0.7378603568E-04  -0.1028712287E-04   0.2213581070E-03  -0.3086136862E-04   0.1123269039E+00  -0.5266456799E-03   0.3354007747E-01  -0.7645753759E-02   0.0000000000E+00   0.0000000000E+00   0.1024228744E-02  -0.4428674009E-03  -0.9939479886E-04   0.0000000000E+00   0.0000000000E+00   0.0000000000E+00   0.1011204638E+00
   0.1823853716E+00   0.1088622340E+00   0.6630689825E-04  -0.6921998310E-05   0.1989206948E-03  -0.2076599493E-04   0.9673235985E-01  -0.1075289946E-01   0.2579383812E-01  -0.1826232515E-01   0.0000000000E+00   0.0000000000E+00   0.9222007825E-03  -0.4751075885E-03  -0.2374102270E-03   0.0000000000E+00   0.0000000000E+00   0.0000000000E+00   0.9976824392E-01
   0.2059090499E+00   0.1120294815E+00   0.7106148492E-04  -0.6119867277E-05   0.2131844548E-03  -0.1835960183E-04   0.9442543417E-01  -0.4142755644E-02   0.2708480356E-01  -0.1605195916E-01   0.0000000000E+00   0.0000000000E+00   0.8754281979E-03  -0.4059582696E-03  -0.2086754691E-03   0.0000000000E+00   0.0000000000E+00   0.0000000000E+00   0.9157248922E-01
   0.1890874481E+00   0.1288559340E+00   0.6455128247E-04  -0.8924502956E-05   0.1936538474E-03  -0.2677350887E-04   0.1051529223E+00  -0.9366725631E-02   0.2873585900E-01  -0.1414551586E-01   0.0000000000E+00   0.0000000000E+00   0.9934218228E-03  -0.4953336002E-03  -0.1838917062E-03   0.0000000000E+00   0.0000000000E+00   0.0000000000E+00   0.1039347636E+00
   0.2650893325E+00   0.1642764712E+00   0.7930387870E-04  -0.9367702802E-05   0.2379116361E-03  -0.2810310841E-04   0.1103783476E+00   0.1771500027E-02   0.3364495429E-01  -0.6879429072E-02   0.0000000000E+00   0.0000000000E+00   0.9975341131E-03  -0.4143549054E-03  -0.8943257794E-04   0.0000000000E+00   0.0000000000E+00   0.0000000000E+00   0.9742775787E-01
   0.1939479913E+00   0.9046011484E-01   0.7186232587E-04  -0.4468315220E-05   0.2155869776E-03  -0.1340494566E-04   0.8422057191E-01  -0.4257524594E-02   0.2398891420E-01  -0.1983031021E-01   0.0000000000E+00   0.0000000000E+00   0.7830115503E-03  -0.3672037043E-03  -0.2577940328E-03   0.0000000000E+00   0.0000000000E+00   0.0000000000E+00   0.8548448492E-01
   0.1351870444E+00   0.1461091140E+00   0.4642809209E-04  -0.1740574678E-04   0.1392842763E-03  -0.5221724033E-04   0.1291501803E+00  -0.1750282798E-01   0.3349420569E-01  -0.2636324237E-02   0.0000000000E+00   0.0000000000E+00   0.1243527670E-02  -0.6629614377E-03  -0.3427221508E-04   0.0000000000E+00   0.0000000000E+00   0.0000000000E+00   0.1289598040E+00
   0.1852382351E+00   0.1647914004E+00   0.5829152026E-04  -0.1398214185E-04   0.1748745608E-03  -0.4194642555E-04   0.1201255081E+00  -0.8265570754E-02   0.3355798120E-01  -0.5611289835E-02   0.0000000000E+00   0.0000000000E+00   0.1125377849E-02  -0.5437061753E-03  -0.7294676786E-04   0.0000000000E+00   0.0000000000E+00   0.0000000000E+00   0.1138019379E+00
   0.1960951549E+00   0.1477651795E+00   0.6354247705E-04  -0.1083186603E-04   0.1906274311E-03  -0.3249559809E-04   0.1125810690E+00  -0.7518069281E-02   0.3151889993E-01  -0.1011009117E-01   0.0000000000E+00   0.0000000000E+00   0.1053808199E-02  -0.5074805997E-03  -0.1314311853E-03   0.0000000000E+00   0.0000000000E+00   0.0000000000E+00   0.1075324846E+00
   0.1763795934E+00   0.1462886982E+00   0.5845409821E-04  -0.1227719457E-04   0.1753622946E-03  -0.3683158370E-04   0.1157846790E+00  -0.1194762855E-01   0.3115111515E-01  -0.9025548188E-02   0.0000000000E+00   0.0000000000E+00   0.1100236331E-02  -0.5602836681E-03  -0.1173321264E-03   0.0000000000E+00   0.0000000000E+00   0.0000000000E+00   0.1135950697E+00
   0.9352345556E-01   0.1193566246E+00   0.3862141379E-04  -0.2061383980E-04   0.1158642414E-03  -0.6184151940E-04   0.1415858428E+00  -0.1928899030E-01   0.3668905574E-01  -0.7971232586E-02   0.0000000000E+00   0.0000000000E+00   0.1363658231E-02  -0.7277145985E-03  -0.1036260236E-03   0.0000000000E+00   0.0000000000E+00   0.0000000000E+00   0.1421008030E+00
   0.2047943328E+00   0.1651850371E+00   0.6363545411E-04  -0.1239698249E-04   0.1909063623E-03  -0.3719094748E-04   0.1170023846E+00  -0.4981416474E-02   0.3360629044E-01  -0.7250938502E-02   0.0000000000E+00   0.0000000000E+00   0.1084149224E-02  -0.5016401899E-03  -0.9426220053E-04   0.0000000000E+00   0.0000000000E+00   0.0000000000E+00   0.1087112175E+00
   0.2651314888E+00   0.1253973609E+00   0.8230293932E-04  -0.5731520663E-05   0.2469088180E-03  -0.1719456199E-04   0.9530152261E-01   0.4171041811E-02   0.2984176933E-01  -0.9342172314E-02   0.0000000000E+00   0.0000000000E+00   0.8509767927E-03  -0.3337194577E-03  -0.1214482401E-03   0.0000000000E+00   0.0000000000E+00   0.0000000000E+00   0.8298659362E-01
   0.2469122298E+00   0.1160915602E+00   0.7927895943E-04  -0.5294710601E-05   0.2378368783E-03  -0.1588413180E-04   0.9325951073E-01   0.3275889512E-02   0.2896062007E-01  -0.1152122498E-01   0.0000000000E+00   0.0000000000E+00   0.8358855786E-03  -0.3339014973E-03  -0.1497759247E-03   0.0000000000E+00   0.0000000000E+00   0.0000000000E+00   0.8274172010E-01
   0.2265755629E+00   0.1285577301E+00   0.7352473290E-04  -0.6998985108E-05   0.2205741987E-03  -0.2099695532E-04   0.9919200704E-01  -0.1685057044E-02   0.2925208500E-01  -0.1236418608E-01   0.0000000000E+00   0.0000000000E+00   0.9092189865E-03  -0.4021828465E-03  -0.1607344191E-03   0.0000000000E+00   0.0000000000E+00   0.0000000000E+00   0.9203758537E-01
   0.1261323733E+00   0.1248700053E+00   0.4783381875E-04  -0.1524317565E-04   0.1435014563E-03  -0.4572952694E-04   0.1259476670E+00  -0.2327228698E-01   0.3080261401E-01  -0.1062053192E-01   0.0000000000E+00   0.0000000000E+00   0.1236885689E-02  -0.7029737128E-03  -0.1380669150E-03   0.0000000000E+00   0.0000000000E+00   0.0000000000E+00   0.1320784438E+00
   0.1077950856E+00   0.1273831990E+00   0.4137965587E-04  -0.1898875257E-04   0.1241389676E-03  -0.5696625772E-04   0.1386946505E+00  -0.2053913170E-01   0.3544665565E-01  -0.5234791449E-02   0.0000000000E+00   0.0000000000E+00   0.1342223933E-02  -0.7278152355E-03  -0.6805228883E-04   0.0000000000E+00   0.0000000000E+00   0.0000000000E+00   0.1402298591E+00
   0.1110281835E+00   0.1108099316E+00   0.4680738592E-04  -0.1532161133E-04   0.1404221578E-03  -0.4596483398E-04   0.1231456200E+00  -0.2573720088E-01   0.2922252574E-01  -0.1475345952E-01   0.0000000000E+00   0.0000000000E+00   0.1221000226E-02  -0.7144764461E-03  -0.1917949738E-03   0.0000000000E+00   0.0000000000E+00   0.0000000000E+00   0.1326727786E+00
   0.9612541802E-01   0.1357974665E+00   0.3558995526E-04  -0.2295261923E-04   0.1067698658E-03  -0.6885785768E-04   0.1451405729E+00  -0.1562365638E-01   0.3885507495E-01   0.2430164065E-02   0.0000000000E+00   0.0000000000E+00   0.1381711473E-02  -0.7082235074E-03   0.3159213285E-04   0.0000000000E+00   0.0000000000E+00   0.0000000000E+00   0.1416296942E+00
   0.2291265098E+00   0.1048934494E+00   0.7681845799E-04  -0.4761891542E-05   0.2304553740E-03  -0.1428567463E-04   0.8861787012E-01   0.1664256984E-02   0.2708463813E-01  -0.1409496508E-01   0.0000000000E+00   0.0000000000E+00   0.7999320158E-03  -0.3304649549E-03  -0.1832345460E-03   0.0000000000E+00   0.0000000000E+00   0.0000000000E+00   0.8116707826E-01
   0.1559989962E+00   0.1460447085E+00   0.5271806216E-04  -0.1450088103E-04   0.1581541865E-03  -0.4350264309E-04   0.1228180355E+00  -0.1462000553E-01   0.3245940900E-01  -0.6546045742E-02   0.0000000000E+00   0.0000000000E+00   0.1174662145E-02  -0.6120323889E-03  -0.8509859465E-04   0.0000000000E+00   0.0000000000E+00   0.0000000000E+00   0.1214161244E+00
   0.2065351602E+00   0.1331045395E+00   0.6819878842E-04  -0.8432371108E-05   0.2045963653E-03  -0.2529711332E-04   0.1053217210E+00  -0.5791677186E-02   0.2985901313E-01  -0.1320712599E-01   0.0000000000E+00   0.0000000000E+00   0.9810152018E-03  -0.4634589742E-03  -0.1716926379E-03   0.0000000000E+00   0.0000000000E+00   0.0000000000E+00   0.1008484791E+00
   0.2152627672E+00   0.1483210845E+00   0.6842529390E-04  -0.9691376414E-05   0.2052758817E-03  -0.2907412924E-04   0.1101638293E+00  -0.3046946417E-02   0.3213506488E-01  -0.9771788849E-02   0.0000000000E+00   0.0000000000E+00   0.1014373938E-02  -0.4573661468E-03  -0.1270332550E-03   0.0000000000E+00   0.0000000000E+00   0.0000000000E+00   0.1017315463E+00
   0.1466652877E+00   0.1280950918E+00   0.5329341505E-04  -0.1285929642E-04   0.1598802451E-03  -0.3857788926E-04   0.1184929524E+00  -0.1875076631E-01   0.2992265583E-01  -0.1174071080E-01   0.0000000000E+00   0.0000000000E+00   0.1151413855E-02  -0.6327544878E-03  -0.1526292404E-03   0.0000000000E+00   0.0000000000E+00   0.0000000000E+00   0.1221929969E+00
   0.1671511177E+00   0.1253350435E+00   0.5951766449E-04  -0.1020212695E-04   0.1785529935E-03  -0.3060638086E-04   0.1111280719E+00  -0.1401976807E-01   0.2913249114E-01  -0.1403413114E-01   0.0000000000E+00   0.0000000000E+00   0.1065942549E-02  -0.5609793696E-03  -0.1824437048E-03   0.0000000000E+00   0.0000000000E+00   0.0000000000E+00   0.1127315614E+00
   0.1493768203E+00   0.9405981159E-01   0.6173808214E-04  -0.7357051614E-05   0.1852142464E-03  -0.2207115484E-04   0.9345379079E-01  -0.1984988567E-01   0.2208117154E-01  -0.2406202299E-01   0.0000000000E+00   0.0000000000E+00   0.9278440503E-03  -0.5451037437E-03  -0.3128062989E-03   0.0000000000E+00   0.0000000000E+00   0.0000000000E+00   0.1077332900E+00
   0.1540218997E+00   0.1132210650E+00   0.5846741680E-04  -0.9756240121E-05   0.1754022504E-03  -0.2926872036E-04   0.1077274486E+00  -0.2044714405E-01   0.2618409137E-01  -0.1880166834E-01   0.0000000000E+00   0.0000000000E+00   0.1060063644E-02  -0.6062060605E-03  -0.2444216885E-03   0.0000000000E+00   0.0000000000E+00   0.0000000000E+00   0.1169292299E+00
   0.1651514438E+00   0.1063602833E+00   0.6271819546E-04  -0.7833180590E-05   0.1881545864E-03  -0.2349954177E-04   0.9687399659E-01  -0.1627546278E-01   0.2417956015E-01  -0.1954774336E-01   0.0000000000E+00   0.0000000000E+00   0.9450276738E-03  -0.5259152980E-03  -0.2541206637E-03   0.0000000000E+00   0.0000000000E+00   0.0000000000E+00   0.1047768050E+00
   0.1409486469E+00   0.1126667387E+00   0.5509548119E-04  -0.1112807777E-04   0.1652864436E-03  -0.3338423332E-04   0.1150859645E+00  -0.2108758323E-01   0.2819951437E-01  -0.1660876029E-01   0.0000000000E+00   0.0000000000E+00   0.1129523851E-02  -0.6407322688E-03  -0.2159138838E-03   0.0000000000E+00   0.0000000000E+00   0.0000000000E+00   0.1224630744E+00
           1           2           3           3
           4           5           6           6
           7           8           9           9
          10          11          12          12
          13           7          14          14
          15          16          17          17
          18          19          10          10
          20          21          22          22
          23          24           2           2
          25          23           2           2
          26           3          27          27
          28          29          30          30
          31          32          33          33
          34          31          25          25
          35          36          20          20
          26          27           8           8
          37          15          17          17
          38          39          40          40
          41          40          42          42
          43          44          45          45
          46          47          41          41
          48          49          50          50
          51          52          53          53
          54          55          56          56
          57          58          59          59
          60          61          62          62
          63          64          57          57
          62          13          65          65
          66          67          68          68
          69          66          70          70
          71          72          73          73
          74          75          76          76
          75          77          78          78
          77          79          78          78
          80          53          48          48
          81          82          83          83
          45          84          85          85
          44          86          45          45
          87          88          44          44
          41          42          87          87
          36          89          21          21
          20          36          21          21
          35          30          90          90
          91           1          26          26
          92          93          30          30
           6          94          92          92
          95          96           4           4
          12          97          95          95
          98          12          95          95
          99         100          10          10
         101         102          99          99
         103         104         101         101
         105         106         103         103
         107         108         105         105
         109         110         107         107
         111         112         109         109
          69          70         111         111
           8          27           9           9
           7           9          14          14
          13          14          65          65
         113         114         115         115
          59          58         116         116
          51         116          52          52
          62          65          15          15
         117         118         119         119
         120         121         122         122
         122         123         124         124
          31          33          25          25
          25          33          23          23
          28          20         120         120
         124          32          31          31
         125         124         126         126
         124         123          32          32
         127         120         122         122
         122         121         123         123
         120          20          22          22
         120          22         121         121
          91         128          34          34
         129           4           6           6
          37          17         130         130
         131         132          63          63
          53          52          49          49
          85         133          83          83
          83         134         135         135
          51          59         116         116
          57          64          58          58
          19          99          10          10
         136          63         137         137
          63         132          64          64
         138          60          37          37
         131         130         132         132
          37          62          15          15
          37         130         131         131
         135         134          79          79
         139         103         101         101
          56          55          82          82
          83         133         134         134
          55          45          85          85
          85          84         133         133
         140          46         141         141
          45          86          84          84
         142          44          43          43
          44          88          86          86
          46          87         142         142
          87          42          88          88
          47          38          41          41
          41          38          40          40
         143          29         144         144
          30          93          90          90
         145          92          29          29
          92          94          93          93
         146         147         129         129
           6           5          94          94
         148         149         150         150
           4          96           5           5
         151           7         152         152
          95          97          96          96
          18          12          98          98
          12          11          97          97
         153         139         101         101
          10         100          11          11
         153          99          19          19
          99         102         100         100
         154          51         155         155
         101         104         102         102
         156          71          73          73
         103         106         104         104
         157         103         139         139
         105         108         106         106
          74          76         158         158
         107         110         108         108
          76          75         159         159
         109         112         110         110
         160         109          72          72
         111          70         112         112
         161          67          69          69
          69          67          66          66
         126         124          31          31
         128         162         126         126
         144          28         127         127
         125         127         122         122
         125         122         124         124
         143         146         145         145
          77         135          79          79
          75          78         159         159
          82          85          83          83
         163         164         165         165
          76         159         166         166
         167         168          74          74
          81          83         135         135
         169          56          82          82
          55          43          45          45
          55          85          82          82
         170         141         171         171
         142          87          44          44
         161          76         166         166
         158          69         111         111
         172         135          77          77
         173         139         174         174
         161         166          67          67
         158         161          69          69
          72         109         107         107
         175         107         105         105
         176          95           4           4
         152           7          13          13
         145           6          92          92
         114         177         178         178
          18          10          12          12
         154          59          51          51
         153         101          99          99
         179         137          57          57
         114         180         181         181
         181         182          19          19
         183         179         184         184
         174         153         182         182
         173         185         157         157
         157         105         103         103
          29          92          30          30
         186         127         125         125
          35          90          36          36
          28          35          20          20
         186         144         127         127
         145         129           6           6
         176          98          95          95
         176           4         129         129
         175          72         107         107
         175         105         157         157
          74         187          75          75
         160         111         109         109
           1          25           2           2
           1           3          26          26
          48          53          49          49
         188          48          50          50
         188          50         189         189
          47         188         189         189
         155          51          53          53
         190         164         191         191
         137          63          57          57
         179          57          59          59
         154         179          59          59
         183         192         137         137
         193         194         195         195
         196         184         154         154
          60          62          37          37
         136         131          63          63
          47         189          38          38
          46          41          87          87
          28          30          35          35
          28         120         127         127
         141          46         142         142
          46         188          47          47
         197          26           8           8
         151           8           7           7
         178         198         199         199
          61         152          13          13
          61          13          62          62
         200         136         192         192
         198         176         147         147
         151         197           8           8
          34         126          31          31
          34          25           1           1
         158          76         161         161
         158         111         160         160
         144          29          28          28
         162         125         126         126
         162         186         125         125
         201         162         128         128
         128         126          34          34
         202         203         204         204
         140         188          46          46
         171         142          43          43
          91          34           1           1
         205         199         147         147
         168         206         187         187
         187          77          75          75
         167         158         160         160
         207         208         206         206
         169          82          81          81
         195         209         184         184
         210          81         172         172
         173         157         139         139
         190         170         211         211
          54          43          55          55
         171         141         142         142
         171          43          54          54
         172          81         135         135
         172          77         187         187
         182         153          19          19
         181          19          18          18
         147         176         129         129
         146         129         145         145
         177          18          98          98
         212         213         214         214
         143         145          29          29
         204         203         143         143
          73          72         175         175
         185         175         157         157
         215         182         180         180
         174         139         153         153
         216         185         217         217
         185          73         175         175
         198          98         176         176
         199         198         147         147
         167          71         168         168
          71         160          72          72
         177         181          18          18
         177          98         198         198
         215         174         182         182
         218         219         220         220
         143         144         186         186
         202         204         201         201
          91          26         197         197
         221          91         197         197
          80         155          53          53
         140          80          48          48
         184         179         154         154
         196         154         155         155
         192         136         137         137
         183         137         179         179
         215         222         174         174
         209         118         183         183
         223         155          80          80
         224          54          56          56
         138          37         131         131
         138         200          60          60
         140          48         188         188
         170         140         141         141
         170          80         140         140
         211          54         224         224
         225          61         200         200
         200          61          60          60
         221         128          91          91
         149         226         199         199
         227         228         208         208
         206         172         187         187
         229          56         169         169
         229         224          56          56
         211         170         171         171
         211         171          54          54
         168         187          74          74
         156         168          71          71
         228         169         210         210
         217         185         173         173
         210         169          81          81
         210         172         206         206
         167          74         158         158
         167         160          71          71
         222         173         174         174
         230         231         217         217
         205         147         146         146
         226         178         199         199
         232         233         234         234
         178         177         198         198
         235         156         216         216
         216          73         185         185
         207         168         156         156
         156          73         216         216
         180         182         181         181
         114         181         177         177
         203         205         146         146
         150         202         201         201
         194         236         209         209
         222         217         173         173
         115         178         226         226
         237         115         226         226
         203         146         143         143
         204         143         186         186
         238         180         113         113
         239         238         240         240
         221         201         128         128
         241         197         151         151
         223         196         155         155
         223          80         170         170
         118         192         183         183
         209         183         184         184
         195         184         196         196
         242         215         238         238
         191         196         223         223
         165         164         224         224
         204         186         162         162
         204         162         201         201
         227         208         235         235
         208         210         206         206
         164         211         224         224
         165         224         229         229
         243         229         228         228
         244         220         245         245
         207         206         168         168
         235         207         156         156
         149         199         205         205
         246         148         247         247
         231         216         217         217
         230         217         222         222
         138         131         136         136
         138         136         200         200
         235         208         207         207
         235         216         231         231
         213         248         214         214
         115         114         178         178
         202         149         205         205
         249         221         241         241
         242         222         215         215
         250         244         245         245
         202         205         203         203
         150         201         221         221
         251         115         237         237
         113         180         114         114
         240         113         251         251
         238         215         180         180
         252         233         245         245
         242         230         222         222
         228         229         169         169
         228         210         208         208
         191         195         196         196
         190         191         223         223
         236         118         209         209
         194         209         195         195
         193         195         191         191
         253         219         230         230
         190         223         170         170
         190         211         164         164
         241         221         197         197
         150         149         202         202
         248         241         151         151
         249         148         150         150
         218         235         231         231
         218         220         227         227
         148         237         226         226
         254         251         237         237
         148         226         149         149
         246         247         248         248
         219         231         230         230
         253         230         242         242
         255         251         254         254
         251         113         115         115
         239         242         238         238
         252         245         253         253
         234         252         239         239
         240         238         113         113
         234         240         255         255
         239         253         242         242
         243         165         229         229
         243         228         227         227
         163         191         164         164
         244         243         220         220
         225         212          61          61
         119         118         236         236
         249         150         221         221
         247         249         241         241
         233         236         194         194
         250         245         233         233
         214         151         152         152
         256         213         212         212
         247         148         249         249
         247         241         248         248
         220         243         227         227
         245         220         219         219
         213         246         248         248
         246         237         148         148
         257         255         254         254
         254         237         246         246
         245         219         253         253
         250         233         194         194
         163         244         250         250
         244         165         243         243
         232         234         255         255
         255         240         251         251
         252         253         239         239
         234         239         240         240
         258         255         257         257
         234         233         252         252
         232         119         236         236
         232         236         233         233
         250         194         193         193
         163         250         193         193
         117         200         192         192
         117         192         118         118
         218         227         235         235
         218         231         219         219
         214         248         151         151
         212         214         152         152
         259         256         257         257
         259         246         213         213
         212         152          61          61
         225         256         212         212
         258         257         256         256
         259         257         254         254
         163         193         191         191
         163         165         244         244
         256         117         119         119
         258         256         119         119
         259         254         246         246
         259         213         256         256
         258         119         232         232
         258         232         255         255
         225         200         117         117
         225         117         256         256
 VARIABLES = X,Y,DU1,DU2,U1,U2,S11,S22,S33,S12,S13,S23,E11,E22,E12,E33,E13,E23,SMISES
 ZONE, T="0.5000D+01" F=FEPOINT, I=  259 J=  457
   0.3715349866E-01   0.1122711466E+00   0.1941201151E-04  -0.3282987469E-04   0.7764804606E-04  -0.1313194987E-03   0.2634939591E+00   0.2785294404E-01   0.8740407095E-01  -0.3005243668E-01   0.0000000000E+00   0.0000000000E+00   0.2289168546E-02  -0.7741646499E-03  -0.3906816768E-03   0.0000000000E+00   0.0000000000E+00   0.0000000000E+00   0.2180469296E+00
   0.1958247746E-01   0.9791687402E-01   0.1468901177E-04  -0.3233051595E-04   0.5875604706E-04  -0.1293220638E-03   0.3529156379E+00   0.3638744873E-01   0.1167909260E+00  -0.4088097671E-01   0.0000000000E+00   0.0000000000E+00   0.3069621255E-02  -0.1045245205E-02  -0.5314526972E-03   0.0000000000E+00   0.0000000000E+00   0.0000000000E+00   0.2933388745E+00
   0.3841378458E-01   0.9224174050E-01   0.2908839679E-04  -0.2924228052E-04   0.1163535872E-03  -0.1169691221E-03   0.3273176150E+00   0.5656661688E-01   0.1151652695E+00  -0.8409845637E-01   0.0000000000E+00   0.0000000000E+00   0.2757980490E-02  -0.7617824847E-03  -0.1093279933E-02   0.0000000000E+00   0.0000000000E+00   0.0000000000E+00   0.2845527967E+00
   0.1070420599E+00   0.2329449747E+00   0.2644377234E-04  -0.3516485853E-04   0.1057750893E-03  -0.1406594341E-03   0.1574043460E+00  -0.1034722139E-02   0.4691088716E-01   0.8026285031E-02   0.0000000000E+00   0.0000000000E+00   0.1436414965E-02  -0.6232929209E-03   0.1043417054E-03   0.0000000000E+00   0.0000000000E+00   0.0000000000E+00   0.1414704756E+00
   0.9732818652E-01   0.2498053680E+00   0.2119252365E-04  -0.3892640651E-04   0.8477009460E-04  -0.1557056260E-03   0.1502477752E+00  -0.4027996296E-03   0.4495349267E-01   0.3811898574E-02   0.0000000000E+00   0.0000000000E+00   0.1368825673E-02  -0.5896317999E-03   0.4955468146E-04   0.0000000000E+00   0.0000000000E+00   0.0000000000E+00   0.1339121205E+00
   0.8747409398E-01   0.2328327813E+00   0.2098553643E-04  -0.3866714709E-04   0.8394214571E-04  -0.1546685884E-03   0.1494750560E+00  -0.4843645811E-03   0.4469720743E-01   0.9194092368E-02   0.0000000000E+00   0.0000000000E+00   0.1362112031E-02  -0.5873604361E-03   0.1195232008E-03   0.0000000000E+00   0.0000000000E+00   0.0000000000E+00   0.1342610341E+00
   0.8901005524E-01   0.7373340829E-01   0.5497542748E-04  -0.1458594200E-04   0.2199017099E-03  -0.5834376800E-04   0.9521014909E-01  -0.1261743121E-01   0.2477781536E-01  -0.3630876636E-01   0.0000000000E+00   0.0000000000E+00   0.9156203385E-03  -0.4861382055E-03  -0.4720139627E-03   0.0000000000E+00   0.0000000000E+00   0.0000000000E+00   0.1142057613E+00
   0.7351082138E-01   0.8904054995E-01   0.4355673570E-04  -0.2084923025E-04   0.1742269428E-03  -0.8339692101E-04   0.1502175990E+00   0.4739207038E-02   0.4648704181E-01  -0.4552727435E-01   0.0000000000E+00   0.0000000000E+00   0.1348497243E-02  -0.5427218520E-03  -0.5918545665E-03   0.0000000000E+00   0.0000000000E+00   0.0000000000E+00   0.1538708451E+00
   0.7098103719E-01   0.7060721981E-01   0.5407115790E-04  -0.2069231709E-04   0.2162846316E-03  -0.8276926837E-04   0.9640840203E-01   0.3019675755E-01   0.3798154787E-01  -0.5084346213E-01   0.0000000000E+00   0.0000000000E+00   0.7595491041E-03  -0.1012022742E-03  -0.6609650077E-03   0.0000000000E+00   0.0000000000E+00   0.0000000000E+00   0.1032671093E+00
   0.1654939453E+00   0.2329785655E+00   0.4411246148E-04  -0.2566909036E-04   0.1764498459E-03  -0.1026763614E-03   0.1712130819E+00  -0.1358697165E-02   0.5095631541E-01   0.2108816452E-02   0.0000000000E+00   0.0000000000E+00   0.1563337964E-02  -0.6800951635E-03   0.2741461387E-04   0.0000000000E+00   0.0000000000E+00   0.0000000000E+00   0.1533084678E+00
   0.1557495616E+00   0.2498532723E+00   0.3880011876E-04  -0.2934553547E-04   0.1552004751E-03  -0.1173821419E-03   0.1768618477E+00  -0.2332086658E-03   0.5298859171E-01   0.1358015197E-02   0.0000000000E+00   0.0000000000E+00   0.1610352328E-02  -0.6918834049E-03   0.1765419756E-04   0.0000000000E+00   0.0000000000E+00   0.0000000000E+00   0.1573863195E+00
   0.1460165608E+00   0.2329758411E+00   0.3807095796E-04  -0.2851478869E-04   0.1522838318E-03  -0.1140591548E-03   0.1685779184E+00  -0.1475143831E-02   0.5013083238E-01   0.4157364979E-02   0.0000000000E+00   0.0000000000E+00   0.1539812119E-02  -0.6708776907E-03   0.5404574473E-04   0.0000000000E+00   0.0000000000E+00   0.0000000000E+00   0.1511975860E+00
   0.1021388161E+00   0.5678717783E-01   0.6457102540E-04  -0.9188814991E-05   0.2582841016E-03  -0.3675525996E-04   0.5475887046E-01  -0.2998359287E-01   0.7432583277E-02  -0.2723009153E-01   0.0000000000E+00   0.0000000000E+00   0.6152417334E-03  -0.4864102900E-03  -0.3539911899E-03   0.0000000000E+00   0.0000000000E+00   0.0000000000E+00   0.8735118584E-01
   0.8346422950E-01   0.5547976291E-01   0.6345400012E-04  -0.1545215750E-04   0.2538160005E-03  -0.6180863000E-04   0.2765009941E-01  -0.2503929407E-01   0.7832415995E-03  -0.1250122359E-01   0.0000000000E+00   0.0000000000E+00   0.3492691515E-03  -0.3356929638E-03  -0.1625159066E-03   0.0000000000E+00   0.0000000000E+00   0.0000000000E+00   0.5471363402E-01
   0.9845272820E-01   0.1948503540E-01   0.7484032045E-04  -0.4799400208E-05   0.2993612818E-03  -0.1919760083E-04  -0.6265397141E-02  -0.9703005376E-01  -0.3098863527E-01   0.3713441176E-02   0.0000000000E+00   0.0000000000E+00   0.3214020957E-03  -0.8585384403E-03   0.4827473529E-04   0.0000000000E+00   0.0000000000E+00   0.0000000000E+00   0.8237094153E-01
   0.1003761950E+00   0.0000000000E+00   0.7523880562E-04   0.0000000000E+00   0.3009552225E-03   0.0000000000E+00   0.9786063001E-02  -0.1814627202E+00  -0.5150299716E-01  -0.6125208125E-02   0.0000000000E+00   0.0000000000E+00   0.7967577821E-03  -0.1689476399E-02  -0.7962770563E-04   0.0000000000E+00   0.0000000000E+00   0.0000000000E+00   0.1674286856E+00
   0.1212208441E+00   0.0000000000E+00   0.7750281467E-04   0.0000000000E+00   0.3100112587E-03   0.0000000000E+00  -0.4583732546E-02  -0.7698549903E-01  -0.2447076947E-01   0.1058236859E-02   0.0000000000E+00   0.0000000000E+00   0.2585314800E-03  -0.6826914842E-03   0.1375707917E-04   0.0000000000E+00   0.0000000000E+00   0.0000000000E+00   0.6716848410E-01
   0.1557517967E+00   0.2160714208E+00   0.4318394341E-04  -0.2474904393E-04   0.1727357736E-03  -0.9899617571E-04   0.1661198840E+00  -0.3870795843E-02   0.4867472644E-01   0.4957633961E-02   0.0000000000E+00   0.0000000000E+00   0.1526787048E-02  -0.6830917897E-03   0.6444924150E-04   0.0000000000E+00   0.0000000000E+00   0.0000000000E+00   0.1509782000E+00
   0.1752378991E+00   0.2160683509E+00   0.4912721475E-04  -0.2210861187E-04   0.1965088590E-03  -0.8843444748E-04   0.1661878933E+00  -0.3235304386E-02   0.4888577667E-01   0.1601193361E-02   0.0000000000E+00   0.0000000000E+00   0.1524927516E-02  -0.6775740537E-03   0.2081551369E-04   0.0000000000E+00   0.0000000000E+00   0.0000000000E+00   0.1503191561E+00
   0.1753870321E-01   0.2243017342E+00   0.4126342857E-05  -0.4690115214E-04   0.1650537143E-04  -0.1876046086E-03   0.1352291340E+00   0.4136168109E-02   0.4180959063E-01   0.3685247073E-02   0.0000000000E+00   0.0000000000E+00   0.1214454064E-02  -0.4897544928E-03   0.4790821195E-04   0.0000000000E+00   0.0000000000E+00   0.0000000000E+00   0.1172742342E+00
   0.0000000000E+00   0.2310098344E+00   0.0000000000E+00  -0.4803372350E-04   0.0000000000E+00  -0.1921348940E-03   0.1181333771E+00   0.3348764920E-02   0.3644464261E-01   0.8520452091E-03   0.0000000000E+00   0.0000000000E+00   0.1061953549E-02  -0.4302464100E-03   0.1107658772E-04   0.0000000000E+00   0.0000000000E+00   0.0000000000E+00   0.1024227584E+00
   0.0000000000E+00   0.2122686142E+00   0.0000000000E+00  -0.4627835925E-04   0.0000000000E+00  -0.1851134370E-03   0.1411666626E+00   0.7982690578E-02   0.4474480594E-01   0.4240154460E-02   0.0000000000E+00   0.0000000000E+00   0.1253484136E-02  -0.4779074997E-03   0.5512200798E-04   0.0000000000E+00   0.0000000000E+00   0.0000000000E+00   0.1193182539E+00
   0.0000000000E+00   0.1185642988E+00   0.0000000000E+00  -0.3714004802E-04   0.0000000000E+00  -0.1485601921E-03   0.3348310332E+00   0.3511857546E-01   0.1109848826E+00  -0.9564209752E-02   0.0000000000E+00   0.0000000000E+00   0.2909999958E-02  -0.9862619927E-03  -0.1243347268E-03   0.0000000000E+00   0.0000000000E+00   0.0000000000E+00   0.2723779487E+00
   0.0000000000E+00   0.9984250288E-01   0.0000000000E+00  -0.3149962457E-04   0.0000000000E+00  -0.1259984983E-03   0.4961400148E+00  -0.6321593741E-02   0.1469455263E+00  -0.2553778147E-02   0.0000000000E+00   0.0000000000E+00   0.4539528350E-02  -0.1992472561E-02  -0.3319911591E-04   0.0000000000E+00   0.0000000000E+00   0.0000000000E+00   0.4419410434E+00
   0.1827722478E-01   0.1243879410E+00   0.8175276058E-05  -0.3684340132E-04   0.3270110423E-04  -0.1473736053E-03   0.2441342709E+00   0.3461947092E-01   0.8362612254E-01  -0.1013418046E-01   0.0000000000E+00   0.0000000000E+00   0.2086605928E-02  -0.6370864711E-03  -0.1317443460E-03   0.0000000000E+00   0.0000000000E+00   0.0000000000E+00   0.1913165046E+00
   0.5574207953E-01   0.1016650577E+00   0.3139192580E-04  -0.2726465151E-04   0.1255677032E-03  -0.1090586060E-03   0.2060507119E+00   0.1212471811E-01   0.6545262900E-01  -0.4361424191E-01   0.0000000000E+00   0.0000000000E+00   0.1827775078E-02  -0.6932628416E-03  -0.5669851449E-03   0.0000000000E+00   0.0000000000E+00   0.0000000000E+00   0.1904980325E+00
   0.5576945225E-01   0.8301989451E-01   0.4248571004E-04  -0.2541299733E-04   0.1699428402E-03  -0.1016519893E-03   0.2041789400E+00   0.5822354189E-01   0.7872074458E-01  -0.8436381637E-01   0.0000000000E+00   0.0000000000E+00   0.1630956541E-02  -0.2664636349E-03  -0.1096729613E-02   0.0000000000E+00   0.0000000000E+00   0.0000000000E+00   0.1949670455E+00
   0.3656092690E-01   0.2151932028E+00   0.9197800863E-05  -0.4450264583E-04   0.3679120345E-04  -0.1780105833E-03   0.1431959275E+00   0.5093950977E-02   0.4448696355E-01   0.1156247949E-01   0.0000000000E+00   0.0000000000E+00   0.1283216532E-02  -0.5121091635E-03   0.1503122334E-03   0.0000000000E+00   0.0000000000E+00   0.0000000000E+00   0.1248418138E+00
   0.5768384634E-01   0.2156766113E+00   0.1468032773E-04  -0.4170714757E-04   0.5872131092E-04  -0.1668285903E-03   0.1472344604E+00   0.1540683907E-02   0.4463254330E-01   0.1500164468E-01   0.0000000000E+00   0.0000000000E+00   0.1333824923E-02  -0.5601941721E-03   0.1950213808E-03   0.0000000000E+00   0.0000000000E+00   0.0000000000E+00   0.1321327492E+00
   0.4857341232E-01   0.2328625659E+00   0.1102542486E-04  -0.4482782298E-04   0.4410169943E-04  -0.1793112919E-03   0.1340187705E+00   0.2214879620E-02   0.4087009502E-01   0.8848441825E-02   0.0000000000E+00   0.0000000000E+00   0.1210932781E-02  -0.5025178003E-03   0.1150297437E-03   0.0000000000E+00   0.0000000000E+00   0.0000000000E+00   0.1184486584E+00
   0.1747234090E-01   0.1454583091E+00   0.6212139837E-05  -0.3933338926E-04   0.2484855935E-04  -0.1573335571E-03   0.2103728959E+00   0.3252567475E-01   0.7286957120E-01   0.4873224417E-02   0.0000000000E+00   0.0000000000E+00   0.1787543221E-02  -0.5244706538E-03   0.6335191741E-04   0.0000000000E+00   0.0000000000E+00   0.0000000000E+00   0.1617665670E+00
   0.0000000000E+00   0.1560442368E+00   0.0000000000E+00  -0.4115263408E-04   0.0000000000E+00  -0.1646105363E-03   0.1971204306E+00   0.3674379900E-01   0.7015926889E-01   0.5128143561E-02   0.0000000000E+00   0.0000000000E+00   0.1650495103E-02  -0.4344011085E-03   0.6666586629E-04   0.0000000000E+00   0.0000000000E+00   0.0000000000E+00   0.1471692556E+00
   0.0000000000E+00   0.1373027516E+00   0.0000000000E+00  -0.3945028195E-04   0.0000000000E+00  -0.1578011278E-03   0.2338230488E+00   0.4754586647E-01   0.8441067458E-01   0.1313336296E-01   0.0000000000E+00   0.0000000000E+00   0.1942360865E-02  -0.4792425055E-03   0.1707337185E-03   0.0000000000E+00   0.0000000000E+00   0.0000000000E+00   0.1708464222E+00
   0.3600001197E-01   0.1341786830E+00   0.1409175419E-04  -0.3588499247E-04   0.5636701677E-04  -0.1435399699E-03   0.2257420626E+00   0.3162293272E-01   0.7720949861E-01   0.4058074681E-02   0.0000000000E+00   0.0000000000E+00   0.1930923333E-02  -0.5926253566E-03   0.5275497085E-04   0.0000000000E+00   0.0000000000E+00   0.0000000000E+00   0.1758425598E+00
   0.3219307444E-01   0.2343445822E+00   0.7092667677E-05  -0.4679655008E-04   0.2837067071E-04  -0.1871862003E-03   0.1228455786E+00   0.8083689583E-03   0.3709618428E-01   0.6461707117E-02   0.0000000000E+00   0.0000000000E+00   0.1114742127E-02  -0.4717415992E-03   0.8400219252E-04   0.0000000000E+00   0.0000000000E+00   0.0000000000E+00   0.1090510908E+00
   0.1946263352E-01   0.2497542035E+00   0.3637683758E-05  -0.4915930531E-04   0.1455073503E-04  -0.1966372213E-03   0.1107717924E+00   0.1008412949E-02   0.3353406161E-01   0.1780939274E-02   0.0000000000E+00   0.0000000000E+00   0.1004090500E-02  -0.4228334326E-03   0.2315221057E-04   0.0000000000E+00   0.0000000000E+00   0.0000000000E+00   0.9784766356E-01
   0.1292816440E+00   0.2145893523E-01   0.7610399698E-04  -0.1517634148E-05   0.3044159879E-03  -0.6070536592E-05   0.1238785357E-01  -0.3031554878E-01  -0.5378308562E-02  -0.1183936675E-01   0.0000000000E+00   0.0000000000E+00   0.2309601078E-03  -0.3241841228E-03  -0.1539117678E-03   0.0000000000E+00   0.0000000000E+00   0.0000000000E+00   0.4360419414E-01
   0.3296527065E+00   0.0000000000E+00   0.9720509032E-04   0.0000000000E+00   0.3888203613E-03   0.0000000000E+00   0.8373689749E-01   0.2347732707E-01   0.3216426737E-01  -0.3386506801E-03   0.0000000000E+00   0.0000000000E+00   0.6704441916E-03  -0.1129302239E-03  -0.4402458841E-05   0.0000000000E+00   0.0000000000E+00   0.0000000000E+00   0.5642036335E-01
   0.3504999940E+00   0.0000000000E+00   0.1000000000E-03   0.0000000000E+00   0.4000000000E-03   0.0000000000E+00   0.8315381914E-01   0.2333726243E-01   0.3194732447E-01   0.1614781617E-03   0.0000000000E+00   0.0000000000E+00   0.6656844307E-03  -0.1119308065E-03   0.2099216102E-05   0.0000000000E+00   0.0000000000E+00   0.0000000000E+00   0.5600919654E-01
   0.3504999940E+00   0.1922858571E-01   0.1000000000E-03  -0.4368373714E-06   0.4000000000E-03  -0.1747349486E-05   0.8493390383E-01   0.2348606718E-01   0.3252599130E-01   0.1569435679E-04   0.0000000000E+00   0.0000000000E+00   0.6813028628E-03  -0.1175190136E-03   0.2040266383E-06   0.0000000000E+00   0.0000000000E+00   0.0000000000E+00   0.5746479476E-01
   0.3319164383E+00   0.2616864512E-01   0.9743306808E-04  -0.6111768354E-06   0.3897322723E-03  -0.2444707342E-05   0.8610130158E-01   0.2327860031E-01   0.3281397057E-01  -0.9071527957E-03   0.0000000000E+00   0.0000000000E+00   0.6927353032E-03  -0.1239598133E-03  -0.1179298634E-04   0.0000000000E+00   0.0000000000E+00   0.0000000000E+00   0.5864978366E-01
   0.3504999940E+00   0.3845689765E-01   0.1000000000E-03  -0.9284490916E-06   0.4000000000E-03  -0.3713796367E-05   0.8787126975E-01   0.2219639979E-01   0.3302030086E-01  -0.8297574234E-04   0.0000000000E+00   0.0000000000E+00   0.7130625955E-03  -0.1407107139E-03  -0.1078684650E-05   0.0000000000E+00   0.0000000000E+00   0.0000000000E+00   0.6098661150E-01
   0.3162524491E+00   0.7694390193E-01   0.9432622658E-04  -0.2333973297E-05   0.3773049063E-03  -0.9335893189E-05   0.9841815595E-01   0.1733987144E-01   0.3472740822E-01  -0.4617495844E-02   0.0000000000E+00   0.0000000000E+00   0.8279797205E-03  -0.2260379781E-03  -0.6002744598E-04   0.0000000000E+00   0.0000000000E+00   0.0000000000E+00   0.7435850041E-01
   0.3332146033E+00   0.6719986189E-01   0.9724946777E-04  -0.1906182922E-05   0.3889978711E-03  -0.7624731689E-05   0.9554158012E-01   0.1904806097E-01   0.3437689233E-01  -0.2018321004E-02   0.0000000000E+00   0.0000000000E+00   0.7951409413E-03  -0.1992748076E-03  -0.2623817305E-04   0.0000000000E+00   0.0000000000E+00   0.0000000000E+00   0.7017637307E-01
   0.3335700945E+00   0.8654362415E-01   0.9707249753E-04  -0.2769230808E-05   0.3882899901E-03  -0.1107692323E-04   0.1021302562E+00   0.1649244134E-01   0.3558680927E-01  -0.2281925726E-02   0.0000000000E+00   0.0000000000E+00   0.8650648104E-03  -0.2482267830E-03  -0.2966503444E-04   0.0000000000E+00   0.0000000000E+00   0.0000000000E+00   0.7796178996E-01
   0.3118879703E+00   0.3581258570E-01   0.9454306042E-04  -0.8666808515E-06   0.3781722417E-03  -0.3466723406E-05   0.8617723889E-01   0.2155702702E-01   0.3232027977E-01  -0.3146870511E-02   0.0000000000E+00   0.0000000000E+00   0.7001404685E-03  -0.1399222858E-03  -0.4090931664E-04   0.0000000000E+00   0.0000000000E+00   0.0000000000E+00   0.6020948503E-01
   0.3162500041E+00   0.1595315618E-01   0.9536301880E-04  -0.3645236782E-06   0.3814520752E-03  -0.1458094713E-05   0.8346179307E-01   0.2286598122E-01   0.3189833229E-01  -0.1232747042E-02   0.0000000000E+00   0.0000000000E+00   0.6703249901E-03  -0.1174205638E-03  -0.1602571154E-04   0.0000000000E+00   0.0000000000E+00   0.0000000000E+00   0.5666894249E-01
   0.2780516843E+00   0.1795972269E-01   0.9030906378E-04  -0.4058028712E-06   0.3612362551E-03  -0.1623211485E-05   0.7960810217E-01   0.2097073560E-01   0.3017365133E-01  -0.2826951478E-02   0.0000000000E+00   0.0000000000E+00   0.6426478609E-03  -0.1196379045E-03  -0.3675036921E-04   0.0000000000E+00   0.0000000000E+00   0.0000000000E+00   0.5486702627E-01
   0.2671121579E+00   0.0000000000E+00   0.8909537818E-04   0.0000000000E+00   0.3563815127E-03   0.0000000000E+00   0.7629897333E-01   0.2070279771E-01   0.2910053131E-01  -0.1176938003E-02   0.0000000000E+00   0.0000000000E+00   0.6135797463E-03  -0.1091705369E-03  -0.1530019404E-04   0.0000000000E+00   0.0000000000E+00   0.0000000000E+00   0.5187891904E-01
   0.2879585591E+00   0.0000000000E+00   0.9171301002E-04   0.0000000000E+00   0.3668520401E-03   0.0000000000E+00   0.7993671169E-01   0.2211250407E-01   0.3061476473E-01  -0.9015445312E-03   0.0000000000E+00   0.0000000000E+00   0.6411853105E-03  -0.1105293885E-03  -0.1172007891E-04   0.0000000000E+00   0.0000000000E+00   0.0000000000E+00   0.5407827472E-01
   0.2359112678E+00   0.1793791360E-01   0.8517855705E-04  -0.3978398820E-06   0.3407142282E-03  -0.1591359528E-05   0.6984807865E-01   0.1683726801E-01   0.2600560400E-01  -0.5219545354E-02   0.0000000000E+00   0.0000000000E+00   0.5699521704E-03  -0.1191883678E-03  -0.6785408960E-04   0.0000000000E+00   0.0000000000E+00   0.0000000000E+00   0.5001870513E-01
   0.2462664100E+00   0.0000000000E+00   0.8661460806E-04   0.0000000000E+00   0.3464584322E-03   0.0000000000E+00   0.7119326681E-01   0.1867683161E-01   0.2696102953E-01  -0.1614436921E-02   0.0000000000E+00   0.0000000000E+00   0.5750190847E-03  -0.1076945729E-03  -0.2098767997E-04   0.0000000000E+00   0.0000000000E+00   0.0000000000E+00   0.4885582335E-01
   0.2569474371E+00   0.1801829949E-01   0.8766242762E-04  -0.4038623832E-06   0.3506497105E-03  -0.1615449533E-05   0.7533554270E-01   0.1924010473E-01   0.2837269423E-01  -0.4010285972E-02   0.0000000000E+00   0.0000000000E+00   0.6105170301E-03  -0.1187236635E-03  -0.5213371764E-04   0.0000000000E+00   0.0000000000E+00   0.0000000000E+00   0.5266434655E-01
   0.2993530214E+00   0.8660579072E-01   0.9115108225E-04  -0.2834995102E-05   0.3646043290E-03  -0.1133998041E-04   0.1015801674E+00   0.1483970277E-01   0.3492596105E-01  -0.7123223807E-02   0.0000000000E+00   0.0000000000E+00   0.8665046825E-03  -0.2611213577E-03  -0.9260190950E-04   0.0000000000E+00   0.0000000000E+00   0.0000000000E+00   0.7959681382E-01
   0.3166297936E+00   0.9620286458E-01   0.9388252582E-04  -0.3306704314E-05   0.3755301033E-03  -0.1322681726E-04   0.1056814266E+00   0.1456448202E-01   0.3607377258E-01  -0.4865750432E-02   0.0000000000E+00   0.0000000000E+00   0.9048995021E-03  -0.2796207773E-03  -0.6325475561E-04   0.0000000000E+00   0.0000000000E+00   0.0000000000E+00   0.8291707780E-01
   0.2997381550E+00   0.1058651950E+00   0.9041160451E-04  -0.3945999953E-05   0.3616464181E-03  -0.1578399981E-04   0.1095273848E+00   0.1206241359E-01   0.3647693951E-01  -0.7341887026E-02   0.0000000000E+00   0.0000000000E+00   0.9496557883E-03  -0.3173888369E-03  -0.9544453134E-04   0.0000000000E+00   0.0000000000E+00   0.0000000000E+00   0.8875255091E-01
   0.1940226122E+00   0.1782945370E-01   0.8086283346E-04  -0.4171990993E-06   0.3234513338E-03  -0.1668796397E-05   0.5360108860E-01   0.8574790320E-02   0.1865276368E-01  -0.8587201380E-02   0.0000000000E+00   0.0000000000E+00   0.4543282240E-03  -0.1310136536E-03  -0.1116336179E-03   0.0000000000E+00   0.0000000000E+00   0.0000000000E+00   0.4396670405E-01
   0.2045779795E+00   0.0000000000E+00   0.8226269061E-04   0.0000000000E+00   0.3290507624E-03   0.0000000000E+00   0.5561263251E-01   0.1199997640E-01   0.2028378267E-01  -0.2895699036E-02   0.0000000000E+00   0.0000000000E+00   0.4592750479E-03  -0.1076894816E-03  -0.3764408746E-04   0.0000000000E+00   0.0000000000E+00   0.0000000000E+00   0.4006003066E-01
   0.2149797110E+00   0.1790806398E-01   0.8289880062E-04  -0.4009839229E-06   0.3315952025E-03  -0.1603935692E-05   0.6265159964E-01   0.1339490357E-01   0.2281395096E-01  -0.6771067423E-02   0.0000000000E+00   0.0000000000E+00   0.5178894328E-03  -0.1224476161E-03  -0.8802387649E-04   0.0000000000E+00   0.0000000000E+00   0.0000000000E+00   0.4701090473E-01
   0.1324580190E+00   0.4106493985E-01   0.7271220213E-04  -0.2975130336E-05   0.2908488085E-03  -0.1190052135E-04   0.3788646699E-01  -0.3100146692E-01   0.2065500020E-02  -0.2903465078E-01   0.0000000000E+00   0.0000000000E+00   0.4656725706E-03  -0.4298705703E-03  -0.3774504601E-03   0.0000000000E+00   0.0000000000E+00   0.0000000000E+00   0.7825455952E-01
   0.1254204475E+00   0.5987917752E-01   0.6669990856E-04  -0.5398455227E-05   0.2667996342E-03  -0.2159382091E-04   0.6455746644E-01  -0.3525320913E-01   0.8791277193E-02  -0.3821077178E-01   0.0000000000E+00   0.0000000000E+00   0.7249604602E-03  -0.5725783221E-03  -0.4967400332E-03   0.0000000000E+00   0.0000000000E+00   0.0000000000E+00   0.1094026321E+00
   0.1133549421E+00   0.3920621728E-01   0.7163702634E-04  -0.4967444060E-05   0.2865481054E-03  -0.1986977624E-04   0.1977107787E-01  -0.5136536260E-01  -0.9478285418E-02  -0.1953795284E-01   0.0000000000E+00   0.0000000000E+00   0.3802417227E-03  -0.5445320033E-03  -0.2539933870E-03   0.0000000000E+00   0.0000000000E+00   0.0000000000E+00   0.7194278827E-01
   0.1731206315E+00   0.1762804294E-01   0.7913089277E-04  -0.4695721429E-06   0.3165235711E-03  -0.1878288571E-05   0.4225934375E-01   0.2094546549E-02   0.1330616709E-01  -0.1073931231E-01   0.0000000000E+00   0.0000000000E+00   0.3763912966E-03  -0.1457510670E-03  -0.1396110601E-03   0.0000000000E+00   0.0000000000E+00   0.0000000000E+00   0.4095407608E-01
   0.1837358987E+00   0.0000000000E+00   0.8051233002E-04   0.0000000000E+00   0.3220493201E-03   0.0000000000E+00   0.4402491887E-01   0.6344372119E-02   0.1511078730E-01  -0.4099480811E-02   0.0000000000E+00   0.0000000000E+00   0.3758837104E-03  -0.1139633973E-03  -0.5329325055E-04   0.0000000000E+00   0.0000000000E+00   0.0000000000E+00   0.3434265094E-01
   0.9273954680E-01   0.3821811113E-01   0.7031898010E-04  -0.1004629308E-04   0.2812759204E-03  -0.4018517233E-04  -0.9109567617E-03  -0.9225802592E-01  -0.2795069481E-01   0.7909341781E-02   0.0000000000E+00   0.0000000000E+00   0.3515165946E-03  -0.8359953045E-03   0.1028214432E-03   0.0000000000E+00   0.0000000000E+00   0.0000000000E+00   0.7866171680E-01
   0.3310265157E+00   0.2499092925E+00   0.9419153145E-04  -0.1814150357E-04   0.3767661258E-03  -0.7256601428E-04   0.1636603818E+00   0.1423871079E-03   0.4914083066E-01  -0.7200542325E-05   0.0000000000E+00   0.0000000000E+00   0.1488754164E-02  -0.6369797662E-03  -0.9360705022E-07   0.0000000000E+00   0.0000000000E+00   0.0000000000E+00   0.1453486860E+00
   0.3504999940E+00   0.2306909918E+00   0.1000000000E-03  -0.1564803975E-04   0.4000000000E-03  -0.6259215901E-04   0.1597471068E+00   0.1004855505E-03   0.4795427770E-01  -0.2198894067E-03   0.0000000000E+00   0.0000000000E+00   0.1453306778E-02  -0.6220992980E-03  -0.2858562287E-05   0.0000000000E+00   0.0000000000E+00   0.0000000000E+00   0.1419098385E+00
   0.3504999940E+00   0.2499094155E+00   0.1000000000E-03  -0.1811690379E-04   0.4000000000E-03  -0.7246761517E-04   0.1663552500E+00  -0.6026785859E-03   0.4972577144E-01   0.6001341873E-03   0.0000000000E+00   0.0000000000E+00   0.1516183222E-02  -0.6542698503E-03   0.7801744434E-05   0.0000000000E+00   0.0000000000E+00   0.0000000000E+00   0.1483416488E+00
   0.3245250990E+00   0.2322790989E+00   0.9244899176E-04  -0.1596961045E-04   0.3697959670E-03  -0.6387844180E-04   0.1599585119E+00   0.3125982002E-03   0.4808133303E-01  -0.1275712675E-02   0.0000000000E+00   0.0000000000E+00   0.1454403325E-02  -0.6209935527E-03  -0.1658426477E-04   0.0000000000E+00   0.0000000000E+00   0.0000000000E+00   0.1419406700E+00
   0.3115528742E+00   0.2499082157E+00   0.8835043679E-04  -0.1835685885E-04   0.3534017471E-03  -0.7342743539E-04   0.1658740248E+00   0.6800497989E-03   0.4996622239E-01  -0.1424806195E-03   0.0000000000E+00   0.0000000000E+00   0.1506801432E-02  -0.6407202437E-03  -0.1852248053E-05   0.0000000000E+00   0.0000000000E+00   0.0000000000E+00   0.1468866087E+00
   0.2837293672E+00   0.1996611739E+00   0.8197283816E-04  -0.1274481796E-04   0.3278913526E-03  -0.5097927185E-04   0.1509545138E+00   0.1530289560E-02   0.4574544100E-01  -0.4696985145E-02   0.0000000000E+00   0.0000000000E+00   0.1367717946E-02  -0.5747969687E-03  -0.6106080689E-04   0.0000000000E+00   0.0000000000E+00   0.0000000000E+00   0.1331933998E+00
   0.2733499795E+00   0.2160898422E+00   0.7821489395E-04  -0.1499395812E-04   0.3128595758E-03  -0.5997583247E-04   0.1580065656E+00   0.4476473686E-03   0.4753626389E-01  -0.4000596493E-02   0.0000000000E+00   0.0000000000E+00   0.1436113922E-02  -0.6121520148E-03  -0.5200775441E-04   0.0000000000E+00   0.0000000000E+00   0.0000000000E+00   0.1402489723E+00
   0.2637159217E+00   0.1994181786E+00   0.7648453726E-04  -0.1332028604E-04   0.3059381490E-03  -0.5328114416E-04   0.1523346081E+00   0.6657445240E-03   0.4590010579E-01  -0.5553136747E-02   0.0000000000E+00   0.0000000000E+00   0.1383648530E-02  -0.5880466964E-03  -0.7219077771E-04   0.0000000000E+00   0.0000000000E+00   0.0000000000E+00   0.1352064625E+00
   0.3160440540E+00   0.1923235831E+00   0.9093119617E-04  -0.1136598808E-04   0.3637247847E-03  -0.4546395233E-04   0.1457187672E+00   0.2366996425E-02   0.4442572907E-01  -0.3027802049E-02   0.0000000000E+00   0.0000000000E+00   0.1316809495E-02  -0.5467635244E-03  -0.3936142664E-04   0.0000000000E+00   0.0000000000E+00   0.0000000000E+00   0.1277423565E+00
   0.3335891022E+00   0.1825462683E+00   0.9568844018E-04  -0.1017834764E-04   0.3827537607E-03  -0.4071339056E-04   0.1421069367E+00   0.3845293656E-02   0.4378566910E-01  -0.1707622320E-02   0.0000000000E+00   0.0000000000E+00   0.1278176479E-02  -0.5192248808E-03  -0.2219909016E-04   0.0000000000E+00   0.0000000000E+00   0.0000000000E+00   0.1232834103E+00
   0.3336089434E+00   0.2015638919E+00   0.9544247375E-04  -0.1224042933E-04   0.3817698950E-03  -0.4896171731E-04   0.1500313084E+00   0.2221774604E-02   0.4567592491E-01  -0.1471853727E-02   0.0000000000E+00   0.0000000000E+00   0.1356619986E-02  -0.5649039540E-03  -0.1913409845E-04   0.0000000000E+00   0.0000000000E+00   0.0000000000E+00   0.1316081321E+00
   0.3336891130E+00   0.1633704504E+00   0.9598519135E-04  -0.8281110182E-05   0.3839407654E-03  -0.3312444073E-04   0.1340028409E+00   0.5938647190E-02   0.4198244644E-01  -0.2027950039E-02   0.0000000000E+00   0.0000000000E+00   0.1196265129E-02  -0.4685693903E-03  -0.2636335051E-04   0.0000000000E+00   0.0000000000E+00   0.0000000000E+00   0.1144400210E+00
   0.3504999940E+00   0.1730310386E+00   0.1000000000E-03  -0.9177871342E-05   0.4000000000E-03  -0.3671148537E-04   0.1379260029E+00   0.4838759174E-02   0.4282942863E-01   0.3016602908E-04   0.0000000000E+00   0.0000000000E+00   0.1236255466E-02  -0.4938787029E-03   0.3921583781E-06   0.0000000000E+00   0.0000000000E+00   0.0000000000E+00   0.1187438474E+00
   0.3504999940E+00   0.1538092624E+00   0.1000000000E-03  -0.7379511093E-05   0.4000000000E-03  -0.2951804437E-04   0.1298251395E+00   0.7198521263E-02   0.4110709822E-01   0.1055517128E-04   0.0000000000E+00   0.0000000000E+00   0.1153334536E-02  -0.4408115004E-03   0.1372172267E-06   0.0000000000E+00   0.0000000000E+00   0.0000000000E+00   0.1096769950E+00
   0.2680860552E+00   0.3628962696E-01   0.8853264907E-04  -0.8862074536E-06   0.3541305963E-03  -0.3544829815E-05   0.8118042865E-01   0.1878043661E-01   0.2998825958E-01  -0.6969939017E-02   0.0000000000E+00   0.0000000000E+00   0.6654981979E-03  -0.1457016985E-03  -0.9060920722E-04   0.0000000000E+00   0.0000000000E+00   0.0000000000E+00   0.5881136107E-01
   0.3168631417E+00   0.1345980343E+00   0.9280894746E-04  -0.5888344265E-05   0.3712357898E-03  -0.2355337706E-04   0.1218888386E+00   0.9024483885E-02   0.3927399675E-01  -0.4615614119E-02   0.0000000000E+00   0.0000000000E+00   0.1073992944E-02  -0.3932436672E-03  -0.6000298355E-04   0.0000000000E+00   0.0000000000E+00   0.0000000000E+00   0.1015026480E+00
   0.3168440326E+00   0.1154338185E+00   0.9337391188E-04  -0.4489895082E-05   0.3734956475E-03  -0.1795958033E-04   0.1135817197E+00   0.1174344123E-01   0.3759754828E-01  -0.4851880794E-02   0.0000000000E+00   0.0000000000E+00   0.9877942284E-03  -0.3361033916E-03  -0.6307445033E-04   0.0000000000E+00   0.0000000000E+00   0.0000000000E+00   0.9206678853E-01
   0.3337245935E+00   0.1249929577E+00   0.9656050119E-04  -0.5098057489E-05   0.3862420048E-03  -0.2039222996E-04   0.1175433621E+00   0.1094512167E-01   0.3854654514E-01  -0.2358331840E-02   0.0000000000E+00   0.0000000000E+00   0.1026958621E-02  -0.3588185052E-03  -0.3065831393E-04   0.0000000000E+00   0.0000000000E+00   0.0000000000E+00   0.9591236647E-01
   0.3504999940E+00   0.9613754802E-01   0.1000000000E-03  -0.3259976031E-05   0.4000000000E-03  -0.1303990412E-04   0.1057979919E+00   0.1527319754E-01   0.3632135682E-01  -0.1006221959E-03   0.0000000000E+00   0.0000000000E+00   0.9031962556E-03  -0.2736260707E-03  -0.1308088546E-05   0.0000000000E+00   0.0000000000E+00   0.0000000000E+00   0.8204573448E-01
   0.3336838345E+00   0.1057721423E+00   0.9683089282E-04  -0.3827144101E-05   0.3873235713E-03  -0.1530857640E-04   0.1095615169E+00   0.1372417480E-01   0.3698570751E-01  -0.2386618763E-02   0.0000000000E+00   0.0000000000E+00   0.9434855221E-03  -0.3023999253E-03  -0.3102604391E-04   0.0000000000E+00   0.0000000000E+00   0.0000000000E+00   0.8667790395E-01
   0.3504999940E+00   0.7691154116E-01   0.1000000000E-03  -0.2307727201E-05   0.4000000000E-03  -0.9230908803E-05   0.9885915329E-01   0.1791266083E-01   0.3503154424E-01  -0.8729526802E-04   0.0000000000E+00   0.0000000000E+00   0.8297589177E-03  -0.2225454843E-03  -0.1134838484E-05   0.0000000000E+00   0.0000000000E+00   0.0000000000E+00   0.7388462582E-01
   0.3323420836E+00   0.4722828040E-01   0.9732751395E-04  -0.1196580282E-05   0.3893100558E-03  -0.4786321127E-05   0.8984834682E-01   0.2127091386E-01   0.3333577821E-01  -0.1749591483E-02   0.0000000000E+00   0.0000000000E+00   0.7346633920E-03  -0.1568432364E-03  -0.2274468928E-04   0.0000000000E+00   0.0000000000E+00   0.0000000000E+00   0.6348129435E-01
   0.3504999940E+00   0.5768461333E-01   0.1000000000E-03  -0.1538934116E-05   0.4000000000E-03  -0.6155736463E-05   0.9280981253E-01   0.2018115650E-01   0.3389729071E-01  -0.5533395899E-04   0.0000000000E+00   0.0000000000E+00   0.7658627837E-03  -0.1783097447E-03  -0.7193414668E-06   0.0000000000E+00   0.0000000000E+00   0.0000000000E+00   0.6682837458E-01
   0.0000000000E+00   0.2497527112E+00   0.0000000000E+00  -0.4945776087E-04   0.0000000000E+00  -0.1978310435E-03   0.9357050983E-01   0.3514086466E-02   0.2912537889E-01   0.4587024132E-02   0.0000000000E+00   0.0000000000E+00   0.8377867023E-03  -0.3329468015E-03   0.5963131371E-04   0.0000000000E+00   0.0000000000E+00   0.0000000000E+00   0.8051564188E-01
   0.3892567931E-01   0.2497623514E+00   0.7357802020E-05  -0.4752971173E-04   0.2943120808E-04  -0.1901188469E-03   0.1080460505E+00  -0.4290375331E-03   0.3228510389E-01   0.3022357740E-02   0.0000000000E+00   0.0000000000E+00   0.9848923061E-03  -0.4252838386E-03   0.3929065062E-04   0.0000000000E+00   0.0000000000E+00   0.0000000000E+00   0.9640930971E-01
   0.5562500595E-01   0.1229862457E+00   0.2389837062E-04  -0.3039905284E-04   0.9559348250E-04  -0.1215962113E-03   0.2158934794E+00   0.1311255881E-01   0.6870181146E-01  -0.2627852652E-02   0.0000000000E+00   0.0000000000E+00   0.1913491683E-02  -0.7226602845E-03  -0.3416208447E-04   0.0000000000E+00   0.0000000000E+00   0.0000000000E+00   0.1800991543E+00
   0.6789732454E-01   0.2327607617E+00   0.1582448774E-04  -0.4199066471E-04   0.6329795096E-04  -0.1679626588E-03   0.1408449632E+00   0.3333126860E-03   0.4235348276E-01   0.9393491091E-02   0.0000000000E+00   0.0000000000E+00   0.1280389245E-02  -0.5462622109E-03   0.1221153842E-03   0.0000000000E+00   0.0000000000E+00   0.0000000000E+00   0.1260637842E+00
   0.5839081572E-01   0.2497741463E+00   0.1149642408E-04  -0.4517074934E-04   0.4598569634E-04  -0.1806829973E-03   0.1232874379E+00  -0.2394579553E-03   0.3691439397E-01   0.3724903719E-02   0.0000000000E+00   0.0000000000E+00   0.1122849571E-02  -0.4830000751E-03   0.4842374834E-04   0.0000000000E+00   0.0000000000E+00   0.0000000000E+00   0.1098044298E+00
   0.7785829032E-01   0.2497889373E+00   0.1610194302E-04  -0.4221253647E-04   0.6440777208E-04  -0.1688501459E-03   0.1369522899E+00  -0.2914903662E-03   0.4099823985E-01   0.4227416794E-02   0.0000000000E+00   0.0000000000E+00   0.1247402650E-02  -0.5367664928E-03   0.5495641832E-04   0.0000000000E+00   0.0000000000E+00   0.0000000000E+00   0.1220486405E+00
   0.1265372665E+00   0.2329703583E+00   0.3215730460E-04  -0.3172133343E-04   0.1286292184E-03  -0.1268853337E-03   0.1639334475E+00  -0.1350775706E-02   0.4877480155E-01   0.6236376293E-02   0.0000000000E+00   0.0000000000E+00   0.1497062398E-02  -0.6516325043E-03   0.8107289181E-04   0.0000000000E+00   0.0000000000E+00   0.0000000000E+00   0.1472137896E+00
   0.1168003120E+00   0.2498221962E+00   0.2672899411E-04  -0.3556076233E-04   0.1069159765E-03  -0.1422430493E-03   0.1618429553E+00  -0.3819889888E-03   0.4843828990E-01   0.3115344583E-02   0.0000000000E+00   0.0000000000E+00   0.1474260650E-02  -0.6346636255E-03   0.4049947958E-04   0.0000000000E+00   0.0000000000E+00   0.0000000000E+00   0.1441746826E+00
   0.1362742694E+00   0.2498384097E+00   0.3263188493E-04  -0.3231806522E-04   0.1305275397E-03  -0.1292722609E-03   0.1708714622E+00  -0.3181381175E-03   0.5116599722E-01   0.2264687772E-02   0.0000000000E+00   0.0000000000E+00   0.1556171045E-02  -0.6692937594E-03   0.2944094104E-04   0.0000000000E+00   0.0000000000E+00   0.0000000000E+00   0.1521361785E+00
   0.1362726916E+00   0.2160917936E+00   0.3725752590E-04  -0.2782107648E-04   0.1490301036E-03  -0.1112843059E-03   0.1648402820E+00  -0.3983231025E-02   0.4825711528E-01   0.8691455843E-02   0.0000000000E+00   0.0000000000E+00   0.1515581167E-02  -0.6791245020E-03   0.1129889260E-03   0.0000000000E+00   0.0000000000E+00   0.0000000000E+00   0.1504258571E+00
   0.1849727938E+00   0.2329849761E+00   0.5021115937E-04  -0.2324557095E-04   0.2008446375E-03  -0.9298228378E-04   0.1720504893E+00  -0.1095895403E-02   0.5128637818E-01   0.3701501033E-03   0.0000000000E+00   0.0000000000E+00   0.1569933445E-02  -0.6809695566E-03   0.4811951343E-05   0.0000000000E+00   0.0000000000E+00   0.0000000000E+00   0.1537973151E+00
   0.1752256237E+00   0.2498663172E+00   0.4512533631E-04  -0.2673656327E-04   0.1805013452E-03  -0.1069462531E-03   0.1798909080E+00  -0.1171508711E-03   0.5393212714E-01   0.5329057593E-03   0.0000000000E+00   0.0000000000E+00   0.1637464151E-02  -0.7026406142E-03   0.6927774871E-05   0.0000000000E+00   0.0000000000E+00   0.0000000000E+00   0.1599840133E+00
   0.2044516637E+00   0.2329981403E+00   0.5630814867E-04  -0.2125353871E-04   0.2252325947E-03  -0.8501415484E-04   0.1714859174E+00  -0.7773121209E-03   0.5121258158E-01  -0.9221776799E-03   0.0000000000E+00   0.0000000000E+00   0.1563553366E-02  -0.6758686182E-03  -0.1198830984E-04   0.0000000000E+00   0.0000000000E+00   0.0000000000E+00   0.1530486169E+00
   0.1947019958E+00   0.2498773474E+00   0.5150955272E-04  -0.2453052379E-04   0.2060382109E-03  -0.9812209517E-04   0.1804226206E+00   0.2819400921E-05   0.5412763200E-01  -0.1169598234E-03   0.0000000000E+00   0.0000000000E+00   0.1641834852E-02  -0.7036225638E-03  -0.1520477704E-05   0.0000000000E+00   0.0000000000E+00   0.0000000000E+00   0.1603607595E+00
   0.2239292837E+00   0.2330179085E+00   0.6236094008E-04  -0.1966609174E-04   0.2494437603E-03  -0.7866436697E-04   0.1699473047E+00  -0.4529053619E-03   0.5084831981E-01  -0.1732673562E-02   0.0000000000E+00   0.0000000000E+00   0.1548286804E-02  -0.6669159272E-03  -0.2252475631E-04   0.0000000000E+00   0.0000000000E+00   0.0000000000E+00   0.1514451182E+00
   0.2141782631E+00   0.2498863780E+00   0.5787581347E-04  -0.2272439270E-04   0.2315032539E-03  -0.9089757078E-04   0.1791194900E+00   0.1094755821E-03   0.5376868967E-01  -0.5547902285E-03   0.0000000000E+00   0.0000000000E+00   0.1629560404E-02  -0.6975697832E-03  -0.7212272970E-05   0.0000000000E+00   0.0000000000E+00   0.0000000000E+00   0.1591176413E+00
   0.2434207481E+00   0.2330350803E+00   0.6834822368E-04  -0.1843414761E-04   0.2733928947E-03  -0.7373659046E-04   0.1678384789E+00  -0.1737539677E-03   0.5029941747E-01  -0.2101378915E-02   0.0000000000E+00   0.0000000000E+00   0.1528007798E-02  -0.6561512286E-03  -0.2731792589E-04   0.0000000000E+00   0.0000000000E+00   0.0000000000E+00   0.1493637273E+00
   0.2336541935E+00   0.2498935629E+00   0.6417189818E-04  -0.2128741004E-04   0.2566875927E-03  -0.8514964016E-04   0.1766827271E+00   0.1873610215E-03   0.5306102643E-01  -0.7815944823E-03   0.0000000000E+00   0.0000000000E+00   0.1607082108E-02  -0.6873576503E-03  -0.1016072827E-04   0.0000000000E+00   0.0000000000E+00   0.0000000000E+00   0.1568893796E+00
   0.2630750747E+00   0.2329761522E+00   0.7430734189E-04  -0.1749115819E-04   0.2972293675E-03  -0.6996463276E-04   0.1655322237E+00   0.3417319836E-04   0.4966991906E-01  -0.2119776301E-02   0.0000000000E+00   0.0000000000E+00   0.1506209960E-02  -0.6452646962E-03  -0.2755709191E-04   0.0000000000E+00   0.0000000000E+00   0.0000000000E+00   0.1471485617E+00
   0.2531296349E+00   0.2498991174E+00   0.7036998968E-04  -0.2017652559E-04   0.2814799587E-03  -0.8070610237E-04   0.1737492524E+00   0.2535702155E-03   0.5220084679E-01  -0.8299457275E-03   0.0000000000E+00   0.0000000000E+00   0.1580129273E-02  -0.6753145955E-03  -0.1078929446E-04   0.0000000000E+00   0.0000000000E+00   0.0000000000E+00   0.1542286717E+00
   0.2829779897E+00   0.2327809027E+00   0.8026194488E-04  -0.1678485799E-04   0.3210477795E-03  -0.6713943194E-04   0.1633551485E+00   0.1999476668E-03   0.4906652885E-01  -0.1869669482E-02   0.0000000000E+00   0.0000000000E+00   0.1485752056E-02  -0.6352655554E-03  -0.2430570327E-04   0.0000000000E+00   0.0000000000E+00   0.0000000000E+00   0.1450696137E+00
   0.2726045275E+00   0.2499032686E+00   0.7646129132E-04  -0.1934627401E-04   0.3058451653E-03  -0.7738509604E-04   0.1707447356E+00   0.3023430842E-03   0.5131412360E-01  -0.7557912704E-03   0.0000000000E+00   0.0000000000E+00   0.1552597956E-02  -0.6631531467E-03  -0.9825286516E-05   0.0000000000E+00   0.0000000000E+00   0.0000000000E+00   0.1515194801E+00
   0.3033888080E+00   0.2322658009E+00   0.8629639206E-04  -0.1625101137E-04   0.3451855682E-03  -0.6500404550E-04   0.1612156632E+00   0.3388996323E-03   0.4846636885E-01  -0.1468644541E-02   0.0000000000E+00   0.0000000000E+00   0.1465740827E-02  -0.6256570999E-03  -0.1909237903E-04   0.0000000000E+00   0.0000000000E+00   0.0000000000E+00   0.1430419934E+00
   0.2920789108E+00   0.2499062293E+00   0.8245076167E-04  -0.1875414357E-04   0.3298030467E-03  -0.7501657430E-04   0.1680921001E+00   0.4023095735E-03   0.5054832291E-01  -0.6020020911E-03   0.0000000000E+00   0.0000000000E+00   0.1528069104E-02  -0.6518981733E-03  -0.7826027184E-05   0.0000000000E+00   0.0000000000E+00   0.0000000000E+00   0.1490825719E+00
   0.1655277716E+00   0.1646140849E+00   0.5264492073E-04  -0.1610441091E-04   0.2105796829E-03  -0.6441764366E-04   0.1549365252E+00  -0.1363342499E-01   0.4239093005E-01  -0.3634204520E-02   0.0000000000E+00   0.0000000000E+00   0.1463092736E-02  -0.7283166156E-03  -0.4724465875E-04   0.0000000000E+00   0.0000000000E+00   0.0000000000E+00   0.1487775431E+00
   0.1556030796E+00   0.1821471876E+00   0.4731992262E-04  -0.1998588413E-04   0.1892796905E-03  -0.7994353652E-04   0.1610732535E+00  -0.1123748086E-01   0.4495073180E-01   0.2405832910E-02   0.0000000000E+00   0.0000000000E+00   0.1509592783E-02  -0.7304467646E-03   0.3127582783E-04   0.0000000000E+00   0.0000000000E+00   0.0000000000E+00   0.1522402499E+00
   0.1454705525E+00   0.1647283903E+00   0.4663629242E-04  -0.1884354062E-04   0.1865451697E-03  -0.7537416250E-04   0.1609158224E+00  -0.1649141860E-01   0.4332732114E-01   0.7229922245E-03   0.0000000000E+00   0.0000000000E+00   0.1528650516E-02  -0.7776436166E-03   0.9398898918E-05   0.0000000000E+00   0.0000000000E+00   0.0000000000E+00   0.1562968941E+00
   0.2254215903E+00   0.0000000000E+00   0.8431926674E-04   0.0000000000E+00   0.3372770669E-03   0.0000000000E+00   0.6449167061E-01   0.1594954202E-01   0.2413236379E-01  -0.2161011040E-02   0.0000000000E+00   0.0000000000E+00   0.5246709886E-03  -0.1063766830E-03  -0.2809314352E-04   0.0000000000E+00   0.0000000000E+00   0.0000000000E+00   0.4494796254E-01
   0.1617769315E+00   0.7203448315E-01   0.6945749155E-04  -0.3959729420E-05   0.2778299662E-03  -0.1583891768E-04   0.8744073750E-01  -0.1736576112E-01   0.2102249291E-01  -0.3468794526E-01   0.0000000000E+00   0.0000000000E+00   0.8634371796E-03  -0.4990473024E-03  -0.4509432884E-03   0.0000000000E+00   0.0000000000E+00   0.0000000000E+00   0.1096492805E+00
   0.1834107430E+00   0.7143372980E-01   0.7319340108E-04  -0.3153219885E-05   0.2927736043E-03  -0.1261287954E-04   0.8782206678E-01  -0.5791927519E-02   0.2460904178E-01  -0.2851646909E-01   0.0000000000E+00   0.0000000000E+00   0.8217693250E-03  -0.3952126009E-03  -0.3707140982E-03   0.0000000000E+00   0.0000000000E+00   0.0000000000E+00   0.9629058722E-01
   0.1728900346E+00   0.9031629035E-01   0.6765671972E-04  -0.5340149371E-05   0.2706268789E-03  -0.2136059748E-04   0.1082113001E+00  -0.1376235515E-01   0.2833468349E-01  -0.2803124158E-01   0.0000000000E+00   0.0000000000E+00   0.1038396016E-02  -0.5472615023E-03  -0.3644061406E-03   0.0000000000E+00   0.0000000000E+00   0.0000000000E+00   0.1178084684E+00
   0.1741160945E-01   0.2038880262E+00   0.4587189689E-05  -0.4493656316E-04   0.1834875876E-04  -0.1797462526E-03   0.1502658232E+00   0.1177627594E-01   0.4861262975E-01   0.6286369221E-02   0.0000000000E+00   0.0000000000E+00   0.1321491515E-02  -0.4788725995E-03   0.8172279988E-04   0.0000000000E+00   0.0000000000E+00   0.0000000000E+00   0.1248733730E+00
   0.0000000000E+00   0.1935275152E+00   0.0000000000E+00  -0.4449576948E-04   0.0000000000E+00  -0.1779830779E-03   0.1581224818E+00   0.1646064708E-01   0.5237493865E-01   0.3811305867E-02   0.0000000000E+00   0.0000000000E+00   0.1374718060E-02  -0.4668857904E-03   0.4954697627E-04   0.0000000000E+00   0.0000000000E+00   0.0000000000E+00   0.1276644662E+00
   0.1685708619E-01   0.1843113238E+00   0.4818757143E-05  -0.4308944962E-04   0.1927502857E-04  -0.1723577985E-03   0.1662716357E+00   0.1918656664E-01   0.5563746071E-01   0.7109958108E-02   0.0000000000E+00   0.0000000000E+00   0.1438244275E-02  -0.4738616229E-03   0.9242945540E-04   0.0000000000E+00   0.0000000000E+00   0.0000000000E+00   0.1334584873E+00
   0.0000000000E+00   0.1747860548E+00   0.0000000000E+00  -0.4278843599E-04   0.0000000000E+00  -0.1711537440E-03   0.1748395996E+00   0.2621856316E-01   0.6031744883E-01   0.4569830100E-02   0.0000000000E+00   0.0000000000E+00   0.1488787960E-02  -0.4432855137E-03   0.5940779129E-04   0.0000000000E+00   0.0000000000E+00   0.0000000000E+00   0.1349735120E+00
   0.1693328209E-01   0.1651177845E+00   0.5289017049E-05  -0.4127929360E-04   0.2115606820E-04  -0.1651171744E-03   0.1840344029E+00   0.2716592754E-01   0.6336009914E-01   0.7249830285E-02   0.0000000000E+00   0.0000000000E+00   0.1568765949E-02  -0.4705242309E-03   0.9424779370E-04   0.0000000000E+00   0.0000000000E+00   0.0000000000E+00   0.1429992742E+00
   0.3384767433E-01   0.1747866957E+00   0.1014538663E-04  -0.4058906859E-04   0.4058154653E-04  -0.1623562744E-03   0.1752271271E+00   0.1825167694E-01   0.5804364120E-01   0.1499888656E-01   0.0000000000E+00   0.0000000000E+00   0.1523385316E-02  -0.5172955353E-03   0.1949855253E-03   0.0000000000E+00   0.0000000000E+00   0.0000000000E+00   0.1437260277E+00
   0.3464335356E-01   0.1550494401E+00   0.1151145197E-04  -0.3842177743E-04   0.4604580787E-04  -0.1536871097E-03   0.1937307581E+00   0.2440099530E-01   0.6543952602E-01   0.1343156284E-01   0.0000000000E+00   0.0000000000E+00   0.1667786017E-02  -0.5335008994E-03   0.1746103170E-03   0.0000000000E+00   0.0000000000E+00   0.0000000000E+00   0.1548721265E+00
   0.3378085477E-01   0.1940410493E+00   0.9337173269E-05  -0.4258333161E-04   0.3734869308E-04  -0.1703333264E-03   0.1596566586E+00   0.1091830375E-01   0.5117248871E-01   0.1362717689E-01   0.0000000000E+00   0.0000000000E+00   0.1410294209E-02  -0.5233044045E-03   0.1771532995E-03   0.0000000000E+00   0.0000000000E+00   0.0000000000E+00   0.1353222183E+00
   0.5393931625E-01   0.1448412272E+00   0.1916509064E-04  -0.3383695617E-04   0.7666036256E-04  -0.1353478247E-03   0.1987766401E+00   0.1176752869E-01   0.6316325063E-01   0.1401323784E-01   0.0000000000E+00   0.0000000000E+00   0.1762974063E-02  -0.6681443852E-03   0.1821720919E-03   0.0000000000E+00   0.0000000000E+00   0.0000000000E+00   0.1691626755E+00
   0.9724130554E-01   0.2159569794E+00   0.2568378723E-04  -0.3482231031E-04   0.1027351489E-03  -0.1392892412E-03   0.1579868374E+00  -0.2379914141E-02   0.4668207698E-01   0.1500335248E-01   0.0000000000E+00   0.0000000000E+00   0.1446961886E-02  -0.6378058846E-03   0.1950435823E-03   0.0000000000E+00   0.0000000000E+00   0.0000000000E+00   0.1446074972E+00
   0.1420576382E+00   0.0000000000E+00   0.7819443345E-04   0.0000000000E+00   0.3127777338E-03   0.0000000000E+00   0.1283189666E-01  -0.2037336547E-01  -0.2262440645E-02  -0.1326212898E-01   0.0000000000E+00   0.0000000000E+00   0.1962263849E-03  -0.2354420228E-03  -0.1724076767E-03   0.0000000000E+00   0.0000000000E+00   0.0000000000E+00   0.3420881167E-01
   0.1524407329E+00   0.1778186492E-01   0.7771078703E-04  -0.7156151622E-06   0.3108431481E-03  -0.2862460649E-05   0.2855136015E-01  -0.1157835731E-01   0.5091900851E-02  -0.1064111505E-01   0.0000000000E+00   0.0000000000E+00   0.3049729708E-03  -0.2167133561E-03  -0.1383344956E-03   0.0000000000E+00   0.0000000000E+00   0.0000000000E+00   0.4089352313E-01
   0.1628957456E+00   0.0000000000E+00   0.7915031555E-04   0.0000000000E+00   0.3166012622E-03   0.0000000000E+00   0.2820960054E-01  -0.4966768472E-02   0.6972849621E-02  -0.5650646309E-02   0.0000000000E+00   0.0000000000E+00   0.2760777620E-03  -0.1552150352E-03  -0.7345840201E-04   0.0000000000E+00   0.0000000000E+00   0.0000000000E+00   0.3054633245E-01
   0.3504999940E+00   0.1153625284E+00   0.1000000000E-03  -0.4417510903E-05   0.4000000000E-03  -0.1767004361E-04   0.1134822183E+00   0.1250797041E-01   0.3779705661E-01  -0.7457554894E-04   0.0000000000E+00   0.0000000000E+00   0.9839071017E-03  -0.3287581205E-03  -0.9694821362E-06   0.0000000000E+00   0.0000000000E+00   0.0000000000E+00   0.9100062459E-01
   0.3504999940E+00   0.1345864382E+00   0.1000000000E-03  -0.5790553006E-05   0.4000000000E-03  -0.2316221202E-04   0.1215585955E+00   0.9763728915E-02   0.3939669732E-01  -0.3166849605E-04   0.0000000000E+00   0.0000000000E+00   0.1068104676E-02  -0.3852285893E-03  -0.4116904487E-06   0.0000000000E+00   0.0000000000E+00   0.0000000000E+00   0.1003145995E+00
   0.3337440533E+00   0.1441970237E+00   0.9628025520E-04  -0.6585067313E-05   0.3851210208E-03  -0.2634026925E-04   0.1257810365E+00   0.8303454599E-02   0.4022534733E-01  -0.2221446985E-02   0.0000000000E+00   0.0000000000E+00   0.1112223959E-02  -0.4149846055E-03  -0.2887881081E-04   0.0000000000E+00   0.0000000000E+00   0.0000000000E+00   0.1052846133E+00
   0.1626273327E+00   0.3473650426E-01   0.7654294237E-04  -0.1238768559E-05   0.3061717695E-03  -0.4955074237E-05   0.4874431587E-01  -0.5761125229E-02   0.1289495719E-01  -0.2336363299E-01   0.0000000000E+00   0.0000000000E+00   0.4660416628E-03  -0.2425290715E-03  -0.3037272289E-03   0.0000000000E+00   0.0000000000E+00   0.0000000000E+00   0.6273453994E-01
   0.1834076317E+00   0.3536740048E-01   0.7847193212E-04  -0.1026483295E-05   0.3138877285E-03  -0.4105933181E-05   0.5669749264E-01   0.1857605042E-02   0.1756652930E-01  -0.1968995567E-01   0.0000000000E+00   0.0000000000E+00   0.5087025233E-03  -0.2042160154E-03  -0.2559694237E-03   0.0000000000E+00   0.0000000000E+00   0.0000000000E+00   0.5956771159E-01
   0.1451700047E+00   0.3343699164E-01   0.7524513134E-04  -0.1729952182E-05   0.3009805253E-03  -0.6919808726E-05   0.3021038602E-01  -0.2028818662E-01   0.2976659822E-02  -0.2734838527E-01   0.0000000000E+00   0.0000000000E+00   0.3540384406E-03  -0.3024430037E-03  -0.3555290085E-03   0.0000000000E+00   0.0000000000E+00   0.0000000000E+00   0.6354164649E-01
   0.2142145009E+00   0.2161016770E+00   0.6090037777E-04  -0.1817339284E-04   0.2436015111E-03  -0.7269357137E-04   0.1638420319E+00  -0.1469141312E-02   0.4871186718E-01  -0.2851078940E-02   0.0000000000E+00   0.0000000000E+00   0.1496692141E-02  -0.6523531104E-03  -0.3706402622E-04   0.0000000000E+00   0.0000000000E+00   0.0000000000E+00   0.1468774430E+00
   0.2893371862E+00   0.3564406343E-01   0.9143323809E-04  -0.8669348658E-06   0.3657329524E-03  -0.3467739463E-05   0.8410466592E-01   0.2055388209E-01   0.3139756440E-01  -0.5140435364E-02   0.0000000000E+00   0.0000000000E+00   0.6851923197E-03  -0.1409678700E-03  -0.6682565974E-04   0.0000000000E+00   0.0000000000E+00   0.0000000000E+00   0.5954527356E-01
   0.2991072699E+00   0.5044557420E-01   0.9238457033E-04  -0.1315979293E-05   0.3695382813E-03  -0.5263917173E-05   0.8875185444E-01   0.2024183564E-01   0.3269810702E-01  -0.5400847401E-02   0.0000000000E+00   0.0000000000E+00   0.7286987164E-03  -0.1619315280E-03  -0.7021101622E-04   0.0000000000E+00   0.0000000000E+00   0.0000000000E+00   0.6385739635E-01
   0.3153239642E+00   0.5753879804E-01   0.9462544989E-04  -0.1553832960E-05   0.3785017996E-03  -0.6215331841E-05   0.9259306443E-01   0.2021212236E-01   0.3384155604E-01  -0.4030423633E-02   0.0000000000E+00   0.0000000000E+00   0.7637696091E-03  -0.1771826378E-03  -0.5239550723E-04   0.0000000000E+00   0.0000000000E+00   0.0000000000E+00   0.6697932274E-01
   0.6713128772E-01   0.1967739043E+00   0.1872318336E-04  -0.3794374760E-04   0.7489273346E-04  -0.1517749904E-03   0.1613431447E+00   0.1996755607E-02   0.4900197009E-01   0.1944107345E-01   0.0000000000E+00   0.0000000000E+00   0.1460435270E-02  -0.6110677883E-03   0.2527339548E-03   0.0000000000E+00   0.0000000000E+00   0.0000000000E+00   0.1457809218E+00
   0.4897589876E-01   0.2012527865E+00   0.1324767214E-04  -0.4139290783E-04   0.5299068858E-04  -0.1655716313E-03   0.1563511144E+00   0.6485691666E-02   0.4885104183E-01   0.1769493850E-01   0.0000000000E+00   0.0000000000E+00   0.1397500944E-02  -0.5507495521E-03   0.2300342005E-03   0.0000000000E+00   0.0000000000E+00   0.0000000000E+00   0.1372712829E+00
   0.7750427460E-01   0.2154700772E+00   0.2012497981E-04  -0.3837616541E-04   0.8049991925E-04  -0.1535046616E-03   0.1536018399E+00  -0.2501624760E-03   0.4600550321E-01   0.1656549721E-01   0.0000000000E+00   0.0000000000E+00   0.1398752376E-02  -0.6013236540E-03   0.2153514637E-03   0.0000000000E+00   0.0000000000E+00   0.0000000000E+00   0.1396299412E+00
   0.8769769291E-01   0.1992371479E+00   0.2456620184E-04  -0.3444661583E-04   0.9826480735E-04  -0.1377864633E-03   0.1624455799E+00  -0.2939565975E-02   0.4785180419E-01   0.1827340966E-01   0.0000000000E+00   0.0000000000E+00   0.1489719085E-02  -0.6602878121E-03   0.2375543256E-03   0.0000000000E+00   0.0000000000E+00   0.0000000000E+00   0.1501241566E+00
   0.1069249537E+00   0.1993324758E+00   0.3033774819E-04  -0.3079464044E-04   0.1213509928E-03  -0.1231785617E-03   0.1644858610E+00  -0.5525866771E-02   0.4768799826E-01   0.1555160769E-01   0.0000000000E+00   0.0000000000E+00   0.1518372215E-02  -0.6917802455E-03   0.2021709000E-03   0.0000000000E+00   0.0000000000E+00   0.0000000000E+00   0.1530262499E+00
   0.1121761832E+00   0.1454706431E+00   0.3915204637E-04  -0.2136358926E-04   0.1566081855E-03  -0.8545435703E-04   0.1729896454E+00  -0.2094226299E-01   0.4561421473E-01   0.3427461456E-02   0.0000000000E+00   0.0000000000E+00   0.1655880599E-02  -0.8652342103E-03   0.4455699893E-04   0.0000000000E+00   0.0000000000E+00   0.0000000000E+00   0.1706188683E+00
   0.1042466027E+00   0.1664460634E+00   0.3333553163E-04  -0.2642512143E-04   0.1333421265E-03  -0.1057004857E-03   0.1728129722E+00  -0.1413913520E-01   0.4760215109E-01   0.1231924982E-01   0.0000000000E+00   0.0000000000E+00   0.1627740674E-02  -0.8026367218E-03   0.1601502476E-03   0.0000000000E+00   0.0000000000E+00   0.0000000000E+00   0.1663750208E+00
   0.9080664857E-01   0.1516928754E+00   0.3100939411E-04  -0.2679951012E-04   0.1240375764E-03  -0.1071980405E-03   0.1799640427E+00  -0.1228960742E-01   0.5030233059E-01   0.1284892937E-01   0.0000000000E+00   0.0000000000E+00   0.1685602258E-02  -0.8136951941E-03   0.1670360818E-03   0.0000000000E+00   0.0000000000E+00   0.0000000000E+00   0.1710837194E+00
   0.9513057512E-01   0.9622027836E-01   0.4662820323E-04  -0.1609898710E-04   0.1865128129E-03  -0.6439594841E-04   0.1537681056E+00  -0.2620492968E-01   0.3826895278E-01  -0.2778206013E-01   0.0000000000E+00   0.0000000000E+00   0.1501488987E-02  -0.8381604720E-03  -0.3611667817E-03   0.0000000000E+00   0.0000000000E+00   0.0000000000E+00   0.1642514006E+00
   0.1091874829E+00   0.7681345581E-01   0.5789377345E-04  -0.1014989721E-04   0.2315750938E-03  -0.4059958886E-04   0.1007975928E+00  -0.3543261807E-01   0.1960949242E-01  -0.3860173026E-01   0.0000000000E+00   0.0000000000E+00   0.1055445305E-02  -0.7155474364E-03  -0.5018224933E-03   0.0000000000E+00   0.0000000000E+00   0.0000000000E+00   0.1360886583E+00
   0.1947260706E+00   0.2160718758E+00   0.5504312632E-04  -0.1992243394E-04   0.2201725053E-03  -0.7968973575E-04   0.1653208541E+00  -0.2367551445E-02   0.4888599078E-01  -0.1032737967E-02   0.0000000000E+00   0.0000000000E+00   0.1513653223E-02  -0.6662960490E-03  -0.1342559357E-04   0.0000000000E+00   0.0000000000E+00   0.0000000000E+00   0.1488401144E+00
   0.2254844359E+00   0.3586519390E-01   0.8312258372E-04  -0.8957992124E-06   0.3324903349E-03  -0.3583196849E-05   0.7190170998E-01   0.1319170168E-01   0.2552802350E-01  -0.1238286238E-01   0.0000000000E+00   0.0000000000E+00   0.6028579243E-03  -0.1603721836E-03  -0.1609772110E-03   0.0000000000E+00   0.0000000000E+00   0.0000000000E+00   0.5765552500E-01
   0.2466178647E+00   0.3605230830E-01   0.8574054102E-04  -0.8822801871E-06   0.3429621641E-03  -0.3529120749E-05   0.7742718440E-01   0.1643869729E-01   0.2815976451E-01  -0.9429671351E-02   0.0000000000E+00   0.0000000000E+00   0.6404764586E-03  -0.1523738738E-03  -0.1225857276E-03   0.0000000000E+00   0.0000000000E+00   0.0000000000E+00   0.5832192040E-01
   0.2744034160E+00   0.1829907740E+00   0.8039339853E-04  -0.1111640452E-04   0.3215735941E-03  -0.4446561809E-04   0.1449420589E+00   0.1684772413E-02   0.4398804939E-01  -0.6764676689E-02   0.0000000000E+00   0.0000000000E+00   0.1312402123E-02  -0.5499426007E-03  -0.8794079695E-04   0.0000000000E+00   0.0000000000E+00   0.0000000000E+00   0.1280171065E+00
   0.2337345003E+00   0.2161344897E+00   0.6669405328E-04  -0.1681125956E-04   0.2667762131E-03  -0.6724503822E-04   0.1619868822E+00  -0.6165211184E-03   0.4841110833E-01  -0.3866776813E-02   0.0000000000E+00   0.0000000000E+00   0.1476485061E-02  -0.6373591829E-03  -0.5026809857E-04   0.0000000000E+00   0.0000000000E+00   0.0000000000E+00   0.1446171420E+00
   0.3153383293E+00   0.2132301694E+00   0.9020285210E-04  -0.1374952002E-04   0.3608114084E-03  -0.5499808008E-04   0.1544720933E+00   0.1219919224E-02   0.4670760375E-01  -0.2259178187E-02   0.0000000000E+00   0.0000000000E+00   0.1400938364E-02  -0.5913398989E-03  -0.2936931642E-04   0.0000000000E+00   0.0000000000E+00   0.0000000000E+00   0.1363816630E+00
   0.3504999940E+00   0.1922518321E+00   0.1000000000E-03  -0.1117277250E-04   0.4000000000E-03  -0.4469108999E-04   0.1455494985E+00   0.2717981061E-02   0.4448024388E-01  -0.2421921381E-04   0.0000000000E+00   0.0000000000E+00   0.1313900311E-02  -0.5429094166E-03  -0.3148497795E-06   0.0000000000E+00   0.0000000000E+00   0.0000000000E+00   0.1272045545E+00
   0.2933746934E+00   0.2157566016E+00   0.8393648815E-04  -0.1442007428E-04   0.3357459526E-03  -0.5768029713E-04   0.1560980627E+00   0.6355111798E-03   0.4702007216E-01  -0.3412581248E-02   0.0000000000E+00   0.0000000000E+00   0.1418013877E-02  -0.6029992927E-03  -0.4436355623E-04   0.0000000000E+00   0.0000000000E+00   0.0000000000E+00   0.1383579672E+00
   0.3349471499E+00   0.2178270246E+00   0.9562597456E-04  -0.1413768225E-04   0.3825038983E-03  -0.5655072901E-04   0.1555323899E+00   0.8099631356E-03   0.4690270592E-01  -0.9260257050E-03   0.0000000000E+00   0.0000000000E+00   0.1412185892E-02  -0.5992056563E-03  -0.1203833416E-04   0.0000000000E+00   0.0000000000E+00   0.0000000000E+00   0.1376041062E+00
   0.5156361923E-01   0.1654452382E+00   0.1626210523E-04  -0.3687736825E-04   0.6504842090E-04  -0.1475094730E-03   0.1817840480E+00   0.1172230865E-01   0.5805190701E-01   0.1864380068E-01   0.0000000000E+00   0.0000000000E+00   0.1608517833E-02  -0.6022847786E-03   0.2423694089E-03   0.0000000000E+00   0.0000000000E+00   0.0000000000E+00   0.1557161473E+00
   0.2477224579E+00   0.9579900790E-01   0.8133278368E-04  -0.3751839124E-05   0.3253311347E-03  -0.1500735650E-04   0.1062013935E+00   0.8066671560E-02   0.3428041951E-01  -0.1521235278E-01   0.0000000000E+00   0.0000000000E+00   0.9349726617E-03  -0.3407787234E-03  -0.1977605861E-03   0.0000000000E+00   0.0000000000E+00   0.0000000000E+00   0.9185515363E-01
   0.2651427378E+00   0.8644893359E-01   0.8522856238E-04  -0.2979561731E-05   0.3409142495E-03  -0.1191824692E-04   0.9979190797E-01   0.1099888972E-01   0.3323723931E-01  -0.1252846694E-01   0.0000000000E+00   0.0000000000E+00   0.8652106926E-03  -0.2890985446E-03  -0.1628700703E-03   0.0000000000E+00   0.0000000000E+00   0.0000000000E+00   0.8291114823E-01
   0.2649926508E+00   0.1059368458E+00   0.8375575922E-04  -0.4235230529E-05   0.3350230369E-03  -0.1694092212E-04   0.1099917716E+00   0.8304002414E-02   0.3548873221E-01  -0.1236114286E-01   0.0000000000E+00   0.0000000000E+00   0.9685395123E-03  -0.3534014873E-03  -0.1606948572E-03   0.0000000000E+00   0.0000000000E+00   0.0000000000E+00   0.9366125928E-01
   0.3504999940E+00   0.2114717345E+00   0.1000000000E-03  -0.1334590767E-04   0.4000000000E-03  -0.5338363066E-04   0.1518490923E+00   0.1049504653E-02   0.4586957910E-01   0.2524445724E-03   0.0000000000E+00   0.0000000000E+00   0.1377733672E-02  -0.5826609678E-03   0.3281779442E-05   0.0000000000E+00   0.0000000000E+00   0.0000000000E+00   0.1341321763E+00
   0.3009580440E+00   0.2007845743E+00   0.8661280102E-04  -0.1252394443E-04   0.3464512041E-03  -0.5009577770E-04   0.1509020303E+00   0.1952688479E-02   0.4585641563E-01  -0.4090953000E-02   0.0000000000E+00   0.0000000000E+00   0.1365592990E-02  -0.5707484529E-03  -0.5318238900E-04   0.0000000000E+00   0.0000000000E+00   0.0000000000E+00   0.1327593576E+00
   0.2963041725E+00   0.1829499085E+00   0.8611209591E-04  -0.1061989748E-04   0.3444483836E-03  -0.4247958992E-04   0.1438154209E+00   0.3113533688E-02   0.4407868639E-01  -0.5193178165E-02   0.0000000000E+00   0.0000000000E+00   0.1296577549E-02  -0.5325469851E-03  -0.6751131615E-04   0.0000000000E+00   0.0000000000E+00   0.0000000000E+00   0.1256686837E+00
   0.2998498438E+00   0.1250227099E+00   0.8958096474E-04  -0.5272015348E-05   0.3583238590E-03  -0.2108806139E-04   0.1179557645E+00   0.9339320435E-02   0.3818852548E-01  -0.7173277899E-02   0.0000000000E+00   0.0000000000E+00   0.1036974107E-02  -0.3750396655E-03  -0.9325261269E-04   0.0000000000E+00   0.0000000000E+00   0.0000000000E+00   0.9823847037E-01
   0.2801634386E+00   0.5578024702E-01   0.8942511934E-04  -0.1510935844E-05   0.3577004774E-03  -0.6043743376E-05   0.8845835751E-01   0.1779333211E-01   0.3187550689E-01  -0.8246773746E-02   0.0000000000E+00   0.0000000000E+00   0.7355770581E-03  -0.1830682721E-03  -0.1072080587E-03   0.0000000000E+00   0.0000000000E+00   0.0000000000E+00   0.6635782638E-01
   0.2987046239E+00   0.6736647308E-01   0.9177918794E-04  -0.1932743700E-05   0.3671167518E-03  -0.7730974802E-05   0.9376908684E-01   0.1724056003E-01   0.3330289406E-01  -0.6681313693E-02   0.0000000000E+00   0.0000000000E+00   0.7860605061E-03  -0.2088103424E-03  -0.8685707801E-04   0.0000000000E+00   0.0000000000E+00   0.0000000000E+00   0.7084001151E-01
   0.3166346440E+00   0.1536714525E+00   0.9218840939E-04  -0.7496504528E-05   0.3687536376E-03  -0.2998601811E-04   0.1302068468E+00   0.6565018927E-02   0.4103155971E-01  -0.4162964502E-02   0.0000000000E+00   0.0000000000E+00   0.1159278732E-02  -0.4480650302E-03  -0.5411853853E-04   0.0000000000E+00   0.0000000000E+00   0.0000000000E+00   0.1107502084E+00
   0.2240270277E+00   0.1992017380E+00   0.6535154740E-04  -0.1529060226E-04   0.2614061896E-03  -0.6116240903E-04   0.1563694790E+00  -0.1933809572E-02   0.4633070083E-01  -0.5106955106E-02   0.0000000000E+00   0.0000000000E+00   0.1430504116E-02  -0.6274386352E-03  -0.6639041638E-04   0.0000000000E+00   0.0000000000E+00   0.0000000000E+00   0.1408047995E+00
   0.2044922837E+00   0.1991369088E+00   0.5972634615E-04  -0.1677364474E-04   0.2389053846E-03  -0.6709457896E-04   0.1585065791E+00  -0.3550121614E-02   0.4648693725E-01  -0.3581309185E-02   0.0000000000E+00   0.0000000000E+00   0.1456255344E-02  -0.6504817652E-03  -0.4655701940E-04   0.0000000000E+00   0.0000000000E+00   0.0000000000E+00   0.1438534214E+00
   0.2534522051E+00   0.2161531550E+00   0.7246601828E-04  -0.1576940575E-04   0.2898640731E-03  -0.6307762300E-04   0.1599495140E+00   0.1559406247E-04   0.4798953243E-01  -0.4174033316E-02   0.0000000000E+00   0.0000000000E+00   0.1455479761E-02  -0.6236611988E-03  -0.5426243311E-04   0.0000000000E+00   0.0000000000E+00   0.0000000000E+00   0.1423294716E+00
   0.1167764628E+00   0.2160758497E+00   0.3140355172E-04  -0.3123346478E-04   0.1256142069E-03  -0.1249338591E-03   0.1621529691E+00  -0.3410364137E-02   0.4762278149E-01   0.1224028318E-01   0.0000000000E+00   0.0000000000E+00   0.1488892439E-02  -0.6634308932E-03   0.1591236813E-03   0.0000000000E+00   0.0000000000E+00   0.0000000000E+00   0.1483240391E+00
   0.1459666327E+00   0.1991576728E+00   0.4226234506E-04  -0.2388903121E-04   0.1690493803E-03  -0.9555612486E-04   0.1641619980E+00  -0.7623119935E-02   0.4696166343E-01   0.6786020845E-02   0.0000000000E+00   0.0000000000E+00   0.1523604350E-02  -0.7096021837E-03   0.8821827098E-04   0.0000000000E+00   0.0000000000E+00   0.0000000000E+00   0.1524704911E+00
   0.1358587267E+00   0.1822371899E+00   0.4127874233E-04  -0.2306162498E-04   0.1651149693E-03  -0.9224649991E-04   0.1648321327E+00  -0.1204821149E-01   0.4583517637E-01   0.7439745561E-02   0.0000000000E+00   0.0000000000E+00   0.1546960433E-02  -0.7524840422E-03   0.9671669230E-04   0.0000000000E+00   0.0000000000E+00   0.0000000000E+00   0.1567045598E+00
   0.2044284544E+00   0.3564286086E-01   0.8069088099E-04  -0.9308689699E-06   0.3227635240E-03  -0.3723475880E-05   0.6516018039E-01   0.8877149057E-02   0.2221119883E-01  -0.1572724109E-01   0.0000000000E+00   0.0000000000E+00   0.5583367603E-03  -0.1733426471E-03  -0.2044541341E-03   0.0000000000E+00   0.0000000000E+00   0.0000000000E+00   0.5764239670E-01
   0.1752172204E+00   0.1821149207E+00   0.5316027313E-04  -0.1744785510E-04   0.2126410925E-03  -0.6979142039E-04   0.1575368878E+00  -0.9207482420E-02   0.4449882161E-01  -0.1781179468E-02   0.0000000000E+00   0.0000000000E+00   0.1469494860E-02  -0.6981819524E-03  -0.2315533309E-04   0.0000000000E+00   0.0000000000E+00   0.0000000000E+00   0.1474364259E+00
   0.1654836902E+00   0.1991208604E+00   0.4817684922E-04  -0.2104111738E-04   0.1927073969E-03  -0.8416446954E-04   0.1626642886E+00  -0.6774588798E-02   0.4676690993E-01   0.2456357708E-02   0.0000000000E+00   0.0000000000E+00   0.1506665922E-02  -0.6960394834E-03   0.3193265020E-04   0.0000000000E+00   0.0000000000E+00   0.0000000000E+00   0.1500602096E+00
   0.1849876116E+00   0.1991136737E+00   0.5400312350E-04  -0.1867586586E-04   0.2160124940E-03  -0.7470346343E-04   0.1607283493E+00  -0.5240324432E-02   0.4664640746E-01  -0.1070074970E-02   0.0000000000E+00   0.0000000000E+00   0.1483065244E-02  -0.6745275145E-03  -0.1391097461E-04   0.0000000000E+00   0.0000000000E+00   0.0000000000E+00   0.1470581530E+00
   0.1939061627E+00   0.5328420202E-01   0.7752574879E-04  -0.1763496775E-05   0.3101029952E-03  -0.7053987101E-05   0.7353998271E-01   0.2247995714E-02   0.2273639353E-01  -0.2292219747E-01   0.0000000000E+00   0.0000000000E+00   0.6604466594E-03  -0.2663491716E-03  -0.2979885671E-03   0.0000000000E+00   0.0000000000E+00   0.0000000000E+00   0.7507082941E-01
   0.2148890516E+00   0.5362716876E-01   0.8029392365E-04  -0.1614908091E-05   0.3211756946E-03  -0.6459632363E-05   0.7810211073E-01   0.7889008067E-02   0.2579733564E-01  -0.1850113826E-01   0.0000000000E+00   0.0000000000E+00   0.6799620762E-03  -0.2328082584E-03  -0.2405147973E-03   0.0000000000E+00   0.0000000000E+00   0.0000000000E+00   0.7092418452E-01
   0.2437394867E+00   0.1992738333E+00   0.7092973118E-04  -0.1415733287E-04   0.2837189247E-03  -0.5662933148E-04   0.1543342967E+00  -0.4822777794E-03   0.4615560567E-01  -0.5766700147E-02   0.0000000000E+00   0.0000000000E+00   0.1406322983E-02  -0.6062924848E-03  -0.7496710191E-04   0.0000000000E+00   0.0000000000E+00   0.0000000000E+00   0.1379210402E+00
   0.5030617452E-01   0.1847290376E+00   0.1457176330E-04  -0.3934548866E-04   0.5828705320E-04  -0.1573819547E-03   0.1672168398E+00   0.8767596173E-02   0.5279533080E-01   0.1882486044E-01   0.0000000000E+00   0.0000000000E+00   0.1487479617E-02  -0.5723605501E-03   0.2447231858E-03   0.0000000000E+00   0.0000000000E+00   0.0000000000E+00   0.1454288936E+00
   0.3161032185E+00   0.1729353999E+00   0.9149289683E-04  -0.9327413347E-05   0.3659715873E-03  -0.3730965339E-04   0.1386992294E+00   0.4443832554E-02   0.4294291860E-01  -0.3702857599E-02   0.0000000000E+00   0.0000000000E+00   0.1244832041E-02  -0.5004881186E-03  -0.4813714878E-04   0.0000000000E+00   0.0000000000E+00   0.0000000000E+00   0.1199189476E+00
   0.2987845395E+00   0.1762849140E-01   0.9301610573E-04  -0.4018609195E-06   0.3720644229E-03  -0.1607443678E-05   0.8214593881E-01   0.2215619025E-01   0.3129063872E-01  -0.1824092269E-02   0.0000000000E+00   0.0000000000E+00   0.6611189012E-03  -0.1187478301E-03  -0.2371319949E-04   0.0000000000E+00   0.0000000000E+00   0.0000000000E+00   0.5606766521E-01
   0.3088054801E+00   0.0000000000E+00   0.9442861150E-04   0.0000000000E+00   0.3777144460E-03   0.0000000000E+00   0.8268373622E-01   0.2308750664E-01   0.3173137286E-01  -0.5643087222E-03   0.0000000000E+00   0.0000000000E+00   0.6623807237E-03  -0.1123702609E-03  -0.7336013388E-05   0.0000000000E+00   0.0000000000E+00   0.0000000000E+00   0.5578129395E-01
   0.2663989785E+00   0.6955144684E-01   0.8657229915E-04  -0.2117191741E-05   0.3462891966E-03  -0.8468766964E-05   0.9264662589E-01   0.1495390913E-01   0.3228016051E-01  -0.1152337835E-01   0.0000000000E+00   0.0000000000E+00   0.7847640500E-03  -0.2252412679E-03  -0.1498039185E-03   0.0000000000E+00   0.0000000000E+00   0.0000000000E+00   0.7335046630E-01
   0.2472054371E+00   0.7418781816E-01   0.8319341711E-04  -0.2437228834E-05   0.3327736684E-03  -0.9748915335E-05   0.9324958925E-01   0.1102969390E-01   0.3128378494E-01  -0.1494569266E-01   0.0000000000E+00   0.0000000000E+00   0.8055554559E-03  -0.2633031836E-03  -0.1942940046E-03   0.0000000000E+00   0.0000000000E+00   0.0000000000E+00   0.7859112891E-01
   0.1724874961E+00   0.5293521664E-01   0.7479161473E-04  -0.2088391227E-05   0.2991664589E-03  -0.8353564908E-05   0.6735350393E-01  -0.6441475193E-02   0.1827360862E-01  -0.2816402155E-01   0.0000000000E+00   0.0000000000E+00   0.6380386390E-03  -0.3212960896E-03  -0.3661322802E-03   0.0000000000E+00   0.0000000000E+00   0.0000000000E+00   0.8156199542E-01
   0.2327978630E+00   0.8724258216E-01   0.7948320817E-04  -0.3383808425E-05   0.3179328327E-03  -0.1353523370E-04   0.9910203790E-01   0.5638639441E-02   0.3142220320E-01  -0.1830927305E-01   0.0000000000E+00   0.0000000000E+00   0.8798378511E-03  -0.3351863289E-03  -0.2380205496E-03   0.0000000000E+00   0.0000000000E+00   0.0000000000E+00   0.8939503195E-01
   0.2151125234E+00   0.8961848292E-01   0.7601407209E-04  -0.3853196070E-05   0.3040562884E-03  -0.1541278428E-04   0.1020879344E+00   0.5742074313E-03   0.3079864255E-01  -0.2166592618E-01   0.0000000000E+00   0.0000000000E+00   0.9267607941E-03  -0.3929176566E-03  -0.2816570403E-03   0.0000000000E+00   0.0000000000E+00   0.0000000000E+00   0.9771509090E-01
   0.2250035168E+00   0.7172303662E-01   0.7988335576E-04  -0.2500375409E-05   0.3195334231E-03  -0.1000150163E-04   0.9058157576E-01   0.6893648896E-02   0.2924256740E-01  -0.1904545305E-01   0.0000000000E+00   0.0000000000E+00   0.7974071087E-03  -0.2905359405E-03  -0.2475908897E-03   0.0000000000E+00   0.0000000000E+00   0.0000000000E+00   0.8199868251E-01
   0.2360920514E+00   0.5426109704E-01   0.8316748699E-04  -0.1554691318E-05   0.3326699480E-03  -0.6218765273E-05   0.8239312551E-01   0.1209050182E-01   0.2834508820E-01  -0.1445067460E-01   0.0000000000E+00   0.0000000000E+00   0.7026244851E-03  -0.2113096229E-03  -0.1878587698E-03   0.0000000000E+00   0.0000000000E+00   0.0000000000E+00   0.6851278639E-01
   0.7484107788E-01   0.1105334130E+00   0.3476655517E-04  -0.2359359881E-04   0.1390662207E-03  -0.9437439524E-04   0.1927942365E+00  -0.8475682406E-02   0.5529556624E-01  -0.1494587774E-01   0.0000000000E+00   0.0000000000E+00   0.1787482714E-02  -0.8290262324E-03  -0.1942964106E-03   0.0000000000E+00   0.0000000000E+00   0.0000000000E+00   0.1781621125E+00
   0.1264284660E+00   0.1992243547E+00   0.3629240136E-04  -0.2718226231E-04   0.1451696055E-03  -0.1087290493E-03   0.1648790796E+00  -0.7328420305E-02   0.4726519779E-01   0.1142075435E-01   0.0000000000E+00   0.0000000000E+00   0.1528980464E-02  -0.7097170353E-03   0.1484698066E-03   0.0000000000E+00   0.0000000000E+00   0.0000000000E+00   0.1536998312E+00
   0.1160089020E+00   0.1826076400E+00   0.3504800033E-04  -0.2665739471E-04   0.1401920013E-03  -0.1066295788E-03   0.1680491804E+00  -0.1074152017E-01   0.4719229807E-01   0.1287032398E-01   0.0000000000E+00   0.0000000000E+00   0.1571139470E-02  -0.7531396372E-03   0.1673142117E-03   0.0000000000E+00   0.0000000000E+00   0.0000000000E+00   0.1595412535E+00
   0.1490363467E+00   0.5213991914E-01   0.7196933986E-04  -0.2760472441E-05   0.2878773594E-03  -0.1104188976E-04   0.6263023620E-01  -0.1717337088E-01   0.1363705959E-01  -0.3237275634E-01   0.0000000000E+00   0.0000000000E+00   0.6369112958E-03  -0.4005355962E-03  -0.4208458324E-03   0.0000000000E+00   0.0000000000E+00   0.0000000000E+00   0.8969921217E-01
   0.7072427860E-01   0.1570983015E+00   0.2340075986E-04  -0.3200609809E-04   0.9360303944E-04  -0.1280243924E-03   0.1867645115E+00  -0.5305690196E-03   0.5587018274E-01   0.1768054054E-01   0.0000000000E+00   0.0000000000E+00   0.1701626274E-02  -0.7332097729E-03   0.2298470270E-03   0.0000000000E+00   0.0000000000E+00   0.0000000000E+00   0.1690427063E+00
   0.8511371871E-01   0.1701051535E+00   0.2666704170E-04  -0.3090309479E-04   0.1066681668E-03  -0.1236123792E-03   0.1758648131E+00  -0.6510421151E-02   0.5080631758E-01   0.1758055760E-01   0.0000000000E+00   0.0000000000E+00   0.1625760442E-02  -0.7451176035E-03   0.2285472488E-03   0.0000000000E+00   0.0000000000E+00   0.0000000000E+00   0.1644313781E+00
   0.8073019240E-01   0.1851854966E+00   0.2376287966E-04  -0.3390807866E-04   0.9505151866E-04  -0.1356323146E-03   0.1678799944E+00  -0.2040405641E-02   0.4975187662E-01   0.1992969918E-01   0.0000000000E+00   0.0000000000E+00   0.1535665531E-02  -0.6732996693E-03   0.2590860893E-03   0.0000000000E+00   0.0000000000E+00   0.0000000000E+00   0.1547368754E+00
   0.6756345189E-01   0.1765244464E+00   0.2043247854E-04  -0.3530071751E-04   0.8172991417E-04  -0.1412028700E-03   0.1733623299E+00   0.2496785859E-02   0.5275773474E-01   0.2050394989E-01   0.0000000000E+00   0.0000000000E+00   0.1567859738E-02  -0.6533923354E-03   0.2665513486E-03   0.0000000000E+00   0.0000000000E+00   0.0000000000E+00   0.1562011531E+00
   0.9674447647E-01   0.1837125168E+00   0.2887671452E-04  -0.3055244630E-04   0.1155068581E-03  -0.1222097852E-03   0.1693228208E+00  -0.6788923230E-02   0.4876016928E-01   0.1752781062E-01   0.0000000000E+00   0.0000000000E+00   0.1567314470E-02  -0.7221382027E-03   0.2278615381E-03   0.0000000000E+00   0.0000000000E+00   0.0000000000E+00   0.1588289695E+00
   0.2992414450E+00   0.1627088642E+00   0.8774239678E-04  -0.8526350248E-05   0.3509695871E-03  -0.3410540099E-04   0.1342397863E+00   0.4468726726E-02   0.4161255390E-01  -0.6006626593E-02   0.0000000000E+00   0.0000000000E+00   0.1204154021E-02  -0.4828697533E-03  -0.7808614570E-04   0.0000000000E+00   0.0000000000E+00   0.0000000000E+00   0.1162251477E+00
   0.2835495532E+00   0.1692125512E+00   0.8356104818E-04  -0.9441165863E-05   0.3342441927E-03  -0.3776466345E-04   0.1387751726E+00   0.3232581311E-02   0.4260232618E-01  -0.6878324266E-02   0.0000000000E+00   0.0000000000E+00   0.1250247004E-02  -0.5118066833E-03  -0.8941821546E-04   0.0000000000E+00   0.0000000000E+00   0.0000000000E+00   0.1213540134E+00
   0.2827488911E+00   0.1531614357E+00   0.8430741951E-04  -0.7864868203E-05   0.3372296780E-03  -0.3145947281E-04   0.1321161084E+00   0.4871655454E-02   0.4109632915E-01  -0.8090748789E-02   0.0000000000E+00   0.0000000000E+00   0.1183257130E-02  -0.4709207580E-03  -0.1051797343E-03   0.0000000000E+00   0.0000000000E+00   0.0000000000E+00   0.1144209372E+00
   0.2043629150E+00   0.7155855773E-01   0.7658920632E-04  -0.2722394025E-05   0.3063568253E-03  -0.1088957610E-04   0.8975500342E-01   0.1542063142E-02   0.2738911997E-01  -0.2364335681E-01   0.0000000000E+00   0.0000000000E+00   0.8107564849E-03  -0.3360117387E-03  -0.3073636385E-03   0.0000000000E+00   0.0000000000E+00   0.0000000000E+00   0.8860045770E-01
   0.2997108069E+00   0.1439715524E+00   0.8869097262E-04  -0.6802914340E-05   0.3547638905E-03  -0.2721165736E-04   0.1264285595E+00   0.6777217566E-02   0.3996173312E-01  -0.6663113891E-02   0.0000000000E+00   0.0000000000E+00   0.1124068743E-02  -0.4313987023E-03  -0.8662048058E-04   0.0000000000E+00   0.0000000000E+00   0.0000000000E+00   0.1076146475E+00
   0.2820622468E+00   0.7699426801E-01   0.8867076971E-04  -0.2414398213E-05   0.3546830788E-03  -0.9657592853E-05   0.9797992096E-01   0.1556695153E-01   0.3406406175E-01  -0.9430385826E-02   0.0000000000E+00   0.0000000000E+00   0.8309061698E-03  -0.2404624328E-03  -0.1225950157E-03   0.0000000000E+00   0.0000000000E+00   0.0000000000E+00   0.7665278754E-01
   0.1284414090E+00   0.8316288032E-01   0.5986700584E-04  -0.8121355960E-05   0.2394680234E-03  -0.3248542384E-04   0.1135376184E+00  -0.3121590375E-01   0.2469651439E-01  -0.3535428326E-01   0.0000000000E+00   0.0000000000E+00   0.1154934352E-02  -0.7268614358E-03  -0.4596056823E-03   0.0000000000E+00   0.0000000000E+00   0.0000000000E+00   0.1402319143E+00
   0.1286004644E+00   0.1030736211E+00   0.5403788878E-04  -0.1115918132E-04   0.2161515551E-03  -0.4463672529E-04   0.1374107666E+00  -0.3113585152E-01   0.3188247452E-01  -0.2634463545E-01   0.0000000000E+00   0.0000000000E+00   0.1371867797E-02  -0.8192382386E-03  -0.3424802608E-03   0.0000000000E+00   0.0000000000E+00   0.0000000000E+00   0.1544572080E+00
   0.1146108293E+00   0.9382811784E-01   0.5299026334E-04  -0.1183777201E-04   0.2119610534E-03  -0.4735108803E-04   0.1366264026E+00  -0.2980836922E-01   0.3204541001E-01  -0.3051092803E-01   0.0000000000E+00   0.0000000000E+00   0.1359552904E-02  -0.8040991300E-03  -0.3966420643E-03   0.0000000000E+00   0.0000000000E+00   0.0000000000E+00   0.1555679869E+00
   0.1947637388E+00   0.1821467801E+00   0.5881276988E-04  -0.1542118773E-04   0.2352510795E-03  -0.6168475090E-04   0.1541005588E+00  -0.6458327174E-02   0.4429266950E-01  -0.4844254899E-02   0.0000000000E+00   0.0000000000E+00   0.1427502561E-02  -0.6597629567E-03  -0.6297531368E-04   0.0000000000E+00   0.0000000000E+00   0.0000000000E+00   0.1423814575E+00
   0.2540633208E+00   0.1823844194E+00   0.7508055518E-04  -0.1171471631E-04   0.3003222207E-03  -0.4685886523E-04   0.1464374839E+00   0.5396465026E-03   0.4409313913E-01  -0.7284370691E-02   0.0000000000E+00   0.0000000000E+00   0.1330476482E-02  -0.5661954041E-03  -0.9469681898E-04   0.0000000000E+00   0.0000000000E+00   0.0000000000E+00   0.1303280285E+00
   0.2339357160E+00   0.1824135401E+00   0.6966939632E-04  -0.1264078109E-04   0.2786775853E-03  -0.5056312435E-04   0.1487539641E+00  -0.1546689749E-02   0.4416218229E-01  -0.7408542403E-02   0.0000000000E+00   0.0000000000E+00   0.1359693163E-02  -0.5942153366E-03  -0.9631105124E-04   0.0000000000E+00   0.0000000000E+00   0.0000000000E+00   0.1340597379E+00
   0.2516478169E+00   0.1519641796E+00   0.7697678851E-04  -0.8531081945E-05   0.3079071540E-03  -0.3412432778E-04   0.1344365957E+00   0.2034211939E-02   0.4094124230E-01  -0.1100709297E-01   0.0000000000E+00   0.0000000000E+00   0.1215439595E-02  -0.5057913948E-03  -0.1430922087E-03   0.0000000000E+00   0.0000000000E+00   0.0000000000E+00   0.1193903930E+00
   0.2348256296E+00   0.1494000610E+00   0.7312972711E-04  -0.8853209451E-05   0.2925189085E-03  -0.3541283780E-04   0.1340304391E+00  -0.1443498284E-02   0.3977608225E-01  -0.1237525682E-01   0.0000000000E+00   0.0000000000E+00   0.1225306639E-02  -0.5358545470E-03  -0.1608783387E-03   0.0000000000E+00   0.0000000000E+00   0.0000000000E+00   0.1221880709E+00
   0.2484253497E+00   0.1359529411E+00   0.7769774264E-04  -0.7046978892E-05   0.3107909706E-03  -0.2818791557E-04   0.1259986862E+00   0.2246762041E-02   0.3847363446E-01  -0.1292431368E-01   0.0000000000E+00   0.0000000000E+00   0.1137825672E-02  -0.4709493415E-03  -0.1680160778E-03   0.0000000000E+00   0.0000000000E+00   0.0000000000E+00   0.1124457727E+00
   0.7647407884E-01   0.1346337079E+00   0.2887862848E-04  -0.2722982892E-04   0.1155145139E-03  -0.1089193157E-03   0.1922429320E+00  -0.7656241380E-02   0.5537600718E-01   0.5909639831E-02   0.0000000000E+00   0.0000000000E+00   0.1779270022E-02  -0.8194192313E-03   0.7682531780E-04   0.0000000000E+00   0.0000000000E+00   0.0000000000E+00   0.1776580814E+00
   0.2143214879E+00   0.1822632295E+00   0.6430017819E-04  -0.1384230638E-04   0.2572007127E-03  -0.5536922550E-04   0.1510922989E+00  -0.3817787682E-02   0.4418235336E-01  -0.6561835257E-02   0.0000000000E+00   0.0000000000E+00   0.1389829292E-02  -0.6240018335E-03  -0.8530385834E-04   0.0000000000E+00   0.0000000000E+00   0.0000000000E+00   0.1378052734E+00
   0.2574203296E+00   0.5434466928E-01   0.8620592160E-04  -0.1502723491E-05   0.3448236864E-03  -0.6010893962E-05   0.8562761044E-01   0.1552598246E-01   0.3034607787E-01  -0.1139935549E-01   0.0000000000E+00   0.0000000000E+00   0.7186599235E-03  -0.1926612403E-03  -0.1481916213E-03   0.0000000000E+00   0.0000000000E+00   0.0000000000E+00   0.6700604251E-01
   0.2824146321E+00   0.9623443396E-01   0.8767582844E-04  -0.3452467152E-05   0.3507033138E-03  -0.1380986861E-04   0.1054503460E+00   0.1212296663E-01   0.3527199379E-01  -0.9907089549E-02   0.0000000000E+00   0.0000000000E+00   0.9123185787E-03  -0.3009373530E-03  -0.1287921641E-03   0.0000000000E+00   0.0000000000E+00   0.0000000000E+00   0.8590226533E-01
   0.1428229313E+00   0.7225529674E-01   0.6598425080E-04  -0.5217252584E-05   0.2639370032E-03  -0.2086901033E-04   0.8895286534E-01  -0.2524451972E-01   0.1911250368E-01  -0.3574131930E-01   0.0000000000E+00   0.0000000000E+00   0.9079247015E-03  -0.5766413043E-03  -0.4646371510E-03   0.0000000000E+00   0.0000000000E+00   0.0000000000E+00   0.1172170080E+00
   0.1248941977E+00   0.1648891359E+00   0.4019954422E-04  -0.2225162219E-04   0.1607981769E-03  -0.8900648878E-04   0.1669677728E+00  -0.1702571686E-01   0.4498261678E-01   0.6730086861E-02   0.0000000000E+00   0.0000000000E+00   0.1585807028E-02  -0.8061083373E-03   0.8749112919E-04   0.0000000000E+00   0.0000000000E+00   0.0000000000E+00   0.1625086877E+00
   0.2659391000E+00   0.1442265772E+00   0.8099339070E-04  -0.7385750085E-05   0.3239735628E-03  -0.2954300034E-04   0.1280755095E+00   0.3702068018E-02   0.3953327325E-01  -0.1032961463E-01   0.0000000000E+00   0.0000000000E+00   0.1151049071E-02  -0.4658056680E-03  -0.1342849902E-03   0.0000000000E+00   0.0000000000E+00   0.0000000000E+00   0.1123250228E+00
   0.2826965805E+00   0.1345591755E+00   0.8542649807E-04  -0.6212490076E-05   0.3417059923E-03  -0.2484996031E-04   0.1229756578E+00   0.6829113006E-02   0.3894143124E-01  -0.9051184976E-02   0.0000000000E+00   0.0000000000E+00   0.1092444945E-02  -0.4174601370E-03  -0.1176654047E-03   0.0000000000E+00   0.0000000000E+00   0.0000000000E+00   0.1050617265E+00
   0.2825538693E+00   0.1155191787E+00   0.8656145024E-04  -0.4730069929E-05   0.3462458009E-03  -0.1892027971E-04   0.1141014340E+00   0.9237390112E-02   0.3700164722E-01  -0.9686887179E-02   0.0000000000E+00   0.0000000000E+00   0.1002297228E-02  -0.3609353424E-03  -0.1259295333E-03   0.0000000000E+00   0.0000000000E+00   0.0000000000E+00   0.9558753423E-01
   0.2243486318E+00   0.1655829120E+00   0.6877135983E-04  -0.1118139800E-04   0.2750854393E-03  -0.4472559201E-04   0.1424451004E+00  -0.3205108927E-02   0.4177199744E-01  -0.9565906076E-02   0.0000000000E+00   0.0000000000E+00   0.1308750338E-02  -0.5847023828E-03  -0.1243567790E-03   0.0000000000E+00   0.0000000000E+00   0.0000000000E+00   0.1302242630E+00
   0.2438805622E+00   0.1659728324E+00   0.7378603568E-04  -0.1028712287E-04   0.2951441427E-03  -0.4114849149E-04   0.1404086299E+00  -0.6583070999E-03   0.4192509684E-01  -0.9557192199E-02   0.0000000000E+00   0.0000000000E+00   0.1280285930E-02  -0.5535842512E-03  -0.1242434986E-03   0.0000000000E+00   0.0000000000E+00   0.0000000000E+00   0.1264005797E+00
   0.1824516785E+00   0.1088553120E+00   0.6630689825E-04  -0.6921998310E-05   0.2652275930E-03  -0.2768799324E-04   0.1209154498E+00  -0.1344112433E-01   0.3224229765E-01  -0.2282790644E-01   0.0000000000E+00   0.0000000000E+00   0.1152750978E-02  -0.5938844857E-03  -0.2967627837E-03   0.0000000000E+00   0.0000000000E+00   0.0000000000E+00   0.1247103049E+00
   0.2059801114E+00   0.1120233617E+00   0.7106148492E-04  -0.6119867277E-05   0.2842459397E-03  -0.2447946911E-04   0.1180317927E+00  -0.5178444555E-02   0.3385600445E-01  -0.2006494895E-01   0.0000000000E+00   0.0000000000E+00   0.1094285247E-02  -0.5074478370E-03  -0.2608443364E-03   0.0000000000E+00   0.0000000000E+00   0.0000000000E+00   0.1144656115E+00
   0.1891519994E+00   0.1288470095E+00   0.6455128247E-04  -0.8924502956E-05   0.2582051299E-03  -0.3569801182E-04   0.1314411529E+00  -0.1170840704E-01   0.3591982375E-01  -0.1768189483E-01   0.0000000000E+00   0.0000000000E+00   0.1241777279E-02  -0.6191670002E-03  -0.2298646327E-03   0.0000000000E+00   0.0000000000E+00   0.0000000000E+00   0.1299184545E+00
   0.2651686364E+00   0.1642671035E+00   0.7930387870E-04  -0.9367702802E-05   0.3172155148E-03  -0.3747081121E-04   0.1379729345E+00   0.2214375033E-02   0.4205619286E-01  -0.8599286340E-02   0.0000000000E+00   0.0000000000E+00   0.1246917641E-02  -0.5179436318E-03  -0.1117907224E-03   0.0000000000E+00   0.0000000000E+00   0.0000000000E+00   0.1217846973E+00
   0.1940198536E+00   0.9045564652E-01   0.7186232587E-04  -0.4468315220E-05   0.2874493035E-03  -0.1787326088E-04   0.1052757149E+00  -0.5321905742E-02   0.2998614274E-01  -0.2478788777E-01   0.0000000000E+00   0.0000000000E+00   0.9787644379E-03  -0.4590046303E-03  -0.3222425410E-03   0.0000000000E+00   0.0000000000E+00   0.0000000000E+00   0.1068556062E+00
   0.1352334725E+00   0.1460917083E+00   0.4642809209E-04  -0.1740574678E-04   0.1857123684E-03  -0.6962298710E-04   0.1614377253E+00  -0.2187853498E-01   0.4186775711E-01  -0.3295405296E-02   0.0000000000E+00   0.0000000000E+00   0.1554409587E-02  -0.8287017972E-03  -0.4284026885E-04   0.0000000000E+00   0.0000000000E+00   0.0000000000E+00   0.1611997550E+00
   0.1852965266E+00   0.1647774183E+00   0.5829152026E-04  -0.1398214185E-04   0.2331660810E-03  -0.5592856740E-04   0.1501568851E+00  -0.1033196344E-01   0.4194747649E-01  -0.7014112294E-02   0.0000000000E+00   0.0000000000E+00   0.1406722312E-02  -0.6796327192E-03  -0.9118345983E-04   0.0000000000E+00   0.0000000000E+00   0.0000000000E+00   0.1422524223E+00
   0.1961586974E+00   0.1477543477E+00   0.6354247705E-04  -0.1083186603E-04   0.2541699082E-03  -0.4332746412E-04   0.1407263363E+00  -0.9397586601E-02   0.3939862491E-01  -0.1263761397E-01   0.0000000000E+00   0.0000000000E+00   0.1317260248E-02  -0.6343507497E-03  -0.1642889816E-03   0.0000000000E+00   0.0000000000E+00   0.0000000000E+00   0.1344156058E+00
   0.1764380475E+00   0.1462764210E+00   0.5845409821E-04  -0.1227719457E-04   0.2338163928E-03  -0.4910877827E-04   0.1447308488E+00  -0.1493453569E-01   0.3893889393E-01  -0.1128193524E-01   0.0000000000E+00   0.0000000000E+00   0.1375295413E-02  -0.7003545851E-03  -0.1466651581E-03   0.0000000000E+00   0.0000000000E+00   0.0000000000E+00   0.1419938371E+00
   0.9356207697E-01   0.1193360108E+00   0.3862141379E-04  -0.2061383980E-04   0.1544856552E-03  -0.8245535920E-04   0.1769823034E+00  -0.2411123788E-01   0.4586131967E-01  -0.9964040733E-02   0.0000000000E+00   0.0000000000E+00   0.1704572789E-02  -0.9096432481E-03  -0.1295325295E-03   0.0000000000E+00   0.0000000000E+00   0.0000000000E+00   0.1776260037E+00
   0.2048579683E+00   0.1651726401E+00   0.6363545411E-04  -0.1239698249E-04   0.2545418164E-03  -0.4958792997E-04   0.1462529808E+00  -0.6226770593E-02   0.4200786305E-01  -0.9063673128E-02   0.0000000000E+00   0.0000000000E+00   0.1355186530E-02  -0.6270502374E-03  -0.1178277507E-03   0.0000000000E+00   0.0000000000E+00   0.0000000000E+00   0.1358890219E+00
   0.2652137917E+00   0.1253916294E+00   0.8230293932E-04  -0.5731520663E-05   0.3292117573E-03  -0.2292608265E-04   0.1191269033E+00   0.5213802264E-02   0.3730221166E-01  -0.1167771539E-01   0.0000000000E+00   0.0000000000E+00   0.1063720991E-02  -0.4171493221E-03  -0.1518103001E-03   0.0000000000E+00   0.0000000000E+00   0.0000000000E+00   0.1037332420E+00
   0.2469915088E+00   0.1160862654E+00   0.7927895943E-04  -0.5294710601E-05   0.3171158377E-03  -0.2117884241E-04   0.1165743884E+00   0.4094861889E-02   0.3620077509E-01  -0.1440153122E-01   0.0000000000E+00   0.0000000000E+00   0.1044856973E-02  -0.4173768716E-03  -0.1872199059E-03   0.0000000000E+00   0.0000000000E+00   0.0000000000E+00   0.1034271501E+00
   0.2266490877E+00   0.1285507311E+00   0.7352473290E-04  -0.6998985108E-05   0.2940989316E-03  -0.2799594043E-04   0.1239900088E+00  -0.2106321305E-02   0.3656510625E-01  -0.1545523260E-01   0.0000000000E+00   0.0000000000E+00   0.1136523733E-02  -0.5027285582E-03  -0.2009180238E-03   0.0000000000E+00   0.0000000000E+00   0.0000000000E+00   0.1150469817E+00
   0.1261802071E+00   0.1248547621E+00   0.4783381875E-04  -0.1524317565E-04   0.1913352750E-03  -0.6097270258E-04   0.1574345838E+00  -0.2909035872E-01   0.3850326751E-01  -0.1327566490E-01   0.0000000000E+00   0.0000000000E+00   0.1546107111E-02  -0.8787171411E-03  -0.1725836438E-03   0.0000000000E+00   0.0000000000E+00   0.0000000000E+00   0.1650980547E+00
   0.1078364653E+00   0.1273642102E+00   0.4137965587E-04  -0.1898875257E-04   0.1655186235E-03  -0.7595501030E-04   0.1733683131E+00  -0.2567391463E-01   0.4430831956E-01  -0.6543489311E-02   0.0000000000E+00   0.0000000000E+00   0.1677779917E-02  -0.9097690444E-03  -0.8506536104E-04   0.0000000000E+00   0.0000000000E+00   0.0000000000E+00   0.1752873239E+00
   0.1110749909E+00   0.1107946099E+00   0.4680738592E-04  -0.1532161133E-04   0.1872295437E-03  -0.6128644531E-04   0.1539320250E+00  -0.3217150110E-01   0.3652815718E-01  -0.1844182441E-01   0.0000000000E+00   0.0000000000E+00   0.1526250282E-02  -0.8930955576E-03  -0.2397437173E-03   0.0000000000E+00   0.0000000000E+00   0.0000000000E+00   0.1658409733E+00
   0.9616100798E-01   0.1357745139E+00   0.3558995526E-04  -0.2295261923E-04   0.1423598210E-03  -0.9181047691E-04   0.1814257161E+00  -0.1952957048E-01   0.4856884369E-01   0.3037705082E-02   0.0000000000E+00   0.0000000000E+00   0.1727139342E-02  -0.8852793842E-03   0.3949016606E-04   0.0000000000E+00   0.0000000000E+00   0.0000000000E+00   0.1770371178E+00
   0.2292033283E+00   0.1048886875E+00   0.7681845799E-04  -0.4761891542E-05   0.3072738320E-03  -0.1904756617E-04   0.1107723376E+00   0.2080321230E-02   0.3385579766E-01  -0.1761870635E-01   0.0000000000E+00   0.0000000000E+00   0.9999150198E-03  -0.4130811936E-03  -0.2290431825E-03   0.0000000000E+00   0.0000000000E+00   0.0000000000E+00   0.1014588478E+00
   0.1560517143E+00   0.1460302076E+00   0.5271806216E-04  -0.1450088103E-04   0.2108722486E-03  -0.5800352412E-04   0.1535225444E+00  -0.1827500691E-01   0.4057426125E-01  -0.8182557178E-02   0.0000000000E+00   0.0000000000E+00   0.1468327681E-02  -0.7650404862E-03  -0.1063732433E-03   0.0000000000E+00   0.0000000000E+00   0.0000000000E+00   0.1517701555E+00
   0.2066033589E+00   0.1330961071E+00   0.6819878842E-04  -0.8432371108E-05   0.2727951537E-03  -0.3372948443E-04   0.1316521512E+00  -0.7239596483E-02   0.3732376642E-01  -0.1650890749E-01   0.0000000000E+00   0.0000000000E+00   0.1226269002E-02  -0.5793237177E-03  -0.2146157973E-03   0.0000000000E+00   0.0000000000E+00   0.0000000000E+00   0.1260605988E+00
   0.2153311925E+00   0.1483113931E+00   0.6842529390E-04  -0.9691376414E-05   0.2737011756E-03  -0.3876550566E-04   0.1377047867E+00  -0.3808683021E-02   0.4016883110E-01  -0.1221473606E-01   0.0000000000E+00   0.0000000000E+00   0.1267967423E-02  -0.5717076835E-03  -0.1587915688E-03   0.0000000000E+00   0.0000000000E+00   0.0000000000E+00   0.1271644329E+00
   0.1467185811E+00   0.1280822325E+00   0.5329341505E-04  -0.1285929642E-04   0.2131736602E-03  -0.5143718568E-04   0.1481161905E+00  -0.2343845789E-01   0.3740331978E-01  -0.1467588850E-01   0.0000000000E+00   0.0000000000E+00   0.1439267319E-02  -0.7909431097E-03  -0.1907865505E-03   0.0000000000E+00   0.0000000000E+00   0.0000000000E+00   0.1527412462E+00
   0.1672106353E+00   0.1253248414E+00   0.5951766449E-04  -0.1020212695E-04   0.2380706579E-03  -0.4080850782E-04   0.1389100898E+00  -0.1752471009E-01   0.3641561392E-01  -0.1754266393E-01   0.0000000000E+00   0.0000000000E+00   0.1332428187E-02  -0.7012242121E-03  -0.2280546310E-03   0.0000000000E+00   0.0000000000E+00   0.0000000000E+00   0.1409144518E+00
   0.1494385584E+00   0.9405245454E-01   0.6173808214E-04  -0.7357051614E-05   0.2469523286E-03  -0.2942820646E-04   0.1168172385E+00  -0.2481235708E-01   0.2760146442E-01  -0.3007752874E-01   0.0000000000E+00   0.0000000000E+00   0.1159805063E-02  -0.6813796796E-03  -0.3910078736E-03   0.0000000000E+00   0.0000000000E+00   0.0000000000E+00   0.1346666125E+00
   0.1540803671E+00   0.1132113088E+00   0.5846741680E-04  -0.9756240121E-05   0.2338696672E-03  -0.3902496048E-04   0.1346593108E+00  -0.2555893007E-01   0.3273011421E-01  -0.2350208543E-01   0.0000000000E+00   0.0000000000E+00   0.1325079555E-02  -0.7577575756E-03  -0.3055271106E-03   0.0000000000E+00   0.0000000000E+00   0.0000000000E+00   0.1461615374E+00
   0.1652141620E+00   0.1063524501E+00   0.6271819546E-04  -0.7833180590E-05   0.2508727818E-03  -0.3133272236E-04   0.1210924957E+00  -0.2034432847E-01   0.3022445018E-01  -0.2443467920E-01   0.0000000000E+00   0.0000000000E+00   0.1181284592E-02  -0.6573941225E-03  -0.3176508296E-03   0.0000000000E+00   0.0000000000E+00   0.0000000000E+00   0.1309710063E+00
   0.1410037424E+00   0.1126556106E+00   0.5509548119E-04  -0.1112807777E-04   0.2203819247E-03  -0.4451231109E-04   0.1438574556E+00  -0.2635947904E-01   0.3524939297E-01  -0.2076095036E-01   0.0000000000E+00   0.0000000000E+00   0.1411904814E-02  -0.8009153360E-03  -0.2698923547E-03   0.0000000000E+00   0.0000000000E+00   0.0000000000E+00   0.1530788430E+00
           1           2           3           3
           4           5           6           6
           7           8           9           9
          10          11          12          12
          13           7          14          14
          15          16          17          17
          18          19          10          10
          20          21          22          22
          23          24           2           2
          25          23           2           2
          26           3          27          27
          28          29          30          30
          31          32          33          33
          34          31          25          25
          35          36          20          20
          26          27           8           8
          37          15          17          17
          38          39          40          40
          41          40          42          42
          43          44          45          45
          46          47          41          41
          48          49          50          50
          51          52          53          53
          54          55          56          56
          57          58          59          59
          60          61          62          62
          63          64          57          57
          62          13          65          65
          66          67          68          68
          69          66          70          70
          71          72          73          73
          74          75          76          76
          75          77          78          78
          77          79          78          78
          80          53          48          48
          81          82          83          83
          45          84          85          85
          44          86          45          45
          87          88          44          44
          41          42          87          87
          36          89          21          21
          20          36          21          21
          35          30          90          90
          91           1          26          26
          92          93          30          30
           6          94          92          92
          95          96           4           4
          12          97          95          95
          98          12          95          95
          99         100          10          10
         101         102          99          99
         103         104         101         101
         105         106         103         103
         107         108         105         105
         109         110         107         107
         111         112         109         109
          69          70         111         111
           8          27           9           9
           7           9          14          14
          13          14          65          65
         113         114         115         115
          59          58         116         116
          51         116          52          52
          62          65          15          15
         117         118         119         119
         120         121         122         122
         122         123         124         124
          31          33          25          25
          25          33          23          23
          28          20         120         120
         124          32          31          31
         125         124         126         126
         124         123          32          32
         127         120         122         122
         122         121         123         123
         120          20          22          22
         120          22         121         121
          91         128          34          34
         129           4           6           6
          37          17         130         130
         131         132          63          63
          53          52          49          49
          85         133          83          83
          83         134         135         135
          51          59         116         116
          57          64          58          58
          19          99          10          10
         136          63         137         137
          63         132          64          64
         138          60          37          37
         131         130         132         132
          37          62          15          15
          37         130         131         131
         135         134          79          79
         139         103         101         101
          56          55          82          82
          83         133         134         134
          55          45          85          85
          85          84         133         133
         140          46         141         141
          45          86          84          84
         142          44          43          43
          44          88          86          86
          46          87         142         142
          87          42          88          88
          47          38          41          41
          41          38          40          40
         143          29         144         144
          30          93          90          90
         145          92          29          29
          92          94          93          93
         146         147         129         129
           6           5          94          94
         148         149         150         150
           4          96           5           5
         151           7         152         152
          95          97          96          96
          18          12          98          98
          12          11          97          97
         153         139         101         101
          10         100          11          11
         153          99          19          19
          99         102         100         100
         154          51         155         155
         101         104         102         102
         156          71          73          73
         103         106         104         104
         157         103         139         139
         105         108         106         106
          74          76         158         158
         107         110         108         108
          76          75         159         159
         109         112         110         110
         160         109          72          72
         111          70         112         112
         161          67          69          69
          69          67          66          66
         126         124          31          31
         128         162         126         126
         144          28         127         127
         125         127         122         122
         125         122         124         124
         143         146         145         145
          77         135          79          79
          75          78         159         159
          82          85          83          83
         163         164         165         165
          76         159         166         166
         167         168          74          74
          81          83         135         135
         169          56          82          82
          55          43          45          45
          55          85          82          82
         170         141         171         171
         142          87          44          44
         161          76         166         166
         158          69         111         111
         172         135          77          77
         173         139         174         174
         161         166          67          67
         158         161          69          69
          72         109         107         107
         175         107         105         105
         176          95           4           4
         152           7          13          13
         145           6          92          92
         114         177         178         178
          18          10          12          12
         154          59          51          51
         153         101          99          99
         179         137          57          57
         114         180         181         181
         181         182          19          19
         183         179         184         184
         174         153         182         182
         173         185         157         157
         157         105         103         103
          29          92          30          30
         186         127         125         125
          35          90          36          36
          28          35          20          20
         186         144         127         127
         145         129           6           6
         176          98          95          95
         176           4         129         129
         175          72         107         107
         175         105         157         157
          74         187          75          75
         160         111         109         109
           1          25           2           2
           1           3          26          26
          48          53          49          49
         188          48          50          50
         188          50         189         189
          47         188         189         189
         155          51          53          53
         190         164         191         191
         137          63          57          57
         179          57          59          59
         154         179          59          59
         183         192         137         137
         193         194         195         195
         196         184         154         154
          60          62          37          37
         136         131          63          63
          47         189          38          38
          46          41          87          87
          28          30          35          35
          28         120         127         127
         141          46         142         142
          46         188          47          47
         197          26           8           8
         151           8           7           7
         178         198         199         199
          61         152          13          13
          61          13          62          62
         200         136         192         192
         198         176         147         147
         151         197           8           8
          34         126          31          31
          34          25           1           1
         158          76         161         161
         158         111         160         160
         144          29          28          28
         162         125         126         126
         162         186         125         125
         201         162         128         128
         128         126          34          34
         202         203         204         204
         140         188          46          46
         171         142          43          43
          91          34           1           1
         205         199         147         147
         168         206         187         187
         187          77          75          75
         167         158         160         160
         207         208         206         206
         169          82          81          81
         195         209         184         184
         210          81         172         172
         173         157         139         139
         190         170         211         211
          54          43          55          55
         171         141         142         142
         171          43          54          54
         172          81         135         135
         172          77         187         187
         182         153          19          19
         181          19          18          18
         147         176         129         129
         146         129         145         145
         177          18          98          98
         212         213         214         214
         143         145          29          29
         204         203         143         143
          73          72         175         175
         185         175         157         157
         215         182         180         180
         174         139         153         153
         216         185         217         217
         185          73         175         175
         198          98         176         176
         199         198         147         147
         167          71         168         168
          71         160          72          72
         177         181          18          18
         177          98         198         198
         215         174         182         182
         218         219         220         220
         143         144         186         186
         202         204         201         201
          91          26         197         197
         221          91         197         197
          80         155          53          53
         140          80          48          48
         184         179         154         154
         196         154         155         155
         192         136         137         137
         183         137         179         179
         215         222         174         174
         209         118         183         183
         223         155          80          80
         224          54          56          56
         138          37         131         131
         138         200          60          60
         140          48         188         188
         170         140         141         141
         170          80         140         140
         211          54         224         224
         225          61         200         200
         200          61          60          60
         221         128          91          91
         149         226         199         199
         227         228         208         208
         206         172         187         187
         229          56         169         169
         229         224          56          56
         211         170         171         171
         211         171          54          54
         168         187          74          74
         156         168          71          71
         228         169         210         210
         217         185         173         173
         210         169          81          81
         210         172         206         206
         167          74         158         158
         167         160          71          71
         222         173         174         174
         230         231         217         217
         205         147         146         146
         226         178         199         199
         232         233         234         234
         178         177         198         198
         235         156         216         216
         216          73         185         185
         207         168         156         156
         156          73         216         216
         180         182         181         181
         114         181         177         177
         203         205         146         146
         150         202         201         201
         194         236         209         209
         222         217         173         173
         115         178         226         226
         237         115         226         226
         203         146         143         143
         204         143         186         186
         238         180         113         113
         239         238         240         240
         221         201         128         128
         241         197         151         151
         223         196         155         155
         223          80         170         170
         118         192         183         183
         209         183         184         184
         195         184         196         196
         242         215         238         238
         191         196         223         223
         165         164         224         224
         204         186         162         162
         204         162         201         201
         227         208         235         235
         208         210         206         206
         164         211         224         224
         165         224         229         229
         243         229         228         228
         244         220         245         245
         207         206         168         168
         235         207         156         156
         149         199         205         205
         246         148         247         247
         231         216         217         217
         230         217         222         222
         138         131         136         136
         138         136         200         200
         235         208         207         207
         235         216         231         231
         213         248         214         214
         115         114         178         178
         202         149         205         205
         249         221         241         241
         242         222         215         215
         250         244         245         245
         202         205         203         203
         150         201         221         221
         251         115         237         237
         113         180         114         114
         240         113         251         251
         238         215         180         180
         252         233         245         245
         242         230         222         222
         228         229         169         169
         228         210         208         208
         191         195         196         196
         190         191         223         223
         236         118         209         209
         194         209         195         195
         193         195         191         191
         253         219         230         230
         190         223         170         170
         190         211         164         164
         241         221         197         197
         150         149         202         202
         248         241         151         151
         249         148         150         150
         218         235         231         231
         218         220         227         227
         148         237         226         226
         254         251         237         237
         148         226         149         149
         246         247         248         248
         219         231         230         230
         253         230         242         242
         255         251         254         254
         251         113         115         115
         239         242         238         238
         252         245         253         253
         234         252         239         239
         240         238         113         113
         234         240         255         255
         239         253         242         242
         243         165         229         229
         243         228         227         227
         163         191         164         164
         244         243         220         220
         225         212          61          61
         119         118         236         236
         249         150         221         221
         247         249         241         241
         233         236         194         194
         250         245         233         233
         214         151         152         152
         256         213         212         212
         247         148         249         249
         247         241         248         248
         220         243         227         227
         245         220         219         219
         213         246         248         248
         246         237         148         148
         257         255         254         254
         254         237         246         246
         245         219         253         253
         250         233         194         194
         163         244         250         250
         244         165         243         243
         232         234         255         255
         255         240         251         251
         252         253         239         239
         234         239         240         240
         258         255         257         257
         234         233         252         252
         232         119         236         236
         232         236         233         233
         250         194         193         193
         163         250         193         193
         117         200         192         192
         117         192         118         118
         218         227         235         235
         218         231         219         219
         214         248         151         151
         212         214         152         152
         259         256         257         257
         259         246         213         213
         212         152          61          61
         225         256         212         212
         258         257         256         256
         259         257         254         254
         163         193         191         191
         163         165         244         244
         256         117         119         119
         258         256         119         119
         259         254         246         246
         259         213         256         256
         258         119         232         232
         258         232         255         255
         225         200         117         117
         225         117         256         256
 VARIABLES = X,Y,DU1,DU2,U1,U2,S11,S22,S33,S12,S13,S23,E11,E22,E12,E33,E13,E23,SMISES
 ZONE, T="0.6000D+01" F=FEPOINT, I=  259 J=  457
   0.3717291067E-01   0.1122383168E+00   0.1941201151E-04  -0.3282987469E-04   0.9706005757E-04  -0.1641493734E-03   0.3161927510E+00   0.3342353285E-01   0.1048848851E+00  -0.3606292401E-01   0.0000000000E+00   0.0000000000E+00   0.2747002256E-02  -0.9289975798E-03  -0.4688180122E-03   0.0000000000E+00   0.0000000000E+00   0.0000000000E+00   0.2616563156E+00
   0.1959716647E-01   0.9788454350E-01   0.1468901177E-04  -0.3233051595E-04   0.7344505883E-04  -0.1616525798E-03   0.4234987655E+00   0.4366493848E-01   0.1401491112E+00  -0.4905717205E-01   0.0000000000E+00   0.0000000000E+00   0.3683545506E-02  -0.1254294245E-02  -0.6377432366E-03   0.0000000000E+00   0.0000000000E+00   0.0000000000E+00   0.3520066494E+00
   0.3844287298E-01   0.9221249822E-01   0.2908839679E-04  -0.2924228052E-04   0.1454419840E-03  -0.1462114026E-03   0.3927811379E+00   0.6787994025E-01   0.1381983235E+00  -0.1009181476E+00   0.0000000000E+00   0.0000000000E+00   0.3309576588E-02  -0.9141389817E-03  -0.1311935919E-02   0.0000000000E+00   0.0000000000E+00   0.0000000000E+00   0.3414633560E+00
   0.1070685036E+00   0.2329098098E+00   0.2644377234E-04  -0.3516485853E-04   0.1322188617E-03  -0.1758242926E-03   0.1888852152E+00  -0.1241666566E-02   0.5629306459E-01   0.9631542038E-02   0.0000000000E+00   0.0000000000E+00   0.1723697958E-02  -0.7479515051E-03   0.1252100465E-03   0.0000000000E+00   0.0000000000E+00   0.0000000000E+00   0.1697645707E+00
   0.9734937904E-01   0.2497664416E+00   0.2119252365E-04  -0.3892640651E-04   0.1059626183E-03  -0.1946320326E-03   0.1802973302E+00  -0.4833595556E-03   0.5394419120E-01   0.4574278289E-02   0.0000000000E+00   0.0000000000E+00   0.1642590807E-02  -0.7075581599E-03   0.5946561775E-04   0.0000000000E+00   0.0000000000E+00   0.0000000000E+00   0.1606945446E+00
   0.8749507952E-01   0.2327941141E+00   0.2098553643E-04  -0.3866714709E-04   0.1049276821E-03  -0.1933357355E-03   0.1793700672E+00  -0.5812374973E-03   0.5363664891E-01   0.1103291084E-01   0.0000000000E+00   0.0000000000E+00   0.1634534438E-02  -0.7048325233E-03   0.1434278409E-03   0.0000000000E+00   0.0000000000E+00   0.0000000000E+00   0.1611132409E+00
   0.8906503066E-01   0.7371882235E-01   0.5497542748E-04  -0.1458594200E-04   0.2748771374E-03  -0.7292971000E-04   0.1142521789E+00  -0.1514091746E-01   0.2973337844E-01  -0.4357051963E-01   0.0000000000E+00   0.0000000000E+00   0.1098744406E-02  -0.5833658466E-03  -0.5664167552E-03   0.0000000000E+00   0.0000000000E+00   0.0000000000E+00   0.1370469135E+00
   0.7355437811E-01   0.8901970072E-01   0.4355673570E-04  -0.2084923025E-04   0.2177836785E-03  -0.1042461513E-03   0.1802611188E+00   0.5687048445E-02   0.5578445017E-01  -0.5463272921E-01   0.0000000000E+00   0.0000000000E+00   0.1618196692E-02  -0.6512662224E-03  -0.7102254798E-03   0.0000000000E+00   0.0000000000E+00   0.0000000000E+00   0.1846450141E+00
   0.7103510835E-01   0.7058652750E-01   0.5407115790E-04  -0.2069231709E-04   0.2703557895E-03  -0.1034615855E-03   0.1156900824E+00   0.3623610906E-01   0.4557785745E-01  -0.6101215455E-01   0.0000000000E+00   0.0000000000E+00   0.9114589249E-03  -0.1214427291E-03  -0.7931580092E-03   0.0000000000E+00   0.0000000000E+00   0.0000000000E+00   0.1239205312E+00
   0.1655380578E+00   0.2329528965E+00   0.4411246148E-04  -0.2566909036E-04   0.2205623074E-03  -0.1283454518E-03   0.2054556982E+00  -0.1630436598E-02   0.6114757849E-01   0.2530579742E-02   0.0000000000E+00   0.0000000000E+00   0.1876005557E-02  -0.8161141962E-03   0.3289753664E-04   0.0000000000E+00   0.0000000000E+00   0.0000000000E+00   0.1839701614E+00
   0.1557883617E+00   0.2498239268E+00   0.3880011876E-04  -0.2934553547E-04   0.1940005938E-03  -0.1467276773E-03   0.2122342172E+00  -0.2798503989E-03   0.6358631005E-01   0.1629618237E-02   0.0000000000E+00   0.0000000000E+00   0.1932422793E-02  -0.8302600858E-03   0.2118503707E-04   0.0000000000E+00   0.0000000000E+00   0.0000000000E+00   0.1888635835E+00
   0.1460546317E+00   0.2329473263E+00   0.3807095796E-04  -0.2851478869E-04   0.1903547898E-03  -0.1425739435E-03   0.2022935021E+00  -0.1770172597E-02   0.6015699885E-01   0.4988837975E-02   0.0000000000E+00   0.0000000000E+00   0.1847774542E-02  -0.8050532288E-03   0.6485489367E-04   0.0000000000E+00   0.0000000000E+00   0.0000000000E+00   0.1814371033E+00
   0.1022033872E+00   0.5677798901E-01   0.6457102540E-04  -0.9188814991E-05   0.3228551270E-03  -0.4594407496E-04   0.6571064456E-01  -0.3598031145E-01   0.8919099932E-02  -0.3267610984E-01   0.0000000000E+00   0.0000000000E+00   0.7382900801E-03  -0.5836923480E-03  -0.4247894279E-03   0.0000000000E+00   0.0000000000E+00   0.0000000000E+00   0.1048214230E+00
   0.8352768350E-01   0.5546431075E-01   0.6345400012E-04  -0.1545215750E-04   0.3172700006E-03  -0.7726078750E-04   0.3318011929E-01  -0.3004715289E-01   0.9398899193E-03  -0.1500146830E-01   0.0000000000E+00   0.0000000000E+00   0.4191229818E-03  -0.4028315565E-03  -0.1950190879E-03   0.0000000000E+00   0.0000000000E+00   0.0000000000E+00   0.6565636082E-01
   0.9852756852E-01   0.1948023600E-01   0.7484032045E-04  -0.4799400208E-05   0.3742016022E-03  -0.2399700104E-04  -0.7518476569E-02  -0.1164360645E+00  -0.3718636232E-01   0.4456129411E-02   0.0000000000E+00   0.0000000000E+00   0.3856825148E-03  -0.1030246128E-02   0.5792968235E-04   0.0000000000E+00   0.0000000000E+00   0.0000000000E+00   0.9884512984E-01
   0.1004514338E+00   0.0000000000E+00   0.7523880562E-04   0.0000000000E+00   0.3761940281E-03   0.0000000000E+00   0.1174327560E-01  -0.2177552642E+00  -0.6180359659E-01  -0.7350249750E-02   0.0000000000E+00   0.0000000000E+00   0.9561093385E-03  -0.2027371679E-02  -0.9555324675E-04   0.0000000000E+00   0.0000000000E+00   0.0000000000E+00   0.2009144227E+00
   0.1212983469E+00   0.0000000000E+00   0.7750281467E-04   0.0000000000E+00   0.3875140734E-03   0.0000000000E+00  -0.5500479055E-02  -0.9238259883E-01  -0.2936492337E-01   0.1269884231E-02   0.0000000000E+00   0.0000000000E+00   0.3102377760E-03  -0.8192297811E-03   0.1650849500E-04   0.0000000000E+00   0.0000000000E+00   0.0000000000E+00   0.8060218092E-01
   0.1557949807E+00   0.2160466717E+00   0.4318394341E-04  -0.2474904393E-04   0.2159197171E-03  -0.1237452196E-03   0.1993438608E+00  -0.4644955011E-02   0.5840967173E-01   0.5949160754E-02   0.0000000000E+00   0.0000000000E+00   0.1832144458E-02  -0.8197101477E-03   0.7733908980E-04   0.0000000000E+00   0.0000000000E+00   0.0000000000E+00   0.1811738400E+00
   0.1752870263E+00   0.2160462423E+00   0.4912721475E-04  -0.2210861187E-04   0.2456360738E-03  -0.1105430593E-03   0.1994254719E+00  -0.3882365263E-02   0.5866293201E-01   0.1921432033E-02   0.0000000000E+00   0.0000000000E+00   0.1829913019E-02  -0.8130888645E-03   0.2497861643E-04   0.0000000000E+00   0.0000000000E+00   0.0000000000E+00   0.1803829874E+00
   0.1754282956E-01   0.2242548331E+00   0.4126342857E-05  -0.4690115214E-04   0.2063171429E-04  -0.2345057607E-03   0.1622749608E+00   0.4963401731E-02   0.5017150876E-01   0.4422296488E-02   0.0000000000E+00   0.0000000000E+00   0.1457344876E-02  -0.5877053913E-03   0.5748985434E-04   0.0000000000E+00   0.0000000000E+00   0.0000000000E+00   0.1407290810E+00
   0.0000000000E+00   0.2309618007E+00   0.0000000000E+00  -0.4803372350E-04   0.0000000000E+00  -0.2401686175E-03   0.1417600525E+00   0.4018517904E-02   0.4373357113E-01   0.1022454251E-02   0.0000000000E+00   0.0000000000E+00   0.1274344258E-02  -0.5162956920E-03   0.1329190526E-04   0.0000000000E+00   0.0000000000E+00   0.0000000000E+00   0.1229073100E+00
   0.0000000000E+00   0.2122223358E+00   0.0000000000E+00  -0.4627835925E-04   0.0000000000E+00  -0.2313917962E-03   0.1693999951E+00   0.9579228694E-02   0.5369376713E-01   0.5088185352E-02   0.0000000000E+00   0.0000000000E+00   0.1504180963E-02  -0.5734889996E-03   0.6614640958E-04   0.0000000000E+00   0.0000000000E+00   0.0000000000E+00   0.1431819047E+00
   0.0000000000E+00   0.1185271587E+00   0.0000000000E+00  -0.3714004802E-04   0.0000000000E+00  -0.1857002401E-03   0.4017972398E+00   0.4214229055E-01   0.1331818591E+00  -0.1147705170E-01   0.0000000000E+00   0.0000000000E+00   0.3491999949E-02  -0.1183514391E-02  -0.1492016721E-03   0.0000000000E+00   0.0000000000E+00   0.0000000000E+00   0.3268535385E+00
   0.0000000000E+00   0.9981100325E-01   0.0000000000E+00  -0.3149962457E-04   0.0000000000E+00  -0.1574981229E-03   0.5953680177E+00  -0.7585912489E-02   0.1763346316E+00  -0.3064533776E-02   0.0000000000E+00   0.0000000000E+00   0.5447434020E-02  -0.2390967073E-02  -0.3983893909E-04   0.0000000000E+00   0.0000000000E+00   0.0000000000E+00   0.5303292521E+00
   0.1828540006E-01   0.1243510976E+00   0.8175276058E-05  -0.3684340132E-04   0.4087638029E-04  -0.1842170066E-03   0.2929611251E+00   0.4154336510E-01   0.1003513471E+00  -0.1216101655E-01   0.0000000000E+00   0.0000000000E+00   0.2503927114E-02  -0.7645037653E-03  -0.1580932152E-03   0.0000000000E+00   0.0000000000E+00   0.0000000000E+00   0.2295798055E+00
   0.5577347145E-01   0.1016377931E+00   0.3139192580E-04  -0.2726465151E-04   0.1569596290E-03  -0.1363232575E-03   0.2472608543E+00   0.1454966173E-01   0.7854315480E-01  -0.5233709030E-01   0.0000000000E+00   0.0000000000E+00   0.2193330093E-02  -0.8319154099E-03  -0.6803821739E-03   0.0000000000E+00   0.0000000000E+00   0.0000000000E+00   0.2285976390E+00
   0.5581193796E-01   0.8299448152E-01   0.4248571004E-04  -0.2541299733E-04   0.2124285502E-03  -0.1270649866E-03   0.2450147280E+00   0.6986825027E-01   0.9446489349E-01  -0.1012365796E+00   0.0000000000E+00   0.0000000000E+00   0.1957147849E-02  -0.3197563619E-03  -0.1316075535E-02   0.0000000000E+00   0.0000000000E+00   0.0000000000E+00   0.2339604546E+00
   0.3657012471E-01   0.2151487001E+00   0.9197800863E-05  -0.4450264583E-04   0.4598900431E-04  -0.2225132292E-03   0.1718351130E+00   0.6112741172E-02   0.5338435626E-01   0.1387497539E-01   0.0000000000E+00   0.0000000000E+00   0.1539859838E-02  -0.6145309962E-03   0.1803746801E-03   0.0000000000E+00   0.0000000000E+00   0.0000000000E+00   0.1498101766E+00
   0.5769852667E-01   0.2156349041E+00   0.1468032773E-04  -0.4170714757E-04   0.7340163865E-04  -0.2085357378E-03   0.1766813525E+00   0.1848820689E-02   0.5355905196E-01   0.1800197361E-01   0.0000000000E+00   0.0000000000E+00   0.1600589907E-02  -0.6722330065E-03   0.2340256570E-03   0.0000000000E+00   0.0000000000E+00   0.0000000000E+00   0.1585592991E+00
   0.4858443775E-01   0.2328177381E+00   0.1102542486E-04  -0.4482782298E-04   0.5512712429E-04  -0.2241391149E-03   0.1608225246E+00   0.2657855545E-02   0.4904411403E-01   0.1061813019E-01   0.0000000000E+00   0.0000000000E+00   0.1453119337E-02  -0.6030213603E-03   0.1380356925E-03   0.0000000000E+00   0.0000000000E+00   0.0000000000E+00   0.1421383901E+00
   0.1747855304E-01   0.1454189757E+00   0.6212139837E-05  -0.3933338926E-04   0.3106069918E-04  -0.1966669463E-03   0.2524474751E+00   0.3903080970E-01   0.8744348544E-01   0.5847869300E-02   0.0000000000E+00   0.0000000000E+00   0.2145051865E-02  -0.6293647845E-03   0.7602230090E-04   0.0000000000E+00   0.0000000000E+00   0.0000000000E+00   0.1941198804E+00
   0.0000000000E+00   0.1560030842E+00   0.0000000000E+00  -0.4115263408E-04   0.0000000000E+00  -0.2057631704E-03   0.2365445167E+00   0.4409255880E-01   0.8419112266E-01   0.6153772273E-02   0.0000000000E+00   0.0000000000E+00   0.1980594123E-02  -0.5212813302E-03   0.7999903955E-04   0.0000000000E+00   0.0000000000E+00   0.0000000000E+00   0.1766031068E+00
   0.0000000000E+00   0.1372633013E+00   0.0000000000E+00  -0.3945028195E-04   0.0000000000E+00  -0.1972514098E-03   0.2805876586E+00   0.5705503976E-01   0.1012928095E+00   0.1576003555E-01   0.0000000000E+00   0.0000000000E+00   0.2330833038E-02  -0.5750910066E-03   0.2048804622E-03   0.0000000000E+00   0.0000000000E+00   0.0000000000E+00   0.2050157067E+00
   0.3601410373E-01   0.1341427980E+00   0.1409175419E-04  -0.3588499247E-04   0.7045877096E-04  -0.1794249623E-03   0.2708904752E+00   0.3794751926E-01   0.9265139833E-01   0.4869689617E-02   0.0000000000E+00   0.0000000000E+00   0.2317107999E-02  -0.7111504279E-03   0.6330596502E-04   0.0000000000E+00   0.0000000000E+00   0.0000000000E+00   0.2110110718E+00
   0.3220016711E-01   0.2342977857E+00   0.7092667677E-05  -0.4679655008E-04   0.3546333839E-04  -0.2339827504E-03   0.1474146944E+00   0.9700427499E-03   0.4451542113E-01   0.7754048540E-02   0.0000000000E+00   0.0000000000E+00   0.1337690552E-02  -0.5660899190E-03   0.1008026310E-03   0.0000000000E+00   0.0000000000E+00   0.0000000000E+00   0.1308613090E+00
   0.1946627120E-01   0.2497050442E+00   0.3637683758E-05  -0.4915930531E-04   0.1818841879E-04  -0.2457965266E-03   0.1329261509E+00   0.1210095539E-02   0.4024087393E-01   0.2137127129E-02   0.0000000000E+00   0.0000000000E+00   0.1204908601E-02  -0.5074001191E-03   0.2778265268E-04   0.0000000000E+00   0.0000000000E+00   0.0000000000E+00   0.1174171963E+00
   0.1293577480E+00   0.2145741760E-01   0.7610399698E-04  -0.1517634148E-05   0.3805199849E-03  -0.7588170740E-05   0.1486542429E-01  -0.3637865854E-01  -0.6453970274E-02  -0.1420724010E-01   0.0000000000E+00   0.0000000000E+00   0.2771521293E-03  -0.3890209474E-03  -0.1846941213E-03   0.0000000000E+00   0.0000000000E+00   0.0000000000E+00   0.5232503297E-01
   0.3297499115E+00   0.0000000000E+00   0.9720509032E-04   0.0000000000E+00   0.4860254516E-03   0.0000000000E+00   0.1004842770E+00   0.2817279248E-01   0.3859712084E-01  -0.4063808161E-03   0.0000000000E+00   0.0000000000E+00   0.8045330300E-03  -0.1355162687E-03  -0.5282950610E-05   0.0000000000E+00   0.0000000000E+00   0.0000000000E+00   0.6770443601E-01
   0.3505999940E+00   0.0000000000E+00   0.1000000000E-03   0.0000000000E+00   0.5000000000E-03   0.0000000000E+00   0.9978458297E-01   0.2800471492E-01   0.3833678937E-01   0.1937737940E-03   0.0000000000E+00   0.0000000000E+00   0.7988213168E-03  -0.1343169678E-03   0.2519059322E-05   0.0000000000E+00   0.0000000000E+00   0.0000000000E+00   0.6721103585E-01
   0.3505999940E+00   0.1922814888E-01   0.1000000000E-03  -0.4368373714E-06   0.5000000000E-03  -0.2184186857E-05   0.1019206846E+00   0.2818328062E-01   0.3903118956E-01   0.1883322815E-04   0.0000000000E+00   0.0000000000E+00   0.8175634354E-03  -0.1410228163E-03   0.2448319660E-06   0.0000000000E+00   0.0000000000E+00   0.0000000000E+00   0.6895775371E-01
   0.3320138714E+00   0.2616803394E-01   0.9743306808E-04  -0.6111768354E-06   0.4871653404E-03  -0.3055884177E-05   0.1033215619E+00   0.2793432038E-01   0.3937676468E-01  -0.1088583355E-02   0.0000000000E+00   0.0000000000E+00   0.8312823638E-03  -0.1487517760E-03  -0.1415158361E-04   0.0000000000E+00   0.0000000000E+00   0.0000000000E+00   0.7037974039E-01
   0.3505999940E+00   0.3845596921E-01   0.1000000000E-03  -0.9284490916E-06   0.5000000000E-03  -0.4642245458E-05   0.1054455237E+00   0.2663567975E-01   0.3962436104E-01  -0.9957089081E-04   0.0000000000E+00   0.0000000000E+00   0.8556751147E-03  -0.1688528567E-03  -0.1294421580E-05   0.0000000000E+00   0.0000000000E+00   0.0000000000E+00   0.7318393380E-01
   0.3163467754E+00   0.7694156796E-01   0.9432622658E-04  -0.2333973297E-05   0.4716311329E-03  -0.1166986649E-04   0.1181017871E+00   0.2080784573E-01   0.4167288986E-01  -0.5540995013E-02   0.0000000000E+00   0.0000000000E+00   0.9935756646E-03  -0.2712455737E-03  -0.7203293517E-04   0.0000000000E+00   0.0000000000E+00   0.0000000000E+00   0.8923020050E-01
   0.3333118528E+00   0.6719795570E-01   0.9724946777E-04  -0.1906182922E-05   0.4862473388E-03  -0.9530914612E-05   0.1146498961E+00   0.2285767317E-01   0.4125227079E-01  -0.2421985205E-02   0.0000000000E+00   0.0000000000E+00   0.9541691296E-03  -0.2391297691E-03  -0.3148580766E-04   0.0000000000E+00   0.0000000000E+00   0.0000000000E+00   0.8421164769E-01
   0.3336671670E+00   0.8654085492E-01   0.9707249753E-04  -0.2769230808E-05   0.4853624876E-03  -0.1384615404E-04   0.1225563075E+00   0.1979092961E-01   0.4270417113E-01  -0.2738310871E-02   0.0000000000E+00   0.0000000000E+00   0.1038077772E-02  -0.2978721397E-03  -0.3559804133E-04   0.0000000000E+00   0.0000000000E+00   0.0000000000E+00   0.9355414795E-01
   0.3119825134E+00   0.3581171901E-01   0.9454306042E-04  -0.8666808515E-06   0.4727153021E-03  -0.4333404258E-05   0.1034126867E+00   0.2586843242E-01   0.3878433573E-01  -0.3776244613E-02   0.0000000000E+00   0.0000000000E+00   0.8401685622E-03  -0.1679067429E-03  -0.4909117997E-04   0.0000000000E+00   0.0000000000E+00   0.0000000000E+00   0.7225138203E-01
   0.3163453671E+00   0.1595279166E-01   0.9536301880E-04  -0.3645236782E-06   0.4768150940E-03  -0.1822618391E-05   0.1001541517E+00   0.2743917747E-01   0.3827799874E-01  -0.1479296450E-02   0.0000000000E+00   0.0000000000E+00   0.8043899882E-03  -0.1409046766E-03  -0.1923085385E-04   0.0000000000E+00   0.0000000000E+00   0.0000000000E+00   0.6800273099E-01
   0.2781419934E+00   0.1795931688E-01   0.9030906378E-04  -0.4058028712E-06   0.4515453189E-03  -0.2029014356E-05   0.9552972260E-01   0.2516488271E-01   0.3620838159E-01  -0.3392341773E-02   0.0000000000E+00   0.0000000000E+00   0.7711774331E-03  -0.1435654854E-03  -0.4410044305E-04   0.0000000000E+00   0.0000000000E+00   0.0000000000E+00   0.6584043152E-01
   0.2672012533E+00   0.0000000000E+00   0.8909537818E-04   0.0000000000E+00   0.4454768909E-03   0.0000000000E+00   0.9155876800E-01   0.2484335725E-01   0.3492063757E-01  -0.1412325604E-02   0.0000000000E+00   0.0000000000E+00   0.7362956955E-03  -0.1310046442E-03  -0.1836023285E-04   0.0000000000E+00   0.0000000000E+00   0.0000000000E+00   0.6225470285E-01
   0.2880502721E+00   0.0000000000E+00   0.9171301002E-04   0.0000000000E+00   0.4585650501E-03   0.0000000000E+00   0.9592405403E-01   0.2653500489E-01   0.3673771768E-01  -0.1081853437E-02   0.0000000000E+00   0.0000000000E+00   0.7694223726E-03  -0.1326352662E-03  -0.1406409469E-04   0.0000000000E+00   0.0000000000E+00   0.0000000000E+00   0.6489392967E-01
   0.2359964463E+00   0.1793751576E-01   0.8517855705E-04  -0.3978398820E-06   0.4258927852E-03  -0.1989199410E-05   0.8381769437E-01   0.2020472161E-01   0.3120672480E-01  -0.6263454425E-02   0.0000000000E+00   0.0000000000E+00   0.6839426045E-03  -0.1430260414E-03  -0.8142490752E-04   0.0000000000E+00   0.0000000000E+00   0.0000000000E+00   0.6002244615E-01
   0.2463530246E+00   0.0000000000E+00   0.8661460806E-04   0.0000000000E+00   0.4330730403E-03   0.0000000000E+00   0.8543192017E-01   0.2241219794E-01   0.3235323543E-01  -0.1937324305E-02   0.0000000000E+00   0.0000000000E+00   0.6900229016E-03  -0.1292334874E-03  -0.2518521597E-04   0.0000000000E+00   0.0000000000E+00   0.0000000000E+00   0.5862698802E-01
   0.2570350996E+00   0.1801789563E-01   0.8766242762E-04  -0.4038623832E-06   0.4383121381E-03  -0.2019311916E-05   0.9040265123E-01   0.2308812567E-01   0.3404723307E-01  -0.4812343167E-02   0.0000000000E+00   0.0000000000E+00   0.7326204361E-03  -0.1424683962E-03  -0.6256046117E-04   0.0000000000E+00   0.0000000000E+00   0.0000000000E+00   0.6319721586E-01
   0.2994441725E+00   0.8660295573E-01   0.9115108225E-04  -0.2834995102E-05   0.4557554112E-03  -0.1417497551E-04   0.1218962009E+00   0.1780764332E-01   0.4191115326E-01  -0.8547868569E-02   0.0000000000E+00   0.0000000000E+00   0.1039805619E-02  -0.3133456292E-03  -0.1111222914E-03   0.0000000000E+00   0.0000000000E+00   0.0000000000E+00   0.9551617658E-01
   0.3167236762E+00   0.9619955787E-01   0.9388252582E-04  -0.3306704314E-05   0.4694126291E-03  -0.1653352157E-04   0.1268177119E+00   0.1747737842E-01   0.4328852710E-01  -0.5838900518E-02   0.0000000000E+00   0.0000000000E+00   0.1085879402E-02  -0.3355449328E-03  -0.7590570674E-04   0.0000000000E+00   0.0000000000E+00   0.0000000000E+00   0.9950049336E-01
   0.2998285666E+00   0.1058612490E+00   0.9041160451E-04  -0.3945999953E-05   0.4520580226E-03  -0.1972999977E-04   0.1314328617E+00   0.1447489631E-01   0.4377232741E-01  -0.8810264431E-02   0.0000000000E+00   0.0000000000E+00   0.1139586946E-02  -0.3808666043E-03  -0.1145334376E-03   0.0000000000E+00   0.0000000000E+00   0.0000000000E+00   0.1065030611E+00
   0.1941034750E+00   0.1782903651E-01   0.8086283346E-04  -0.4171990993E-06   0.4043141673E-03  -0.2085995497E-05   0.6432130632E-01   0.1028974838E-01   0.2238331641E-01  -0.1030464166E-01   0.0000000000E+00   0.0000000000E+00   0.5451938689E-03  -0.1572163844E-03  -0.1339603415E-03   0.0000000000E+00   0.0000000000E+00   0.0000000000E+00   0.5276004486E-01
   0.2046602421E+00   0.0000000000E+00   0.8226269061E-04   0.0000000000E+00   0.4113134530E-03   0.0000000000E+00   0.6673515901E-01   0.1439997168E-01   0.2434053921E-01  -0.3474838843E-02   0.0000000000E+00   0.0000000000E+00   0.5511300575E-03  -0.1292273779E-03  -0.4517290495E-04   0.0000000000E+00   0.0000000000E+00   0.0000000000E+00   0.4807203679E-01
   0.2150626098E+00   0.1790766300E-01   0.8289880062E-04  -0.4009839229E-06   0.4144940031E-03  -0.2004919615E-05   0.7518191956E-01   0.1607388428E-01   0.2737674115E-01  -0.8125280907E-02   0.0000000000E+00   0.0000000000E+00   0.6214673193E-03  -0.1469371393E-03  -0.1056286518E-03   0.0000000000E+00   0.0000000000E+00   0.0000000000E+00   0.5641308568E-01
   0.1325307312E+00   0.4106196472E-01   0.7271220213E-04  -0.2975130336E-05   0.3635610106E-03  -0.1487565168E-04   0.4546376039E-01  -0.3720176031E-01   0.2478600024E-02  -0.3484158094E-01   0.0000000000E+00   0.0000000000E+00   0.5588070847E-03  -0.5158446843E-03  -0.4529405522E-03   0.0000000000E+00   0.0000000000E+00   0.0000000000E+00   0.9390547143E-01
   0.1254871475E+00   0.5987377907E-01   0.6669990856E-04  -0.5398455227E-05   0.3334995428E-03  -0.2699227614E-04   0.7746895972E-01  -0.4230385095E-01   0.1054953263E-01  -0.4585292614E-01   0.0000000000E+00   0.0000000000E+00   0.8699525522E-03  -0.6870939866E-03  -0.5960880398E-03   0.0000000000E+00   0.0000000000E+00   0.0000000000E+00   0.1312831586E+00
   0.1134265792E+00   0.3920124984E-01   0.7163702634E-04  -0.4967444060E-05   0.3581851317E-03  -0.2483722030E-04   0.2372529344E-01  -0.6163843512E-01  -0.1137394250E-01  -0.2344554341E-01   0.0000000000E+00   0.0000000000E+00   0.4562900673E-03  -0.6534384040E-03  -0.3047920644E-03   0.0000000000E+00   0.0000000000E+00   0.0000000000E+00   0.8633134592E-01
   0.1731997624E+00   0.1762757337E-01   0.7913089277E-04  -0.4695721429E-06   0.3956544639E-03  -0.2347860714E-05   0.5071121250E-01   0.2513455859E-02   0.1596740051E-01  -0.1288717478E-01   0.0000000000E+00   0.0000000000E+00   0.4516695559E-03  -0.1749012804E-03  -0.1675332721E-03   0.0000000000E+00   0.0000000000E+00   0.0000000000E+00   0.4914489129E-01
   0.1838164110E+00   0.0000000000E+00   0.8051233002E-04   0.0000000000E+00   0.4025616501E-03   0.0000000000E+00   0.5282990264E-01   0.7613246543E-02   0.1813294476E-01  -0.4919376974E-02   0.0000000000E+00   0.0000000000E+00   0.4510604525E-03  -0.1367560768E-03  -0.6395190066E-04   0.0000000000E+00   0.0000000000E+00   0.0000000000E+00   0.4121118113E-01
   0.9280986578E-01   0.3820806484E-01   0.7031898010E-04  -0.1004629308E-04   0.3515949005E-03  -0.5023146541E-04  -0.1093148114E-02  -0.1107096311E+00  -0.3354083377E-01   0.9491210137E-02   0.0000000000E+00   0.0000000000E+00   0.4218199135E-03  -0.1003194365E-02   0.1233857318E-03   0.0000000000E+00   0.0000000000E+00   0.0000000000E+00   0.9439406016E-01
   0.3311207072E+00   0.2498911510E+00   0.9419153145E-04  -0.1814150357E-04   0.4709576573E-03  -0.9070751785E-04   0.1963924581E+00   0.1708645294E-03   0.5896899680E-01  -0.8640650789E-05   0.0000000000E+00   0.0000000000E+00   0.1786504997E-02  -0.7643757195E-03  -0.1123284603E-06   0.0000000000E+00   0.0000000000E+00   0.0000000000E+00   0.1744184233E+00
   0.3505999940E+00   0.2306753438E+00   0.1000000000E-03  -0.1564803975E-04   0.5000000000E-03  -0.7824019876E-04   0.1916965281E+00   0.1205826606E-03   0.5754513324E-01  -0.2638672880E-03   0.0000000000E+00   0.0000000000E+00   0.1743968134E-02  -0.7465191576E-03  -0.3430274744E-05   0.0000000000E+00   0.0000000000E+00   0.0000000000E+00   0.1702918062E+00
   0.3505999940E+00   0.2498912986E+00   0.1000000000E-03  -0.1811690379E-04   0.5000000000E-03  -0.9058451896E-04   0.1996263001E+00  -0.7232143031E-03   0.5967092573E-01   0.7201610247E-03   0.0000000000E+00   0.0000000000E+00   0.1819419866E-02  -0.7851238204E-03   0.9362093321E-05   0.0000000000E+00   0.0000000000E+00   0.0000000000E+00   0.1780099786E+00
   0.3246175480E+00   0.2322631293E+00   0.9244899176E-04  -0.1596961045E-04   0.4622449588E-03  -0.7984805225E-04   0.1919502143E+00   0.3751178403E-03   0.5769759963E-01  -0.1530855210E-02   0.0000000000E+00   0.0000000000E+00   0.1745283990E-02  -0.7451922633E-03  -0.1990111773E-04   0.0000000000E+00   0.0000000000E+00   0.0000000000E+00   0.1703288039E+00
   0.3116412246E+00   0.2498898588E+00   0.8835043679E-04  -0.1835685885E-04   0.4417521839E-03  -0.9178429424E-04   0.1990488298E+00   0.8160597587E-03   0.5995946687E-01  -0.1709767434E-03   0.0000000000E+00   0.0000000000E+00   0.1808161718E-02  -0.7688642924E-03  -0.2222697664E-05   0.0000000000E+00   0.0000000000E+00   0.0000000000E+00   0.1762639304E+00
   0.2838113400E+00   0.1996484291E+00   0.8197283816E-04  -0.1274481796E-04   0.4098641908E-03  -0.6372408981E-04   0.1811454165E+00   0.1836347472E-02   0.5489452919E-01  -0.5636382174E-02   0.0000000000E+00   0.0000000000E+00   0.1641261535E-02  -0.6897563624E-03  -0.7327296826E-04   0.0000000000E+00   0.0000000000E+00   0.0000000000E+00   0.1598320797E+00
   0.2734281944E+00   0.2160748483E+00   0.7821489395E-04  -0.1499395812E-04   0.3910744698E-03  -0.7496979059E-04   0.1896078787E+00   0.5371768423E-03   0.5704351667E-01  -0.4800715791E-02   0.0000000000E+00   0.0000000000E+00   0.1723336707E-02  -0.7345824177E-03  -0.6240930529E-04   0.0000000000E+00   0.0000000000E+00   0.0000000000E+00   0.1682987667E+00
   0.2637924062E+00   0.1994048583E+00   0.7648453726E-04  -0.1332028604E-04   0.3824226863E-03  -0.6660143019E-04   0.1828015297E+00   0.7988934288E-03   0.5508012695E-01  -0.6663764097E-02   0.0000000000E+00   0.0000000000E+00   0.1660378236E-02  -0.7056560357E-03  -0.8662893326E-04   0.0000000000E+00   0.0000000000E+00   0.0000000000E+00   0.1622477550E+00
   0.3161349852E+00   0.1923122171E+00   0.9093119617E-04  -0.1136598808E-04   0.4546559808E-03  -0.5682994041E-04   0.1748625206E+00   0.2840395710E-02   0.5331087489E-01  -0.3633362459E-02   0.0000000000E+00   0.0000000000E+00   0.1580171394E-02  -0.6561162293E-03  -0.4723371197E-04   0.0000000000E+00   0.0000000000E+00   0.0000000000E+00   0.1532908278E+00
   0.3336847906E+00   0.1825360899E+00   0.9568844018E-04  -0.1017834764E-04   0.4784422009E-03  -0.5089173820E-04   0.1705283240E+00   0.4614352387E-02   0.5254280292E-01  -0.2049146784E-02   0.0000000000E+00   0.0000000000E+00   0.1533811774E-02  -0.6230698570E-03  -0.2663890819E-04   0.0000000000E+00   0.0000000000E+00   0.0000000000E+00   0.1479400924E+00
   0.3337043858E+00   0.2015516514E+00   0.9544247375E-04  -0.1224042933E-04   0.4772123687E-03  -0.6120214663E-04   0.1800375701E+00   0.2666129524E-02   0.5481110990E-01  -0.1766224472E-02   0.0000000000E+00   0.0000000000E+00   0.1627943983E-02  -0.6778847448E-03  -0.2296091814E-04   0.0000000000E+00   0.0000000000E+00   0.0000000000E+00   0.1579297585E+00
   0.3337850981E+00   0.1633621693E+00   0.9598519135E-04  -0.8281110182E-05   0.4799259567E-03  -0.4140555091E-04   0.1608034091E+00   0.7126376628E-02   0.5037893573E-01  -0.2433540047E-02   0.0000000000E+00   0.0000000000E+00   0.1435518154E-02  -0.5622832683E-03  -0.3163602061E-04   0.0000000000E+00   0.0000000000E+00   0.0000000000E+00   0.1373280252E+00
   0.3505999940E+00   0.1730218608E+00   0.1000000000E-03  -0.9177871342E-05   0.5000000000E-03  -0.4588935671E-04   0.1655112035E+00   0.5806511008E-02   0.5139531435E-01   0.3619923490E-04   0.0000000000E+00   0.0000000000E+00   0.1483506559E-02  -0.5926544435E-03   0.4705900537E-06   0.0000000000E+00   0.0000000000E+00   0.0000000000E+00   0.1424926168E+00
   0.3505999940E+00   0.1538018829E+00   0.1000000000E-03  -0.7379511093E-05   0.5000000000E-03  -0.3689755547E-04   0.1557901674E+00   0.8638225516E-02   0.4932851786E-01   0.1266620554E-04   0.0000000000E+00   0.0000000000E+00   0.1384001443E-02  -0.5289738005E-03   0.1646606720E-06   0.0000000000E+00   0.0000000000E+00   0.0000000000E+00   0.1316123941E+00
   0.2681745879E+00   0.3628874076E-01   0.8853264907E-04  -0.8862074536E-06   0.4426632454E-03  -0.4431037268E-05   0.9741651437E-01   0.2253652394E-01   0.3598591149E-01  -0.8363926820E-02   0.0000000000E+00   0.0000000000E+00   0.7985978375E-03  -0.1748420382E-03  -0.1087310487E-03   0.0000000000E+00   0.0000000000E+00   0.0000000000E+00   0.7057363328E-01
   0.3169559507E+00   0.1345921459E+00   0.9280894746E-04  -0.5888344265E-05   0.4640447373E-03  -0.2944172133E-04   0.1462666063E+00   0.1082938066E-01   0.4712879609E-01  -0.5538736943E-02   0.0000000000E+00   0.0000000000E+00   0.1288791533E-02  -0.4718924006E-03  -0.7200358026E-04   0.0000000000E+00   0.0000000000E+00   0.0000000000E+00   0.1218031776E+00
   0.3169374065E+00   0.1154293286E+00   0.9337391188E-04  -0.4489895082E-05   0.4668695594E-03  -0.2244947541E-04   0.1362980636E+00   0.1409212948E-01   0.4511705793E-01  -0.5822256953E-02   0.0000000000E+00   0.0000000000E+00   0.1185353074E-02  -0.4033240699E-03  -0.7568934039E-04   0.0000000000E+00   0.0000000000E+00   0.0000000000E+00   0.1104801462E+00
   0.3338211540E+00   0.1249878597E+00   0.9656050119E-04  -0.5098057489E-05   0.4828025059E-03  -0.2549028745E-04   0.1410520346E+00   0.1313414600E-01   0.4625585417E-01  -0.2829998209E-02   0.0000000000E+00   0.0000000000E+00   0.1232350345E-02  -0.4305822062E-03  -0.3678997671E-04   0.0000000000E+00   0.0000000000E+00   0.0000000000E+00   0.1150948398E+00
   0.3505999940E+00   0.9613428804E-01   0.1000000000E-03  -0.3259976031E-05   0.5000000000E-03  -0.1629988015E-04   0.1269575902E+00   0.1832783704E-01   0.4358562819E-01  -0.1207466350E-03   0.0000000000E+00   0.0000000000E+00   0.1083835507E-02  -0.3283512849E-03  -0.1569706255E-05   0.0000000000E+00   0.0000000000E+00   0.0000000000E+00   0.9845488137E-01
   0.3337806654E+00   0.1057683151E+00   0.9683089282E-04  -0.3827144101E-05   0.4841544641E-03  -0.1913572051E-04   0.1314738203E+00   0.1646900976E-01   0.4438284901E-01  -0.2863942515E-02   0.0000000000E+00   0.0000000000E+00   0.1132182626E-02  -0.3628799103E-03  -0.3723125270E-04   0.0000000000E+00   0.0000000000E+00   0.0000000000E+00   0.1040134847E+00
   0.3505999940E+00   0.7690923344E-01   0.1000000000E-03  -0.2307727201E-05   0.5000000000E-03  -0.1153863600E-04   0.1186309840E+00   0.2149519300E-01   0.4203785308E-01  -0.1047543216E-03   0.0000000000E+00   0.0000000000E+00   0.9957107013E-03  -0.2670545811E-03  -0.1361806181E-05   0.0000000000E+00   0.0000000000E+00   0.0000000000E+00   0.8866155098E-01
   0.3324394111E+00   0.4722708382E-01   0.9732751395E-04  -0.1196580282E-05   0.4866375698E-03  -0.5982901409E-05   0.1078180162E+00   0.2552509664E-01   0.4000293385E-01  -0.2099509780E-02   0.0000000000E+00   0.0000000000E+00   0.8815960704E-03  -0.1882118837E-03  -0.2729362714E-04   0.0000000000E+00   0.0000000000E+00   0.0000000000E+00   0.7617755322E-01
   0.3505999940E+00   0.5768307440E-01   0.1000000000E-03  -0.1538934116E-05   0.5000000000E-03  -0.7694670579E-05   0.1113717750E+00   0.2421738780E-01   0.4067674885E-01  -0.6640075078E-04   0.0000000000E+00   0.0000000000E+00   0.9190353404E-03  -0.2139716937E-03  -0.8632097602E-06   0.0000000000E+00   0.0000000000E+00   0.0000000000E+00   0.8019404950E-01
   0.0000000000E+00   0.2497032534E+00   0.0000000000E+00  -0.4945776087E-04   0.0000000000E+00  -0.2472888044E-03   0.1122846118E+00   0.4216903759E-02   0.3495045467E-01   0.5504428958E-02   0.0000000000E+00   0.0000000000E+00   0.1005344043E-02  -0.3995361618E-03   0.7155757645E-04   0.0000000000E+00   0.0000000000E+00   0.0000000000E+00   0.9661877025E-01
   0.3893303711E-01   0.2497148217E+00   0.7357802020E-05  -0.4752971173E-04   0.3678901010E-04  -0.2376485586E-03   0.1296552606E+00  -0.5148450397E-03   0.3874212467E-01   0.3626829288E-02   0.0000000000E+00   0.0000000000E+00   0.1181870767E-02  -0.5103406063E-03   0.4714878074E-04   0.0000000000E+00   0.0000000000E+00   0.0000000000E+00   0.1156911717E+00
   0.5564890432E-01   0.1229558467E+00   0.2389837062E-04  -0.3039905284E-04   0.1194918531E-03  -0.1519952642E-03   0.2590721753E+00   0.1573507057E-01   0.8244217375E-01  -0.3153423182E-02   0.0000000000E+00   0.0000000000E+00   0.2296190020E-02  -0.8671923413E-03  -0.4099450136E-04   0.0000000000E+00   0.0000000000E+00   0.0000000000E+00   0.2161189851E+00
   0.6791314903E-01   0.2327187710E+00   0.1582448774E-04  -0.4199066471E-04   0.7912243870E-04  -0.2099533235E-03   0.1690139558E+00   0.3999752232E-03   0.5082417931E-01   0.1127218931E-01   0.0000000000E+00   0.0000000000E+00   0.1536467094E-02  -0.6555146531E-03   0.1465384610E-03   0.0000000000E+00   0.0000000000E+00   0.0000000000E+00   0.1512765411E+00
   0.5840231214E-01   0.2497289755E+00   0.1149642408E-04  -0.4517074934E-04   0.5748212042E-04  -0.2258537467E-03   0.1479449254E+00  -0.2873495464E-03   0.4429727277E-01   0.4469884462E-02   0.0000000000E+00   0.0000000000E+00   0.1347419485E-02  -0.5796000901E-03   0.5810849801E-04   0.0000000000E+00   0.0000000000E+00   0.0000000000E+00   0.1317653158E+00
   0.7787439226E-01   0.2497467248E+00   0.1610194302E-04  -0.4221253647E-04   0.8050971510E-04  -0.2110626824E-03   0.1643427478E+00  -0.3497884394E-03   0.4919788782E-01   0.5072900152E-02   0.0000000000E+00   0.0000000000E+00   0.1496883180E-02  -0.6441197914E-03   0.6594770198E-04   0.0000000000E+00   0.0000000000E+00   0.0000000000E+00   0.1464583686E+00
   0.1265694238E+00   0.2329386370E+00   0.3215730460E-04  -0.3172133343E-04   0.1607865230E-03  -0.1586066672E-03   0.1967201370E+00  -0.1620930847E-02   0.5852976186E-01   0.7483651552E-02   0.0000000000E+00   0.0000000000E+00   0.1796474877E-02  -0.7819590051E-03   0.9728747017E-04   0.0000000000E+00   0.0000000000E+00   0.0000000000E+00   0.1766565475E+00
   0.1168270410E+00   0.2497866354E+00   0.2672899411E-04  -0.3556076233E-04   0.1336449706E-03  -0.1778038117E-03   0.1942115464E+00  -0.4583867866E-03   0.5812594788E-01   0.3738413500E-02   0.0000000000E+00   0.0000000000E+00   0.1769112781E-02  -0.7615963506E-03   0.4859937549E-04   0.0000000000E+00   0.0000000000E+00   0.0000000000E+00   0.1730096191E+00
   0.1363069013E+00   0.2498060916E+00   0.3263188493E-04  -0.3231806522E-04   0.1631594247E-03  -0.1615903261E-03   0.2050457546E+00  -0.3817657410E-03   0.6139919666E-01   0.2717625327E-02   0.0000000000E+00   0.0000000000E+00   0.1867405253E-02  -0.8031525113E-03   0.3532912925E-04   0.0000000000E+00   0.0000000000E+00   0.0000000000E+00   0.1825634142E+00
   0.1363099492E+00   0.2160639725E+00   0.3725752590E-04  -0.2782107648E-04   0.1862876295E-03  -0.1391053824E-03   0.1978083384E+00  -0.4779877230E-02   0.5790853834E-01   0.1042974701E-01   0.0000000000E+00   0.0000000000E+00   0.1818697400E-02  -0.8149494024E-03   0.1355867112E-03   0.0000000000E+00   0.0000000000E+00   0.0000000000E+00   0.1805110285E+00
   0.1850230050E+00   0.2329617306E+00   0.5021115937E-04  -0.2324557095E-04   0.2510557968E-03  -0.1162278547E-03   0.2064605872E+00  -0.1315074484E-02   0.6154365381E-01   0.4441801240E-03   0.0000000000E+00   0.0000000000E+00   0.1883920134E-02  -0.8171634679E-03   0.5774341611E-05   0.0000000000E+00   0.0000000000E+00   0.0000000000E+00   0.1845567782E+00
   0.1752707490E+00   0.2498395806E+00   0.4512533631E-04  -0.2673656327E-04   0.2256266815E-03  -0.1336828163E-03   0.2158690896E+00  -0.1405810453E-03   0.6471855257E-01   0.6394869112E-03   0.0000000000E+00   0.0000000000E+00   0.1964956982E-02  -0.8431687370E-03   0.8313329846E-05   0.0000000000E+00   0.0000000000E+00   0.0000000000E+00   0.1919808159E+00
   0.2045079719E+00   0.2329768868E+00   0.5630814867E-04  -0.2125353871E-04   0.2815407434E-03  -0.1062676936E-03   0.2057831009E+00  -0.9327745451E-03   0.6145509790E-01  -0.1106613216E-02   0.0000000000E+00   0.0000000000E+00   0.1876264039E-02  -0.8110423418E-03  -0.1438597181E-04   0.0000000000E+00   0.0000000000E+00   0.0000000000E+00   0.1836583403E+00
   0.1947535053E+00   0.2498528169E+00   0.5150955272E-04  -0.2453052379E-04   0.2575477636E-03  -0.1226526190E-03   0.2165071447E+00   0.3383281105E-05   0.6495315840E-01  -0.1403517881E-03   0.0000000000E+00   0.0000000000E+00   0.1970201822E-02  -0.8443470765E-03  -0.1824573245E-05   0.0000000000E+00   0.0000000000E+00   0.0000000000E+00   0.1924329114E+00
   0.2239916446E+00   0.2329982424E+00   0.6236094008E-04  -0.1966609174E-04   0.3118047004E-03  -0.9833045871E-04   0.2039367657E+00  -0.5434864343E-03   0.6101798377E-01  -0.2079208274E-02   0.0000000000E+00   0.0000000000E+00   0.1857944165E-02  -0.8002991127E-03  -0.2702970757E-04   0.0000000000E+00   0.0000000000E+00   0.0000000000E+00   0.1817341419E+00
   0.2142361389E+00   0.2498636536E+00   0.5787581347E-04  -0.2272439270E-04   0.2893790674E-03  -0.1136219635E-03   0.2149433880E+00   0.1313706985E-03   0.6452242761E-01  -0.6657482742E-03   0.0000000000E+00   0.0000000000E+00   0.1955472485E-02  -0.8370837398E-03  -0.8654727564E-05   0.0000000000E+00   0.0000000000E+00   0.0000000000E+00   0.1909411695E+00
   0.2434890963E+00   0.2330166461E+00   0.6834822368E-04  -0.1843414761E-04   0.3417411184E-03  -0.9217073807E-04   0.2014061746E+00  -0.2085047613E-03   0.6035930096E-01  -0.2521654698E-02   0.0000000000E+00   0.0000000000E+00   0.1833609358E-02  -0.7873814744E-03  -0.3278151107E-04   0.0000000000E+00   0.0000000000E+00   0.0000000000E+00   0.1792364728E+00
   0.2337183654E+00   0.2498722755E+00   0.6417189818E-04  -0.2128741004E-04   0.3208594909E-03  -0.1064370502E-03   0.2120192725E+00   0.2248332258E-03   0.6367323171E-01  -0.9379133788E-03   0.0000000000E+00   0.0000000000E+00   0.1928498530E-02  -0.8248291804E-03  -0.1219287392E-04   0.0000000000E+00   0.0000000000E+00   0.0000000000E+00   0.1882672556E+00
   0.2631493821E+00   0.2329586611E+00   0.7430734189E-04  -0.1749115819E-04   0.3715367094E-03  -0.8745579095E-04   0.1986386684E+00   0.4100783804E-04   0.5960390287E-01  -0.2543731561E-02   0.0000000000E+00   0.0000000000E+00   0.1807451952E-02  -0.7743176354E-03  -0.3306851030E-04   0.0000000000E+00   0.0000000000E+00   0.0000000000E+00   0.1765782741E+00
   0.2532000049E+00   0.2498789408E+00   0.7036998968E-04  -0.2017652559E-04   0.3518499484E-03  -0.1008826280E-03   0.2084991029E+00   0.3042842586E-03   0.6264101615E-01  -0.9959348730E-03   0.0000000000E+00   0.0000000000E+00   0.1896155128E-02  -0.8103775146E-03  -0.1294715335E-04   0.0000000000E+00   0.0000000000E+00   0.0000000000E+00   0.1850744061E+00
   0.2830582517E+00   0.2327641179E+00   0.8026194488E-04  -0.1678485799E-04   0.4013097244E-03  -0.8392428993E-04   0.1960261782E+00   0.2399372001E-03   0.5887983462E-01  -0.2243603379E-02   0.0000000000E+00   0.0000000000E+00   0.1782902467E-02  -0.7623186665E-03  -0.2916684392E-04   0.0000000000E+00   0.0000000000E+00   0.0000000000E+00   0.1740835365E+00
   0.2726809887E+00   0.2498839224E+00   0.7646129132E-04  -0.1934627401E-04   0.3823064566E-03  -0.9673137004E-04   0.2048936827E+00   0.3628117010E-03   0.6157694832E-01  -0.9069495245E-03   0.0000000000E+00   0.0000000000E+00   0.1863117547E-02  -0.7957837760E-03  -0.1179034382E-04   0.0000000000E+00   0.0000000000E+00   0.0000000000E+00   0.1818233761E+00
   0.3034751044E+00   0.2322495499E+00   0.8629639206E-04  -0.1625101137E-04   0.4314819603E-03  -0.8125505687E-04   0.1934587959E+00   0.4066795588E-03   0.5815964262E-01  -0.1762373449E-02   0.0000000000E+00   0.0000000000E+00   0.1758888992E-02  -0.7507885198E-03  -0.2291085483E-04   0.0000000000E+00   0.0000000000E+00   0.0000000000E+00   0.1716503921E+00
   0.2921613616E+00   0.2498874751E+00   0.8245076167E-04  -0.1875414357E-04   0.4122538084E-03  -0.9377071787E-04   0.2017105201E+00   0.4827714882E-03   0.6065798749E-01  -0.7224025093E-03   0.0000000000E+00   0.0000000000E+00   0.1833682924E-02  -0.7822778080E-03  -0.9391232621E-05   0.0000000000E+00   0.0000000000E+00   0.0000000000E+00   0.1788990863E+00
   0.1655804165E+00   0.1645979805E+00   0.5264492073E-04  -0.1610441091E-04   0.2632246036E-03  -0.8052205457E-04   0.1859238302E+00  -0.1636010999E-01   0.5086911606E-01  -0.4361045424E-02   0.0000000000E+00   0.0000000000E+00   0.1755711284E-02  -0.8739799387E-03  -0.5669359051E-04   0.0000000000E+00   0.0000000000E+00   0.0000000000E+00   0.1785330517E+00
   0.1556503995E+00   0.1821272017E+00   0.4731992262E-04  -0.1998588413E-04   0.2365996131E-03  -0.9992942065E-04   0.1932879042E+00  -0.1348497703E-01   0.5394087817E-01   0.2886999492E-02   0.0000000000E+00   0.0000000000E+00   0.1811511339E-02  -0.8765361175E-03   0.3753099340E-04   0.0000000000E+00   0.0000000000E+00   0.0000000000E+00   0.1826882999E+00
   0.1455171888E+00   0.1647095468E+00   0.4663629242E-04  -0.1884354062E-04   0.2331814621E-03  -0.9421770312E-04   0.1930989869E+00  -0.1978970232E-01   0.5199278537E-01   0.8675906694E-03   0.0000000000E+00   0.0000000000E+00   0.1834380620E-02  -0.9331723399E-03   0.1127867870E-04   0.0000000000E+00   0.0000000000E+00   0.0000000000E+00   0.1875562729E+00
   0.2255059096E+00   0.0000000000E+00   0.8431926674E-04   0.0000000000E+00   0.4215963337E-03   0.0000000000E+00   0.7739000473E-01   0.1913945042E-01   0.2895883655E-01  -0.2593213248E-02   0.0000000000E+00   0.0000000000E+00   0.6296051864E-03  -0.1276520196E-03  -0.3371177222E-04   0.0000000000E+00   0.0000000000E+00   0.0000000000E+00   0.5393755505E-01
   0.1618463889E+00   0.7203052342E-01   0.6945749155E-04  -0.3959729420E-05   0.3472874578E-03  -0.1979864710E-04   0.1049288850E+00  -0.2083891334E-01   0.2522699150E-01  -0.4162553431E-01   0.0000000000E+00   0.0000000000E+00   0.1036124616E-02  -0.5988567629E-03  -0.5411319461E-03   0.0000000000E+00   0.0000000000E+00   0.0000000000E+00   0.1315791367E+00
   0.1834839364E+00   0.7143057658E-01   0.7319340108E-04  -0.3153219885E-05   0.3659670054E-03  -0.1576609942E-04   0.1053864801E+00  -0.6950313023E-02   0.2953085013E-01  -0.3421976291E-01   0.0000000000E+00   0.0000000000E+00   0.9861231900E-03  -0.4742551210E-03  -0.4448569178E-03   0.0000000000E+00   0.0000000000E+00   0.0000000000E+00   0.1155487047E+00
   0.1729576913E+00   0.9031095020E-01   0.6765671972E-04  -0.5340149371E-05   0.3382835986E-03  -0.2670074686E-04   0.1298535601E+00  -0.1651482618E-01   0.3400162019E-01  -0.3363748990E-01   0.0000000000E+00   0.0000000000E+00   0.1246075219E-02  -0.6567138028E-03  -0.4372873687E-03   0.0000000000E+00   0.0000000000E+00   0.0000000000E+00   0.1413701621E+00
   0.1741619664E-01   0.2038430896E+00   0.4587189689E-05  -0.4493656316E-04   0.2293594844E-04  -0.2246828158E-03   0.1803189879E+00   0.1413153113E-01   0.5833515570E-01   0.7543643066E-02   0.0000000000E+00   0.0000000000E+00   0.1585789818E-02  -0.5746471194E-03   0.9806735986E-04   0.0000000000E+00   0.0000000000E+00   0.0000000000E+00   0.1498480476E+00
   0.0000000000E+00   0.1934830194E+00   0.0000000000E+00  -0.4449576948E-04   0.0000000000E+00  -0.2224788474E-03   0.1897469781E+00   0.1975277650E-01   0.6284992638E-01   0.4573567041E-02   0.0000000000E+00   0.0000000000E+00   0.1649661672E-02  -0.5602629485E-03   0.5945637153E-04   0.0000000000E+00   0.0000000000E+00   0.0000000000E+00   0.1531973594E+00
   0.1686190494E-01   0.1842682343E+00   0.4818757143E-05  -0.4308944962E-04   0.2409378572E-04  -0.2154472481E-03   0.1995259629E+00   0.2302387996E-01   0.6676495285E-01   0.8531949729E-02   0.0000000000E+00   0.0000000000E+00   0.1725893130E-02  -0.5686339475E-03   0.1109153465E-03   0.0000000000E+00   0.0000000000E+00   0.0000000000E+00   0.1601501848E+00
   0.0000000000E+00   0.1747432664E+00   0.0000000000E+00  -0.4278843599E-04   0.0000000000E+00  -0.2139421800E-03   0.2098075195E+00   0.3146227579E-01   0.7238093860E-01   0.5483796119E-02   0.0000000000E+00   0.0000000000E+00   0.1786545552E-02  -0.5319426165E-03   0.7128934955E-04   0.0000000000E+00   0.0000000000E+00   0.0000000000E+00   0.1619682144E+00
   0.1693857110E-01   0.1650765052E+00   0.5289017049E-05  -0.4127929360E-04   0.2644508524E-04  -0.2063964680E-03   0.2208412835E+00   0.3259911305E-01   0.7603211897E-01   0.8699796341E-02   0.0000000000E+00   0.0000000000E+00   0.1882519139E-02  -0.5646290770E-03   0.1130973524E-03   0.0000000000E+00   0.0000000000E+00   0.0000000000E+00   0.1715991290E+00
   0.3385781972E-01   0.1747461066E+00   0.1014538663E-04  -0.4058906859E-04   0.5072693317E-04  -0.2029453430E-03   0.2102725525E+00   0.2190201233E-01   0.6965236944E-01   0.1799866388E-01   0.0000000000E+00   0.0000000000E+00   0.1828062379E-02  -0.6207546424E-03   0.2339826304E-03   0.0000000000E+00   0.0000000000E+00   0.0000000000E+00   0.1724712332E+00
   0.3465486501E-01   0.1550110183E+00   0.1151145197E-04  -0.3842177743E-04   0.5755725984E-04  -0.1921088871E-03   0.2324769097E+00   0.2928119436E-01   0.7852743122E-01   0.1611787541E-01   0.0000000000E+00   0.0000000000E+00   0.2001343220E-02  -0.6402010792E-03   0.2095323804E-03   0.0000000000E+00   0.0000000000E+00   0.0000000000E+00   0.1858465518E+00
   0.3379019194E-01   0.1939984660E+00   0.9337173269E-05  -0.4258333161E-04   0.4668586634E-04  -0.2129166580E-03   0.1915879904E+00   0.1310196451E-01   0.6140698646E-01   0.1635261226E-01   0.0000000000E+00   0.0000000000E+00   0.1692353051E-02  -0.6279652854E-03   0.2125839594E-03   0.0000000000E+00   0.0000000000E+00   0.0000000000E+00   0.1623866619E+00
   0.5395848134E-01   0.1448073903E+00   0.1916509064E-04  -0.3383695617E-04   0.9582545319E-04  -0.1691847808E-03   0.2385319681E+00   0.1412103442E-01   0.7579590075E-01   0.1681588540E-01   0.0000000000E+00   0.0000000000E+00   0.2115568875E-02  -0.8017732623E-03   0.2186065103E-03   0.0000000000E+00   0.0000000000E+00   0.0000000000E+00   0.2029952106E+00
   0.9726698932E-01   0.2159221571E+00   0.2568378723E-04  -0.3482231031E-04   0.1284189362E-03  -0.1741115515E-03   0.1895842049E+00  -0.2855896969E-02   0.5601849238E-01   0.1800402298E-01   0.0000000000E+00   0.0000000000E+00   0.1736354263E-02  -0.7653670615E-03   0.2340522988E-03   0.0000000000E+00   0.0000000000E+00   0.0000000000E+00   0.1735289967E+00
   0.1421358326E+00   0.0000000000E+00   0.7819443345E-04   0.0000000000E+00   0.3909721672E-03   0.0000000000E+00   0.1539827599E-01  -0.2444803857E-01  -0.2714928774E-02  -0.1591455477E-01   0.0000000000E+00   0.0000000000E+00   0.2354716619E-03  -0.2825304273E-03  -0.2068892120E-03   0.0000000000E+00   0.0000000000E+00   0.0000000000E+00   0.4105057400E-01
   0.1525184437E+00   0.1778114931E-01   0.7771078703E-04  -0.7156151622E-06   0.3885539351E-03  -0.3578075811E-05   0.3426163218E-01  -0.1389402877E-01   0.6110281021E-02  -0.1276933805E-01   0.0000000000E+00   0.0000000000E+00   0.3659675650E-03  -0.2600560273E-03  -0.1660013947E-03   0.0000000000E+00   0.0000000000E+00   0.0000000000E+00   0.4907222775E-01
   0.1629748959E+00   0.0000000000E+00   0.7915031555E-04   0.0000000000E+00   0.3957515778E-03   0.0000000000E+00   0.3385152065E-01  -0.5960122166E-02   0.8367419545E-02  -0.6780775570E-02   0.0000000000E+00   0.0000000000E+00   0.3312933144E-03  -0.1862580422E-03  -0.8815008241E-04   0.0000000000E+00   0.0000000000E+00   0.0000000000E+00   0.3665559894E-01
   0.3505999940E+00   0.1153581109E+00   0.1000000000E-03  -0.4417510903E-05   0.5000000000E-03  -0.2208755451E-04   0.1361786619E+00   0.1500956450E-01   0.4535646793E-01  -0.8949065873E-04   0.0000000000E+00   0.0000000000E+00   0.1180688522E-02  -0.3945097446E-03  -0.1163378563E-05   0.0000000000E+00   0.0000000000E+00   0.0000000000E+00   0.1092007495E+00
   0.3505999940E+00   0.1345806477E+00   0.1000000000E-03  -0.5790553006E-05   0.5000000000E-03  -0.2895276503E-04   0.1458703146E+00   0.1171647470E-01   0.4727603679E-01  -0.3800219526E-04   0.0000000000E+00   0.0000000000E+00   0.1281725612E-02  -0.4622743072E-03  -0.4940285384E-06   0.0000000000E+00   0.0000000000E+00   0.0000000000E+00   0.1203775193E+00
   0.3338403335E+00   0.1441904386E+00   0.9628025520E-04  -0.6585067313E-05   0.4814012760E-03  -0.3292533656E-04   0.1509372438E+00   0.9964145518E-02   0.4827041679E-01  -0.2665736382E-02   0.0000000000E+00   0.0000000000E+00   0.1334668751E-02  -0.4979815266E-03  -0.3465457297E-04   0.0000000000E+00   0.0000000000E+00   0.0000000000E+00   0.1263415360E+00
   0.1627038757E+00   0.3473526549E-01   0.7654294237E-04  -0.1238768559E-05   0.3827147119E-03  -0.6193842796E-05   0.5849317904E-01  -0.6913350275E-02   0.1547394863E-01  -0.2803635959E-01   0.0000000000E+00   0.0000000000E+00   0.5592499953E-03  -0.2910348858E-03  -0.3644726747E-03   0.0000000000E+00   0.0000000000E+00   0.0000000000E+00   0.7528144793E-01
   0.1834861036E+00   0.3536637400E-01   0.7847193212E-04  -0.1026483295E-05   0.3923596606E-03  -0.5132416476E-05   0.6803699117E-01   0.2229126051E-02   0.2107983517E-01  -0.2362794680E-01   0.0000000000E+00   0.0000000000E+00   0.6104430280E-03  -0.2450592185E-03  -0.3071633084E-03   0.0000000000E+00   0.0000000000E+00   0.0000000000E+00   0.7148125391E-01
   0.1452452498E+00   0.3343526169E-01   0.7524513134E-04  -0.1729952182E-05   0.3762256567E-03  -0.8649760908E-05   0.3625246323E-01  -0.2434582394E-01   0.3571991786E-02  -0.3281806232E-01   0.0000000000E+00   0.0000000000E+00   0.4248461287E-03  -0.3629316044E-03  -0.4266348102E-03   0.0000000000E+00   0.0000000000E+00   0.0000000000E+00   0.7624997579E-01
   0.2142754013E+00   0.2160835036E+00   0.6090037777E-04  -0.1817339284E-04   0.3045018888E-03  -0.9086696421E-04   0.1966104383E+00  -0.1762969575E-02   0.5845424061E-01  -0.3421294728E-02   0.0000000000E+00   0.0000000000E+00   0.1796030570E-02  -0.7828237325E-03  -0.4447683147E-04   0.0000000000E+00   0.0000000000E+00   0.0000000000E+00   0.1762529316E+00
   0.2894286194E+00   0.3564319649E-01   0.9143323809E-04  -0.8669348658E-06   0.4571661905E-03  -0.4334674329E-05   0.1009255991E+00   0.2466465851E-01   0.3767707728E-01  -0.6168522437E-02   0.0000000000E+00   0.0000000000E+00   0.8222307836E-03  -0.1691614440E-03  -0.8019079169E-04   0.0000000000E+00   0.0000000000E+00   0.0000000000E+00   0.7145432827E-01
   0.2991996544E+00   0.5044425822E-01   0.9238457033E-04  -0.1315979293E-05   0.4619228516E-03  -0.6579896467E-05   0.1065022253E+00   0.2429020277E-01   0.3923772843E-01  -0.6481016882E-02   0.0000000000E+00   0.0000000000E+00   0.8744384597E-03  -0.1943178336E-03  -0.8425321946E-04   0.0000000000E+00   0.0000000000E+00   0.0000000000E+00   0.7662887562E-01
   0.3154185897E+00   0.5753724420E-01   0.9462544989E-04  -0.1553832960E-05   0.4731272494E-03  -0.7769164802E-05   0.1111116773E+00   0.2425454683E-01   0.4060986724E-01  -0.4836508360E-02   0.0000000000E+00   0.0000000000E+00   0.9165235309E-03  -0.2126191653E-03  -0.6287460868E-04   0.0000000000E+00   0.0000000000E+00   0.0000000000E+00   0.8037518729E-01
   0.6715001090E-01   0.1967359605E+00   0.1872318336E-04  -0.3794374760E-04   0.9361591682E-04  -0.1897187380E-03   0.1936117736E+00   0.2396106728E-02   0.5880236411E-01   0.2332928814E-01   0.0000000000E+00   0.0000000000E+00   0.1752522324E-02  -0.7332813459E-03   0.3032807458E-03   0.0000000000E+00   0.0000000000E+00   0.0000000000E+00   0.1749371061E+00
   0.4898914643E-01   0.2012113936E+00   0.1324767214E-04  -0.4139290783E-04   0.6623836072E-04  -0.2069645392E-03   0.1876213373E+00   0.7782829999E-02   0.5862125019E-01   0.2123392620E-01   0.0000000000E+00   0.0000000000E+00   0.1677001133E-02  -0.6608994625E-03   0.2760410406E-03   0.0000000000E+00   0.0000000000E+00   0.0000000000E+00   0.1647255395E+00
   0.7752439958E-01   0.2154317010E+00   0.2012497981E-04  -0.3837616541E-04   0.1006248991E-03  -0.1918808270E-03   0.1843222078E+00  -0.3001949712E-03   0.5520660386E-01   0.1987859665E-01   0.0000000000E+00   0.0000000000E+00   0.1678502852E-02  -0.7215883848E-03   0.2584217564E-03   0.0000000000E+00   0.0000000000E+00   0.0000000000E+00   0.1675559295E+00
   0.8772225911E-01   0.1992027013E+00   0.2456620184E-04  -0.3444661583E-04   0.1228310092E-03  -0.1722330792E-03   0.1949346959E+00  -0.3527479170E-02   0.5742216502E-01   0.2192809160E-01   0.0000000000E+00   0.0000000000E+00   0.1787662902E-02  -0.7923453745E-03   0.2850651908E-03   0.0000000000E+00   0.0000000000E+00   0.0000000000E+00   0.1801489879E+00
   0.1069552915E+00   0.1993016812E+00   0.3033774819E-04  -0.3079464044E-04   0.1516887410E-03  -0.1539732022E-03   0.1973830332E+00  -0.6631040125E-02   0.5722559792E-01   0.1866192923E-01   0.0000000000E+00   0.0000000000E+00   0.1822046658E-02  -0.8301362945E-03   0.2426050799E-03   0.0000000000E+00   0.0000000000E+00   0.0000000000E+00   0.1836314999E+00
   0.1122153353E+00   0.1454492795E+00   0.3915204637E-04  -0.2136358926E-04   0.1957602318E-03  -0.1068179463E-03   0.2075875745E+00  -0.2513071559E-01   0.5473705767E-01   0.4112953747E-02   0.0000000000E+00   0.0000000000E+00   0.1987056719E-02  -0.1038281052E-02   0.5346839871E-04   0.0000000000E+00   0.0000000000E+00   0.0000000000E+00   0.2047426419E+00
   0.1042799382E+00   0.1664196383E+00   0.3333553163E-04  -0.2642512143E-04   0.1666776581E-03  -0.1321256071E-03   0.2073755666E+00  -0.1696696224E-01   0.5712258131E-01   0.1478309978E-01   0.0000000000E+00   0.0000000000E+00   0.1953288809E-02  -0.9631640662E-03   0.1921802971E-03   0.0000000000E+00   0.0000000000E+00   0.0000000000E+00   0.1996500250E+00
   0.9083765796E-01   0.1516660759E+00   0.3100939411E-04  -0.2679951012E-04   0.1550469705E-03  -0.1339975506E-03   0.2159568513E+00  -0.1474752891E-01   0.6036279670E-01   0.1541871524E-01   0.0000000000E+00   0.0000000000E+00   0.2022722709E-02  -0.9764342329E-03   0.2004432982E-03   0.0000000000E+00   0.0000000000E+00   0.0000000000E+00   0.2053004633E+00
   0.9517720332E-01   0.9620417938E-01   0.4662820323E-04  -0.1609898710E-04   0.2331410162E-03  -0.8049493551E-04   0.1845217267E+00  -0.3144591562E-01   0.4592274334E-01  -0.3333847216E-01   0.0000000000E+00   0.0000000000E+00   0.1801786784E-02  -0.1005792566E-02  -0.4334001380E-03   0.0000000000E+00   0.0000000000E+00   0.0000000000E+00   0.1971016807E+00
   0.1092453766E+00   0.7680330592E-01   0.5789377345E-04  -0.1014989721E-04   0.2894688672E-03  -0.5074948607E-04   0.1209571114E+00  -0.4251914168E-01   0.2353139091E-01  -0.4632207631E-01   0.0000000000E+00   0.0000000000E+00   0.1266534366E-02  -0.8586569236E-03  -0.6021869920E-03   0.0000000000E+00   0.0000000000E+00   0.0000000000E+00   0.1633063900E+00
   0.1947811138E+00   0.2160519534E+00   0.5504312632E-04  -0.1992243394E-04   0.2752156316E-03  -0.9961216969E-04   0.1983850249E+00  -0.2841061734E-02   0.5866318894E-01  -0.1239285560E-02   0.0000000000E+00   0.0000000000E+00   0.1816383867E-02  -0.7995552588E-03  -0.1611071228E-04   0.0000000000E+00   0.0000000000E+00   0.0000000000E+00   0.1786081373E+00
   0.2255675585E+00   0.3586429810E-01   0.8312258372E-04  -0.8957992124E-06   0.4156129186E-03  -0.4478996062E-05   0.8628205198E-01   0.1583004202E-01   0.3063362820E-01  -0.1485943486E-01   0.0000000000E+00   0.0000000000E+00   0.7234295091E-03  -0.1924466204E-03  -0.1931726531E-03   0.0000000000E+00   0.0000000000E+00   0.0000000000E+00   0.6918663000E-01
   0.2467036052E+00   0.3605142602E-01   0.8574054102E-04  -0.8822801871E-06   0.4287027051E-03  -0.4411400936E-05   0.9291262128E-01   0.1972643674E-01   0.3379171741E-01  -0.1131560562E-01   0.0000000000E+00   0.0000000000E+00   0.7685717503E-03  -0.1828486486E-03  -0.1471028731E-03   0.0000000000E+00   0.0000000000E+00   0.0000000000E+00   0.6998630448E-01
   0.2744838094E+00   0.1829796576E+00   0.8039339853E-04  -0.1111640452E-04   0.4019669927E-03  -0.5558202262E-04   0.1739304707E+00   0.2021726896E-02   0.5278565927E-01  -0.8117612026E-02   0.0000000000E+00   0.0000000000E+00   0.1574882548E-02  -0.6599311208E-03  -0.1055289563E-03   0.0000000000E+00   0.0000000000E+00   0.0000000000E+00   0.1536205277E+00
   0.2338011943E+00   0.2161176784E+00   0.6669405328E-04  -0.1681125956E-04   0.3334702664E-03  -0.8405629778E-04   0.1943842587E+00  -0.7398253421E-03   0.5809333000E-01  -0.4640132175E-02   0.0000000000E+00   0.0000000000E+00   0.1771782073E-02  -0.7648310194E-03  -0.6032171828E-04   0.0000000000E+00   0.0000000000E+00   0.0000000000E+00   0.1735405705E+00
   0.3154285321E+00   0.2132164199E+00   0.9020285210E-04  -0.1374952002E-04   0.4510142605E-03  -0.6874760010E-04   0.1853665119E+00   0.1463903069E-02   0.5604912450E-01  -0.2711013824E-02   0.0000000000E+00   0.0000000000E+00   0.1681126037E-02  -0.7096078787E-03  -0.3524317971E-04   0.0000000000E+00   0.0000000000E+00   0.0000000000E+00   0.1636579956E+00
   0.3505999940E+00   0.1922406594E+00   0.1000000000E-03  -0.1117277250E-04   0.5000000000E-03  -0.5586386249E-04   0.1746593982E+00   0.3261577273E-02   0.5337629265E-01  -0.2906305657E-04   0.0000000000E+00   0.0000000000E+00   0.1576680373E-02  -0.6514913000E-03  -0.3778197354E-06   0.0000000000E+00   0.0000000000E+00   0.0000000000E+00   0.1526454654E+00
   0.2934586299E+00   0.2157421816E+00   0.8393648815E-04  -0.1442007428E-04   0.4196824407E-03  -0.7210037141E-04   0.1873176752E+00   0.7626134158E-03   0.5642408659E-01  -0.4095097498E-02   0.0000000000E+00   0.0000000000E+00   0.1701616652E-02  -0.7235991513E-03  -0.5323626748E-04   0.0000000000E+00   0.0000000000E+00   0.0000000000E+00   0.1660295607E+00
   0.3350427758E+00   0.2178128869E+00   0.9562597456E-04  -0.1413768225E-04   0.4781298728E-03  -0.7068841126E-04   0.1866388679E+00   0.9719557627E-03   0.5628324711E-01  -0.1111230846E-02   0.0000000000E+00   0.0000000000E+00   0.1694623071E-02  -0.7190467875E-03  -0.1444600100E-04   0.0000000000E+00   0.0000000000E+00   0.0000000000E+00   0.1651249275E+00
   0.5157988133E-01   0.1654083608E+00   0.1626210523E-04  -0.3687736825E-04   0.8131052613E-04  -0.1843868413E-03   0.2181408576E+00   0.1406677038E-01   0.6966228841E-01   0.2237256082E-01   0.0000000000E+00   0.0000000000E+00   0.1930221400E-02  -0.7227417344E-03   0.2908432906E-03   0.0000000000E+00   0.0000000000E+00   0.0000000000E+00   0.1868593768E+00
   0.2478037907E+00   0.9579525607E-01   0.8133278368E-04  -0.3751839124E-05   0.4066639184E-03  -0.1875919562E-04   0.1274416722E+00   0.9680005873E-02   0.4113650342E-01  -0.1825482334E-01   0.0000000000E+00   0.0000000000E+00   0.1121967194E-02  -0.4089344681E-03  -0.2373127034E-03   0.0000000000E+00   0.0000000000E+00   0.0000000000E+00   0.1102261844E+00
   0.2652279664E+00   0.8644595403E-01   0.8522856238E-04  -0.2979561731E-05   0.4261428119E-03  -0.1489780865E-04   0.1197502896E+00   0.1319866766E-01   0.3988468717E-01  -0.1503416033E-01   0.0000000000E+00   0.0000000000E+00   0.1038252831E-02  -0.3469182536E-03  -0.1954440843E-03   0.0000000000E+00   0.0000000000E+00   0.0000000000E+00   0.9949337787E-01
   0.2650764066E+00   0.1059326106E+00   0.8375575922E-04  -0.4235230529E-05   0.4187787961E-03  -0.2117615265E-04   0.1319901259E+00   0.9964802897E-02   0.4258647865E-01  -0.1483337144E-01   0.0000000000E+00   0.0000000000E+00   0.1162247415E-02  -0.4240817848E-03  -0.1928338287E-03   0.0000000000E+00   0.0000000000E+00   0.0000000000E+00   0.1123935111E+00
   0.3505999940E+00   0.2114583886E+00   0.1000000000E-03  -0.1334590767E-04   0.5000000000E-03  -0.6672953833E-04   0.1822189108E+00   0.1259405584E-02   0.5504349492E-01   0.3029334869E-03   0.0000000000E+00   0.0000000000E+00   0.1653280407E-02  -0.6991931613E-03   0.3938135330E-05   0.0000000000E+00   0.0000000000E+00   0.0000000000E+00   0.1609586115E+00
   0.3010446568E+00   0.2007720503E+00   0.8661280102E-04  -0.1252394443E-04   0.4330640051E-03  -0.6261972213E-04   0.1810824363E+00   0.2343226175E-02   0.5502769875E-01  -0.4909143600E-02   0.0000000000E+00   0.0000000000E+00   0.1638711588E-02  -0.6848981435E-03  -0.6381886681E-04   0.0000000000E+00   0.0000000000E+00   0.0000000000E+00   0.1593112292E+00
   0.2963902846E+00   0.1829392886E+00   0.8611209591E-04  -0.1061989748E-04   0.4305604795E-03  -0.5309948740E-04   0.1725785051E+00   0.3736240425E-02   0.5289442366E-01  -0.6231813799E-02   0.0000000000E+00   0.0000000000E+00   0.1555893059E-02  -0.6390563821E-03  -0.8101357938E-04   0.0000000000E+00   0.0000000000E+00   0.0000000000E+00   0.1508024204E+00
   0.2999394248E+00   0.1250174379E+00   0.8958096474E-04  -0.5272015348E-05   0.4479048237E-03  -0.2636007674E-04   0.1415469174E+00   0.1120718452E-01   0.4582623057E-01  -0.8607933479E-02   0.0000000000E+00   0.0000000000E+00   0.1244368929E-02  -0.4500475986E-03  -0.1119031352E-03   0.0000000000E+00   0.0000000000E+00   0.0000000000E+00   0.1178861644E+00
   0.2802528637E+00   0.5577873608E-01   0.8942511934E-04  -0.1510935844E-05   0.4471255967E-03  -0.7554679220E-05   0.1061500290E+00   0.2135199853E-01   0.3825060826E-01  -0.9896128496E-02   0.0000000000E+00   0.0000000000E+00   0.8826924698E-03  -0.2196819265E-03  -0.1286496704E-03   0.0000000000E+00   0.0000000000E+00   0.0000000000E+00   0.7962939165E-01
   0.2987964031E+00   0.6736454034E-01   0.9177918794E-04  -0.1932743700E-05   0.4588959397E-03  -0.9663718502E-05   0.1125229042E+00   0.2068867203E-01   0.3996347287E-01  -0.8017576431E-02   0.0000000000E+00   0.0000000000E+00   0.9432726073E-03  -0.2505724109E-03  -0.1042284936E-03   0.0000000000E+00   0.0000000000E+00   0.0000000000E+00   0.8500801381E-01
   0.3167268325E+00   0.1536639560E+00   0.9218840939E-04  -0.7496504528E-05   0.4609420470E-03  -0.3748252264E-04   0.1562482161E+00   0.7878022712E-02   0.4923787166E-01  -0.4995557403E-02   0.0000000000E+00   0.0000000000E+00   0.1391134478E-02  -0.5376780363E-03  -0.6494224624E-04   0.0000000000E+00   0.0000000000E+00   0.0000000000E+00   0.1329002501E+00
   0.2240923793E+00   0.1991864474E+00   0.6535154740E-04  -0.1529060226E-04   0.3267577370E-03  -0.7645301128E-04   0.1876433748E+00  -0.2320571486E-02   0.5559684099E-01  -0.6128346127E-02   0.0000000000E+00   0.0000000000E+00   0.1716604939E-02  -0.7529263622E-03  -0.7966849966E-04   0.0000000000E+00   0.0000000000E+00   0.0000000000E+00   0.1689657594E+00
   0.2045520101E+00   0.1991201351E+00   0.5972634615E-04  -0.1677364474E-04   0.2986317308E-03  -0.8386822370E-04   0.1902078949E+00  -0.4260145937E-02   0.5578432470E-01  -0.4297571022E-02   0.0000000000E+00   0.0000000000E+00   0.1747506413E-02  -0.7805781183E-03  -0.5586842328E-04   0.0000000000E+00   0.0000000000E+00   0.0000000000E+00   0.1726241057E+00
   0.2535246711E+00   0.2161373856E+00   0.7246601828E-04  -0.1576940575E-04   0.3623300914E-03  -0.7884702875E-04   0.1919394169E+00   0.1871287497E-04   0.5758743892E-01  -0.5008839980E-02   0.0000000000E+00   0.0000000000E+00   0.1746575713E-02  -0.7483934386E-03  -0.6511491974E-04   0.0000000000E+00   0.0000000000E+00   0.0000000000E+00   0.1707953659E+00
   0.1168078663E+00   0.2160446162E+00   0.3140355172E-04  -0.3123346478E-04   0.1570177586E-03  -0.1561673239E-03   0.1945835629E+00  -0.4092436964E-02   0.5714733779E-01   0.1468833981E-01   0.0000000000E+00   0.0000000000E+00   0.1786670927E-02  -0.7961170718E-03   0.1909484176E-03   0.0000000000E+00   0.0000000000E+00   0.0000000000E+00   0.1779888469E+00
   0.1460088951E+00   0.1991337838E+00   0.4226234506E-04  -0.2388903121E-04   0.2113117253E-03  -0.1194451561E-03   0.1969943976E+00  -0.9147743923E-02   0.5635399611E-01   0.8143225014E-02   0.0000000000E+00   0.0000000000E+00   0.1828325220E-02  -0.8515226205E-03   0.1058619252E-03   0.0000000000E+00   0.0000000000E+00   0.0000000000E+00   0.1829645893E+00
   0.1359000055E+00   0.1822141283E+00   0.4127874233E-04  -0.2306162498E-04   0.2063937117E-03  -0.1153081249E-03   0.1977985593E+00  -0.1445785378E-01   0.5500221165E-01   0.8927694673E-02   0.0000000000E+00   0.0000000000E+00   0.1856352519E-02  -0.9029808506E-03   0.1160600308E-03   0.0000000000E+00   0.0000000000E+00   0.0000000000E+00   0.1880454717E+00
   0.2045091453E+00   0.3564192999E-01   0.8069088099E-04  -0.9308689699E-06   0.4034544049E-03  -0.4654344850E-05   0.7819221647E-01   0.1065257887E-01   0.2665343860E-01  -0.1887268930E-01   0.0000000000E+00   0.0000000000E+00   0.6700041123E-03  -0.2080111765E-03  -0.2453449609E-03   0.0000000000E+00   0.0000000000E+00   0.0000000000E+00   0.6917087604E-01
   0.1752703806E+00   0.1820974729E+00   0.5316027313E-04  -0.1744785510E-04   0.2658013656E-03  -0.8723927549E-04   0.1890442653E+00  -0.1104897890E-01   0.5339858593E-01  -0.2137415362E-02   0.0000000000E+00   0.0000000000E+00   0.1763393832E-02  -0.8378183429E-03  -0.2778639970E-04   0.0000000000E+00   0.0000000000E+00   0.0000000000E+00   0.1769237111E+00
   0.1655318671E+00   0.1990998193E+00   0.4817684922E-04  -0.2104111738E-04   0.2408842461E-03  -0.1052055869E-03   0.1951971463E+00  -0.8129506557E-02   0.5612029191E-01   0.2947629249E-02   0.0000000000E+00   0.0000000000E+00   0.1807999107E-02  -0.8352473801E-03   0.3831918024E-04   0.0000000000E+00   0.0000000000E+00   0.0000000000E+00   0.1800722515E+00
   0.1850416147E+00   0.1990949978E+00   0.5400312350E-04  -0.1867586586E-04   0.2700156175E-03  -0.9337932929E-04   0.1928740191E+00  -0.6288389319E-02   0.5597568895E-01  -0.1284089964E-02   0.0000000000E+00   0.0000000000E+00   0.1779678293E-02  -0.8094330175E-03  -0.1669316953E-04   0.0000000000E+00   0.0000000000E+00   0.0000000000E+00   0.1764697836E+00
   0.1939836885E+00   0.5328243852E-01   0.7752574879E-04  -0.1763496775E-05   0.3876287440E-03  -0.8817483877E-05   0.8824797926E-01   0.2697594856E-02   0.2728367223E-01  -0.2750663696E-01   0.0000000000E+00   0.0000000000E+00   0.7925359913E-03  -0.3196190059E-03  -0.3575862805E-03   0.0000000000E+00   0.0000000000E+00   0.0000000000E+00   0.9008499529E-01
   0.2149693455E+00   0.5362555385E-01   0.8029392365E-04  -0.1614908091E-05   0.4014696183E-03  -0.8074540453E-05   0.9372253288E-01   0.9466809680E-02   0.3095680277E-01  -0.2220136591E-01   0.0000000000E+00   0.0000000000E+00   0.8159544914E-03  -0.2793699101E-03  -0.2886177568E-03   0.0000000000E+00   0.0000000000E+00   0.0000000000E+00   0.8510902142E-01
   0.2438104164E+00   0.1992596760E+00   0.7092973118E-04  -0.1415733287E-04   0.3546486559E-03  -0.7078666435E-04   0.1852011560E+00  -0.5787333353E-03   0.5538672680E-01  -0.6920040176E-02   0.0000000000E+00   0.0000000000E+00   0.1687587580E-02  -0.7275509818E-03  -0.8996052229E-04   0.0000000000E+00   0.0000000000E+00   0.0000000000E+00   0.1655052483E+00
   0.5032074628E-01   0.1846896921E+00   0.1457176330E-04  -0.3934548866E-04   0.7285881650E-04  -0.1967274433E-03   0.2006602078E+00   0.1052111541E-01   0.6335439696E-01   0.2258983253E-01   0.0000000000E+00   0.0000000000E+00   0.1784975541E-02  -0.6868326601E-03   0.2936678229E-03   0.0000000000E+00   0.0000000000E+00   0.0000000000E+00   0.1745146723E+00
   0.3161947114E+00   0.1729260725E+00   0.9149289683E-04  -0.9327413347E-05   0.4574644842E-03  -0.4663706674E-04   0.1664390753E+00   0.5332599065E-02   0.5153150232E-01  -0.4443429118E-02   0.0000000000E+00   0.0000000000E+00   0.1493798449E-02  -0.6005857423E-03  -0.5776457854E-04   0.0000000000E+00   0.0000000000E+00   0.0000000000E+00   0.1439027372E+00
   0.2988775556E+00   0.1762808953E-01   0.9301610573E-04  -0.4018609195E-06   0.4650805287E-03  -0.2009304598E-05   0.9857512657E-01   0.2658742830E-01   0.3754876646E-01  -0.2188910723E-02   0.0000000000E+00   0.0000000000E+00   0.7933426814E-03  -0.1424973961E-03  -0.2845583939E-04   0.0000000000E+00   0.0000000000E+00   0.0000000000E+00   0.6728119825E-01
   0.3088999087E+00   0.0000000000E+00   0.9442861150E-04   0.0000000000E+00   0.4721430575E-03   0.0000000000E+00   0.9922048347E-01   0.2770500796E-01   0.3807764743E-01  -0.6771704666E-03   0.0000000000E+00   0.0000000000E+00   0.7948568685E-03  -0.1348443130E-03  -0.8803216066E-05   0.0000000000E+00   0.0000000000E+00   0.0000000000E+00   0.6693755274E-01
   0.2664855508E+00   0.6954932965E-01   0.8657229915E-04  -0.2117191741E-05   0.4328614958E-03  -0.1058595870E-04   0.1111759511E+00   0.1794469095E-01   0.3873619261E-01  -0.1382805402E-01   0.0000000000E+00   0.0000000000E+00   0.9417168600E-03  -0.2702895215E-03  -0.1797647022E-03   0.0000000000E+00   0.0000000000E+00   0.0000000000E+00   0.8802055956E-01
   0.2472886305E+00   0.7418538093E-01   0.8319341711E-04  -0.2437228834E-05   0.4159670855E-03  -0.1218614417E-04   0.1118995071E+00   0.1323563268E-01   0.3754054193E-01  -0.1793483119E-01   0.0000000000E+00   0.0000000000E+00   0.9666665471E-03  -0.3159638203E-03  -0.2331528055E-03   0.0000000000E+00   0.0000000000E+00   0.0000000000E+00   0.9430935469E-01
   0.1725622877E+00   0.5293312825E-01   0.7479161473E-04  -0.2088391227E-05   0.3739580737E-03  -0.1044195614E-04   0.8082420472E-01  -0.7729770232E-02   0.2192833035E-01  -0.3379682586E-01   0.0000000000E+00   0.0000000000E+00   0.7656463668E-03  -0.3855553075E-03  -0.4393587362E-03   0.0000000000E+00   0.0000000000E+00   0.0000000000E+00   0.9787439451E-01
   0.2328773462E+00   0.8723919835E-01   0.7948320817E-04  -0.3383808425E-05   0.3974160409E-03  -0.1691904213E-04   0.1189224455E+00   0.6766367329E-02   0.3770664384E-01  -0.2197112766E-01   0.0000000000E+00   0.0000000000E+00   0.1055805421E-02  -0.4022235947E-03  -0.2856246595E-03   0.0000000000E+00   0.0000000000E+00   0.0000000000E+00   0.1072740383E+00
   0.2151885374E+00   0.8961462972E-01   0.7601407209E-04  -0.3853196070E-05   0.3800703605E-03  -0.1926598035E-04   0.1225055213E+00   0.6890489175E-03   0.3695837106E-01  -0.2599911141E-01   0.0000000000E+00   0.0000000000E+00   0.1112112953E-02  -0.4715011879E-03  -0.3379884484E-03   0.0000000000E+00   0.0000000000E+00   0.0000000000E+00   0.1172581091E+00
   0.2250834001E+00   0.7172053625E-01   0.7988335576E-04  -0.2500375409E-05   0.3994167788E-03  -0.1250187704E-04   0.1086978909E+00   0.8272378676E-02   0.3509108088E-01  -0.2285454367E-01   0.0000000000E+00   0.0000000000E+00   0.9568885305E-03  -0.3486431286E-03  -0.2971090676E-03   0.0000000000E+00   0.0000000000E+00   0.0000000000E+00   0.9839841902E-01
   0.2361752189E+00   0.5425954235E-01   0.8316748699E-04  -0.1554691318E-05   0.4158374349E-03  -0.7773456591E-05   0.9887175061E-01   0.1450860219E-01   0.3401410584E-01  -0.1734080952E-01   0.0000000000E+00   0.0000000000E+00   0.8431493821E-03  -0.2535715475E-03  -0.2254305238E-03   0.0000000000E+00   0.0000000000E+00   0.0000000000E+00   0.8221534367E-01
   0.7487584443E-01   0.1105098194E+00   0.3476655517E-04  -0.2359359881E-04   0.1738327758E-03  -0.1179679940E-03   0.2313530838E+00  -0.1017081889E-01   0.6635467948E-01  -0.1793505328E-01   0.0000000000E+00   0.0000000000E+00   0.2144979257E-02  -0.9948314788E-03  -0.2331556927E-03   0.0000000000E+00   0.0000000000E+00   0.0000000000E+00   0.2137945350E+00
   0.1264647584E+00   0.1991971724E+00   0.3629240136E-04  -0.2718226231E-04   0.1814620068E-03  -0.1359113116E-03   0.1978548955E+00  -0.8794104365E-02   0.5671823735E-01   0.1370490522E-01   0.0000000000E+00   0.0000000000E+00   0.1834776556E-02  -0.8516604423E-03   0.1781637679E-03   0.0000000000E+00   0.0000000000E+00   0.0000000000E+00   0.1844397974E+00
   0.1160439500E+00   0.1825809826E+00   0.3504800033E-04  -0.2665739471E-04   0.1752400017E-03  -0.1332869735E-03   0.2016590165E+00  -0.1288982421E-01   0.5663075768E-01   0.1544438877E-01   0.0000000000E+00   0.0000000000E+00   0.1885367364E-02  -0.9037675646E-03   0.2007770540E-03   0.0000000000E+00   0.0000000000E+00   0.0000000000E+00   0.1914495042E+00
   0.1491083160E+00   0.5213715867E-01   0.7196933986E-04  -0.2760472441E-05   0.3598466993E-03  -0.1380236220E-04   0.7515628343E-01  -0.2060804506E-01   0.1636447151E-01  -0.3884730760E-01   0.0000000000E+00   0.0000000000E+00   0.7642935550E-03  -0.4806427154E-03  -0.5050149989E-03   0.0000000000E+00   0.0000000000E+00   0.0000000000E+00   0.1076390546E+00
   0.7074767936E-01   0.1570662954E+00   0.2340075986E-04  -0.3200609809E-04   0.1170037993E-03  -0.1600304904E-03   0.2241174138E+00  -0.6366828235E-03   0.6704421929E-01   0.2121664864E-01   0.0000000000E+00   0.0000000000E+00   0.2041951528E-02  -0.8798517274E-03   0.2758164323E-03   0.0000000000E+00   0.0000000000E+00   0.0000000000E+00   0.2028512476E+00
   0.8514038575E-01   0.1700742504E+00   0.2666704170E-04  -0.3090309479E-04   0.1333352085E-03  -0.1545154740E-03   0.2110377757E+00  -0.7812505382E-02   0.6096758109E-01   0.2109666912E-01   0.0000000000E+00   0.0000000000E+00   0.1950912530E-02  -0.8941411242E-03   0.2742566986E-03   0.0000000000E+00   0.0000000000E+00   0.0000000000E+00   0.1973176537E+00
   0.8075395528E-01   0.1851515885E+00   0.2376287966E-04  -0.3390807866E-04   0.1188143983E-03  -0.1695403933E-03   0.2014559932E+00  -0.2448486770E-02   0.5970225194E-01   0.2391563901E-01   0.0000000000E+00   0.0000000000E+00   0.1842798637E-02  -0.8079596032E-03   0.3109033072E-03   0.0000000000E+00   0.0000000000E+00   0.0000000000E+00   0.1856842505E+00
   0.6758388437E-01   0.1764891457E+00   0.2043247854E-04  -0.3530071751E-04   0.1021623927E-03  -0.1765035875E-03   0.2080347959E+00   0.2996143031E-02   0.6330928169E-01   0.2460473987E-01   0.0000000000E+00   0.0000000000E+00   0.1881431685E-02  -0.7840708025E-03   0.3198616183E-03   0.0000000000E+00   0.0000000000E+00   0.0000000000E+00   0.1874413837E+00
   0.9677335319E-01   0.1836819643E+00   0.2887671452E-04  -0.3055244630E-04   0.1443835726E-03  -0.1527622315E-03   0.2031873850E+00  -0.8146707877E-02   0.5851220314E-01   0.2103337275E-01   0.0000000000E+00   0.0000000000E+00   0.1880777364E-02  -0.8665658432E-03   0.2734338457E-03   0.0000000000E+00   0.0000000000E+00   0.0000000000E+00   0.1905947634E+00
   0.2993291874E+00   0.1627003379E+00   0.8774239678E-04  -0.8526350248E-05   0.4387119839E-03  -0.4263175124E-04   0.1610877435E+00   0.5362472071E-02   0.4993506469E-01  -0.7207951911E-02   0.0000000000E+00   0.0000000000E+00   0.1444984825E-02  -0.5794437040E-03  -0.9370337484E-04   0.0000000000E+00   0.0000000000E+00   0.0000000000E+00   0.1394701772E+00
   0.2836331143E+00   0.1692031100E+00   0.8356104818E-04  -0.9441165863E-05   0.4178052409E-03  -0.4720582931E-04   0.1665302071E+00   0.3879097573E-02   0.5112279142E-01  -0.8253989119E-02   0.0000000000E+00   0.0000000000E+00   0.1500296404E-02  -0.6141680199E-03  -0.1073018586E-03   0.0000000000E+00   0.0000000000E+00   0.0000000000E+00   0.1456248160E+00
   0.2828331985E+00   0.1531535708E+00   0.8430741951E-04  -0.7864868203E-05   0.4215370976E-03  -0.3932434101E-04   0.1585393300E+00   0.5845986545E-02   0.4931559497E-01  -0.9708898547E-02   0.0000000000E+00   0.0000000000E+00   0.1419908556E-02  -0.5651049096E-03  -0.1262156811E-03   0.0000000000E+00   0.0000000000E+00   0.0000000000E+00   0.1373051246E+00
   0.2044395042E+00   0.7155583534E-01   0.7658920632E-04  -0.2722394025E-05   0.3829460316E-03  -0.1361197012E-04   0.1077060041E+00   0.1850475770E-02   0.3286694396E-01  -0.2837202817E-01   0.0000000000E+00   0.0000000000E+00   0.9729077818E-03  -0.4032140865E-03  -0.3688363662E-03   0.0000000000E+00   0.0000000000E+00   0.0000000000E+00   0.1063205492E+00
   0.2997994978E+00   0.1439647495E+00   0.8869097262E-04  -0.6802914340E-05   0.4434548631E-03  -0.3401457170E-04   0.1517142714E+00   0.8132661080E-02   0.4795407975E-01  -0.7995736669E-02   0.0000000000E+00   0.0000000000E+00   0.1348882492E-02  -0.5176784427E-03  -0.1039445767E-03   0.0000000000E+00   0.0000000000E+00   0.0000000000E+00   0.1291375770E+00
   0.2821509176E+00   0.7699185361E-01   0.8867076971E-04  -0.2414398213E-05   0.4433538485E-03  -0.1207199107E-04   0.1175759052E+00   0.1868034184E-01   0.4087687410E-01  -0.1131646299E-01   0.0000000000E+00   0.0000000000E+00   0.9970874038E-03  -0.2885549194E-03  -0.1471140189E-03   0.0000000000E+00   0.0000000000E+00   0.0000000000E+00   0.9198334505E-01
   0.1285012760E+00   0.8315475896E-01   0.5986700584E-04  -0.8121355960E-05   0.2993350292E-03  -0.4060677980E-04   0.1362451421E+00  -0.3745908450E-01   0.2963581727E-01  -0.4242513991E-01   0.0000000000E+00   0.0000000000E+00   0.1385921222E-02  -0.8722337229E-03  -0.5515268188E-03   0.0000000000E+00   0.0000000000E+00   0.0000000000E+00   0.1682782972E+00
   0.1286545023E+00   0.1030624619E+00   0.5403788878E-04  -0.1115918132E-04   0.2701894439E-03  -0.5579590661E-04   0.1648929199E+00  -0.3736302182E-01   0.3825896943E-01  -0.3161356254E-01   0.0000000000E+00   0.0000000000E+00   0.1646241356E-02  -0.9830858863E-03  -0.4109763130E-03   0.0000000000E+00   0.0000000000E+00   0.0000000000E+00   0.1853486496E+00
   0.1146638196E+00   0.9381628007E-01   0.5299026334E-04  -0.1183777201E-04   0.2649513167E-03  -0.5918886004E-04   0.1639516831E+00  -0.3577004306E-01   0.3845449202E-01  -0.3661311363E-01   0.0000000000E+00   0.0000000000E+00   0.1631463484E-02  -0.9649189560E-03  -0.4759704772E-03   0.0000000000E+00   0.0000000000E+00   0.0000000000E+00   0.1866815843E+00
   0.1948225516E+00   0.1821313589E+00   0.5881276988E-04  -0.1542118773E-04   0.2940638494E-03  -0.7710593863E-04   0.1849206706E+00  -0.7749992609E-02   0.5315120339E-01  -0.5813105878E-02   0.0000000000E+00   0.0000000000E+00   0.1713003074E-02  -0.7917155480E-03  -0.7557037642E-04   0.0000000000E+00   0.0000000000E+00   0.0000000000E+00   0.1708577490E+00
   0.2541384013E+00   0.1823727047E+00   0.7508055518E-04  -0.1171471631E-04   0.3754027759E-03  -0.5857358154E-04   0.1757249807E+00   0.6475758031E-03   0.5291176695E-01  -0.8741244829E-02   0.0000000000E+00   0.0000000000E+00   0.1596571779E-02  -0.6794344850E-03  -0.1136361828E-03   0.0000000000E+00   0.0000000000E+00   0.0000000000E+00   0.1563936342E+00
   0.2340053854E+00   0.1824008993E+00   0.6966939632E-04  -0.1264078109E-04   0.3483469816E-03  -0.6320390543E-04   0.1785047569E+00  -0.1856027699E-02   0.5299461875E-01  -0.8890250884E-02   0.0000000000E+00   0.0000000000E+00   0.1631631796E-02  -0.7130584039E-03  -0.1155732615E-03   0.0000000000E+00   0.0000000000E+00   0.0000000000E+00   0.1608716855E+00
   0.2517247937E+00   0.1519556485E+00   0.7697678851E-04  -0.8531081945E-05   0.3848839426E-03  -0.4265540973E-04   0.1613239149E+00   0.2441054327E-02   0.4912949077E-01  -0.1320851157E-01   0.0000000000E+00   0.0000000000E+00   0.1458527514E-02  -0.6069496737E-03  -0.1717106504E-03   0.0000000000E+00   0.0000000000E+00   0.0000000000E+00   0.1432684717E+00
   0.2348987594E+00   0.1493912077E+00   0.7312972711E-04  -0.8853209451E-05   0.3656486356E-03  -0.4426604725E-04   0.1608365270E+00  -0.1732197941E-02   0.4773129871E-01  -0.1485030818E-01   0.0000000000E+00   0.0000000000E+00   0.1470367967E-02  -0.6430254564E-03  -0.1930540064E-03   0.0000000000E+00   0.0000000000E+00   0.0000000000E+00   0.1466256851E+00
   0.2485030475E+00   0.1359458941E+00   0.7769774264E-04  -0.7046978892E-05   0.3884887132E-03  -0.3523489446E-04   0.1511984234E+00   0.2696114450E-02   0.4616836135E-01  -0.1550917641E-01   0.0000000000E+00   0.0000000000E+00   0.1365390807E-02  -0.5651392098E-03  -0.2016192934E-03   0.0000000000E+00   0.0000000000E+00   0.0000000000E+00   0.1349349273E+00
   0.7650295747E-01   0.1346064780E+00   0.2887862848E-04  -0.2722982892E-04   0.1443931424E-03  -0.1361491446E-03   0.2306915184E+00  -0.9187489656E-02   0.6645120862E-01   0.7091567797E-02   0.0000000000E+00   0.0000000000E+00   0.2135124027E-02  -0.9833030776E-03   0.9219038136E-04   0.0000000000E+00   0.0000000000E+00   0.0000000000E+00   0.2131896977E+00
   0.2143857881E+00   0.1822493872E+00   0.6430017819E-04  -0.1384230638E-04   0.3215008909E-03  -0.6921153188E-04   0.1813107587E+00  -0.4581345219E-02   0.5301882403E-01  -0.7874202308E-02   0.0000000000E+00   0.0000000000E+00   0.1667795150E-02  -0.7488022002E-03  -0.1023646300E-03   0.0000000000E+00   0.0000000000E+00   0.0000000000E+00   0.1653663281E+00
   0.2575065355E+00   0.5434316656E-01   0.8620592160E-04  -0.1502723491E-05   0.4310296080E-03  -0.7513617453E-05   0.1027531325E+00   0.1863117895E-01   0.3641529345E-01  -0.1367922659E-01   0.0000000000E+00   0.0000000000E+00   0.8623919081E-03  -0.2311934884E-03  -0.1778299456E-03   0.0000000000E+00   0.0000000000E+00   0.0000000000E+00   0.8040725101E-01
   0.2825023080E+00   0.9623098150E-01   0.8767582844E-04  -0.3452467152E-05   0.4383791422E-03  -0.1726233576E-04   0.1265404152E+00   0.1454755996E-01   0.4232639254E-01  -0.1188850746E-01   0.0000000000E+00   0.0000000000E+00   0.1094782294E-02  -0.3611248236E-03  -0.1545505970E-03   0.0000000000E+00   0.0000000000E+00   0.0000000000E+00   0.1030827184E+00
   0.1428889155E+00   0.7225007948E-01   0.6598425080E-04  -0.5217252584E-05   0.3299212540E-03  -0.2608626292E-04   0.1067434384E+00  -0.3029342367E-01   0.2293500442E-01  -0.4288958317E-01   0.0000000000E+00   0.0000000000E+00   0.1089509642E-02  -0.6919695651E-03  -0.5575645811E-03   0.0000000000E+00   0.0000000000E+00   0.0000000000E+00   0.1406604096E+00
   0.1249343973E+00   0.1648668843E+00   0.4019954422E-04  -0.2225162219E-04   0.2009977211E-03  -0.1112581110E-03   0.2003613274E+00  -0.2043086023E-01   0.5397914014E-01   0.8076104233E-02   0.0000000000E+00   0.0000000000E+00   0.1902968434E-02  -0.9673300048E-03   0.1049893550E-03   0.0000000000E+00   0.0000000000E+00   0.0000000000E+00   0.1950104252E+00
   0.2660200933E+00   0.1442191915E+00   0.8099339070E-04  -0.7385750085E-05   0.4049669535E-03  -0.3692875042E-04   0.1536906114E+00   0.4442481621E-02   0.4743992790E-01  -0.1239553756E-01   0.0000000000E+00   0.0000000000E+00   0.1381258885E-02  -0.5589668016E-03  -0.1611419883E-03   0.0000000000E+00   0.0000000000E+00   0.0000000000E+00   0.1347900274E+00
   0.2827820070E+00   0.1345529631E+00   0.8542649807E-04  -0.6212490076E-05   0.4271324904E-03  -0.3106245038E-04   0.1475707893E+00   0.8194935608E-02   0.4672971749E-01  -0.1086142197E-01   0.0000000000E+00   0.0000000000E+00   0.1310933934E-02  -0.5009521644E-03  -0.1411984856E-03   0.0000000000E+00   0.0000000000E+00   0.0000000000E+00   0.1260740718E+00
   0.2826404307E+00   0.1155144486E+00   0.8656145024E-04  -0.4730069929E-05   0.4328072512E-03  -0.2365034964E-04   0.1369217207E+00   0.1108486813E-01   0.4440197666E-01  -0.1162426461E-01   0.0000000000E+00   0.0000000000E+00   0.1202756673E-02  -0.4331224109E-03  -0.1511154400E-03   0.0000000000E+00   0.0000000000E+00   0.0000000000E+00   0.1147050411E+00
   0.2244174032E+00   0.1655717306E+00   0.6877135983E-04  -0.1118139800E-04   0.3438567992E-03  -0.5590699002E-04   0.1709341205E+00  -0.3846130713E-02   0.5012639693E-01  -0.1147908729E-01   0.0000000000E+00   0.0000000000E+00   0.1570500406E-02  -0.7016428593E-03  -0.1492281348E-03   0.0000000000E+00   0.0000000000E+00   0.0000000000E+00   0.1562691156E+00
   0.2439543482E+00   0.1659625453E+00   0.7378603568E-04  -0.1028712287E-04   0.3689301784E-03  -0.5143561437E-04   0.1684903559E+00  -0.7899685198E-03   0.5031011620E-01  -0.1146863064E-01   0.0000000000E+00   0.0000000000E+00   0.1536343116E-02  -0.6643011014E-03  -0.1490921983E-03   0.0000000000E+00   0.0000000000E+00   0.0000000000E+00   0.1516806956E+00
   0.1825179854E+00   0.1088483900E+00   0.6630689825E-04  -0.6921998310E-05   0.3315344913E-03  -0.3460999155E-04   0.1450985398E+00  -0.1612934919E-01   0.3869075717E-01  -0.2739348773E-01   0.0000000000E+00   0.0000000000E+00   0.1383301174E-02  -0.7126613828E-03  -0.3561153404E-03   0.0000000000E+00   0.0000000000E+00   0.0000000000E+00   0.1496523659E+00
   0.2060511729E+00   0.1120172418E+00   0.7106148492E-04  -0.6119867277E-05   0.3553074246E-03  -0.3059933638E-04   0.1416381512E+00  -0.6214133467E-02   0.4062720533E-01  -0.2407793875E-01   0.0000000000E+00   0.0000000000E+00   0.1313142297E-02  -0.6089374044E-03  -0.3130132037E-03   0.0000000000E+00   0.0000000000E+00   0.0000000000E+00   0.1373587338E+00
   0.1892165507E+00   0.1288380850E+00   0.6455128247E-04  -0.8924502956E-05   0.3227564124E-03  -0.4462251478E-04   0.1577293834E+00  -0.1405008845E-01   0.4310378850E-01  -0.2121827379E-01   0.0000000000E+00   0.0000000000E+00   0.1490132734E-02  -0.7430004003E-03  -0.2758375593E-03   0.0000000000E+00   0.0000000000E+00   0.0000000000E+00   0.1559021453E+00
   0.2652479403E+00   0.1642577358E+00   0.7930387870E-04  -0.9367702802E-05   0.3965193935E-03  -0.4683851401E-04   0.1655675214E+00   0.2657250040E-02   0.5046743144E-01  -0.1031914361E-01   0.0000000000E+00   0.0000000000E+00   0.1496301170E-02  -0.6215323581E-03  -0.1341488669E-03   0.0000000000E+00   0.0000000000E+00   0.0000000000E+00   0.1461416368E+00
   0.1940917160E+00   0.9045117821E-01   0.7186232587E-04  -0.4468315220E-05   0.3593116294E-03  -0.2234157610E-04   0.1263308579E+00  -0.6386286891E-02   0.3598337129E-01  -0.2974546532E-01   0.0000000000E+00   0.0000000000E+00   0.1174517325E-02  -0.5508055564E-03  -0.3866910492E-03   0.0000000000E+00   0.0000000000E+00   0.0000000000E+00   0.1282267274E+00
   0.1352799006E+00   0.1460743025E+00   0.4642809209E-04  -0.1740574678E-04   0.2321404605E-03  -0.8702873388E-04   0.1937252704E+00  -0.2625424198E-01   0.5024130853E-01  -0.3954486355E-02   0.0000000000E+00   0.0000000000E+00   0.1865291504E-02  -0.9944421566E-03  -0.5140832262E-04   0.0000000000E+00   0.0000000000E+00   0.0000000000E+00   0.1934397060E+00
   0.1853548181E+00   0.1647634361E+00   0.5829152026E-04  -0.1398214185E-04   0.2914576013E-03  -0.6991070925E-04   0.1801882621E+00  -0.1239835613E-01   0.5033697179E-01  -0.8416934753E-02   0.0000000000E+00   0.0000000000E+00   0.1688066774E-02  -0.8155592630E-03  -0.1094201518E-03   0.0000000000E+00   0.0000000000E+00   0.0000000000E+00   0.1707029068E+00
   0.1962222399E+00   0.1477435158E+00   0.6354247705E-04  -0.1083186603E-04   0.3177123852E-03  -0.5415933015E-04   0.1688716036E+00  -0.1127710392E-01   0.4727834989E-01  -0.1516513676E-01   0.0000000000E+00   0.0000000000E+00   0.1580712298E-02  -0.7612208996E-03  -0.1971467779E-03   0.0000000000E+00   0.0000000000E+00   0.0000000000E+00   0.1612987269E+00
   0.1764965016E+00   0.1462641438E+00   0.5845409821E-04  -0.1227719457E-04   0.2922704910E-03  -0.6138597284E-04   0.1736770186E+00  -0.1792144282E-01   0.4672667272E-01  -0.1353832228E-01   0.0000000000E+00   0.0000000000E+00   0.1650354496E-02  -0.8404255021E-03  -0.1759981897E-03   0.0000000000E+00   0.0000000000E+00   0.0000000000E+00   0.1703926045E+00
   0.9360069838E-01   0.1193153970E+00   0.3862141379E-04  -0.2061383980E-04   0.1931070690E-03  -0.1030691990E-03   0.2123787641E+00  -0.2893348545E-01   0.5503358360E-01  -0.1195684888E-01   0.0000000000E+00   0.0000000000E+00   0.2045487347E-02  -0.1091571898E-02  -0.1554390354E-03   0.0000000000E+00   0.0000000000E+00   0.0000000000E+00   0.2131512044E+00
   0.2049216037E+00   0.1651602431E+00   0.6363545411E-04  -0.1239698249E-04   0.3181772705E-03  -0.6198491247E-04   0.1755035769E+00  -0.7472124711E-02   0.5040943566E-01  -0.1087640775E-01   0.0000000000E+00   0.0000000000E+00   0.1626223836E-02  -0.7524602849E-03  -0.1413933008E-03   0.0000000000E+00   0.0000000000E+00   0.0000000000E+00   0.1630668262E+00
   0.2652960946E+00   0.1253858979E+00   0.8230293932E-04  -0.5731520663E-05   0.4115146966E-03  -0.2865760331E-04   0.1429522839E+00   0.6256562717E-02   0.4476265399E-01  -0.1401325847E-01   0.0000000000E+00   0.0000000000E+00   0.1276465189E-02  -0.5005791866E-03  -0.1821723601E-03   0.0000000000E+00   0.0000000000E+00   0.0000000000E+00   0.1244798904E+00
   0.2470707878E+00   0.1160809707E+00   0.7927895943E-04  -0.5294710601E-05   0.3963947972E-03  -0.2647355301E-04   0.1398892661E+00   0.4913834267E-02   0.4344093011E-01  -0.1728183746E-01   0.0000000000E+00   0.0000000000E+00   0.1253828368E-02  -0.5008522459E-03  -0.2246638870E-03   0.0000000000E+00   0.0000000000E+00   0.0000000000E+00   0.1241125801E+00
   0.2267226124E+00   0.1285437321E+00   0.7352473290E-04  -0.6998985108E-05   0.3676236645E-03  -0.3499492554E-04   0.1487880106E+00  -0.2527585566E-02   0.4387812750E-01  -0.1854627912E-01   0.0000000000E+00   0.0000000000E+00   0.1363828480E-02  -0.6032742698E-03  -0.2411016286E-03   0.0000000000E+00   0.0000000000E+00   0.0000000000E+00   0.1380563780E+00
   0.1262280409E+00   0.1248395189E+00   0.4783381875E-04  -0.1524317565E-04   0.2391690938E-03  -0.7621587823E-04   0.1889215005E+00  -0.3490843047E-01   0.4620392101E-01  -0.1593079788E-01   0.0000000000E+00   0.0000000000E+00   0.1855328533E-02  -0.1054460569E-02  -0.2071003725E-03   0.0000000000E+00   0.0000000000E+00   0.0000000000E+00   0.1981176657E+00
   0.1078778449E+00   0.1273452215E+00   0.4137965587E-04  -0.1898875257E-04   0.2068982794E-03  -0.9494376287E-04   0.2080419758E+00  -0.3080869755E-01   0.5316998347E-01  -0.7852187173E-02   0.0000000000E+00   0.0000000000E+00   0.2013335900E-02  -0.1091722853E-02  -0.1020784332E-03   0.0000000000E+00   0.0000000000E+00   0.0000000000E+00   0.2103447886E+00
   0.1111217983E+00   0.1107792883E+00   0.4680738592E-04  -0.1532161133E-04   0.2340369296E-03  -0.7660805664E-04   0.1847184300E+00  -0.3860580132E-01   0.4383378861E-01  -0.2213018929E-01   0.0000000000E+00   0.0000000000E+00   0.1831500338E-02  -0.1071714669E-02  -0.2876924607E-03   0.0000000000E+00   0.0000000000E+00   0.0000000000E+00   0.1990091679E+00
   0.9619659793E-01   0.1357515613E+00   0.3558995526E-04  -0.2295261923E-04   0.1779497763E-03  -0.1147630961E-03   0.2177108593E+00  -0.2343548458E-01   0.5828261243E-01   0.3645246098E-02   0.0000000000E+00   0.0000000000E+00   0.2072567210E-02  -0.1062335261E-02   0.4738819927E-04   0.0000000000E+00   0.0000000000E+00   0.0000000000E+00   0.2124445413E+00
   0.2292801467E+00   0.1048839257E+00   0.7681845799E-04  -0.4761891542E-05   0.3840922900E-03  -0.2380945771E-04   0.1329268052E+00   0.2496385476E-02   0.4062695719E-01  -0.2114244762E-01   0.0000000000E+00   0.0000000000E+00   0.1199898024E-02  -0.4956974323E-03  -0.2748518190E-03   0.0000000000E+00   0.0000000000E+00   0.0000000000E+00   0.1217506174E+00
   0.1561044324E+00   0.1460157067E+00   0.5271806216E-04  -0.1450088103E-04   0.2635903108E-03  -0.7250440516E-04   0.1842270533E+00  -0.2193000830E-01   0.4868911350E-01  -0.9819068613E-02   0.0000000000E+00   0.0000000000E+00   0.1761993217E-02  -0.9180485834E-03  -0.1276478920E-03   0.0000000000E+00   0.0000000000E+00   0.0000000000E+00   0.1821241866E+00
   0.2066715577E+00   0.1330876748E+00   0.6819878842E-04  -0.8432371108E-05   0.3409939421E-03  -0.4216185554E-04   0.1579825814E+00  -0.8687515779E-02   0.4478851970E-01  -0.1981068899E-01   0.0000000000E+00   0.0000000000E+00   0.1471522803E-02  -0.6951884612E-03  -0.2575389568E-03   0.0000000000E+00   0.0000000000E+00   0.0000000000E+00   0.1512727186E+00
   0.2153996178E+00   0.1483017017E+00   0.6842529390E-04  -0.9691376414E-05   0.3421264695E-03  -0.4845688207E-04   0.1652457440E+00  -0.4570419626E-02   0.4820259731E-01  -0.1465768327E-01   0.0000000000E+00   0.0000000000E+00   0.1521560907E-02  -0.6860492202E-03  -0.1905498825E-03   0.0000000000E+00   0.0000000000E+00   0.0000000000E+00   0.1525973195E+00
   0.1467718745E+00   0.1280693732E+00   0.5329341505E-04  -0.1285929642E-04   0.2664670752E-03  -0.6429648210E-04   0.1777394286E+00  -0.2812614946E-01   0.4488398374E-01  -0.1761106620E-01   0.0000000000E+00   0.0000000000E+00   0.1727120783E-02  -0.9491317316E-03  -0.2289438606E-03   0.0000000000E+00   0.0000000000E+00   0.0000000000E+00   0.1832894954E+00
   0.1672701530E+00   0.1253146392E+00   0.5951766449E-04  -0.1020212695E-04   0.2975883224E-03  -0.5101063477E-04   0.1666921078E+00  -0.2102965210E-01   0.4369873670E-01  -0.2105119671E-01   0.0000000000E+00   0.0000000000E+00   0.1598913824E-02  -0.8414690545E-03  -0.2736655572E-03   0.0000000000E+00   0.0000000000E+00   0.0000000000E+00   0.1690973421E+00
   0.1495002965E+00   0.9404509749E-01   0.6173808214E-04  -0.7357051614E-05   0.3086904107E-03  -0.3678525807E-04   0.1401806862E+00  -0.2977482850E-01   0.3312175730E-01  -0.3609303449E-01   0.0000000000E+00   0.0000000000E+00   0.1391766075E-02  -0.8176556155E-03  -0.4692094483E-03   0.0000000000E+00   0.0000000000E+00   0.0000000000E+00   0.1615999350E+00
   0.1541388345E+00   0.1132015526E+00   0.5846741680E-04  -0.9756240121E-05   0.2923370840E-03  -0.4878120061E-04   0.1615911729E+00  -0.3067071608E-01   0.3927613705E-01  -0.2820250252E-01   0.0000000000E+00   0.0000000000E+00   0.1590095466E-02  -0.9093090907E-03  -0.3666325327E-03   0.0000000000E+00   0.0000000000E+00   0.0000000000E+00   0.1753938449E+00
   0.1652768802E+00   0.1063446169E+00   0.6271819546E-04  -0.7833180590E-05   0.3135909773E-03  -0.3916590295E-04   0.1453109949E+00  -0.2441319417E-01   0.3626934022E-01  -0.2932161504E-01   0.0000000000E+00   0.0000000000E+00   0.1417541511E-02  -0.7888729470E-03  -0.3811809956E-03   0.0000000000E+00   0.0000000000E+00   0.0000000000E+00   0.1571652075E+00
   0.1410588379E+00   0.1126444825E+00   0.5509548119E-04  -0.1112807777E-04   0.2754774059E-03  -0.5564038886E-04   0.1726289467E+00  -0.3163137484E-01   0.4229927156E-01  -0.2491314044E-01   0.0000000000E+00   0.0000000000E+00   0.1694285777E-02  -0.9610984032E-03  -0.3238708257E-03   0.0000000000E+00   0.0000000000E+00   0.0000000000E+00   0.1836946116E+00
           1           2           3           3
           4           5           6           6
           7           8           9           9
          10          11          12          12
          13           7          14          14
          15          16          17          17
          18          19          10          10
          20          21          22          22
          23          24           2           2
          25          23           2           2
          26           3          27          27
          28          29          30          30
          31          32          33          33
          34          31          25          25
          35          36          20          20
          26          27           8           8
          37          15          17          17
          38          39          40          40
          41          40          42          42
          43          44          45          45
          46          47          41          41
          48          49          50          50
          51          52          53          53
          54          55          56          56
          57          58          59          59
          60          61          62          62
          63          64          57          57
          62          13          65          65
          66          67          68          68
          69          66          70          70
          71          72          73          73
          74          75          76          76
          75          77          78          78
          77          79          78          78
          80          53          48          48
          81          82          83          83
          45          84          85          85
          44          86          45          45
          87          88          44          44
          41          42          87          87
          36          89          21          21
          20          36          21          21
          35          30          90          90
          91           1          26          26
          92          93          30          30
           6          94          92          92
          95          96           4           4
          12          97          95          95
          98          12          95          95
          99         100          10          10
         101         102          99          99
         103         104         101         101
         105         106         103         103
         107         108         105         105
         109         110         107         107
         111         112         109         109
          69          70         111         111
           8          27           9           9
           7           9          14          14
          13          14          65          65
         113         114         115         115
          59          58         116         116
          51         116          52          52
          62          65          15          15
         117         118         119         119
         120         121         122         122
         122         123         124         124
          31          33          25          25
          25          33          23          23
          28          20         120         120
         124          32          31          31
         125         124         126         126
         124         123          32          32
         127         120         122         122
         122         121         123         123
         120          20          22          22
         120          22         121         121
          91         128          34          34
         129           4           6           6
          37          17         130         130
         131         132          63          63
          53          52          49          49
          85         133          83          83
          83         134         135         135
          51          59         116         116
          57          64          58          58
          19          99          10          10
         136          63         137         137
          63         132          64          64
         138          60          37          37
         131         130         132         132
          37          62          15          15
          37         130         131         131
         135         134          79          79
         139         103         101         101
          56          55          82          82
          83         133         134         134
          55          45          85          85
          85          84         133         133
         140          46         141         141
          45          86          84          84
         142          44          43          43
          44          88          86          86
          46          87         142         142
          87          42          88          88
          47          38          41          41
          41          38          40          40
         143          29         144         144
          30          93          90          90
         145          92          29          29
          92          94          93          93
         146         147         129         129
           6           5          94          94
         148         149         150         150
           4          96           5           5
         151           7         152         152
          95          97          96          96
          18          12          98          98
          12          11          97          97
         153         139         101         101
          10         100          11          11
         153          99          19          19
          99         102         100         100
         154          51         155         155
         101         104         102         102
         156          71          73          73
         103         106         104         104
         157         103         139         139
         105         108         106         106
          74          76         158         158
         107         110         108         108
          76          75         159         159
         109         112         110         110
         160         109          72          72
         111          70         112         112
         161          67          69          69
          69          67          66          66
         126         124          31          31
         128         162         126         126
         144          28         127         127
         125         127         122         122
         125         122         124         124
         143         146         145         145
          77         135          79          79
          75          78         159         159
          82          85          83          83
         163         164         165         165
          76         159         166         166
         167         168          74          74
          81          83         135         135
         169          56          82          82
          55          43          45          45
          55          85          82          82
         170         141         171         171
         142          87          44          44
         161          76         166         166
         158          69         111         111
         172         135          77          77
         173         139         174         174
         161         166          67          67
         158         161          69          69
          72         109         107         107
         175         107         105         105
         176          95           4           4
         152           7          13          13
         145           6          92          92
         114         177         178         178
          18          10          12          12
         154          59          51          51
         153         101          99          99
         179         137          57          57
         114         180         181         181
         181         182          19          19
         183         179         184         184
         174         153         182         182
         173         185         157         157
         157         105         103         103
          29          92          30          30
         186         127         125         125
          35          90          36          36
          28          35          20          20
         186         144         127         127
         145         129           6           6
         176          98          95          95
         176           4         129         129
         175          72         107         107
         175         105         157         157
          74         187          75          75
         160         111         109         109
           1          25           2           2
           1           3          26          26
          48          53          49          49
         188          48          50          50
         188          50         189         189
          47         188         189         189
         155          51          53          53
         190         164         191         191
         137          63          57          57
         179          57          59          59
         154         179          59          59
         183         192         137         137
         193         194         195         195
         196         184         154         154
          60          62          37          37
         136         131          63          63
          47         189          38          38
          46          41          87          87
          28          30          35          35
          28         120         127         127
         141          46         142         142
          46         188          47          47
         197          26           8           8
         151           8           7           7
         178         198         199         199
          61         152          13          13
          61          13          62          62
         200         136         192         192
         198         176         147         147
         151         197           8           8
          34         126          31          31
          34          25           1           1
         158          76         161         161
         158         111         160         160
         144          29          28          28
         162         125         126         126
         162         186         125         125
         201         162         128         128
         128         126          34          34
         202         203         204         204
         140         188          46          46
         171         142          43          43
          91          34           1           1
         205         199         147         147
         168         206         187         187
         187          77          75          75
         167         158         160         160
         207         208         206         206
         169          82          81          81
         195         209         184         184
         210          81         172         172
         173         157         139         139
         190         170         211         211
          54          43          55          55
         171         141         142         142
         171          43          54          54
         172          81         135         135
         172          77         187         187
         182         153          19          19
         181          19          18          18
         147         176         129         129
         146         129         145         145
         177          18          98          98
         212         213         214         214
         143         145          29          29
         204         203         143         143
          73          72         175         175
         185         175         157         157
         215         182         180         180
         174         139         153         153
         216         185         217         217
         185          73         175         175
         198          98         176         176
         199         198         147         147
         167          71         168         168
          71         160          72          72
         177         181          18          18
         177          98         198         198
         215         174         182         182
         218         219         220         220
         143         144         186         186
         202         204         201         201
          91          26         197         197
         221          91         197         197
          80         155          53          53
         140          80          48          48
         184         179         154         154
         196         154         155         155
         192         136         137         137
         183         137         179         179
         215         222         174         174
         209         118         183         183
         223         155          80          80
         224          54          56          56
         138          37         131         131
         138         200          60          60
         140          48         188         188
         170         140         141         141
         170          80         140         140
         211          54         224         224
         225          61         200         200
         200          61          60          60
         221         128          91          91
         149         226         199         199
         227         228         208         208
         206         172         187         187
         229          56         169         169
         229         224          56          56
         211         170         171         171
         211         171          54          54
         168         187          74          74
         156         168          71          71
         228         169         210         210
         217         185         173         173
         210         169          81          81
         210         172         206         206
         167          74         158         158
         167         160          71          71
         222         173         174         174
         230         231         217         217
         205         147         146         146
         226         178         199         199
         232         233         234         234
         178         177         198         198
         235         156         216         216
         216          73         185         185
         207         168         156         156
         156          73         216         216
         180         182         181         181
         114         181         177         177
         203         205         146         146
         150         202         201         201
         194         236         209         209
         222         217         173         173
         115         178         226         226
         237         115         226         226
         203         146         143         143
         204         143         186         186
         238         180         113         113
         239         238         240         240
         221         201         128         128
         241         197         151         151
         223         196         155         155
         223          80         170         170
         118         192         183         183
         209         183         184         184
         195         184         196         196
         242         215         238         238
         191         196         223         223
         165         164         224         224
         204         186         162         162
         204         162         201         201
         227         208         235         235
         208         210         206         206
         164         211         224         224
         165         224         229         229
         243         229         228         228
         244         220         245         245
         207         206         168         168
         235         207         156         156
         149         199         205         205
         246         148         247         247
         231         216         217         217
         230         217         222         222
         138         131         136         136
         138         136         200         200
         235         208         207         207
         235         216         231         231
         213         248         214         214
         115         114         178         178
         202         149         205         205
         249         221         241         241
         242         222         215         215
         250         244         245         245
         202         205         203         203
         150         201         221         221
         251         115         237         237
         113         180         114         114
         240         113         251         251
         238         215         180         180
         252         233         245         245
         242         230         222         222
         228         229         169         169
         228         210         208         208
         191         195         196         196
         190         191         223         223
         236         118         209         209
         194         209         195         195
         193         195         191         191
         253         219         230         230
         190         223         170         170
         190         211         164         164
         241         221         197         197
         150         149         202         202
         248         241         151         151
         249         148         150         150
         218         235         231         231
         218         220         227         227
         148         237         226         226
         254         251         237         237
         148         226         149         149
         246         247         248         248
         219         231         230         230
         253         230         242         242
         255         251         254         254
         251         113         115         115
         239         242         238         238
         252         245         253         253
         234         252         239         239
         240         238         113         113
         234         240         255         255
         239         253         242         242
         243         165         229         229
         243         228         227         227
         163         191         164         164
         244         243         220         220
         225         212          61          61
         119         118         236         236
         249         150         221         221
         247         249         241         241
         233         236         194         194
         250         245         233         233
         214         151         152         152
         256         213         212         212
         247         148         249         249
         247         241         248         248
         220         243         227         227
         245         220         219         219
         213         246         248         248
         246         237         148         148
         257         255         254         254
         254         237         246         246
         245         219         253         253
         250         233         194         194
         163         244         250         250
         244         165         243         243
         232         234         255         255
         255         240         251         251
         252         253         239         239
         234         239         240         240
         258         255         257         257
         234         233         252         252
         232         119         236         236
         232         236         233         233
         250         194         193         193
         163         250         193         193
         117         200         192         192
         117         192         118         118
         218         227         235         235
         218         231         219         219
         214         248         151         151
         212         214         152         152
         259         256         257         257
         259         246         213         213
         212         152          61          61
         225         256         212         212
         258         257         256         256
         259         257         254         254
         163         193         191         191
         163         165         244         244
         256         117         119         119
         258         256         119         119
         259         254         246         246
         259         213         256         256
         258         119         232         232
         258         232         255         255
         225         200         117         117
         225         117         256         256
 VARIABLES = X,Y,DU1,DU2,U1,U2,S11,S22,S33,S12,S13,S23,E11,E22,E12,E33,E13,E23,SMISES
 ZONE, T="0.7000D+01" F=FEPOINT, I=  259 J=  457
   0.3719232268E-01   0.1122054869E+00   0.1941201151E-04  -0.3282987469E-04   0.1164720691E-03  -0.1969792481E-03   0.3688915428E+00   0.3899412166E-01   0.1223656993E+00  -0.4207341135E-01   0.0000000000E+00   0.0000000000E+00   0.3204835965E-02  -0.1083830510E-02  -0.5469543476E-03   0.0000000000E+00   0.0000000000E+00   0.0000000000E+00   0.3052657015E+00
   0.1961185548E-01   0.9785221299E-01   0.1468901177E-04  -0.3233051595E-04   0.8813407059E-04  -0.1939830957E-03   0.4940818931E+00   0.5094242822E-01   0.1635072964E+00  -0.5723336739E-01   0.0000000000E+00   0.0000000000E+00   0.4297469757E-02  -0.1463343286E-02  -0.7440337760E-03   0.0000000000E+00   0.0000000000E+00   0.0000000000E+00   0.4106744243E+00
   0.3847196138E-01   0.9218325594E-01   0.2908839679E-04  -0.2924228052E-04   0.1745303807E-03  -0.1754536831E-03   0.4582446609E+00   0.7919326363E-01   0.1612313774E+00  -0.1177378389E+00   0.0000000000E+00   0.0000000000E+00   0.3861172686E-02  -0.1066495479E-02  -0.1530591906E-02   0.0000000000E+00   0.0000000000E+00   0.0000000000E+00   0.3983739153E+00
   0.1070949474E+00   0.2328746450E+00   0.2644377234E-04  -0.3516485853E-04   0.1586626340E-03  -0.2109891512E-03   0.2203660844E+00  -0.1448610994E-02   0.6567524203E-01   0.1123679904E-01   0.0000000000E+00   0.0000000000E+00   0.2010980951E-02  -0.8726100893E-03   0.1460783876E-03   0.0000000000E+00   0.0000000000E+00   0.0000000000E+00   0.1980586658E+00
   0.9737057157E-01   0.2497275152E+00   0.2119252365E-04  -0.3892640651E-04   0.1271551419E-03  -0.2335584391E-03   0.2103468853E+00  -0.5639194815E-03   0.6293488974E-01   0.5336658003E-02   0.0000000000E+00   0.0000000000E+00   0.1916355942E-02  -0.8254845198E-03   0.6937655404E-04   0.0000000000E+00   0.0000000000E+00   0.0000000000E+00   0.1874769687E+00
   0.8751606505E-01   0.2327554470E+00   0.2098553643E-04  -0.3866714709E-04   0.1259132186E-03  -0.2320028826E-03   0.2092650784E+00  -0.6781104135E-03   0.6257609040E-01   0.1287172932E-01   0.0000000000E+00   0.0000000000E+00   0.1906956844E-02  -0.8223046105E-03   0.1673324811E-03   0.0000000000E+00   0.0000000000E+00   0.0000000000E+00   0.1879654477E+00
   0.8912000609E-01   0.7370423641E-01   0.5497542748E-04  -0.1458594200E-04   0.3298525649E-03  -0.8751565200E-04   0.1332942087E+00  -0.1766440370E-01   0.3468894151E-01  -0.5083227290E-01   0.0000000000E+00   0.0000000000E+00   0.1281868474E-02  -0.6805934877E-03  -0.6608195477E-03   0.0000000000E+00   0.0000000000E+00   0.0000000000E+00   0.1598880658E+00
   0.7359793485E-01   0.8899885149E-01   0.4355673570E-04  -0.2084923025E-04   0.2613404142E-03  -0.1250953815E-03   0.2103046386E+00   0.6634889853E-02   0.6508185853E-01  -0.6373818408E-01   0.0000000000E+00   0.0000000000E+00   0.1887896141E-02  -0.7598105928E-03  -0.8285963931E-03   0.0000000000E+00   0.0000000000E+00   0.0000000000E+00   0.2154191831E+00
   0.7108917951E-01   0.7056583518E-01   0.5407115790E-04  -0.2069231709E-04   0.3244269474E-03  -0.1241539025E-03   0.1349717628E+00   0.4227546057E-01   0.5317416702E-01  -0.7118084698E-01   0.0000000000E+00   0.0000000000E+00   0.1063368746E-02  -0.1416831839E-03  -0.9253510107E-03   0.0000000000E+00   0.0000000000E+00   0.0000000000E+00   0.1445739531E+00
   0.1655821702E+00   0.2329272274E+00   0.4411246148E-04  -0.2566909036E-04   0.2646747689E-03  -0.1540145422E-03   0.2396983146E+00  -0.1902176031E-02   0.7133884157E-01   0.2952343032E-02   0.0000000000E+00   0.0000000000E+00   0.2188673149E-02  -0.9521332288E-03   0.3838045942E-04   0.0000000000E+00   0.0000000000E+00   0.0000000000E+00   0.2146318549E+00
   0.1558271618E+00   0.2497945813E+00   0.3880011876E-04  -0.2934553547E-04   0.2328007126E-03  -0.1760732128E-03   0.2476065868E+00  -0.3264921321E-03   0.7418402839E-01   0.1901221276E-02   0.0000000000E+00   0.0000000000E+00   0.2254493259E-02  -0.9686367668E-03   0.2471587659E-04   0.0000000000E+00   0.0000000000E+00   0.0000000000E+00   0.2203408474E+00
   0.1460927027E+00   0.2329188115E+00   0.3807095796E-04  -0.2851478869E-04   0.2284257477E-03  -0.1710887321E-03   0.2360090858E+00  -0.2065201363E-02   0.7018316533E-01   0.5820310970E-02   0.0000000000E+00   0.0000000000E+00   0.2155736966E-02  -0.9392287669E-03   0.7566404262E-04   0.0000000000E+00   0.0000000000E+00   0.0000000000E+00   0.2116766205E+00
   0.1022679582E+00   0.5676880020E-01   0.6457102540E-04  -0.9188814991E-05   0.3874261524E-03  -0.5513288995E-04   0.7666241865E-01  -0.4197703002E-01   0.1040561659E-01  -0.3812212815E-01   0.0000000000E+00   0.0000000000E+00   0.8613384268E-03  -0.6809744060E-03  -0.4955876659E-03   0.0000000000E+00   0.0000000000E+00   0.0000000000E+00   0.1222916602E+00
   0.8359113750E-01   0.5544885860E-01   0.6345400012E-04  -0.1545215750E-04   0.3807240007E-03  -0.9271294500E-04   0.3871013917E-01  -0.3505501170E-01   0.1096538239E-02  -0.1750171302E-01   0.0000000000E+00   0.0000000000E+00   0.4889768121E-03  -0.4699701493E-03  -0.2275222693E-03   0.0000000000E+00   0.0000000000E+00   0.0000000000E+00   0.7659908762E-01
   0.9860240884E-01   0.1947543660E-01   0.7484032045E-04  -0.4799400208E-05   0.4490419227E-03  -0.2879640125E-04  -0.8771555997E-02  -0.1358420753E+00  -0.4338408938E-01   0.5198817647E-02   0.0000000000E+00   0.0000000000E+00   0.4499629339E-03  -0.1201953816E-02   0.6758462941E-04   0.0000000000E+00   0.0000000000E+00   0.0000000000E+00   0.1153193181E+00
   0.1005266726E+00   0.0000000000E+00   0.7523880562E-04   0.0000000000E+00   0.4514328337E-03   0.0000000000E+00   0.1370048820E-01  -0.2540478083E+00  -0.7210419602E-01  -0.8575291375E-02   0.0000000000E+00   0.0000000000E+00   0.1115460895E-02  -0.2365266959E-02  -0.1114787879E-03   0.0000000000E+00   0.0000000000E+00   0.0000000000E+00   0.2344001598E+00
   0.1213758497E+00   0.0000000000E+00   0.7750281467E-04   0.0000000000E+00   0.4650168880E-03   0.0000000000E+00  -0.6417225564E-02  -0.1077796986E+00  -0.3425907726E-01   0.1481531603E-02   0.0000000000E+00   0.0000000000E+00   0.3619440721E-03  -0.9557680779E-03   0.1925991084E-04   0.0000000000E+00   0.0000000000E+00   0.0000000000E+00   0.9403587774E-01
   0.1558381646E+00   0.2160219227E+00   0.4318394341E-04  -0.2474904393E-04   0.2591036605E-03  -0.1484942636E-03   0.2325678376E+00  -0.5419114180E-02   0.6814461702E-01   0.6940687546E-02   0.0000000000E+00   0.0000000000E+00   0.2137501867E-02  -0.9563285056E-03   0.9022893810E-04   0.0000000000E+00   0.0000000000E+00   0.0000000000E+00   0.2113694800E+00
   0.1753361535E+00   0.2160241337E+00   0.4912721475E-04  -0.2210861187E-04   0.2947632885E-03  -0.1326516712E-03   0.2326630506E+00  -0.4529426140E-02   0.6844008734E-01   0.2241670705E-02   0.0000000000E+00   0.0000000000E+00   0.2134898522E-02  -0.9486036752E-03   0.2914171917E-04   0.0000000000E+00   0.0000000000E+00   0.0000000000E+00   0.2104468186E+00
   0.1754695590E-01   0.2242079319E+00   0.4126342857E-05  -0.4690115214E-04   0.2475805714E-04  -0.2814069129E-03   0.1893207876E+00   0.5790635353E-02   0.5853342688E-01   0.5159345902E-02   0.0000000000E+00   0.0000000000E+00   0.1700235689E-02  -0.6856562899E-03   0.6707149673E-04   0.0000000000E+00   0.0000000000E+00   0.0000000000E+00   0.1641839278E+00
   0.0000000000E+00   0.2309137669E+00   0.0000000000E+00  -0.4803372350E-04   0.0000000000E+00  -0.2882023410E-03   0.1653867280E+00   0.4688270888E-02   0.5102249965E-01   0.1192863293E-02   0.0000000000E+00   0.0000000000E+00   0.1486734968E-02  -0.6023449740E-03   0.1550722281E-04   0.0000000000E+00   0.0000000000E+00   0.0000000000E+00   0.1433918617E+00
   0.0000000000E+00   0.2121760575E+00   0.0000000000E+00  -0.4627835925E-04   0.0000000000E+00  -0.2776701555E-03   0.1976333276E+00   0.1117576681E-01   0.6264272832E-01   0.5936216244E-02   0.0000000000E+00   0.0000000000E+00   0.1754877790E-02  -0.6690704996E-03   0.7717081117E-04   0.0000000000E+00   0.0000000000E+00   0.0000000000E+00   0.1670455555E+00
   0.0000000000E+00   0.1184900187E+00   0.0000000000E+00  -0.3714004802E-04   0.0000000000E+00  -0.2228402881E-03   0.4687634465E+00   0.4916600564E-01   0.1553788356E+00  -0.1338989365E-01   0.0000000000E+00   0.0000000000E+00   0.4073999941E-02  -0.1380766790E-02  -0.1740686175E-03   0.0000000000E+00   0.0000000000E+00   0.0000000000E+00   0.3813291282E+00
   0.0000000000E+00   0.9977950363E-01   0.0000000000E+00  -0.3149962457E-04   0.0000000000E+00  -0.1889977474E-03   0.6945960207E+00  -0.8850231237E-02   0.2057237368E+00  -0.3575289405E-02   0.0000000000E+00   0.0000000000E+00   0.6355339690E-02  -0.2789461585E-02  -0.4647876227E-04   0.0000000000E+00   0.0000000000E+00   0.0000000000E+00   0.6187174608E+00
   0.1829357533E-01   0.1243142542E+00   0.8175276058E-05  -0.3684340132E-04   0.4905165635E-04  -0.2210604079E-03   0.3417879792E+00   0.4846725929E-01   0.1170765716E+00  -0.1418785265E-01   0.0000000000E+00   0.0000000000E+00   0.2921248300E-02  -0.8919210595E-03  -0.1844420844E-03   0.0000000000E+00   0.0000000000E+00   0.0000000000E+00   0.2678431064E+00
   0.5580486338E-01   0.1016105284E+00   0.3139192580E-04  -0.2726465151E-04   0.1883515548E-03  -0.1635879090E-03   0.2884709967E+00   0.1697460535E-01   0.9163368060E-01  -0.6105993868E-01   0.0000000000E+00   0.0000000000E+00   0.2558885109E-02  -0.9705679783E-03  -0.7937792028E-03   0.0000000000E+00   0.0000000000E+00   0.0000000000E+00   0.2666972455E+00
   0.5585442367E-01   0.8296906852E-01   0.4248571004E-04  -0.2541299733E-04   0.2549142602E-03  -0.1524779840E-03   0.2858505160E+00   0.8151295865E-01   0.1102090424E+00  -0.1181093429E+00   0.0000000000E+00   0.0000000000E+00   0.2283339157E-02  -0.3730490889E-03  -0.1535421458E-02   0.0000000000E+00   0.0000000000E+00   0.0000000000E+00   0.2729538637E+00
   0.3657932251E-01   0.2151041975E+00   0.9197800863E-05  -0.4450264583E-04   0.5518680518E-04  -0.2670158750E-03   0.2004742986E+00   0.7131531368E-02   0.6228174898E-01   0.1618747129E-01   0.0000000000E+00   0.0000000000E+00   0.1796503144E-02  -0.7169528289E-03   0.2104371268E-03   0.0000000000E+00   0.0000000000E+00   0.0000000000E+00   0.1747785393E+00
   0.5771320699E-01   0.2155931970E+00   0.1468032773E-04  -0.4170714757E-04   0.8808196638E-04  -0.2502428854E-03   0.2061282446E+00   0.2156957470E-02   0.6248556062E-01   0.2100230255E-01   0.0000000000E+00   0.0000000000E+00   0.1867354892E-02  -0.7842718409E-03   0.2730299331E-03   0.0000000000E+00   0.0000000000E+00   0.0000000000E+00   0.1849858489E+00
   0.4859546317E-01   0.2327729102E+00   0.1102542486E-04  -0.4482782298E-04   0.6615254915E-04  -0.2689669379E-03   0.1876262786E+00   0.3100831469E-02   0.5721813303E-01   0.1238781856E-01   0.0000000000E+00   0.0000000000E+00   0.1695305893E-02  -0.7035249204E-03   0.1610416412E-03   0.0000000000E+00   0.0000000000E+00   0.0000000000E+00   0.1658281218E+00
   0.1748476518E-01   0.1453796423E+00   0.6212139837E-05  -0.3933338926E-04   0.3727283902E-04  -0.2360003356E-03   0.2945220543E+00   0.4553594465E-01   0.1020173997E+00   0.6822514183E-02   0.0000000000E+00   0.0000000000E+00   0.2502560510E-02  -0.7342589153E-03   0.8869268438E-04   0.0000000000E+00   0.0000000000E+00   0.0000000000E+00   0.2264731938E+00
   0.0000000000E+00   0.1559619316E+00   0.0000000000E+00  -0.4115263408E-04   0.0000000000E+00  -0.2469158045E-03   0.2759686029E+00   0.5144131860E-01   0.9822297644E-01   0.7179400985E-02   0.0000000000E+00   0.0000000000E+00   0.2310693144E-02  -0.6081615519E-03   0.9333221280E-04   0.0000000000E+00   0.0000000000E+00   0.0000000000E+00   0.2060369579E+00
   0.0000000000E+00   0.1372238510E+00   0.0000000000E+00  -0.3945028195E-04   0.0000000000E+00  -0.2367016917E-03   0.3273522683E+00   0.6656421305E-01   0.1181749444E+00   0.1838670815E-01   0.0000000000E+00   0.0000000000E+00   0.2719305211E-02  -0.6709395077E-03   0.2390272059E-03   0.0000000000E+00   0.0000000000E+00   0.0000000000E+00   0.2391849911E+00
   0.3602819548E-01   0.1341069131E+00   0.1409175419E-04  -0.3588499247E-04   0.8455052515E-04  -0.2153099548E-03   0.3160388877E+00   0.4427210580E-01   0.1080932981E+00   0.5681304553E-02   0.0000000000E+00   0.0000000000E+00   0.2703292666E-02  -0.8296754993E-03   0.7385695919E-04   0.0000000000E+00   0.0000000000E+00   0.0000000000E+00   0.2461795838E+00
   0.3220725977E-01   0.2342509891E+00   0.7092667677E-05  -0.4679655008E-04   0.4255600606E-04  -0.2807793005E-03   0.1719838101E+00   0.1131716542E-02   0.5193465799E-01   0.9046389963E-02   0.0000000000E+00   0.0000000000E+00   0.1560638977E-02  -0.6604382388E-03   0.1176030695E-03   0.0000000000E+00   0.0000000000E+00   0.0000000000E+00   0.1526715271E+00
   0.1946990889E-01   0.2496558849E+00   0.3637683758E-05  -0.4915930531E-04   0.2182610255E-04  -0.2949558319E-03   0.1550805094E+00   0.1411778129E-02   0.4694768625E-01   0.2493314984E-02   0.0000000000E+00   0.0000000000E+00   0.1405726701E-02  -0.5919668056E-03   0.3241309479E-04   0.0000000000E+00   0.0000000000E+00   0.0000000000E+00   0.1369867290E+00
   0.1294338520E+00   0.2145589996E-01   0.7610399698E-04  -0.1517634148E-05   0.4566239819E-03  -0.9105804888E-05   0.1734299500E-01  -0.4244176829E-01  -0.7529631986E-02  -0.1657511345E-01   0.0000000000E+00   0.0000000000E+00   0.3233441509E-03  -0.4538577720E-03  -0.2154764749E-03   0.0000000000E+00   0.0000000000E+00   0.0000000000E+00   0.6104587180E-01
   0.3298471166E+00   0.0000000000E+00   0.9720509032E-04   0.0000000000E+00   0.5832305419E-03   0.0000000000E+00   0.1172316565E+00   0.3286825790E-01   0.4502997432E-01  -0.4741109522E-03   0.0000000000E+00   0.0000000000E+00   0.9386218683E-03  -0.1581023134E-03  -0.6163442378E-05   0.0000000000E+00   0.0000000000E+00   0.0000000000E+00   0.7898850868E-01
   0.3506999940E+00   0.0000000000E+00   0.1000000000E-03   0.0000000000E+00   0.6000000000E-03   0.0000000000E+00   0.1164153468E+00   0.3267216741E-01   0.4472625426E-01   0.2260694263E-03   0.0000000000E+00   0.0000000000E+00   0.9319582029E-03  -0.1567031291E-03   0.2938902542E-05   0.0000000000E+00   0.0000000000E+00   0.0000000000E+00   0.7841287516E-01
   0.3506999940E+00   0.1922771204E-01   0.1000000000E-03  -0.4368373714E-06   0.6000000000E-03  -0.2621024228E-05   0.1189074654E+00   0.3288049405E-01   0.4553638782E-01   0.2197209951E-04   0.0000000000E+00   0.0000000000E+00   0.9538240079E-03  -0.1645266190E-03   0.2856372936E-06   0.0000000000E+00   0.0000000000E+00   0.0000000000E+00   0.8045071266E-01
   0.3321113045E+00   0.2616742276E-01   0.9743306808E-04  -0.6111768354E-06   0.5845984085E-03  -0.3667061013E-05   0.1205418222E+00   0.3259004044E-01   0.4593955880E-01  -0.1270013914E-02   0.0000000000E+00   0.0000000000E+00   0.9698294244E-03  -0.1735437386E-03  -0.1651018088E-04   0.0000000000E+00   0.0000000000E+00   0.0000000000E+00   0.8210969713E-01
   0.3506999940E+00   0.3845504076E-01   0.1000000000E-03  -0.9284490916E-06   0.6000000000E-03  -0.5570694550E-05   0.1230197777E+00   0.3107495971E-01   0.4622842121E-01  -0.1161660393E-03   0.0000000000E+00   0.0000000000E+00   0.9982876338E-03  -0.1969949995E-03  -0.1510158511E-05   0.0000000000E+00   0.0000000000E+00   0.0000000000E+00   0.8538125610E-01
   0.3164411016E+00   0.7693923399E-01   0.9432622658E-04  -0.2333973297E-05   0.5659573595E-03  -0.1400383978E-04   0.1377854183E+00   0.2427582002E-01   0.4861837151E-01  -0.6464494182E-02   0.0000000000E+00   0.0000000000E+00   0.1159171609E-02  -0.3164531693E-03  -0.8403842437E-04   0.0000000000E+00   0.0000000000E+00   0.0000000000E+00   0.1041019006E+00
   0.3334091023E+00   0.6719604952E-01   0.9724946777E-04  -0.1906182922E-05   0.5834968066E-03  -0.1143709753E-04   0.1337582122E+00   0.2666728536E-01   0.4812764926E-01  -0.2825649405E-02   0.0000000000E+00   0.0000000000E+00   0.1113197318E-02  -0.2789847307E-03  -0.3673344227E-04   0.0000000000E+00   0.0000000000E+00   0.0000000000E+00   0.9824692230E-01
   0.3337642395E+00   0.8653808568E-01   0.9707249753E-04  -0.2769230808E-05   0.5824349852E-03  -0.1661538485E-04   0.1429823587E+00   0.2308941788E-01   0.4982153298E-01  -0.3194696017E-02   0.0000000000E+00   0.0000000000E+00   0.1211090735E-02  -0.3475174963E-03  -0.4153104822E-04   0.0000000000E+00   0.0000000000E+00   0.0000000000E+00   0.1091465059E+00
   0.3120770564E+00   0.3581085233E-01   0.9454306042E-04  -0.8666808515E-06   0.5672583625E-03  -0.5200085109E-05   0.1206481344E+00   0.3017983783E-01   0.4524839168E-01  -0.4405618715E-02   0.0000000000E+00   0.0000000000E+00   0.9801966559E-03  -0.1958912001E-03  -0.5727304330E-04   0.0000000000E+00   0.0000000000E+00   0.0000000000E+00   0.8429327904E-01
   0.3164407301E+00   0.1595242713E-01   0.9536301880E-04  -0.3645236782E-06   0.5721781128E-03  -0.2187142069E-05   0.1168465103E+00   0.3201237371E-01   0.4465766520E-01  -0.1725845858E-02   0.0000000000E+00   0.0000000000E+00   0.9384549862E-03  -0.1643887894E-03  -0.2243599616E-04   0.0000000000E+00   0.0000000000E+00   0.0000000000E+00   0.7933651949E-01
   0.2782323024E+00   0.1795891108E-01   0.9030906378E-04  -0.4058028712E-06   0.5418543827E-03  -0.2434817227E-05   0.1114513430E+00   0.2935902983E-01   0.4224311186E-01  -0.3957732069E-02   0.0000000000E+00   0.0000000000E+00   0.8997070052E-03  -0.1674930663E-03  -0.5145051689E-04   0.0000000000E+00   0.0000000000E+00   0.0000000000E+00   0.7681383677E-01
   0.2672903486E+00   0.0000000000E+00   0.8909537818E-04   0.0000000000E+00   0.5345722691E-03   0.0000000000E+00   0.1068185627E+00   0.2898391679E-01   0.4074074384E-01  -0.1647713204E-02   0.0000000000E+00   0.0000000000E+00   0.8590116448E-03  -0.1528387516E-03  -0.2142027166E-04   0.0000000000E+00   0.0000000000E+00   0.0000000000E+00   0.7263048666E-01
   0.2881419851E+00   0.0000000000E+00   0.9171301002E-04   0.0000000000E+00   0.5502780601E-03   0.0000000000E+00   0.1119113964E+00   0.3095750570E-01   0.4286067062E-01  -0.1262162344E-02   0.0000000000E+00   0.0000000000E+00   0.8976594347E-03  -0.1547411439E-03  -0.1640811047E-04   0.0000000000E+00   0.0000000000E+00   0.0000000000E+00   0.7570958461E-01
   0.2360816249E+00   0.1793711792E-01   0.8517855705E-04  -0.3978398820E-06   0.5110713423E-03  -0.2387039292E-05   0.9778731010E-01   0.2357217522E-01   0.3640784560E-01  -0.7307363496E-02   0.0000000000E+00   0.0000000000E+00   0.7979330386E-03  -0.1668637149E-03  -0.9499572544E-04   0.0000000000E+00   0.0000000000E+00   0.0000000000E+00   0.7002618718E-01
   0.2464396393E+00   0.0000000000E+00   0.8661460806E-04   0.0000000000E+00   0.5196876483E-03   0.0000000000E+00   0.9967057353E-01   0.2614756426E-01   0.3774544134E-01  -0.2260211689E-02   0.0000000000E+00   0.0000000000E+00   0.8050267185E-03  -0.1507724020E-03  -0.2938275196E-04   0.0000000000E+00   0.0000000000E+00   0.0000000000E+00   0.6839815269E-01
   0.2571227620E+00   0.1801749176E-01   0.8766242762E-04  -0.4038623832E-06   0.5259745657E-03  -0.2423174299E-05   0.1054697598E+00   0.2693614662E-01   0.3972177192E-01  -0.5614400361E-02   0.0000000000E+00   0.0000000000E+00   0.8547238421E-03  -0.1662131289E-03  -0.7298720470E-04   0.0000000000E+00   0.0000000000E+00   0.0000000000E+00   0.7373008517E-01
   0.2995353236E+00   0.8660012073E-01   0.9115108225E-04  -0.2834995102E-05   0.5469064935E-03  -0.1700997061E-04   0.1422122344E+00   0.2077558388E-01   0.4889634547E-01  -0.9972513330E-02   0.0000000000E+00   0.0000000000E+00   0.1213106556E-02  -0.3655699007E-03  -0.1296426733E-03   0.0000000000E+00   0.0000000000E+00   0.0000000000E+00   0.1114355393E+00
   0.3168175587E+00   0.9619625117E-01   0.9388252582E-04  -0.3306704314E-05   0.5632951549E-03  -0.1984022589E-04   0.1479539972E+00   0.2039027483E-01   0.5050328161E-01  -0.6812050605E-02   0.0000000000E+00   0.0000000000E+00   0.1266859303E-02  -0.3914690883E-03  -0.8855665786E-04   0.0000000000E+00   0.0000000000E+00   0.0000000000E+00   0.1160839089E+00
   0.2999189782E+00   0.1058573030E+00   0.9041160451E-04  -0.3945999953E-05   0.5424696271E-03  -0.2367599972E-04   0.1533383387E+00   0.1688737902E-01   0.5106771531E-01  -0.1027864184E-01   0.0000000000E+00   0.0000000000E+00   0.1329518104E-02  -0.4443443717E-03  -0.1336223439E-03   0.0000000000E+00   0.0000000000E+00   0.0000000000E+00   0.1242535713E+00
   0.1941843378E+00   0.1782861931E-01   0.8086283346E-04  -0.4171990993E-06   0.4851770007E-03  -0.2503194596E-05   0.7504152404E-01   0.1200470645E-01   0.2611386915E-01  -0.1202208193E-01   0.0000000000E+00   0.0000000000E+00   0.6360595137E-03  -0.1834191151E-03  -0.1562870651E-03   0.0000000000E+00   0.0000000000E+00   0.0000000000E+00   0.6155338567E-01
   0.2047425048E+00   0.0000000000E+00   0.8226269061E-04   0.0000000000E+00   0.4935761436E-03   0.0000000000E+00   0.7785768552E-01   0.1679996696E-01   0.2839729574E-01  -0.4053978650E-02   0.0000000000E+00   0.0000000000E+00   0.6429850671E-03  -0.1507652742E-03  -0.5270172245E-04   0.0000000000E+00   0.0000000000E+00   0.0000000000E+00   0.5608404293E-01
   0.2151455086E+00   0.1790726201E-01   0.8289880062E-04  -0.4009839229E-06   0.4973928037E-03  -0.2405903538E-05   0.8771223949E-01   0.1875286500E-01   0.3193953135E-01  -0.9479494392E-02   0.0000000000E+00   0.0000000000E+00   0.7250452059E-03  -0.1714266625E-03  -0.1232334271E-03   0.0000000000E+00   0.0000000000E+00   0.0000000000E+00   0.6581526662E-01
   0.1326034434E+00   0.4105898959E-01   0.7271220213E-04  -0.2975130336E-05   0.4362732128E-03  -0.1785078202E-04   0.5304105378E-01  -0.4340205369E-01   0.2891700027E-02  -0.4064851109E-01   0.0000000000E+00   0.0000000000E+00   0.6519415988E-03  -0.6018187984E-03  -0.5284306442E-03   0.0000000000E+00   0.0000000000E+00   0.0000000000E+00   0.1095563833E+00
   0.1255538474E+00   0.5986838061E-01   0.6669990856E-04  -0.5398455227E-05   0.4001994513E-03  -0.3239073136E-04   0.9038045301E-01  -0.4935449278E-01   0.1230778807E-01  -0.5349508049E-01   0.0000000000E+00   0.0000000000E+00   0.1014944644E-02  -0.8016096510E-03  -0.6954360464E-03   0.0000000000E+00   0.0000000000E+00   0.0000000000E+00   0.1531636850E+00
   0.1134982162E+00   0.3919628239E-01   0.7163702634E-04  -0.4967444060E-05   0.4298221581E-03  -0.2980466436E-04   0.2767950902E-01  -0.7191150763E-01  -0.1326959958E-01  -0.2735313398E-01   0.0000000000E+00   0.0000000000E+00   0.5323384118E-03  -0.7623448046E-03  -0.3555907418E-03   0.0000000000E+00   0.0000000000E+00   0.0000000000E+00   0.1007199036E+00
   0.1732788932E+00   0.1762710379E-01   0.7913089277E-04  -0.4695721429E-06   0.4747853566E-03  -0.2817432857E-05   0.5916308125E-01   0.2932365169E-02   0.1862863393E-01  -0.1503503724E-01   0.0000000000E+00   0.0000000000E+00   0.5269478152E-03  -0.2040514939E-03  -0.1954554841E-03   0.0000000000E+00   0.0000000000E+00   0.0000000000E+00   0.5733570651E-01
   0.1838969233E+00   0.0000000000E+00   0.8051233002E-04   0.0000000000E+00   0.4830739801E-03   0.0000000000E+00   0.6163488642E-01   0.8882120967E-02   0.2115510221E-01  -0.5739273136E-02   0.0000000000E+00   0.0000000000E+00   0.5262371946E-03  -0.1595487562E-03  -0.7461055077E-04   0.0000000000E+00   0.0000000000E+00   0.0000000000E+00   0.4807971132E-01
   0.9288018476E-01   0.3819801855E-01   0.7031898010E-04  -0.1004629308E-04   0.4219138806E-03  -0.6027775849E-04  -0.1275339466E-02  -0.1291612363E+00  -0.3913097273E-01   0.1107307849E-01   0.0000000000E+00   0.0000000000E+00   0.4921232324E-03  -0.1170393426E-02   0.1439500204E-03   0.0000000000E+00   0.0000000000E+00   0.0000000000E+00   0.1101264035E+00
   0.3312148987E+00   0.2498730095E+00   0.9419153145E-04  -0.1814150357E-04   0.5651491887E-03  -0.1088490214E-03   0.2291245345E+00   0.1993419510E-03   0.6879716293E-01  -0.1008075925E-04   0.0000000000E+00   0.0000000000E+00   0.2084255830E-02  -0.8917716727E-03  -0.1310498703E-06   0.0000000000E+00   0.0000000000E+00   0.0000000000E+00   0.2034881605E+00
   0.3506999940E+00   0.2306596957E+00   0.1000000000E-03  -0.1564803975E-04   0.6000000000E-03  -0.9388823852E-04   0.2236459495E+00   0.1406797708E-03   0.6713598878E-01  -0.3078451694E-03   0.0000000000E+00   0.0000000000E+00   0.2034629489E-02  -0.8709390172E-03  -0.4001987202E-05   0.0000000000E+00   0.0000000000E+00   0.0000000000E+00   0.1986737740E+00
   0.3506999940E+00   0.2498731817E+00   0.1000000000E-03  -0.1811690379E-04   0.6000000000E-03  -0.1087014228E-03   0.2328973501E+00  -0.8437500203E-03   0.6961608001E-01   0.8401878622E-03   0.0000000000E+00   0.0000000000E+00   0.2122656511E-02  -0.9159777904E-03   0.1092244221E-04   0.0000000000E+00   0.0000000000E+00   0.0000000000E+00   0.2076783084E+00
   0.3247099969E+00   0.2322471597E+00   0.9244899176E-04  -0.1596961045E-04   0.5546939506E-03  -0.9581766270E-04   0.2239419166E+00   0.4376374803E-03   0.6731386624E-01  -0.1785997745E-02   0.0000000000E+00   0.0000000000E+00   0.2036164655E-02  -0.8693909738E-03  -0.2321797068E-04   0.0000000000E+00   0.0000000000E+00   0.0000000000E+00   0.1987169379E+00
   0.3117295751E+00   0.2498715020E+00   0.8835043679E-04  -0.1835685885E-04   0.5301026207E-03  -0.1101411531E-03   0.2322236348E+00   0.9520697184E-03   0.6995271134E-01  -0.1994728673E-03   0.0000000000E+00   0.0000000000E+00   0.2109522004E-02  -0.8970083411E-03  -0.2593147275E-05   0.0000000000E+00   0.0000000000E+00   0.0000000000E+00   0.2056412522E+00
   0.2838933129E+00   0.1996356843E+00   0.8197283816E-04  -0.1274481796E-04   0.4918370290E-03  -0.7646890778E-04   0.2113363193E+00   0.2142405383E-02   0.6404361739E-01  -0.6575779203E-02   0.0000000000E+00   0.0000000000E+00   0.1914805124E-02  -0.8047157561E-03  -0.8548512964E-04   0.0000000000E+00   0.0000000000E+00   0.0000000000E+00   0.1864707597E+00
   0.2735064093E+00   0.2160598543E+00   0.7821489395E-04  -0.1499395812E-04   0.4692893637E-03  -0.8996374871E-04   0.2212091918E+00   0.6267063161E-03   0.6655076945E-01  -0.5600835090E-02   0.0000000000E+00   0.0000000000E+00   0.2010559491E-02  -0.8570128207E-03  -0.7281085617E-04   0.0000000000E+00   0.0000000000E+00   0.0000000000E+00   0.1963485612E+00
   0.2638688908E+00   0.1993915380E+00   0.7648453726E-04  -0.1332028604E-04   0.4589072236E-03  -0.7992171623E-04   0.2132684513E+00   0.9320423336E-03   0.6426014810E-01  -0.7774391446E-02   0.0000000000E+00   0.0000000000E+00   0.1937107942E-02  -0.8232653750E-03  -0.1010670888E-03   0.0000000000E+00   0.0000000000E+00   0.0000000000E+00   0.1892890475E+00
   0.3162259164E+00   0.1923008511E+00   0.9093119617E-04  -0.1136598808E-04   0.5455871770E-03  -0.6819592849E-04   0.2040062740E+00   0.3313794995E-02   0.6219602070E-01  -0.4238922869E-02   0.0000000000E+00   0.0000000000E+00   0.1843533293E-02  -0.7654689342E-03  -0.5510599730E-04   0.0000000000E+00   0.0000000000E+00   0.0000000000E+00   0.1788392991E+00
   0.3337804791E+00   0.1825259116E+00   0.9568844018E-04  -0.1017834764E-04   0.5741306411E-03  -0.6107008583E-04   0.1989497114E+00   0.5383411118E-02   0.6129993674E-01  -0.2390671248E-02   0.0000000000E+00   0.0000000000E+00   0.1789447070E-02  -0.7269148331E-03  -0.3107872622E-04   0.0000000000E+00   0.0000000000E+00   0.0000000000E+00   0.1725967744E+00
   0.3337998283E+00   0.2015394110E+00   0.9544247375E-04  -0.1224042933E-04   0.5726548425E-03  -0.7344257596E-04   0.2100438318E+00   0.3110484445E-02   0.6394629488E-01  -0.2060595217E-02   0.0000000000E+00   0.0000000000E+00   0.1899267980E-02  -0.7908655356E-03  -0.2678773783E-04   0.0000000000E+00   0.0000000000E+00   0.0000000000E+00   0.1842513849E+00
   0.3338810833E+00   0.1633538882E+00   0.9598519135E-04  -0.8281110182E-05   0.5759111481E-03  -0.4968666109E-04   0.1876039773E+00   0.8314106066E-02   0.5877542502E-01  -0.2839130055E-02   0.0000000000E+00   0.0000000000E+00   0.1674771180E-02  -0.6559971464E-03  -0.3690869071E-04   0.0000000000E+00   0.0000000000E+00   0.0000000000E+00   0.1602160294E+00
   0.3506999940E+00   0.1730126829E+00   0.1000000000E-03  -0.9177871342E-05   0.6000000000E-03  -0.5506722805E-04   0.1930964041E+00   0.6774262843E-02   0.5996120008E-01   0.4223244072E-04   0.0000000000E+00   0.0000000000E+00   0.1730757652E-02  -0.6914301840E-03   0.5490217293E-06   0.0000000000E+00   0.0000000000E+00   0.0000000000E+00   0.1662413863E+00
   0.3506999940E+00   0.1537945034E+00   0.1000000000E-03  -0.7379511093E-05   0.6000000000E-03  -0.4427706656E-04   0.1817551952E+00   0.1007792977E-01   0.5754993751E-01   0.1477723980E-04   0.0000000000E+00   0.0000000000E+00   0.1614668351E-02  -0.6171361006E-03   0.1921041173E-06   0.0000000000E+00   0.0000000000E+00   0.0000000000E+00   0.1535477931E+00
   0.2682631205E+00   0.3628785455E-01   0.8853264907E-04  -0.8862074536E-06   0.5311958944E-03  -0.5317244722E-05   0.1136526001E+00   0.2629261126E-01   0.4198356341E-01  -0.9757914624E-02   0.0000000000E+00   0.0000000000E+00   0.9316974770E-03  -0.2039823779E-03  -0.1268528901E-03   0.0000000000E+00   0.0000000000E+00   0.0000000000E+00   0.8233590550E-01
   0.3170487596E+00   0.1345862576E+00   0.9280894746E-04  -0.5888344265E-05   0.5568536848E-03  -0.3533006559E-04   0.1706443740E+00   0.1263427744E-01   0.5498359544E-01  -0.6461859767E-02   0.0000000000E+00   0.0000000000E+00   0.1503590122E-02  -0.5505411341E-03  -0.8400417697E-04   0.0000000000E+00   0.0000000000E+00   0.0000000000E+00   0.1421037072E+00
   0.3170307804E+00   0.1154248387E+00   0.9337391188E-04  -0.4489895082E-05   0.5602434713E-03  -0.2693937049E-04   0.1590144076E+00   0.1644081773E-01   0.5263656759E-01  -0.6792633112E-02   0.0000000000E+00   0.0000000000E+00   0.1382911920E-02  -0.4705447482E-03  -0.8830423046E-04   0.0000000000E+00   0.0000000000E+00   0.0000000000E+00   0.1288935039E+00
   0.3339177145E+00   0.1249827616E+00   0.9656050119E-04  -0.5098057489E-05   0.5793630071E-03  -0.3058834494E-04   0.1645607070E+00   0.1532317034E-01   0.5396516320E-01  -0.3301664577E-02   0.0000000000E+00   0.0000000000E+00   0.1437742069E-02  -0.5023459072E-03  -0.4292163950E-04   0.0000000000E+00   0.0000000000E+00   0.0000000000E+00   0.1342773131E+00
   0.3506999940E+00   0.9613102807E-01   0.1000000000E-03  -0.3259976031E-05   0.6000000000E-03  -0.1955985618E-04   0.1481171886E+00   0.2138247655E-01   0.5084989955E-01  -0.1408710742E-03   0.0000000000E+00   0.0000000000E+00   0.1264474758E-02  -0.3830764990E-03  -0.1831323965E-05   0.0000000000E+00   0.0000000000E+00   0.0000000000E+00   0.1148640283E+00
   0.3338774962E+00   0.1057644880E+00   0.9683089282E-04  -0.3827144101E-05   0.5809853569E-03  -0.2296286461E-04   0.1533861237E+00   0.1921384472E-01   0.5177999051E-01  -0.3341266268E-02   0.0000000000E+00   0.0000000000E+00   0.1320879731E-02  -0.4233598954E-03  -0.4343646148E-04   0.0000000000E+00   0.0000000000E+00   0.0000000000E+00   0.1213490655E+00
   0.3506999940E+00   0.7690692571E-01   0.1000000000E-03  -0.2307727201E-05   0.6000000000E-03  -0.1384636320E-04   0.1384028146E+00   0.2507772516E-01   0.4904416193E-01  -0.1222133752E-03   0.0000000000E+00   0.0000000000E+00   0.1161662485E-02  -0.3115636780E-03  -0.1588773878E-05   0.0000000000E+00   0.0000000000E+00   0.0000000000E+00   0.1034384761E+00
   0.3325367386E+00   0.4722588724E-01   0.9732751395E-04  -0.1196580282E-05   0.5839650837E-03  -0.7179481691E-05   0.1257876855E+00   0.2977927941E-01   0.4667008949E-01  -0.2449428076E-02   0.0000000000E+00   0.0000000000E+00   0.1028528749E-02  -0.2195805310E-03  -0.3184256499E-04   0.0000000000E+00   0.0000000000E+00   0.0000000000E+00   0.8887381209E-01
   0.3506999940E+00   0.5768153546E-01   0.1000000000E-03  -0.1538934116E-05   0.6000000000E-03  -0.9233604695E-05   0.1299337375E+00   0.2825361910E-01   0.4745620699E-01  -0.7746754258E-04   0.0000000000E+00   0.0000000000E+00   0.1072207897E-02  -0.2496336426E-03  -0.1007078054E-05   0.0000000000E+00   0.0000000000E+00   0.0000000000E+00   0.9355972442E-01
   0.0000000000E+00   0.2496537957E+00   0.0000000000E+00  -0.4945776087E-04   0.0000000000E+00  -0.2967465652E-03   0.1309987138E+00   0.4919721052E-02   0.4077553045E-01   0.6421833784E-02   0.0000000000E+00   0.0000000000E+00   0.1172901383E-02  -0.4661255221E-03   0.8348383920E-04   0.0000000000E+00   0.0000000000E+00   0.0000000000E+00   0.1127218986E+00
   0.3894039491E-01   0.2496672920E+00   0.7357802020E-05  -0.4752971173E-04   0.4414681212E-04  -0.2851782704E-03   0.1512644707E+00  -0.6006525464E-03   0.4519914545E-01   0.4231300836E-02   0.0000000000E+00   0.0000000000E+00   0.1378849228E-02  -0.5953973740E-03   0.5500691087E-04   0.0000000000E+00   0.0000000000E+00   0.0000000000E+00   0.1349730336E+00
   0.5567280269E-01   0.1229254476E+00   0.2389837062E-04  -0.3039905284E-04   0.1433902237E-03  -0.1823943170E-03   0.3022508711E+00   0.1835758233E-01   0.9618253604E-01  -0.3678993712E-02   0.0000000000E+00   0.0000000000E+00   0.2678888356E-02  -0.1011724398E-02  -0.4782691826E-04   0.0000000000E+00   0.0000000000E+00   0.0000000000E+00   0.2521388160E+00
   0.6792897351E-01   0.2326767803E+00   0.1582448774E-04  -0.4199066471E-04   0.9494692644E-04  -0.2519439883E-03   0.1971829484E+00   0.4666377604E-03   0.5929487586E-01   0.1315088753E-01   0.0000000000E+00   0.0000000000E+00   0.1792544943E-02  -0.7647670953E-03   0.1709615379E-03   0.0000000000E+00   0.0000000000E+00   0.0000000000E+00   0.1764892979E+00
   0.5841380857E-01   0.2496838048E+00   0.1149642408E-04  -0.4517074934E-04   0.6897854451E-04  -0.2710244960E-03   0.1726024130E+00  -0.3352411374E-03   0.5168015156E-01   0.5214865206E-02   0.0000000000E+00   0.0000000000E+00   0.1571989399E-02  -0.6762001051E-03   0.6779324768E-04   0.0000000000E+00   0.0000000000E+00   0.0000000000E+00   0.1537262017E+00
   0.7789049420E-01   0.2497045122E+00   0.1610194302E-04  -0.4221253647E-04   0.9661165812E-04  -0.2532752188E-03   0.1917332058E+00  -0.4080865126E-03   0.5739753579E-01   0.5918383511E-02   0.0000000000E+00   0.0000000000E+00   0.1746363710E-02  -0.7514730900E-03   0.7693898564E-04   0.0000000000E+00   0.0000000000E+00   0.0000000000E+00   0.1708680967E+00
   0.1266015811E+00   0.2329069157E+00   0.3215730460E-04  -0.3172133343E-04   0.1929438276E-03  -0.1903280006E-03   0.2295068265E+00  -0.1891085988E-02   0.6828472217E-01   0.8730926810E-02   0.0000000000E+00   0.0000000000E+00   0.2095887357E-02  -0.9122855060E-03   0.1135020485E-03   0.0000000000E+00   0.0000000000E+00   0.0000000000E+00   0.2060993055E+00
   0.1168537700E+00   0.2497510747E+00   0.2672899411E-04  -0.3556076233E-04   0.1603739647E-03  -0.2133645740E-03   0.2265801374E+00  -0.5347845844E-03   0.6781360586E-01   0.4361482416E-02   0.0000000000E+00   0.0000000000E+00   0.2063964911E-02  -0.8885290758E-03   0.5669927141E-04   0.0000000000E+00   0.0000000000E+00   0.0000000000E+00   0.2018445556E+00
   0.1363395332E+00   0.2497737735E+00   0.3263188493E-04  -0.3231806522E-04   0.1957913096E-03  -0.1939083913E-03   0.2392200471E+00  -0.4453933645E-03   0.7163239611E-01   0.3170562881E-02   0.0000000000E+00   0.0000000000E+00   0.2178639462E-02  -0.9370112631E-03   0.4121731745E-04   0.0000000000E+00   0.0000000000E+00   0.0000000000E+00   0.2129906500E+00
   0.1363472067E+00   0.2160361515E+00   0.3725752590E-04  -0.2782107648E-04   0.2235451554E-03  -0.1669264589E-03   0.2307763947E+00  -0.5576523436E-02   0.6755996139E-01   0.1216803818E-01   0.0000000000E+00   0.0000000000E+00   0.2121813634E-02  -0.9507743028E-03   0.1581844963E-03   0.0000000000E+00   0.0000000000E+00   0.0000000000E+00   0.2105961999E+00
   0.1850732161E+00   0.2329384850E+00   0.5021115937E-04  -0.2324557095E-04   0.3012669562E-03  -0.1394734257E-03   0.2408706851E+00  -0.1534253565E-02   0.7180092945E-01   0.5182101446E-03   0.0000000000E+00   0.0000000000E+00   0.2197906823E-02  -0.9533573792E-03   0.6736731880E-05   0.0000000000E+00   0.0000000000E+00   0.0000000000E+00   0.2153162412E+00
   0.1753158744E+00   0.2498128441E+00   0.4512533631E-04  -0.2673656327E-04   0.2707520178E-03  -0.1604193796E-03   0.2518472712E+00  -0.1640112195E-03   0.7550497800E-01   0.7460680631E-03   0.0000000000E+00   0.0000000000E+00   0.2292449812E-02  -0.9836968598E-03   0.9698884820E-05   0.0000000000E+00   0.0000000000E+00   0.0000000000E+00   0.2239776186E+00
   0.2045642800E+00   0.2329556332E+00   0.5630814867E-04  -0.2125353871E-04   0.3378488920E-03  -0.1275212323E-03   0.2400802844E+00  -0.1088236969E-02   0.7169761422E-01  -0.1291048752E-02   0.0000000000E+00   0.0000000000E+00   0.2188974712E-02  -0.9462160654E-03  -0.1678363377E-04   0.0000000000E+00   0.0000000000E+00   0.0000000000E+00   0.2142680637E+00
   0.1948050149E+00   0.2498282863E+00   0.5150955272E-04  -0.2453052379E-04   0.3090573163E-03  -0.1471831428E-03   0.2525916688E+00   0.3947161289E-05   0.7577868480E-01  -0.1637437528E-03   0.0000000000E+00   0.0000000000E+00   0.2298568792E-02  -0.9850715893E-03  -0.2128668786E-05   0.0000000000E+00   0.0000000000E+00   0.0000000000E+00   0.2245050634E+00
   0.2240540056E+00   0.2329785764E+00   0.6236094008E-04  -0.1966609174E-04   0.3741656405E-03  -0.1179965505E-03   0.2379262266E+00  -0.6340675066E-03   0.7118764773E-01  -0.2425742987E-02   0.0000000000E+00   0.0000000000E+00   0.2167601526E-02  -0.9336822981E-03  -0.3153465883E-04   0.0000000000E+00   0.0000000000E+00   0.0000000000E+00   0.2120231655E+00
   0.2142940147E+00   0.2498409293E+00   0.5787581347E-04  -0.2272439270E-04   0.3472548808E-03  -0.1363463562E-03   0.2507672860E+00   0.1532658150E-03   0.7527616554E-01  -0.7767063199E-03   0.0000000000E+00   0.0000000000E+00   0.2281384566E-02  -0.9765976964E-03  -0.1009718216E-04   0.0000000000E+00   0.0000000000E+00   0.0000000000E+00   0.2227646978E+00
   0.2435574446E+00   0.2329982120E+00   0.6834822368E-04  -0.1843414761E-04   0.4100893421E-03  -0.1106048857E-03   0.2349738704E+00  -0.2432555548E-03   0.7041918445E-01  -0.2941930481E-02   0.0000000000E+00   0.0000000000E+00   0.2139210917E-02  -0.9186117201E-03  -0.3824509625E-04   0.0000000000E+00   0.0000000000E+00   0.0000000000E+00   0.2091092183E+00
   0.2337825373E+00   0.2498509881E+00   0.6417189818E-04  -0.2128741004E-04   0.3850313891E-03  -0.1277244602E-03   0.2473558179E+00   0.2623054301E-03   0.7428543700E-01  -0.1094232275E-02   0.0000000000E+00   0.0000000000E+00   0.2249914952E-02  -0.9623007104E-03  -0.1422501958E-04   0.0000000000E+00   0.0000000000E+00   0.0000000000E+00   0.2196451315E+00
   0.2632236894E+00   0.2329411699E+00   0.7430734189E-04  -0.1749115819E-04   0.4458440513E-03  -0.1049469491E-03   0.2317451131E+00   0.4784247771E-04   0.6953788668E-01  -0.2967686821E-02   0.0000000000E+00   0.0000000000E+00   0.2108693944E-02  -0.9033705747E-03  -0.3857992868E-04   0.0000000000E+00   0.0000000000E+00   0.0000000000E+00   0.2060079864E+00
   0.2532703749E+00   0.2498587643E+00   0.7036998968E-04  -0.2017652559E-04   0.4222199381E-03  -0.1210591536E-03   0.2432489534E+00   0.3549983016E-03   0.7308118551E-01  -0.1161924019E-02   0.0000000000E+00   0.0000000000E+00   0.2212180983E-02  -0.9454404337E-03  -0.1510501224E-04   0.0000000000E+00   0.0000000000E+00   0.0000000000E+00   0.2159201404E+00
   0.2831385136E+00   0.2327473330E+00   0.8026194488E-04  -0.1678485799E-04   0.4815716693E-03  -0.1007091479E-03   0.2286972079E+00   0.2799267335E-03   0.6869314039E-01  -0.2617537275E-02   0.0000000000E+00   0.0000000000E+00   0.2080052878E-02  -0.8893717776E-03  -0.3402798458E-04   0.0000000000E+00   0.0000000000E+00   0.0000000000E+00   0.2030974592E+00
   0.2727574500E+00   0.2498645761E+00   0.7646129132E-04  -0.1934627401E-04   0.4587677479E-03  -0.1160776441E-03   0.2390426298E+00   0.4232803178E-03   0.7183977304E-01  -0.1058107779E-02   0.0000000000E+00   0.0000000000E+00   0.2173637138E-02  -0.9284144054E-03  -0.1375540112E-04   0.0000000000E+00   0.0000000000E+00   0.0000000000E+00   0.2121272722E+00
   0.3035614007E+00   0.2322332989E+00   0.8629639206E-04  -0.1625101137E-04   0.5177783524E-03  -0.9750606824E-04   0.2257019285E+00   0.4744594852E-03   0.6785291639E-01  -0.2056102357E-02   0.0000000000E+00   0.0000000000E+00   0.2052037157E-02  -0.8759199398E-03  -0.2672933064E-04   0.0000000000E+00   0.0000000000E+00   0.0000000000E+00   0.2002587907E+00
   0.2922438123E+00   0.2498687210E+00   0.8245076167E-04  -0.1875414357E-04   0.4947045700E-03  -0.1125248614E-03   0.2353289402E+00   0.5632334028E-03   0.7076765207E-01  -0.8428029276E-03   0.0000000000E+00   0.0000000000E+00   0.2139296745E-02  -0.9126574427E-03  -0.1095643806E-04   0.0000000000E+00   0.0000000000E+00   0.0000000000E+00   0.2087156007E+00
   0.1656330614E+00   0.1645818761E+00   0.5264492073E-04  -0.1610441091E-04   0.3158695244E-03  -0.9662646548E-04   0.2169111352E+00  -0.1908679499E-01   0.5934730207E-01  -0.5087886327E-02   0.0000000000E+00   0.0000000000E+00   0.2048329831E-02  -0.1019643262E-02  -0.6614252226E-04   0.0000000000E+00   0.0000000000E+00   0.0000000000E+00   0.2082885603E+00
   0.1556977195E+00   0.1821072158E+00   0.4731992262E-04  -0.1998588413E-04   0.2839195357E-03  -0.1199153048E-03   0.2255025550E+00  -0.1573247320E-01   0.6293102453E-01   0.3368166074E-02   0.0000000000E+00   0.0000000000E+00   0.2113429896E-02  -0.1022625470E-02   0.4378615896E-04   0.0000000000E+00   0.0000000000E+00   0.0000000000E+00   0.2131363499E+00
   0.1455638250E+00   0.1646907032E+00   0.4663629242E-04  -0.1884354062E-04   0.2798177545E-03  -0.1130612437E-03   0.2252821513E+00  -0.2308798603E-01   0.6065824959E-01   0.1012189114E-02   0.0000000000E+00   0.0000000000E+00   0.2140110723E-02  -0.1088701063E-02   0.1315845849E-04   0.0000000000E+00   0.0000000000E+00   0.0000000000E+00   0.2188156517E+00
   0.2255902289E+00   0.0000000000E+00   0.8431926674E-04   0.0000000000E+00   0.5059156004E-03   0.0000000000E+00   0.9028833885E-01   0.2232935883E-01   0.3378530930E-01  -0.3025415456E-02   0.0000000000E+00   0.0000000000E+00   0.7345393841E-03  -0.1489273562E-03  -0.3933040093E-04   0.0000000000E+00   0.0000000000E+00   0.0000000000E+00   0.6292714756E-01
   0.1619158464E+00   0.7202656369E-01   0.6945749155E-04  -0.3959729420E-05   0.4167449493E-03  -0.2375837652E-04   0.1224170325E+00  -0.2431206557E-01   0.2943149008E-01  -0.4856312336E-01   0.0000000000E+00   0.0000000000E+00   0.1208812051E-02  -0.6986662234E-03  -0.6313206037E-03   0.0000000000E+00   0.0000000000E+00   0.0000000000E+00   0.1535089928E+00
   0.1835571298E+00   0.7142742336E-01   0.7319340108E-04  -0.3153219885E-05   0.4391604065E-03  -0.1891931931E-04   0.1229508935E+00  -0.8108698527E-02   0.3445265849E-01  -0.3992305673E-01   0.0000000000E+00   0.0000000000E+00   0.1150477055E-02  -0.5532976412E-03  -0.5189997374E-03   0.0000000000E+00   0.0000000000E+00   0.0000000000E+00   0.1348068221E+00
   0.1730253480E+00   0.9030561005E-01   0.6765671972E-04  -0.5340149371E-05   0.4059403183E-03  -0.3204089623E-04   0.1514958202E+00  -0.1926729721E-01   0.3966855688E-01  -0.3924373822E-01   0.0000000000E+00   0.0000000000E+00   0.1453754423E-02  -0.7661661032E-03  -0.5101685968E-03   0.0000000000E+00   0.0000000000E+00   0.0000000000E+00   0.1649318558E+00
   0.1742078383E-01   0.2037981531E+00   0.4587189689E-05  -0.4493656316E-04   0.2752313813E-04  -0.2696193790E-03   0.2103721525E+00   0.1648678632E-01   0.6805768165E-01   0.8800916910E-02   0.0000000000E+00   0.0000000000E+00   0.1850088121E-02  -0.6704216393E-03   0.1144119198E-03   0.0000000000E+00   0.0000000000E+00   0.0000000000E+00   0.1748227222E+00
   0.0000000000E+00   0.1934385236E+00   0.0000000000E+00  -0.4449576948E-04   0.0000000000E+00  -0.2669746169E-03   0.2213714745E+00   0.2304490591E-01   0.7332491411E-01   0.5335828214E-02   0.0000000000E+00   0.0000000000E+00   0.1924605284E-02  -0.6536401066E-03   0.6936576678E-04   0.0000000000E+00   0.0000000000E+00   0.0000000000E+00   0.1787302526E+00
   0.1686672370E-01   0.1842251449E+00   0.4818757143E-05  -0.4308944962E-04   0.2891254286E-04  -0.2585366977E-03   0.2327802900E+00   0.2686119329E-01   0.7789244499E-01   0.9953941351E-02   0.0000000000E+00   0.0000000000E+00   0.2013541985E-02  -0.6634062721E-03   0.1294012376E-03   0.0000000000E+00   0.0000000000E+00   0.0000000000E+00   0.1868418823E+00
   0.0000000000E+00   0.1747004779E+00   0.0000000000E+00  -0.4278843599E-04   0.0000000000E+00  -0.2567306159E-03   0.2447754395E+00   0.3670598843E-01   0.8444442837E-01   0.6397762139E-02   0.0000000000E+00   0.0000000000E+00   0.2084303144E-02  -0.6205997192E-03   0.8317090781E-04   0.0000000000E+00   0.0000000000E+00   0.0000000000E+00   0.1889629167E+00
   0.1694386012E-01   0.1650352259E+00   0.5289017049E-05  -0.4127929360E-04   0.3173410229E-04  -0.2476757616E-03   0.2576481641E+00   0.3803229856E-01   0.8870413880E-01   0.1014976240E-01   0.0000000000E+00   0.0000000000E+00   0.2196272329E-02  -0.6587339232E-03   0.1319469112E-03   0.0000000000E+00   0.0000000000E+00   0.0000000000E+00   0.2001989839E+00
   0.3386796511E-01   0.1747055175E+00   0.1014538663E-04  -0.4058906859E-04   0.6087231980E-04  -0.2435344115E-03   0.2453179779E+00   0.2555234772E-01   0.8126109768E-01   0.2099844119E-01   0.0000000000E+00   0.0000000000E+00   0.2132739443E-02  -0.7242137495E-03   0.2729797354E-03   0.0000000000E+00   0.0000000000E+00   0.0000000000E+00   0.2012164387E+00
   0.3466637646E-01   0.1549725966E+00   0.1151145197E-04  -0.3842177743E-04   0.6906871181E-04  -0.2305306646E-03   0.2712230613E+00   0.3416139342E-01   0.9161533643E-01   0.1880418798E-01   0.0000000000E+00   0.0000000000E+00   0.2334900424E-02  -0.7469012591E-03   0.2444544438E-03   0.0000000000E+00   0.0000000000E+00   0.0000000000E+00   0.2168209771E+00
   0.3379952911E-01   0.1939558827E+00   0.9337173269E-05  -0.4258333161E-04   0.5602303961E-04  -0.2554999896E-03   0.2235193221E+00   0.1528562526E-01   0.7164148420E-01   0.1907804764E-01   0.0000000000E+00   0.0000000000E+00   0.1974411892E-02  -0.7326261663E-03   0.2480146193E-03   0.0000000000E+00   0.0000000000E+00   0.0000000000E+00   0.1894511056E+00
   0.5397764643E-01   0.1447735533E+00   0.1916509064E-04  -0.3383695617E-04   0.1149905438E-03  -0.2030217370E-03   0.2782872961E+00   0.1647454016E-01   0.8842855088E-01   0.1961853297E-01   0.0000000000E+00   0.0000000000E+00   0.2468163688E-02  -0.9354021393E-03   0.2550409286E-03   0.0000000000E+00   0.0000000000E+00   0.0000000000E+00   0.2368277457E+00
   0.9729267311E-01   0.2158873348E+00   0.2568378723E-04  -0.3482231031E-04   0.1541027234E-03  -0.2089338619E-03   0.2211815724E+00  -0.3331879797E-02   0.6535490777E-01   0.2100469348E-01   0.0000000000E+00   0.0000000000E+00   0.2025746640E-02  -0.8929282384E-03   0.2730610152E-03   0.0000000000E+00   0.0000000000E+00   0.0000000000E+00   0.2024504961E+00
   0.1422140270E+00   0.0000000000E+00   0.7819443345E-04   0.0000000000E+00   0.4691666007E-03   0.0000000000E+00   0.1796465532E-01  -0.2852271166E-01  -0.3167416903E-02  -0.1856698057E-01   0.0000000000E+00   0.0000000000E+00   0.2747169389E-03  -0.3296188319E-03  -0.2413707474E-03   0.0000000000E+00   0.0000000000E+00   0.0000000000E+00   0.4789233634E-01
   0.1525961545E+00   0.1778043369E-01   0.7771078703E-04  -0.7156151622E-06   0.4662647222E-03  -0.4293690973E-05   0.3997190420E-01  -0.1620970023E-01   0.7128661192E-02  -0.1489756106E-01   0.0000000000E+00   0.0000000000E+00   0.4269621592E-03  -0.3033986985E-03  -0.1936682938E-03   0.0000000000E+00   0.0000000000E+00   0.0000000000E+00   0.5725093238E-01
   0.1630540462E+00   0.0000000000E+00   0.7915031555E-04   0.0000000000E+00   0.4749018933E-03   0.0000000000E+00   0.3949344076E-01  -0.6953475860E-02   0.9761989469E-02  -0.7910904832E-02   0.0000000000E+00   0.0000000000E+00   0.3865088667E-03  -0.2173010493E-03  -0.1028417628E-03   0.0000000000E+00   0.0000000000E+00   0.0000000000E+00   0.4276486543E-01
   0.3506999940E+00   0.1153536934E+00   0.1000000000E-03  -0.4417510903E-05   0.6000000000E-03  -0.2650506542E-04   0.1588751056E+00   0.1751115858E-01   0.5291587925E-01  -0.1044057685E-03   0.0000000000E+00   0.0000000000E+00   0.1377469942E-02  -0.4602613687E-03  -0.1357274991E-05   0.0000000000E+00   0.0000000000E+00   0.0000000000E+00   0.1274008744E+00
   0.3506999940E+00   0.1345748571E+00   0.1000000000E-03  -0.5790553006E-05   0.6000000000E-03  -0.3474331804E-04   0.1701820337E+00   0.1366922048E-01   0.5515537625E-01  -0.4433589447E-04   0.0000000000E+00   0.0000000000E+00   0.1495346547E-02  -0.5393200251E-03  -0.5763666281E-06   0.0000000000E+00   0.0000000000E+00   0.0000000000E+00   0.1404404392E+00
   0.3339366138E+00   0.1441838535E+00   0.9628025520E-04  -0.6585067313E-05   0.5776815312E-03  -0.3951040388E-04   0.1760934511E+00   0.1162483644E-01   0.5631548626E-01  -0.3110025779E-02   0.0000000000E+00   0.0000000000E+00   0.1557113543E-02  -0.5809784477E-03  -0.4043033513E-04   0.0000000000E+00   0.0000000000E+00   0.0000000000E+00   0.1473984586E+00
   0.1627804186E+00   0.3473402672E-01   0.7654294237E-04  -0.1238768559E-05   0.4592576542E-03  -0.7432611356E-05   0.6824204221E-01  -0.8065575321E-02   0.1805294007E-01  -0.3270908619E-01   0.0000000000E+00   0.0000000000E+00   0.6524583279E-03  -0.3395407001E-03  -0.4252181205E-03   0.0000000000E+00   0.0000000000E+00   0.0000000000E+00   0.8782835592E-01
   0.1835645755E+00   0.3536534752E-01   0.7847193212E-04  -0.1026483295E-05   0.4708315927E-03  -0.6158899771E-05   0.7937648969E-01   0.2600647059E-02   0.2459314103E-01  -0.2756593794E-01   0.0000000000E+00   0.0000000000E+00   0.7121835327E-03  -0.2859024216E-03  -0.3583571932E-03   0.0000000000E+00   0.0000000000E+00   0.0000000000E+00   0.8339479622E-01
   0.1453204949E+00   0.3343353173E-01   0.7524513134E-04  -0.1729952182E-05   0.4514707880E-03  -0.1037971309E-04   0.4229454043E-01  -0.2840346126E-01   0.4167323750E-02  -0.3828773937E-01   0.0000000000E+00   0.0000000000E+00   0.4956538168E-03  -0.4234202052E-03  -0.4977406118E-03   0.0000000000E+00   0.0000000000E+00   0.0000000000E+00   0.8895830509E-01
   0.2143363016E+00   0.2160653303E+00   0.6090037777E-04  -0.1817339284E-04   0.3654022666E-03  -0.1090403571E-03   0.2293788447E+00  -0.2056797837E-02   0.6819661405E-01  -0.3991510516E-02   0.0000000000E+00   0.0000000000E+00   0.2095368998E-02  -0.9132943545E-03  -0.5188963671E-04   0.0000000000E+00   0.0000000000E+00   0.0000000000E+00   0.2056284202E+00
   0.2895200527E+00   0.3564232956E-01   0.9143323809E-04  -0.8669348658E-06   0.5485994286E-03  -0.5201609195E-05   0.1177465323E+00   0.2877543493E-01   0.4395659017E-01  -0.7196609510E-02   0.0000000000E+00   0.0000000000E+00   0.9592692476E-03  -0.1973550180E-03  -0.9355592363E-04   0.0000000000E+00   0.0000000000E+00   0.0000000000E+00   0.8336338299E-01
   0.2992920390E+00   0.5044294224E-01   0.9238457033E-04  -0.1315979293E-05   0.5543074220E-03  -0.7895875760E-05   0.1242525962E+00   0.2833856990E-01   0.4577734983E-01  -0.7561186362E-02   0.0000000000E+00   0.0000000000E+00   0.1020178203E-02  -0.2267041392E-03  -0.9829542271E-04   0.0000000000E+00   0.0000000000E+00   0.0000000000E+00   0.8940035489E-01
   0.3155132151E+00   0.5753569037E-01   0.9462544989E-04  -0.1553832960E-05   0.5677526993E-03  -0.9322997762E-05   0.1296302902E+00   0.2829697130E-01   0.4737817845E-01  -0.5642593086E-02   0.0000000000E+00   0.0000000000E+00   0.1069277453E-02  -0.2480556929E-03  -0.7335371012E-04   0.0000000000E+00   0.0000000000E+00   0.0000000000E+00   0.9377105184E-01
   0.6716873408E-01   0.1966980168E+00   0.1872318336E-04  -0.3794374760E-04   0.1123391002E-03  -0.2276624856E-03   0.2258804026E+00   0.2795457849E-02   0.6860275813E-01   0.2721750283E-01   0.0000000000E+00   0.0000000000E+00   0.2044609378E-02  -0.8554949036E-03   0.3538275368E-03   0.0000000000E+00   0.0000000000E+00   0.0000000000E+00   0.2040932905E+00
   0.4900239411E-01   0.2011700006E+00   0.1324767214E-04  -0.4139290783E-04   0.7948603287E-04  -0.2483574470E-03   0.2188915602E+00   0.9079968332E-02   0.6839145856E-01   0.2477291390E-01   0.0000000000E+00   0.0000000000E+00   0.1956501321E-02  -0.7710493730E-03   0.3220478807E-03   0.0000000000E+00   0.0000000000E+00   0.0000000000E+00   0.1921797960E+00
   0.7754452456E-01   0.2153933248E+00   0.2012497981E-04  -0.3837616541E-04   0.1207498789E-03  -0.2302569924E-03   0.2150425758E+00  -0.3502274664E-03   0.6440770450E-01   0.2319169609E-01   0.0000000000E+00   0.0000000000E+00   0.1958253327E-02  -0.8418531156E-03   0.3014920491E-03   0.0000000000E+00   0.0000000000E+00   0.0000000000E+00   0.1954819177E+00
   0.8774682531E-01   0.1991682547E+00   0.2456620184E-04  -0.3444661583E-04   0.1473972110E-03  -0.2066796950E-03   0.2274238119E+00  -0.4115392365E-02   0.6699252586E-01   0.2558277353E-01   0.0000000000E+00   0.0000000000E+00   0.2085606719E-02  -0.9244029369E-03   0.3325760559E-03   0.0000000000E+00   0.0000000000E+00   0.0000000000E+00   0.2101738192E+00
   0.1069856292E+00   0.1992708865E+00   0.3033774819E-04  -0.3079464044E-04   0.1820264892E-03  -0.1847678426E-03   0.2302802054E+00  -0.7736213479E-02   0.6676319757E-01   0.2177225076E-01   0.0000000000E+00   0.0000000000E+00   0.2125721102E-02  -0.9684923436E-03   0.2830392599E-03   0.0000000000E+00   0.0000000000E+00   0.0000000000E+00   0.2142367499E+00
   0.1122544873E+00   0.1454279159E+00   0.3915204637E-04  -0.2136358926E-04   0.2349122782E-03  -0.1281815355E-03   0.2421855036E+00  -0.2931916819E-01   0.6385990062E-01   0.4798446038E-02   0.0000000000E+00   0.0000000000E+00   0.2318232839E-02  -0.1211327894E-02   0.6237979850E-04   0.0000000000E+00   0.0000000000E+00   0.0000000000E+00   0.2388664156E+00
   0.1043132737E+00   0.1663932132E+00   0.3333553163E-04  -0.2642512143E-04   0.2000131898E-03  -0.1585507286E-03   0.2419381610E+00  -0.1979478929E-01   0.6664301153E-01   0.1724694974E-01   0.0000000000E+00   0.0000000000E+00   0.2278836944E-02  -0.1123691411E-02   0.2242103467E-03   0.0000000000E+00   0.0000000000E+00   0.0000000000E+00   0.2329250292E+00
   0.9086866736E-01   0.1516392764E+00   0.3100939411E-04  -0.2679951012E-04   0.1860563646E-03  -0.1607970607E-03   0.2519496598E+00  -0.1720545039E-01   0.7042326282E-01   0.1798850112E-01   0.0000000000E+00   0.0000000000E+00   0.2359843161E-02  -0.1139173272E-02   0.2338505145E-03   0.0000000000E+00   0.0000000000E+00   0.0000000000E+00   0.2395172072E+00
   0.9522383152E-01   0.9618808039E-01   0.4662820323E-04  -0.1609898710E-04   0.2797692194E-03  -0.9659392261E-04   0.2152753479E+00  -0.3668690155E-01   0.5357653389E-01  -0.3889488418E-01   0.0000000000E+00   0.0000000000E+00   0.2102084582E-02  -0.1173424661E-02  -0.5056334944E-03   0.0000000000E+00   0.0000000000E+00   0.0000000000E+00   0.2299519608E+00
   0.1093032704E+00   0.7679315602E-01   0.5789377345E-04  -0.1014989721E-04   0.3473626407E-03  -0.6089938329E-04   0.1411166299E+00  -0.4960566529E-01   0.2745328939E-01  -0.5404242236E-01   0.0000000000E+00   0.0000000000E+00   0.1477623427E-02  -0.1001766411E-02  -0.7025514907E-03   0.0000000000E+00   0.0000000000E+00   0.0000000000E+00   0.1905241217E+00
   0.1948361569E+00   0.2160320310E+00   0.5504312632E-04  -0.1992243394E-04   0.3302587579E-03  -0.1195346036E-03   0.2314491957E+00  -0.3314572023E-02   0.6844038710E-01  -0.1445833153E-02   0.0000000000E+00   0.0000000000E+00   0.2119114512E-02  -0.9328144686E-03  -0.1879583099E-04   0.0000000000E+00   0.0000000000E+00   0.0000000000E+00   0.2083761602E+00
   0.2256506811E+00   0.3586340231E-01   0.8312258372E-04  -0.8957992124E-06   0.4987355023E-03  -0.5374795274E-05   0.1006623940E+00   0.1846838235E-01   0.3573923290E-01  -0.1733600733E-01   0.0000000000E+00   0.0000000000E+00   0.8440010940E-03  -0.2245210571E-03  -0.2253680953E-03   0.0000000000E+00   0.0000000000E+00   0.0000000000E+00   0.8071773500E-01
   0.2467893458E+00   0.3605054374E-01   0.8574054102E-04  -0.8822801871E-06   0.5144432461E-03  -0.5293681123E-05   0.1083980582E+00   0.2301417620E-01   0.3942367031E-01  -0.1320153989E-01   0.0000000000E+00   0.0000000000E+00   0.8966670420E-03  -0.2133234234E-03  -0.1716200186E-03   0.0000000000E+00   0.0000000000E+00   0.0000000000E+00   0.8165068856E-01
   0.2745642028E+00   0.1829685412E+00   0.8039339853E-04  -0.1111640452E-04   0.4823603912E-03  -0.6669842714E-04   0.2029188824E+00   0.2358681378E-02   0.6158326914E-01  -0.9470547364E-02   0.0000000000E+00   0.0000000000E+00   0.1837362973E-02  -0.7699196410E-03  -0.1231171157E-03   0.0000000000E+00   0.0000000000E+00   0.0000000000E+00   0.1792239490E+00
   0.2338678884E+00   0.2161008672E+00   0.6669405328E-04  -0.1681125956E-04   0.4001643197E-03  -0.1008675573E-03   0.2267816351E+00  -0.8631295658E-03   0.6777555166E-01  -0.5413487538E-02   0.0000000000E+00   0.0000000000E+00   0.2067079085E-02  -0.8923028560E-03  -0.7037533799E-04   0.0000000000E+00   0.0000000000E+00   0.0000000000E+00   0.2024639989E+00
   0.3155187350E+00   0.2132026704E+00   0.9020285210E-04  -0.1374952002E-04   0.5412171126E-03  -0.8249712013E-04   0.2162609306E+00   0.1707886914E-02   0.6539064526E-01  -0.3162849461E-02   0.0000000000E+00   0.0000000000E+00   0.1961313710E-02  -0.8278758584E-03  -0.4111704299E-04   0.0000000000E+00   0.0000000000E+00   0.0000000000E+00   0.1909343282E+00
   0.3506999940E+00   0.1922294866E+00   0.1000000000E-03  -0.1117277250E-04   0.6000000000E-03  -0.6703663499E-04   0.2037692979E+00   0.3805173485E-02   0.6227234143E-01  -0.3390689933E-04   0.0000000000E+00   0.0000000000E+00   0.1839460435E-02  -0.7600731833E-03  -0.4407896914E-06   0.0000000000E+00   0.0000000000E+00   0.0000000000E+00   0.1780863762E+00
   0.2935425664E+00   0.2157277615E+00   0.8393648815E-04  -0.1442007428E-04   0.5036189289E-03  -0.8652044570E-04   0.2185372878E+00   0.8897156518E-03   0.6582810102E-01  -0.4777613748E-02   0.0000000000E+00   0.0000000000E+00   0.1985219427E-02  -0.8441990098E-03  -0.6210897872E-04   0.0000000000E+00   0.0000000000E+00   0.0000000000E+00   0.1937011541E+00
   0.3351384018E+00   0.2177987492E+00   0.9562597456E-04  -0.1413768225E-04   0.5737558474E-03  -0.8482609351E-04   0.2177453459E+00   0.1133948390E-02   0.6566378829E-01  -0.1296435987E-02   0.0000000000E+00   0.0000000000E+00   0.1977060249E-02  -0.8388879188E-03  -0.1685366783E-04   0.0000000000E+00   0.0000000000E+00   0.0000000000E+00   0.1926457487E+00
   0.5159614344E-01   0.1653714834E+00   0.1626210523E-04  -0.3687736825E-04   0.9757263135E-04  -0.2212642095E-03   0.2544976673E+00   0.1641123211E-01   0.8127266981E-01   0.2610132095E-01   0.0000000000E+00   0.0000000000E+00   0.2251924967E-02  -0.8431986901E-03   0.3393171724E-03   0.0000000000E+00   0.0000000000E+00   0.0000000000E+00   0.2180026063E+00
   0.2478851235E+00   0.9579150423E-01   0.8133278368E-04  -0.3751839124E-05   0.4879967021E-03  -0.2251103475E-04   0.1486819509E+00   0.1129334018E-01   0.4799258732E-01  -0.2129729389E-01   0.0000000000E+00   0.0000000000E+00   0.1308961726E-02  -0.4770902128E-03  -0.2768648206E-03   0.0000000000E+00   0.0000000000E+00   0.0000000000E+00   0.1285972151E+00
   0.2653131949E+00   0.8644297447E-01   0.8522856238E-04  -0.2979561731E-05   0.5113713743E-03  -0.1787737038E-04   0.1397086712E+00   0.1539844561E-01   0.4653213503E-01  -0.1753985372E-01   0.0000000000E+00   0.0000000000E+00   0.1211294970E-02  -0.4047379625E-03  -0.2280180984E-03   0.0000000000E+00   0.0000000000E+00   0.0000000000E+00   0.1160756075E+00
   0.2651601623E+00   0.1059283754E+00   0.8375575922E-04  -0.4235230529E-05   0.5025345553E-03  -0.2541138318E-04   0.1539884803E+00   0.1162560338E-01   0.4968422509E-01  -0.1730560001E-01   0.0000000000E+00   0.0000000000E+00   0.1355955317E-02  -0.4947620823E-03  -0.2249728001E-03   0.0000000000E+00   0.0000000000E+00   0.0000000000E+00   0.1311257630E+00
   0.3506999940E+00   0.2114450426E+00   0.1000000000E-03  -0.1334590767E-04   0.6000000000E-03  -0.8007544599E-04   0.2125887293E+00   0.1469306514E-02   0.6421741074E-01   0.3534224014E-03   0.0000000000E+00   0.0000000000E+00   0.1928827141E-02  -0.8157253549E-03   0.4594491218E-05   0.0000000000E+00   0.0000000000E+00   0.0000000000E+00   0.1877850468E+00
   0.3011312696E+00   0.2007595264E+00   0.8661280102E-04  -0.1252394443E-04   0.5196768061E-03  -0.7514366656E-04   0.2112628424E+00   0.2733763871E-02   0.6419898188E-01  -0.5727334201E-02   0.0000000000E+00   0.0000000000E+00   0.1911830187E-02  -0.7990478341E-03  -0.7445534461E-04   0.0000000000E+00   0.0000000000E+00   0.0000000000E+00   0.1858631007E+00
   0.2964763967E+00   0.1829286687E+00   0.8611209591E-04  -0.1061989748E-04   0.5166725754E-03  -0.6371938489E-04   0.2013415893E+00   0.4358947163E-02   0.6171016094E-01  -0.7270449432E-02   0.0000000000E+00   0.0000000000E+00   0.1815208569E-02  -0.7455657791E-03  -0.9451584261E-04   0.0000000000E+00   0.0000000000E+00   0.0000000000E+00   0.1759361571E+00
   0.3000290058E+00   0.1250121659E+00   0.8958096474E-04  -0.5272015348E-05   0.5374857885E-03  -0.3163209209E-04   0.1651380703E+00   0.1307504861E-01   0.5346393567E-01  -0.1004258906E-01   0.0000000000E+00   0.0000000000E+00   0.1451763750E-02  -0.5250555317E-03  -0.1305536578E-03   0.0000000000E+00   0.0000000000E+00   0.0000000000E+00   0.1375338585E+00
   0.2803422888E+00   0.5577722515E-01   0.8942511934E-04  -0.1510935844E-05   0.5365507160E-03  -0.9065615064E-05   0.1238417005E+00   0.2491066495E-01   0.4462570964E-01  -0.1154548324E-01   0.0000000000E+00   0.0000000000E+00   0.1029807881E-02  -0.2562955809E-03  -0.1500912822E-03   0.0000000000E+00   0.0000000000E+00   0.0000000000E+00   0.9290095693E-01
   0.2988881823E+00   0.6736260759E-01   0.9177918794E-04  -0.1932743700E-05   0.5506751277E-03  -0.1159646220E-04   0.1312767216E+00   0.2413678404E-01   0.4662405168E-01  -0.9353839170E-02   0.0000000000E+00   0.0000000000E+00   0.1100484709E-02  -0.2923344794E-03  -0.1215999092E-03   0.0000000000E+00   0.0000000000E+00   0.0000000000E+00   0.9917601612E-01
   0.3168190209E+00   0.1536564595E+00   0.9218840939E-04  -0.7496504528E-05   0.5531304563E-03  -0.4497902717E-04   0.1822895855E+00   0.9191026497E-02   0.5744418360E-01  -0.5828150303E-02   0.0000000000E+00   0.0000000000E+00   0.1622990225E-02  -0.6272910423E-03  -0.7576595395E-04   0.0000000000E+00   0.0000000000E+00   0.0000000000E+00   0.1550502917E+00
   0.2241577308E+00   0.1991711568E+00   0.6535154740E-04  -0.1529060226E-04   0.3921092844E-03  -0.9174361354E-04   0.2189172706E+00  -0.2707333400E-02   0.6486298116E-01  -0.7149737149E-02   0.0000000000E+00   0.0000000000E+00   0.2002705763E-02  -0.8784140893E-03  -0.9294658293E-04   0.0000000000E+00   0.0000000000E+00   0.0000000000E+00   0.1971267193E+00
   0.2046117364E+00   0.1991033615E+00   0.5972634615E-04  -0.1677364474E-04   0.3583580769E-03  -0.1006418684E-03   0.2219092108E+00  -0.4970170259E-02   0.6508171215E-01  -0.5013832859E-02   0.0000000000E+00   0.0000000000E+00   0.2038757482E-02  -0.9106744713E-03  -0.6517982716E-04   0.0000000000E+00   0.0000000000E+00   0.0000000000E+00   0.2013947900E+00
   0.2535971371E+00   0.2161216162E+00   0.7246601828E-04  -0.1576940575E-04   0.4347961097E-03  -0.9461643450E-04   0.2239293197E+00   0.2183168746E-04   0.6718534540E-01  -0.5843646643E-02   0.0000000000E+00   0.0000000000E+00   0.2037671665E-02  -0.8731256783E-03  -0.7596740636E-04   0.0000000000E+00   0.0000000000E+00   0.0000000000E+00   0.1992612602E+00
   0.1168392699E+00   0.2160133827E+00   0.3140355172E-04  -0.3123346478E-04   0.1884213103E-03  -0.1874007887E-03   0.2270141568E+00  -0.4774509791E-02   0.6667189409E-01   0.1713639645E-01   0.0000000000E+00   0.0000000000E+00   0.2084449415E-02  -0.9288032504E-03   0.2227731538E-03   0.0000000000E+00   0.0000000000E+00   0.0000000000E+00   0.2076536547E+00
   0.1460511574E+00   0.1991098948E+00   0.4226234506E-04  -0.2388903121E-04   0.2535740704E-03  -0.1433341873E-03   0.2298267972E+00  -0.1067236791E-01   0.6574632880E-01   0.9500429183E-02   0.0000000000E+00   0.0000000000E+00   0.2133046090E-02  -0.9934430572E-03   0.1235055794E-03   0.0000000000E+00   0.0000000000E+00   0.0000000000E+00   0.2134586876E+00
   0.1359412842E+00   0.1821910666E+00   0.4127874233E-04  -0.2306162498E-04   0.2476724540E-03  -0.1383697499E-03   0.2307649858E+00  -0.1686749608E-01   0.6416924692E-01   0.1041564379E-01   0.0000000000E+00   0.0000000000E+00   0.2165744606E-02  -0.1053477659E-02   0.1354033692E-03   0.0000000000E+00   0.0000000000E+00   0.0000000000E+00   0.2193863837E+00
   0.2045898362E+00   0.3564099912E-01   0.8069088099E-04  -0.9308689699E-06   0.4841452859E-03  -0.5585213820E-05   0.9122425255E-01   0.1242800868E-01   0.3109567837E-01  -0.2201813752E-01   0.0000000000E+00   0.0000000000E+00   0.7816714644E-03  -0.2426797060E-03  -0.2862357878E-03   0.0000000000E+00   0.0000000000E+00   0.0000000000E+00   0.8069935539E-01
   0.1753235409E+00   0.1820800250E+00   0.5316027313E-04  -0.1744785510E-04   0.3189616388E-03  -0.1046871306E-03   0.2205516429E+00  -0.1289047539E-01   0.6229835025E-01  -0.2493651255E-02   0.0000000000E+00   0.0000000000E+00   0.2057292804E-02  -0.9774547333E-03  -0.3241746632E-04   0.0000000000E+00   0.0000000000E+00   0.0000000000E+00   0.2064109963E+00
   0.1655800439E+00   0.1990787782E+00   0.4817684922E-04  -0.2104111738E-04   0.2890610953E-03  -0.1262467043E-03   0.2277300040E+00  -0.9484424317E-02   0.6547367390E-01   0.3438900791E-02   0.0000000000E+00   0.0000000000E+00   0.2109332291E-02  -0.9744552768E-03   0.4470571028E-04   0.0000000000E+00   0.0000000000E+00   0.0000000000E+00   0.2100842934E+00
   0.1850956179E+00   0.1990763219E+00   0.5400312350E-04  -0.1867586586E-04   0.3240187410E-03  -0.1120551951E-03   0.2250196890E+00  -0.7336454205E-02   0.6530497044E-01  -0.1498104958E-02   0.0000000000E+00   0.0000000000E+00   0.2076291341E-02  -0.9443385204E-03  -0.1947536445E-04   0.0000000000E+00   0.0000000000E+00   0.0000000000E+00   0.2058814142E+00
   0.1940612142E+00   0.5328067502E-01   0.7752574879E-04  -0.1763496775E-05   0.4651544927E-03  -0.1058098065E-04   0.1029559758E+00   0.3147193999E-02   0.3183095094E-01  -0.3209107646E-01   0.0000000000E+00   0.0000000000E+00   0.9246253232E-03  -0.3728888402E-03  -0.4171839939E-03   0.0000000000E+00   0.0000000000E+00   0.0000000000E+00   0.1050991612E+00
   0.2150496395E+00   0.5362393894E-01   0.8029392365E-04  -0.1614908091E-05   0.4817635419E-03  -0.9689448544E-05   0.1093429550E+00   0.1104461129E-01   0.3611626989E-01  -0.2590159356E-01   0.0000000000E+00   0.0000000000E+00   0.9519469067E-03  -0.3259315618E-03  -0.3367207163E-03   0.0000000000E+00   0.0000000000E+00   0.0000000000E+00   0.9929385832E-01
   0.2438813461E+00   0.1992455187E+00   0.7092973118E-04  -0.1415733287E-04   0.4255783871E-03  -0.8494399722E-04   0.2160680153E+00  -0.6751888912E-03   0.6461784793E-01  -0.8073380205E-02   0.0000000000E+00   0.0000000000E+00   0.1968852176E-02  -0.8488094787E-03  -0.1049539427E-03   0.0000000000E+00   0.0000000000E+00   0.0000000000E+00   0.1930894563E+00
   0.5033531804E-01   0.1846503466E+00   0.1457176330E-04  -0.3934548866E-04   0.8743057981E-04  -0.2360729320E-03   0.2341035757E+00   0.1227463464E-01   0.7391346312E-01   0.2635480462E-01   0.0000000000E+00   0.0000000000E+00   0.2082471464E-02  -0.8013047702E-03   0.3426124601E-03   0.0000000000E+00   0.0000000000E+00   0.0000000000E+00   0.2036004510E+00
   0.3162862043E+00   0.1729167451E+00   0.9149289683E-04  -0.9327413347E-05   0.5489573810E-03  -0.5596448008E-04   0.1941789212E+00   0.6221365576E-02   0.6012008604E-01  -0.5184000638E-02   0.0000000000E+00   0.0000000000E+00   0.1742764857E-02  -0.7006833660E-03  -0.6739200829E-04   0.0000000000E+00   0.0000000000E+00   0.0000000000E+00   0.1678865267E+00
   0.2989705717E+00   0.1762768767E-01   0.9301610573E-04  -0.4018609195E-06   0.5580966344E-03  -0.2411165517E-05   0.1150043143E+00   0.3101866635E-01   0.4380689420E-01  -0.2553729176E-02   0.0000000000E+00   0.0000000000E+00   0.9255664616E-03  -0.1662469621E-03  -0.3319847929E-04   0.0000000000E+00   0.0000000000E+00   0.0000000000E+00   0.7849473130E-01
   0.3089943373E+00   0.0000000000E+00   0.9442861150E-04   0.0000000000E+00   0.5665716690E-03   0.0000000000E+00   0.1157572307E+00   0.3232250929E-01   0.4442392200E-01  -0.7900322110E-03   0.0000000000E+00   0.0000000000E+00   0.9273330132E-03  -0.1573183652E-03  -0.1027041874E-04   0.0000000000E+00   0.0000000000E+00   0.0000000000E+00   0.7809381153E-01
   0.2665721231E+00   0.6954721246E-01   0.8657229915E-04  -0.2117191741E-05   0.5194337949E-03  -0.1270315045E-04   0.1297052762E+00   0.2093547278E-01   0.4519222471E-01  -0.1613272969E-01   0.0000000000E+00   0.0000000000E+00   0.1098669670E-02  -0.3153377751E-03  -0.2097254860E-03   0.0000000000E+00   0.0000000000E+00   0.0000000000E+00   0.1026906528E+00
   0.2473718239E+00   0.7418294370E-01   0.8319341711E-04  -0.2437228834E-05   0.4991605027E-03  -0.1462337300E-04   0.1305494249E+00   0.1544157146E-01   0.4379729892E-01  -0.2092396973E-01   0.0000000000E+00   0.0000000000E+00   0.1127777638E-02  -0.3686244570E-03  -0.2720116065E-03   0.0000000000E+00   0.0000000000E+00   0.0000000000E+00   0.1100275805E+00
   0.1726370793E+00   0.5293103986E-01   0.7479161473E-04  -0.2088391227E-05   0.4487496884E-03  -0.1253034736E-04   0.9429490551E-01  -0.9018065270E-02   0.2558305207E-01  -0.3942963017E-01   0.0000000000E+00   0.0000000000E+00   0.8932540947E-03  -0.4498145254E-03  -0.5125851922E-03   0.0000000000E+00   0.0000000000E+00   0.0000000000E+00   0.1141867936E+00
   0.2329568295E+00   0.8723581454E-01   0.7948320817E-04  -0.3383808425E-05   0.4768992490E-03  -0.2030285055E-04   0.1387428531E+00   0.7894095217E-02   0.4399108448E-01  -0.2563298227E-01   0.0000000000E+00   0.0000000000E+00   0.1231772991E-02  -0.4692608605E-03  -0.3332287695E-03   0.0000000000E+00   0.0000000000E+00   0.0000000000E+00   0.1251530447E+00
   0.2152645515E+00   0.8961077653E-01   0.7601407209E-04  -0.3853196070E-05   0.4560844326E-03  -0.2311917642E-04   0.1429231082E+00   0.8038904038E-03   0.4311809957E-01  -0.3033229665E-01   0.0000000000E+00   0.0000000000E+00   0.1297465112E-02  -0.5500847192E-03  -0.3943198564E-03   0.0000000000E+00   0.0000000000E+00   0.0000000000E+00   0.1368011273E+00
   0.2251632835E+00   0.7171803587E-01   0.7988335576E-04  -0.2500375409E-05   0.4793001346E-03  -0.1500225245E-04   0.1268142061E+00   0.9651108455E-02   0.4093959436E-01  -0.2666363428E-01   0.0000000000E+00   0.0000000000E+00   0.1116369952E-02  -0.4067503167E-03  -0.3466272456E-03   0.0000000000E+00   0.0000000000E+00   0.0000000000E+00   0.1147981555E+00
   0.2362583864E+00   0.5425798766E-01   0.8316748699E-04  -0.1554691318E-05   0.4990049219E-03  -0.9328147910E-05   0.1153503757E+00   0.1692670255E-01   0.3968312348E-01  -0.2023094444E-01   0.0000000000E+00   0.0000000000E+00   0.9836742791E-03  -0.2958334721E-03  -0.2630022778E-03   0.0000000000E+00   0.0000000000E+00   0.0000000000E+00   0.9591790095E-01
   0.7491061099E-01   0.1104862258E+00   0.3476655517E-04  -0.2359359881E-04   0.2085993310E-03  -0.1415615929E-03   0.2699119311E+00  -0.1186595537E-01   0.7741379273E-01  -0.2092422883E-01   0.0000000000E+00   0.0000000000E+00   0.2502475799E-02  -0.1160636725E-02  -0.2720149748E-03   0.0000000000E+00   0.0000000000E+00   0.0000000000E+00   0.2494269575E+00
   0.1265010508E+00   0.1991699902E+00   0.3629240136E-04  -0.2718226231E-04   0.2177544082E-03  -0.1630935739E-03   0.2308307115E+00  -0.1025978843E-01   0.6617127691E-01   0.1598905609E-01   0.0000000000E+00   0.0000000000E+00   0.2140572649E-02  -0.9936038494E-03   0.2078577292E-03   0.0000000000E+00   0.0000000000E+00   0.0000000000E+00   0.2151797637E+00
   0.1160789980E+00   0.1825543252E+00   0.3504800033E-04  -0.2665739471E-04   0.2102880020E-03  -0.1599443682E-03   0.2352688526E+00  -0.1503812824E-01   0.6606921730E-01   0.1801845357E-01   0.0000000000E+00   0.0000000000E+00   0.2199595259E-02  -0.1054395492E-02   0.2342398964E-03   0.0000000000E+00   0.0000000000E+00   0.0000000000E+00   0.2233577548E+00
   0.1491802854E+00   0.5213439819E-01   0.7196933986E-04  -0.2760472441E-05   0.4318160391E-03  -0.1656283464E-04   0.8768233067E-01  -0.2404271924E-01   0.1909188343E-01  -0.4532185887E-01   0.0000000000E+00   0.0000000000E+00   0.8916758141E-03  -0.5607498347E-03  -0.5891841653E-03   0.0000000000E+00   0.0000000000E+00   0.0000000000E+00   0.1255788970E+00
   0.7077108012E-01   0.1570342893E+00   0.2340075986E-04  -0.3200609809E-04   0.1404045592E-03  -0.1920365885E-03   0.2614703161E+00  -0.7427966275E-03   0.7821825583E-01   0.2475275675E-01   0.0000000000E+00   0.0000000000E+00   0.2382276783E-02  -0.1026493682E-02   0.3217858377E-03   0.0000000000E+00   0.0000000000E+00   0.0000000000E+00   0.2366597889E+00
   0.8516705279E-01   0.1700433473E+00   0.2666704170E-04  -0.3090309479E-04   0.1600022502E-03  -0.1854185688E-03   0.2462107383E+00  -0.9114589612E-02   0.7112884461E-01   0.2461278064E-01   0.0000000000E+00   0.0000000000E+00   0.2276064618E-02  -0.1043164645E-02   0.3199661484E-03   0.0000000000E+00   0.0000000000E+00   0.0000000000E+00   0.2302039293E+00
   0.8077771816E-01   0.1851176804E+00   0.2376287966E-04  -0.3390807866E-04   0.1425772780E-03  -0.2034484719E-03   0.2350319921E+00  -0.2856567898E-02   0.6965262726E-01   0.2790157885E-01   0.0000000000E+00   0.0000000000E+00   0.2149931743E-02  -0.9426195371E-03   0.3627205250E-03   0.0000000000E+00   0.0000000000E+00   0.0000000000E+00   0.2166316256E+00
   0.6760431685E-01   0.1764538450E+00   0.2043247854E-04  -0.3530071751E-04   0.1225948712E-03  -0.2118043050E-03   0.2427072619E+00   0.3495500203E-02   0.7386082863E-01   0.2870552985E-01   0.0000000000E+00   0.0000000000E+00   0.2195003633E-02  -0.9147492696E-03   0.3731718880E-03   0.0000000000E+00   0.0000000000E+00   0.0000000000E+00   0.2186816143E+00
   0.9680222990E-01   0.1836514119E+00   0.2887671452E-04  -0.3055244630E-04   0.1732602871E-03  -0.1833146778E-03   0.2370519492E+00  -0.9504492523E-02   0.6826423700E-01   0.2453893487E-01   0.0000000000E+00   0.0000000000E+00   0.2194240258E-02  -0.1010993484E-02   0.3190061534E-03   0.0000000000E+00   0.0000000000E+00   0.0000000000E+00   0.2223605573E+00
   0.2994169298E+00   0.1626918115E+00   0.8774239678E-04  -0.8526350248E-05   0.5264543807E-03  -0.5115810149E-04   0.1879357008E+00   0.6256217416E-02   0.5825757547E-01  -0.8409277230E-02   0.0000000000E+00   0.0000000000E+00   0.1685815629E-02  -0.6760176547E-03  -0.1093206040E-03   0.0000000000E+00   0.0000000000E+00   0.0000000000E+00   0.1627152068E+00
   0.2837166753E+00   0.1691936688E+00   0.8356104818E-04  -0.9441165863E-05   0.5013662891E-03  -0.5664699518E-04   0.1942852417E+00   0.4525613835E-02   0.5964325665E-01  -0.9629653972E-02   0.0000000000E+00   0.0000000000E+00   0.1750345805E-02  -0.7165293566E-03  -0.1251855016E-03   0.0000000000E+00   0.0000000000E+00   0.0000000000E+00   0.1698956187E+00
   0.2829175059E+00   0.1531457059E+00   0.8430741951E-04  -0.7864868203E-05   0.5058445171E-03  -0.4718920922E-04   0.1849625517E+00   0.6820317636E-02   0.5753486080E-01  -0.1132704830E-01   0.0000000000E+00   0.0000000000E+00   0.1656559982E-02  -0.6592890612E-03  -0.1472516280E-03   0.0000000000E+00   0.0000000000E+00   0.0000000000E+00   0.1601893120E+00
   0.2045160934E+00   0.7155311294E-01   0.7658920632E-04  -0.2722394025E-05   0.4595352379E-03  -0.1633436415E-04   0.1256570048E+00   0.2158888399E-02   0.3834476796E-01  -0.3310069953E-01   0.0000000000E+00   0.0000000000E+00   0.1135059079E-02  -0.4704164342E-03  -0.4303090939E-03   0.0000000000E+00   0.0000000000E+00   0.0000000000E+00   0.1240406408E+00
   0.2998881888E+00   0.1439579466E+00   0.8869097262E-04  -0.6802914340E-05   0.5321458357E-03  -0.4081748604E-04   0.1769999833E+00   0.9488104593E-02   0.5594642637E-01  -0.9328359447E-02   0.0000000000E+00   0.0000000000E+00   0.1573696240E-02  -0.6039581832E-03  -0.1212686728E-03   0.0000000000E+00   0.0000000000E+00   0.0000000000E+00   0.1506605065E+00
   0.2822395884E+00   0.7698943921E-01   0.8867076971E-04  -0.2414398213E-05   0.5320246183E-03  -0.1448638928E-04   0.1371718894E+00   0.2179373214E-01   0.4768968645E-01  -0.1320254016E-01   0.0000000000E+00   0.0000000000E+00   0.1163268638E-02  -0.3366474060E-03  -0.1716330220E-03   0.0000000000E+00   0.0000000000E+00   0.0000000000E+00   0.1073139026E+00
   0.1285611430E+00   0.8314663761E-01   0.5986700584E-04  -0.8121355960E-05   0.3592020350E-03  -0.4872813576E-04   0.1589526657E+00  -0.4370226525E-01   0.3457512015E-01  -0.4949599656E-01   0.0000000000E+00   0.0000000000E+00   0.1616908093E-02  -0.1017606010E-02  -0.6434479553E-03   0.0000000000E+00   0.0000000000E+00   0.0000000000E+00   0.1963246801E+00
   0.1287085402E+00   0.1030513027E+00   0.5403788878E-04  -0.1115918132E-04   0.3242273327E-03  -0.6695508793E-04   0.1923750732E+00  -0.4359019213E-01   0.4463546433E-01  -0.3688248963E-01   0.0000000000E+00   0.0000000000E+00   0.1920614916E-02  -0.1146933534E-02  -0.4794723652E-03   0.0000000000E+00   0.0000000000E+00   0.0000000000E+00   0.2162400912E+00
   0.1147168098E+00   0.9380444230E-01   0.5299026334E-04  -0.1183777201E-04   0.3179415801E-03  -0.7102663205E-04   0.1912769636E+00  -0.4173171691E-01   0.4486357402E-01  -0.4271529924E-01   0.0000000000E+00   0.0000000000E+00   0.1903374065E-02  -0.1125738782E-02  -0.5552988901E-03   0.0000000000E+00   0.0000000000E+00   0.0000000000E+00   0.2177951816E+00
   0.1948813644E+00   0.1821159377E+00   0.5881276988E-04  -0.1542118773E-04   0.3528766193E-03  -0.9252712635E-04   0.2157407824E+00  -0.9041658044E-02   0.6200973729E-01  -0.6781956858E-02   0.0000000000E+00   0.0000000000E+00   0.1998503586E-02  -0.9236681394E-03  -0.8816543916E-04   0.0000000000E+00   0.0000000000E+00   0.0000000000E+00   0.1993340405E+00
   0.2542134819E+00   0.1823609900E+00   0.7508055518E-04  -0.1171471631E-04   0.4504833311E-03  -0.7028829785E-04   0.2050124775E+00   0.7555051036E-03   0.6173039478E-01  -0.1019811897E-01   0.0000000000E+00   0.0000000000E+00   0.1862667075E-02  -0.7926735658E-03  -0.1325755466E-03   0.0000000000E+00   0.0000000000E+00   0.0000000000E+00   0.1824592399E+00
   0.2340750548E+00   0.1823882585E+00   0.6966939632E-04  -0.1264078109E-04   0.4180163779E-03  -0.7584468652E-04   0.2082555497E+00  -0.2165365649E-02   0.6182705521E-01  -0.1037195936E-01   0.0000000000E+00   0.0000000000E+00   0.1903570428E-02  -0.8319014712E-03  -0.1348354717E-03   0.0000000000E+00   0.0000000000E+00   0.0000000000E+00   0.1876836331E+00
   0.2518017705E+00   0.1519471174E+00   0.7697678851E-04  -0.8531081945E-05   0.4618607311E-03  -0.5118649167E-04   0.1882112340E+00   0.2847896715E-02   0.5731773923E-01  -0.1540993016E-01   0.0000000000E+00   0.0000000000E+00   0.1701615433E-02  -0.7081079527E-03  -0.2003290921E-03   0.0000000000E+00   0.0000000000E+00   0.0000000000E+00   0.1671465503E+00
   0.2349718891E+00   0.1493823545E+00   0.7312972711E-04  -0.8853209451E-05   0.4387783627E-03  -0.5311925670E-04   0.1876426148E+00  -0.2020897598E-02   0.5568651516E-01  -0.1732535955E-01   0.0000000000E+00   0.0000000000E+00   0.1715429295E-02  -0.7501963658E-03  -0.2252296741E-03   0.0000000000E+00   0.0000000000E+00   0.0000000000E+00   0.1710632993E+00
   0.2485807452E+00   0.1359388471E+00   0.7769774264E-04  -0.7046978892E-05   0.4661864559E-03  -0.4228187335E-04   0.1763981606E+00   0.3145466858E-02   0.5386308825E-01  -0.1809403915E-01   0.0000000000E+00   0.0000000000E+00   0.1592955941E-02  -0.6593290780E-03  -0.2352225089E-03   0.0000000000E+00   0.0000000000E+00   0.0000000000E+00   0.1574240818E+00
   0.7653183610E-01   0.1345792482E+00   0.2887862848E-04  -0.2722982892E-04   0.1732717709E-03  -0.1633789735E-03   0.2691401048E+00  -0.1071873793E-01   0.7752641005E-01   0.8273495763E-02   0.0000000000E+00   0.0000000000E+00   0.2490978031E-02  -0.1147186924E-02   0.1075554449E-03   0.0000000000E+00   0.0000000000E+00   0.0000000000E+00   0.2487213140E+00
   0.2144500882E+00   0.1822355449E+00   0.6430017819E-04  -0.1384230638E-04   0.3858010691E-03  -0.8305383825E-04   0.2115292184E+00  -0.5344902755E-02   0.6185529470E-01  -0.9186569360E-02   0.0000000000E+00   0.0000000000E+00   0.1945761008E-02  -0.8736025670E-03  -0.1194254017E-03   0.0000000000E+00   0.0000000000E+00   0.0000000000E+00   0.1929273828E+00
   0.2575927415E+00   0.5434166384E-01   0.8620592160E-04  -0.1502723491E-05   0.5172355296E-03  -0.9016340944E-05   0.1198786546E+00   0.2173637545E-01   0.4248450902E-01  -0.1595909768E-01   0.0000000000E+00   0.0000000000E+00   0.1006123893E-02  -0.2697257365E-03  -0.2074682699E-03   0.0000000000E+00   0.0000000000E+00   0.0000000000E+00   0.9380845951E-01
   0.2825899838E+00   0.9622752903E-01   0.8767582844E-04  -0.3452467152E-05   0.5260549706E-03  -0.2071480291E-04   0.1476304844E+00   0.1697215328E-01   0.4938079130E-01  -0.1386992537E-01   0.0000000000E+00   0.0000000000E+00   0.1277246010E-02  -0.4213122943E-03  -0.1803090298E-03   0.0000000000E+00   0.0000000000E+00   0.0000000000E+00   0.1202631715E+00
   0.1429548998E+00   0.7224486223E-01   0.6598425080E-04  -0.5217252584E-05   0.3959055048E-03  -0.3130351550E-04   0.1245340115E+00  -0.3534232761E-01   0.2675750516E-01  -0.5003784703E-01   0.0000000000E+00   0.0000000000E+00   0.1271094582E-02  -0.8072978260E-03  -0.6504920113E-03   0.0000000000E+00   0.0000000000E+00   0.0000000000E+00   0.1641038112E+00
   0.1249745968E+00   0.1648446326E+00   0.4019954422E-04  -0.2225162219E-04   0.2411972653E-03  -0.1335097332E-03   0.2337548819E+00  -0.2383600360E-01   0.6297566350E-01   0.9422121605E-02   0.0000000000E+00   0.0000000000E+00   0.2220129840E-02  -0.1128551672E-02   0.1224875809E-03   0.0000000000E+00   0.0000000000E+00   0.0000000000E+00   0.2275121628E+00
   0.2661010867E+00   0.1442118057E+00   0.8099339070E-04  -0.7385750085E-05   0.4859603442E-03  -0.4431450051E-04   0.1793057133E+00   0.5182895225E-02   0.5534658255E-01  -0.1446146049E-01   0.0000000000E+00   0.0000000000E+00   0.1611468699E-02  -0.6521279352E-03  -0.1879989863E-03   0.0000000000E+00   0.0000000000E+00   0.0000000000E+00   0.1572550319E+00
   0.2828674335E+00   0.1345467506E+00   0.8542649807E-04  -0.6212490076E-05   0.5125589884E-03  -0.3727494046E-04   0.1721659209E+00   0.9560758209E-02   0.5451800373E-01  -0.1267165897E-01   0.0000000000E+00   0.0000000000E+00   0.1529422923E-02  -0.5844441918E-03  -0.1647315666E-03   0.0000000000E+00   0.0000000000E+00   0.0000000000E+00   0.1470864171E+00
   0.2827269922E+00   0.1155097185E+00   0.8656145024E-04  -0.4730069929E-05   0.5193687014E-03  -0.2838041957E-04   0.1597420075E+00   0.1293234616E-01   0.5180230611E-01  -0.1356164205E-01   0.0000000000E+00   0.0000000000E+00   0.1403216119E-02  -0.5053094794E-03  -0.1763013467E-03   0.0000000000E+00   0.0000000000E+00   0.0000000000E+00   0.1338225479E+00
   0.2244861745E+00   0.1655605492E+00   0.6877135983E-04  -0.1118139800E-04   0.4126281590E-03  -0.6708838802E-04   0.1994231406E+00  -0.4487152498E-02   0.5848079642E-01  -0.1339226851E-01   0.0000000000E+00   0.0000000000E+00   0.1832250474E-02  -0.8185833359E-03  -0.1740994906E-03   0.0000000000E+00   0.0000000000E+00   0.0000000000E+00   0.1823139682E+00
   0.2440281342E+00   0.1659522581E+00   0.7378603568E-04  -0.1028712287E-04   0.4427162141E-03  -0.6172273724E-04   0.1965720818E+00  -0.9216299398E-03   0.5869513557E-01  -0.1338006908E-01   0.0000000000E+00   0.0000000000E+00   0.1792400302E-02  -0.7750179516E-03  -0.1739408980E-03   0.0000000000E+00   0.0000000000E+00   0.0000000000E+00   0.1769608116E+00
   0.1825842923E+00   0.1088414680E+00   0.6630689825E-04  -0.6921998310E-05   0.3978413895E-03  -0.4153198986E-04   0.1692816297E+00  -0.1881757406E-01   0.4513921670E-01  -0.3195906901E-01   0.0000000000E+00   0.0000000000E+00   0.1613851369E-02  -0.8314382799E-03  -0.4154678972E-03   0.0000000000E+00   0.0000000000E+00   0.0000000000E+00   0.1745944269E+00
   0.2061222344E+00   0.1120111219E+00   0.7106148492E-04  -0.6119867277E-05   0.4263689095E-03  -0.3671920366E-04   0.1652445098E+00  -0.7249822378E-02   0.4739840622E-01  -0.2809092854E-01   0.0000000000E+00   0.0000000000E+00   0.1531999346E-02  -0.7104269718E-03  -0.3651820710E-03   0.0000000000E+00   0.0000000000E+00   0.0000000000E+00   0.1602518561E+00
   0.1892811020E+00   0.1288291605E+00   0.6455128247E-04  -0.8924502956E-05   0.3873076948E-03  -0.5354701773E-04   0.1840176140E+00  -0.1639176985E-01   0.5028775325E-01  -0.2475465276E-01   0.0000000000E+00   0.0000000000E+00   0.1738488190E-02  -0.8668338003E-03  -0.3218104858E-03   0.0000000000E+00   0.0000000000E+00   0.0000000000E+00   0.1818858362E+00
   0.2653272442E+00   0.1642483681E+00   0.7930387870E-04  -0.9367702802E-05   0.4758232722E-03  -0.5620621681E-04   0.1931621083E+00   0.3100125047E-02   0.5887867001E-01  -0.1203900088E-01   0.0000000000E+00   0.0000000000E+00   0.1745684698E-02  -0.7251210845E-03  -0.1565070114E-03   0.0000000000E+00   0.0000000000E+00   0.0000000000E+00   0.1704985763E+00
   0.1941635783E+00   0.9044670989E-01   0.7186232587E-04  -0.4468315220E-05   0.4311739552E-03  -0.2680989132E-04   0.1473860008E+00  -0.7450668039E-02   0.4198059984E-01  -0.3470304288E-01   0.0000000000E+00   0.0000000000E+00   0.1370270213E-02  -0.6426064825E-03  -0.4511395574E-03   0.0000000000E+00   0.0000000000E+00   0.0000000000E+00   0.1495978486E+00
   0.1353263286E+00   0.1460568968E+00   0.4642809209E-04  -0.1740574678E-04   0.2785685525E-03  -0.1044344807E-03   0.2260128155E+00  -0.3062994897E-01   0.5861485995E-01  -0.4613567415E-02   0.0000000000E+00   0.0000000000E+00   0.2176173422E-02  -0.1160182516E-02  -0.5997637639E-04   0.0000000000E+00   0.0000000000E+00   0.0000000000E+00   0.2256796570E+00
   0.1854131096E+00   0.1647494540E+00   0.5829152026E-04  -0.1398214185E-04   0.3497491215E-03  -0.8389285111E-04   0.2102196391E+00  -0.1446474882E-01   0.5872646709E-01  -0.9819757212E-02   0.0000000000E+00   0.0000000000E+00   0.1969411236E-02  -0.9514858068E-03  -0.1276568438E-03   0.0000000000E+00   0.0000000000E+00   0.0000000000E+00   0.1991533913E+00
   0.1962857823E+00   0.1477326839E+00   0.6354247705E-04  -0.1083186603E-04   0.3812548623E-03  -0.6499119618E-04   0.1970168708E+00  -0.1315662124E-01   0.5515807488E-01  -0.1769265955E-01   0.0000000000E+00   0.0000000000E+00   0.1844164347E-02  -0.8880910495E-03  -0.2300045742E-03   0.0000000000E+00   0.0000000000E+00   0.0000000000E+00   0.1881818481E+00
   0.1765549557E+00   0.1462518666E+00   0.5845409821E-04  -0.1227719457E-04   0.3507245893E-03  -0.7366316740E-04   0.2026231883E+00  -0.2090834996E-01   0.5451445151E-01  -0.1579470933E-01   0.0000000000E+00   0.0000000000E+00   0.1925413579E-02  -0.9804964191E-03  -0.2053312213E-03   0.0000000000E+00   0.0000000000E+00   0.0000000000E+00   0.1987913719E+00
   0.9363931980E-01   0.1192947831E+00   0.3862141379E-04  -0.2061383980E-04   0.2317284828E-03  -0.1236830388E-03   0.2477752248E+00  -0.3375573303E-01   0.6420584754E-01  -0.1394965703E-01   0.0000000000E+00   0.0000000000E+00   0.2386401905E-02  -0.1273500547E-02  -0.1813455413E-03   0.0000000000E+00   0.0000000000E+00   0.0000000000E+00   0.2486764052E+00
   0.2049852392E+00   0.1651478461E+00   0.6363545411E-04  -0.1239698249E-04   0.3818127246E-03  -0.7438189496E-04   0.2047541731E+00  -0.8717478830E-02   0.5881100827E-01  -0.1268914238E-01   0.0000000000E+00   0.0000000000E+00   0.1897261142E-02  -0.8778703323E-03  -0.1649588509E-03   0.0000000000E+00   0.0000000000E+00   0.0000000000E+00   0.1902446306E+00
   0.2653783976E+00   0.1253801664E+00   0.8230293932E-04  -0.5731520663E-05   0.4938176359E-03  -0.3438912398E-04   0.1667776646E+00   0.7299323170E-02   0.5222309632E-01  -0.1634880155E-01   0.0000000000E+00   0.0000000000E+00   0.1489209387E-02  -0.5840090510E-03  -0.2125344201E-03   0.0000000000E+00   0.0000000000E+00   0.0000000000E+00   0.1452265388E+00
   0.2471500667E+00   0.1160756760E+00   0.7927895943E-04  -0.5294710601E-05   0.4756737566E-03  -0.3176826361E-04   0.1632041438E+00   0.5732806645E-02   0.5068108513E-01  -0.2016214371E-01   0.0000000000E+00   0.0000000000E+00   0.1462799762E-02  -0.5843276203E-03  -0.2621078682E-03   0.0000000000E+00   0.0000000000E+00   0.0000000000E+00   0.1447980102E+00
   0.2267961371E+00   0.1285367331E+00   0.7352473290E-04  -0.6998985108E-05   0.4411483974E-03  -0.4199391065E-04   0.1735860123E+00  -0.2948849827E-02   0.5119114875E-01  -0.2163732565E-01   0.0000000000E+00   0.0000000000E+00   0.1591133226E-02  -0.7038199814E-03  -0.2812852334E-03   0.0000000000E+00   0.0000000000E+00   0.0000000000E+00   0.1610657744E+00
   0.1262758747E+00   0.1248242758E+00   0.4783381875E-04  -0.1524317565E-04   0.2870029125E-03  -0.9145905388E-04   0.2204084173E+00  -0.4072650221E-01   0.5390457452E-01  -0.1858593087E-01   0.0000000000E+00   0.0000000000E+00   0.2164549956E-02  -0.1230203997E-02  -0.2416171013E-03   0.0000000000E+00   0.0000000000E+00   0.0000000000E+00   0.2311372766E+00
   0.1079192246E+00   0.1273262327E+00   0.4137965587E-04  -0.1898875257E-04   0.2482779352E-03  -0.1139325154E-03   0.2427156384E+00  -0.3594348048E-01   0.6203164738E-01  -0.9160885035E-02   0.0000000000E+00   0.0000000000E+00   0.2348891883E-02  -0.1273676662E-02  -0.1190915055E-03   0.0000000000E+00   0.0000000000E+00   0.0000000000E+00   0.2454022534E+00
   0.1111686057E+00   0.1107639667E+00   0.4680738592E-04  -0.1532161133E-04   0.2808443155E-03  -0.9192966797E-04   0.2155048350E+00  -0.4504010154E-01   0.5113942005E-01  -0.2581855417E-01   0.0000000000E+00   0.0000000000E+00   0.2136750395E-02  -0.1250333781E-02  -0.3356412042E-03   0.0000000000E+00   0.0000000000E+00   0.0000000000E+00   0.2321773626E+00
   0.9623218789E-01   0.1357286087E+00   0.3558995526E-04  -0.2295261923E-04   0.2135397316E-03  -0.1377157154E-03   0.2539960026E+00  -0.2734139867E-01   0.6799638117E-01   0.4252787114E-02   0.0000000000E+00   0.0000000000E+00   0.2417995078E-02  -0.1239391138E-02   0.5528623249E-04   0.0000000000E+00   0.0000000000E+00   0.0000000000E+00   0.2478519649E+00
   0.2293569652E+00   0.1048791638E+00   0.7681845799E-04  -0.4761891542E-05   0.4609107479E-03  -0.2857134925E-04   0.1550812727E+00   0.2912449722E-02   0.4739811673E-01  -0.2466618889E-01   0.0000000000E+00   0.0000000000E+00   0.1399881028E-02  -0.5783136711E-03  -0.3206604555E-03   0.0000000000E+00   0.0000000000E+00   0.0000000000E+00   0.1420423870E+00
   0.1561571504E+00   0.1460012058E+00   0.5271806216E-04  -0.1450088103E-04   0.3163083729E-03  -0.8700528619E-04   0.2149315622E+00  -0.2558500968E-01   0.5680396575E-01  -0.1145558005E-01   0.0000000000E+00   0.0000000000E+00   0.2055658754E-02  -0.1071056681E-02  -0.1489225406E-03   0.0000000000E+00   0.0000000000E+00   0.0000000000E+00   0.2124782177E+00
   0.2067397565E+00   0.1330792424E+00   0.6819878842E-04  -0.8432371108E-05   0.4091927305E-03  -0.5059422665E-04   0.1843130117E+00  -0.1013543508E-01   0.5225327298E-01  -0.2311247048E-01   0.0000000000E+00   0.0000000000E+00   0.1716776603E-02  -0.8110532048E-03  -0.3004621163E-03   0.0000000000E+00   0.0000000000E+00   0.0000000000E+00   0.1764848384E+00
   0.2154680431E+00   0.1482920104E+00   0.6842529390E-04  -0.9691376414E-05   0.4105517634E-03  -0.5814825849E-04   0.1927867013E+00  -0.5332156230E-02   0.5623636353E-01  -0.1710063048E-01   0.0000000000E+00   0.0000000000E+00   0.1775154392E-02  -0.8003907569E-03  -0.2223081963E-03   0.0000000000E+00   0.0000000000E+00   0.0000000000E+00   0.1780302060E+00
   0.1468251679E+00   0.1280565139E+00   0.5329341505E-04  -0.1285929642E-04   0.3197604903E-03  -0.7715577853E-04   0.2073626667E+00  -0.3281384104E-01   0.5236464769E-01  -0.2054624390E-01   0.0000000000E+00   0.0000000000E+00   0.2014974247E-02  -0.1107320354E-02  -0.2671011707E-03   0.0000000000E+00   0.0000000000E+00   0.0000000000E+00   0.2138377446E+00
   0.1673296707E+00   0.1253044371E+00   0.5951766449E-04  -0.1020212695E-04   0.3571059869E-03  -0.6121276173E-04   0.1944741257E+00  -0.2453459412E-01   0.5098185949E-01  -0.2455972950E-01   0.0000000000E+00   0.0000000000E+00   0.1865399461E-02  -0.9817138969E-03  -0.3192764835E-03   0.0000000000E+00   0.0000000000E+00   0.0000000000E+00   0.1972802325E+00
   0.1495620346E+00   0.9403774044E-01   0.6173808214E-04  -0.7357051614E-05   0.3704284928E-03  -0.4414230968E-04   0.1635441339E+00  -0.3473729992E-01   0.3864205019E-01  -0.4210854024E-01   0.0000000000E+00   0.0000000000E+00   0.1623727088E-02  -0.9539315514E-03  -0.5474110231E-03   0.0000000000E+00   0.0000000000E+00   0.0000000000E+00   0.1885332575E+00
   0.1541973019E+00   0.1131917963E+00   0.5846741680E-04  -0.9756240121E-05   0.3508045008E-03  -0.5853744073E-04   0.1885230351E+00  -0.3578250210E-01   0.4582215989E-01  -0.3290291960E-01   0.0000000000E+00   0.0000000000E+00   0.1855111377E-02  -0.1060860606E-02  -0.4277379548E-03   0.0000000000E+00   0.0000000000E+00   0.0000000000E+00   0.2046261524E+00
   0.1653395984E+00   0.1063367837E+00   0.6271819546E-04  -0.7833180590E-05   0.3763091728E-03  -0.4699908354E-04   0.1695294940E+00  -0.2848205986E-01   0.4231423025E-01  -0.3420855088E-01   0.0000000000E+00   0.0000000000E+00   0.1653798429E-02  -0.9203517715E-03  -0.4447111615E-03   0.0000000000E+00   0.0000000000E+00   0.0000000000E+00   0.1833594088E+00
   0.1411139334E+00   0.1126333545E+00   0.5509548119E-04  -0.1112807777E-04   0.3305728871E-03  -0.6676846663E-04   0.2014004378E+00  -0.3690327065E-01   0.4934915015E-01  -0.2906533051E-01   0.0000000000E+00   0.0000000000E+00   0.1976666740E-02  -0.1121281470E-02  -0.3778492966E-03   0.0000000000E+00   0.0000000000E+00   0.0000000000E+00   0.2143103803E+00
           1           2           3           3
           4           5           6           6
           7           8           9           9
          10          11          12          12
          13           7          14          14
          15          16          17          17
          18          19          10          10
          20          21          22          22
          23          24           2           2
          25          23           2           2
          26           3          27          27
          28          29          30          30
          31          32          33          33
          34          31          25          25
          35          36          20          20
          26          27           8           8
          37          15          17          17
          38          39          40          40
          41          40          42          42
          43          44          45          45
          46          47          41          41
          48          49          50          50
          51          52          53          53
          54          55          56          56
          57          58          59          59
          60          61          62          62
          63          64          57          57
          62          13          65          65
          66          67          68          68
          69          66          70          70
          71          72          73          73
          74          75          76          76
          75          77          78          78
          77          79          78          78
          80          53          48          48
          81          82          83          83
          45          84          85          85
          44          86          45          45
          87          88          44          44
          41          42          87          87
          36          89          21          21
          20          36          21          21
          35          30          90          90
          91           1          26          26
          92          93          30          30
           6          94          92          92
          95          96           4           4
          12          97          95          95
          98          12          95          95
          99         100          10          10
         101         102          99          99
         103         104         101         101
         105         106         103         103
         107         108         105         105
         109         110         107         107
         111         112         109         109
          69          70         111         111
           8          27           9           9
           7           9          14          14
          13          14          65          65
         113         114         115         115
          59          58         116         116
          51         116          52          52
          62          65          15          15
         117         118         119         119
         120         121         122         122
         122         123         124         124
          31          33          25          25
          25          33          23          23
          28          20         120         120
         124          32          31          31
         125         124         126         126
         124         123          32          32
         127         120         122         122
         122         121         123         123
         120          20          22          22
         120          22         121         121
          91         128          34          34
         129           4           6           6
          37          17         130         130
         131         132          63          63
          53          52          49          49
          85         133          83          83
          83         134         135         135
          51          59         116         116
          57          64          58          58
          19          99          10          10
         136          63         137         137
          63         132          64          64
         138          60          37          37
         131         130         132         132
          37          62          15          15
          37         130         131         131
         135         134          79          79
         139         103         101         101
          56          55          82          82
          83         133         134         134
          55          45          85          85
          85          84         133         133
         140          46         141         141
          45          86          84          84
         142          44          43          43
          44          88          86          86
          46          87         142         142
          87          42          88          88
          47          38          41          41
          41          38          40          40
         143          29         144         144
          30          93          90          90
         145          92          29          29
          92          94          93          93
         146         147         129         129
           6           5          94          94
         148         149         150         150
           4          96           5           5
         151           7         152         152
          95          97          96          96
          18          12          98          98
          12          11          97          97
         153         139         101         101
          10         100          11          11
         153          99          19          19
          99         102         100         100
         154          51         155         155
         101         104         102         102
         156          71          73          73
         103         106         104         104
         157         103         139         139
         105         108         106         106
          74          76         158         158
         107         110         108         108
          76          75         159         159
         109         112         110         110
         160         109          72          72
         111          70         112         112
         161          67          69          69
          69          67          66          66
         126         124          31          31
         128         162         126         126
         144          28         127         127
         125         127         122         122
         125         122         124         124
         143         146         145         145
          77         135          79          79
          75          78         159         159
          82          85          83          83
         163         164         165         165
          76         159         166         166
         167         168          74          74
          81          83         135         135
         169          56          82          82
          55          43          45          45
          55          85          82          82
         170         141         171         171
         142          87          44          44
         161          76         166         166
         158          69         111         111
         172         135          77          77
         173         139         174         174
         161         166          67          67
         158         161          69          69
          72         109         107         107
         175         107         105         105
         176          95           4           4
         152           7          13          13
         145           6          92          92
         114         177         178         178
          18          10          12          12
         154          59          51          51
         153         101          99          99
         179         137          57          57
         114         180         181         181
         181         182          19          19
         183         179         184         184
         174         153         182         182
         173         185         157         157
         157         105         103         103
          29          92          30          30
         186         127         125         125
          35          90          36          36
          28          35          20          20
         186         144         127         127
         145         129           6           6
         176          98          95          95
         176           4         129         129
         175          72         107         107
         175         105         157         157
          74         187          75          75
         160         111         109         109
           1          25           2           2
           1           3          26          26
          48          53          49          49
         188          48          50          50
         188          50         189         189
          47         188         189         189
         155          51          53          53
         190         164         191         191
         137          63          57          57
         179          57          59          59
         154         179          59          59
         183         192         137         137
         193         194         195         195
         196         184         154         154
          60          62          37          37
         136         131          63          63
          47         189          38          38
          46          41          87          87
          28          30          35          35
          28         120         127         127
         141          46         142         142
          46         188          47          47
         197          26           8           8
         151           8           7           7
         178         198         199         199
          61         152          13          13
          61          13          62          62
         200         136         192         192
         198         176         147         147
         151         197           8           8
          34         126          31          31
          34          25           1           1
         158          76         161         161
         158         111         160         160
         144          29          28          28
         162         125         126         126
         162         186         125         125
         201         162         128         128
         128         126          34          34
         202         203         204         204
         140         188          46          46
         171         142          43          43
          91          34           1           1
         205         199         147         147
         168         206         187         187
         187          77          75          75
         167         158         160         160
         207         208         206         206
         169          82          81          81
         195         209         184         184
         210          81         172         172
         173         157         139         139
         190         170         211         211
          54          43          55          55
         171         141         142         142
         171          43          54          54
         172          81         135         135
         172          77         187         187
         182         153          19          19
         181          19          18          18
         147         176         129         129
         146         129         145         145
         177          18          98          98
         212         213         214         214
         143         145          29          29
         204         203         143         143
          73          72         175         175
         185         175         157         157
         215         182         180         180
         174         139         153         153
         216         185         217         217
         185          73         175         175
         198          98         176         176
         199         198         147         147
         167          71         168         168
          71         160          72          72
         177         181          18          18
         177          98         198         198
         215         174         182         182
         218         219         220         220
         143         144         186         186
         202         204         201         201
          91          26         197         197
         221          91         197         197
          80         155          53          53
         140          80          48          48
         184         179         154         154
         196         154         155         155
         192         136         137         137
         183         137         179         179
         215         222         174         174
         209         118         183         183
         223         155          80          80
         224          54          56          56
         138          37         131         131
         138         200          60          60
         140          48         188         188
         170         140         141         141
         170          80         140         140
         211          54         224         224
         225          61         200         200
         200          61          60          60
         221         128          91          91
         149         226         199         199
         227         228         208         208
         206         172         187         187
         229          56         169         169
         229         224          56          56
         211         170         171         171
         211         171          54          54
         168         187          74          74
         156         168          71          71
         228         169         210         210
         217         185         173         173
         210         169          81          81
         210         172         206         206
         167          74         158         158
         167         160          71          71
         222         173         174         174
         230         231         217         217
         205         147         146         146
         226         178         199         199
         232         233         234         234
         178         177         198         198
         235         156         216         216
         216          73         185         185
         207         168         156         156
         156          73         216         216
         180         182         181         181
         114         181         177         177
         203         205         146         146
         150         202         201         201
         194         236         209         209
         222         217         173         173
         115         178         226         226
         237         115         226         226
         203         146         143         143
         204         143         186         186
         238         180         113         113
         239         238         240         240
         221         201         128         128
         241         197         151         151
         223         196         155         155
         223          80         170         170
         118         192         183         183
         209         183         184         184
         195         184         196         196
         242         215         238         238
         191         196         223         223
         165         164         224         224
         204         186         162         162
         204         162         201         201
         227         208         235         235
         208         210         206         206
         164         211         224         224
         165         224         229         229
         243         229         228         228
         244         220         245         245
         207         206         168         168
         235         207         156         156
         149         199         205         205
         246         148         247         247
         231         216         217         217
         230         217         222         222
         138         131         136         136
         138         136         200         200
         235         208         207         207
         235         216         231         231
         213         248         214         214
         115         114         178         178
         202         149         205         205
         249         221         241         241
         242         222         215         215
         250         244         245         245
         202         205         203         203
         150         201         221         221
         251         115         237         237
         113         180         114         114
         240         113         251         251
         238         215         180         180
         252         233         245         245
         242         230         222         222
         228         229         169         169
         228         210         208         208
         191         195         196         196
         190         191         223         223
         236         118         209         209
         194         209         195         195
         193         195         191         191
         253         219         230         230
         190         223         170         170
         190         211         164         164
         241         221         197         197
         150         149         202         202
         248         241         151         151
         249         148         150         150
         218         235         231         231
         218         220         227         227
         148         237         226         226
         254         251         237         237
         148         226         149         149
         246         247         248         248
         219         231         230         230
         253         230         242         242
         255         251         254         254
         251         113         115         115
         239         242         238         238
         252         245         253         253
         234         252         239         239
         240         238         113         113
         234         240         255         255
         239         253         242         242
         243         165         229         229
         243         228         227         227
         163         191         164         164
         244         243         220         220
         225         212          61          61
         119         118         236         236
         249         150         221         221
         247         249         241         241
         233         236         194         194
         250         245         233         233
         214         151         152         152
         256         213         212         212
         247         148         249         249
         247         241         248         248
         220         243         227         227
         245         220         219         219
         213         246         248         248
         246         237         148         148
         257         255         254         254
         254         237         246         246
         245         219         253         253
         250         233         194         194
         163         244         250         250
         244         165         243         243
         232         234         255         255
         255         240         251         251
         252         253         239         239
         234         239         240         240
         258         255         257         257
         234         233         252         252
         232         119         236         236
         232         236         233         233
         250         194         193         193
         163         250         193         193
         117         200         192         192
         117         192         118         118
         218         227         235         235
         218         231         219         219
         214         248         151         151
         212         214         152         152
         259         256         257         257
         259         246         213         213
         212         152          61          61
         225         256         212         212
         258         257         256         256
         259         257         254         254
         163         193         191         191
         163         165         244         244
         256         117         119         119
         258         256         119         119
         259         254         246         246
         259         213         256         256
         258         119         232         232
         258         232         255         255
         225         200         117         117
         225         117         256         256
 VARIABLES = X,Y,DU1,DU2,U1,U2,S11,S22,S33,S12,S13,S23,E11,E22,E12,E33,E13,E23,SMISES
 ZONE, T="0.8000D+01" F=FEPOINT, I=  259 J=  457
   0.3721173469E-01   0.1121726570E+00   0.1941201151E-04  -0.3282987469E-04   0.1358840806E-03  -0.2298091228E-03   0.4215903346E+00   0.4456471046E-01   0.1398465135E+00  -0.4808389869E-01   0.0000000000E+00   0.0000000000E+00   0.3662669674E-02  -0.1238663440E-02  -0.6250906829E-03   0.0000000000E+00   0.0000000000E+00   0.0000000000E+00   0.3488750874E+00
   0.1962654449E-01   0.9781988247E-01   0.1468901177E-04  -0.3233051595E-04   0.1028230824E-03  -0.2263136117E-03   0.5646650207E+00   0.5821991797E-01   0.1868654816E+00  -0.6540956273E-01   0.0000000000E+00   0.0000000000E+00   0.4911394008E-02  -0.1672392327E-02  -0.8503243155E-03   0.0000000000E+00   0.0000000000E+00   0.0000000000E+00   0.4693421992E+00
   0.3850104977E-01   0.9215401366E-01   0.2908839679E-04  -0.2924228052E-04   0.2036187775E-03  -0.2046959636E-03   0.5237081839E+00   0.9050658701E-01   0.1842644313E+00  -0.1345575302E+00   0.0000000000E+00   0.0000000000E+00   0.4412768784E-02  -0.1218851976E-02  -0.1749247893E-02   0.0000000000E+00   0.0000000000E+00   0.0000000000E+00   0.4552844747E+00
   0.1071213912E+00   0.2328394801E+00   0.2644377234E-04  -0.3516485853E-04   0.1851064064E-03  -0.2461540097E-03   0.2518469536E+00  -0.1655555422E-02   0.7505741946E-01   0.1284205605E-01   0.0000000000E+00   0.0000000000E+00   0.2298263944E-02  -0.9972686734E-03   0.1669467287E-03   0.0000000000E+00   0.0000000000E+00   0.0000000000E+00   0.2263527610E+00
   0.9739176409E-01   0.2496885887E+00   0.2119252365E-04  -0.3892640651E-04   0.1483476656E-03  -0.2724848456E-03   0.2403964403E+00  -0.6444794074E-03   0.7192558827E-01   0.6099037718E-02   0.0000000000E+00   0.0000000000E+00   0.2190121077E-02  -0.9434108798E-03   0.7928749034E-04   0.0000000000E+00   0.0000000000E+00   0.0000000000E+00   0.2142593928E+00
   0.8753705059E-01   0.2327167798E+00   0.2098553643E-04  -0.3866714709E-04   0.1468987550E-03  -0.2706700296E-03   0.2391600896E+00  -0.7749833297E-03   0.7151553188E-01   0.1471054779E-01   0.0000000000E+00   0.0000000000E+00   0.2179379250E-02  -0.9397766978E-03   0.1912371213E-03   0.0000000000E+00   0.0000000000E+00   0.0000000000E+00   0.2148176545E+00
   0.8917498152E-01   0.7368965046E-01   0.5497542748E-04  -0.1458594200E-04   0.3848279924E-03  -0.1021015940E-03   0.1523362385E+00  -0.2018788994E-01   0.3964450458E-01  -0.5809402617E-01   0.0000000000E+00   0.0000000000E+00   0.1464992542E-02  -0.7778211288E-03  -0.7552223402E-03   0.0000000000E+00   0.0000000000E+00   0.0000000000E+00   0.1827292180E+00
   0.7364149159E-01   0.8897800226E-01   0.4355673570E-04  -0.2084923025E-04   0.3048971499E-03  -0.1459446118E-03   0.2403481584E+00   0.7582731260E-02   0.7437926689E-01  -0.7284363895E-01   0.0000000000E+00   0.0000000000E+00   0.2157595589E-02  -0.8683549632E-03  -0.9469673064E-03   0.0000000000E+00   0.0000000000E+00   0.0000000000E+00   0.2461933521E+00
   0.7114325066E-01   0.7054514286E-01   0.5407115790E-04  -0.2069231709E-04   0.3784981053E-03  -0.1448462196E-03   0.1542534433E+00   0.4831481208E-01   0.6077047660E-01  -0.8134953940E-01   0.0000000000E+00   0.0000000000E+00   0.1215278567E-02  -0.1619236388E-03  -0.1057544012E-02   0.0000000000E+00   0.0000000000E+00   0.0000000000E+00   0.1652273749E+00
   0.1656262827E+00   0.2329015583E+00   0.4411246148E-04  -0.2566909036E-04   0.3087872303E-03  -0.1796836325E-03   0.2739409310E+00  -0.2173915464E-02   0.8153010465E-01   0.3374106323E-02   0.0000000000E+00   0.0000000000E+00   0.2501340742E-02  -0.1088152262E-02   0.4386338219E-04   0.0000000000E+00   0.0000000000E+00   0.0000000000E+00   0.2452935485E+00
   0.1558659620E+00   0.2497652357E+00   0.3880011876E-04  -0.2934553547E-04   0.2716008313E-03  -0.2054187483E-03   0.2829789563E+00  -0.3731338652E-03   0.8478174673E-01   0.2172824315E-02   0.0000000000E+00   0.0000000000E+00   0.2576563724E-02  -0.1107013448E-02   0.2824671610E-04   0.0000000000E+00   0.0000000000E+00   0.0000000000E+00   0.2518181113E+00
   0.1461307737E+00   0.2328902967E+00   0.3807095796E-04  -0.2851478869E-04   0.2664967057E-03  -0.1996035208E-03   0.2697246695E+00  -0.2360230129E-02   0.8020933180E-01   0.6651783966E-02   0.0000000000E+00   0.0000000000E+00   0.2463699390E-02  -0.1073404305E-02   0.8647319156E-04   0.0000000000E+00   0.0000000000E+00   0.0000000000E+00   0.2419161377E+00
   0.1023325292E+00   0.5675961138E-01   0.6457102540E-04  -0.9188814991E-05   0.4519971778E-03  -0.6432170494E-04   0.8761419274E-01  -0.4797374860E-01   0.1189213324E-01  -0.4356814645E-01   0.0000000000E+00   0.0000000000E+00   0.9843867735E-03  -0.7782564639E-03  -0.5663859039E-03   0.0000000000E+00   0.0000000000E+00   0.0000000000E+00   0.1397618973E+00
   0.8365459150E-01   0.5543340644E-01   0.6345400012E-04  -0.1545215750E-04   0.4441780009E-03  -0.1081651025E-03   0.4424015905E-01  -0.4006287052E-01   0.1253186559E-02  -0.2000195774E-01   0.0000000000E+00   0.0000000000E+00   0.5588306424E-03  -0.5371087420E-03  -0.2600254506E-03   0.0000000000E+00   0.0000000000E+00   0.0000000000E+00   0.8754181442E-01
   0.9867724916E-01   0.1947063720E-01   0.7484032045E-04  -0.4799400208E-05   0.5238822431E-03  -0.3359580146E-04  -0.1002463543E-01  -0.1552480860E+00  -0.4958181643E-01   0.5941505882E-02   0.0000000000E+00   0.0000000000E+00   0.5142433531E-03  -0.1373661505E-02   0.7723957647E-04   0.0000000000E+00   0.0000000000E+00   0.0000000000E+00   0.1317935065E+00
   0.1006019114E+00   0.0000000000E+00   0.7523880562E-04   0.0000000000E+00   0.5266716394E-03   0.0000000000E+00   0.1565770080E-01  -0.2903403523E+00  -0.8240479545E-01  -0.9800333000E-02   0.0000000000E+00   0.0000000000E+00   0.1274812451E-02  -0.2703162239E-02  -0.1274043290E-03   0.0000000000E+00   0.0000000000E+00   0.0000000000E+00   0.2678858969E+00
   0.1214533525E+00   0.0000000000E+00   0.7750281467E-04   0.0000000000E+00   0.5425197027E-03   0.0000000000E+00  -0.7333972073E-02  -0.1231767984E+00  -0.3915323116E-01   0.1693178975E-02   0.0000000000E+00   0.0000000000E+00   0.4136503681E-03  -0.1092306375E-02   0.2201132667E-04   0.0000000000E+00   0.0000000000E+00   0.0000000000E+00   0.1074695746E+00
   0.1558813485E+00   0.2159971736E+00   0.4318394341E-04  -0.2474904393E-04   0.3022876039E-03  -0.1732433075E-03   0.2657918144E+00  -0.6193273348E-02   0.7787956231E-01   0.7932214338E-02   0.0000000000E+00   0.0000000000E+00   0.2442859277E-02  -0.1092946864E-02   0.1031187864E-03   0.0000000000E+00   0.0000000000E+00   0.0000000000E+00   0.2415651200E+00
   0.1753852807E+00   0.2160020251E+00   0.4912721475E-04  -0.2210861187E-04   0.3438905033E-03  -0.1547602831E-03   0.2659006293E+00  -0.5176487018E-02   0.7821724267E-01   0.2561909377E-02   0.0000000000E+00   0.0000000000E+00   0.2439884026E-02  -0.1084118486E-02   0.3330482191E-04   0.0000000000E+00   0.0000000000E+00   0.0000000000E+00   0.2405106498E+00
   0.1755108224E-01   0.2241610308E+00   0.4126342857E-05  -0.4690115214E-04   0.2888440000E-04  -0.3283080650E-03   0.2163666144E+00   0.6617868975E-02   0.6689534501E-01   0.5896395317E-02   0.0000000000E+00   0.0000000000E+00   0.1943126502E-02  -0.7836071885E-03   0.7665313912E-04   0.0000000000E+00   0.0000000000E+00   0.0000000000E+00   0.1876387746E+00
   0.0000000000E+00   0.2308657332E+00   0.0000000000E+00  -0.4803372350E-04   0.0000000000E+00  -0.3362360645E-03   0.1890134034E+00   0.5358023872E-02   0.5831142818E-01   0.1363272335E-02   0.0000000000E+00   0.0000000000E+00   0.1699125678E-02  -0.6883942559E-03   0.1772254035E-04   0.0000000000E+00   0.0000000000E+00   0.0000000000E+00   0.1638764134E+00
   0.0000000000E+00   0.2121297791E+00   0.0000000000E+00  -0.4627835925E-04   0.0000000000E+00  -0.3239485147E-03   0.2258666601E+00   0.1277230492E-01   0.7159168950E-01   0.6784247136E-02   0.0000000000E+00   0.0000000000E+00   0.2005574618E-02  -0.7646519995E-03   0.8819521277E-04   0.0000000000E+00   0.0000000000E+00   0.0000000000E+00   0.1909092063E+00
   0.0000000000E+00   0.1184528786E+00   0.0000000000E+00  -0.3714004802E-04   0.0000000000E+00  -0.2599803361E-03   0.5357296531E+00   0.5618972074E-01   0.1775758122E+00  -0.1530273560E-01   0.0000000000E+00   0.0000000000E+00   0.4655999932E-02  -0.1578019188E-02  -0.1989355628E-03   0.0000000000E+00   0.0000000000E+00   0.0000000000E+00   0.4358047179E+00
   0.0000000000E+00   0.9974800400E-01   0.0000000000E+00  -0.3149962457E-04   0.0000000000E+00  -0.2204973720E-03   0.7938240236E+00  -0.1011454999E-01   0.2351128421E+00  -0.4086045035E-02   0.0000000000E+00   0.0000000000E+00   0.7263245360E-02  -0.3187956097E-02  -0.5311858545E-04   0.0000000000E+00   0.0000000000E+00   0.0000000000E+00   0.7071056694E+00
   0.1830175061E-01   0.1242774108E+00   0.8175276058E-05  -0.3684340132E-04   0.5722693241E-04  -0.2579038092E-03   0.3906148334E+00   0.5539115347E-01   0.1338017961E+00  -0.1621468874E-01   0.0000000000E+00   0.0000000000E+00   0.3338569486E-02  -0.1019338354E-02  -0.2107909536E-03   0.0000000000E+00   0.0000000000E+00   0.0000000000E+00   0.3061064073E+00
   0.5583625531E-01   0.1015832638E+00   0.3139192580E-04  -0.2726465151E-04   0.2197434806E-03  -0.1908525605E-03   0.3296811390E+00   0.1939954897E-01   0.1047242064E+00  -0.6978278706E-01   0.0000000000E+00   0.0000000000E+00   0.2924440124E-02  -0.1109220547E-02  -0.9071762318E-03   0.0000000000E+00   0.0000000000E+00   0.0000000000E+00   0.3047968520E+00
   0.5589690938E-01   0.8294365552E-01   0.4248571004E-04  -0.2541299733E-04   0.2973999703E-03  -0.1778909813E-03   0.3266863040E+00   0.9315766702E-01   0.1259531913E+00  -0.1349821062E+00   0.0000000000E+00   0.0000000000E+00   0.2609530465E-02  -0.4263418159E-03  -0.1754767380E-02   0.0000000000E+00   0.0000000000E+00   0.0000000000E+00   0.3119472728E+00
   0.3658852031E-01   0.2150596948E+00   0.9197800863E-05  -0.4450264583E-04   0.6438460604E-04  -0.3115185208E-03   0.2291134841E+00   0.8150321563E-02   0.7117914169E-01   0.1849996719E-01   0.0000000000E+00   0.0000000000E+00   0.2053146451E-02  -0.8193746616E-03   0.2404995735E-03   0.0000000000E+00   0.0000000000E+00   0.0000000000E+00   0.1997469021E+00
   0.5772788732E-01   0.2155514898E+00   0.1468032773E-04  -0.4170714757E-04   0.1027622941E-03  -0.2919500330E-03   0.2355751367E+00   0.2465094252E-02   0.7141206928E-01   0.2400263148E-01   0.0000000000E+00   0.0000000000E+00   0.2134119876E-02  -0.8963106753E-03   0.3120342093E-03   0.0000000000E+00   0.0000000000E+00   0.0000000000E+00   0.2114123987E+00
   0.4860648860E-01   0.2327280824E+00   0.1102542486E-04  -0.4482782298E-04   0.7717797400E-04  -0.3137947608E-03   0.2144300327E+00   0.3543807393E-02   0.6539215204E-01   0.1415750692E-01   0.0000000000E+00   0.0000000000E+00   0.1937492449E-02  -0.8040284804E-03   0.1840475900E-03   0.0000000000E+00   0.0000000000E+00   0.0000000000E+00   0.1895178535E+00
   0.1749097732E-01   0.1453403089E+00   0.6212139837E-05  -0.3933338926E-04   0.4348497886E-04  -0.2753337249E-03   0.3365966334E+00   0.5204107960E-01   0.1165913139E+00   0.7797159066E-02   0.0000000000E+00   0.0000000000E+00   0.2860069154E-02  -0.8391530461E-03   0.1013630679E-03   0.0000000000E+00   0.0000000000E+00   0.0000000000E+00   0.2588265072E+00
   0.0000000000E+00   0.1559207789E+00   0.0000000000E+00  -0.4115263408E-04   0.0000000000E+00  -0.2880684386E-03   0.3153926890E+00   0.5879007840E-01   0.1122548302E+00   0.8205029697E-02   0.0000000000E+00   0.0000000000E+00   0.2640792164E-02  -0.6950417736E-03   0.1066653861E-03   0.0000000000E+00   0.0000000000E+00   0.0000000000E+00   0.2354708090E+00
   0.0000000000E+00   0.1371844007E+00   0.0000000000E+00  -0.3945028195E-04   0.0000000000E+00  -0.2761519737E-03   0.3741168781E+00   0.7607338635E-01   0.1350570793E+00   0.2101338074E-01   0.0000000000E+00   0.0000000000E+00   0.3107777384E-02  -0.7667880089E-03   0.2731739496E-03   0.0000000000E+00   0.0000000000E+00   0.0000000000E+00   0.2733542755E+00
   0.3604228723E-01   0.1340710281E+00   0.1409175419E-04  -0.3588499247E-04   0.9864227935E-04  -0.2511949473E-03   0.3611873002E+00   0.5059669235E-01   0.1235351978E+00   0.6492919490E-02   0.0000000000E+00   0.0000000000E+00   0.3089477332E-02  -0.9482005706E-03   0.8440795336E-04   0.0000000000E+00   0.0000000000E+00   0.0000000000E+00   0.2813480957E+00
   0.3221435244E-01   0.2342041926E+00   0.7092667677E-05  -0.4679655008E-04   0.4964867374E-04  -0.3275758506E-03   0.1965529258E+00   0.1293390333E-02   0.5935389485E-01   0.1033873139E-01   0.0000000000E+00   0.0000000000E+00   0.1783587403E-02  -0.7547865587E-03   0.1344035080E-03   0.0000000000E+00   0.0000000000E+00   0.0000000000E+00   0.1744817453E+00
   0.1947354657E-01   0.2496067256E+00   0.3637683758E-05  -0.4915930531E-04   0.2546378631E-04  -0.3441151372E-03   0.1772348679E+00   0.1613460718E-02   0.5365449857E-01   0.2849502839E-02   0.0000000000E+00   0.0000000000E+00   0.1606544801E-02  -0.6765334921E-03   0.3704353691E-04   0.0000000000E+00   0.0000000000E+00   0.0000000000E+00   0.1565562617E+00
   0.1295099560E+00   0.2145438233E-01   0.7610399698E-04  -0.1517634148E-05   0.5327279788E-03  -0.1062343904E-04   0.1982056572E-01  -0.4850487805E-01  -0.8605293699E-02  -0.1894298680E-01   0.0000000000E+00   0.0000000000E+00   0.3695361724E-03  -0.5186945966E-03  -0.2462588284E-03   0.0000000000E+00   0.0000000000E+00   0.0000000000E+00   0.6976671062E-01
   0.3299443217E+00   0.0000000000E+00   0.9720509032E-04   0.0000000000E+00   0.6804356322E-03   0.0000000000E+00   0.1339790360E+00   0.3756372331E-01   0.5146282779E-01  -0.5418410882E-03   0.0000000000E+00   0.0000000000E+00   0.1072710707E-02  -0.1806883582E-03  -0.7043934146E-05   0.0000000000E+00   0.0000000000E+00   0.0000000000E+00   0.9027258135E-01
   0.3507999940E+00   0.0000000000E+00   0.1000000000E-03   0.0000000000E+00   0.7000000000E-03   0.0000000000E+00   0.1330461106E+00   0.3733961990E-01   0.5111571916E-01   0.2583650587E-03   0.0000000000E+00   0.0000000000E+00   0.1065095089E-02  -0.1790892904E-03   0.3358745763E-05   0.0000000000E+00   0.0000000000E+00   0.0000000000E+00   0.8961471447E-01
   0.3507999940E+00   0.1922727520E-01   0.1000000000E-03  -0.4368373714E-06   0.7000000000E-03  -0.3057861600E-05   0.1358942461E+00   0.3757770749E-01   0.5204158608E-01   0.2511097087E-04   0.0000000000E+00   0.0000000000E+00   0.1090084581E-02  -0.1880304217E-03   0.3264426213E-06   0.0000000000E+00   0.0000000000E+00   0.0000000000E+00   0.9194367161E-01
   0.3322087375E+00   0.2616681159E-01   0.9743306808E-04  -0.6111768354E-06   0.6820314766E-03  -0.4278237848E-05   0.1377620825E+00   0.3724576050E-01   0.5250235291E-01  -0.1451444473E-02   0.0000000000E+00   0.0000000000E+00   0.1108376485E-02  -0.1983357013E-03  -0.1886877815E-04   0.0000000000E+00   0.0000000000E+00   0.0000000000E+00   0.9383965386E-01
   0.3507999940E+00   0.3845411231E-01   0.1000000000E-03  -0.9284490916E-06   0.7000000000E-03  -0.6499143641E-05   0.1405940316E+00   0.3551423967E-01   0.5283248138E-01  -0.1327611877E-03   0.0000000000E+00   0.0000000000E+00   0.1140900153E-02  -0.2251371423E-03  -0.1725895441E-05   0.0000000000E+00   0.0000000000E+00   0.0000000000E+00   0.9757857840E-01
   0.3165354278E+00   0.7693690001E-01   0.9432622658E-04  -0.2333973297E-05   0.6602835861E-03  -0.1633781308E-04   0.1574690495E+00   0.2774379431E-01   0.5556385315E-01  -0.7387993351E-02   0.0000000000E+00   0.0000000000E+00   0.1324767553E-02  -0.3616607649E-03  -0.9604391356E-04   0.0000000000E+00   0.0000000000E+00   0.0000000000E+00   0.1189736007E+00
   0.3335063517E+00   0.6719414334E-01   0.9724946777E-04  -0.1906182922E-05   0.6807462744E-03  -0.1334328046E-04   0.1528665282E+00   0.3047689756E-01   0.5500302773E-01  -0.3229313606E-02   0.0000000000E+00   0.0000000000E+00   0.1272225506E-02  -0.3188396922E-03  -0.4198107688E-04   0.0000000000E+00   0.0000000000E+00   0.0000000000E+00   0.1122821969E+00
   0.3338613120E+00   0.8653531645E-01   0.9707249753E-04  -0.2769230808E-05   0.6795074827E-03  -0.1938461566E-04   0.1634084100E+00   0.2638790615E-01   0.5693889483E-01  -0.3651081162E-02   0.0000000000E+00   0.0000000000E+00   0.1384103697E-02  -0.3971628529E-03  -0.4746405510E-04   0.0000000000E+00   0.0000000000E+00   0.0000000000E+00   0.1247388639E+00
   0.3121715995E+00   0.3580998565E-01   0.9454306042E-04  -0.8666808515E-06   0.6618014230E-03  -0.6066765961E-05   0.1378835822E+00   0.3449124323E-01   0.5171244763E-01  -0.5034992818E-02   0.0000000000E+00   0.0000000000E+00   0.1120224750E-02  -0.2238756572E-03  -0.6545490663E-04   0.0000000000E+00   0.0000000000E+00   0.0000000000E+00   0.9633517604E-01
   0.3165360932E+00   0.1595206261E-01   0.9536301880E-04  -0.3645236782E-06   0.6675411316E-03  -0.2551665747E-05   0.1335388689E+00   0.3658556996E-01   0.5103733166E-01  -0.1972395267E-02   0.0000000000E+00   0.0000000000E+00   0.1072519984E-02  -0.1878729021E-03  -0.2564113847E-04   0.0000000000E+00   0.0000000000E+00   0.0000000000E+00   0.9067030798E-01
   0.2783226115E+00   0.1795850528E-01   0.9030906378E-04  -0.4058028712E-06   0.6321634465E-03  -0.2840620098E-05   0.1273729635E+00   0.3355317695E-01   0.4827784213E-01  -0.4523122364E-02   0.0000000000E+00   0.0000000000E+00   0.1028236577E-02  -0.1914206473E-03  -0.5880059073E-04   0.0000000000E+00   0.0000000000E+00   0.0000000000E+00   0.8778724202E-01
   0.2673794440E+00   0.0000000000E+00   0.8909537818E-04   0.0000000000E+00   0.6236676472E-03   0.0000000000E+00   0.1220783573E+00   0.3312447633E-01   0.4656085010E-01  -0.1883100805E-02   0.0000000000E+00   0.0000000000E+00   0.9817275940E-03  -0.1746728590E-03  -0.2448031046E-04   0.0000000000E+00   0.0000000000E+00   0.0000000000E+00   0.8300627047E-01
   0.2882336981E+00   0.0000000000E+00   0.9171301002E-04   0.0000000000E+00   0.6419910701E-03   0.0000000000E+00   0.1278987387E+00   0.3538000652E-01   0.4898362357E-01  -0.1442471250E-02   0.0000000000E+00   0.0000000000E+00   0.1025896497E-02  -0.1768470216E-03  -0.1875212625E-04   0.0000000000E+00   0.0000000000E+00   0.0000000000E+00   0.8652523955E-01
   0.2361668035E+00   0.1793672008E-01   0.8517855705E-04  -0.3978398820E-06   0.5962498993E-03  -0.2784879174E-05   0.1117569258E+00   0.2693962882E-01   0.4160896640E-01  -0.8351272566E-02   0.0000000000E+00   0.0000000000E+00   0.9119234727E-03  -0.1907013885E-03  -0.1085665434E-03   0.0000000000E+00   0.0000000000E+00   0.0000000000E+00   0.8002992820E-01
   0.2465262539E+00   0.0000000000E+00   0.8661460806E-04   0.0000000000E+00   0.6063022564E-03   0.0000000000E+00   0.1139092269E+00   0.2988293058E-01   0.4313764724E-01  -0.2583099074E-02   0.0000000000E+00   0.0000000000E+00   0.9200305354E-03  -0.1723113166E-03  -0.3358028796E-04   0.0000000000E+00   0.0000000000E+00   0.0000000000E+00   0.7816931736E-01
   0.2572104244E+00   0.1801708790E-01   0.8766242762E-04  -0.4038623832E-06   0.6136369934E-03  -0.2827036682E-05   0.1205368683E+00   0.3078416757E-01   0.4539631076E-01  -0.6416457556E-02   0.0000000000E+00   0.0000000000E+00   0.9768272481E-03  -0.1899578616E-03  -0.8341394823E-04   0.0000000000E+00   0.0000000000E+00   0.0000000000E+00   0.8426295448E-01
   0.2996264747E+00   0.8659728574E-01   0.9115108225E-04  -0.2834995102E-05   0.6380575757E-03  -0.1984496572E-04   0.1625282678E+00   0.2374352443E-01   0.5588153768E-01  -0.1139715809E-01   0.0000000000E+00   0.0000000000E+00   0.1386407492E-02  -0.4177941722E-03  -0.1481630552E-03   0.0000000000E+00   0.0000000000E+00   0.0000000000E+00   0.1273549021E+00
   0.3169114412E+00   0.9619294447E-01   0.9388252582E-04  -0.3306704314E-05   0.6571776808E-03  -0.2314693020E-04   0.1690902825E+00   0.2330317123E-01   0.5771803613E-01  -0.7785200691E-02   0.0000000000E+00   0.0000000000E+00   0.1447839203E-02  -0.4473932437E-03  -0.1012076090E-03   0.0000000000E+00   0.0000000000E+00   0.0000000000E+00   0.1326673245E+00
   0.3000093898E+00   0.1058533570E+00   0.9041160451E-04  -0.3945999953E-05   0.6328812316E-03  -0.2762199967E-04   0.1752438156E+00   0.1929986174E-01   0.5836310321E-01  -0.1174701924E-01   0.0000000000E+00   0.0000000000E+00   0.1519449261E-02  -0.5078221390E-03  -0.1527112501E-03   0.0000000000E+00   0.0000000000E+00   0.0000000000E+00   0.1420040815E+00
   0.1942652007E+00   0.1782820211E-01   0.8086283346E-04  -0.4171990993E-06   0.5660398342E-03  -0.2920393695E-05   0.8576174177E-01   0.1371966451E-01   0.2984442188E-01  -0.1373952221E-01   0.0000000000E+00   0.0000000000E+00   0.7269251585E-03  -0.2096218458E-03  -0.1786137887E-03   0.0000000000E+00   0.0000000000E+00   0.0000000000E+00   0.7034672648E-01
   0.2048247675E+00   0.0000000000E+00   0.8226269061E-04   0.0000000000E+00   0.5758388342E-03   0.0000000000E+00   0.8898021202E-01   0.1919996224E-01   0.3245405228E-01  -0.4633118457E-02   0.0000000000E+00   0.0000000000E+00   0.7348400767E-03  -0.1723031705E-03  -0.6023053994E-04   0.0000000000E+00   0.0000000000E+00   0.0000000000E+00   0.6409604906E-01
   0.2152284074E+00   0.1790686103E-01   0.8289880062E-04  -0.4009839229E-06   0.5802916044E-03  -0.2806887461E-05   0.1002425594E+00   0.2143184571E-01   0.3650232154E-01  -0.1083370788E-01   0.0000000000E+00   0.0000000000E+00   0.8286230924E-03  -0.1959161857E-03  -0.1408382024E-03   0.0000000000E+00   0.0000000000E+00   0.0000000000E+00   0.7521744757E-01
   0.1326761556E+00   0.4105601446E-01   0.7271220213E-04  -0.2975130336E-05   0.5089854149E-03  -0.2082591235E-04   0.6061834718E-01  -0.4960234708E-01   0.3304800031E-02  -0.4645544125E-01   0.0000000000E+00   0.0000000000E+00   0.7450761129E-03  -0.6877929124E-03  -0.6039207362E-03   0.0000000000E+00   0.0000000000E+00   0.0000000000E+00   0.1252072952E+00
   0.1256205473E+00   0.5986298216E-01   0.6669990856E-04  -0.5398455227E-05   0.4668993599E-03  -0.3778918659E-04   0.1032919463E+00  -0.5640513460E-01   0.1406604351E-01  -0.6113723485E-01   0.0000000000E+00   0.0000000000E+00   0.1159936736E-02  -0.9161253154E-03  -0.7947840531E-03   0.0000000000E+00   0.0000000000E+00   0.0000000000E+00   0.1750442114E+00
   0.1135698532E+00   0.3919131495E-01   0.7163702634E-04  -0.4967444060E-05   0.5014591844E-03  -0.3477210842E-04   0.3163372459E-01  -0.8218458015E-01  -0.1516525667E-01  -0.3126072455E-01   0.0000000000E+00   0.0000000000E+00   0.6083867564E-03  -0.8712512053E-03  -0.4063894191E-03   0.0000000000E+00   0.0000000000E+00   0.0000000000E+00   0.1151084612E+00
   0.1733580241E+00   0.1762663422E-01   0.7913089277E-04  -0.4695721429E-06   0.5539162494E-03  -0.3287005000E-05   0.6761495000E-01   0.3351274478E-02   0.2128986734E-01  -0.1718289970E-01   0.0000000000E+00   0.0000000000E+00   0.6022260746E-03  -0.2332017073E-03  -0.2233776961E-03   0.0000000000E+00   0.0000000000E+00   0.0000000000E+00   0.6552652172E-01
   0.1839774356E+00   0.0000000000E+00   0.8051233002E-04   0.0000000000E+00   0.5635863102E-03   0.0000000000E+00   0.7043987019E-01   0.1015099539E-01   0.2417725967E-01  -0.6559169298E-02   0.0000000000E+00   0.0000000000E+00   0.6014139367E-03  -0.1823414357E-03  -0.8526920088E-04   0.0000000000E+00   0.0000000000E+00   0.0000000000E+00   0.5494824151E-01
   0.9295050374E-01   0.3818797226E-01   0.7031898010E-04  -0.1004629308E-04   0.4922328607E-03  -0.7032405158E-04  -0.1457530819E-02  -0.1476128415E+00  -0.4472111169E-01   0.1265494685E-01   0.0000000000E+00   0.0000000000E+00   0.5624265513E-03  -0.1337592487E-02   0.1645143090E-03   0.0000000000E+00   0.0000000000E+00   0.0000000000E+00   0.1258587469E+00
   0.3313090903E+00   0.2498548680E+00   0.9419153145E-04  -0.1814150357E-04   0.6593407202E-03  -0.1269905250E-03   0.2618566108E+00   0.2278193726E-03   0.7862532906E-01  -0.1152086772E-04   0.0000000000E+00   0.0000000000E+00   0.2382006663E-02  -0.1019167626E-02  -0.1497712803E-06   0.0000000000E+00   0.0000000000E+00   0.0000000000E+00   0.2325578977E+00
   0.3507999940E+00   0.2306440477E+00   0.1000000000E-03  -0.1564803975E-04   0.7000000000E-03  -0.1095362783E-03   0.2555953709E+00   0.1607768809E-03   0.7672684432E-01  -0.3518230507E-03   0.0000000000E+00   0.0000000000E+00   0.2325290845E-02  -0.9953588768E-03  -0.4573699659E-05   0.0000000000E+00   0.0000000000E+00   0.0000000000E+00   0.2270557417E+00
   0.3507999940E+00   0.2498550648E+00   0.1000000000E-03  -0.1811690379E-04   0.7000000000E-03  -0.1268183265E-03   0.2661684001E+00  -0.9642857375E-03   0.7956123430E-01   0.9602146996E-03   0.0000000000E+00   0.0000000000E+00   0.2425893155E-02  -0.1046831761E-02   0.1248279110E-04   0.0000000000E+00   0.0000000000E+00   0.0000000000E+00   0.2373466381E+00
   0.3248024459E+00   0.2322311901E+00   0.9244899176E-04  -0.1596961045E-04   0.6471429423E-03  -0.1117872732E-03   0.2559336190E+00   0.5001571204E-03   0.7693013284E-01  -0.2041140280E-02   0.0000000000E+00   0.0000000000E+00   0.2327045320E-02  -0.9935896844E-03  -0.2653482364E-04   0.0000000000E+00   0.0000000000E+00   0.0000000000E+00   0.2271050719E+00
   0.3118179255E+00   0.2498531451E+00   0.8835043679E-04  -0.1835685885E-04   0.6184530575E-03  -0.1284980119E-03   0.2653984397E+00   0.1088079678E-02   0.7994595582E-01  -0.2279689912E-03   0.0000000000E+00   0.0000000000E+00   0.2410882291E-02  -0.1025152390E-02  -0.2963596885E-05   0.0000000000E+00   0.0000000000E+00   0.0000000000E+00   0.2350185739E+00
   0.2839752857E+00   0.1996229395E+00   0.8197283816E-04  -0.1274481796E-04   0.5738098671E-03  -0.8921372574E-04   0.2415272220E+00   0.2448463295E-02   0.7319270559E-01  -0.7515176232E-02   0.0000000000E+00   0.0000000000E+00   0.2188348713E-02  -0.9196751499E-03  -0.9769729102E-04   0.0000000000E+00   0.0000000000E+00   0.0000000000E+00   0.2131094396E+00
   0.2735846242E+00   0.2160448603E+00   0.7821489395E-04  -0.1499395812E-04   0.5475042577E-03  -0.1049577068E-03   0.2528105050E+00   0.7162357898E-03   0.7605802222E-01  -0.6400954389E-02   0.0000000000E+00   0.0000000000E+00   0.2297782276E-02  -0.9794432236E-03  -0.8321240705E-04   0.0000000000E+00   0.0000000000E+00   0.0000000000E+00   0.2243983556E+00
   0.2639453753E+00   0.1993782177E+00   0.7648453726E-04  -0.1332028604E-04   0.5353917608E-03  -0.9324200227E-04   0.2437353730E+00   0.1065191238E-02   0.7344016926E-01  -0.8885018795E-02   0.0000000000E+00   0.0000000000E+00   0.2213837648E-02  -0.9408747143E-03  -0.1155052443E-03   0.0000000000E+00   0.0000000000E+00   0.0000000000E+00   0.2163303400E+00
   0.3163168476E+00   0.1922894851E+00   0.9093119617E-04  -0.1136598808E-04   0.6365183732E-03  -0.7956191657E-04   0.2331500274E+00   0.3787194280E-02   0.7108116652E-01  -0.4844483279E-02   0.0000000000E+00   0.0000000000E+00   0.2106895192E-02  -0.8748216391E-03  -0.6297828263E-04   0.0000000000E+00   0.0000000000E+00   0.0000000000E+00   0.2043877704E+00
   0.3338761675E+00   0.1825157332E+00   0.9568844018E-04  -0.1017834764E-04   0.6698190813E-03  -0.7124843347E-04   0.2273710987E+00   0.6152469850E-02   0.7005707056E-01  -0.2732195712E-02   0.0000000000E+00   0.0000000000E+00   0.2045082366E-02  -0.8307598093E-03  -0.3551854425E-04   0.0000000000E+00   0.0000000000E+00   0.0000000000E+00   0.1972534565E+00
   0.3338952708E+00   0.2015271706E+00   0.9544247375E-04  -0.1224042933E-04   0.6680973162E-03  -0.8568300529E-04   0.2400500935E+00   0.3554839366E-02   0.7308147986E-01  -0.2354965963E-02   0.0000000000E+00   0.0000000000E+00   0.2170591977E-02  -0.9038463264E-03  -0.3061455751E-04   0.0000000000E+00   0.0000000000E+00   0.0000000000E+00   0.2105730113E+00
   0.3339770685E+00   0.1633456071E+00   0.9598519135E-04  -0.8281110182E-05   0.6718963394E-03  -0.5796777127E-04   0.2144045455E+00   0.9501835504E-02   0.6717191430E-01  -0.3244720063E-02   0.0000000000E+00   0.0000000000E+00   0.1914024206E-02  -0.7497110244E-03  -0.4218136082E-04   0.0000000000E+00   0.0000000000E+00   0.0000000000E+00   0.1831040336E+00
   0.3507999940E+00   0.1730035050E+00   0.1000000000E-03  -0.9177871342E-05   0.7000000000E-03  -0.6424509939E-04   0.2206816047E+00   0.7742014678E-02   0.6852708580E-01   0.4826564653E-04   0.0000000000E+00   0.0000000000E+00   0.1978008745E-02  -0.7902059246E-03   0.6274534049E-06   0.0000000000E+00   0.0000000000E+00   0.0000000000E+00   0.1899901558E+00
   0.3507999940E+00   0.1537871239E+00   0.1000000000E-03  -0.7379511093E-05   0.7000000000E-03  -0.5165657765E-04   0.2077202231E+00   0.1151763402E-01   0.6577135715E-01   0.1688827405E-04   0.0000000000E+00   0.0000000000E+00   0.1845335258E-02  -0.7052984007E-03   0.2195475627E-06   0.0000000000E+00   0.0000000000E+00   0.0000000000E+00   0.1754831921E+00
   0.2683516532E+00   0.3628696834E-01   0.8853264907E-04  -0.8862074536E-06   0.6197285435E-03  -0.6203452175E-05   0.1298886858E+00   0.3004869858E-01   0.4798121532E-01  -0.1115190243E-01   0.0000000000E+00   0.0000000000E+00   0.1064797117E-02  -0.2331227177E-03  -0.1449747316E-03   0.0000000000E+00   0.0000000000E+00   0.0000000000E+00   0.9409817771E-01
   0.3171415686E+00   0.1345803692E+00   0.9280894746E-04  -0.5888344265E-05   0.6496626322E-03  -0.4121840986E-04   0.1950221418E+00   0.1443917422E-01   0.6283839479E-01  -0.7384982591E-02   0.0000000000E+00   0.0000000000E+00   0.1718388711E-02  -0.6291898675E-03  -0.9600477368E-04   0.0000000000E+00   0.0000000000E+00   0.0000000000E+00   0.1624042368E+00
   0.3171241543E+00   0.1154203488E+00   0.9337391188E-04  -0.4489895082E-05   0.6536173831E-03  -0.3142926558E-04   0.1817307515E+00   0.1878950597E-01   0.6015607724E-01  -0.7763009271E-02   0.0000000000E+00   0.0000000000E+00   0.1580470765E-02  -0.5377654265E-03  -0.1009191205E-03   0.0000000000E+00   0.0000000000E+00   0.0000000000E+00   0.1473068616E+00
   0.3340142750E+00   0.1249776635E+00   0.9656050119E-04  -0.5098057489E-05   0.6759235083E-03  -0.3568640243E-04   0.1880693794E+00   0.1751219467E-01   0.6167447223E-01  -0.3773330945E-02   0.0000000000E+00   0.0000000000E+00   0.1643133794E-02  -0.5741096083E-03  -0.4905330228E-04   0.0000000000E+00   0.0000000000E+00   0.0000000000E+00   0.1534597864E+00
   0.3507999940E+00   0.9612776809E-01   0.1000000000E-03  -0.3259976031E-05   0.7000000000E-03  -0.2281983222E-04   0.1692767870E+00   0.2443711606E-01   0.5811417091E-01  -0.1609955134E-03   0.0000000000E+00   0.0000000000E+00   0.1445114009E-02  -0.4378017132E-03  -0.2092941674E-05   0.0000000000E+00   0.0000000000E+00   0.0000000000E+00   0.1312731752E+00
   0.3339743271E+00   0.1057606608E+00   0.9683089282E-04  -0.3827144101E-05   0.6778162497E-03  -0.2679000871E-04   0.1752984270E+00   0.2195867967E-01   0.5917713201E-01  -0.3818590020E-02   0.0000000000E+00   0.0000000000E+00   0.1509576835E-02  -0.4838398804E-03  -0.4964167026E-04   0.0000000000E+00   0.0000000000E+00   0.0000000000E+00   0.1386846463E+00
   0.3507999940E+00   0.7690461798E-01   0.1000000000E-03  -0.2307727201E-05   0.7000000000E-03  -0.1615409041E-04   0.1581746453E+00   0.2866025733E-01   0.5605047078E-01  -0.1396724288E-03   0.0000000000E+00   0.0000000000E+00   0.1327614268E-02  -0.3560727748E-03  -0.1815741575E-05   0.0000000000E+00   0.0000000000E+00   0.0000000000E+00   0.1182154013E+00
   0.3326340661E+00   0.4722469066E-01   0.9732751395E-04  -0.1196580282E-05   0.6812925977E-03  -0.8376061972E-05   0.1437573549E+00   0.3403346218E-01   0.5333724513E-01  -0.2799346373E-02   0.0000000000E+00   0.0000000000E+00   0.1175461427E-02  -0.2509491783E-03  -0.3639150285E-04   0.0000000000E+00   0.0000000000E+00   0.0000000000E+00   0.1015700710E+00
   0.3507999940E+00   0.5767999653E-01   0.1000000000E-03  -0.1538934116E-05   0.7000000000E-03  -0.1077253881E-04   0.1484957000E+00   0.3228985039E-01   0.5423566513E-01  -0.8853433438E-04   0.0000000000E+00   0.0000000000E+00   0.1225380454E-02  -0.2852955916E-03  -0.1150946347E-05   0.0000000000E+00   0.0000000000E+00   0.0000000000E+00   0.1069253993E+00
   0.0000000000E+00   0.2496043379E+00   0.0000000000E+00  -0.4945776087E-04   0.0000000000E+00  -0.3462043261E-03   0.1497128157E+00   0.5622538345E-02   0.4660060622E-01   0.7339238611E-02   0.0000000000E+00   0.0000000000E+00   0.1340458724E-02  -0.5327148824E-03   0.9541010194E-04   0.0000000000E+00   0.0000000000E+00   0.0000000000E+00   0.1288250270E+00
   0.3894775272E-01   0.2496197623E+00   0.7357802020E-05  -0.4752971173E-04   0.5150461414E-04  -0.3327079821E-03   0.1728736808E+00  -0.6864600530E-03   0.5165616623E-01   0.4835772384E-02   0.0000000000E+00   0.0000000000E+00   0.1575827690E-02  -0.6804541417E-03   0.6286504099E-04   0.0000000000E+00   0.0000000000E+00   0.0000000000E+00   0.1542548955E+00
   0.5569670106E-01   0.1228950486E+00   0.2389837062E-04  -0.3039905284E-04   0.1672885944E-03  -0.2127933699E-03   0.3454295670E+00   0.2098009410E-01   0.1099228983E+00  -0.4204564243E-02   0.0000000000E+00   0.0000000000E+00   0.3061586693E-02  -0.1156256455E-02  -0.5465933515E-04   0.0000000000E+00   0.0000000000E+00   0.0000000000E+00   0.2881586468E+00
   0.6794479800E-01   0.2326347897E+00   0.1582448774E-04  -0.4199066471E-04   0.1107714142E-03  -0.2939346530E-03   0.2253519411E+00   0.5333002976E-03   0.6776557241E-01   0.1502958575E-01   0.0000000000E+00   0.0000000000E+00   0.2048622793E-02  -0.8740195375E-03   0.1953846147E-03   0.0000000000E+00   0.0000000000E+00   0.0000000000E+00   0.2017020548E+00
   0.5842530499E-01   0.2496386340E+00   0.1149642408E-04  -0.4517074934E-04   0.8047496859E-04  -0.3161952454E-03   0.1972599006E+00  -0.3831327285E-03   0.5906303036E-01   0.5959845950E-02   0.0000000000E+00   0.0000000000E+00   0.1796559313E-02  -0.7728001201E-03   0.7747799735E-04   0.0000000000E+00   0.0000000000E+00   0.0000000000E+00   0.1756870877E+00
   0.7790659614E-01   0.2496622997E+00   0.1610194302E-04  -0.4221253647E-04   0.1127136011E-03  -0.2954877553E-03   0.2191236638E+00  -0.4663845859E-03   0.6559718376E-01   0.6763866870E-02   0.0000000000E+00   0.0000000000E+00   0.1995844240E-02  -0.8588263885E-03   0.8793026931E-04   0.0000000000E+00   0.0000000000E+00   0.0000000000E+00   0.1952778248E+00
   0.1266337384E+00   0.2328751943E+00   0.3215730460E-04  -0.3172133343E-04   0.2251011322E-03  -0.2220493340E-03   0.2622935160E+00  -0.2161241130E-02   0.7803968247E-01   0.9978202069E-02   0.0000000000E+00   0.0000000000E+00   0.2395299836E-02  -0.1042612007E-02   0.1297166269E-03   0.0000000000E+00   0.0000000000E+00   0.0000000000E+00   0.2355420634E+00
   0.1168804990E+00   0.2497155139E+00   0.2672899411E-04  -0.3556076233E-04   0.1871029588E-03  -0.2489253363E-03   0.2589487285E+00  -0.6111823822E-03   0.7750126384E-01   0.4984551333E-02   0.0000000000E+00   0.0000000000E+00   0.2358817041E-02  -0.1015461801E-02   0.6479916733E-04   0.0000000000E+00   0.0000000000E+00   0.0000000000E+00   0.2306794921E+00
   0.1363721651E+00   0.2497414555E+00   0.3263188493E-04  -0.3231806522E-04   0.2284231945E-03  -0.2262264565E-03   0.2733943395E+00  -0.5090209880E-03   0.8186559555E-01   0.3623500436E-02   0.0000000000E+00   0.0000000000E+00   0.2489873671E-02  -0.1070870015E-02   0.4710550566E-04   0.0000000000E+00   0.0000000000E+00   0.0000000000E+00   0.2434178857E+00
   0.1363844642E+00   0.2160083304E+00   0.3725752590E-04  -0.2782107648E-04   0.2608026813E-03  -0.1947475354E-03   0.2637444511E+00  -0.6373169641E-02   0.7721138445E-01   0.1390632935E-01   0.0000000000E+00   0.0000000000E+00   0.2424929867E-02  -0.1086599203E-02   0.1807822815E-03   0.0000000000E+00   0.0000000000E+00   0.0000000000E+00   0.2406813713E+00
   0.1851234273E+00   0.2329152394E+00   0.5021115937E-04  -0.2324557095E-04   0.3514781156E-03  -0.1627189966E-03   0.2752807829E+00  -0.1753432645E-02   0.8205820509E-01   0.5922401653E-03   0.0000000000E+00   0.0000000000E+00   0.2511893512E-02  -0.1089551290E-02   0.7699122149E-05   0.0000000000E+00   0.0000000000E+00   0.0000000000E+00   0.2460757042E+00
   0.1753609997E+00   0.2497861075E+00   0.4512533631E-04  -0.2673656327E-04   0.3158773541E-03  -0.1871559429E-03   0.2878254528E+00  -0.1874413938E-03   0.8629140343E-01   0.8526492149E-03   0.0000000000E+00   0.0000000000E+00   0.2619942642E-02  -0.1124224983E-02   0.1108443979E-04   0.0000000000E+00   0.0000000000E+00   0.0000000000E+00   0.2559744213E+00
   0.2046205882E+00   0.2329343797E+00   0.5630814867E-04  -0.2125353871E-04   0.3941570407E-03  -0.1487747710E-03   0.2743774678E+00  -0.1243699394E-02   0.8194013053E-01  -0.1475484288E-02   0.0000000000E+00   0.0000000000E+00   0.2501685385E-02  -0.1081389789E-02  -0.1918129574E-04   0.0000000000E+00   0.0000000000E+00   0.0000000000E+00   0.2448777871E+00
   0.1948565244E+00   0.2498037558E+00   0.5150955272E-04  -0.2453052379E-04   0.3605668690E-03  -0.1717136666E-03   0.2886761930E+00   0.4511041473E-05   0.8660421120E-01  -0.1871357174E-03   0.0000000000E+00   0.0000000000E+00   0.2626935763E-02  -0.1125796102E-02  -0.2432764327E-05   0.0000000000E+00   0.0000000000E+00   0.0000000000E+00   0.2565772153E+00
   0.2241163665E+00   0.2329589103E+00   0.6236094008E-04  -0.1966609174E-04   0.4365265805E-03  -0.1376626422E-03   0.2719156876E+00  -0.7246485790E-03   0.8135731170E-01  -0.2772277699E-02   0.0000000000E+00   0.0000000000E+00   0.2477258886E-02  -0.1067065484E-02  -0.3603961009E-04   0.0000000000E+00   0.0000000000E+00   0.0000000000E+00   0.2423121892E+00
   0.2143518905E+00   0.2498182049E+00   0.5787581347E-04  -0.2272439270E-04   0.4051306943E-03  -0.1590707489E-03   0.2865911840E+00   0.1751609314E-03   0.8602990348E-01  -0.8876643656E-03   0.0000000000E+00   0.0000000000E+00   0.2607296647E-02  -0.1116111653E-02  -0.1153963675E-04   0.0000000000E+00   0.0000000000E+00   0.0000000000E+00   0.2545882260E+00
   0.2436257928E+00   0.2329797778E+00   0.6834822368E-04  -0.1843414761E-04   0.4784375657E-03  -0.1290390333E-03   0.2685415662E+00  -0.2780063484E-03   0.8047906795E-01  -0.3362206264E-02   0.0000000000E+00   0.0000000000E+00   0.2444812477E-02  -0.1049841966E-02  -0.4370868143E-04   0.0000000000E+00   0.0000000000E+00   0.0000000000E+00   0.2389819637E+00
   0.2338467092E+00   0.2498297007E+00   0.6417189818E-04  -0.2128741004E-04   0.4492032873E-03  -0.1490118703E-03   0.2826923633E+00   0.2997776344E-03   0.8489764229E-01  -0.1250551172E-02   0.0000000000E+00   0.0000000000E+00   0.2571331373E-02  -0.1099772240E-02  -0.1625716523E-04   0.0000000000E+00   0.0000000000E+00   0.0000000000E+00   0.2510230074E+00
   0.2632979967E+00   0.2329236787E+00   0.7430734189E-04  -0.1749115819E-04   0.5201513932E-03  -0.1224381073E-03   0.2648515579E+00   0.5467711738E-04   0.7947187049E-01  -0.3391642082E-02   0.0000000000E+00   0.0000000000E+00   0.2409935936E-02  -0.1032423514E-02  -0.4409134706E-04   0.0000000000E+00   0.0000000000E+00   0.0000000000E+00   0.2354376988E+00
   0.2533407449E+00   0.2498385878E+00   0.7036998968E-04  -0.2017652559E-04   0.4925899277E-03  -0.1412356792E-03   0.2779988039E+00   0.4057123447E-03   0.8352135487E-01  -0.1327913164E-02   0.0000000000E+00   0.0000000000E+00   0.2528206837E-02  -0.1080503353E-02  -0.1726287113E-04   0.0000000000E+00   0.0000000000E+00   0.0000000000E+00   0.2467658748E+00
   0.2832187756E+00   0.2327305481E+00   0.8026194488E-04  -0.1678485799E-04   0.5618336141E-03  -0.1174940059E-03   0.2613682376E+00   0.3199162668E-03   0.7850644616E-01  -0.2991471172E-02   0.0000000000E+00   0.0000000000E+00   0.2377203289E-02  -0.1016424889E-02  -0.3888912523E-04   0.0000000000E+00   0.0000000000E+00   0.0000000000E+00   0.2321113819E+00
   0.2728339113E+00   0.2498452298E+00   0.7646129132E-04  -0.1934627401E-04   0.5352290392E-03  -0.1354239181E-03   0.2731915769E+00   0.4837489346E-03   0.8210259776E-01  -0.1209266033E-02   0.0000000000E+00   0.0000000000E+00   0.2484156729E-02  -0.1061045035E-02  -0.1572045842E-04   0.0000000000E+00   0.0000000000E+00   0.0000000000E+00   0.2424311682E+00
   0.3036476971E+00   0.2322170479E+00   0.8629639206E-04  -0.1625101137E-04   0.6040747444E-03  -0.1137570796E-03   0.2579450611E+00   0.5422394117E-03   0.7754619016E-01  -0.2349831265E-02   0.0000000000E+00   0.0000000000E+00   0.2345185323E-02  -0.1001051360E-02  -0.3054780644E-04   0.0000000000E+00   0.0000000000E+00   0.0000000000E+00   0.2288671894E+00
   0.2923262631E+00   0.2498499669E+00   0.8245076167E-04  -0.1875414357E-04   0.5771553317E-03  -0.1312790050E-03   0.2689473602E+00   0.6436953175E-03   0.8087731665E-01  -0.9632033458E-03   0.0000000000E+00   0.0000000000E+00   0.2444910566E-02  -0.1043037077E-02  -0.1252164350E-04   0.0000000000E+00   0.0000000000E+00   0.0000000000E+00   0.2385321151E+00
   0.1656857064E+00   0.1645657717E+00   0.5264492073E-04  -0.1610441091E-04   0.3685144451E-03  -0.1127308764E-03   0.2478984403E+00  -0.2181347999E-01   0.6782548808E-01  -0.5814727231E-02   0.0000000000E+00   0.0000000000E+00   0.2340948378E-02  -0.1165306585E-02  -0.7559145401E-04   0.0000000000E+00   0.0000000000E+00   0.0000000000E+00   0.2380440689E+00
   0.1557450394E+00   0.1820872299E+00   0.4731992262E-04  -0.1998588413E-04   0.3312394584E-03  -0.1399011889E-03   0.2577172057E+00  -0.1797996937E-01   0.7192117089E-01   0.3849332656E-02   0.0000000000E+00   0.0000000000E+00   0.2415348452E-02  -0.1168714823E-02   0.5004132453E-04   0.0000000000E+00   0.0000000000E+00   0.0000000000E+00   0.2435843998E+00
   0.1456104613E+00   0.1646718597E+00   0.4663629242E-04  -0.1884354062E-04   0.3264540469E-03  -0.1319047844E-03   0.2574653158E+00  -0.2638626975E-01   0.6932371382E-01   0.1156787559E-02   0.0000000000E+00   0.0000000000E+00   0.2445840826E-02  -0.1244229786E-02   0.1503823827E-04   0.0000000000E+00   0.0000000000E+00   0.0000000000E+00   0.2500750306E+00
   0.2256745481E+00   0.0000000000E+00   0.8431926674E-04   0.0000000000E+00   0.5902348672E-03   0.0000000000E+00   0.1031866730E+00   0.2551926723E-01   0.3861178206E-01  -0.3457617664E-02   0.0000000000E+00   0.0000000000E+00   0.8394735818E-03  -0.1702026928E-03  -0.4494902963E-04   0.0000000000E+00   0.0000000000E+00   0.0000000000E+00   0.7191674006E-01
   0.1619853039E+00   0.7202260396E-01   0.6945749155E-04  -0.3959729420E-05   0.4862024409E-03  -0.2771810594E-04   0.1399051800E+00  -0.2778521779E-01   0.3363598866E-01  -0.5550071242E-01   0.0000000000E+00   0.0000000000E+00   0.1381499487E-02  -0.7984756839E-03  -0.7215092614E-03   0.0000000000E+00   0.0000000000E+00   0.0000000000E+00   0.1754388489E+00
   0.1836303232E+00   0.7142427014E-01   0.7319340108E-04  -0.3153219885E-05   0.5123538076E-03  -0.2207253919E-04   0.1405153068E+00  -0.9267084031E-02   0.3937446685E-01  -0.4562635054E-01   0.0000000000E+00   0.0000000000E+00   0.1314830920E-02  -0.6323401614E-03  -0.5931425571E-03   0.0000000000E+00   0.0000000000E+00   0.0000000000E+00   0.1540649395E+00
   0.1730930048E+00   0.9030026991E-01   0.6765671972E-04  -0.5340149371E-05   0.4735970381E-03  -0.3738104560E-04   0.1731380802E+00  -0.2201976824E-01   0.4533549358E-01  -0.4484998653E-01   0.0000000000E+00   0.0000000000E+00   0.1661433626E-02  -0.8756184037E-03  -0.5830498249E-03   0.0000000000E+00   0.0000000000E+00   0.0000000000E+00   0.1884935495E+00
   0.1742537102E-01   0.2037532165E+00   0.4587189689E-05  -0.4493656316E-04   0.3211032782E-04  -0.3145559421E-03   0.2404253172E+00   0.1884204151E-01   0.7778020760E-01   0.1005819075E-01   0.0000000000E+00   0.0000000000E+00   0.2114386424E-02  -0.7661961592E-03   0.1307564798E-03   0.0000000000E+00   0.0000000000E+00   0.0000000000E+00   0.1997973968E+00
   0.0000000000E+00   0.1933940278E+00   0.0000000000E+00  -0.4449576948E-04   0.0000000000E+00  -0.3114703864E-03   0.2529959708E+00   0.2633703533E-01   0.8379990184E-01   0.6098089387E-02   0.0000000000E+00   0.0000000000E+00   0.2199548897E-02  -0.7470172647E-03   0.7927516204E-04   0.0000000000E+00   0.0000000000E+00   0.0000000000E+00   0.2042631458E+00
   0.1687154246E-01   0.1841820554E+00   0.4818757143E-05  -0.4308944962E-04   0.3373130000E-04  -0.3016261473E-03   0.2660346172E+00   0.3069850662E-01   0.8901993713E-01   0.1137593297E-01   0.0000000000E+00   0.0000000000E+00   0.2301190840E-02  -0.7581785967E-03   0.1478871286E-03   0.0000000000E+00   0.0000000000E+00   0.0000000000E+00   0.2135335798E+00
   0.0000000000E+00   0.1746576895E+00   0.0000000000E+00  -0.4278843599E-04   0.0000000000E+00  -0.2995190519E-03   0.2797433594E+00   0.4194970106E-01   0.9650791814E-01   0.7311728159E-02   0.0000000000E+00   0.0000000000E+00   0.2382060736E-02  -0.7092568220E-03   0.9505246607E-04   0.0000000000E+00   0.0000000000E+00   0.0000000000E+00   0.2159576191E+00
   0.1694914914E-01   0.1649939467E+00   0.5289017049E-05  -0.4127929360E-04   0.3702311934E-04  -0.2889550552E-03   0.2944550447E+00   0.4346548406E-01   0.1013761586E+00   0.1159972846E-01   0.0000000000E+00   0.0000000000E+00   0.2510025519E-02  -0.7528387694E-03   0.1507964699E-03   0.0000000000E+00   0.0000000000E+00   0.0000000000E+00   0.2287988387E+00
   0.3387811049E-01   0.1746649285E+00   0.1014538663E-04  -0.4058906859E-04   0.7101770644E-04  -0.2841234801E-03   0.2803634033E+00   0.2920268311E-01   0.9286982592E-01   0.2399821850E-01   0.0000000000E+00   0.0000000000E+00   0.2437416506E-02  -0.8276728565E-03   0.3119768405E-03   0.0000000000E+00   0.0000000000E+00   0.0000000000E+00   0.2299616443E+00
   0.3467788792E-01   0.1549341748E+00   0.1151145197E-04  -0.3842177743E-04   0.8058016378E-04  -0.2689524420E-03   0.3099692130E+00   0.3904159248E-01   0.1047032416E+00   0.2149050055E-01   0.0000000000E+00   0.0000000000E+00   0.2668457627E-02  -0.8536014390E-03   0.2793765071E-03   0.0000000000E+00   0.0000000000E+00   0.0000000000E+00   0.2477954024E+00
   0.3380886629E-01   0.1939132993E+00   0.9337173269E-05  -0.4258333161E-04   0.6536021288E-04  -0.2980833212E-03   0.2554506538E+00   0.1746928601E-01   0.8187598194E-01   0.2180348302E-01   0.0000000000E+00   0.0000000000E+00   0.2256470734E-02  -0.8372870472E-03   0.2834452792E-03   0.0000000000E+00   0.0000000000E+00   0.0000000000E+00   0.2165155493E+00
   0.5399681153E-01   0.1447397164E+00   0.1916509064E-04  -0.3383695617E-04   0.1341556345E-03  -0.2368586932E-03   0.3180426241E+00   0.1882804590E-01   0.1010612010E+00   0.2242118054E-01   0.0000000000E+00   0.0000000000E+00   0.2820758500E-02  -0.1069031016E-02   0.2914753470E-03   0.0000000000E+00   0.0000000000E+00   0.0000000000E+00   0.2706602808E+00
   0.9731835690E-01   0.2158525125E+00   0.2568378723E-04  -0.3482231031E-04   0.1797865106E-03  -0.2437561722E-03   0.2527789399E+00  -0.3807862625E-02   0.7469132317E-01   0.2400536397E-01   0.0000000000E+00   0.0000000000E+00   0.2315139017E-02  -0.1020489415E-02   0.3120697317E-03   0.0000000000E+00   0.0000000000E+00   0.0000000000E+00   0.2313719956E+00
   0.1422922215E+00   0.0000000000E+00   0.7819443345E-04   0.0000000000E+00   0.5473610341E-03   0.0000000000E+00   0.2053103465E-01  -0.3259738476E-01  -0.3619905032E-02  -0.2121940636E-01   0.0000000000E+00   0.0000000000E+00   0.3139622159E-03  -0.3767072364E-03  -0.2758522827E-03   0.0000000000E+00   0.0000000000E+00   0.0000000000E+00   0.5473409867E-01
   0.1526738653E+00   0.1777971808E-01   0.7771078703E-04  -0.7156151622E-06   0.5439755092E-03  -0.5009306135E-05   0.4568217623E-01  -0.1852537169E-01   0.8147041362E-02  -0.1702578407E-01   0.0000000000E+00   0.0000000000E+00   0.4879567533E-03  -0.3467413697E-03  -0.2213351929E-03   0.0000000000E+00   0.0000000000E+00   0.0000000000E+00   0.6542963700E-01
   0.1631331965E+00   0.0000000000E+00   0.7915031555E-04   0.0000000000E+00   0.5540522089E-03   0.0000000000E+00   0.4513536087E-01  -0.7946829554E-02   0.1115655939E-01  -0.9041034094E-02   0.0000000000E+00   0.0000000000E+00   0.4417244191E-03  -0.2483440563E-03  -0.1175334432E-03   0.0000000000E+00   0.0000000000E+00   0.0000000000E+00   0.4887413192E-01
   0.3507999940E+00   0.1153492759E+00   0.1000000000E-03  -0.4417510903E-05   0.7000000000E-03  -0.3092257632E-04   0.1815715492E+00   0.2001275266E-01   0.6047529057E-01  -0.1193208783E-03   0.0000000000E+00   0.0000000000E+00   0.1574251363E-02  -0.5260129928E-03  -0.1551171418E-05   0.0000000000E+00   0.0000000000E+00   0.0000000000E+00   0.1456009993E+00
   0.3507999940E+00   0.1345690666E+00   0.1000000000E-03  -0.5790553006E-05   0.7000000000E-03  -0.4053387104E-04   0.1944937528E+00   0.1562196626E-01   0.6303471572E-01  -0.5066959368E-04   0.0000000000E+00   0.0000000000E+00   0.1708967482E-02  -0.6163657429E-03  -0.6587047179E-06   0.0000000000E+00   0.0000000000E+00   0.0000000000E+00   0.1605033591E+00
   0.3340328940E+00   0.1441772685E+00   0.9628025520E-04  -0.6585067313E-05   0.6739617864E-03  -0.4609547119E-04   0.2012496584E+00   0.1328552736E-01   0.6436055572E-01  -0.3554315176E-02   0.0000000000E+00   0.0000000000E+00   0.1779558335E-02  -0.6639753688E-03  -0.4620609729E-04   0.0000000000E+00   0.0000000000E+00   0.0000000000E+00   0.1684553813E+00
   0.1628569615E+00   0.3473278795E-01   0.7654294237E-04  -0.1238768559E-05   0.5358005966E-03  -0.8671379915E-05   0.7799090539E-01  -0.9217800367E-02   0.2063193151E-01  -0.3738181279E-01   0.0000000000E+00   0.0000000000E+00   0.7456666605E-03  -0.3880465144E-03  -0.4859635663E-03   0.0000000000E+00   0.0000000000E+00   0.0000000000E+00   0.1003752639E+00
   0.1836430475E+00   0.3536432103E-01   0.7847193212E-04  -0.1026483295E-05   0.5493035248E-03  -0.7185383066E-05   0.9071598822E-01   0.2972168068E-02   0.2810644689E-01  -0.3150392907E-01   0.0000000000E+00   0.0000000000E+00   0.8139240374E-03  -0.3267456246E-03  -0.4095510779E-03   0.0000000000E+00   0.0000000000E+00   0.0000000000E+00   0.9530833854E-01
   0.1453957401E+00   0.3343180178E-01   0.7524513134E-04  -0.1729952182E-05   0.5267159194E-03  -0.1210966527E-04   0.4833661763E-01  -0.3246109859E-01   0.4762655715E-02  -0.4375741643E-01   0.0000000000E+00   0.0000000000E+00   0.5664615050E-03  -0.4839088059E-03  -0.5688464135E-03   0.0000000000E+00   0.0000000000E+00   0.0000000000E+00   0.1016666344E+00
   0.2143972020E+00   0.2160471569E+00   0.6090037777E-04  -0.1817339284E-04   0.4263026444E-03  -0.1272137499E-03   0.2621472511E+00  -0.2350626099E-02   0.7793898749E-01  -0.4561726304E-02   0.0000000000E+00   0.0000000000E+00   0.2394707426E-02  -0.1043764977E-02  -0.5930244196E-04   0.0000000000E+00   0.0000000000E+00   0.0000000000E+00   0.2350039088E+00
   0.2896114859E+00   0.3564146262E-01   0.9143323809E-04  -0.8669348658E-06   0.6400326667E-03  -0.6068544061E-05   0.1345674655E+00   0.3288621135E-01   0.5023610305E-01  -0.8224696583E-02   0.0000000000E+00   0.0000000000E+00   0.1096307712E-02  -0.2255485920E-03  -0.1069210556E-03   0.0000000000E+00   0.0000000000E+00   0.0000000000E+00   0.9527243770E-01
   0.2993844236E+00   0.5044162627E-01   0.9238457033E-04  -0.1315979293E-05   0.6466919923E-03  -0.9211855054E-05   0.1420029671E+00   0.3238693703E-01   0.5231697124E-01  -0.8641355842E-02   0.0000000000E+00   0.0000000000E+00   0.1165917946E-02  -0.2590904448E-03  -0.1123376260E-03   0.0000000000E+00   0.0000000000E+00   0.0000000000E+00   0.1021718342E+00
   0.3156078406E+00   0.5753413654E-01   0.9462544989E-04  -0.1553832960E-05   0.6623781492E-03  -0.1087683072E-04   0.1481489031E+00   0.3233939578E-01   0.5414648966E-01  -0.6448677813E-02   0.0000000000E+00   0.0000000000E+00   0.1222031375E-02  -0.2834922204E-03  -0.8383281157E-04   0.0000000000E+00   0.0000000000E+00   0.0000000000E+00   0.1071669164E+00
   0.6718745727E-01   0.1966600730E+00   0.1872318336E-04  -0.3794374760E-04   0.1310622835E-03  -0.2656062332E-03   0.2581490315E+00   0.3194808971E-02   0.7840315214E-01   0.3110571752E-01   0.0000000000E+00   0.0000000000E+00   0.2336696432E-02  -0.9777084613E-03   0.4043743277E-03   0.0000000000E+00   0.0000000000E+00   0.0000000000E+00   0.2332494749E+00
   0.4901564178E-01   0.2011286077E+00   0.1324767214E-04  -0.4139290783E-04   0.9273370501E-04  -0.2897503548E-03   0.2501617831E+00   0.1037710666E-01   0.7816166693E-01   0.2831190160E-01   0.0000000000E+00   0.0000000000E+00   0.2236001510E-02  -0.8811992834E-03   0.3680547208E-03   0.0000000000E+00   0.0000000000E+00   0.0000000000E+00   0.2196340526E+00
   0.7756464954E-01   0.2153549487E+00   0.2012497981E-04  -0.3837616541E-04   0.1408748587E-03  -0.2686331579E-03   0.2457629438E+00  -0.4002599616E-03   0.7360880514E-01   0.2650479553E-01   0.0000000000E+00   0.0000000000E+00   0.2238003802E-02  -0.9621178463E-03   0.3445623419E-03   0.0000000000E+00   0.0000000000E+00   0.0000000000E+00   0.2234079060E+00
   0.8777139151E-01   0.1991338081E+00   0.2456620184E-04  -0.3444661583E-04   0.1719634129E-03  -0.2411263108E-03   0.2599129279E+00  -0.4703305560E-02   0.7656288670E-01   0.2923745546E-01   0.0000000000E+00   0.0000000000E+00   0.2383550535E-02  -0.1056460499E-02   0.3800869210E-03   0.0000000000E+00   0.0000000000E+00   0.0000000000E+00   0.2401986506E+00
   0.1070159670E+00   0.1992400919E+00   0.3033774819E-04  -0.3079464044E-04   0.2123642374E-03  -0.2155624831E-03   0.2631773776E+00  -0.8841386833E-02   0.7630079722E-01   0.2488257230E-01   0.0000000000E+00   0.0000000000E+00   0.2429395545E-02  -0.1106848393E-02   0.3234734399E-03   0.0000000000E+00   0.0000000000E+00   0.0000000000E+00   0.2448419999E+00
   0.1122936394E+00   0.1454065523E+00   0.3915204637E-04  -0.2136358926E-04   0.2740643246E-03  -0.1495451248E-03   0.2767834327E+00  -0.3350762079E-01   0.7298274356E-01   0.5483938329E-02   0.0000000000E+00   0.0000000000E+00   0.2649408958E-02  -0.1384374737E-02   0.7129119828E-04   0.0000000000E+00   0.0000000000E+00   0.0000000000E+00   0.2729901892E+00
   0.1043466093E+00   0.1663667880E+00   0.3333553163E-04  -0.2642512143E-04   0.2333487214E-03  -0.1849758500E-03   0.2765007555E+00  -0.2262261633E-01   0.7616344175E-01   0.1971079971E-01   0.0000000000E+00   0.0000000000E+00   0.2604385079E-02  -0.1284218755E-02   0.2562403962E-03   0.0000000000E+00   0.0000000000E+00   0.0000000000E+00   0.2662000334E+00
   0.9089967675E-01   0.1516124769E+00   0.3100939411E-04  -0.2679951012E-04   0.2170657587E-03  -0.1875965709E-03   0.2879424683E+00  -0.1966337187E-01   0.8048372894E-01   0.2055828699E-01   0.0000000000E+00   0.0000000000E+00   0.2696963612E-02  -0.1301912311E-02   0.2672577309E-03   0.0000000000E+00   0.0000000000E+00   0.0000000000E+00   0.2737339511E+00
   0.9527045973E-01   0.9617198140E-01   0.4662820323E-04  -0.1609898710E-04   0.3263974226E-03  -0.1126929097E-03   0.2460289690E+00  -0.4192788749E-01   0.6123032445E-01  -0.4445129621E-01   0.0000000000E+00   0.0000000000E+00   0.2402382379E-02  -0.1341056755E-02  -0.5778668507E-03   0.0000000000E+00   0.0000000000E+00   0.0000000000E+00   0.2628022409E+00
   0.1093611642E+00   0.7678300612E-01   0.5789377345E-04  -0.1014989721E-04   0.4052564141E-03  -0.7104928050E-04   0.1612761485E+00  -0.5669218891E-01   0.3137518788E-01  -0.6176276841E-01   0.0000000000E+00   0.0000000000E+00   0.1688712488E-02  -0.1144875898E-02  -0.8029159893E-03   0.0000000000E+00   0.0000000000E+00   0.0000000000E+00   0.2177418534E+00
   0.1948912000E+00   0.2160121085E+00   0.5504312632E-04  -0.1992243394E-04   0.3853018843E-03  -0.1394570376E-03   0.2645133665E+00  -0.3788082312E-02   0.7821758525E-01  -0.1652380747E-02   0.0000000000E+00   0.0000000000E+00   0.2421845156E-02  -0.1066073678E-02  -0.2148094970E-04   0.0000000000E+00   0.0000000000E+00   0.0000000000E+00   0.2381441831E+00
   0.2257338037E+00   0.3586250651E-01   0.8312258372E-04  -0.8957992124E-06   0.5818580861E-03  -0.6270594487E-05   0.1150427360E+00   0.2110672269E-01   0.4084483760E-01  -0.1981257981E-01   0.0000000000E+00   0.0000000000E+00   0.9645726789E-03  -0.2565954938E-03  -0.2575635375E-03   0.0000000000E+00   0.0000000000E+00   0.0000000000E+00   0.9224884000E-01
   0.2468750863E+00   0.3604966146E-01   0.8574054102E-04  -0.8822801871E-06   0.6001837871E-03  -0.6175961310E-05   0.1238834950E+00   0.2630191566E-01   0.4505562321E-01  -0.1508747416E-01   0.0000000000E+00   0.0000000000E+00   0.1024762334E-02  -0.2437981981E-03  -0.1961371641E-03   0.0000000000E+00   0.0000000000E+00   0.0000000000E+00   0.9331507264E-01
   0.2746445962E+00   0.1829574248E+00   0.8039339853E-04  -0.1111640452E-04   0.5627537897E-03  -0.7781483166E-04   0.2319072942E+00   0.2695635861E-02   0.7038087902E-01  -0.1082348270E-01   0.0000000000E+00   0.0000000000E+00   0.2099843397E-02  -0.8799081611E-03  -0.1407052751E-03   0.0000000000E+00   0.0000000000E+00   0.0000000000E+00   0.2048273703E+00
   0.2339345824E+00   0.2160840559E+00   0.6669405328E-04  -0.1681125956E-04   0.4668583729E-03  -0.1176788169E-03   0.2591790116E+00  -0.9864337895E-03   0.7745777333E-01  -0.6186842901E-02   0.0000000000E+00   0.0000000000E+00   0.2362376097E-02  -0.1019774693E-02  -0.8042895771E-04   0.0000000000E+00   0.0000000000E+00   0.0000000000E+00   0.2313874273E+00
   0.3156089378E+00   0.2131889208E+00   0.9020285210E-04  -0.1374952002E-04   0.6314199647E-03  -0.9624664015E-04   0.2471553493E+00   0.1951870759E-02   0.7473216601E-01  -0.3614685098E-02   0.0000000000E+00   0.0000000000E+00   0.2241501382E-02  -0.9461438382E-03  -0.4699090628E-04   0.0000000000E+00   0.0000000000E+00   0.0000000000E+00   0.2182106608E+00
   0.3507999940E+00   0.1922183138E+00   0.1000000000E-03  -0.1117277250E-04   0.7000000000E-03  -0.7820940748E-04   0.2328791977E+00   0.4348769697E-02   0.7116839021E-01  -0.3875074210E-04   0.0000000000E+00   0.0000000000E+00   0.2102240497E-02  -0.8686550666E-03  -0.5037596473E-06   0.0000000000E+00   0.0000000000E+00   0.0000000000E+00   0.2035272871E+00
   0.2936265029E+00   0.2157133414E+00   0.8393648815E-04  -0.1442007428E-04   0.5875554170E-03  -0.1009405200E-03   0.2497569003E+00   0.1016817888E-02   0.7523211545E-01  -0.5460129997E-02   0.0000000000E+00   0.0000000000E+00   0.2268822203E-02  -0.9647988683E-03  -0.7098168997E-04   0.0000000000E+00   0.0000000000E+00   0.0000000000E+00   0.2213727475E+00
   0.3352340278E+00   0.2177846115E+00   0.9562597456E-04  -0.1413768225E-04   0.6693818219E-03  -0.9896377577E-04   0.2488518239E+00   0.1295941017E-02   0.7504432948E-01  -0.1481641128E-02   0.0000000000E+00   0.0000000000E+00   0.2259497428E-02  -0.9587290500E-03  -0.1926133466E-04   0.0000000000E+00   0.0000000000E+00   0.0000000000E+00   0.2201665700E+00
   0.5161240554E-01   0.1653346061E+00   0.1626210523E-04  -0.3687736825E-04   0.1138347366E-03  -0.2581415778E-03   0.2908544769E+00   0.1875569384E-01   0.9288305121E-01   0.2983008109E-01   0.0000000000E+00   0.0000000000E+00   0.2573628534E-02  -0.9636556458E-03   0.3877910542E-03   0.0000000000E+00   0.0000000000E+00   0.0000000000E+00   0.2491458357E+00
   0.2479664563E+00   0.9578775239E-01   0.8133278368E-04  -0.3751839124E-05   0.5693294857E-03  -0.2626287387E-04   0.1699222296E+00   0.1290667450E-01   0.5484867122E-01  -0.2433976445E-01   0.0000000000E+00   0.0000000000E+00   0.1495956259E-02  -0.5452459574E-03  -0.3164169378E-03   0.0000000000E+00   0.0000000000E+00   0.0000000000E+00   0.1469682458E+00
   0.2653984235E+00   0.8643999491E-01   0.8522856238E-04  -0.2979561731E-05   0.5965999367E-03  -0.2085693212E-04   0.1596670527E+00   0.1759822355E-01   0.5317958289E-01  -0.2004554711E-01   0.0000000000E+00   0.0000000000E+00   0.1384337108E-02  -0.4625576714E-03  -0.2605921124E-03   0.0000000000E+00   0.0000000000E+00   0.0000000000E+00   0.1326578372E+00
   0.2652439181E+00   0.1059241402E+00   0.8375575922E-04  -0.4235230529E-05   0.5862903145E-03  -0.2964661370E-04   0.1759868346E+00   0.1328640386E-01   0.5678197153E-01  -0.1977782858E-01   0.0000000000E+00   0.0000000000E+00   0.1549663220E-02  -0.5654423797E-03  -0.2571117716E-03   0.0000000000E+00   0.0000000000E+00   0.0000000000E+00   0.1498580149E+00
   0.3507999940E+00   0.2114316967E+00   0.1000000000E-03  -0.1334590767E-04   0.7000000000E-03  -0.9342135366E-04   0.2429585477E+00   0.1679207445E-02   0.7339132656E-01   0.4039113159E-03   0.0000000000E+00   0.0000000000E+00   0.2204373875E-02  -0.9322575485E-03   0.5250847107E-05   0.0000000000E+00   0.0000000000E+00   0.0000000000E+00   0.2146114820E+00
   0.3012178824E+00   0.2007470024E+00   0.8661280102E-04  -0.1252394443E-04   0.6062896071E-03  -0.8766761098E-04   0.2414432484E+00   0.3124301567E-02   0.7337026500E-01  -0.6545524801E-02   0.0000000000E+00   0.0000000000E+00   0.2184948785E-02  -0.9131975246E-03  -0.8509182241E-04   0.0000000000E+00   0.0000000000E+00   0.0000000000E+00   0.2124149722E+00
   0.2965625088E+00   0.1829180488E+00   0.8611209591E-04  -0.1061989748E-04   0.6027846713E-03  -0.7433928237E-04   0.2301046735E+00   0.4981653900E-02   0.7052589822E-01  -0.8309085065E-02   0.0000000000E+00   0.0000000000E+00   0.2074524079E-02  -0.8520751761E-03  -0.1080181058E-03   0.0000000000E+00   0.0000000000E+00   0.0000000000E+00   0.2010698939E+00
   0.3001185867E+00   0.1250068939E+00   0.8958096474E-04  -0.5272015348E-05   0.6270667532E-03  -0.3690410744E-04   0.1887292232E+00   0.1494291270E-01   0.6110164076E-01  -0.1147724464E-01   0.0000000000E+00   0.0000000000E+00   0.1659158571E-02  -0.6000634648E-03  -0.1492041803E-03   0.0000000000E+00   0.0000000000E+00   0.0000000000E+00   0.1571815526E+00
   0.2804317140E+00   0.5577571421E-01   0.8942511934E-04  -0.1510935844E-05   0.6259758354E-03  -0.1057655091E-04   0.1415333720E+00   0.2846933137E-01   0.5100081102E-01  -0.1319483799E-01   0.0000000000E+00   0.0000000000E+00   0.1176923293E-02  -0.2929092354E-03  -0.1715328939E-03   0.0000000000E+00   0.0000000000E+00   0.0000000000E+00   0.1061725222E+00
   0.2989799615E+00   0.6736067485E-01   0.9177918794E-04  -0.1932743700E-05   0.6424543156E-03  -0.1352920590E-04   0.1500305389E+00   0.2758489604E-01   0.5328463050E-01  -0.1069010191E-01   0.0000000000E+00   0.0000000000E+00   0.1257696810E-02  -0.3340965479E-03  -0.1389713248E-03   0.0000000000E+00   0.0000000000E+00   0.0000000000E+00   0.1133440184E+00
   0.3169112093E+00   0.1536489630E+00   0.9218840939E-04  -0.7496504528E-05   0.6453188657E-03  -0.5247553169E-04   0.2083309549E+00   0.1050403028E-01   0.6565049554E-01  -0.6660743204E-02   0.0000000000E+00   0.0000000000E+00   0.1854845971E-02  -0.7169040484E-03  -0.8658966165E-04   0.0000000000E+00   0.0000000000E+00   0.0000000000E+00   0.1772003334E+00
   0.2242230824E+00   0.1991558662E+00   0.6535154740E-04  -0.1529060226E-04   0.4574608318E-03  -0.1070342158E-03   0.2501911664E+00  -0.3094095315E-02   0.7412912132E-01  -0.8171128170E-02   0.0000000000E+00   0.0000000000E+00   0.2288806586E-02  -0.1003901816E-02  -0.1062246662E-03   0.0000000000E+00   0.0000000000E+00   0.0000000000E+00   0.2252876792E+00
   0.2046714628E+00   0.1990865878E+00   0.5972634615E-04  -0.1677364474E-04   0.4180844231E-03  -0.1174155132E-03   0.2536105266E+00  -0.5680194582E-02   0.7437909960E-01  -0.5730094695E-02   0.0000000000E+00   0.0000000000E+00   0.2330008551E-02  -0.1040770824E-02  -0.7449123104E-04   0.0000000000E+00   0.0000000000E+00   0.0000000000E+00   0.2301654743E+00
   0.2536696031E+00   0.2161058468E+00   0.7246601828E-04  -0.1576940575E-04   0.5072621279E-03  -0.1103858402E-03   0.2559192225E+00   0.2495049996E-04   0.7678325189E-01  -0.6678453306E-02   0.0000000000E+00   0.0000000000E+00   0.2328767618E-02  -0.9978579181E-03  -0.8681989298E-04   0.0000000000E+00   0.0000000000E+00   0.0000000000E+00   0.2277271545E+00
   0.1168706734E+00   0.2159821493E+00   0.3140355172E-04  -0.3123346478E-04   0.2198248621E-03  -0.2186342535E-03   0.2594447506E+00  -0.5456582619E-02   0.7619645039E-01   0.1958445309E-01   0.0000000000E+00   0.0000000000E+00   0.2382227902E-02  -0.1061489429E-02   0.2545978901E-03   0.0000000000E+00   0.0000000000E+00   0.0000000000E+00   0.2373184626E+00
   0.1460934198E+00   0.1990860058E+00   0.4226234506E-04  -0.2388903121E-04   0.2958364154E-03  -0.1672232185E-03   0.2626591969E+00  -0.1219699190E-01   0.7513866149E-01   0.1085763335E-01   0.0000000000E+00   0.0000000000E+00   0.2437766960E-02  -0.1135363494E-02   0.1411492336E-03   0.0000000000E+00   0.0000000000E+00   0.0000000000E+00   0.2439527858E+00
   0.1359825629E+00   0.1821680050E+00   0.4127874233E-04  -0.2306162498E-04   0.2889511963E-03  -0.1614313748E-03   0.2637314124E+00  -0.1927713838E-01   0.7333628220E-01   0.1190359290E-01   0.0000000000E+00   0.0000000000E+00   0.2475136692E-02  -0.1203974468E-02   0.1547467077E-03   0.0000000000E+00   0.0000000000E+00   0.0000000000E+00   0.2507272956E+00
   0.2046705270E+00   0.3564006825E-01   0.8069088099E-04  -0.9308689699E-06   0.5648361669E-03  -0.6516082790E-05   0.1042562886E+00   0.1420343849E-01   0.3553791814E-01  -0.2516358574E-01   0.0000000000E+00   0.0000000000E+00   0.8933388164E-03  -0.2773482354E-03  -0.3271266146E-03   0.0000000000E+00   0.0000000000E+00   0.0000000000E+00   0.9222783473E-01
   0.1753767012E+00   0.1820625772E+00   0.5316027313E-04  -0.1744785510E-04   0.3721219119E-03  -0.1221349857E-03   0.2520590205E+00  -0.1473197187E-01   0.7119811458E-01  -0.2849887149E-02   0.0000000000E+00   0.0000000000E+00   0.2351191776E-02  -0.1117091124E-02  -0.3704853294E-04   0.0000000000E+00   0.0000000000E+00   0.0000000000E+00   0.2358982815E+00
   0.1656282208E+00   0.1990577371E+00   0.4817684922E-04  -0.2104111738E-04   0.3372379446E-03  -0.1472878217E-03   0.2602628617E+00  -0.1083934208E-01   0.7482705589E-01   0.3930172332E-02   0.0000000000E+00   0.0000000000E+00   0.2410665476E-02  -0.1113663174E-02   0.5109224032E-04   0.0000000000E+00   0.0000000000E+00   0.0000000000E+00   0.2400963353E+00
   0.1851496210E+00   0.1990576461E+00   0.5400312350E-04  -0.1867586586E-04   0.3780218645E-03  -0.1307310610E-03   0.2571653589E+00  -0.8384519092E-02   0.7463425193E-01  -0.1712119952E-02   0.0000000000E+00   0.0000000000E+00   0.2372904390E-02  -0.1079244023E-02  -0.2225755937E-04   0.0000000000E+00   0.0000000000E+00   0.0000000000E+00   0.2352930449E+00
   0.1941387400E+00   0.5327891153E-01   0.7752574879E-04  -0.1763496775E-05   0.5426802415E-03  -0.1234447743E-04   0.1176639723E+00   0.3596793142E-02   0.3637822965E-01  -0.3667551595E-01   0.0000000000E+00   0.0000000000E+00   0.1056714655E-02  -0.4261586746E-03  -0.4767817074E-03   0.0000000000E+00   0.0000000000E+00   0.0000000000E+00   0.1201133270E+00
   0.2151299334E+00   0.5362232404E-01   0.8029392365E-04  -0.1614908091E-05   0.5620574656E-03  -0.1130435663E-04   0.1249633772E+00   0.1262241291E-01   0.4127573702E-01  -0.2960182121E-01   0.0000000000E+00   0.0000000000E+00   0.1087939322E-02  -0.3724932135E-03  -0.3848236757E-03   0.0000000000E+00   0.0000000000E+00   0.0000000000E+00   0.1134786952E+00
   0.2439522758E+00   0.1992313613E+00   0.7092973118E-04  -0.1415733287E-04   0.4965081183E-03  -0.9910133009E-04   0.2469348747E+00  -0.7716444471E-03   0.7384896907E-01  -0.9226720235E-02   0.0000000000E+00   0.0000000000E+00   0.2250116773E-02  -0.9700679757E-03  -0.1199473630E-03   0.0000000000E+00   0.0000000000E+00   0.0000000000E+00   0.2206736644E+00
   0.5034988981E-01   0.1846110011E+00   0.1457176330E-04  -0.3934548866E-04   0.1020023431E-03  -0.2754184206E-03   0.2675469437E+00   0.1402815388E-01   0.8447252928E-01   0.3011977671E-01   0.0000000000E+00   0.0000000000E+00   0.2379967388E-02  -0.9157768802E-03   0.3915570973E-03   0.0000000000E+00   0.0000000000E+00   0.0000000000E+00   0.2326862298E+00
   0.3163776972E+00   0.1729074177E+00   0.9149289683E-04  -0.9327413347E-05   0.6404502778E-03  -0.6529189343E-04   0.2219187671E+00   0.7110132086E-02   0.6870866975E-01  -0.5924572158E-02   0.0000000000E+00   0.0000000000E+00   0.1991731265E-02  -0.8007809897E-03  -0.7701943805E-04   0.0000000000E+00   0.0000000000E+00   0.0000000000E+00   0.1918703162E+00
   0.2990635878E+00   0.1762728581E-01   0.9301610573E-04  -0.4018609195E-06   0.6511127401E-03  -0.2813026437E-05   0.1314335021E+00   0.3544990440E-01   0.5006502195E-01  -0.2918547630E-02   0.0000000000E+00   0.0000000000E+00   0.1057790242E-02  -0.1899965281E-03  -0.3794111919E-04   0.0000000000E+00   0.0000000000E+00   0.0000000000E+00   0.8970826434E-01
   0.3090887659E+00   0.0000000000E+00   0.9442861150E-04   0.0000000000E+00   0.6610002805E-03   0.0000000000E+00   0.1322939780E+00   0.3694001062E-01   0.5077019657E-01  -0.9028939555E-03   0.0000000000E+00   0.0000000000E+00   0.1059809158E-02  -0.1797924174E-03  -0.1173762142E-04   0.0000000000E+00   0.0000000000E+00   0.0000000000E+00   0.8925007032E-01
   0.2666586954E+00   0.6954509527E-01   0.8657229915E-04  -0.2117191741E-05   0.6060060941E-03  -0.1482034219E-04   0.1482346014E+00   0.2392625460E-01   0.5164825681E-01  -0.1843740536E-01   0.0000000000E+00   0.0000000000E+00   0.1255622480E-02  -0.3603860287E-03  -0.2396862697E-03   0.0000000000E+00   0.0000000000E+00   0.0000000000E+00   0.1173607461E+00
   0.2474550173E+00   0.7418050647E-01   0.8319341711E-04  -0.2437228834E-05   0.5823539198E-03  -0.1706060184E-04   0.1491993428E+00   0.1764751024E-01   0.5005405591E-01  -0.2391310826E-01   0.0000000000E+00   0.0000000000E+00   0.1288888729E-02  -0.4212850937E-03  -0.3108704074E-03   0.0000000000E+00   0.0000000000E+00   0.0000000000E+00   0.1257458063E+00
   0.1727118709E+00   0.5292895147E-01   0.7479161473E-04  -0.2088391227E-05   0.5235413031E-03  -0.1461873859E-04   0.1077656063E+00  -0.1030636031E-01   0.2923777380E-01  -0.4506243448E-01   0.0000000000E+00   0.0000000000E+00   0.1020861822E-02  -0.5140737433E-03  -0.5858116482E-03   0.0000000000E+00   0.0000000000E+00   0.0000000000E+00   0.1304991927E+00
   0.2330363127E+00   0.8723243073E-01   0.7948320817E-04  -0.3383808425E-05   0.5563824572E-03  -0.2368665898E-04   0.1585632606E+00   0.9021823105E-02   0.5027552512E-01  -0.2929483688E-01   0.0000000000E+00   0.0000000000E+00   0.1407740562E-02  -0.5362981262E-03  -0.3808328794E-03   0.0000000000E+00   0.0000000000E+00   0.0000000000E+00   0.1430320511E+00
   0.2153405656E+00   0.8960692333E-01   0.7601407209E-04  -0.3853196070E-05   0.5320985046E-03  -0.2697237249E-04   0.1633406951E+00   0.9187318900E-03   0.4927782808E-01  -0.3466548188E-01   0.0000000000E+00   0.0000000000E+00   0.1482817271E-02  -0.6286682505E-03  -0.4506512645E-03   0.0000000000E+00   0.0000000000E+00   0.0000000000E+00   0.1563441454E+00
   0.2252431668E+00   0.7171553550E-01   0.7988335576E-04  -0.2500375409E-05   0.5591834903E-03  -0.1750262786E-04   0.1449305212E+00   0.1102983823E-01   0.4678810784E-01  -0.3047272489E-01   0.0000000000E+00   0.0000000000E+00   0.1275851374E-02  -0.4648575048E-03  -0.3961454235E-03   0.0000000000E+00   0.0000000000E+00   0.0000000000E+00   0.1311978920E+00
   0.2363415539E+00   0.5425643297E-01   0.8316748699E-04  -0.1554691318E-05   0.5821724089E-03  -0.1088283923E-04   0.1318290008E+00   0.1934480292E-01   0.4535214112E-01  -0.2312107936E-01   0.0000000000E+00   0.0000000000E+00   0.1124199176E-02  -0.3380953967E-03  -0.3005740317E-03   0.0000000000E+00   0.0000000000E+00   0.0000000000E+00   0.1096204582E+00
   0.7494537754E-01   0.1104626322E+00   0.3476655517E-04  -0.2359359881E-04   0.2433658862E-03  -0.1651551917E-03   0.3084707784E+00  -0.1356109185E-01   0.8847290598E-01  -0.2391340438E-01   0.0000000000E+00   0.0000000000E+00   0.2859972342E-02  -0.1326441972E-02  -0.3108742569E-03   0.0000000000E+00   0.0000000000E+00   0.0000000000E+00   0.2850593801E+00
   0.1265373432E+00   0.1991428079E+00   0.3629240136E-04  -0.2718226231E-04   0.2540468096E-03  -0.1902758362E-03   0.2638065274E+00  -0.1172547249E-01   0.7562431647E-01   0.1827320696E-01   0.0000000000E+00   0.0000000000E+00   0.2446368742E-02  -0.1135547256E-02   0.2375516905E-03   0.0000000000E+00   0.0000000000E+00   0.0000000000E+00   0.2459197299E+00
   0.1161140460E+00   0.1825276678E+00   0.3504800033E-04  -0.2665739471E-04   0.2453360023E-03  -0.1866017630E-03   0.2688786887E+00  -0.1718643228E-01   0.7550767691E-01   0.2059251836E-01   0.0000000000E+00   0.0000000000E+00   0.2513823153E-02  -0.1205023419E-02   0.2677027387E-03   0.0000000000E+00   0.0000000000E+00   0.0000000000E+00   0.2552660055E+00
   0.1492522547E+00   0.5213163772E-01   0.7196933986E-04  -0.2760472441E-05   0.5037853790E-03  -0.1932330708E-04   0.1002083779E+00  -0.2747739341E-01   0.2181929535E-01  -0.5179641014E-01   0.0000000000E+00   0.0000000000E+00   0.1019058073E-02  -0.6408569539E-03  -0.6733533318E-03   0.0000000000E+00   0.0000000000E+00   0.0000000000E+00   0.1435187395E+00
   0.7079448088E-01   0.1570022832E+00   0.2340075986E-04  -0.3200609809E-04   0.1638053190E-03  -0.2240426866E-03   0.2988232184E+00  -0.8489104314E-03   0.8939229238E-01   0.2828886486E-01   0.0000000000E+00   0.0000000000E+00   0.2722602038E-02  -0.1173135637E-02   0.3677552431E-03   0.0000000000E+00   0.0000000000E+00   0.0000000000E+00   0.2704683301E+00
   0.8519371983E-01   0.1700124442E+00   0.2666704170E-04  -0.3090309479E-04   0.1866692919E-03  -0.2163216635E-03   0.2813837009E+00  -0.1041667384E-01   0.8129010813E-01   0.2812889217E-01   0.0000000000E+00   0.0000000000E+00   0.2601216706E-02  -0.1192188166E-02   0.3656755982E-03   0.0000000000E+00   0.0000000000E+00   0.0000000000E+00   0.2630902049E+00
   0.8080148104E-01   0.1850837724E+00   0.2376287966E-04  -0.3390807866E-04   0.1663401576E-03  -0.2373565506E-03   0.2686079910E+00  -0.3264649026E-02   0.7960300258E-01   0.3188751868E-01   0.0000000000E+00   0.0000000000E+00   0.2457064849E-02  -0.1077279471E-02   0.4145377429E-03   0.0000000000E+00   0.0000000000E+00   0.0000000000E+00   0.2475790007E+00
   0.6762474933E-01   0.1764185443E+00   0.2043247854E-04  -0.3530071751E-04   0.1430273498E-03  -0.2471050225E-03   0.2773797279E+00   0.3994857375E-02   0.8441237558E-01   0.3280631982E-01   0.0000000000E+00   0.0000000000E+00   0.2508575580E-02  -0.1045427737E-02   0.4264821577E-03   0.0000000000E+00   0.0000000000E+00   0.0000000000E+00   0.2499218450E+00
   0.9683110662E-01   0.1836208594E+00   0.2887671452E-04  -0.3055244630E-04   0.2021370016E-03  -0.2138671241E-03   0.2709165133E+00  -0.1086227717E-01   0.7801627085E-01   0.2804449700E-01   0.0000000000E+00   0.0000000000E+00   0.2507703152E-02  -0.1155421124E-02   0.3645784610E-03   0.0000000000E+00   0.0000000000E+00   0.0000000000E+00   0.2541263512E+00
   0.2995046722E+00   0.1626832852E+00   0.8774239678E-04  -0.8526350248E-05   0.6141967774E-03  -0.5968445174E-04   0.2147836581E+00   0.7149962761E-02   0.6658008625E-01  -0.9610602548E-02   0.0000000000E+00   0.0000000000E+00   0.1926646434E-02  -0.7725916053E-03  -0.1249378331E-03   0.0000000000E+00   0.0000000000E+00   0.0000000000E+00   0.1859602363E+00
   0.2838002364E+00   0.1691842277E+00   0.8356104818E-04  -0.9441165863E-05   0.5849273373E-03  -0.6608816104E-04   0.2220402762E+00   0.5172130098E-02   0.6816372189E-01  -0.1100531883E-01   0.0000000000E+00   0.0000000000E+00   0.2000395206E-02  -0.8188906933E-03  -0.1430691447E-03   0.0000000000E+00   0.0000000000E+00   0.0000000000E+00   0.1941664214E+00
   0.2830018134E+00   0.1531378411E+00   0.8430741951E-04  -0.7864868203E-05   0.5901519366E-03  -0.5505407742E-04   0.2113857734E+00   0.7794648727E-02   0.6575412663E-01  -0.1294519806E-01   0.0000000000E+00   0.0000000000E+00   0.1893211408E-02  -0.7534732128E-03  -0.1682875748E-03   0.0000000000E+00   0.0000000000E+00   0.0000000000E+00   0.1830734995E+00
   0.2045926827E+00   0.7155039055E-01   0.7658920632E-04  -0.2722394025E-05   0.5361244442E-03  -0.1905675817E-04   0.1436080055E+00   0.2467301027E-02   0.4382259195E-01  -0.3782937089E-01   0.0000000000E+00   0.0000000000E+00   0.1297210376E-02  -0.5376187820E-03  -0.4917818216E-03   0.0000000000E+00   0.0000000000E+00   0.0000000000E+00   0.1417607323E+00
   0.2999768798E+00   0.1439511437E+00   0.8869097262E-04  -0.6802914340E-05   0.6208368084E-03  -0.4762040038E-04   0.2022856952E+00   0.1084354811E-01   0.6393877300E-01  -0.1066098223E-01   0.0000000000E+00   0.0000000000E+00   0.1798509989E-02  -0.6902379236E-03  -0.1385927689E-03   0.0000000000E+00   0.0000000000E+00   0.0000000000E+00   0.1721834360E+00
   0.2823282592E+00   0.7698702481E-01   0.8867076971E-04  -0.2414398213E-05   0.6206953880E-03  -0.1690078749E-04   0.1567678735E+00   0.2490712245E-01   0.5450249880E-01  -0.1508861732E-01   0.0000000000E+00   0.0000000000E+00   0.1329449872E-02  -0.3847398925E-03  -0.1961520252E-03   0.0000000000E+00   0.0000000000E+00   0.0000000000E+00   0.1226444601E+00
   0.1286210100E+00   0.8313851625E-01   0.5986700584E-04  -0.8121355960E-05   0.4190690409E-03  -0.5684949172E-04   0.1816601894E+00  -0.4994544600E-01   0.3951442302E-01  -0.5656685321E-01   0.0000000000E+00   0.0000000000E+00   0.1847894963E-02  -0.1162978297E-02  -0.7353690918E-03   0.0000000000E+00   0.0000000000E+00   0.0000000000E+00   0.2243710629E+00
   0.1287625781E+00   0.1030401435E+00   0.5403788878E-04  -0.1115918132E-04   0.3782652215E-03  -0.7811426925E-04   0.2198572266E+00  -0.4981736243E-01   0.5101195924E-01  -0.4215141672E-01   0.0000000000E+00   0.0000000000E+00   0.2194988475E-02  -0.1310781182E-02  -0.5479684173E-03   0.0000000000E+00   0.0000000000E+00   0.0000000000E+00   0.2471315328E+00
   0.1147698001E+00   0.9379260452E-01   0.5299026334E-04  -0.1183777201E-04   0.3709318434E-03  -0.8286440406E-04   0.2186022442E+00  -0.4769339075E-01   0.5127265602E-01  -0.4881748484E-01   0.0000000000E+00   0.0000000000E+00   0.2175284646E-02  -0.1286558608E-02  -0.6346273029E-03   0.0000000000E+00   0.0000000000E+00   0.0000000000E+00   0.2489087790E+00
   0.1949401772E+00   0.1821005165E+00   0.5881276988E-04  -0.1542118773E-04   0.4116893891E-03  -0.1079483141E-03   0.2465608941E+00  -0.1033332348E-01   0.7086827119E-01  -0.7750807838E-02   0.0000000000E+00   0.0000000000E+00   0.2284004098E-02  -0.1055620731E-02  -0.1007605019E-03   0.0000000000E+00   0.0000000000E+00   0.0000000000E+00   0.2278103320E+00
   0.2542885624E+00   0.1823492753E+00   0.7508055518E-04  -0.1171471631E-04   0.5255638863E-03  -0.8200301416E-04   0.2342999743E+00   0.8634344041E-03   0.7054902260E-01  -0.1165499311E-01   0.0000000000E+00   0.0000000000E+00   0.2128762372E-02  -0.9059126466E-03  -0.1515149104E-03   0.0000000000E+00   0.0000000000E+00   0.0000000000E+00   0.2085248456E+00
   0.2341447242E+00   0.1823756178E+00   0.6966939632E-04  -0.1264078109E-04   0.4876857742E-03  -0.8848546761E-04   0.2380063425E+00  -0.2474703599E-02   0.7065949167E-01  -0.1185366785E-01   0.0000000000E+00   0.0000000000E+00   0.2175509061E-02  -0.9507445385E-03  -0.1540976820E-03   0.0000000000E+00   0.0000000000E+00   0.0000000000E+00   0.2144955807E+00
   0.2518787473E+00   0.1519385863E+00   0.7697678851E-04  -0.8531081945E-05   0.5388375196E-03  -0.5971757362E-04   0.2150985532E+00   0.3254739103E-02   0.6550598769E-01  -0.1761134876E-01   0.0000000000E+00   0.0000000000E+00   0.1944703352E-02  -0.8092662316E-03  -0.2289475339E-03   0.0000000000E+00   0.0000000000E+00   0.0000000000E+00   0.1910246289E+00
   0.2350450188E+00   0.1493735013E+00   0.7312972711E-04  -0.8853209451E-05   0.5119080898E-03  -0.6197246615E-04   0.2144487026E+00  -0.2309597255E-02   0.6364173161E-01  -0.1980041091E-01   0.0000000000E+00   0.0000000000E+00   0.1960490623E-02  -0.8573672752E-03  -0.2574053419E-03   0.0000000000E+00   0.0000000000E+00   0.0000000000E+00   0.1955009135E+00
   0.2486584429E+00   0.1359318002E+00   0.7769774264E-04  -0.7046978892E-05   0.5438841985E-03  -0.4932885224E-04   0.2015978979E+00   0.3594819266E-02   0.6155781514E-01  -0.2067890188E-01   0.0000000000E+00   0.0000000000E+00   0.1820521075E-02  -0.7535189463E-03  -0.2688257245E-03   0.0000000000E+00   0.0000000000E+00   0.0000000000E+00   0.1799132364E+00
   0.7656071473E-01   0.1345520184E+00   0.2887862848E-04  -0.2722982892E-04   0.2021503993E-03  -0.1906088024E-03   0.3075886912E+00  -0.1224998621E-01   0.8860161149E-01   0.9455423729E-02   0.0000000000E+00   0.0000000000E+00   0.2846832036E-02  -0.1311070770E-02   0.1229205085E-03   0.0000000000E+00   0.0000000000E+00   0.0000000000E+00   0.2842529302E+00
   0.2145143884E+00   0.1822217025E+00   0.6430017819E-04  -0.1384230638E-04   0.4501012473E-03  -0.9689614463E-04   0.2417476782E+00  -0.6108460292E-02   0.7069176537E-01  -0.1049893641E-01   0.0000000000E+00   0.0000000000E+00   0.2223726867E-02  -0.9984029337E-03  -0.1364861733E-03   0.0000000000E+00   0.0000000000E+00   0.0000000000E+00   0.2204884375E+00
   0.2576789474E+00   0.5434016111E-01   0.8620592160E-04  -0.1502723491E-05   0.6034414512E-03  -0.1051906443E-04   0.1370041767E+00   0.2484157194E-01   0.4855372459E-01  -0.1823896878E-01   0.0000000000E+00   0.0000000000E+00   0.1149855878E-02  -0.3082579845E-03  -0.2371065941E-03   0.0000000000E+00   0.0000000000E+00   0.0000000000E+00   0.1072096680E+00
   0.2826776596E+00   0.9622407656E-01   0.8767582844E-04  -0.3452467152E-05   0.6137307991E-03  -0.2416727007E-04   0.1687205536E+00   0.1939674661E-01   0.5643519006E-01  -0.1585134328E-01   0.0000000000E+00   0.0000000000E+00   0.1459709726E-02  -0.4814997649E-03  -0.2060674626E-03   0.0000000000E+00   0.0000000000E+00   0.0000000000E+00   0.1374436245E+00
   0.1430208840E+00   0.7223964498E-01   0.6598425080E-04  -0.5217252584E-05   0.4618897556E-03  -0.3652076809E-04   0.1423245845E+00  -0.4039123155E-01   0.3058000590E-01  -0.5718611089E-01   0.0000000000E+00   0.0000000000E+00   0.1452679522E-02  -0.9226260868E-03  -0.7434194415E-03   0.0000000000E+00   0.0000000000E+00   0.0000000000E+00   0.1875472128E+00
   0.1250147964E+00   0.1648223810E+00   0.4019954422E-04  -0.2225162219E-04   0.2813968095E-03  -0.1557613554E-03   0.2671484365E+00  -0.2724114697E-01   0.7197218685E-01   0.1076813898E-01   0.0000000000E+00   0.0000000000E+00   0.2537291245E-02  -0.1289773340E-02   0.1399858067E-03   0.0000000000E+00   0.0000000000E+00   0.0000000000E+00   0.2600139003E+00
   0.2661820801E+00   0.1442044200E+00   0.8099339070E-04  -0.7385750085E-05   0.5669537349E-03  -0.5170025059E-04   0.2049208152E+00   0.5923308828E-02   0.6325323720E-01  -0.1652738341E-01   0.0000000000E+00   0.0000000000E+00   0.1841678514E-02  -0.7452890689E-03  -0.2148559844E-03   0.0000000000E+00   0.0000000000E+00   0.0000000000E+00   0.1797200365E+00
   0.2829528600E+00   0.1345405381E+00   0.8542649807E-04  -0.6212490076E-05   0.5979854865E-03  -0.4348743053E-04   0.1967610525E+00   0.1092658081E-01   0.6230628998E-01  -0.1448189596E-01   0.0000000000E+00   0.0000000000E+00   0.1747911912E-02  -0.6679362192E-03  -0.1882646475E-03   0.0000000000E+00   0.0000000000E+00   0.0000000000E+00   0.1680987624E+00
   0.2828135536E+00   0.1155049884E+00   0.8656145024E-04  -0.4730069929E-05   0.6059301517E-03  -0.3311048950E-04   0.1825622943E+00   0.1477982418E-01   0.5920263555E-01  -0.1549901949E-01   0.0000000000E+00   0.0000000000E+00   0.1603675564E-02  -0.5774965478E-03  -0.2014872533E-03   0.0000000000E+00   0.0000000000E+00   0.0000000000E+00   0.1529400548E+00
   0.2245549459E+00   0.1655493678E+00   0.6877135983E-04  -0.1118139800E-04   0.4813995188E-03  -0.7826978602E-04   0.2279121606E+00  -0.5128174283E-02   0.6683519591E-01  -0.1530544972E-01   0.0000000000E+00   0.0000000000E+00   0.2094000541E-02  -0.9355238125E-03  -0.1989708464E-03   0.0000000000E+00   0.0000000000E+00   0.0000000000E+00   0.2083588208E+00
   0.2441019203E+00   0.1659419710E+00   0.7378603568E-04  -0.1028712287E-04   0.5165022498E-03  -0.7200986011E-04   0.2246538078E+00  -0.1053291360E-02   0.6708015494E-01  -0.1529150752E-01   0.0000000000E+00   0.0000000000E+00   0.2048457487E-02  -0.8857348019E-03  -0.1987895977E-03   0.0000000000E+00   0.0000000000E+00   0.0000000000E+00   0.2022409275E+00
   0.1826505992E+00   0.1088345460E+00   0.6630689825E-04  -0.6921998310E-05   0.4641482878E-03  -0.4845398817E-04   0.1934647197E+00  -0.2150579892E-01   0.5158767623E-01  -0.3652465030E-01   0.0000000000E+00   0.0000000000E+00   0.1844401565E-02  -0.9502151770E-03  -0.4748204539E-03   0.0000000000E+00   0.0000000000E+00   0.0000000000E+00   0.1995364878E+00
   0.2061932959E+00   0.1120050021E+00   0.7106148492E-04  -0.6119867277E-05   0.4974303944E-03  -0.4283907094E-04   0.1888508683E+00  -0.8285511289E-02   0.5416960711E-01  -0.3210391833E-01   0.0000000000E+00   0.0000000000E+00   0.1750856396E-02  -0.8119165392E-03  -0.4173509382E-03   0.0000000000E+00   0.0000000000E+00   0.0000000000E+00   0.1831449784E+00
   0.1893456533E+00   0.1288202360E+00   0.6455128247E-04  -0.8924502956E-05   0.4518589773E-03  -0.6247152069E-04   0.2103058446E+00  -0.1873345126E-01   0.5747171800E-01  -0.2829103172E-01   0.0000000000E+00   0.0000000000E+00   0.1986843646E-02  -0.9906672004E-03  -0.3677834124E-03   0.0000000000E+00   0.0000000000E+00   0.0000000000E+00   0.2078695271E+00
   0.2654065480E+00   0.1642390004E+00   0.7930387870E-04  -0.9367702802E-05   0.5551271509E-03  -0.6557391961E-04   0.2207566952E+00   0.3543000053E-02   0.6728990858E-01  -0.1375885814E-01   0.0000000000E+00   0.0000000000E+00   0.1995068226E-02  -0.8287098108E-03  -0.1788651559E-03   0.0000000000E+00   0.0000000000E+00   0.0000000000E+00   0.1948555157E+00
   0.1942354406E+00   0.9044224158E-01   0.7186232587E-04  -0.4468315220E-05   0.5030362811E-03  -0.3127820654E-04   0.1684411438E+00  -0.8515049188E-02   0.4797782839E-01  -0.3966062043E-01   0.0000000000E+00   0.0000000000E+00   0.1566023101E-02  -0.7344074085E-03  -0.5155880656E-03   0.0000000000E+00   0.0000000000E+00   0.0000000000E+00   0.1709689698E+00
   0.1353727567E+00   0.1460394910E+00   0.4642809209E-04  -0.1740574678E-04   0.3249966446E-03  -0.1218402274E-03   0.2583003606E+00  -0.3500565597E-01   0.6698841138E-01  -0.5272648474E-02   0.0000000000E+00   0.0000000000E+00   0.2487055339E-02  -0.1325922875E-02  -0.6854443016E-04   0.0000000000E+00   0.0000000000E+00   0.0000000000E+00   0.2579196080E+00
   0.1854714012E+00   0.1647354719E+00   0.5829152026E-04  -0.1398214185E-04   0.4080406418E-03  -0.9787499296E-04   0.2402510161E+00  -0.1653114151E-01   0.6711596239E-01  -0.1122257967E-01   0.0000000000E+00   0.0000000000E+00   0.2250755699E-02  -0.1087412351E-02  -0.1458935357E-03   0.0000000000E+00   0.0000000000E+00   0.0000000000E+00   0.2276038757E+00
   0.1963493248E+00   0.1477218521E+00   0.6354247705E-04  -0.1083186603E-04   0.4447973393E-03  -0.7582306222E-04   0.2251621381E+00  -0.1503613856E-01   0.6303779986E-01  -0.2022018235E-01   0.0000000000E+00   0.0000000000E+00   0.2107616397E-02  -0.1014961199E-02  -0.2628623705E-03   0.0000000000E+00   0.0000000000E+00   0.0000000000E+00   0.2150649692E+00
   0.1766134098E+00   0.1462395894E+00   0.5845409821E-04  -0.1227719457E-04   0.4091786875E-03  -0.8594036197E-04   0.2315693581E+00  -0.2389525710E-01   0.6230223029E-01  -0.1805109638E-01   0.0000000000E+00   0.0000000000E+00   0.2200472661E-02  -0.1120567336E-02  -0.2346642529E-03   0.0000000000E+00   0.0000000000E+00   0.0000000000E+00   0.2271901394E+00
   0.9367794121E-01   0.1192741693E+00   0.3862141379E-04  -0.2061383980E-04   0.2703498966E-03  -0.1442968786E-03   0.2831716855E+00  -0.3857798060E-01   0.7337811147E-01  -0.1594246517E-01   0.0000000000E+00   0.0000000000E+00   0.2727316462E-02  -0.1455429197E-02  -0.2072520472E-03   0.0000000000E+00   0.0000000000E+00   0.0000000000E+00   0.2842016059E+00
   0.2050488746E+00   0.1651354491E+00   0.6363545411E-04  -0.1239698249E-04   0.4454481788E-03  -0.8677887745E-04   0.2340047692E+00  -0.9962832948E-02   0.6721258088E-01  -0.1450187700E-01   0.0000000000E+00   0.0000000000E+00   0.2168298448E-02  -0.1003280380E-02  -0.1885244011E-03   0.0000000000E+00   0.0000000000E+00   0.0000000000E+00   0.2174224350E+00
   0.2654607005E+00   0.1253744348E+00   0.8230293932E-04  -0.5731520663E-05   0.5761205752E-03  -0.4012064464E-04   0.1906030452E+00   0.8342083623E-02   0.5968353865E-01  -0.1868434463E-01   0.0000000000E+00   0.0000000000E+00   0.1701953585E-02  -0.6674389154E-03  -0.2428964802E-03   0.0000000000E+00   0.0000000000E+00   0.0000000000E+00   0.1659731872E+00
   0.2472293457E+00   0.1160703813E+00   0.7927895943E-04  -0.5294710601E-05   0.5549527160E-03  -0.3706297421E-04   0.1865190215E+00   0.6551779023E-02   0.5792124015E-01  -0.2304244995E-01   0.0000000000E+00   0.0000000000E+00   0.1671771157E-02  -0.6678029946E-03  -0.2995518494E-03   0.0000000000E+00   0.0000000000E+00   0.0000000000E+00   0.1654834402E+00
   0.2268696619E+00   0.1285297341E+00   0.7352473290E-04  -0.6998985108E-05   0.5146731303E-03  -0.4899289576E-04   0.1983840141E+00  -0.3370114088E-02   0.5850417000E-01  -0.2472837217E-01   0.0000000000E+00   0.0000000000E+00   0.1818437973E-02  -0.8043656931E-03  -0.3214688382E-03   0.0000000000E+00   0.0000000000E+00   0.0000000000E+00   0.1840751707E+00
   0.1263237086E+00   0.1248090326E+00   0.4783381875E-04  -0.1524317565E-04   0.3348367313E-03  -0.1067022295E-03   0.2518953340E+00  -0.4654457396E-01   0.6160522802E-01  -0.2124106385E-01   0.0000000000E+00   0.0000000000E+00   0.2473771378E-02  -0.1405947426E-02  -0.2761338300E-03   0.0000000000E+00   0.0000000000E+00   0.0000000000E+00   0.2641568875E+00
   0.1079606042E+00   0.1273072440E+00   0.4137965587E-04  -0.1898875257E-04   0.2896575911E-03  -0.1329212680E-03   0.2773893010E+00  -0.4107826340E-01   0.7089331129E-01  -0.1046958290E-01   0.0000000000E+00   0.0000000000E+00   0.2684447867E-02  -0.1455630471E-02  -0.1361045777E-03   0.0000000000E+00   0.0000000000E+00   0.0000000000E+00   0.2804597182E+00
   0.1112154131E+00   0.1107486451E+00   0.4680738592E-04  -0.1532161133E-04   0.3276517014E-03  -0.1072512793E-03   0.2462912400E+00  -0.5147440176E-01   0.5844505149E-01  -0.2950691905E-01   0.0000000000E+00   0.0000000000E+00   0.2442000451E-02  -0.1428952892E-02  -0.3835899476E-03   0.0000000000E+00   0.0000000000E+00   0.0000000000E+00   0.2653455573E+00
   0.9626777784E-01   0.1357056560E+00   0.3558995526E-04  -0.2295261923E-04   0.2491296868E-03  -0.1606683346E-03   0.2902811458E+00  -0.3124731277E-01   0.7771014990E-01   0.4860328131E-02   0.0000000000E+00   0.0000000000E+00   0.2763422946E-02  -0.1416447015E-02   0.6318426570E-04   0.0000000000E+00   0.0000000000E+00   0.0000000000E+00   0.2832593884E+00
   0.2294337837E+00   0.1048744019E+00   0.7681845799E-04  -0.4761891542E-05   0.5377292059E-03  -0.3333324080E-04   0.1772357402E+00   0.3328513968E-02   0.5416927626E-01  -0.2818993016E-01   0.0000000000E+00   0.0000000000E+00   0.1599864032E-02  -0.6609299098E-03  -0.3664690920E-03   0.0000000000E+00   0.0000000000E+00   0.0000000000E+00   0.1623341565E+00
   0.1562098685E+00   0.1459867050E+00   0.5271806216E-04  -0.1450088103E-04   0.3690264351E-03  -0.1015061672E-03   0.2456360711E+00  -0.2924001106E-01   0.6491881801E-01  -0.1309209148E-01   0.0000000000E+00   0.0000000000E+00   0.2349324290E-02  -0.1224064778E-02  -0.1701971893E-03   0.0000000000E+00   0.0000000000E+00   0.0000000000E+00   0.2428322488E+00
   0.2068079553E+00   0.1330708100E+00   0.6819878842E-04  -0.8432371108E-05   0.4773915190E-03  -0.5902659775E-04   0.2106434419E+00  -0.1158335437E-01   0.5971802627E-01  -0.2641425198E-01   0.0000000000E+00   0.0000000000E+00   0.1962030404E-02  -0.9269179483E-03  -0.3433852758E-03   0.0000000000E+00   0.0000000000E+00   0.0000000000E+00   0.2016969581E+00
   0.2155364684E+00   0.1482823190E+00   0.6842529390E-04  -0.9691376414E-05   0.4789770573E-03  -0.6783963490E-04   0.2203276587E+00  -0.6093892834E-02   0.6427012975E-01  -0.1954357770E-01   0.0000000000E+00   0.0000000000E+00   0.2028747876E-02  -0.9147322936E-03  -0.2540665101E-03   0.0000000000E+00   0.0000000000E+00   0.0000000000E+00   0.2034630926E+00
   0.1468784613E+00   0.1280436546E+00   0.5329341505E-04  -0.1285929642E-04   0.3730539053E-03  -0.9001507495E-04   0.2369859048E+00  -0.3750153262E-01   0.5984531165E-01  -0.2348142160E-01   0.0000000000E+00   0.0000000000E+00   0.2302827711E-02  -0.1265508976E-02  -0.3052584808E-03   0.0000000000E+00   0.0000000000E+00   0.0000000000E+00   0.2443859939E+00
   0.1673891883E+00   0.1252942350E+00   0.5951766449E-04  -0.1020212695E-04   0.4166236514E-03  -0.7141488868E-04   0.2222561437E+00  -0.2803953614E-01   0.5826498227E-01  -0.2806826228E-01   0.0000000000E+00   0.0000000000E+00   0.2131885099E-02  -0.1121958739E-02  -0.3648874097E-03   0.0000000000E+00   0.0000000000E+00   0.0000000000E+00   0.2254631229E+00
   0.1496237727E+00   0.9403038339E-01   0.6173808214E-04  -0.7357051614E-05   0.4321665750E-03  -0.5149936130E-04   0.1869075816E+00  -0.3969977134E-01   0.4416234307E-01  -0.4812404598E-01   0.0000000000E+00   0.0000000000E+00   0.1855688101E-02  -0.1090207487E-02  -0.6256125978E-03   0.0000000000E+00   0.0000000000E+00   0.0000000000E+00   0.2154665800E+00
   0.1542557693E+00   0.1131820401E+00   0.5846741680E-04  -0.9756240121E-05   0.4092719176E-03  -0.6829368085E-04   0.2154548972E+00  -0.4089428811E-01   0.5236818273E-01  -0.3760333669E-01   0.0000000000E+00   0.0000000000E+00   0.2120127288E-02  -0.1212412121E-02  -0.4888433769E-03   0.0000000000E+00   0.0000000000E+00   0.0000000000E+00   0.2338584599E+00
   0.1654023166E+00   0.1063289506E+00   0.6271819546E-04  -0.7833180590E-05   0.4390273682E-03  -0.5483226413E-04   0.1937479932E+00  -0.3255092555E-01   0.4835912029E-01  -0.3909548672E-01   0.0000000000E+00   0.0000000000E+00   0.1890055348E-02  -0.1051830596E-02  -0.5082413274E-03   0.0000000000E+00   0.0000000000E+00   0.0000000000E+00   0.2095536101E+00
   0.1411690288E+00   0.1126222264E+00   0.5509548119E-04  -0.1112807777E-04   0.3856683683E-03  -0.7789654440E-04   0.2301719289E+00  -0.4217516646E-01   0.5639902875E-01  -0.3321752058E-01   0.0000000000E+00   0.0000000000E+00   0.2259047703E-02  -0.1281464538E-02  -0.4318277676E-03   0.0000000000E+00   0.0000000000E+00   0.0000000000E+00   0.2449261489E+00
           1           2           3           3
           4           5           6           6
           7           8           9           9
          10          11          12          12
          13           7          14          14
          15          16          17          17
          18          19          10          10
          20          21          22          22
          23          24           2           2
          25          23           2           2
          26           3          27          27
          28          29          30          30
          31          32          33          33
          34          31          25          25
          35          36          20          20
          26          27           8           8
          37          15          17          17
          38          39          40          40
          41          40          42          42
          43          44          45          45
          46          47          41          41
          48          49          50          50
          51          52          53          53
          54          55          56          56
          57          58          59          59
          60          61          62          62
          63          64          57          57
          62          13          65          65
          66          67          68          68
          69          66          70          70
          71          72          73          73
          74          75          76          76
          75          77          78          78
          77          79          78          78
          80          53          48          48
          81          82          83          83
          45          84          85          85
          44          86          45          45
          87          88          44          44
          41          42          87          87
          36          89          21          21
          20          36          21          21
          35          30          90          90
          91           1          26          26
          92          93          30          30
           6          94          92          92
          95          96           4           4
          12          97          95          95
          98          12          95          95
          99         100          10          10
         101         102          99          99
         103         104         101         101
         105         106         103         103
         107         108         105         105
         109         110         107         107
         111         112         109         109
          69          70         111         111
           8          27           9           9
           7           9          14          14
          13          14          65          65
         113         114         115         115
          59          58         116         116
          51         116          52          52
          62          65          15          15
         117         118         119         119
         120         121         122         122
         122         123         124         124
          31          33          25          25
          25          33          23          23
          28          20         120         120
         124          32          31          31
         125         124         126         126
         124         123          32          32
         127         120         122         122
         122         121         123         123
         120          20          22          22
         120          22         121         121
          91         128          34          34
         129           4           6           6
          37          17         130         130
         131         132          63          63
          53          52          49          49
          85         133          83          83
          83         134         135         135
          51          59         116         116
          57          64          58          58
          19          99          10          10
         136          63         137         137
          63         132          64          64
         138          60          37          37
         131         130         132         132
          37          62          15          15
          37         130         131         131
         135         134          79          79
         139         103         101         101
          56          55          82          82
          83         133         134         134
          55          45          85          85
          85          84         133         133
         140          46         141         141
          45          86          84          84
         142          44          43          43
          44          88          86          86
          46          87         142         142
          87          42          88          88
          47          38          41          41
          41          38          40          40
         143          29         144         144
          30          93          90          90
         145          92          29          29
          92          94          93          93
         146         147         129         129
           6           5          94          94
         148         149         150         150
           4          96           5           5
         151           7         152         152
          95          97          96          96
          18          12          98          98
          12          11          97          97
         153         139         101         101
          10         100          11          11
         153          99          19          19
          99         102         100         100
         154          51         155         155
         101         104         102         102
         156          71          73          73
         103         106         104         104
         157         103         139         139
         105         108         106         106
          74          76         158         158
         107         110         108         108
          76          75         159         159
         109         112         110         110
         160         109          72          72
         111          70         112         112
         161          67          69          69
          69          67          66          66
         126         124          31          31
         128         162         126         126
         144          28         127         127
         125         127         122         122
         125         122         124         124
         143         146         145         145
          77         135          79          79
          75          78         159         159
          82          85          83          83
         163         164         165         165
          76         159         166         166
         167         168          74          74
          81          83         135         135
         169          56          82          82
          55          43          45          45
          55          85          82          82
         170         141         171         171
         142          87          44          44
         161          76         166         166
         158          69         111         111
         172         135          77          77
         173         139         174         174
         161         166          67          67
         158         161          69          69
          72         109         107         107
         175         107         105         105
         176          95           4           4
         152           7          13          13
         145           6          92          92
         114         177         178         178
          18          10          12          12
         154          59          51          51
         153         101          99          99
         179         137          57          57
         114         180         181         181
         181         182          19          19
         183         179         184         184
         174         153         182         182
         173         185         157         157
         157         105         103         103
          29          92          30          30
         186         127         125         125
          35          90          36          36
          28          35          20          20
         186         144         127         127
         145         129           6           6
         176          98          95          95
         176           4         129         129
         175          72         107         107
         175         105         157         157
          74         187          75          75
         160         111         109         109
           1          25           2           2
           1           3          26          26
          48          53          49          49
         188          48          50          50
         188          50         189         189
          47         188         189         189
         155          51          53          53
         190         164         191         191
         137          63          57          57
         179          57          59          59
         154         179          59          59
         183         192         137         137
         193         194         195         195
         196         184         154         154
          60          62          37          37
         136         131          63          63
          47         189          38          38
          46          41          87          87
          28          30          35          35
          28         120         127         127
         141          46         142         142
          46         188          47          47
         197          26           8           8
         151           8           7           7
         178         198         199         199
          61         152          13          13
          61          13          62          62
         200         136         192         192
         198         176         147         147
         151         197           8           8
          34         126          31          31
          34          25           1           1
         158          76         161         161
         158         111         160         160
         144          29          28          28
         162         125         126         126
         162         186         125         125
         201         162         128         128
         128         126          34          34
         202         203         204         204
         140         188          46          46
         171         142          43          43
          91          34           1           1
         205         199         147         147
         168         206         187         187
         187          77          75          75
         167         158         160         160
         207         208         206         206
         169          82          81          81
         195         209         184         184
         210          81         172         172
         173         157         139         139
         190         170         211         211
          54          43          55          55
         171         141         142         142
         171          43          54          54
         172          81         135         135
         172          77         187         187
         182         153          19          19
         181          19          18          18
         147         176         129         129
         146         129         145         145
         177          18          98          98
         212         213         214         214
         143         145          29          29
         204         203         143         143
          73          72         175         175
         185         175         157         157
         215         182         180         180
         174         139         153         153
         216         185         217         217
         185          73         175         175
         198          98         176         176
         199         198         147         147
         167          71         168         168
          71         160          72          72
         177         181          18          18
         177          98         198         198
         215         174         182         182
         218         219         220         220
         143         144         186         186
         202         204         201         201
          91          26         197         197
         221          91         197         197
          80         155          53          53
         140          80          48          48
         184         179         154         154
         196         154         155         155
         192         136         137         137
         183         137         179         179
         215         222         174         174
         209         118         183         183
         223         155          80          80
         224          54          56          56
         138          37         131         131
         138         200          60          60
         140          48         188         188
         170         140         141         141
         170          80         140         140
         211          54         224         224
         225          61         200         200
         200          61          60          60
         221         128          91          91
         149         226         199         199
         227         228         208         208
         206         172         187         187
         229          56         169         169
         229         224          56          56
         211         170         171         171
         211         171          54          54
         168         187          74          74
         156         168          71          71
         228         169         210         210
         217         185         173         173
         210         169          81          81
         210         172         206         206
         167          74         158         158
         167         160          71          71
         222         173         174         174
         230         231         217         217
         205         147         146         146
         226         178         199         199
         232         233         234         234
         178         177         198         198
         235         156         216         216
         216          73         185         185
         207         168         156         156
         156          73         216         216
         180         182         181         181
         114         181         177         177
         203         205         146         146
         150         202         201         201
         194         236         209         209
         222         217         173         173
         115         178         226         226
         237         115         226         226
         203         146         143         143
         204         143         186         186
         238         180         113         113
         239         238         240         240
         221         201         128         128
         241         197         151         151
         223         196         155         155
         223          80         170         170
         118         192         183         183
         209         183         184         184
         195         184         196         196
         242         215         238         238
         191         196         223         223
         165         164         224         224
         204         186         162         162
         204         162         201         201
         227         208         235         235
         208         210         206         206
         164         211         224         224
         165         224         229         229
         243         229         228         228
         244         220         245         245
         207         206         168         168
         235         207         156         156
         149         199         205         205
         246         148         247         247
         231         216         217         217
         230         217         222         222
         138         131         136         136
         138         136         200         200
         235         208         207         207
         235         216         231         231
         213         248         214         214
         115         114         178         178
         202         149         205         205
         249         221         241         241
         242         222         215         215
         250         244         245         245
         202         205         203         203
         150         201         221         221
         251         115         237         237
         113         180         114         114
         240         113         251         251
         238         215         180         180
         252         233         245         245
         242         230         222         222
         228         229         169         169
         228         210         208         208
         191         195         196         196
         190         191         223         223
         236         118         209         209
         194         209         195         195
         193         195         191         191
         253         219         230         230
         190         223         170         170
         190         211         164         164
         241         221         197         197
         150         149         202         202
         248         241         151         151
         249         148         150         150
         218         235         231         231
         218         220         227         227
         148         237         226         226
         254         251         237         237
         148         226         149         149
         246         247         248         248
         219         231         230         230
         253         230         242         242
         255         251         254         254
         251         113         115         115
         239         242         238         238
         252         245         253         253
         234         252         239         239
         240         238         113         113
         234         240         255         255
         239         253         242         242
         243         165         229         229
         243         228         227         227
         163         191         164         164
         244         243         220         220
         225         212          61          61
         119         118         236         236
         249         150         221         221
         247         249         241         241
         233         236         194         194
         250         245         233         233
         214         151         152         152
         256         213         212         212
         247         148         249         249
         247         241         248         248
         220         243         227         227
         245         220         219         219
         213         246         248         248
         246         237         148         148
         257         255         254         254
         254         237         246         246
         245         219         253         253
         250         233         194         194
         163         244         250         250
         244         165         243         243
         232         234         255         255
         255         240         251         251
         252         253         239         239
         234         239         240         240
         258         255         257         257
         234         233         252         252
         232         119         236         236
         232         236         233         233
         250         194         193         193
         163         250         193         193
         117         200         192         192
         117         192         118         118
         218         227         235         235
         218         231         219         219
         214         248         151         151
         212         214         152         152
         259         256         257         257
         259         246         213         213
         212         152          61          61
         225         256         212         212
         258         257         256         256
         259         257         254         254
         163         193         191         191
         163         165         244         244
         256         117         119         119
         258         256         119         119
         259         254         246         246
         259         213         256         256
         258         119         232         232
         258         232         255         255
         225         200         117         117
         225         117         256         256
 VARIABLES = X,Y,DU1,DU2,U1,U2,S11,S22,S33,S12,S13,S23,E11,E22,E12,E33,E13,E23,SMISES
 ZONE, T="0.9000D+01" F=FEPOINT, I=  259 J=  457
   0.3723114670E-01   0.1121398271E+00   0.1941201151E-04  -0.3282987469E-04   0.1552960921E-03  -0.2626389975E-03   0.4742891264E+00   0.5013529927E-01   0.1573273277E+00  -0.5409438602E-01   0.0000000000E+00   0.0000000000E+00   0.4120503383E-02  -0.1393496370E-02  -0.7032270183E-03   0.0000000000E+00   0.0000000000E+00   0.0000000000E+00   0.3924844733E+00
   0.1964123351E-01   0.9778755196E-01   0.1468901177E-04  -0.3233051595E-04   0.1175120941E-03  -0.2586441276E-03   0.6352481483E+00   0.6549740772E-01   0.2102236668E+00  -0.7358575807E-01   0.0000000000E+00   0.0000000000E+00   0.5525318259E-02  -0.1881441368E-02  -0.9566148549E-03   0.0000000000E+00   0.0000000000E+00   0.0000000000E+00   0.5280099741E+00
   0.3853013817E-01   0.9212477138E-01   0.2908839679E-04  -0.2924228052E-04   0.2327071743E-03  -0.2339382441E-03   0.5891717069E+00   0.1018199104E+00   0.2072974852E+00  -0.1513772215E+00   0.0000000000E+00   0.0000000000E+00   0.4964364882E-02  -0.1371208472E-02  -0.1967903879E-02   0.0000000000E+00   0.0000000000E+00   0.0000000000E+00   0.5121950340E+00
   0.1071478350E+00   0.2328043153E+00   0.2644377234E-04  -0.3516485853E-04   0.2115501787E-03  -0.2813188682E-03   0.2833278228E+00  -0.1862499850E-02   0.8443959689E-01   0.1444731306E-01   0.0000000000E+00   0.0000000000E+00   0.2585546937E-02  -0.1121927258E-02   0.1878150697E-03   0.0000000000E+00   0.0000000000E+00   0.0000000000E+00   0.2546468561E+00
   0.9741295661E-01   0.2496496623E+00   0.2119252365E-04  -0.3892640651E-04   0.1695401892E-03  -0.3114112521E-03   0.2704459953E+00  -0.7250393333E-03   0.8091628680E-01   0.6861417433E-02   0.0000000000E+00   0.0000000000E+00   0.2463886211E-02  -0.1061337240E-02   0.8919842663E-04   0.0000000000E+00   0.0000000000E+00   0.0000000000E+00   0.2410418169E+00
   0.8755803613E-01   0.2326781127E+00   0.2098553643E-04  -0.3866714709E-04   0.1678842914E-03  -0.3093371767E-03   0.2690551008E+00  -0.8718562459E-03   0.8045497337E-01   0.1654936626E-01   0.0000000000E+00   0.0000000000E+00   0.2451801657E-02  -0.1057248785E-02   0.2151417614E-03   0.0000000000E+00   0.0000000000E+00   0.0000000000E+00   0.2416698613E+00
   0.8922995695E-01   0.7367506452E-01   0.5497542748E-04  -0.1458594200E-04   0.4398034198E-03  -0.1166875360E-03   0.1713782684E+00  -0.2271137619E-01   0.4460006765E-01  -0.6535577944E-01   0.0000000000E+00   0.0000000000E+00   0.1648116609E-02  -0.8750487699E-03  -0.8496251328E-03   0.0000000000E+00   0.0000000000E+00   0.0000000000E+00   0.2055703703E+00
   0.7368504832E-01   0.8895715303E-01   0.4355673570E-04  -0.2084923025E-04   0.3484538856E-03  -0.1667938420E-03   0.2703916782E+00   0.8530572668E-02   0.8367667525E-01  -0.8194909382E-01   0.0000000000E+00   0.0000000000E+00   0.2427295038E-02  -0.9768993336E-03  -0.1065338220E-02   0.0000000000E+00   0.0000000000E+00   0.0000000000E+00   0.2769675211E+00
   0.7119732182E-01   0.7052445055E-01   0.5407115790E-04  -0.2069231709E-04   0.4325692632E-03  -0.1655385367E-03   0.1735351237E+00   0.5435416359E-01   0.6836678617E-01  -0.9151823183E-01   0.0000000000E+00   0.0000000000E+00   0.1367188387E-02  -0.1821640936E-03  -0.1189737014E-02   0.0000000000E+00   0.0000000000E+00   0.0000000000E+00   0.1858807968E+00
   0.1656703952E+00   0.2328758892E+00   0.4411246148E-04  -0.2566909036E-04   0.3528996918E-03  -0.2053527229E-03   0.3081835474E+00  -0.2445654897E-02   0.9172136774E-01   0.3795869613E-02   0.0000000000E+00   0.0000000000E+00   0.2814008335E-02  -0.1224171294E-02   0.4934630497E-04   0.0000000000E+00   0.0000000000E+00   0.0000000000E+00   0.2759552420E+00
   0.1559047621E+00   0.2497358902E+00   0.3880011876E-04  -0.2934553547E-04   0.3104009501E-03  -0.2347642837E-03   0.3183513258E+00  -0.4197755984E-03   0.9537946507E-01   0.2444427355E-02   0.0000000000E+00   0.0000000000E+00   0.2898634190E-02  -0.1245390129E-02   0.3177755561E-04   0.0000000000E+00   0.0000000000E+00   0.0000000000E+00   0.2832953752E+00
   0.1461688446E+00   0.2328617819E+00   0.3807095796E-04  -0.2851478869E-04   0.3045676637E-03  -0.2281183095E-03   0.3034402531E+00  -0.2655258895E-02   0.9023549828E-01   0.7483256962E-02   0.0000000000E+00   0.0000000000E+00   0.2771661813E-02  -0.1207579843E-02   0.9728234051E-04   0.0000000000E+00   0.0000000000E+00   0.0000000000E+00   0.2721556549E+00
   0.1023971002E+00   0.5675042257E-01   0.6457102540E-04  -0.9188814991E-05   0.5165682032E-03  -0.7351051993E-04   0.9856596684E-01  -0.5397046717E-01   0.1337864990E-01  -0.4901416476E-01   0.0000000000E+00   0.0000000000E+00   0.1107435120E-02  -0.8755385219E-03  -0.6371841419E-03   0.0000000000E+00   0.0000000000E+00   0.0000000000E+00   0.1572321345E+00
   0.8371804550E-01   0.5541795428E-01   0.6345400012E-04  -0.1545215750E-04   0.5076320010E-03  -0.1236172600E-03   0.4977017893E-01  -0.4507072933E-01   0.1409834879E-02  -0.2250220246E-01   0.0000000000E+00   0.0000000000E+00   0.6286844727E-03  -0.6042473348E-03  -0.2925286319E-03   0.0000000000E+00   0.0000000000E+00   0.0000000000E+00   0.9848454123E-01
   0.9875208948E-01   0.1946583780E-01   0.7484032045E-04  -0.4799400208E-05   0.5987225636E-03  -0.3839520167E-04  -0.1127771485E-01  -0.1746540968E+00  -0.5577954348E-01   0.6684194117E-02   0.0000000000E+00   0.0000000000E+00   0.5785237722E-03  -0.1545369193E-02   0.8689452352E-04   0.0000000000E+00   0.0000000000E+00   0.0000000000E+00   0.1482676948E+00
   0.1006771503E+00   0.0000000000E+00   0.7523880562E-04   0.0000000000E+00   0.6019104450E-03   0.0000000000E+00   0.1761491340E-01  -0.3266328964E+00  -0.9270539489E-01  -0.1102537463E-01   0.0000000000E+00   0.0000000000E+00   0.1434164008E-02  -0.3041057519E-02  -0.1433298701E-03   0.0000000000E+00   0.0000000000E+00   0.0000000000E+00   0.3013716340E+00
   0.1215308553E+00   0.0000000000E+00   0.7750281467E-04   0.0000000000E+00   0.6200225174E-03   0.0000000000E+00  -0.8250718583E-02  -0.1385738982E+00  -0.4404738505E-01   0.1904826347E-02   0.0000000000E+00   0.0000000000E+00   0.4653566641E-03  -0.1228844672E-02   0.2476274251E-04   0.0000000000E+00   0.0000000000E+00   0.0000000000E+00   0.1209032714E+00
   0.1559245325E+00   0.2159724246E+00   0.4318394341E-04  -0.2474904393E-04   0.3454715473E-03  -0.1979923514E-03   0.2990157912E+00  -0.6967432517E-02   0.8761450760E-01   0.8923741131E-02   0.0000000000E+00   0.0000000000E+00   0.2748216687E-02  -0.1229565222E-02   0.1160086347E-03   0.0000000000E+00   0.0000000000E+00   0.0000000000E+00   0.2717607600E+00
   0.1754344079E+00   0.2159799165E+00   0.4912721475E-04  -0.2210861187E-04   0.3930177180E-03  -0.1768688950E-03   0.2991382079E+00  -0.5823547895E-02   0.8799439801E-01   0.2882148050E-02   0.0000000000E+00   0.0000000000E+00   0.2744869529E-02  -0.1219633297E-02   0.3746792465E-04   0.0000000000E+00   0.0000000000E+00   0.0000000000E+00   0.2705744811E+00
   0.1755520859E-01   0.2241141296E+00   0.4126342857E-05  -0.4690115214E-04   0.3301074286E-04  -0.3752092172E-03   0.2434124412E+00   0.7445102596E-02   0.7525726314E-01   0.6633444732E-02   0.0000000000E+00   0.0000000000E+00   0.2186017315E-02  -0.8815580870E-03   0.8623478151E-04   0.0000000000E+00   0.0000000000E+00   0.0000000000E+00   0.2110936215E+00
   0.0000000000E+00   0.2308176995E+00   0.0000000000E+00  -0.4803372350E-04   0.0000000000E+00  -0.3842697880E-03   0.2126400788E+00   0.6027776856E-02   0.6560035670E-01   0.1533681376E-02   0.0000000000E+00   0.0000000000E+00   0.1911516387E-02  -0.7744435379E-03   0.1993785789E-04   0.0000000000E+00   0.0000000000E+00   0.0000000000E+00   0.1843609650E+00
   0.0000000000E+00   0.2120835008E+00   0.0000000000E+00  -0.4627835925E-04   0.0000000000E+00  -0.3702268740E-03   0.2540999926E+00   0.1436884304E-01   0.8054065069E-01   0.7632278028E-02   0.0000000000E+00   0.0000000000E+00   0.2256271445E-02  -0.8602334995E-03   0.9921961437E-04   0.0000000000E+00   0.0000000000E+00   0.0000000000E+00   0.2147728571E+00
   0.0000000000E+00   0.1184157386E+00   0.0000000000E+00  -0.3714004802E-04   0.0000000000E+00  -0.2971203842E-03   0.6026958597E+00   0.6321343583E-01   0.1997727887E+00  -0.1721557755E-01   0.0000000000E+00   0.0000000000E+00   0.5237999924E-02  -0.1775271587E-02  -0.2238025082E-03   0.0000000000E+00   0.0000000000E+00   0.0000000000E+00   0.4902803077E+00
   0.0000000000E+00   0.9971650438E-01   0.0000000000E+00  -0.3149962457E-04   0.0000000000E+00  -0.2519969966E-03   0.8930520266E+00  -0.1137886873E-01   0.2645019474E+00  -0.4596800664E-02   0.0000000000E+00   0.0000000000E+00   0.8171151030E-02  -0.3586450609E-02  -0.5975840863E-04   0.0000000000E+00   0.0000000000E+00   0.0000000000E+00   0.7954938781E+00
   0.1830992588E-01   0.1242405674E+00   0.8175276058E-05  -0.3684340132E-04   0.6540220846E-04  -0.2947472106E-03   0.4394416876E+00   0.6231504766E-01   0.1505270206E+00  -0.1824152483E-01   0.0000000000E+00   0.0000000000E+00   0.3755890671E-02  -0.1146755648E-02  -0.2371398228E-03   0.0000000000E+00   0.0000000000E+00   0.0000000000E+00   0.3443697082E+00
   0.5586764723E-01   0.1015559991E+00   0.3139192580E-04  -0.2726465151E-04   0.2511354064E-03  -0.2181172120E-03   0.3708912814E+00   0.2182449260E-01   0.1178147322E+00  -0.7850563545E-01   0.0000000000E+00   0.0000000000E+00   0.3289995140E-02  -0.1247873115E-02  -0.1020573261E-02   0.0000000000E+00   0.0000000000E+00   0.0000000000E+00   0.3428964585E+00
   0.5593939509E-01   0.8291824252E-01   0.4248571004E-04  -0.2541299733E-04   0.3398856803E-03  -0.2033039786E-03   0.3675220921E+00   0.1048023754E+00   0.1416973402E+00  -0.1518548695E+00   0.0000000000E+00   0.0000000000E+00   0.2935721774E-02  -0.4796345428E-03  -0.1974113303E-02   0.0000000000E+00   0.0000000000E+00   0.0000000000E+00   0.3509406819E+00
   0.3659771811E-01   0.2150151922E+00   0.9197800863E-05  -0.4450264583E-04   0.7358240690E-04  -0.3560211667E-03   0.2577526696E+00   0.9169111759E-02   0.8007653440E-01   0.2081246309E-01   0.0000000000E+00   0.0000000000E+00   0.2309789757E-02  -0.9217964943E-03   0.2705620202E-03   0.0000000000E+00   0.0000000000E+00   0.0000000000E+00   0.2247152648E+00
   0.5774256765E-01   0.2155097827E+00   0.1468032773E-04  -0.4170714757E-04   0.1174426218E-03  -0.3336571805E-03   0.2650220287E+00   0.2773231033E-02   0.8033857793E-01   0.2700296042E-01   0.0000000000E+00   0.0000000000E+00   0.2400884861E-02  -0.1008349510E-02   0.3510384855E-03   0.0000000000E+00   0.0000000000E+00   0.0000000000E+00   0.2378389486E+00
   0.4861751402E-01   0.2326832546E+00   0.1102542486E-04  -0.4482782298E-04   0.8820339886E-04  -0.3586225838E-03   0.2412337868E+00   0.3986783317E-02   0.7356617104E-01   0.1592719529E-01   0.0000000000E+00   0.0000000000E+00   0.2179679005E-02  -0.9045320405E-03   0.2070535387E-03   0.0000000000E+00   0.0000000000E+00   0.0000000000E+00   0.2132075852E+00
   0.1749718946E-01   0.1453009755E+00   0.6212139837E-05  -0.3933338926E-04   0.4969711870E-04  -0.3146671141E-03   0.3786712126E+00   0.5854621455E-01   0.1311652282E+00   0.8771803950E-02   0.0000000000E+00   0.0000000000E+00   0.3217577798E-02  -0.9440471768E-03   0.1140334513E-03   0.0000000000E+00   0.0000000000E+00   0.0000000000E+00   0.2911798206E+00
   0.0000000000E+00   0.1558796263E+00   0.0000000000E+00  -0.4115263408E-04   0.0000000000E+00  -0.3292210727E-03   0.3548167751E+00   0.6613883820E-01   0.1262866840E+00   0.9230658409E-02   0.0000000000E+00   0.0000000000E+00   0.2970891185E-02  -0.7819219953E-03   0.1199985593E-03   0.0000000000E+00   0.0000000000E+00   0.0000000000E+00   0.2649046601E+00
   0.0000000000E+00   0.1371449505E+00   0.0000000000E+00  -0.3945028195E-04   0.0000000000E+00  -0.3156022556E-03   0.4208814879E+00   0.8558255964E-01   0.1519392143E+00   0.2364005333E-01   0.0000000000E+00   0.0000000000E+00   0.3496249557E-02  -0.8626365100E-03   0.3073206933E-03   0.0000000000E+00   0.0000000000E+00   0.0000000000E+00   0.3075235600E+00
   0.3605637899E-01   0.1340351431E+00   0.1409175419E-04  -0.3588499247E-04   0.1127340335E-03  -0.2870799398E-03   0.4063357128E+00   0.5692127889E-01   0.1389770975E+00   0.7304534426E-02   0.0000000000E+00   0.0000000000E+00   0.3475661999E-02  -0.1066725642E-02   0.9495894753E-04   0.0000000000E+00   0.0000000000E+00   0.0000000000E+00   0.3165166077E+00
   0.3222144511E-01   0.2341573960E+00   0.7092667677E-05  -0.4679655008E-04   0.5674134142E-04  -0.3743724006E-03   0.2211220415E+00   0.1455064125E-02   0.6677313170E-01   0.1163107281E-01   0.0000000000E+00   0.0000000000E+00   0.2006535828E-02  -0.8491348785E-03   0.1512039465E-03   0.0000000000E+00   0.0000000000E+00   0.0000000000E+00   0.1962919634E+00
   0.1947718425E-01   0.2495575663E+00   0.3637683758E-05  -0.4915930531E-04   0.2910147006E-04  -0.3932744425E-03   0.1993892263E+00   0.1815143308E-02   0.6036131090E-01   0.3205690694E-02   0.0000000000E+00   0.0000000000E+00   0.1807362901E-02  -0.7611001786E-03   0.4167397902E-04   0.0000000000E+00   0.0000000000E+00   0.0000000000E+00   0.1761257944E+00
   0.1295860600E+00   0.2145286469E-01   0.7610399698E-04  -0.1517634148E-05   0.6088319758E-03  -0.1214107318E-04   0.2229813643E-01  -0.5456798781E-01  -0.9680955411E-02  -0.2131086015E-01   0.0000000000E+00   0.0000000000E+00   0.4157281940E-03  -0.5835314211E-03  -0.2770411820E-03   0.0000000000E+00   0.0000000000E+00   0.0000000000E+00   0.7848754945E-01
   0.3300415268E+00   0.0000000000E+00   0.9720509032E-04   0.0000000000E+00   0.7776407225E-03   0.0000000000E+00   0.1507264155E+00   0.4225918873E-01   0.5789568127E-01  -0.6095712242E-03   0.0000000000E+00   0.0000000000E+00   0.1206799545E-02  -0.2032744030E-03  -0.7924425915E-05   0.0000000000E+00   0.0000000000E+00   0.0000000000E+00   0.1015566540E+00
   0.3508999940E+00   0.0000000000E+00   0.1000000000E-03   0.0000000000E+00   0.8000000000E-03   0.0000000000E+00   0.1496768745E+00   0.4200707238E-01   0.5750518405E-01   0.2906606910E-03   0.0000000000E+00   0.0000000000E+00   0.1198231975E-02  -0.2014754517E-03   0.3778588983E-05   0.0000000000E+00   0.0000000000E+00   0.0000000000E+00   0.1008165538E+00
   0.3508999940E+00   0.1922683836E-01   0.1000000000E-03  -0.4368373714E-06   0.8000000000E-03  -0.3494698971E-05   0.1528810269E+00   0.4227492092E-01   0.5854678434E-01   0.2824984223E-04   0.0000000000E+00   0.0000000000E+00   0.1226345153E-02  -0.2115342245E-03   0.3672479490E-06   0.0000000000E+00   0.0000000000E+00   0.0000000000E+00   0.1034366306E+00
   0.3323061706E+00   0.2616620041E-01   0.9743306808E-04  -0.6111768354E-06   0.7794645447E-03  -0.4889414684E-05   0.1549823428E+00   0.4190148056E-01   0.5906514702E-01  -0.1632875032E-02   0.0000000000E+00   0.0000000000E+00   0.1246923546E-02  -0.2231276640E-03  -0.2122737542E-04   0.0000000000E+00   0.0000000000E+00   0.0000000000E+00   0.1055696106E+00
   0.3508999940E+00   0.3845318386E-01   0.1000000000E-03  -0.9284490916E-06   0.8000000000E-03  -0.7427592733E-05   0.1581682856E+00   0.3995351963E-01   0.5943654155E-01  -0.1493563362E-03   0.0000000000E+00   0.0000000000E+00   0.1283512672E-02  -0.2532792851E-03  -0.1941632371E-05   0.0000000000E+00   0.0000000000E+00   0.0000000000E+00   0.1097759007E+00
   0.3166297540E+00   0.7693456604E-01   0.9432622658E-04  -0.2333973297E-05   0.7546098127E-03  -0.1867178638E-04   0.1771526807E+00   0.3121176860E-01   0.6250933479E-01  -0.8311492520E-02   0.0000000000E+00   0.0000000000E+00   0.1490363497E-02  -0.4068683605E-03  -0.1080494028E-03   0.0000000000E+00   0.0000000000E+00   0.0000000000E+00   0.1338453007E+00
   0.3336036012E+00   0.6719223715E-01   0.9724946777E-04  -0.1906182922E-05   0.7779957421E-03  -0.1524946338E-04   0.1719748442E+00   0.3428650975E-01   0.6187840619E-01  -0.3632977807E-02   0.0000000000E+00   0.0000000000E+00   0.1431253694E-02  -0.3586946537E-03  -0.4722871149E-04   0.0000000000E+00   0.0000000000E+00   0.0000000000E+00   0.1263174715E+00
   0.3339583845E+00   0.8653254722E-01   0.9707249753E-04  -0.2769230808E-05   0.7765799802E-03  -0.2215384647E-04   0.1838344612E+00   0.2968639442E-01   0.6405625669E-01  -0.4107466307E-02   0.0000000000E+00   0.0000000000E+00   0.1557116659E-02  -0.4468082095E-03  -0.5339706199E-04   0.0000000000E+00   0.0000000000E+00   0.0000000000E+00   0.1403312219E+00
   0.3122661425E+00   0.3580911897E-01   0.9454306042E-04  -0.8666808515E-06   0.7563444834E-03  -0.6933446812E-05   0.1551190300E+00   0.3880264864E-01   0.5817650359E-01  -0.5664366920E-02   0.0000000000E+00   0.0000000000E+00   0.1260252843E-02  -0.2518601144E-03  -0.7363676996E-04   0.0000000000E+00   0.0000000000E+00   0.0000000000E+00   0.1083770730E+00
   0.3166314562E+00   0.1595169809E-01   0.9536301880E-04  -0.3645236782E-06   0.7629041504E-03  -0.2916189426E-05   0.1502312275E+00   0.4115876620E-01   0.5741699812E-01  -0.2218944675E-02   0.0000000000E+00   0.0000000000E+00   0.1206584982E-02  -0.2113570149E-03  -0.2884628077E-04   0.0000000000E+00   0.0000000000E+00   0.0000000000E+00   0.1020040965E+00
   0.2784129206E+00   0.1795809947E-01   0.9030906378E-04  -0.4058028712E-06   0.7224725103E-03  -0.3246422969E-05   0.1432945839E+00   0.3774732407E-01   0.5431257239E-01  -0.5088512660E-02   0.0000000000E+00   0.0000000000E+00   0.1156766150E-02  -0.2153482282E-03  -0.6615066458E-04   0.0000000000E+00   0.0000000000E+00   0.0000000000E+00   0.9876064728E-01
   0.2674685394E+00   0.0000000000E+00   0.8909537818E-04   0.0000000000E+00   0.7127630254E-03   0.0000000000E+00   0.1373381520E+00   0.3726503587E-01   0.5238095636E-01  -0.2118488406E-02   0.0000000000E+00   0.0000000000E+00   0.1104443543E-02  -0.1965069664E-03  -0.2754034927E-04   0.0000000000E+00   0.0000000000E+00   0.0000000000E+00   0.9338205427E-01
   0.2883254111E+00   0.0000000000E+00   0.9171301002E-04   0.0000000000E+00   0.7337040801E-03   0.0000000000E+00   0.1438860810E+00   0.3980250733E-01   0.5510657651E-01  -0.1622780156E-02   0.0000000000E+00   0.0000000000E+00   0.1154133559E-02  -0.1989528993E-03  -0.2109614203E-04   0.0000000000E+00   0.0000000000E+00   0.0000000000E+00   0.9734089450E-01
   0.2362519820E+00   0.1793632224E-01   0.8517855705E-04  -0.3978398820E-06   0.6814284564E-03  -0.3182719056E-05   0.1257265416E+00   0.3030708242E-01   0.4681008719E-01  -0.9395181637E-02   0.0000000000E+00   0.0000000000E+00   0.1025913907E-02  -0.2145390621E-03  -0.1221373613E-03   0.0000000000E+00   0.0000000000E+00   0.0000000000E+00   0.9003366923E-01
   0.2466128685E+00   0.0000000000E+00   0.8661460806E-04   0.0000000000E+00   0.6929168644E-03   0.0000000000E+00   0.1281478803E+00   0.3361829690E-01   0.4852985315E-01  -0.2905986458E-02   0.0000000000E+00   0.0000000000E+00   0.1035034352E-02  -0.1938502312E-03  -0.3777782395E-04   0.0000000000E+00   0.0000000000E+00   0.0000000000E+00   0.8794048203E-01
   0.2572980868E+00   0.1801668404E-01   0.8766242762E-04  -0.4038623832E-06   0.7012994210E-03  -0.3230899066E-05   0.1356039769E+00   0.3463218851E-01   0.5107084961E-01  -0.7218514750E-02   0.0000000000E+00   0.0000000000E+00   0.1098930654E-02  -0.2137025943E-03  -0.9384069175E-04   0.0000000000E+00   0.0000000000E+00   0.0000000000E+00   0.9479582379E-01
   0.2997176257E+00   0.8659445074E-01   0.9115108225E-04  -0.2834995102E-05   0.7292086580E-03  -0.2267996082E-04   0.1828443013E+00   0.2671146498E-01   0.6286672989E-01  -0.1282180285E-01   0.0000000000E+00   0.0000000000E+00   0.1559708429E-02  -0.4700184438E-03  -0.1666834371E-03   0.0000000000E+00   0.0000000000E+00   0.0000000000E+00   0.1432742649E+00
   0.3170053237E+00   0.9618963776E-01   0.9388252582E-04  -0.3306704314E-05   0.7510602066E-03  -0.2645363451E-04   0.1902265679E+00   0.2621606763E-01   0.6493279065E-01  -0.8758350777E-02   0.0000000000E+00   0.0000000000E+00   0.1628819104E-02  -0.5033173992E-03  -0.1138585601E-03   0.0000000000E+00   0.0000000000E+00   0.0000000000E+00   0.1492507400E+00
   0.3000998014E+00   0.1058494110E+00   0.9041160451E-04  -0.3945999953E-05   0.7232928361E-03  -0.3156799962E-04   0.1971492926E+00   0.2171234446E-01   0.6565849111E-01  -0.1321539665E-01   0.0000000000E+00   0.0000000000E+00   0.1709380419E-02  -0.5712999064E-03  -0.1718001564E-03   0.0000000000E+00   0.0000000000E+00   0.0000000000E+00   0.1597545916E+00
   0.1943460635E+00   0.1782778491E-01   0.8086283346E-04  -0.4171990993E-06   0.6469026677E-03  -0.3337592795E-05   0.9648195949E-01   0.1543462258E-01   0.3357497462E-01  -0.1545696248E-01   0.0000000000E+00   0.0000000000E+00   0.8177908033E-03  -0.2358245766E-03  -0.2009405123E-03   0.0000000000E+00   0.0000000000E+00   0.0000000000E+00   0.7914006729E-01
   0.2049070302E+00   0.0000000000E+00   0.8226269061E-04   0.0000000000E+00   0.6581015248E-03   0.0000000000E+00   0.1001027385E+00   0.2159995752E-01   0.3651080881E-01  -0.5212258264E-02   0.0000000000E+00   0.0000000000E+00   0.8266950862E-03  -0.1938410668E-03  -0.6775935743E-04   0.0000000000E+00   0.0000000000E+00   0.0000000000E+00   0.7210805519E-01
   0.2153113062E+00   0.1790646004E-01   0.8289880062E-04  -0.4009839229E-06   0.6631904050E-03  -0.3207871383E-05   0.1127728793E+00   0.2411082643E-01   0.4106511173E-01  -0.1218792136E-01   0.0000000000E+00   0.0000000000E+00   0.9322009790E-03  -0.2204057090E-03  -0.1584429777E-03   0.0000000000E+00   0.0000000000E+00   0.0000000000E+00   0.8461962851E-01
   0.1327488678E+00   0.4105303933E-01   0.7271220213E-04  -0.2975130336E-05   0.5816976170E-03  -0.2380104269E-04   0.6819564058E-01  -0.5580264046E-01   0.3717900035E-02  -0.5226237140E-01   0.0000000000E+00   0.0000000000E+00   0.8382106271E-03  -0.7737670265E-03  -0.6794108282E-03   0.0000000000E+00   0.0000000000E+00   0.0000000000E+00   0.1408582071E+00
   0.1256872472E+00   0.5985758370E-01   0.6669990856E-04  -0.5398455227E-05   0.5335992685E-03  -0.4318764182E-04   0.1162034396E+00  -0.6345577643E-01   0.1582429895E-01  -0.6877938921E-01   0.0000000000E+00   0.0000000000E+00   0.1304928828E-02  -0.1030640980E-02  -0.8941320597E-03   0.0000000000E+00   0.0000000000E+00   0.0000000000E+00   0.1969247378E+00
   0.1136414902E+00   0.3918634750E-01   0.7163702634E-04  -0.4967444060E-05   0.5730962108E-03  -0.3973955248E-04   0.3558794017E-01  -0.9245765267E-01  -0.1706091375E-01  -0.3516831512E-01   0.0000000000E+00   0.0000000000E+00   0.6844351009E-03  -0.9801576060E-03  -0.4571880965E-03   0.0000000000E+00   0.0000000000E+00   0.0000000000E+00   0.1294970189E+00
   0.1734371550E+00   0.1762616465E-01   0.7913089277E-04  -0.4695721429E-06   0.6330471422E-03  -0.3756577143E-05   0.7606681875E-01   0.3770183788E-02   0.2395110076E-01  -0.1933076217E-01   0.0000000000E+00   0.0000000000E+00   0.6775043339E-03  -0.2623519207E-03  -0.2512999081E-03   0.0000000000E+00   0.0000000000E+00   0.0000000000E+00   0.7371733694E-01
   0.1840579480E+00   0.0000000000E+00   0.8051233002E-04   0.0000000000E+00   0.6440986402E-03   0.0000000000E+00   0.7924485396E-01   0.1141986981E-01   0.2719941713E-01  -0.7379065461E-02   0.0000000000E+00   0.0000000000E+00   0.6765906788E-03  -0.2051341151E-03  -0.9592785099E-04   0.0000000000E+00   0.0000000000E+00   0.0000000000E+00   0.6181677170E-01
   0.9302082272E-01   0.3817792596E-01   0.7031898010E-04  -0.1004629308E-04   0.5625518408E-03  -0.8037034466E-04  -0.1639722171E-02  -0.1660644467E+00  -0.5031125065E-01   0.1423681521E-01   0.0000000000E+00   0.0000000000E+00   0.6327298702E-03  -0.1504791548E-02   0.1850785977E-03   0.0000000000E+00   0.0000000000E+00   0.0000000000E+00   0.1415910902E+00
   0.3314032818E+00   0.2498367265E+00   0.9419153145E-04  -0.1814150357E-04   0.7535322516E-03  -0.1451320286E-03   0.2945886872E+00   0.2562967942E-03   0.8845349520E-01  -0.1296097618E-04   0.0000000000E+00   0.0000000000E+00   0.2679757496E-02  -0.1146563579E-02  -0.1684926904E-06   0.0000000000E+00   0.0000000000E+00   0.0000000000E+00   0.2616276349E+00
   0.3508999940E+00   0.2306283996E+00   0.1000000000E-03  -0.1564803975E-04   0.8000000000E-03  -0.1251843180E-03   0.2875447922E+00   0.1808739910E-03   0.8631769986E-01  -0.3958009320E-03   0.0000000000E+00   0.0000000000E+00   0.2615952201E-02  -0.1119778736E-02  -0.5145412117E-05   0.0000000000E+00   0.0000000000E+00   0.0000000000E+00   0.2554377094E+00
   0.3508999940E+00   0.2498369479E+00   0.1000000000E-03  -0.1811690379E-04   0.8000000000E-03  -0.1449352303E-03   0.2994394501E+00  -0.1084821455E-02   0.8950638859E-01   0.1080241537E-02   0.0000000000E+00   0.0000000000E+00   0.2729129799E-02  -0.1177685731E-02   0.1404313998E-04   0.0000000000E+00   0.0000000000E+00   0.0000000000E+00   0.2670149679E+00
   0.3248948949E+00   0.2322152205E+00   0.9244899176E-04  -0.1596961045E-04   0.7395919341E-03  -0.1277568836E-03   0.2879253214E+00   0.5626767604E-03   0.8654639945E-01  -0.2296282815E-02   0.0000000000E+00   0.0000000000E+00   0.2617925985E-02  -0.1117788395E-02  -0.2985167659E-04   0.0000000000E+00   0.0000000000E+00   0.0000000000E+00   0.2554932059E+00
   0.3119062759E+00   0.2498347883E+00   0.8835043679E-04  -0.1835685885E-04   0.7068034943E-03  -0.1468548708E-03   0.2985732447E+00   0.1224089638E-02   0.8993920030E-01  -0.2564651151E-03   0.0000000000E+00   0.0000000000E+00   0.2712242577E-02  -0.1153296439E-02  -0.3334046496E-05   0.0000000000E+00   0.0000000000E+00   0.0000000000E+00   0.2643958956E+00
   0.2840572585E+00   0.1996101946E+00   0.8197283816E-04  -0.1274481796E-04   0.6557827053E-03  -0.1019585437E-03   0.2717181248E+00   0.2754521207E-02   0.8234179379E-01  -0.8454573261E-02   0.0000000000E+00   0.0000000000E+00   0.2461892303E-02  -0.1034634544E-02  -0.1099094524E-03   0.0000000000E+00   0.0000000000E+00   0.0000000000E+00   0.2397481196E+00
   0.2736628390E+00   0.2160298664E+00   0.7821489395E-04  -0.1499395812E-04   0.6257191516E-03  -0.1199516649E-03   0.2844118181E+00   0.8057652635E-03   0.8556527500E-01  -0.7201073687E-02   0.0000000000E+00   0.0000000000E+00   0.2585005060E-02  -0.1101873627E-02  -0.9361395793E-04   0.0000000000E+00   0.0000000000E+00   0.0000000000E+00   0.2524481501E+00
   0.2640218598E+00   0.1993648974E+00   0.7648453726E-04  -0.1332028604E-04   0.6118762981E-03  -0.1065622883E-03   0.2742022946E+00   0.1198340143E-02   0.8262019042E-01  -0.9995646145E-02   0.0000000000E+00   0.0000000000E+00   0.2490567354E-02  -0.1058484054E-02  -0.1299433999E-03   0.0000000000E+00   0.0000000000E+00   0.0000000000E+00   0.2433716325E+00
   0.3164077788E+00   0.1922781191E+00   0.9093119617E-04  -0.1136598808E-04   0.7274495694E-03  -0.9092790465E-04   0.2622937809E+00   0.4260593565E-02   0.7996631233E-01  -0.5450043689E-02   0.0000000000E+00   0.0000000000E+00   0.2370257091E-02  -0.9841743440E-03  -0.7085056795E-04   0.0000000000E+00   0.0000000000E+00   0.0000000000E+00   0.2299362417E+00
   0.3339718560E+00   0.1825055549E+00   0.9568844018E-04  -0.1017834764E-04   0.7655075214E-03  -0.8142678111E-04   0.2557924860E+00   0.6921528581E-02   0.7881420438E-01  -0.3073720176E-02   0.0000000000E+00   0.0000000000E+00   0.2300717661E-02  -0.9346047854E-03  -0.3995836228E-04   0.0000000000E+00   0.0000000000E+00   0.0000000000E+00   0.2219101386E+00
   0.3339907133E+00   0.2015149301E+00   0.9544247375E-04  -0.1224042933E-04   0.7635397900E-03  -0.9792343461E-04   0.2700563552E+00   0.3999194287E-02   0.8221666484E-01  -0.2649336708E-02   0.0000000000E+00   0.0000000000E+00   0.2441915975E-02  -0.1016827117E-02  -0.3444137720E-04   0.0000000000E+00   0.0000000000E+00   0.0000000000E+00   0.2368946377E+00
   0.3340730537E+00   0.1633373260E+00   0.9598519135E-04  -0.8281110182E-05   0.7678815308E-03  -0.6624888146E-04   0.2412051137E+00   0.1068956494E-01   0.7556840359E-01  -0.3650310071E-02   0.0000000000E+00   0.0000000000E+00   0.2153277231E-02  -0.8434249025E-03  -0.4745403092E-04   0.0000000000E+00   0.0000000000E+00   0.0000000000E+00   0.2059920378E+00
   0.3508999940E+00   0.1729943272E+00   0.1000000000E-03  -0.9177871342E-05   0.8000000000E-03  -0.7342297074E-04   0.2482668052E+00   0.8709766513E-02   0.7709297153E-01   0.5429885235E-04   0.0000000000E+00   0.0000000000E+00   0.2225259838E-02  -0.8889816652E-03   0.7058850806E-06   0.0000000000E+00   0.0000000000E+00   0.0000000000E+00   0.2137389252E+00
   0.3508999940E+00   0.1537797444E+00   0.1000000000E-03  -0.7379511093E-05   0.8000000000E-03  -0.5903608874E-04   0.2336852510E+00   0.1295733827E-01   0.7399277679E-01   0.1899930831E-04   0.0000000000E+00   0.0000000000E+00   0.2076002165E-02  -0.7934607007E-03   0.2469910080E-06   0.0000000000E+00   0.0000000000E+00   0.0000000000E+00   0.1974185911E+00
   0.2684401858E+00   0.3628608213E-01   0.8853264907E-04  -0.8862074536E-06   0.7082611926E-03  -0.7089659629E-05   0.1461247716E+00   0.3380478590E-01   0.5397886724E-01  -0.1254589023E-01   0.0000000000E+00   0.0000000000E+00   0.1197896756E-02  -0.2622630574E-03  -0.1630965730E-03   0.0000000000E+00   0.0000000000E+00   0.0000000000E+00   0.1058604499E+00
   0.3172343775E+00   0.1345744809E+00   0.9280894746E-04  -0.5888344265E-05   0.7424715797E-03  -0.4710675412E-04   0.2193999095E+00   0.1624407099E-01   0.7069319414E-01  -0.8308105415E-02   0.0000000000E+00   0.0000000000E+00   0.1933187299E-02  -0.7078386010E-03  -0.1080053704E-03   0.0000000000E+00   0.0000000000E+00   0.0000000000E+00   0.1827047664E+00
   0.3172175282E+00   0.1154158589E+00   0.9337391188E-04  -0.4489895082E-05   0.7469912950E-03  -0.3591916066E-04   0.2044470954E+00   0.2113819422E-01   0.6767558690E-01  -0.8733385430E-02   0.0000000000E+00   0.0000000000E+00   0.1778029611E-02  -0.6049861048E-03  -0.1135340106E-03   0.0000000000E+00   0.0000000000E+00   0.0000000000E+00   0.1657202194E+00
   0.3341108355E+00   0.1249725655E+00   0.9656050119E-04  -0.5098057489E-05   0.7724840095E-03  -0.4078445992E-04   0.2115780519E+00   0.1970121901E-01   0.6938378126E-01  -0.4244997313E-02   0.0000000000E+00   0.0000000000E+00   0.1848525518E-02  -0.6458733093E-03  -0.5518496507E-04   0.0000000000E+00   0.0000000000E+00   0.0000000000E+00   0.1726422596E+00
   0.3508999940E+00   0.9612450812E-01   0.1000000000E-03  -0.3259976031E-05   0.8000000000E-03  -0.2607980825E-04   0.1904363854E+00   0.2749175556E-01   0.6537844228E-01  -0.1811199525E-03   0.0000000000E+00   0.0000000000E+00   0.1625753260E-02  -0.4925269273E-03  -0.2354559383E-05   0.0000000000E+00   0.0000000000E+00   0.0000000000E+00   0.1476823221E+00
   0.3340711580E+00   0.1057568337E+00   0.9683089282E-04  -0.3827144101E-05   0.7746471425E-03  -0.3061715281E-04   0.1972107304E+00   0.2470351463E-01   0.6657427352E-01  -0.4295913773E-02   0.0000000000E+00   0.0000000000E+00   0.1698273940E-02  -0.5443198655E-03  -0.5584687905E-04   0.0000000000E+00   0.0000000000E+00   0.0000000000E+00   0.1560202271E+00
   0.3508999940E+00   0.7690231026E-01   0.1000000000E-03  -0.2307727201E-05   0.8000000000E-03  -0.1846181761E-04   0.1779464759E+00   0.3224278950E-01   0.6305677963E-01  -0.1571314824E-03   0.0000000000E+00   0.0000000000E+00   0.1493566052E-02  -0.4005818717E-03  -0.2042709272E-05   0.0000000000E+00   0.0000000000E+00   0.0000000000E+00   0.1329923265E+00
   0.3327313936E+00   0.4722349408E-01   0.9732751395E-04  -0.1196580282E-05   0.7786201116E-03  -0.9572642254E-05   0.1617270243E+00   0.3828764496E-01   0.6000440077E-01  -0.3149264670E-02   0.0000000000E+00   0.0000000000E+00   0.1322394106E-02  -0.2823178256E-03  -0.4094044071E-04   0.0000000000E+00   0.0000000000E+00   0.0000000000E+00   0.1142663298E+00
   0.3508999940E+00   0.5767845759E-01   0.1000000000E-03  -0.1538934116E-05   0.8000000000E-03  -0.1231147293E-04   0.1670576625E+00   0.3632608169E-01   0.6101512327E-01  -0.9960112618E-04   0.0000000000E+00   0.0000000000E+00   0.1378553011E-02  -0.3209575405E-03  -0.1294814640E-05   0.0000000000E+00   0.0000000000E+00   0.0000000000E+00   0.1202910742E+00
   0.0000000000E+00   0.2495548802E+00   0.0000000000E+00  -0.4945776087E-04   0.0000000000E+00  -0.3956620870E-03   0.1684269177E+00   0.6325355638E-02   0.5242568200E-01   0.8256643437E-02   0.0000000000E+00   0.0000000000E+00   0.1508016064E-02  -0.5993042427E-03   0.1073363647E-03   0.0000000000E+00   0.0000000000E+00   0.0000000000E+00   0.1449281554E+00
   0.3895511052E-01   0.2495722326E+00   0.7357802020E-05  -0.4752971173E-04   0.5886241616E-04  -0.3802376938E-03   0.1944828909E+00  -0.7722675596E-03   0.5811318701E-01   0.5440243932E-02   0.0000000000E+00   0.0000000000E+00   0.1772806151E-02  -0.7655109094E-03   0.7072317112E-04   0.0000000000E+00   0.0000000000E+00   0.0000000000E+00   0.1735367575E+00
   0.5572059944E-01   0.1228646495E+00   0.2389837062E-04  -0.3039905284E-04   0.1911869650E-03  -0.2431924227E-03   0.3886082629E+00   0.2360260586E-01   0.1236632606E+00  -0.4730134773E-02   0.0000000000E+00   0.0000000000E+00   0.3444285030E-02  -0.1300788512E-02  -0.6149175205E-04   0.0000000000E+00   0.0000000000E+00   0.0000000000E+00   0.3241784777E+00
   0.6796062249E-01   0.2325927990E+00   0.1582448774E-04  -0.4199066471E-04   0.1265959019E-03  -0.3359253177E-03   0.2535209337E+00   0.5999628348E-03   0.7623626896E-01   0.1690828396E-01   0.0000000000E+00   0.0000000000E+00   0.2304700642E-02  -0.9832719796E-03   0.2198076915E-03   0.0000000000E+00   0.0000000000E+00   0.0000000000E+00   0.2269148116E+00
   0.5843680142E-01   0.2495934633E+00   0.1149642408E-04  -0.4517074934E-04   0.9197139268E-04  -0.3613659947E-03   0.2219173882E+00  -0.4310243196E-03   0.6644590915E-01   0.6704826693E-02   0.0000000000E+00   0.0000000000E+00   0.2021129227E-02  -0.8694001351E-03   0.8716274701E-04   0.0000000000E+00   0.0000000000E+00   0.0000000000E+00   0.1976479736E+00
   0.7792269809E-01   0.2496200872E+00   0.1610194302E-04  -0.4221253647E-04   0.1288155442E-03  -0.3377002918E-03   0.2465141218E+00  -0.5246826591E-03   0.7379683173E-01   0.7609350229E-02   0.0000000000E+00   0.0000000000E+00   0.2245324770E-02  -0.9661796871E-03   0.9892155297E-04   0.0000000000E+00   0.0000000000E+00   0.0000000000E+00   0.2196875529E+00
   0.1266658957E+00   0.2328434730E+00   0.3215730460E-04  -0.3172133343E-04   0.2572584368E-03  -0.2537706675E-03   0.2950802056E+00  -0.2431396271E-02   0.8779464278E-01   0.1122547733E-01   0.0000000000E+00   0.0000000000E+00   0.2694712316E-02  -0.1172938508E-02   0.1459312053E-03   0.0000000000E+00   0.0000000000E+00   0.0000000000E+00   0.2649848213E+00
   0.1169072279E+00   0.2496799531E+00   0.2672899411E-04  -0.3556076233E-04   0.2138319529E-03  -0.2844860987E-03   0.2913173196E+00  -0.6875801799E-03   0.8718892182E-01   0.5607620249E-02   0.0000000000E+00   0.0000000000E+00   0.2653669171E-02  -0.1142394526E-02   0.7289906324E-04   0.0000000000E+00   0.0000000000E+00   0.0000000000E+00   0.2595144286E+00
   0.1364047970E+00   0.2497091374E+00   0.3263188493E-04  -0.3231806522E-04   0.2610550795E-03  -0.2585445218E-03   0.3075686319E+00  -0.5726486116E-03   0.9209879500E-01   0.4076437990E-02   0.0000000000E+00   0.0000000000E+00   0.2801107880E-02  -0.1204728767E-02   0.5299369387E-04   0.0000000000E+00   0.0000000000E+00   0.0000000000E+00   0.2738451214E+00
   0.1364217217E+00   0.2159805093E+00   0.3725752590E-04  -0.2782107648E-04   0.2980602072E-03  -0.2225686118E-03   0.2967125075E+00  -0.7169815846E-02   0.8686280751E-01   0.1564462052E-01   0.0000000000E+00   0.0000000000E+00   0.2728046100E-02  -0.1222424104E-02   0.2033800667E-03   0.0000000000E+00   0.0000000000E+00   0.0000000000E+00   0.2707665428E+00
   0.1851736384E+00   0.2328919939E+00   0.5021115937E-04  -0.2324557095E-04   0.4016892750E-03  -0.1859645676E-03   0.3096908808E+00  -0.1972611726E-02   0.9231548072E-01   0.6662701859E-03   0.0000000000E+00   0.0000000000E+00   0.2825880201E-02  -0.1225745202E-02   0.8661512417E-05   0.0000000000E+00   0.0000000000E+00   0.0000000000E+00   0.2768351673E+00
   0.1754061250E+00   0.2497593709E+00   0.4512533631E-04  -0.2673656327E-04   0.3610026904E-03  -0.2138925062E-03   0.3238036344E+00  -0.2108715680E-03   0.9707782886E-01   0.9592303668E-03   0.0000000000E+00   0.0000000000E+00   0.2947435472E-02  -0.1264753106E-02   0.1246999477E-04   0.0000000000E+00   0.0000000000E+00   0.0000000000E+00   0.2879712239E+00
   0.2046768963E+00   0.2329131262E+00   0.5630814867E-04  -0.2125353871E-04   0.4504651894E-03  -0.1700283097E-03   0.3086746513E+00  -0.1399161818E-02   0.9218264685E-01  -0.1659919824E-02   0.0000000000E+00   0.0000000000E+00   0.2814396058E-02  -0.1216563513E-02  -0.2157895771E-04   0.0000000000E+00   0.0000000000E+00   0.0000000000E+00   0.2754875104E+00
   0.1949080340E+00   0.2497792253E+00   0.5150955272E-04  -0.2453052379E-04   0.4120764218E-03  -0.1962441903E-03   0.3247607171E+00   0.5074921657E-05   0.9742973760E-01  -0.2105276821E-03   0.0000000000E+00   0.0000000000E+00   0.2955302733E-02  -0.1266520615E-02  -0.2736859868E-05   0.0000000000E+00   0.0000000000E+00   0.0000000000E+00   0.2886493672E+00
   0.2241787275E+00   0.2329392442E+00   0.6236094008E-04  -0.1966609174E-04   0.4988875206E-03  -0.1573287339E-03   0.3059051485E+00  -0.8152296514E-03   0.9152697566E-01  -0.3118812411E-02   0.0000000000E+00   0.0000000000E+00   0.2786916247E-02  -0.1200448669E-02  -0.4054456135E-04   0.0000000000E+00   0.0000000000E+00   0.0000000000E+00   0.2726012128E+00
   0.2144097663E+00   0.2497954805E+00   0.5787581347E-04  -0.2272439270E-04   0.4630065078E-03  -0.1817951416E-03   0.3224150820E+00   0.1970560478E-03   0.9678364141E-01  -0.9986224113E-03   0.0000000000E+00   0.0000000000E+00   0.2933208728E-02  -0.1255625610E-02  -0.1298209135E-04   0.0000000000E+00   0.0000000000E+00   0.0000000000E+00   0.2864117543E+00
   0.2436941410E+00   0.2329613437E+00   0.6834822368E-04  -0.1843414761E-04   0.5467857894E-03  -0.1474731809E-03   0.3021092619E+00  -0.3127571419E-03   0.9053895144E-01  -0.3782482047E-02   0.0000000000E+00   0.0000000000E+00   0.2750414036E-02  -0.1181072212E-02  -0.4917226661E-04   0.0000000000E+00   0.0000000000E+00   0.0000000000E+00   0.2688547092E+00
   0.2339108811E+00   0.2498084133E+00   0.6417189818E-04  -0.2128741004E-04   0.5133751855E-03  -0.1702992803E-03   0.3180289087E+00   0.3372498387E-03   0.9550984757E-01  -0.1406870068E-02   0.0000000000E+00   0.0000000000E+00   0.2892747795E-02  -0.1237243771E-02  -0.1828931089E-04   0.0000000000E+00   0.0000000000E+00   0.0000000000E+00   0.2824008833E+00
   0.2633723041E+00   0.2329061876E+00   0.7430734189E-04  -0.1749115819E-04   0.5944587351E-03  -0.1399292655E-03   0.2979580026E+00   0.6151175705E-04   0.8940585431E-01  -0.3815597342E-02   0.0000000000E+00   0.0000000000E+00   0.2711177928E-02  -0.1161476453E-02  -0.4960276544E-04   0.0000000000E+00   0.0000000000E+00   0.0000000000E+00   0.2648674111E+00
   0.2534111149E+00   0.2498184113E+00   0.7036998968E-04  -0.2017652559E-04   0.5629599174E-03  -0.1614122047E-03   0.3127486544E+00   0.4564263878E-03   0.9396152423E-01  -0.1493902310E-02   0.0000000000E+00   0.0000000000E+00   0.2844232692E-02  -0.1215566272E-02  -0.1942073002E-04   0.0000000000E+00   0.0000000000E+00   0.0000000000E+00   0.2776116091E+00
   0.2832990375E+00   0.2327137633E+00   0.8026194488E-04  -0.1678485799E-04   0.6420955590E-03  -0.1342788639E-03   0.2940392673E+00   0.3599058002E-03   0.8831975193E-01  -0.3365405068E-02   0.0000000000E+00   0.0000000000E+00   0.2674353700E-02  -0.1143478000E-02  -0.4375026589E-04   0.0000000000E+00   0.0000000000E+00   0.0000000000E+00   0.2611253047E+00
   0.2729103726E+00   0.2498258835E+00   0.7646129132E-04  -0.1934627401E-04   0.6116903305E-03  -0.1547701921E-03   0.3073405240E+00   0.5442175515E-03   0.9236542248E-01  -0.1360424287E-02   0.0000000000E+00   0.0000000000E+00   0.2794676320E-02  -0.1193675664E-02  -0.1768551573E-04   0.0000000000E+00   0.0000000000E+00   0.0000000000E+00   0.2727350642E+00
   0.3037339935E+00   0.2322007969E+00   0.8629639206E-04  -0.1625101137E-04   0.6903711365E-03  -0.1300080910E-03   0.2901881938E+00   0.6100193381E-03   0.8723946393E-01  -0.2643560173E-02   0.0000000000E+00   0.0000000000E+00   0.2638333488E-02  -0.1126182780E-02  -0.3436628225E-04   0.0000000000E+00   0.0000000000E+00   0.0000000000E+00   0.2574755881E+00
   0.2924087139E+00   0.2498312127E+00   0.8245076167E-04  -0.1875414357E-04   0.6596060934E-03  -0.1500331486E-03   0.3025657802E+00   0.7241572322E-03   0.9098698123E-01  -0.1083603764E-02   0.0000000000E+00   0.0000000000E+00   0.2750524387E-02  -0.1173416712E-02  -0.1408684893E-04   0.0000000000E+00   0.0000000000E+00   0.0000000000E+00   0.2683486295E+00
   0.1657383513E+00   0.1645496673E+00   0.5264492073E-04  -0.1610441091E-04   0.4211593658E-03  -0.1288352873E-03   0.2788857453E+00  -0.2454016499E-01   0.7630367409E-01  -0.6541568135E-02   0.0000000000E+00   0.0000000000E+00   0.2633566926E-02  -0.1310969908E-02  -0.8504038576E-04   0.0000000000E+00   0.0000000000E+00   0.0000000000E+00   0.2677995775E+00
   0.1557923593E+00   0.1820672440E+00   0.4731992262E-04  -0.1998588413E-04   0.3785593810E-03  -0.1598870730E-03   0.2899318564E+00  -0.2022746554E-01   0.8091131725E-01   0.4330499238E-02   0.0000000000E+00   0.0000000000E+00   0.2717267009E-02  -0.1314804176E-02   0.5629649009E-04   0.0000000000E+00   0.0000000000E+00   0.0000000000E+00   0.2740324498E+00
   0.1456570976E+00   0.1646530161E+00   0.4663629242E-04  -0.1884354062E-04   0.3730903393E-03  -0.1507483250E-03   0.2896484803E+00  -0.2968455347E-01   0.7798917805E-01   0.1301386004E-02   0.0000000000E+00   0.0000000000E+00   0.2751570929E-02  -0.1399758510E-02   0.1691801805E-04   0.0000000000E+00   0.0000000000E+00   0.0000000000E+00   0.2813344094E+00
   0.2257588674E+00   0.0000000000E+00   0.8431926674E-04   0.0000000000E+00   0.6745541339E-03   0.0000000000E+00   0.1160850071E+00   0.2870917564E-01   0.4343825482E-01  -0.3889819872E-02   0.0000000000E+00   0.0000000000E+00   0.9444077796E-03  -0.1914780294E-03  -0.5056765833E-04   0.0000000000E+00   0.0000000000E+00   0.0000000000E+00   0.8090633257E-01
   0.1620547614E+00   0.7201864424E-01   0.6945749155E-04  -0.3959729420E-05   0.5556599324E-03  -0.3167783536E-04   0.1573933275E+00  -0.3125837002E-01   0.3784048724E-01  -0.6243830147E-01   0.0000000000E+00   0.0000000000E+00   0.1554186923E-02  -0.8982851444E-03  -0.8116979191E-03   0.0000000000E+00   0.0000000000E+00   0.0000000000E+00   0.1973687050E+00
   0.1837035166E+00   0.7142111692E-01   0.7319340108E-04  -0.3153219885E-05   0.5855472086E-03  -0.2522575908E-04   0.1580797202E+00  -0.1042546953E-01   0.4429627520E-01  -0.5132964436E-01   0.0000000000E+00   0.0000000000E+00   0.1479184785E-02  -0.7113826816E-03  -0.6672853767E-03   0.0000000000E+00   0.0000000000E+00   0.0000000000E+00   0.1733230570E+00
   0.1731606615E+00   0.9029492976E-01   0.6765671972E-04  -0.5340149371E-05   0.5412537578E-03  -0.4272119497E-04   0.1947803402E+00  -0.2477223927E-01   0.5100243028E-01  -0.5045623485E-01   0.0000000000E+00   0.0000000000E+00   0.1869112829E-02  -0.9850707041E-03  -0.6559310531E-03   0.0000000000E+00   0.0000000000E+00   0.0000000000E+00   0.2120552431E+00
   0.1742995821E-01   0.2037082799E+00   0.4587189689E-05  -0.4493656316E-04   0.3669751751E-04  -0.3594925053E-03   0.2704784818E+00   0.2119729670E-01   0.8750273356E-01   0.1131546460E-01   0.0000000000E+00   0.0000000000E+00   0.2378684727E-02  -0.8619706791E-03   0.1471010398E-03   0.0000000000E+00   0.0000000000E+00   0.0000000000E+00   0.2247720714E+00
   0.0000000000E+00   0.1933495321E+00   0.0000000000E+00  -0.4449576948E-04   0.0000000000E+00  -0.3559661559E-03   0.2846204672E+00   0.2962916475E-01   0.9427488957E-01   0.6860350561E-02   0.0000000000E+00   0.0000000000E+00   0.2474492509E-02  -0.8403944227E-03   0.8918455729E-04   0.0000000000E+00   0.0000000000E+00   0.0000000000E+00   0.2297960391E+00
   0.1687636121E-01   0.1841389660E+00   0.4818757143E-05  -0.4308944962E-04   0.3855005715E-04  -0.3447155969E-03   0.2992889443E+00   0.3453581995E-01   0.1001474293E+00   0.1279792459E-01   0.0000000000E+00   0.0000000000E+00   0.2588839695E-02  -0.8529509212E-03   0.1663730197E-03   0.0000000000E+00   0.0000000000E+00   0.0000000000E+00   0.2402252772E+00
   0.0000000000E+00   0.1746149011E+00   0.0000000000E+00  -0.4278843599E-04   0.0000000000E+00  -0.3423074879E-03   0.3147112793E+00   0.4719341369E-01   0.1085714079E+00   0.8225694179E-02   0.0000000000E+00   0.0000000000E+00   0.2679818328E-02  -0.7979139247E-03   0.1069340243E-03   0.0000000000E+00   0.0000000000E+00   0.0000000000E+00   0.2429523215E+00
   0.1695443815E-01   0.1649526674E+00   0.5289017049E-05  -0.4127929360E-04   0.4231213639E-04  -0.3302343488E-03   0.3312619253E+00   0.4889866957E-01   0.1140481785E+00   0.1304969451E-01   0.0000000000E+00   0.0000000000E+00   0.2823778709E-02  -0.8469436156E-03   0.1696460287E-03   0.0000000000E+00   0.0000000000E+00   0.0000000000E+00   0.2573986936E+00
   0.3388825588E-01   0.1746243394E+00   0.1014538663E-04  -0.4058906859E-04   0.8116309307E-04  -0.3247125487E-03   0.3154088287E+00   0.3285301850E-01   0.1044785542E+00   0.2699799581E-01   0.0000000000E+00   0.0000000000E+00   0.2742093569E-02  -0.9311319636E-03   0.3509739456E-03   0.0000000000E+00   0.0000000000E+00   0.0000000000E+00   0.2587068498E+00
   0.3468939937E-01   0.1548957530E+00   0.1151145197E-04  -0.3842177743E-04   0.9209161575E-04  -0.3073742194E-03   0.3487153646E+00   0.4392179154E-01   0.1177911468E+00   0.2417681312E-01   0.0000000000E+00   0.0000000000E+00   0.3002014831E-02  -0.9603016188E-03   0.3142985705E-03   0.0000000000E+00   0.0000000000E+00   0.0000000000E+00   0.2787698277E+00
   0.3381820346E-01   0.1938707160E+00   0.9337173269E-05  -0.4258333161E-04   0.7469738615E-04  -0.3406666528E-03   0.2873819855E+00   0.1965294676E-01   0.9211047969E-01   0.2452891840E-01   0.0000000000E+00   0.0000000000E+00   0.2538529576E-02  -0.9419479281E-03   0.3188759392E-03   0.0000000000E+00   0.0000000000E+00   0.0000000000E+00   0.2435799929E+00
   0.5401597662E-01   0.1447058794E+00   0.1916509064E-04  -0.3383695617E-04   0.1533207251E-03  -0.2706956494E-03   0.3577979521E+00   0.2118155164E-01   0.1136938511E+00   0.2522382811E-01   0.0000000000E+00   0.0000000000E+00   0.3173353313E-02  -0.1202659893E-02   0.3279097654E-03   0.0000000000E+00   0.0000000000E+00   0.0000000000E+00   0.3044928159E+00
   0.9734404069E-01   0.2158176902E+00   0.2568378723E-04  -0.3482231031E-04   0.2054702978E-03  -0.2785784825E-03   0.2843763073E+00  -0.4283845453E-02   0.8402773856E-01   0.2700603447E-01   0.0000000000E+00   0.0000000000E+00   0.2604531394E-02  -0.1148050592E-02   0.3510784481E-03   0.0000000000E+00   0.0000000000E+00   0.0000000000E+00   0.2602934950E+00
   0.1423704159E+00   0.0000000000E+00   0.7819443345E-04   0.0000000000E+00   0.6255554676E-03   0.0000000000E+00   0.2309741398E-01  -0.3667205785E-01  -0.4072393161E-02  -0.2387183216E-01   0.0000000000E+00   0.0000000000E+00   0.3532074929E-03  -0.4237956410E-03  -0.3103338180E-03   0.0000000000E+00   0.0000000000E+00   0.0000000000E+00   0.6157586101E-01
   0.1527515761E+00   0.1777900246E-01   0.7771078703E-04  -0.7156151622E-06   0.6216862962E-03  -0.5724921298E-05   0.5139244826E-01  -0.2084104316E-01   0.9165421532E-02  -0.1915400708E-01   0.0000000000E+00   0.0000000000E+00   0.5489513475E-03  -0.3900840409E-03  -0.2490020921E-03   0.0000000000E+00   0.0000000000E+00   0.0000000000E+00   0.7360834163E-01
   0.1632123468E+00   0.0000000000E+00   0.7915031555E-04   0.0000000000E+00   0.6332025244E-03   0.0000000000E+00   0.5077728097E-01  -0.8940183249E-02   0.1255112932E-01  -0.1017116336E-01   0.0000000000E+00   0.0000000000E+00   0.4969399715E-03  -0.2793870634E-03  -0.1322251236E-03   0.0000000000E+00   0.0000000000E+00   0.0000000000E+00   0.5498339842E-01
   0.3508999940E+00   0.1153448584E+00   0.1000000000E-03  -0.4417510903E-05   0.8000000000E-03  -0.3534008722E-04   0.2042679929E+00   0.2251434674E-01   0.6803470189E-01  -0.1342359881E-03   0.0000000000E+00   0.0000000000E+00   0.1771032783E-02  -0.5917646169E-03  -0.1745067845E-05   0.0000000000E+00   0.0000000000E+00   0.0000000000E+00   0.1638011243E+00
   0.3508999940E+00   0.1345632760E+00   0.1000000000E-03  -0.5790553006E-05   0.8000000000E-03  -0.4632442405E-04   0.2188054719E+00   0.1757471205E-01   0.7091405518E-01  -0.5700329289E-04   0.0000000000E+00   0.0000000000E+00   0.1922588417E-02  -0.6934114608E-03  -0.7410428076E-06   0.0000000000E+00   0.0000000000E+00   0.0000000000E+00   0.1805662790E+00
   0.3341291743E+00   0.1441706834E+00   0.9628025520E-04  -0.6585067313E-05   0.7702420416E-03  -0.5268053850E-04   0.2264058657E+00   0.1494621828E-01   0.7240562519E-01  -0.3998604573E-02   0.0000000000E+00   0.0000000000E+00   0.2002003127E-02  -0.7469722899E-03  -0.5198185945E-04   0.0000000000E+00   0.0000000000E+00   0.0000000000E+00   0.1895123040E+00
   0.1629335045E+00   0.3473154918E-01   0.7654294237E-04  -0.1238768559E-05   0.6123435390E-03  -0.9910148474E-05   0.8773976856E-01  -0.1037002541E-01   0.2321092294E-01  -0.4205453939E-01   0.0000000000E+00   0.0000000000E+00   0.8388749930E-03  -0.4365523286E-03  -0.5467090121E-03   0.0000000000E+00   0.0000000000E+00   0.0000000000E+00   0.1129221719E+00
   0.1837215194E+00   0.3536329455E-01   0.7847193212E-04  -0.1026483295E-05   0.6277754570E-03  -0.8211866361E-05   0.1020554867E+00   0.3343689076E-02   0.3161975275E-01  -0.3544192021E-01   0.0000000000E+00   0.0000000000E+00   0.9156645420E-03  -0.3675888277E-03  -0.4607449627E-03   0.0000000000E+00   0.0000000000E+00   0.0000000000E+00   0.1072218809E+00
   0.1454709852E+00   0.3343007183E-01   0.7524513134E-04  -0.1729952182E-05   0.6019610507E-03  -0.1383961745E-04   0.5437869484E-01  -0.3651873591E-01   0.5357987679E-02  -0.4922709348E-01   0.0000000000E+00   0.0000000000E+00   0.6372691931E-03  -0.5443974066E-03  -0.6399522152E-03   0.0000000000E+00   0.0000000000E+00   0.0000000000E+00   0.1143749637E+00
   0.2144581024E+00   0.2160289835E+00   0.6090037777E-04  -0.1817339284E-04   0.4872030221E-03  -0.1453871427E-03   0.2949156574E+00  -0.2644454362E-02   0.8768136092E-01  -0.5131942092E-02   0.0000000000E+00   0.0000000000E+00   0.2694045855E-02  -0.1174235599E-02  -0.6671524720E-04   0.0000000000E+00   0.0000000000E+00   0.0000000000E+00   0.2643793974E+00
   0.2897029191E+00   0.3564059569E-01   0.9143323809E-04  -0.8669348658E-06   0.7314659047E-03  -0.6935478927E-05   0.1513883987E+00   0.3699698777E-01   0.5651561593E-01  -0.9252783656E-02   0.0000000000E+00   0.0000000000E+00   0.1233346175E-02  -0.2537421661E-03  -0.1202861875E-03   0.0000000000E+00   0.0000000000E+00   0.0000000000E+00   0.1071814924E+00
   0.2994768081E+00   0.5044031029E-01   0.9238457033E-04  -0.1315979293E-05   0.7390765626E-03  -0.1052783435E-04   0.1597533380E+00   0.3643530415E-01   0.5885659264E-01  -0.9721525323E-02   0.0000000000E+00   0.0000000000E+00   0.1311657689E-02  -0.2914767503E-03  -0.1263798292E-03   0.0000000000E+00   0.0000000000E+00   0.0000000000E+00   0.1149433134E+00
   0.3157024660E+00   0.5753258270E-01   0.9462544989E-04  -0.1553832960E-05   0.7570035991E-03  -0.1243066368E-04   0.1666675160E+00   0.3638182025E-01   0.6091480086E-01  -0.7254762539E-02   0.0000000000E+00   0.0000000000E+00   0.1374785296E-02  -0.3189287480E-03  -0.9431191301E-04   0.0000000000E+00   0.0000000000E+00   0.0000000000E+00   0.1205627809E+00
   0.6720618045E-01   0.1966221293E+00   0.1872318336E-04  -0.3794374760E-04   0.1497854669E-03  -0.3035499808E-03   0.2904176604E+00   0.3594160092E-02   0.8820354616E-01   0.3499393221E-01   0.0000000000E+00   0.0000000000E+00   0.2628783486E-02  -0.1099922019E-02   0.4549211187E-03   0.0000000000E+00   0.0000000000E+00   0.0000000000E+00   0.2624056592E+00
   0.4902888945E-01   0.2010872148E+00   0.1324767214E-04  -0.4139290783E-04   0.1059813772E-03  -0.3311432627E-03   0.2814320060E+00   0.1167424500E-01   0.8793187529E-01   0.3185088930E-01   0.0000000000E+00   0.0000000000E+00   0.2515501699E-02  -0.9913491938E-03   0.4140615609E-03   0.0000000000E+00   0.0000000000E+00   0.0000000000E+00   0.2470883092E+00
   0.7758477452E-01   0.2153165725E+00   0.2012497981E-04  -0.3837616541E-04   0.1609998385E-03  -0.3070093233E-03   0.2764833117E+00  -0.4502924568E-03   0.8280990578E-01   0.2981789497E-01   0.0000000000E+00   0.0000000000E+00   0.2517754277E-02  -0.1082382577E-02   0.3876326346E-03   0.0000000000E+00   0.0000000000E+00   0.0000000000E+00   0.2513338942E+00
   0.8779595772E-01   0.1990993615E+00   0.2456620184E-04  -0.3444661583E-04   0.1965296147E-03  -0.2755729267E-03   0.2924020439E+00  -0.5291218755E-02   0.8613324753E-01   0.3289213739E-01   0.0000000000E+00   0.0000000000E+00   0.2681494352E-02  -0.1188518062E-02   0.4275977861E-03   0.0000000000E+00   0.0000000000E+00   0.0000000000E+00   0.2702234819E+00
   0.1070463047E+00   0.1992092972E+00   0.3033774819E-04  -0.3079464044E-04   0.2427019855E-03  -0.2463571235E-03   0.2960745498E+00  -0.9946560187E-02   0.8583839688E-01   0.2799289384E-01   0.0000000000E+00   0.0000000000E+00   0.2733069988E-02  -0.1245204442E-02   0.3639076199E-03   0.0000000000E+00   0.0000000000E+00   0.0000000000E+00   0.2754472499E+00
   0.1123327914E+00   0.1453851887E+00   0.3915204637E-04  -0.2136358926E-04   0.3132163709E-03  -0.1709087141E-03   0.3113813617E+00  -0.3769607339E-01   0.8210558651E-01   0.6169430620E-02   0.0000000000E+00   0.0000000000E+00   0.2980585078E-02  -0.1557421579E-02   0.8020259807E-04   0.0000000000E+00   0.0000000000E+00   0.0000000000E+00   0.3071139629E+00
   0.1043799448E+00   0.1663403629E+00   0.3333553163E-04  -0.2642512143E-04   0.2666842530E-03  -0.2114009714E-03   0.3110633499E+00  -0.2545044337E-01   0.8568387196E-01   0.2217464967E-01   0.0000000000E+00   0.0000000000E+00   0.2929933213E-02  -0.1444746099E-02   0.2882704457E-03   0.0000000000E+00   0.0000000000E+00   0.0000000000E+00   0.2994750375E+00
   0.9093068615E-01   0.1515856774E+00   0.3100939411E-04  -0.2679951012E-04   0.2480751529E-03  -0.2143960810E-03   0.3239352769E+00  -0.2212129336E-01   0.9054419505E-01   0.2312807286E-01   0.0000000000E+00   0.0000000000E+00   0.3034084064E-02  -0.1464651349E-02   0.3006649472E-03   0.0000000000E+00   0.0000000000E+00   0.0000000000E+00   0.3079506949E+00
   0.9531708793E-01   0.9615588242E-01   0.4662820323E-04  -0.1609898710E-04   0.3730256259E-03  -0.1287918968E-03   0.2767825901E+00  -0.4716887343E-01   0.6888411501E-01  -0.5000770824E-01   0.0000000000E+00   0.0000000000E+00   0.2702680176E-02  -0.1508688850E-02  -0.6501002071E-03   0.0000000000E+00   0.0000000000E+00   0.0000000000E+00   0.2956525210E+00
   0.1094190580E+00   0.7677285623E-01   0.5789377345E-04  -0.1014989721E-04   0.4631501876E-03  -0.8119917772E-04   0.1814356671E+00  -0.6377871252E-01   0.3529708636E-01  -0.6948311446E-01   0.0000000000E+00   0.0000000000E+00   0.1899801549E-02  -0.1287985385E-02  -0.9032804880E-03   0.0000000000E+00   0.0000000000E+00   0.0000000000E+00   0.2449595850E+00
   0.1949462431E+00   0.2159921861E+00   0.5504312632E-04  -0.1992243394E-04   0.4403450106E-03  -0.1593794715E-03   0.2975775373E+00  -0.4261592601E-02   0.8799478341E-01  -0.1858928340E-02   0.0000000000E+00   0.0000000000E+00   0.2724575801E-02  -0.1199332888E-02  -0.2416606842E-04   0.0000000000E+00   0.0000000000E+00   0.0000000000E+00   0.2679122059E+00
   0.2258169263E+00   0.3586161071E-01   0.8312258372E-04  -0.8957992124E-06   0.6649806698E-03  -0.7166393699E-05   0.1294230780E+00   0.2374506303E-01   0.4595044230E-01  -0.2228915229E-01   0.0000000000E+00   0.0000000000E+00   0.1085144264E-02  -0.2886699305E-03  -0.2897589797E-03   0.0000000000E+00   0.0000000000E+00   0.0000000000E+00   0.1037799450E+00
   0.2469608269E+00   0.3604877918E-01   0.8574054102E-04  -0.8822801871E-06   0.6859243281E-03  -0.7058241497E-05   0.1393689319E+00   0.2958965512E-01   0.5068757611E-01  -0.1697340843E-01   0.0000000000E+00   0.0000000000E+00   0.1152857625E-02  -0.2742729729E-03  -0.2206543096E-03   0.0000000000E+00   0.0000000000E+00   0.0000000000E+00   0.1049794567E+00
   0.2747249896E+00   0.1829463084E+00   0.8039339853E-04  -0.1111640452E-04   0.6431471883E-03  -0.8893123619E-04   0.2608957060E+00   0.3032590344E-02   0.7917848890E-01  -0.1217641804E-01   0.0000000000E+00   0.0000000000E+00   0.2362323822E-02  -0.9898966812E-03  -0.1582934345E-03   0.0000000000E+00   0.0000000000E+00   0.0000000000E+00   0.2304307916E+00
   0.2340012765E+00   0.2160672447E+00   0.6669405328E-04  -0.1681125956E-04   0.5335524262E-03  -0.1344900764E-03   0.2915763880E+00  -0.1109738013E-02   0.8713999500E-01  -0.6960198263E-02   0.0000000000E+00   0.0000000000E+00   0.2657673109E-02  -0.1147246529E-02  -0.9048257742E-04   0.0000000000E+00   0.0000000000E+00   0.0000000000E+00   0.2603108557E+00
   0.3156991407E+00   0.2131751713E+00   0.9020285210E-04  -0.1374952002E-04   0.7216228168E-03  -0.1099961602E-03   0.2780497679E+00   0.2195854604E-02   0.8407368676E-01  -0.4066520736E-02   0.0000000000E+00   0.0000000000E+00   0.2521689055E-02  -0.1064411818E-02  -0.5286476956E-04   0.0000000000E+00   0.0000000000E+00   0.0000000000E+00   0.2454869934E+00
   0.3508999940E+00   0.1922071410E+00   0.1000000000E-03  -0.1117277250E-04   0.8000000000E-03  -0.8938217998E-04   0.2619890974E+00   0.4892365909E-02   0.8006443898E-01  -0.4359458486E-04   0.0000000000E+00   0.0000000000E+00   0.2365020559E-02  -0.9772369499E-03  -0.5667296032E-06   0.0000000000E+00   0.0000000000E+00   0.0000000000E+00   0.2289681980E+00
   0.2937104394E+00   0.2156989213E+00   0.8393648815E-04  -0.1442007428E-04   0.6714919052E-03  -0.1153605943E-03   0.2809765128E+00   0.1143920124E-02   0.8463612988E-01  -0.6142646247E-02   0.0000000000E+00   0.0000000000E+00   0.2552424978E-02  -0.1085398727E-02  -0.7985440121E-04   0.0000000000E+00   0.0000000000E+00   0.0000000000E+00   0.2490443410E+00
   0.3353296538E+00   0.2177704739E+00   0.9562597456E-04  -0.1413768225E-04   0.7650077965E-03  -0.1131014580E-03   0.2799583019E+00   0.1457933644E-02   0.8442487066E-01  -0.1666846269E-02   0.0000000000E+00   0.0000000000E+00   0.2541934606E-02  -0.1078570181E-02  -0.2166900150E-04   0.0000000000E+00   0.0000000000E+00   0.0000000000E+00   0.2476873912E+00
   0.5162866765E-01   0.1652977287E+00   0.1626210523E-04  -0.3687736825E-04   0.1300968418E-03  -0.2950189460E-03   0.3272112865E+00   0.2110015557E-01   0.1044934326E+00   0.3355884123E-01   0.0000000000E+00   0.0000000000E+00   0.2895332100E-02  -0.1084112602E-02   0.4362649359E-03   0.0000000000E+00   0.0000000000E+00   0.0000000000E+00   0.2802890652E+00
   0.2480477891E+00   0.9578400055E-01   0.8133278368E-04  -0.3751839124E-05   0.6506622694E-03  -0.3001471299E-04   0.1911625083E+00   0.1452000881E-01   0.6170475513E-01  -0.2738223501E-01   0.0000000000E+00   0.0000000000E+00   0.1682950791E-02  -0.6134017021E-03  -0.3559690551E-03   0.0000000000E+00   0.0000000000E+00   0.0000000000E+00   0.1653392765E+00
   0.2654836521E+00   0.8643701534E-01   0.8522856238E-04  -0.2979561731E-05   0.6818284991E-03  -0.2383649385E-04   0.1796254343E+00   0.1979800149E-01   0.5982703075E-01  -0.2255124050E-01   0.0000000000E+00   0.0000000000E+00   0.1557379247E-02  -0.5203773803E-03  -0.2931661265E-03   0.0000000000E+00   0.0000000000E+00   0.0000000000E+00   0.1492400668E+00
   0.2653276738E+00   0.1059199049E+00   0.8375575922E-04  -0.4235230529E-05   0.6700460737E-03  -0.3388184423E-04   0.1979851889E+00   0.1494720435E-01   0.6387971798E-01  -0.2225005716E-01   0.0000000000E+00   0.0000000000E+00   0.1743371122E-02  -0.6361226772E-03  -0.2892507430E-03   0.0000000000E+00   0.0000000000E+00   0.0000000000E+00   0.1685902667E+00
   0.3508999940E+00   0.2114183508E+00   0.1000000000E-03  -0.1334590767E-04   0.8000000000E-03  -0.1067672613E-03   0.2733283662E+00   0.1889108376E-02   0.8256524238E-01   0.4544002304E-03   0.0000000000E+00   0.0000000000E+00   0.2479920610E-02  -0.1048789742E-02   0.5907202995E-05   0.0000000000E+00   0.0000000000E+00   0.0000000000E+00   0.2414379173E+00
   0.3013044952E+00   0.2007344785E+00   0.8661280102E-04  -0.1252394443E-04   0.6929024082E-03  -0.1001915554E-03   0.2716236545E+00   0.3514839262E-02   0.8254154813E-01  -0.7363715401E-02   0.0000000000E+00   0.0000000000E+00   0.2458067383E-02  -0.1027347215E-02  -0.9572830021E-04   0.0000000000E+00   0.0000000000E+00   0.0000000000E+00   0.2389668437E+00
   0.2966486209E+00   0.1829074289E+00   0.8611209591E-04  -0.1061989748E-04   0.6888967672E-03  -0.8495917985E-04   0.2588677577E+00   0.5604360638E-02   0.7934163549E-01  -0.9347720698E-02   0.0000000000E+00   0.0000000000E+00   0.2333839588E-02  -0.9585845731E-03  -0.1215203691E-03   0.0000000000E+00   0.0000000000E+00   0.0000000000E+00   0.2262036306E+00
   0.3002081677E+00   0.1250016219E+00   0.8958096474E-04  -0.5272015348E-05   0.7166477180E-03  -0.4217612279E-04   0.2123203761E+00   0.1681077678E-01   0.6873934586E-01  -0.1291190022E-01   0.0000000000E+00   0.0000000000E+00   0.1866553393E-02  -0.6750713980E-03  -0.1678547028E-03   0.0000000000E+00   0.0000000000E+00   0.0000000000E+00   0.1768292467E+00
   0.2805211391E+00   0.5577420328E-01   0.8942511934E-04  -0.1510935844E-05   0.7154009547E-03  -0.1208748675E-04   0.1592250435E+00   0.3202799780E-01   0.5737591240E-01  -0.1484419274E-01   0.0000000000E+00   0.0000000000E+00   0.1324038705E-02  -0.3295228898E-03  -0.1929745057E-03   0.0000000000E+00   0.0000000000E+00   0.0000000000E+00   0.1194440875E+00
   0.2990717407E+00   0.6735874211E-01   0.9177918794E-04  -0.1932743700E-05   0.7342335036E-03  -0.1546194960E-04   0.1687843563E+00   0.3103300805E-01   0.5994520931E-01  -0.1202636465E-01   0.0000000000E+00   0.0000000000E+00   0.1414908911E-02  -0.3758586163E-03  -0.1563427404E-03   0.0000000000E+00   0.0000000000E+00   0.0000000000E+00   0.1275120207E+00
   0.3170033977E+00   0.1536414665E+00   0.9218840939E-04  -0.7496504528E-05   0.7375072751E-03  -0.5997203622E-04   0.2343723242E+00   0.1181703407E-01   0.7385680749E-01  -0.7493336104E-02   0.0000000000E+00   0.0000000000E+00   0.2086701718E-02  -0.8065170544E-03  -0.9741336936E-04   0.0000000000E+00   0.0000000000E+00   0.0000000000E+00   0.1993503751E+00
   0.2242884339E+00   0.1991405756E+00   0.6535154740E-04  -0.1529060226E-04   0.5228123792E-03  -0.1223248181E-03   0.2814650622E+00  -0.3480857229E-02   0.8339526149E-01  -0.9192519191E-02   0.0000000000E+00   0.0000000000E+00   0.2574907409E-02  -0.1129389543E-02  -0.1195027495E-03   0.0000000000E+00   0.0000000000E+00   0.0000000000E+00   0.2534486391E+00
   0.2047311891E+00   0.1990698142E+00   0.5972634615E-04  -0.1677364474E-04   0.4778107692E-03  -0.1341891579E-03   0.2853118424E+00  -0.6390218905E-02   0.8367648705E-01  -0.6446356532E-02   0.0000000000E+00   0.0000000000E+00   0.2621259620E-02  -0.1170867177E-02  -0.8380263492E-04   0.0000000000E+00   0.0000000000E+00   0.0000000000E+00   0.2589361585E+00
   0.2537420692E+00   0.2160900773E+00   0.7246601828E-04  -0.1576940575E-04   0.5797281462E-03  -0.1261552460E-03   0.2879091253E+00   0.2806931245E-04   0.8638115838E-01  -0.7513259969E-02   0.0000000000E+00   0.0000000000E+00   0.2619863570E-02  -0.1122590158E-02  -0.9767237960E-04   0.0000000000E+00   0.0000000000E+00   0.0000000000E+00   0.2561930488E+00
   0.1169020770E+00   0.2159509158E+00   0.3140355172E-04  -0.3123346478E-04   0.2512284138E-03  -0.2498677182E-03   0.2918753444E+00  -0.6138655446E-02   0.8572100669E-01   0.2203250972E-01   0.0000000000E+00   0.0000000000E+00   0.2680006390E-02  -0.1194175608E-02   0.2864226264E-03   0.0000000000E+00   0.0000000000E+00   0.0000000000E+00   0.2669832704E+00
   0.1461356821E+00   0.1990621167E+00   0.4226234506E-04  -0.2388903121E-04   0.3380987605E-03  -0.1911122497E-03   0.2954915965E+00  -0.1372161588E-01   0.8453099417E-01   0.1221483752E-01   0.0000000000E+00   0.0000000000E+00   0.2742487830E-02  -0.1277283931E-02   0.1587928878E-03   0.0000000000E+00   0.0000000000E+00   0.0000000000E+00   0.2744468840E+00
   0.1360238417E+00   0.1821449434E+00   0.4127874233E-04  -0.2306162498E-04   0.3302299387E-03  -0.1844929998E-03   0.2966978389E+00  -0.2168678068E-01   0.8250331747E-01   0.1339154201E-01   0.0000000000E+00   0.0000000000E+00   0.2784528779E-02  -0.1354471276E-02   0.1740900461E-03   0.0000000000E+00   0.0000000000E+00   0.0000000000E+00   0.2820682076E+00
   0.2047512179E+00   0.3563913738E-01   0.8069088099E-04  -0.9308689699E-06   0.6455270479E-03  -0.7446951760E-05   0.1172883247E+00   0.1597886830E-01   0.3998015790E-01  -0.2830903395E-01   0.0000000000E+00   0.0000000000E+00   0.1005006168E-02  -0.3120167648E-03  -0.3680174414E-03   0.0000000000E+00   0.0000000000E+00   0.0000000000E+00   0.1037563141E+00
   0.1754298615E+00   0.1820451293E+00   0.5316027313E-04  -0.1744785510E-04   0.4252821850E-03  -0.1395828408E-03   0.2835663980E+00  -0.1657346836E-01   0.8009787890E-01  -0.3206123043E-02   0.0000000000E+00   0.0000000000E+00   0.2645090749E-02  -0.1256727514E-02  -0.4167959956E-04   0.0000000000E+00   0.0000000000E+00   0.0000000000E+00   0.2653855666E+00
   0.1656763976E+00   0.1990366959E+00   0.4817684922E-04  -0.2104111738E-04   0.3854147938E-03  -0.1683289391E-03   0.2927957194E+00  -0.1219425984E-01   0.8418043787E-01   0.4421443874E-02   0.0000000000E+00   0.0000000000E+00   0.2711998660E-02  -0.1252871070E-02   0.5747877036E-04   0.0000000000E+00   0.0000000000E+00   0.0000000000E+00   0.2701083773E+00
   0.1852036241E+00   0.1990389702E+00   0.5400312350E-04  -0.1867586586E-04   0.4320249880E-03  -0.1494069269E-03   0.2893110287E+00  -0.9432583978E-02   0.8396353342E-01  -0.1926134946E-02   0.0000000000E+00   0.0000000000E+00   0.2669517439E-02  -0.1214149526E-02  -0.2503975430E-04   0.0000000000E+00   0.0000000000E+00   0.0000000000E+00   0.2647046755E+00
   0.1942162657E+00   0.5327714803E-01   0.7752574879E-04  -0.1763496775E-05   0.6202059903E-03  -0.1410797420E-04   0.1323719689E+00   0.4046392285E-02   0.4092550835E-01  -0.4125995545E-01   0.0000000000E+00   0.0000000000E+00   0.1188803987E-02  -0.4794285089E-03  -0.5363794208E-03   0.0000000000E+00   0.0000000000E+00   0.0000000000E+00   0.1351274929E+00
   0.2152102273E+00   0.5362070913E-01   0.8029392365E-04  -0.1614908091E-05   0.6423513892E-03  -0.1291926473E-04   0.1405837993E+00   0.1420021452E-01   0.4643520415E-01  -0.3330204886E-01   0.0000000000E+00   0.0000000000E+00   0.1223931737E-02  -0.4190548652E-03  -0.4329266352E-03   0.0000000000E+00   0.0000000000E+00   0.0000000000E+00   0.1276635321E+00
   0.2440232056E+00   0.1992172040E+00   0.7092973118E-04  -0.1415733287E-04   0.5674378495E-03  -0.1132586630E-03   0.2778017340E+00  -0.8681000029E-03   0.8308009020E-01  -0.1038006026E-01   0.0000000000E+00   0.0000000000E+00   0.2531381369E-02  -0.1091326473E-02  -0.1349407834E-03   0.0000000000E+00   0.0000000000E+00   0.0000000000E+00   0.2482578724E+00
   0.5036446157E-01   0.1845716556E+00   0.1457176330E-04  -0.3934548866E-04   0.1165741064E-03  -0.3147639093E-03   0.3009903117E+00   0.1578167311E-01   0.9503159544E-01   0.3388474880E-01   0.0000000000E+00   0.0000000000E+00   0.2677463311E-02  -0.1030248990E-02   0.4405017344E-03   0.0000000000E+00   0.0000000000E+00   0.0000000000E+00   0.2617720085E+00
   0.3164691901E+00   0.1728980903E+00   0.9149289683E-04  -0.9327413347E-05   0.7319431746E-03  -0.7461930678E-04   0.2496586130E+00   0.7998898597E-02   0.7729725347E-01  -0.6665143678E-02   0.0000000000E+00   0.0000000000E+00   0.2240697674E-02  -0.9008786134E-03  -0.8664686781E-04   0.0000000000E+00   0.0000000000E+00   0.0000000000E+00   0.2158541057E+00
   0.2991566040E+00   0.1762688395E-01   0.9301610573E-04  -0.4018609195E-06   0.7441288459E-03  -0.3214887356E-05   0.1478626899E+00   0.3988114245E-01   0.5632314969E-01  -0.3283366084E-02   0.0000000000E+00   0.0000000000E+00   0.1190014022E-02  -0.2137460941E-03  -0.4268375909E-04   0.0000000000E+00   0.0000000000E+00   0.0000000000E+00   0.1009217974E+00
   0.3091831945E+00   0.0000000000E+00   0.9442861150E-04   0.0000000000E+00   0.7554288920E-03   0.0000000000E+00   0.1488307252E+00   0.4155751195E-01   0.5711647114E-01  -0.1015755700E-02   0.0000000000E+00   0.0000000000E+00   0.1192285303E-02  -0.2022664696E-03  -0.1320482410E-04   0.0000000000E+00   0.0000000000E+00   0.0000000000E+00   0.1004063291E+00
   0.2667452677E+00   0.6954297807E-01   0.8657229915E-04  -0.2117191741E-05   0.6925783932E-03  -0.1693753393E-04   0.1667639266E+00   0.2691703643E-01   0.5810428891E-01  -0.2074208103E-01   0.0000000000E+00   0.0000000000E+00   0.1412575290E-02  -0.4054342823E-03  -0.2696470534E-03   0.0000000000E+00   0.0000000000E+00   0.0000000000E+00   0.1320308393E+00
   0.2475382108E+00   0.7417806924E-01   0.8319341711E-04  -0.2437228834E-05   0.6655473369E-03  -0.1949783067E-04   0.1678492606E+00   0.1985344902E-01   0.5631081290E-01  -0.2690224679E-01   0.0000000000E+00   0.0000000000E+00   0.1449999821E-02  -0.4739457304E-03  -0.3497292083E-03   0.0000000000E+00   0.0000000000E+00   0.0000000000E+00   0.1414640320E+00
   0.1727866625E+00   0.5292686308E-01   0.7479161473E-04  -0.2088391227E-05   0.5983329178E-03  -0.1670712982E-04   0.1212363071E+00  -0.1159465535E-01   0.3289249552E-01  -0.5069523879E-01   0.0000000000E+00   0.0000000000E+00   0.1148469550E-02  -0.5783329613E-03  -0.6590381043E-03   0.0000000000E+00   0.0000000000E+00   0.0000000000E+00   0.1468115918E+00
   0.2331157959E+00   0.8722904692E-01   0.7948320817E-04  -0.3383808425E-05   0.6358656654E-03  -0.2707046740E-04   0.1783836682E+00   0.1014955099E-01   0.5655996576E-01  -0.3295669149E-01   0.0000000000E+00   0.0000000000E+00   0.1583708132E-02  -0.6033353920E-03  -0.4284369893E-03   0.0000000000E+00   0.0000000000E+00   0.0000000000E+00   0.1609110575E+00
   0.2154165796E+00   0.8960307014E-01   0.7601407209E-04  -0.3853196070E-05   0.6081125767E-03  -0.3082556856E-04   0.1837582819E+00   0.1033573376E-02   0.5543755659E-01  -0.3899866712E-01   0.0000000000E+00   0.0000000000E+00   0.1668169429E-02  -0.7072517818E-03  -0.5069826725E-03   0.0000000000E+00   0.0000000000E+00   0.0000000000E+00   0.1758871636E+00
   0.2253230502E+00   0.7171303512E-01   0.7988335576E-04  -0.2500375409E-05   0.6390668461E-03  -0.2000300327E-04   0.1630468364E+00   0.1240856801E-01   0.5263662131E-01  -0.3428181550E-01   0.0000000000E+00   0.0000000000E+00   0.1435332796E-02  -0.5229646929E-03  -0.4456636015E-03   0.0000000000E+00   0.0000000000E+00   0.0000000000E+00   0.1475976285E+00
   0.2364247214E+00   0.5425487828E-01   0.8316748699E-04  -0.1554691318E-05   0.6653398959E-03  -0.1243753055E-04   0.1483076259E+00   0.2176290328E-01   0.5102115876E-01  -0.2601121429E-01   0.0000000000E+00   0.0000000000E+00   0.1264724073E-02  -0.3803573212E-03  -0.3381457857E-03   0.0000000000E+00   0.0000000000E+00   0.0000000000E+00   0.1233230155E+00
   0.7498014410E-01   0.1104390386E+00   0.3476655517E-04  -0.2359359881E-04   0.2781324414E-03  -0.1887487905E-03   0.3470296257E+00  -0.1525622833E-01   0.9953201923E-01  -0.2690257992E-01   0.0000000000E+00   0.0000000000E+00   0.3217468885E-02  -0.1492247218E-02  -0.3497335390E-03   0.0000000000E+00   0.0000000000E+00   0.0000000000E+00   0.3206918026E+00
   0.1265736356E+00   0.1991156256E+00   0.3629240136E-04  -0.2718226231E-04   0.2903392109E-03  -0.2174580985E-03   0.2967823433E+00  -0.1319115655E-01   0.8507735603E-01   0.2055735783E-01   0.0000000000E+00   0.0000000000E+00   0.2752164835E-02  -0.1277490663E-02   0.2672456518E-03   0.0000000000E+00   0.0000000000E+00   0.0000000000E+00   0.2766596962E+00
   0.1161490940E+00   0.1825010104E+00   0.3504800033E-04  -0.2665739471E-04   0.2803840027E-03  -0.2132591577E-03   0.3024885247E+00  -0.1933473631E-01   0.8494613653E-01   0.2316658316E-01   0.0000000000E+00   0.0000000000E+00   0.2828051047E-02  -0.1355651347E-02   0.3011655811E-03   0.0000000000E+00   0.0000000000E+00   0.0000000000E+00   0.2871742562E+00
   0.1493242241E+00   0.5212887725E-01   0.7196933986E-04  -0.2760472441E-05   0.5757547189E-03  -0.2208377952E-04   0.1127344252E+00  -0.3091206759E-01   0.2454670727E-01  -0.5827096141E-01   0.0000000000E+00   0.0000000000E+00   0.1146440332E-02  -0.7209640731E-03  -0.7575224983E-03   0.0000000000E+00   0.0000000000E+00   0.0000000000E+00   0.1614585819E+00
   0.7081788164E-01   0.1569702771E+00   0.2340075986E-04  -0.3200609809E-04   0.1872060789E-03  -0.2560487847E-03   0.3361761207E+00  -0.9550242353E-03   0.1005663289E+00   0.3182497296E-01   0.0000000000E+00   0.0000000000E+00   0.3062927293E-02  -0.1319777591E-02   0.4137246485E-03   0.0000000000E+00   0.0000000000E+00   0.0000000000E+00   0.3042768714E+00
   0.8522038688E-01   0.1699815411E+00   0.2666704170E-04  -0.3090309479E-04   0.2133363336E-03  -0.2472247583E-03   0.3165566635E+00  -0.1171875807E-01   0.9145137164E-01   0.3164500369E-01   0.0000000000E+00   0.0000000000E+00   0.2926368795E-02  -0.1341211686E-02   0.4113850479E-03   0.0000000000E+00   0.0000000000E+00   0.0000000000E+00   0.2959764805E+00
   0.8082524392E-01   0.1850498643E+00   0.2376287966E-04  -0.3390807866E-04   0.1901030373E-03  -0.2712646293E-03   0.3021839898E+00  -0.3672730155E-02   0.8955337791E-01   0.3587345852E-01   0.0000000000E+00   0.0000000000E+00   0.2764197955E-02  -0.1211939405E-02   0.4663549607E-03   0.0000000000E+00   0.0000000000E+00   0.0000000000E+00   0.2785263758E+00
   0.6764518181E-01   0.1763832435E+00   0.2043247854E-04  -0.3530071751E-04   0.1634598283E-03  -0.2824057401E-03   0.3120521939E+00   0.4494214546E-02   0.9496392253E-01   0.3690710980E-01   0.0000000000E+00   0.0000000000E+00   0.2822147528E-02  -0.1176106204E-02   0.4797924274E-03   0.0000000000E+00   0.0000000000E+00   0.0000000000E+00   0.2811620756E+00
   0.9685998333E-01   0.1835903070E+00   0.2887671452E-04  -0.3055244630E-04   0.2310137162E-03  -0.2444195704E-03   0.3047810775E+00  -0.1222006181E-01   0.8776830471E-01   0.3155005912E-01   0.0000000000E+00   0.0000000000E+00   0.2821166046E-02  -0.1299848765E-02   0.4101507686E-03   0.0000000000E+00   0.0000000000E+00   0.0000000000E+00   0.2858921451E+00
   0.2995924146E+00   0.1626747588E+00   0.8774239678E-04  -0.8526350248E-05   0.7019391742E-03  -0.6821080199E-04   0.2416316153E+00   0.8043708107E-02   0.7490259703E-01  -0.1081192787E-01   0.0000000000E+00   0.0000000000E+00   0.2167477238E-02  -0.8691655560E-03  -0.1405550623E-03   0.0000000000E+00   0.0000000000E+00   0.0000000000E+00   0.2092052659E+00
   0.2838837974E+00   0.1691747865E+00   0.8356104818E-04  -0.9441165863E-05   0.6684883855E-03  -0.7552932690E-04   0.2497953107E+00   0.5818646360E-02   0.7668418712E-01  -0.1238098368E-01   0.0000000000E+00   0.0000000000E+00   0.2250444607E-02  -0.9212520299E-03  -0.1609527878E-03   0.0000000000E+00   0.0000000000E+00   0.0000000000E+00   0.2184372240E+00
   0.2830861208E+00   0.1531299762E+00   0.8430741951E-04  -0.7864868203E-05   0.6744593561E-03  -0.6291894562E-04   0.2378089951E+00   0.8768979818E-02   0.7397339246E-01  -0.1456334782E-01   0.0000000000E+00   0.0000000000E+00   0.2129862834E-02  -0.8476573644E-03  -0.1893235217E-03   0.0000000000E+00   0.0000000000E+00   0.0000000000E+00   0.2059576869E+00
   0.2046692719E+00   0.7154766815E-01   0.7658920632E-04  -0.2722394025E-05   0.6127136506E-03  -0.2177915220E-04   0.1615590062E+00   0.2775713656E-02   0.4930041594E-01  -0.4255804226E-01   0.0000000000E+00   0.0000000000E+00   0.1459361673E-02  -0.6048211297E-03  -0.5532545493E-03   0.0000000000E+00   0.0000000000E+00   0.0000000000E+00   0.1594808239E+00
   0.3000655708E+00   0.1439443408E+00   0.8869097262E-04  -0.6802914340E-05   0.7095277810E-03  -0.5442331472E-04   0.2275714071E+00   0.1219899162E-01   0.7193111962E-01  -0.1199360500E-01   0.0000000000E+00   0.0000000000E+00   0.2023323738E-02  -0.7765176641E-03  -0.1559168651E-03   0.0000000000E+00   0.0000000000E+00   0.0000000000E+00   0.1937063655E+00
   0.2824169299E+00   0.7698461042E-01   0.8867076971E-04  -0.2414398213E-05   0.7093661577E-03  -0.1931518571E-04   0.1763638577E+00   0.2802051275E-01   0.6131531115E-01  -0.1697469449E-01   0.0000000000E+00   0.0000000000E+00   0.1495631106E-02  -0.4328323791E-03  -0.2206710283E-03   0.0000000000E+00   0.0000000000E+00   0.0000000000E+00   0.1379750176E+00
   0.1286808771E+00   0.8313039490E-01   0.5986700584E-04  -0.8121355960E-05   0.4789360467E-03  -0.6497084768E-04   0.2043677131E+00  -0.5618862674E-01   0.4445372590E-01  -0.6363770986E-01   0.0000000000E+00   0.0000000000E+00   0.2078881833E-02  -0.1308350584E-02  -0.8272902282E-03   0.0000000000E+00   0.0000000000E+00   0.0000000000E+00   0.2524174458E+00
   0.1288166160E+00   0.1030289844E+00   0.5403788878E-04  -0.1115918132E-04   0.4323031103E-03  -0.8927345057E-04   0.2473393799E+00  -0.5604453273E-01   0.5738845414E-01  -0.4742034381E-01   0.0000000000E+00   0.0000000000E+00   0.2469362035E-02  -0.1474628829E-02  -0.6164644695E-03   0.0000000000E+00   0.0000000000E+00   0.0000000000E+00   0.2780229744E+00
   0.1148227904E+00   0.9378076675E-01   0.5299026334E-04  -0.1183777201E-04   0.4239221067E-03  -0.9470217607E-04   0.2459275247E+00  -0.5365506459E-01   0.5768173802E-01  -0.5491967045E-01   0.0000000000E+00   0.0000000000E+00   0.2447195226E-02  -0.1447378434E-02  -0.7139557158E-03   0.0000000000E+00   0.0000000000E+00   0.0000000000E+00   0.2800223764E+00
   0.1949989899E+00   0.1820850953E+00   0.5881276988E-04  -0.1542118773E-04   0.4705021590E-03  -0.1233695018E-03   0.2773810059E+00  -0.1162498891E-01   0.7972680509E-01  -0.8719658818E-02   0.0000000000E+00   0.0000000000E+00   0.2569504610E-02  -0.1187573322E-02  -0.1133555646E-03   0.0000000000E+00   0.0000000000E+00   0.0000000000E+00   0.2562866235E+00
   0.2543636430E+00   0.1823375606E+00   0.7508055518E-04  -0.1171471631E-04   0.6006444415E-03  -0.9371773047E-04   0.2635874711E+00   0.9713637046E-03   0.7936765043E-01  -0.1311186724E-01   0.0000000000E+00   0.0000000000E+00   0.2394857668E-02  -0.1019151727E-02  -0.1704542742E-03   0.0000000000E+00   0.0000000000E+00   0.0000000000E+00   0.2345904513E+00
   0.2342143936E+00   0.1823629770E+00   0.6966939632E-04  -0.1264078109E-04   0.5573551705E-03  -0.1011262487E-03   0.2677571353E+00  -0.2784041548E-02   0.7949192813E-01  -0.1333537633E-01   0.0000000000E+00   0.0000000000E+00   0.2447447693E-02  -0.1069587606E-02  -0.1733598922E-03   0.0000000000E+00   0.0000000000E+00   0.0000000000E+00   0.2413075282E+00
   0.2519557241E+00   0.1519300553E+00   0.7697678851E-04  -0.8531081945E-05   0.6158143081E-03  -0.6824865556E-04   0.2419858723E+00   0.3661581490E-02   0.7369423615E-01  -0.1981276735E-01   0.0000000000E+00   0.0000000000E+00   0.2187791270E-02  -0.9104245106E-03  -0.2575659756E-03   0.0000000000E+00   0.0000000000E+00   0.0000000000E+00   0.2149027075E+00
   0.2351181485E+00   0.1493646481E+00   0.7312972711E-04  -0.8853209451E-05   0.5850378169E-03  -0.7082567560E-04   0.2412547904E+00  -0.2598296912E-02   0.7159694806E-01  -0.2227546228E-01   0.0000000000E+00   0.0000000000E+00   0.2205551951E-02  -0.9645381846E-03  -0.2895810096E-03   0.0000000000E+00   0.0000000000E+00   0.0000000000E+00   0.2199385277E+00
   0.2487361407E+00   0.1359247532E+00   0.7769774264E-04  -0.7046978892E-05   0.6215819411E-03  -0.5637583114E-04   0.2267976351E+00   0.4044171674E-02   0.6925254203E-01  -0.2326376462E-01   0.0000000000E+00   0.0000000000E+00   0.2048086210E-02  -0.8477088146E-03  -0.3024289400E-03   0.0000000000E+00   0.0000000000E+00   0.0000000000E+00   0.2024023909E+00
   0.7658959336E-01   0.1345247885E+00   0.2887862848E-04  -0.2722982892E-04   0.2310290278E-03  -0.2178386313E-03   0.3460372776E+00  -0.1378123448E-01   0.9967681293E-01   0.1063735170E-01   0.0000000000E+00   0.0000000000E+00   0.3202686040E-02  -0.1474954616E-02   0.1382855720E-03   0.0000000000E+00   0.0000000000E+00   0.0000000000E+00   0.3197845465E+00
   0.2145786886E+00   0.1822078602E+00   0.6430017819E-04  -0.1384230638E-04   0.5144014255E-03  -0.1107384510E-03   0.2719661380E+00  -0.6872017828E-02   0.7952823605E-01  -0.1181130346E-01   0.0000000000E+00   0.0000000000E+00   0.2501692725E-02  -0.1123203300E-02  -0.1535469450E-03   0.0000000000E+00   0.0000000000E+00   0.0000000000E+00   0.2480494922E+00
   0.2577651533E+00   0.5433865839E-01   0.8620592160E-04  -0.1502723491E-05   0.6896473728E-03  -0.1202178792E-04   0.1541296988E+00   0.2794676843E-01   0.5462294017E-01  -0.2051883988E-01   0.0000000000E+00   0.0000000000E+00   0.1293587862E-02  -0.3467902326E-03  -0.2667449184E-03   0.0000000000E+00   0.0000000000E+00   0.0000000000E+00   0.1206108765E+00
   0.2827653355E+00   0.9622062410E-01   0.8767582844E-04  -0.3452467152E-05   0.7014066275E-03  -0.2761973722E-04   0.1898106228E+00   0.2182133993E-01   0.6348958882E-01  -0.1783276119E-01   0.0000000000E+00   0.0000000000E+00   0.1642173442E-02  -0.5416872355E-03  -0.2318258954E-03   0.0000000000E+00   0.0000000000E+00   0.0000000000E+00   0.1546240776E+00
   0.1430868683E+00   0.7223442773E-01   0.6598425080E-04  -0.5217252584E-05   0.5278740064E-03  -0.4173802067E-04   0.1601151576E+00  -0.4544013550E-01   0.3440250663E-01  -0.6433437475E-01   0.0000000000E+00   0.0000000000E+00   0.1634264463E-02  -0.1037954348E-02  -0.8363468717E-03   0.0000000000E+00   0.0000000000E+00   0.0000000000E+00   0.2109906144E+00
   0.1250549959E+00   0.1648001294E+00   0.4019954422E-04  -0.2225162219E-04   0.3215963538E-03  -0.1780129776E-03   0.3005419910E+00  -0.3064629034E-01   0.8096871021E-01   0.1211415635E-01   0.0000000000E+00   0.0000000000E+00   0.2854452651E-02  -0.1450995007E-02   0.1574840325E-03   0.0000000000E+00   0.0000000000E+00   0.0000000000E+00   0.2925156378E+00
   0.2662630735E+00   0.1441970342E+00   0.8099339070E-04  -0.7385750085E-05   0.6479471256E-03  -0.5908600068E-04   0.2305359171E+00   0.6663722432E-02   0.7115989185E-01  -0.1859330634E-01   0.0000000000E+00   0.0000000000E+00   0.2071888328E-02  -0.8384502025E-03  -0.2417129824E-03   0.0000000000E+00   0.0000000000E+00   0.0000000000E+00   0.2021850411E+00
   0.2830382865E+00   0.1345343256E+00   0.8542649807E-04  -0.6212490076E-05   0.6834119846E-03  -0.4969992061E-04   0.2213561840E+00   0.1229240341E-01   0.7009457623E-01  -0.1629213296E-01   0.0000000000E+00   0.0000000000E+00   0.1966400901E-02  -0.7514282466E-03  -0.2117977284E-03   0.0000000000E+00   0.0000000000E+00   0.0000000000E+00   0.1891111077E+00
   0.2829001151E+00   0.1155002584E+00   0.8656145024E-04  -0.4730069929E-05   0.6924916019E-03  -0.3784055943E-04   0.2053825811E+00   0.1662730220E-01   0.6660296499E-01  -0.1743639692E-01   0.0000000000E+00   0.0000000000E+00   0.1804135010E-02  -0.6496836163E-03  -0.2266731600E-03   0.0000000000E+00   0.0000000000E+00   0.0000000000E+00   0.1720575616E+00
   0.2246237172E+00   0.1655381864E+00   0.6877135983E-04  -0.1118139800E-04   0.5501708787E-03  -0.8945118403E-04   0.2564011807E+00  -0.5769196069E-02   0.7518959539E-01  -0.1721863094E-01   0.0000000000E+00   0.0000000000E+00   0.2355750609E-02  -0.1052464289E-02  -0.2238422022E-03   0.0000000000E+00   0.0000000000E+00   0.0000000000E+00   0.2344036734E+00
   0.2441757063E+00   0.1659316839E+00   0.7378603568E-04  -0.1028712287E-04   0.5902882854E-03  -0.8229698299E-04   0.2527355338E+00  -0.1184952780E-02   0.7546517430E-01  -0.1720294596E-01   0.0000000000E+00   0.0000000000E+00   0.2304514673E-02  -0.9964516521E-03  -0.2236382974E-03   0.0000000000E+00   0.0000000000E+00   0.0000000000E+00   0.2275210434E+00
   0.1827169061E+00   0.1088276240E+00   0.6630689825E-04  -0.6921998310E-05   0.5304551860E-03  -0.5537598648E-04   0.2176478097E+00  -0.2419402379E-01   0.5803613576E-01  -0.4109023159E-01   0.0000000000E+00   0.0000000000E+00   0.2074951761E-02  -0.1068992074E-02  -0.5341730106E-03   0.0000000000E+00   0.0000000000E+00   0.0000000000E+00   0.2244785488E+00
   0.2062643574E+00   0.1119988822E+00   0.7106148492E-04  -0.6119867277E-05   0.5684918794E-03  -0.4895893821E-04   0.2124572269E+00  -0.9321200200E-02   0.6094080800E-01  -0.3611690812E-01   0.0000000000E+00   0.0000000000E+00   0.1969713445E-02  -0.9134061066E-03  -0.4695198055E-03   0.0000000000E+00   0.0000000000E+00   0.0000000000E+00   0.2060381007E+00
   0.1894102045E+00   0.1288113115E+00   0.6455128247E-04  -0.8924502956E-05   0.5164102598E-03  -0.7139602365E-04   0.2365940752E+00  -0.2107513267E-01   0.6465568275E-01  -0.3182741069E-01   0.0000000000E+00   0.0000000000E+00   0.2235199101E-02  -0.1114500600E-02  -0.4137563389E-03   0.0000000000E+00   0.0000000000E+00   0.0000000000E+00   0.2338532180E+00
   0.2654858519E+00   0.1642296327E+00   0.7930387870E-04  -0.9367702802E-05   0.6344310296E-03  -0.7494162242E-04   0.2483512821E+00   0.3985875060E-02   0.7570114715E-01  -0.1547871541E-01   0.0000000000E+00   0.0000000000E+00   0.2244451755E-02  -0.9322985372E-03  -0.2012233004E-03   0.0000000000E+00   0.0000000000E+00   0.0000000000E+00   0.2192124552E+00
   0.1943073029E+00   0.9043777326E-01   0.7186232587E-04  -0.4468315220E-05   0.5748986070E-03  -0.3574652176E-04   0.1894962868E+00  -0.9579430336E-02   0.5397505694E-01  -0.4461819798E-01   0.0000000000E+00   0.0000000000E+00   0.1761775988E-02  -0.8262083346E-03  -0.5800365738E-03   0.0000000000E+00   0.0000000000E+00   0.0000000000E+00   0.1923400911E+00
   0.1354191848E+00   0.1460220853E+00   0.4642809209E-04  -0.1740574678E-04   0.3714247367E-03  -0.1392459742E-03   0.2905879056E+00  -0.3938136297E-01   0.7536196280E-01  -0.5931729533E-02   0.0000000000E+00   0.0000000000E+00   0.2797937257E-02  -0.1491663235E-02  -0.7711248393E-04   0.0000000000E+00   0.0000000000E+00   0.0000000000E+00   0.2901595590E+00
   0.1855296927E+00   0.1647214897E+00   0.5829152026E-04  -0.1398214185E-04   0.4663321621E-03  -0.1118571348E-03   0.2702823932E+00  -0.1859753420E-01   0.7550545769E-01  -0.1262540213E-01   0.0000000000E+00   0.0000000000E+00   0.2532100161E-02  -0.1223338895E-02  -0.1641302277E-03   0.0000000000E+00   0.0000000000E+00   0.0000000000E+00   0.2560543602E+00
   0.1964128673E+00   0.1477110202E+00   0.6354247705E-04  -0.1083186603E-04   0.5083398164E-03  -0.8665492825E-04   0.2533074054E+00  -0.1691565588E-01   0.7091752484E-01  -0.2274770514E-01   0.0000000000E+00   0.0000000000E+00   0.2371068447E-02  -0.1141831349E-02  -0.2957201668E-03   0.0000000000E+00   0.0000000000E+00   0.0000000000E+00   0.2419480904E+00
   0.1766718639E+00   0.1462273122E+00   0.5845409821E-04  -0.1227719457E-04   0.4676327857E-03  -0.9821755654E-04   0.2605155278E+00  -0.2688216424E-01   0.7009000908E-01  -0.2030748342E-01   0.0000000000E+00   0.0000000000E+00   0.2475531744E-02  -0.1260638253E-02  -0.2639972845E-03   0.0000000000E+00   0.0000000000E+00   0.0000000000E+00   0.2555889068E+00
   0.9371656262E-01   0.1192535554E+00   0.3862141379E-04  -0.2061383980E-04   0.3089713104E-03  -0.1649107184E-03   0.3185681462E+00  -0.4340022818E-01   0.8255037540E-01  -0.1793527332E-01   0.0000000000E+00   0.0000000000E+00   0.3068231020E-02  -0.1637357847E-02  -0.2331585531E-03   0.0000000000E+00   0.0000000000E+00   0.0000000000E+00   0.3197268067E+00
   0.2051125101E+00   0.1651230522E+00   0.6363545411E-04  -0.1239698249E-04   0.5090836329E-03  -0.9917585994E-04   0.2632553654E+00  -0.1120818707E-01   0.7561415349E-01  -0.1631461163E-01   0.0000000000E+00   0.0000000000E+00   0.2439335755E-02  -0.1128690427E-02  -0.2120899512E-03   0.0000000000E+00   0.0000000000E+00   0.0000000000E+00   0.2446002394E+00
   0.2655430035E+00   0.1253687033E+00   0.8230293932E-04  -0.5731520663E-05   0.6584235146E-03  -0.4585216530E-04   0.2144284259E+00   0.9384844076E-02   0.6714398099E-01  -0.2101988771E-01   0.0000000000E+00   0.0000000000E+00   0.1914697784E-02  -0.7508687798E-03  -0.2732585402E-03   0.0000000000E+00   0.0000000000E+00   0.0000000000E+00   0.1867198357E+00
   0.2473086246E+00   0.1160650866E+00   0.7927895943E-04  -0.5294710601E-05   0.6342316754E-03  -0.4235768481E-04   0.2098338991E+00   0.7370751401E-02   0.6516139516E-01  -0.2592275620E-01   0.0000000000E+00   0.0000000000E+00   0.1880742552E-02  -0.7512783689E-03  -0.3369958306E-03   0.0000000000E+00   0.0000000000E+00   0.0000000000E+00   0.1861688702E+00
   0.2269431866E+00   0.1285227351E+00   0.7352473290E-04  -0.6998985108E-05   0.5881978632E-03  -0.5599188086E-04   0.2231820158E+00  -0.3791378348E-02   0.6581719124E-01  -0.2781941869E-01   0.0000000000E+00   0.0000000000E+00   0.2045742720E-02  -0.9049114047E-03  -0.3616524429E-03   0.0000000000E+00   0.0000000000E+00   0.0000000000E+00   0.2070845671E+00
   0.1263715424E+00   0.1247937894E+00   0.4783381875E-04  -0.1524317565E-04   0.3826705500E-03  -0.1219454052E-03   0.2833822508E+00  -0.5236264570E-01   0.6930588152E-01  -0.2389619683E-01   0.0000000000E+00   0.0000000000E+00   0.2782992800E-02  -0.1581690854E-02  -0.3106505588E-03   0.0000000000E+00   0.0000000000E+00   0.0000000000E+00   0.2971764985E+00
   0.1080019839E+00   0.1272882552E+00   0.4137965587E-04  -0.1898875257E-04   0.3310372470E-03  -0.1519100206E-03   0.3120629637E+00  -0.4621304633E-01   0.7975497520E-01  -0.1177828076E-01   0.0000000000E+00   0.0000000000E+00   0.3020003850E-02  -0.1637584280E-02  -0.1531176499E-03   0.0000000000E+00   0.0000000000E+00   0.0000000000E+00   0.3155171829E+00
   0.1112622205E+00   0.1107333235E+00   0.4680738592E-04  -0.1532161133E-04   0.3744590873E-03  -0.1225728906E-03   0.2770776450E+00  -0.5790870198E-01   0.6575068292E-01  -0.3319528393E-01   0.0000000000E+00   0.0000000000E+00   0.2747250508E-02  -0.1607572004E-02  -0.4315386911E-03   0.0000000000E+00   0.0000000000E+00   0.0000000000E+00   0.2985137519E+00
   0.9630336780E-01   0.1356827034E+00   0.3558995526E-04  -0.2295261923E-04   0.2847196421E-03  -0.1836209538E-03   0.3265662890E+00  -0.3515322686E-01   0.8742391864E-01   0.5467869147E-02   0.0000000000E+00   0.0000000000E+00   0.3108850815E-02  -0.1593502892E-02   0.7108229891E-04   0.0000000000E+00   0.0000000000E+00   0.0000000000E+00   0.3186668120E+00
   0.2295106021E+00   0.1048696400E+00   0.7681845799E-04  -0.4761891542E-05   0.6145476639E-03  -0.3809513234E-04   0.1993902078E+00   0.3744578214E-02   0.6094043579E-01  -0.3171367143E-01   0.0000000000E+00   0.0000000000E+00   0.1799847036E-02  -0.7435461485E-03  -0.4122777285E-03   0.0000000000E+00   0.0000000000E+00   0.0000000000E+00   0.1826259261E+00
   0.1562625866E+00   0.1459722041E+00   0.5271806216E-04  -0.1450088103E-04   0.4217444973E-03  -0.1160070482E-03   0.2763405800E+00  -0.3289501244E-01   0.7303367026E-01  -0.1472860292E-01   0.0000000000E+00   0.0000000000E+00   0.2642989826E-02  -0.1377072875E-02  -0.1914718380E-03   0.0000000000E+00   0.0000000000E+00   0.0000000000E+00   0.2731862799E+00
   0.2068761541E+00   0.1330623777E+00   0.6819878842E-04  -0.8432371108E-05   0.5455903074E-03  -0.6745896886E-04   0.2369738722E+00  -0.1303127367E-01   0.6718277955E-01  -0.2971603348E-01   0.0000000000E+00   0.0000000000E+00   0.2207284204E-02  -0.1042782692E-02  -0.3863084352E-03   0.0000000000E+00   0.0000000000E+00   0.0000000000E+00   0.2269090779E+00
   0.2156048936E+00   0.1482726276E+00   0.6842529390E-04  -0.9691376414E-05   0.5474023512E-03  -0.7753101132E-04   0.2478686160E+00  -0.6855629438E-02   0.7230389597E-01  -0.2198652491E-01   0.0000000000E+00   0.0000000000E+00   0.2282341361E-02  -0.1029073830E-02  -0.2858248238E-03   0.0000000000E+00   0.0000000000E+00   0.0000000000E+00   0.2288959792E+00
   0.1469317547E+00   0.1280307953E+00   0.5329341505E-04  -0.1285929642E-04   0.4263473204E-03  -0.1028743714E-03   0.2666091429E+00  -0.4218922420E-01   0.6732597561E-01  -0.2641659930E-01   0.0000000000E+00   0.0000000000E+00   0.2590681175E-02  -0.1423697597E-02  -0.3434157909E-03   0.0000000000E+00   0.0000000000E+00   0.0000000000E+00   0.2749342431E+00
   0.1674487060E+00   0.1252840329E+00   0.5951766449E-04  -0.1020212695E-04   0.4761413159E-03  -0.8161701564E-04   0.2500381617E+00  -0.3154447815E-01   0.6554810505E-01  -0.3157679507E-01   0.0000000000E+00   0.0000000000E+00   0.2398370736E-02  -0.1262203582E-02  -0.4104983359E-03   0.0000000000E+00   0.0000000000E+00   0.0000000000E+00   0.2536460132E+00
   0.1496855107E+00   0.9402302634E-01   0.6173808214E-04  -0.7357051614E-05   0.4939046571E-03  -0.5885641291E-04   0.2102710293E+00  -0.4466224275E-01   0.4968263596E-01  -0.5413955173E-01   0.0000000000E+00   0.0000000000E+00   0.2087649113E-02  -0.1226483423E-02  -0.7038141725E-03   0.0000000000E+00   0.0000000000E+00   0.0000000000E+00   0.2423999025E+00
   0.1543142368E+00   0.1131722838E+00   0.5846741680E-04  -0.9756240121E-05   0.4677393344E-03  -0.7804992097E-04   0.2423867594E+00  -0.4600607412E-01   0.5891420557E-01  -0.4230375377E-01   0.0000000000E+00   0.0000000000E+00   0.2385143199E-02  -0.1363963636E-02  -0.5499487991E-03   0.0000000000E+00   0.0000000000E+00   0.0000000000E+00   0.2630907674E+00
   0.1654650348E+00   0.1063211174E+00   0.6271819546E-04  -0.7833180590E-05   0.5017455637E-03  -0.6266544472E-04   0.2179664923E+00  -0.3661979125E-01   0.5440401033E-01  -0.4398242256E-01   0.0000000000E+00   0.0000000000E+00   0.2126312266E-02  -0.1183309420E-02  -0.5717714933E-03   0.0000000000E+00   0.0000000000E+00   0.0000000000E+00   0.2357478113E+00
   0.1412241243E+00   0.1126110983E+00   0.5509548119E-04  -0.1112807777E-04   0.4407638495E-03  -0.8902462218E-04   0.2589434201E+00  -0.4744706227E-01   0.6344890734E-01  -0.3736971066E-01   0.0000000000E+00   0.0000000000E+00   0.2541428665E-02  -0.1441647605E-02  -0.4858062385E-03   0.0000000000E+00   0.0000000000E+00   0.0000000000E+00   0.2755419175E+00
           1           2           3           3
           4           5           6           6
           7           8           9           9
          10          11          12          12
          13           7          14          14
          15          16          17          17
          18          19          10          10
          20          21          22          22
          23          24           2           2
          25          23           2           2
          26           3          27          27
          28          29          30          30
          31          32          33          33
          34          31          25          25
          35          36          20          20
          26          27           8           8
          37          15          17          17
          38          39          40          40
          41          40          42          42
          43          44          45          45
          46          47          41          41
          48          49          50          50
          51          52          53          53
          54          55          56          56
          57          58          59          59
          60          61          62          62
          63          64          57          57
          62          13          65          65
          66          67          68          68
          69          66          70          70
          71          72          73          73
          74          75          76          76
          75          77          78          78
          77          79          78          78
          80          53          48          48
          81          82          83          83
          45          84          85          85
          44          86          45          45
          87          88          44          44
          41          42          87          87
          36          89          21          21
          20          36          21          21
          35          30          90          90
          91           1          26          26
          92          93          30          30
           6          94          92          92
          95          96           4           4
          12          97          95          95
          98          12          95          95
          99         100          10          10
         101         102          99          99
         103         104         101         101
         105         106         103         103
         107         108         105         105
         109         110         107         107
         111         112         109         109
          69          70         111         111
           8          27           9           9
           7           9          14          14
          13          14          65          65
         113         114         115         115
          59          58         116         116
          51         116          52          52
          62          65          15          15
         117         118         119         119
         120         121         122         122
         122         123         124         124
          31          33          25          25
          25          33          23          23
          28          20         120         120
         124          32          31          31
         125         124         126         126
         124         123          32          32
         127         120         122         122
         122         121         123         123
         120          20          22          22
         120          22         121         121
          91         128          34          34
         129           4           6           6
          37          17         130         130
         131         132          63          63
          53          52          49          49
          85         133          83          83
          83         134         135         135
          51          59         116         116
          57          64          58          58
          19          99          10          10
         136          63         137         137
          63         132          64          64
         138          60          37          37
         131         130         132         132
          37          62          15          15
          37         130         131         131
         135         134          79          79
         139         103         101         101
          56          55          82          82
          83         133         134         134
          55          45          85          85
          85          84         133         133
         140          46         141         141
          45          86          84          84
         142          44          43          43
          44          88          86          86
          46          87         142         142
          87          42          88          88
          47          38          41          41
          41          38          40          40
         143          29         144         144
          30          93          90          90
         145          92          29          29
          92          94          93          93
         146         147         129         129
           6           5          94          94
         148         149         150         150
           4          96           5           5
         151           7         152         152
          95          97          96          96
          18          12          98          98
          12          11          97          97
         153         139         101         101
          10         100          11          11
         153          99          19          19
          99         102         100         100
         154          51         155         155
         101         104         102         102
         156          71          73          73
         103         106         104         104
         157         103         139         139
         105         108         106         106
          74          76         158         158
         107         110         108         108
          76          75         159         159
         109         112         110         110
         160         109          72          72
         111          70         112         112
         161          67          69          69
          69          67          66          66
         126         124          31          31
         128         162         126         126
         144          28         127         127
         125         127         122         122
         125         122         124         124
         143         146         145         145
          77         135          79          79
          75          78         159         159
          82          85          83          83
         163         164         165         165
          76         159         166         166
         167         168          74          74
          81          83         135         135
         169          56          82          82
          55          43          45          45
          55          85          82          82
         170         141         171         171
         142          87          44          44
         161          76         166         166
         158          69         111         111
         172         135          77          77
         173         139         174         174
         161         166          67          67
         158         161          69          69
          72         109         107         107
         175         107         105         105
         176          95           4           4
         152           7          13          13
         145           6          92          92
         114         177         178         178
          18          10          12          12
         154          59          51          51
         153         101          99          99
         179         137          57          57
         114         180         181         181
         181         182          19          19
         183         179         184         184
         174         153         182         182
         173         185         157         157
         157         105         103         103
          29          92          30          30
         186         127         125         125
          35          90          36          36
          28          35          20          20
         186         144         127         127
         145         129           6           6
         176          98          95          95
         176           4         129         129
         175          72         107         107
         175         105         157         157
          74         187          75          75
         160         111         109         109
           1          25           2           2
           1           3          26          26
          48          53          49          49
         188          48          50          50
         188          50         189         189
          47         188         189         189
         155          51          53          53
         190         164         191         191
         137          63          57          57
         179          57          59          59
         154         179          59          59
         183         192         137         137
         193         194         195         195
         196         184         154         154
          60          62          37          37
         136         131          63          63
          47         189          38          38
          46          41          87          87
          28          30          35          35
          28         120         127         127
         141          46         142         142
          46         188          47          47
         197          26           8           8
         151           8           7           7
         178         198         199         199
          61         152          13          13
          61          13          62          62
         200         136         192         192
         198         176         147         147
         151         197           8           8
          34         126          31          31
          34          25           1           1
         158          76         161         161
         158         111         160         160
         144          29          28          28
         162         125         126         126
         162         186         125         125
         201         162         128         128
         128         126          34          34
         202         203         204         204
         140         188          46          46
         171         142          43          43
          91          34           1           1
         205         199         147         147
         168         206         187         187
         187          77          75          75
         167         158         160         160
         207         208         206         206
         169          82          81          81
         195         209         184         184
         210          81         172         172
         173         157         139         139
         190         170         211         211
          54          43          55          55
         171         141         142         142
         171          43          54          54
         172          81         135         135
         172          77         187         187
         182         153          19          19
         181          19          18          18
         147         176         129         129
         146         129         145         145
         177          18          98          98
         212         213         214         214
         143         145          29          29
         204         203         143         143
          73          72         175         175
         185         175         157         157
         215         182         180         180
         174         139         153         153
         216         185         217         217
         185          73         175         175
         198          98         176         176
         199         198         147         147
         167          71         168         168
          71         160          72          72
         177         181          18          18
         177          98         198         198
         215         174         182         182
         218         219         220         220
         143         144         186         186
         202         204         201         201
          91          26         197         197
         221          91         197         197
          80         155          53          53
         140          80          48          48
         184         179         154         154
         196         154         155         155
         192         136         137         137
         183         137         179         179
         215         222         174         174
         209         118         183         183
         223         155          80          80
         224          54          56          56
         138          37         131         131
         138         200          60          60
         140          48         188         188
         170         140         141         141
         170          80         140         140
         211          54         224         224
         225          61         200         200
         200          61          60          60
         221         128          91          91
         149         226         199         199
         227         228         208         208
         206         172         187         187
         229          56         169         169
         229         224          56          56
         211         170         171         171
         211         171          54          54
         168         187          74          74
         156         168          71          71
         228         169         210         210
         217         185         173         173
         210         169          81          81
         210         172         206         206
         167          74         158         158
         167         160          71          71
         222         173         174         174
         230         231         217         217
         205         147         146         146
         226         178         199         199
         232         233         234         234
         178         177         198         198
         235         156         216         216
         216          73         185         185
         207         168         156         156
         156          73         216         216
         180         182         181         181
         114         181         177         177
         203         205         146         146
         150         202         201         201
         194         236         209         209
         222         217         173         173
         115         178         226         226
         237         115         226         226
         203         146         143         143
         204         143         186         186
         238         180         113         113
         239         238         240         240
         221         201         128         128
         241         197         151         151
         223         196         155         155
         223          80         170         170
         118         192         183         183
         209         183         184         184
         195         184         196         196
         242         215         238         238
         191         196         223         223
         165         164         224         224
         204         186         162         162
         204         162         201         201
         227         208         235         235
         208         210         206         206
         164         211         224         224
         165         224         229         229
         243         229         228         228
         244         220         245         245
         207         206         168         168
         235         207         156         156
         149         199         205         205
         246         148         247         247
         231         216         217         217
         230         217         222         222
         138         131         136         136
         138         136         200         200
         235         208         207         207
         235         216         231         231
         213         248         214         214
         115         114         178         178
         202         149         205         205
         249         221         241         241
         242         222         215         215
         250         244         245         245
         202         205         203         203
         150         201         221         221
         251         115         237         237
         113         180         114         114
         240         113         251         251
         238         215         180         180
         252         233         245         245
         242         230         222         222
         228         229         169         169
         228         210         208         208
         191         195         196         196
         190         191         223         223
         236         118         209         209
         194         209         195         195
         193         195         191         191
         253         219         230         230
         190         223         170         170
         190         211         164         164
         241         221         197         197
         150         149         202         202
         248         241         151         151
         249         148         150         150
         218         235         231         231
         218         220         227         227
         148         237         226         226
         254         251         237         237
         148         226         149         149
         246         247         248         248
         219         231         230         230
         253         230         242         242
         255         251         254         254
         251         113         115         115
         239         242         238         238
         252         245         253         253
         234         252         239         239
         240         238         113         113
         234         240         255         255
         239         253         242         242
         243         165         229         229
         243         228         227         227
         163         191         164         164
         244         243         220         220
         225         212          61          61
         119         118         236         236
         249         150         221         221
         247         249         241         241
         233         236         194         194
         250         245         233         233
         214         151         152         152
         256         213         212         212
         247         148         249         249
         247         241         248         248
         220         243         227         227
         245         220         219         219
         213         246         248         248
         246         237         148         148
         257         255         254         254
         254         237         246         246
         245         219         253         253
         250         233         194         194
         163         244         250         250
         244         165         243         243
         232         234         255         255
         255         240         251         251
         252         253         239         239
         234         239         240         240
         258         255         257         257
         234         233         252         252
         232         119         236         236
         232         236         233         233
         250         194         193         193
         163         250         193         193
         117         200         192         192
         117         192         118         118
         218         227         235         235
         218         231         219         219
         214         248         151         151
         212         214         152         152
         259         256         257         257
         259         246         213         213
         212         152          61          61
         225         256         212         212
         258         257         256         256
         259         257         254         254
         163         193         191         191
         163         165         244         244
         256         117         119         119
         258         256         119         119
         259         254         246         246
         259         213         256         256
         258         119         232         232
         258         232         255         255
         225         200         117         117
         225         117         256         256
 VARIABLES = X,Y,DU1,DU2,U1,U2,S11,S22,S33,S12,S13,S23,E11,E22,E12,E33,E13,E23,SMISES
 ZONE, T="0.1000D+02" F=FEPOINT, I=  259 J=  457
   0.3725055872E-01   0.1121069973E+00   0.1941201151E-04  -0.3282987469E-04   0.1747081036E-03  -0.2954688722E-03   0.5269879183E+00   0.5570588808E-01   0.1748081419E+00  -0.6010487336E-01   0.0000000000E+00   0.0000000000E+00   0.4578337093E-02  -0.1548329300E-02  -0.7813633536E-03   0.0000000000E+00   0.0000000000E+00   0.0000000000E+00   0.4360938593E+00
   0.1965592252E-01   0.9775522144E-01   0.1468901177E-04  -0.3233051595E-04   0.1322011059E-03  -0.2909746436E-03   0.7058312759E+00   0.7277489746E-01   0.2335818520E+00  -0.8176195341E-01   0.0000000000E+00   0.0000000000E+00   0.6139242510E-02  -0.2090490409E-02  -0.1062905394E-02   0.0000000000E+00   0.0000000000E+00   0.0000000000E+00   0.5866777490E+00
   0.3855922657E-01   0.9209552909E-01   0.2908839679E-04  -0.2924228052E-04   0.2617955711E-03  -0.2631805246E-03   0.6546352299E+00   0.1131332338E+00   0.2303305391E+00  -0.1681969127E+00   0.0000000000E+00   0.0000000000E+00   0.5515960981E-02  -0.1523564969E-02  -0.2186559866E-02   0.0000000000E+00   0.0000000000E+00   0.0000000000E+00   0.5691055933E+00
   0.1071742787E+00   0.2327691504E+00   0.2644377234E-04  -0.3516485853E-04   0.2379939510E-03  -0.3164837268E-03   0.3148086920E+00  -0.2069444277E-02   0.9382177432E-01   0.1605257006E-01   0.0000000000E+00   0.0000000000E+00   0.2872829930E-02  -0.1246585842E-02   0.2086834108E-03   0.0000000000E+00   0.0000000000E+00   0.0000000000E+00   0.2829409512E+00
   0.9743414914E-01   0.2496107359E+00   0.2119252365E-04  -0.3892640651E-04   0.1907327129E-03  -0.3503376586E-03   0.3004955504E+00  -0.8055992593E-03   0.8990698534E-01   0.7623797148E-02   0.0000000000E+00   0.0000000000E+00   0.2737651346E-02  -0.1179263600E-02   0.9910936292E-04   0.0000000000E+00   0.0000000000E+00   0.0000000000E+00   0.2678242410E+00
   0.8757902166E-01   0.2326394455E+00   0.2098553643E-04  -0.3866714709E-04   0.1888698279E-03  -0.3480043238E-03   0.2989501120E+00  -0.9687291621E-03   0.8939441485E-01   0.1838818474E-01   0.0000000000E+00   0.0000000000E+00   0.2724224063E-02  -0.1174720872E-02   0.2390464016E-03   0.0000000000E+00   0.0000000000E+00   0.0000000000E+00   0.2685220681E+00
   0.8928493237E-01   0.7366047858E-01   0.5497542748E-04  -0.1458594200E-04   0.4947788473E-03  -0.1312734780E-03   0.1904202982E+00  -0.2523486243E-01   0.4955563073E-01  -0.7261753272E-01   0.0000000000E+00   0.0000000000E+00   0.1831240677E-02  -0.9722764110E-03  -0.9440279253E-03   0.0000000000E+00   0.0000000000E+00   0.0000000000E+00   0.2284115225E+00
   0.7372860506E-01   0.8893630380E-01   0.4355673570E-04  -0.2084923025E-04   0.3920106213E-03  -0.1876430723E-03   0.3004351980E+00   0.9478414075E-02   0.9297408361E-01  -0.9105454869E-01   0.0000000000E+00   0.0000000000E+00   0.2696994487E-02  -0.1085443704E-02  -0.1183709133E-02   0.0000000000E+00   0.0000000000E+00   0.0000000000E+00   0.3077416901E+00
   0.7125139298E-01   0.7050375823E-01   0.5407115790E-04  -0.2069231709E-04   0.4866404211E-03  -0.1862308538E-03   0.1928168041E+00   0.6039351510E-01   0.7596309575E-01  -0.1016869243E+00   0.0000000000E+00   0.0000000000E+00   0.1519098208E-02  -0.2024045485E-03  -0.1321930015E-02   0.0000000000E+00   0.0000000000E+00   0.0000000000E+00   0.2065342187E+00
   0.1657145076E+00   0.2328502201E+00   0.4411246148E-04  -0.2566909036E-04   0.3970121533E-03  -0.2310218132E-03   0.3424261637E+00  -0.2717394330E-02   0.1019126308E+00   0.4217632903E-02   0.0000000000E+00   0.0000000000E+00   0.3126675928E-02  -0.1360190327E-02   0.5482922774E-04   0.0000000000E+00   0.0000000000E+00   0.0000000000E+00   0.3066169356E+00
   0.1559435622E+00   0.2497065446E+00   0.3880011876E-04  -0.2934553547E-04   0.3492010689E-03  -0.2641098192E-03   0.3537236954E+00  -0.4664173315E-03   0.1059771834E+00   0.2716030394E-02   0.0000000000E+00   0.0000000000E+00   0.3220704656E-02  -0.1383766810E-02   0.3530839512E-04   0.0000000000E+00   0.0000000000E+00   0.0000000000E+00   0.3147726391E+00
   0.1462069156E+00   0.2328332671E+00   0.3807095796E-04  -0.2851478869E-04   0.3426386216E-03  -0.2566330982E-03   0.3371558368E+00  -0.2950287661E-02   0.1002616648E+00   0.8314729958E-02   0.0000000000E+00   0.0000000000E+00   0.3079624237E-02  -0.1341755381E-02   0.1080914895E-03   0.0000000000E+00   0.0000000000E+00   0.0000000000E+00   0.3023951721E+00
   0.1024616713E+00   0.5674123375E-01   0.6457102540E-04  -0.9188814991E-05   0.5811392286E-03  -0.8269933492E-04   0.1095177409E+00  -0.5996718575E-01   0.1486516655E-01  -0.5446018307E-01   0.0000000000E+00   0.0000000000E+00   0.1230483467E-02  -0.9728205799E-03  -0.7079823799E-03   0.0000000000E+00   0.0000000000E+00   0.0000000000E+00   0.1747023717E+00
   0.8378149950E-01   0.5540250212E-01   0.6345400012E-04  -0.1545215750E-04   0.5710860011E-03  -0.1390694175E-03   0.5530019881E-01  -0.5007858815E-01   0.1566483199E-02  -0.2500244717E-01   0.0000000000E+00   0.0000000000E+00   0.6985383030E-03  -0.6713859275E-03  -0.3250318132E-03   0.0000000000E+00   0.0000000000E+00   0.0000000000E+00   0.1094272680E+00
   0.9882692980E-01   0.1946103840E-01   0.7484032045E-04  -0.4799400208E-05   0.6735628840E-03  -0.4319460188E-04  -0.1253079428E-01  -0.1940601075E+00  -0.6197727054E-01   0.7426882352E-02   0.0000000000E+00   0.0000000000E+00   0.6428041913E-03  -0.1717076881E-02   0.9654947058E-04   0.0000000000E+00   0.0000000000E+00   0.0000000000E+00   0.1647418831E+00
   0.1007523891E+00   0.0000000000E+00   0.7523880562E-04   0.0000000000E+00   0.6771492506E-03   0.0000000000E+00   0.1957212600E-01  -0.3629254404E+00  -0.1030059943E+00  -0.1225041625E-01   0.0000000000E+00   0.0000000000E+00   0.1593515564E-02  -0.3378952799E-02  -0.1592554113E-03   0.0000000000E+00   0.0000000000E+00   0.0000000000E+00   0.3348573712E+00
   0.1216083581E+00   0.0000000000E+00   0.7750281467E-04   0.0000000000E+00   0.6975253320E-03   0.0000000000E+00  -0.9167465092E-02  -0.1539709981E+00  -0.4894153894E-01   0.2116473718E-02   0.0000000000E+00   0.0000000000E+00   0.5170629601E-03  -0.1365382968E-02   0.2751415834E-04   0.0000000000E+00   0.0000000000E+00   0.0000000000E+00   0.1343369682E+00
   0.1559677164E+00   0.2159476756E+00   0.4318394341E-04  -0.2474904393E-04   0.3886554907E-03  -0.2227413953E-03   0.3322397680E+00  -0.7741591685E-02   0.9734945289E-01   0.9915267923E-02   0.0000000000E+00   0.0000000000E+00   0.3053574096E-02  -0.1366183579E-02   0.1288984830E-03   0.0000000000E+00   0.0000000000E+00   0.0000000000E+00   0.3019564000E+00
   0.1754835351E+00   0.2159578079E+00   0.4912721475E-04  -0.2210861187E-04   0.4421449328E-03  -0.1989775068E-03   0.3323757866E+00  -0.6470608772E-02   0.9777155334E-01   0.3202386722E-02   0.0000000000E+00   0.0000000000E+00   0.3049855032E-02  -0.1355148107E-02   0.4163102738E-04   0.0000000000E+00   0.0000000000E+00   0.0000000000E+00   0.3006383123E+00
   0.1755933493E-01   0.2240672285E+00   0.4126342857E-05  -0.4690115214E-04   0.3713708572E-04  -0.4221103693E-03   0.2704582680E+00   0.8272336218E-02   0.8361918126E-01   0.7370494146E-02   0.0000000000E+00   0.0000000000E+00   0.2428908127E-02  -0.9795089856E-03   0.9581642390E-04   0.0000000000E+00   0.0000000000E+00   0.0000000000E+00   0.2345484683E+00
   0.0000000000E+00   0.2307696658E+00   0.0000000000E+00  -0.4803372350E-04   0.0000000000E+00  -0.4323035115E-03   0.2362667542E+00   0.6697529840E-02   0.7288928522E-01   0.1704090418E-02   0.0000000000E+00   0.0000000000E+00   0.2123907097E-02  -0.8604928199E-03   0.2215317544E-04   0.0000000000E+00   0.0000000000E+00   0.0000000000E+00   0.2048455167E+00
   0.0000000000E+00   0.2120372224E+00   0.0000000000E+00  -0.4627835925E-04   0.0000000000E+00  -0.4165052332E-03   0.2823333251E+00   0.1596538116E-01   0.8948961188E-01   0.8480308920E-02   0.0000000000E+00   0.0000000000E+00   0.2506968272E-02  -0.9558149994E-03   0.1102440160E-03   0.0000000000E+00   0.0000000000E+00   0.0000000000E+00   0.2386365079E+00
   0.0000000000E+00   0.1183785985E+00   0.0000000000E+00  -0.3714004802E-04   0.0000000000E+00  -0.3342604322E-03   0.6696620664E+00   0.7023715092E-01   0.2219697652E+00  -0.1912841950E-01   0.0000000000E+00   0.0000000000E+00   0.5819999915E-02  -0.1972523985E-02  -0.2486694536E-03   0.0000000000E+00   0.0000000000E+00   0.0000000000E+00   0.5447558974E+00
   0.0000000000E+00   0.9968500475E-01   0.0000000000E+00  -0.3149962457E-04   0.0000000000E+00  -0.2834966212E-03   0.9922800295E+00  -0.1264318748E-01   0.2938910526E+00  -0.5107556294E-02   0.0000000000E+00   0.0000000000E+00   0.9079056700E-02  -0.3984945121E-02  -0.6639823182E-04   0.0000000000E+00   0.0000000000E+00   0.0000000000E+00   0.8838820868E+00
   0.1831810116E-01   0.1242037240E+00   0.8175276058E-05  -0.3684340132E-04   0.7357748452E-04  -0.3315906119E-03   0.4882685418E+00   0.6923894184E-01   0.1672522451E+00  -0.2026836092E-01   0.0000000000E+00   0.0000000000E+00   0.4173211857E-02  -0.1274172942E-02  -0.2634886920E-03   0.0000000000E+00   0.0000000000E+00   0.0000000000E+00   0.3826330092E+00
   0.5589903916E-01   0.1015287345E+00   0.3139192580E-04  -0.2726465151E-04   0.2825273322E-03  -0.2453818635E-03   0.4121014238E+00   0.2424943622E-01   0.1309052580E+00  -0.8722848383E-01   0.0000000000E+00   0.0000000000E+00   0.3655550155E-02  -0.1386525683E-02  -0.1133970290E-02   0.0000000000E+00   0.0000000000E+00   0.0000000000E+00   0.3809960650E+00
   0.5598188080E-01   0.8289282953E-01   0.4248571004E-04  -0.2541299733E-04   0.3823713903E-03  -0.2287169759E-03   0.4083578801E+00   0.1164470838E+00   0.1574414892E+00  -0.1687276327E+00   0.0000000000E+00   0.0000000000E+00   0.3261913082E-02  -0.5329272698E-03  -0.2193459226E-02   0.0000000000E+00   0.0000000000E+00   0.0000000000E+00   0.3899340910E+00
   0.3660691591E-01   0.2149706895E+00   0.9197800863E-05  -0.4450264583E-04   0.8278020776E-04  -0.4005238125E-03   0.2863918551E+00   0.1018790195E-01   0.8897392711E-01   0.2312495899E-01   0.0000000000E+00   0.0000000000E+00   0.2566433064E-02  -0.1024218327E-02   0.3006244668E-03   0.0000000000E+00   0.0000000000E+00   0.0000000000E+00   0.2496836276E+00
   0.5775724798E-01   0.2154680755E+00   0.1468032773E-04  -0.4170714757E-04   0.1321229496E-03  -0.3753643281E-03   0.2944689208E+00   0.3081367815E-02   0.8926508659E-01   0.3000328936E-01   0.0000000000E+00   0.0000000000E+00   0.2667649845E-02  -0.1120388344E-02   0.3900427616E-03   0.0000000000E+00   0.0000000000E+00   0.0000000000E+00   0.2642654984E+00
   0.4862853945E-01   0.2326384268E+00   0.1102542486E-04  -0.4482782298E-04   0.9922882372E-04  -0.4034504068E-03   0.2680375409E+00   0.4429759241E-02   0.8174019005E-01   0.1769688365E-01   0.0000000000E+00   0.0000000000E+00   0.2421865561E-02  -0.1005035601E-02   0.2300594875E-03   0.0000000000E+00   0.0000000000E+00   0.0000000000E+00   0.2368973169E+00
   0.1750340160E-01   0.1452616421E+00   0.6212139837E-05  -0.3933338926E-04   0.5590925853E-04  -0.3540005034E-03   0.4207457918E+00   0.6505134950E-01   0.1457391424E+00   0.9746448833E-02   0.0000000000E+00   0.0000000000E+00   0.3575086442E-02  -0.1048941308E-02   0.1267038348E-03   0.0000000000E+00   0.0000000000E+00   0.0000000000E+00   0.3235331340E+00
   0.0000000000E+00   0.1558384737E+00   0.0000000000E+00  -0.4115263408E-04   0.0000000000E+00  -0.3703737068E-03   0.3942408612E+00   0.7348759800E-01   0.1403185378E+00   0.1025628712E-01   0.0000000000E+00   0.0000000000E+00   0.3300990205E-02  -0.8688022170E-03   0.1333317326E-03   0.0000000000E+00   0.0000000000E+00   0.0000000000E+00   0.2943385113E+00
   0.0000000000E+00   0.1371055002E+00   0.0000000000E+00  -0.3945028195E-04   0.0000000000E+00  -0.3550525376E-03   0.4676460976E+00   0.9509173293E-01   0.1688213492E+00   0.2626672592E-01   0.0000000000E+00   0.0000000000E+00   0.3884721730E-02  -0.9584850111E-03   0.3414674370E-03   0.0000000000E+00   0.0000000000E+00   0.0000000000E+00   0.3416928444E+00
   0.3607047074E-01   0.1339992581E+00   0.1409175419E-04  -0.3588499247E-04   0.1268257877E-03  -0.3229649322E-03   0.4514841253E+00   0.6324586543E-01   0.1544189972E+00   0.8116149362E-02   0.0000000000E+00   0.0000000000E+00   0.3861846665E-02  -0.1185250713E-02   0.1055099417E-03   0.0000000000E+00   0.0000000000E+00   0.0000000000E+00   0.3516851197E+00
   0.3222853778E-01   0.2341105995E+00   0.7092667677E-05  -0.4679655008E-04   0.6383400910E-04  -0.4211689507E-03   0.2456911573E+00   0.1616737917E-02   0.7419236856E-01   0.1292341423E-01   0.0000000000E+00   0.0000000000E+00   0.2229484253E-02  -0.9434831983E-03   0.1680043850E-03   0.0000000000E+00   0.0000000000E+00   0.0000000000E+00   0.2181021816E+00
   0.1948082194E-01   0.2495084069E+00   0.3637683758E-05  -0.4915930531E-04   0.3273915382E-04  -0.4424337478E-03   0.2215435848E+00   0.2016825898E-02   0.6706812322E-01   0.3561878549E-02   0.0000000000E+00   0.0000000000E+00   0.2008181001E-02  -0.8456668651E-03   0.4630442113E-04   0.0000000000E+00   0.0000000000E+00   0.0000000000E+00   0.1956953271E+00
   0.1296621640E+00   0.2145134706E-01   0.7610399698E-04  -0.1517634148E-05   0.6849359728E-03  -0.1365870733E-04   0.2477570715E-01  -0.6063109756E-01  -0.1075661712E-01  -0.2367873350E-01   0.0000000000E+00   0.0000000000E+00   0.4619202156E-03  -0.6483682457E-03  -0.3078235355E-03   0.0000000000E+00   0.0000000000E+00   0.0000000000E+00   0.8720838828E-01
   0.3301387319E+00   0.0000000000E+00   0.9720509032E-04   0.0000000000E+00   0.8748458128E-03   0.0000000000E+00   0.1674737950E+00   0.4695465414E-01   0.6432853474E-01  -0.6773013602E-03   0.0000000000E+00   0.0000000000E+00   0.1340888383E-02  -0.2258604478E-03  -0.8804917683E-05   0.0000000000E+00   0.0000000000E+00   0.0000000000E+00   0.1128407267E+00
   0.3509999940E+00   0.0000000000E+00   0.1000000000E-03   0.0000000000E+00   0.9000000000E-03   0.0000000000E+00   0.1663076383E+00   0.4667452487E-01   0.6389464894E-01   0.3229563233E-03   0.0000000000E+00   0.0000000000E+00   0.1331368861E-02  -0.2238616130E-03   0.4198432203E-05   0.0000000000E+00   0.0000000000E+00   0.0000000000E+00   0.1120183931E+00
   0.3509999940E+00   0.1922640153E-01   0.1000000000E-03  -0.4368373714E-06   0.9000000000E-03  -0.3931536343E-05   0.1698678077E+00   0.4697213436E-01   0.6505198260E-01   0.3138871359E-04   0.0000000000E+00   0.0000000000E+00   0.1362605726E-02  -0.2350380272E-03   0.4080532766E-06   0.0000000000E+00   0.0000000000E+00   0.0000000000E+00   0.1149295895E+00
   0.3324036037E+00   0.2616558923E-01   0.9743306808E-04  -0.6111768354E-06   0.8768976128E-03  -0.5500591519E-05   0.1722026032E+00   0.4655720063E-01   0.6562794114E-01  -0.1814305591E-02   0.0000000000E+00   0.0000000000E+00   0.1385470606E-02  -0.2479196266E-03  -0.2358597269E-04   0.0000000000E+00   0.0000000000E+00   0.0000000000E+00   0.1172995673E+00
   0.3509999940E+00   0.3845225541E-01   0.1000000000E-03  -0.9284490916E-06   0.9000000000E-03  -0.8356041825E-05   0.1757425395E+00   0.4439279958E-01   0.6604060173E-01  -0.1659514847E-03   0.0000000000E+00   0.0000000000E+00   0.1426125191E-02  -0.2814214278E-03  -0.2157369301E-05   0.0000000000E+00   0.0000000000E+00   0.0000000000E+00   0.1219732230E+00
   0.3167240803E+00   0.7693223207E-01   0.9432622658E-04  -0.2333973297E-05   0.8489360393E-03  -0.2100575967E-04   0.1968363119E+00   0.3467974289E-01   0.6945481644E-01  -0.9234991689E-02   0.0000000000E+00   0.0000000000E+00   0.1655959441E-02  -0.4520759561E-03  -0.1200548920E-03   0.0000000000E+00   0.0000000000E+00   0.0000000000E+00   0.1487170008E+00
   0.3337008507E+00   0.6719033097E-01   0.9724946777E-04  -0.1906182922E-05   0.8752452099E-03  -0.1715564630E-04   0.1910831602E+00   0.3809612195E-01   0.6875378466E-01  -0.4036642008E-02   0.0000000000E+00   0.0000000000E+00   0.1590281883E-02  -0.3985496152E-03  -0.5247634610E-04   0.0000000000E+00   0.0000000000E+00   0.0000000000E+00   0.1403527461E+00
   0.3340554570E+00   0.8652977799E-01   0.9707249753E-04  -0.2769230808E-05   0.8736524777E-03  -0.2492307727E-04   0.2042605125E+00   0.3298488269E-01   0.7117361854E-01  -0.4563851452E-02   0.0000000000E+00   0.0000000000E+00   0.1730129621E-02  -0.4964535661E-03  -0.5933006888E-04   0.0000000000E+00   0.0000000000E+00   0.0000000000E+00   0.1559235799E+00
   0.3123606856E+00   0.3580825229E-01   0.9454306042E-04  -0.8666808515E-06   0.8508875438E-03  -0.7800127664E-05   0.1723544778E+00   0.4311405404E-01   0.6464055954E-01  -0.6293741022E-02   0.0000000000E+00   0.0000000000E+00   0.1400280937E-02  -0.2798445715E-03  -0.8181863329E-04   0.0000000000E+00   0.0000000000E+00   0.0000000000E+00   0.1204189701E+00
   0.3167268192E+00   0.1595133356E-01   0.9536301880E-04  -0.3645236782E-06   0.8582671692E-03  -0.3280713104E-05   0.1669235861E+00   0.4573196245E-01   0.6379666457E-01  -0.2465494083E-02   0.0000000000E+00   0.0000000000E+00   0.1340649980E-02  -0.2348411276E-03  -0.3205142308E-04   0.0000000000E+00   0.0000000000E+00   0.0000000000E+00   0.1133378850E+00
   0.2785032296E+00   0.1795769367E-01   0.9030906378E-04  -0.4058028712E-06   0.8127815741E-03  -0.3652225841E-05   0.1592162043E+00   0.4194147119E-01   0.6034730266E-01  -0.5653902955E-02   0.0000000000E+00   0.0000000000E+00   0.1285295722E-02  -0.2392758091E-03  -0.7350073842E-04   0.0000000000E+00   0.0000000000E+00   0.0000000000E+00   0.1097340525E+00
   0.2675576348E+00   0.0000000000E+00   0.8909537818E-04   0.0000000000E+00   0.8018584036E-03   0.0000000000E+00   0.1525979467E+00   0.4140559541E-01   0.5820106262E-01  -0.2353876006E-02   0.0000000000E+00   0.0000000000E+00   0.1227159493E-02  -0.2183410737E-03  -0.3060038808E-04   0.0000000000E+00   0.0000000000E+00   0.0000000000E+00   0.1037578381E+00
   0.2884171241E+00   0.0000000000E+00   0.9171301002E-04   0.0000000000E+00   0.8254170901E-03   0.0000000000E+00   0.1598734234E+00   0.4422500815E-01   0.6122952946E-01  -0.1803089062E-02   0.0000000000E+00   0.0000000000E+00   0.1282370621E-02  -0.2210587771E-03  -0.2344015781E-04   0.0000000000E+00   0.0000000000E+00   0.0000000000E+00   0.1081565494E+00
   0.2363371606E+00   0.1793592440E-01   0.8517855705E-04  -0.3978398820E-06   0.7666070134E-03  -0.3580558938E-05   0.1396961573E+00   0.3367453602E-01   0.5201120799E-01  -0.1043909071E-01   0.0000000000E+00   0.0000000000E+00   0.1139904341E-02  -0.2383767356E-03  -0.1357081792E-03   0.0000000000E+00   0.0000000000E+00   0.0000000000E+00   0.1000374103E+00
   0.2466994831E+00   0.0000000000E+00   0.8661460806E-04   0.0000000000E+00   0.7795314725E-03   0.0000000000E+00   0.1423865336E+00   0.3735366323E-01   0.5392205905E-01  -0.3228873842E-02   0.0000000000E+00   0.0000000000E+00   0.1150038169E-02  -0.2153891457E-03  -0.4197535995E-04   0.0000000000E+00   0.0000000000E+00   0.0000000000E+00   0.9771164670E-01
   0.2573857493E+00   0.1801628018E-01   0.8766242762E-04  -0.4038623832E-06   0.7889618486E-03  -0.3634761449E-05   0.1506710854E+00   0.3848020946E-01   0.5674538845E-01  -0.8020571945E-02   0.0000000000E+00   0.0000000000E+00   0.1221034060E-02  -0.2374473270E-03  -0.1042674353E-03   0.0000000000E+00   0.0000000000E+00   0.0000000000E+00   0.1053286931E+00
   0.2998087768E+00   0.8659161575E-01   0.9115108225E-04  -0.2834995102E-05   0.8203597402E-03  -0.2551495592E-04   0.2031603348E+00   0.2967940554E-01   0.6985192210E-01  -0.1424644761E-01   0.0000000000E+00   0.0000000000E+00   0.1733009365E-02  -0.5222427153E-03  -0.1852038190E-03   0.0000000000E+00   0.0000000000E+00   0.0000000000E+00   0.1591936276E+00
   0.3170992063E+00   0.9618633106E-01   0.9388252582E-04  -0.3306704314E-05   0.8449427324E-03  -0.2976033883E-04   0.2113628532E+00   0.2912896404E-01   0.7214754516E-01  -0.9731500864E-02   0.0000000000E+00   0.0000000000E+00   0.1809799004E-02  -0.5592415546E-03  -0.1265095112E-03   0.0000000000E+00   0.0000000000E+00   0.0000000000E+00   0.1658341556E+00
   0.3001902130E+00   0.1058454650E+00   0.9041160451E-04  -0.3945999953E-05   0.8137044406E-03  -0.3551399958E-04   0.2190547695E+00   0.2412482718E-01   0.7295387901E-01  -0.1468377405E-01   0.0000000000E+00   0.0000000000E+00   0.1899311577E-02  -0.6347776738E-03  -0.1908890627E-03   0.0000000000E+00   0.0000000000E+00   0.0000000000E+00   0.1775051018E+00
   0.1944269263E+00   0.1782736771E-01   0.8086283346E-04  -0.4171990993E-06   0.7277655011E-03  -0.3754791894E-05   0.1072021772E+00   0.1714958064E-01   0.3730552735E-01  -0.1717440276E-01   0.0000000000E+00   0.0000000000E+00   0.9086564481E-03  -0.2620273073E-03  -0.2232672359E-03   0.0000000000E+00   0.0000000000E+00   0.0000000000E+00   0.8793340811E-01
   0.2049892929E+00   0.0000000000E+00   0.8226269061E-04   0.0000000000E+00   0.7403642154E-03   0.0000000000E+00   0.1112252650E+00   0.2399995280E-01   0.4056756535E-01  -0.5791398071E-02   0.0000000000E+00   0.0000000000E+00   0.9185500958E-03  -0.2153789632E-03  -0.7528817492E-04   0.0000000000E+00   0.0000000000E+00   0.0000000000E+00   0.8012006132E-01
   0.2153942050E+00   0.1790605906E-01   0.8289880062E-04  -0.4009839229E-06   0.7460892056E-03  -0.3608855306E-05   0.1253031993E+00   0.2678980714E-01   0.4562790192E-01  -0.1354213485E-01   0.0000000000E+00   0.0000000000E+00   0.1035778866E-02  -0.2448952322E-03  -0.1760477530E-03   0.0000000000E+00   0.0000000000E+00   0.0000000000E+00   0.9402180946E-01
   0.1328215800E+00   0.4105006420E-01   0.7271220213E-04  -0.2975130336E-05   0.6544098192E-03  -0.2677617303E-04   0.7577293398E-01  -0.6200293385E-01   0.4131000039E-02  -0.5806930156E-01   0.0000000000E+00   0.0000000000E+00   0.9313451412E-03  -0.8597411405E-03  -0.7549009203E-03   0.0000000000E+00   0.0000000000E+00   0.0000000000E+00   0.1565091190E+00
   0.1257539471E+00   0.5985218525E-01   0.6669990856E-04  -0.5398455227E-05   0.6002991770E-03  -0.4858609704E-04   0.1291149329E+00  -0.7050641825E-01   0.1758255439E-01  -0.7642154356E-01   0.0000000000E+00   0.0000000000E+00   0.1449920920E-02  -0.1145156644E-02  -0.9934800663E-03   0.0000000000E+00   0.0000000000E+00   0.0000000000E+00   0.2188052643E+00
   0.1137131273E+00   0.3918138006E-01   0.7163702634E-04  -0.4967444060E-05   0.6447332371E-03  -0.4470699654E-04   0.3954215574E-01  -0.1027307252E+00  -0.1895657084E-01  -0.3907590569E-01   0.0000000000E+00   0.0000000000E+00   0.7604834455E-03  -0.1089064007E-02  -0.5079867739E-03   0.0000000000E+00   0.0000000000E+00   0.0000000000E+00   0.1438855765E+00
   0.1735162859E+00   0.1762569508E-01   0.7913089277E-04  -0.4695721429E-06   0.7121780349E-03  -0.4226149286E-05   0.8451868750E-01   0.4189093098E-02   0.2661233418E-01  -0.2147862463E-01   0.0000000000E+00   0.0000000000E+00   0.7527825932E-03  -0.2915021341E-03  -0.2792221202E-03   0.0000000000E+00   0.0000000000E+00   0.0000000000E+00   0.8190815215E-01
   0.1841384603E+00   0.0000000000E+00   0.8051233002E-04   0.0000000000E+00   0.7246109702E-03   0.0000000000E+00   0.8804983774E-01   0.1268874424E-01   0.3022157459E-01  -0.8198961623E-02   0.0000000000E+00   0.0000000000E+00   0.7517674209E-03  -0.2279267946E-03  -0.1065865011E-03   0.0000000000E+00   0.0000000000E+00   0.0000000000E+00   0.6868530189E-01
   0.9309114170E-01   0.3816787967E-01   0.7031898010E-04  -0.1004629308E-04   0.6328708209E-03  -0.9041663774E-04  -0.1821913523E-02  -0.1845160518E+00  -0.5590138961E-01   0.1581868356E-01   0.0000000000E+00   0.0000000000E+00   0.7030331891E-03  -0.1671990609E-02   0.2056428863E-03   0.0000000000E+00   0.0000000000E+00   0.0000000000E+00   0.1573234336E+00
   0.3314974733E+00   0.2498185850E+00   0.9419153145E-04  -0.1814150357E-04   0.8477237831E-03  -0.1632735321E-03   0.3273207635E+00   0.2847742157E-03   0.9828166133E-01  -0.1440108465E-04   0.0000000000E+00   0.0000000000E+00   0.2977508329E-02  -0.1273959532E-02  -0.1872141004E-06   0.0000000000E+00   0.0000000000E+00   0.0000000000E+00   0.2906973721E+00
   0.3509999940E+00   0.2306127516E+00   0.1000000000E-03  -0.1564803975E-04   0.9000000000E-03  -0.1408323578E-03   0.3194942136E+00   0.2009711011E-03   0.9590855540E-01  -0.4397788134E-03   0.0000000000E+00   0.0000000000E+00   0.2906613556E-02  -0.1244198596E-02  -0.5717124574E-05   0.0000000000E+00   0.0000000000E+00   0.0000000000E+00   0.2838196771E+00
   0.3509999940E+00   0.2498188310E+00   0.1000000000E-03  -0.1811690379E-04   0.9000000000E-03  -0.1630521341E-03   0.3327105001E+00  -0.1205357172E-02   0.9945154288E-01   0.1200268375E-02   0.0000000000E+00   0.0000000000E+00   0.3032366444E-02  -0.1308539701E-02   0.1560348887E-04   0.0000000000E+00   0.0000000000E+00   0.0000000000E+00   0.2966832977E+00
   0.3249873439E+00   0.2321992509E+00   0.9244899176E-04  -0.1596961045E-04   0.8320409258E-03  -0.1437264941E-03   0.3199170238E+00   0.6251964004E-03   0.9616266605E-01  -0.2551425350E-02   0.0000000000E+00   0.0000000000E+00   0.2908806650E-02  -0.1241987105E-02  -0.3316852954E-04   0.0000000000E+00   0.0000000000E+00   0.0000000000E+00   0.2838813399E+00
   0.3119946264E+00   0.2498164314E+00   0.8835043679E-04  -0.1835685885E-04   0.7951539311E-03  -0.1652117296E-03   0.3317480497E+00   0.1360099598E-02   0.9993244478E-01  -0.2849612390E-03   0.0000000000E+00   0.0000000000E+00   0.3013602863E-02  -0.1281440487E-02  -0.3704496107E-05   0.0000000000E+00   0.0000000000E+00   0.0000000000E+00   0.2937732174E+00
   0.2841392314E+00   0.1995974498E+00   0.8197283816E-04  -0.1274481796E-04   0.7377555434E-03  -0.1147033617E-03   0.3019090275E+00   0.3060579119E-02   0.9149088199E-01  -0.9393970290E-02   0.0000000000E+00   0.0000000000E+00   0.2735435892E-02  -0.1149593937E-02  -0.1221216138E-03   0.0000000000E+00   0.0000000000E+00   0.0000000000E+00   0.2663867995E+00
   0.2737410539E+00   0.2160148724E+00   0.7821489395E-04  -0.1499395812E-04   0.7039340456E-03  -0.1349456231E-03   0.3160131312E+00   0.8952947372E-03   0.9507252778E-01  -0.8001192986E-02   0.0000000000E+00   0.0000000000E+00   0.2872227844E-02  -0.1224304030E-02  -0.1040155088E-03   0.0000000000E+00   0.0000000000E+00   0.0000000000E+00   0.2804979445E+00
   0.2640983444E+00   0.1993515771E+00   0.7648453726E-04  -0.1332028604E-04   0.6883608353E-03  -0.1198825743E-03   0.3046692162E+00   0.1331489048E-02   0.9180021158E-01  -0.1110627349E-01   0.0000000000E+00   0.0000000000E+00   0.2767297060E-02  -0.1176093393E-02  -0.1443815554E-03   0.0000000000E+00   0.0000000000E+00   0.0000000000E+00   0.2704129250E+00
   0.3164987100E+00   0.1922667531E+00   0.9093119617E-04  -0.1136598808E-04   0.8183807655E-03  -0.1022938927E-03   0.2914375343E+00   0.4733992850E-02   0.8885145814E-01  -0.6055604099E-02   0.0000000000E+00   0.0000000000E+00   0.2633618990E-02  -0.1093527049E-02  -0.7872285328E-04   0.0000000000E+00   0.0000000000E+00   0.0000000000E+00   0.2554847130E+00
   0.3340675444E+00   0.1824953765E+00   0.9568844018E-04  -0.1017834764E-04   0.8611959616E-03  -0.9160512875E-04   0.2842138734E+00   0.7690587312E-02   0.8757133820E-01  -0.3415244640E-02   0.0000000000E+00   0.0000000000E+00   0.2556352957E-02  -0.1038449762E-02  -0.4439818031E-04   0.0000000000E+00   0.0000000000E+00   0.0000000000E+00   0.2465668206E+00
   0.3340861557E+00   0.2015026897E+00   0.9544247375E-04  -0.1224042933E-04   0.8589822637E-03  -0.1101638639E-03   0.3000626169E+00   0.4443549207E-02   0.9135184983E-01  -0.2943707453E-02   0.0000000000E+00   0.0000000000E+00   0.2713239972E-02  -0.1129807908E-02  -0.3826819689E-04   0.0000000000E+00   0.0000000000E+00   0.0000000000E+00   0.2632162642E+00
   0.3341690389E+00   0.1633290449E+00   0.9598519135E-04  -0.8281110182E-05   0.8638667221E-03  -0.7452999164E-04   0.2680056819E+00   0.1187729438E-01   0.8396489288E-01  -0.4055900078E-02   0.0000000000E+00   0.0000000000E+00   0.2392530257E-02  -0.9371387805E-03  -0.5272670102E-04   0.0000000000E+00   0.0000000000E+00   0.0000000000E+00   0.2288800420E+00
   0.3509999940E+00   0.1729851493E+00   0.1000000000E-03  -0.9177871342E-05   0.9000000000E-03  -0.8260084208E-04   0.2758520058E+00   0.9677518347E-02   0.8565885725E-01   0.6033205817E-04   0.0000000000E+00   0.0000000000E+00   0.2472510931E-02  -0.9877574058E-03   0.7843167562E-06   0.0000000000E+00   0.0000000000E+00   0.0000000000E+00   0.2374876947E+00
   0.3509999940E+00   0.1537723649E+00   0.1000000000E-03  -0.7379511093E-05   0.9000000000E-03  -0.6641559984E-04   0.2596502789E+00   0.1439704253E-01   0.8221419644E-01   0.2111034257E-04   0.0000000000E+00   0.0000000000E+00   0.2306669072E-02  -0.8816230008E-03   0.2744344534E-06   0.0000000000E+00   0.0000000000E+00   0.0000000000E+00   0.2193539901E+00
   0.2685287185E+00   0.3628519593E-01   0.8853264907E-04  -0.8862074536E-06   0.7967938417E-03  -0.7975867083E-05   0.1623608573E+00   0.3756087323E-01   0.5997651916E-01  -0.1393987803E-01   0.0000000000E+00   0.0000000000E+00   0.1330996396E-02  -0.2914033971E-03  -0.1812184144E-03   0.0000000000E+00   0.0000000000E+00   0.0000000000E+00   0.1176227221E+00
   0.3173271865E+00   0.1345685926E+00   0.9280894746E-04  -0.5888344265E-05   0.8352805271E-03  -0.5299509839E-04   0.2437776772E+00   0.1804896777E-01   0.7854799349E-01  -0.9231228239E-02   0.0000000000E+00   0.0000000000E+00   0.2147985888E-02  -0.7864873344E-03  -0.1200059671E-03   0.0000000000E+00   0.0000000000E+00   0.0000000000E+00   0.2030052960E+00
   0.3173109021E+00   0.1154113690E+00   0.9337391188E-04  -0.4489895082E-05   0.8403652069E-03  -0.4040905574E-04   0.2271634394E+00   0.2348688247E-01   0.7519509655E-01  -0.9703761589E-02   0.0000000000E+00   0.0000000000E+00   0.1975588457E-02  -0.6722067831E-03  -0.1261489007E-03   0.0000000000E+00   0.0000000000E+00   0.0000000000E+00   0.1841335771E+00
   0.3342073960E+00   0.1249674674E+00   0.9656050119E-04  -0.5098057489E-05   0.8690445107E-03  -0.4588251740E-04   0.2350867243E+00   0.2189024334E-01   0.7709309029E-01  -0.4716663681E-02   0.0000000000E+00   0.0000000000E+00   0.2053917242E-02  -0.7176370103E-03  -0.6131662785E-04   0.0000000000E+00   0.0000000000E+00   0.0000000000E+00   0.1918247329E+00
   0.3509999940E+00   0.9612124814E-01   0.1000000000E-03  -0.3259976031E-05   0.9000000000E-03  -0.2933978428E-04   0.2115959837E+00   0.3054639507E-01   0.7264271364E-01  -0.2012443917E-03   0.0000000000E+00   0.0000000000E+00   0.1806392511E-02  -0.5472521415E-03  -0.2616177092E-05   0.0000000000E+00   0.0000000000E+00   0.0000000000E+00   0.1640914690E+00
   0.3341679889E+00   0.1057530066E+00   0.9683089282E-04  -0.3827144101E-05   0.8714780353E-03  -0.3444429691E-04   0.2191230338E+00   0.2744834959E-01   0.7397141502E-01  -0.4773237525E-02   0.0000000000E+00   0.0000000000E+00   0.1886971044E-02  -0.6047998505E-03  -0.6205208783E-04   0.0000000000E+00   0.0000000000E+00   0.0000000000E+00   0.1733558079E+00
   0.3509999940E+00   0.7690000253E-01   0.1000000000E-03  -0.2307727201E-05   0.9000000000E-03  -0.2076954481E-04   0.1977183066E+00   0.3582532166E-01   0.7006308847E-01  -0.1745905360E-03   0.0000000000E+00   0.0000000000E+00   0.1659517835E-02  -0.4450909685E-03  -0.2269676969E-05   0.0000000000E+00   0.0000000000E+00   0.0000000000E+00   0.1477692516E+00
   0.3328287211E+00   0.4722229750E-01   0.9732751395E-04  -0.1196580282E-05   0.8759476256E-03  -0.1076922254E-04   0.1796966936E+00   0.4254182773E-01   0.6667155641E-01  -0.3499182966E-02   0.0000000000E+00   0.0000000000E+00   0.1469326784E-02  -0.3136864729E-03  -0.4548937856E-04   0.0000000000E+00   0.0000000000E+00   0.0000000000E+00   0.1269625887E+00
   0.3509999940E+00   0.5767691866E-01   0.1000000000E-03  -0.1538934116E-05   0.9000000000E-03  -0.1385040704E-04   0.1856196251E+00   0.4036231299E-01   0.6779458141E-01  -0.1106679180E-03   0.0000000000E+00   0.0000000000E+00   0.1531725567E-02  -0.3566194895E-03  -0.1438682934E-05   0.0000000000E+00   0.0000000000E+00   0.0000000000E+00   0.1336567492E+00
   0.0000000000E+00   0.2495054224E+00   0.0000000000E+00  -0.4945776087E-04   0.0000000000E+00  -0.4451198479E-03   0.1871410197E+00   0.7028172931E-02   0.5825075778E-01   0.9174048263E-02   0.0000000000E+00   0.0000000000E+00   0.1675573405E-02  -0.6658936030E-03   0.1192626274E-03   0.0000000000E+00   0.0000000000E+00   0.0000000000E+00   0.1610312838E+00
   0.3896246832E-01   0.2495247029E+00   0.7357802020E-05  -0.4752971173E-04   0.6622021818E-04  -0.4277674055E-03   0.2160921010E+00  -0.8580750662E-03   0.6457020779E-01   0.6044715480E-02   0.0000000000E+00   0.0000000000E+00   0.1969784612E-02  -0.8505676771E-03   0.7858130124E-04   0.0000000000E+00   0.0000000000E+00   0.0000000000E+00   0.1928186194E+00
   0.5574449781E-01   0.1228342505E+00   0.2389837062E-04  -0.3039905284E-04   0.2150853356E-03  -0.2735914755E-03   0.4317869588E+00   0.2622511762E-01   0.1374036229E+00  -0.5255705303E-02   0.0000000000E+00   0.0000000000E+00   0.3826983366E-02  -0.1445320569E-02  -0.6832416894E-04   0.0000000000E+00   0.0000000000E+00   0.0000000000E+00   0.3601983085E+00
   0.6797644698E-01   0.2325508084E+00   0.1582448774E-04  -0.4199066471E-04   0.1424203897E-03  -0.3779159824E-03   0.2816899263E+00   0.6666253720E-03   0.8470696551E-01   0.1878698218E-01   0.0000000000E+00   0.0000000000E+00   0.2560778491E-02  -0.1092524422E-02   0.2442307684E-03   0.0000000000E+00   0.0000000000E+00   0.0000000000E+00   0.2521275685E+00
   0.5844829784E-01   0.2495482925E+00   0.1149642408E-04  -0.4517074934E-04   0.1034678168E-03  -0.4065367440E-03   0.2465748757E+00  -0.4789159106E-03   0.7382878794E-01   0.7449807437E-02   0.0000000000E+00   0.0000000000E+00   0.2245699141E-02  -0.9660001501E-03   0.9684749668E-04   0.0000000000E+00   0.0000000000E+00   0.0000000000E+00   0.2196088596E+00
   0.7793880003E-01   0.2495778746E+00   0.1610194302E-04  -0.4221253647E-04   0.1449174872E-03  -0.3799128282E-03   0.2739045797E+00  -0.5829807323E-03   0.8199647970E-01   0.8454833587E-02   0.0000000000E+00   0.0000000000E+00   0.2494805300E-02  -0.1073532986E-02   0.1099128366E-03   0.0000000000E+00   0.0000000000E+00   0.0000000000E+00   0.2440972809E+00
   0.1266980530E+00   0.2328117517E+00   0.3215730460E-04  -0.3172133343E-04   0.2894157414E-03  -0.2854920009E-03   0.3278668951E+00  -0.2701551412E-02   0.9754960309E-01   0.1247275259E-01   0.0000000000E+00   0.0000000000E+00   0.2994124796E-02  -0.1303265009E-02   0.1621457836E-03   0.0000000000E+00   0.0000000000E+00   0.0000000000E+00   0.2944275792E+00
   0.1169339569E+00   0.2496443924E+00   0.2672899411E-04  -0.3556076233E-04   0.2405609470E-03  -0.3200468610E-03   0.3236859106E+00  -0.7639779777E-03   0.9687657980E-01   0.6230689166E-02   0.0000000000E+00   0.0000000000E+00   0.2948521301E-02  -0.1269327251E-02   0.8099895916E-04   0.0000000000E+00   0.0000000000E+00   0.0000000000E+00   0.2883493652E+00
   0.1364374288E+00   0.2496768193E+00   0.3263188493E-04  -0.3231806522E-04   0.2936869644E-03  -0.2908625870E-03   0.3417429244E+00  -0.6362762351E-03   0.1023319944E+00   0.4529375544E-02   0.0000000000E+00   0.0000000000E+00   0.3112342089E-02  -0.1338587519E-02   0.5888188208E-04   0.0000000000E+00   0.0000000000E+00   0.0000000000E+00   0.3042723571E+00
   0.1364589793E+00   0.2159526882E+00   0.3725752590E-04  -0.2782107648E-04   0.3353177331E-03  -0.2503896883E-03   0.3296805639E+00  -0.7966462051E-02   0.9651423056E-01   0.1738291169E-01   0.0000000000E+00   0.0000000000E+00   0.3031162334E-02  -0.1358249004E-02   0.2259778519E-03   0.0000000000E+00   0.0000000000E+00   0.0000000000E+00   0.3008517142E+00
   0.1852238496E+00   0.2328687483E+00   0.5021115937E-04  -0.2324557095E-04   0.4519004343E-03  -0.2092101385E-03   0.3441009787E+00  -0.2191790807E-02   0.1025727564E+00   0.7403002066E-03   0.0000000000E+00   0.0000000000E+00   0.3139866890E-02  -0.1361939113E-02   0.9623902686E-05   0.0000000000E+00   0.0000000000E+00   0.0000000000E+00   0.3075946303E+00
   0.1754512504E+00   0.2497326344E+00   0.4512533631E-04  -0.2673656327E-04   0.4061280268E-03  -0.2406290694E-03   0.3597818160E+00  -0.2343017422E-03   0.1078642543E+00   0.1065811519E-02   0.0000000000E+00   0.0000000000E+00   0.3274928303E-02  -0.1405281228E-02   0.1385554974E-04   0.0000000000E+00   0.0000000000E+00   0.0000000000E+00   0.3199680266E+00
   0.2047332045E+00   0.2328918726E+00   0.5630814867E-04  -0.2125353871E-04   0.5067733380E-03  -0.1912818484E-03   0.3429718348E+00  -0.1554624242E-02   0.1024251632E+00  -0.1844355360E-02   0.0000000000E+00   0.0000000000E+00   0.3127106731E-02  -0.1351737236E-02  -0.2397661968E-04   0.0000000000E+00   0.0000000000E+00   0.0000000000E+00   0.3060972338E+00
   0.1949595435E+00   0.2497546948E+00   0.5150955272E-04  -0.2453052379E-04   0.4635859745E-03  -0.2207747141E-03   0.3608452412E+00   0.5638801842E-05   0.1082552640E+00  -0.2339196468E-03   0.0000000000E+00   0.0000000000E+00   0.3283669703E-02  -0.1407245128E-02  -0.3040955408E-05   0.0000000000E+00   0.0000000000E+00   0.0000000000E+00   0.3207215191E+00
   0.2242410884E+00   0.2329195781E+00   0.6236094008E-04  -0.1966609174E-04   0.5612484607E-03  -0.1769948257E-03   0.3398946095E+00  -0.9058107238E-03   0.1016966396E+00  -0.3465347124E-02   0.0000000000E+00   0.0000000000E+00   0.3096573608E-02  -0.1333831854E-02  -0.4504951261E-04   0.0000000000E+00   0.0000000000E+00   0.0000000000E+00   0.3028902364E+00
   0.2144676421E+00   0.2497727561E+00   0.5787581347E-04  -0.2272439270E-04   0.5208823213E-03  -0.2045195343E-03   0.3582389800E+00   0.2189511642E-03   0.1075373793E+00  -0.1109580457E-02   0.0000000000E+00   0.0000000000E+00   0.3259120808E-02  -0.1395139566E-02  -0.1442454594E-04   0.0000000000E+00   0.0000000000E+00   0.0000000000E+00   0.3182352825E+00
   0.2437624892E+00   0.2329429095E+00   0.6834822368E-04  -0.1843414761E-04   0.6151340131E-03  -0.1659073285E-03   0.3356769577E+00  -0.3475079355E-03   0.1005988349E+00  -0.4202757830E-02   0.0000000000E+00   0.0000000000E+00   0.3056015596E-02  -0.1312302457E-02  -0.5463585179E-04   0.0000000000E+00   0.0000000000E+00   0.0000000000E+00   0.2987274546E+00
   0.2339750530E+00   0.2497871259E+00   0.6417189818E-04  -0.2128741004E-04   0.5775470837E-03  -0.1915866904E-03   0.3533654542E+00   0.3747220430E-03   0.1061220529E+00  -0.1563188965E-02   0.0000000000E+00   0.0000000000E+00   0.3214164217E-02  -0.1374715301E-02  -0.2032145654E-04   0.0000000000E+00   0.0000000000E+00   0.0000000000E+00   0.3137787593E+00
   0.2634466114E+00   0.2328886964E+00   0.7430734189E-04  -0.1749115819E-04   0.6687660770E-03  -0.1574204237E-03   0.3310644473E+00   0.6834639673E-04   0.9933983812E-01  -0.4239552602E-02   0.0000000000E+00   0.0000000000E+00   0.3012419920E-02  -0.1290529392E-02  -0.5511418383E-04   0.0000000000E+00   0.0000000000E+00   0.0000000000E+00   0.2942971234E+00
   0.2534814849E+00   0.2497982347E+00   0.7036998968E-04  -0.2017652559E-04   0.6333299071E-03  -0.1815887303E-03   0.3474985049E+00   0.5071404309E-03   0.1044016936E+00  -0.1659891455E-02   0.0000000000E+00   0.0000000000E+00   0.3160258547E-02  -0.1350629191E-02  -0.2157858892E-04   0.0000000000E+00   0.0000000000E+00   0.0000000000E+00   0.3084573435E+00
   0.2833792994E+00   0.2326969784E+00   0.8026194488E-04  -0.1678485799E-04   0.7223575039E-03  -0.1510637219E-03   0.3267102970E+00   0.3998953335E-03   0.9813305770E-01  -0.3739338965E-02   0.0000000000E+00   0.0000000000E+00   0.2971504111E-02  -0.1270531111E-02  -0.4861140654E-04   0.0000000000E+00   0.0000000000E+00   0.0000000000E+00   0.2901392274E+00
   0.2729868339E+00   0.2498065373E+00   0.7646129132E-04  -0.1934627401E-04   0.6881516219E-03  -0.1741164661E-03   0.3414894712E+00   0.6046861683E-03   0.1026282472E+00  -0.1511582541E-02   0.0000000000E+00   0.0000000000E+00   0.3105195912E-02  -0.1326306293E-02  -0.1965057303E-04   0.0000000000E+00   0.0000000000E+00   0.0000000000E+00   0.3030389602E+00
   0.3038202899E+00   0.2321845459E+00   0.8629639206E-04  -0.1625101137E-04   0.7766675286E-03  -0.1462591024E-03   0.3224313264E+00   0.6777992646E-03   0.9693273771E-01  -0.2937289081E-02   0.0000000000E+00   0.0000000000E+00   0.2931481653E-02  -0.1251314200E-02  -0.3818475805E-04   0.0000000000E+00   0.0000000000E+00   0.0000000000E+00   0.2860839868E+00
   0.2924911646E+00   0.2498124586E+00   0.8245076167E-04  -0.1875414357E-04   0.7420568550E-03  -0.1687872922E-03   0.3361842002E+00   0.8046191469E-03   0.1010966458E+00  -0.1204004182E-02   0.0000000000E+00   0.0000000000E+00   0.3056138207E-02  -0.1303796347E-02  -0.1565205437E-04   0.0000000000E+00   0.0000000000E+00   0.0000000000E+00   0.2981651439E+00
   0.1657909962E+00   0.1645335629E+00   0.5264492073E-04  -0.1610441091E-04   0.4738042865E-03  -0.1449396982E-03   0.3098730503E+00  -0.2726684998E-01   0.8478186010E-01  -0.7268409039E-02   0.0000000000E+00   0.0000000000E+00   0.2926185473E-02  -0.1456633231E-02  -0.9448931751E-04   0.0000000000E+00   0.0000000000E+00   0.0000000000E+00   0.2975550861E+00
   0.1558396792E+00   0.1820472582E+00   0.4731992262E-04  -0.1998588413E-04   0.4258793036E-03  -0.1798729572E-03   0.3221465071E+00  -0.2247496171E-01   0.8990146361E-01   0.4811665820E-02   0.0000000000E+00   0.0000000000E+00   0.3019185565E-02  -0.1460893529E-02   0.6255165566E-04   0.0000000000E+00   0.0000000000E+00   0.0000000000E+00   0.3044804998E+00
   0.1457037339E+00   0.1646341726E+00   0.4663629242E-04  -0.1884354062E-04   0.4197266317E-03  -0.1695918656E-03   0.3218316448E+00  -0.3298283719E-01   0.8665464228E-01   0.1445984449E-02   0.0000000000E+00   0.0000000000E+00   0.3057301033E-02  -0.1555287233E-02   0.1879779784E-04   0.0000000000E+00   0.0000000000E+00   0.0000000000E+00   0.3125937882E+00
   0.2258431867E+00   0.0000000000E+00   0.8431926674E-04   0.0000000000E+00   0.7588734006E-03   0.0000000000E+00   0.1289833412E+00   0.3189908404E-01   0.4826472758E-01  -0.4322022080E-02   0.0000000000E+00   0.0000000000E+00   0.1049341977E-02  -0.2127533660E-03  -0.5618628704E-04   0.0000000000E+00   0.0000000000E+00   0.0000000000E+00   0.8989592508E-01
   0.1621242189E+00   0.7201468451E-01   0.6945749155E-04  -0.3959729420E-05   0.6251174240E-03  -0.3563756478E-04   0.1748814750E+00  -0.3473152224E-01   0.4204498583E-01  -0.6937589052E-01   0.0000000000E+00   0.0000000000E+00   0.1726874359E-02  -0.9980946049E-03  -0.9018865768E-03   0.0000000000E+00   0.0000000000E+00   0.0000000000E+00   0.2192985611E+00
   0.1837767100E+00   0.7141796370E-01   0.7319340108E-04  -0.3153219885E-05   0.6587406097E-03  -0.2837897896E-04   0.1756441336E+00  -0.1158385504E-01   0.4921808356E-01  -0.5703293818E-01   0.0000000000E+00   0.0000000000E+00   0.1643538650E-02  -0.7904252017E-03  -0.7414281963E-03   0.0000000000E+00   0.0000000000E+00   0.0000000000E+00   0.1925811744E+00
   0.1732283182E+00   0.9028958961E-01   0.6765671972E-04  -0.5340149371E-05   0.6089104775E-03  -0.4806134434E-04   0.2164226002E+00  -0.2752471030E-01   0.5666936698E-01  -0.5606248317E-01   0.0000000000E+00   0.0000000000E+00   0.2076792032E-02  -0.1094523005E-02  -0.7288122812E-03   0.0000000000E+00   0.0000000000E+00   0.0000000000E+00   0.2356169368E+00
   0.1743454540E-01   0.2036633434E+00   0.4587189689E-05  -0.4493656316E-04   0.4128470720E-04  -0.4044290685E-03   0.3005316465E+00   0.2355255189E-01   0.9722525951E-01   0.1257273844E-01   0.0000000000E+00   0.0000000000E+00   0.2642983030E-02  -0.9577451990E-03   0.1634455998E-03   0.0000000000E+00   0.0000000000E+00   0.0000000000E+00   0.2497467460E+00
   0.0000000000E+00   0.1933050363E+00   0.0000000000E+00  -0.4449576948E-04   0.0000000000E+00  -0.4004619253E-03   0.3162449635E+00   0.3292129416E-01   0.1047498773E+00   0.7622611734E-02   0.0000000000E+00   0.0000000000E+00   0.2749436121E-02  -0.9337715808E-03   0.9909395255E-04   0.0000000000E+00   0.0000000000E+00   0.0000000000E+00   0.2553289323E+00
   0.1688117997E-01   0.1840958765E+00   0.4818757143E-05  -0.4308944962E-04   0.4336881429E-04  -0.3878050466E-03   0.3325432714E+00   0.3837313327E-01   0.1112749214E+00   0.1421991622E-01   0.0000000000E+00   0.0000000000E+00   0.2876488550E-02  -0.9477232458E-03   0.1848589108E-03   0.0000000000E+00   0.0000000000E+00   0.0000000000E+00   0.2669169747E+00
   0.0000000000E+00   0.1745721126E+00   0.0000000000E+00  -0.4278843599E-04   0.0000000000E+00  -0.3850959239E-03   0.3496791992E+00   0.5243712632E-01   0.1206348977E+00   0.9139660199E-02   0.0000000000E+00   0.0000000000E+00   0.2977575920E-02  -0.8865710275E-03   0.1188155826E-03   0.0000000000E+00   0.0000000000E+00   0.0000000000E+00   0.2699470239E+00
   0.1695972717E-01   0.1649113881E+00   0.5289017049E-05  -0.4127929360E-04   0.4760115344E-04  -0.3715136424E-03   0.3680688059E+00   0.5433185508E-01   0.1267201983E+00   0.1449966057E-01   0.0000000000E+00   0.0000000000E+00   0.3137531899E-02  -0.9410484617E-03   0.1884955874E-03   0.0000000000E+00   0.0000000000E+00   0.0000000000E+00   0.2859985484E+00
   0.3389840127E-01   0.1745837503E+00   0.1014538663E-04  -0.4058906859E-04   0.9130847970E-04  -0.3653016173E-03   0.3504542541E+00   0.3650335389E-01   0.1160872824E+00   0.2999777313E-01   0.0000000000E+00   0.0000000000E+00   0.3046770632E-02  -0.1034591071E-02   0.3899710506E-03   0.0000000000E+00   0.0000000000E+00   0.0000000000E+00   0.2874520553E+00
   0.3470091082E-01   0.1548573312E+00   0.1151145197E-04  -0.3842177743E-04   0.1036030677E-03  -0.3457959968E-03   0.3874615162E+00   0.4880199060E-01   0.1308790520E+00   0.2686312569E-01   0.0000000000E+00   0.0000000000E+00   0.3335572034E-02  -0.1067001799E-02   0.3492206339E-03   0.0000000000E+00   0.0000000000E+00   0.0000000000E+00   0.3097442531E+00
   0.3382754063E-01   0.1938281327E+00   0.9337173269E-05  -0.4258333161E-04   0.8403455942E-04  -0.3832499845E-03   0.3193133173E+00   0.2183660751E-01   0.1023449774E+00   0.2725435377E-01   0.0000000000E+00   0.0000000000E+00   0.2820588418E-02  -0.1046608809E-02   0.3543065991E-03   0.0000000000E+00   0.0000000000E+00   0.0000000000E+00   0.2706444366E+00
   0.5403514171E-01   0.1446720424E+00   0.1916509064E-04  -0.3383695617E-04   0.1724858157E-03  -0.3045326055E-03   0.3975532801E+00   0.2353505737E-01   0.1263265013E+00   0.2802647567E-01   0.0000000000E+00   0.0000000000E+00   0.3525948126E-02  -0.1336288770E-02   0.3643441838E-03   0.0000000000E+00   0.0000000000E+00   0.0000000000E+00   0.3383253510E+00
   0.9736972447E-01   0.2157828679E+00   0.2568378723E-04  -0.3482231031E-04   0.2311540851E-03  -0.3134007928E-03   0.3159736748E+00  -0.4759828282E-02   0.9336415396E-01   0.3000670497E-01   0.0000000000E+00   0.0000000000E+00   0.2893923771E-02  -0.1275611769E-02   0.3900871646E-03   0.0000000000E+00   0.0000000000E+00   0.0000000000E+00   0.2892149945E+00
   0.1424486103E+00   0.0000000000E+00   0.7819443345E-04   0.0000000000E+00   0.7037499010E-03   0.0000000000E+00   0.2566379331E-01  -0.4074673095E-01  -0.4524881291E-02  -0.2652425795E-01   0.0000000000E+00   0.0000000000E+00   0.3924527698E-03  -0.4708840455E-03  -0.3448153534E-03   0.0000000000E+00   0.0000000000E+00   0.0000000000E+00   0.6841762334E-01
   0.1528292869E+00   0.1777828685E-01   0.7771078703E-04  -0.7156151622E-06   0.6993970832E-03  -0.6440536460E-05   0.5710272029E-01  -0.2315671462E-01   0.1018380170E-01  -0.2128223009E-01   0.0000000000E+00   0.0000000000E+00   0.6099459417E-03  -0.4334267122E-03  -0.2766689912E-03   0.0000000000E+00   0.0000000000E+00   0.0000000000E+00   0.8178704625E-01
   0.1632914972E+00   0.0000000000E+00   0.7915031555E-04   0.0000000000E+00   0.7123528400E-03   0.0000000000E+00   0.5641920108E-01  -0.9933536943E-02   0.1394569924E-01  -0.1130129262E-01   0.0000000000E+00   0.0000000000E+00   0.5521555239E-03  -0.3104300704E-03  -0.1469168040E-03   0.0000000000E+00   0.0000000000E+00   0.0000000000E+00   0.6109266491E-01
   0.3509999940E+00   0.1153404409E+00   0.1000000000E-03  -0.4417510903E-05   0.9000000000E-03  -0.3975759812E-04   0.2269644366E+00   0.2501594083E-01   0.7559411321E-01  -0.1491510979E-03   0.0000000000E+00   0.0000000000E+00   0.1967814203E-02  -0.6575162410E-03  -0.1938964272E-05   0.0000000000E+00   0.0000000000E+00   0.0000000000E+00   0.1820012492E+00
   0.3509999940E+00   0.1345574855E+00   0.1000000000E-03  -0.5790553006E-05   0.9000000000E-03  -0.5211497705E-04   0.2431171910E+00   0.1952745783E-01   0.7879339465E-01  -0.6333699210E-04   0.0000000000E+00   0.0000000000E+00   0.2136209353E-02  -0.7704571787E-03  -0.8233808974E-06   0.0000000000E+00   0.0000000000E+00   0.0000000000E+00   0.2006291989E+00
   0.3342254546E+00   0.1441640983E+00   0.9628025520E-04  -0.6585067313E-05   0.8665222968E-03  -0.5926560582E-04   0.2515620730E+00   0.1660690920E-01   0.8045069466E-01  -0.4442893970E-02   0.0000000000E+00   0.0000000000E+00   0.2224447918E-02  -0.8299692110E-03  -0.5775762161E-04   0.0000000000E+00   0.0000000000E+00   0.0000000000E+00   0.2105692266E+00
   0.1630100474E+00   0.3473031041E-01   0.7654294237E-04  -0.1238768559E-05   0.6888864814E-03  -0.1114891703E-04   0.9748863173E-01  -0.1152225046E-01   0.2578991438E-01  -0.4672726599E-01   0.0000000000E+00   0.0000000000E+00   0.9320833256E-03  -0.4850581429E-03  -0.6074544579E-03   0.0000000000E+00   0.0000000000E+00   0.0000000000E+00   0.1254690799E+00
   0.1837999913E+00   0.3536226807E-01   0.7847193212E-04  -0.1026483295E-05   0.7062473891E-03  -0.9238349656E-05   0.1133949853E+00   0.3715210085E-02   0.3513305861E-01  -0.3937991134E-01   0.0000000000E+00   0.0000000000E+00   0.1017405047E-02  -0.4084320308E-03  -0.5119388474E-03   0.0000000000E+00   0.0000000000E+00   0.0000000000E+00   0.1191354232E+00
   0.1455462303E+00   0.3342834188E-01   0.7524513134E-04  -0.1729952182E-05   0.6772061820E-03  -0.1556956963E-04   0.6042077204E-01  -0.4057637323E-01   0.5953319643E-02  -0.5469677053E-01   0.0000000000E+00   0.0000000000E+00   0.7080768812E-03  -0.6048860074E-03  -0.7110580169E-03   0.0000000000E+00   0.0000000000E+00   0.0000000000E+00   0.1270832930E+00
   0.2145190028E+00   0.2160108101E+00   0.6090037777E-04  -0.1817339284E-04   0.5481033999E-03  -0.1635605356E-03   0.3276840638E+00  -0.2938282624E-02   0.9742373436E-01  -0.5702157881E-02   0.0000000000E+00   0.0000000000E+00   0.2993384283E-02  -0.1304706221E-02  -0.7412805245E-04   0.0000000000E+00   0.0000000000E+00   0.0000000000E+00   0.2937548860E+00
   0.2897943524E+00   0.3563972875E-01   0.9143323809E-04  -0.8669348658E-06   0.8228991428E-03  -0.7802413792E-05   0.1682093318E+00   0.4110776419E-01   0.6279512881E-01  -0.1028087073E-01   0.0000000000E+00   0.0000000000E+00   0.1370384639E-02  -0.2819357401E-03  -0.1336513195E-03   0.0000000000E+00   0.0000000000E+00   0.0000000000E+00   0.1190905471E+00
   0.2995691927E+00   0.5043899431E-01   0.9238457033E-04  -0.1315979293E-05   0.8314611329E-03  -0.1184381364E-04   0.1775037089E+00   0.4048367128E-01   0.6539621405E-01  -0.1080169480E-01   0.0000000000E+00   0.0000000000E+00   0.1457397433E-02  -0.3238630559E-03  -0.1404220324E-03   0.0000000000E+00   0.0000000000E+00   0.0000000000E+00   0.1277147927E+00
   0.3157970915E+00   0.5753102887E-01   0.9462544989E-04  -0.1553832960E-05   0.8516290490E-03  -0.1398449664E-04   0.1851861289E+00   0.4042424472E-01   0.6768311207E-01  -0.8060847266E-02   0.0000000000E+00   0.0000000000E+00   0.1527539218E-02  -0.3543652756E-03  -0.1047910145E-03   0.0000000000E+00   0.0000000000E+00   0.0000000000E+00   0.1339586455E+00
   0.6722490363E-01   0.1965841855E+00   0.1872318336E-04  -0.3794374760E-04   0.1685086503E-03  -0.3414937284E-03   0.3226862894E+00   0.3993511213E-02   0.9800394018E-01   0.3888214690E-01   0.0000000000E+00   0.0000000000E+00   0.2920870540E-02  -0.1222135577E-02   0.5054679097E-03   0.0000000000E+00   0.0000000000E+00   0.0000000000E+00   0.2915618436E+00
   0.4904213712E-01   0.2010458219E+00   0.1324767214E-04  -0.4139290783E-04   0.1192290493E-03  -0.3725361705E-03   0.3127022289E+00   0.1297138333E-01   0.9770208366E-01   0.3538987700E-01   0.0000000000E+00   0.0000000000E+00   0.2795001888E-02  -0.1101499104E-02   0.4600684010E-03   0.0000000000E+00   0.0000000000E+00   0.0000000000E+00   0.2745425658E+00
   0.7760489950E-01   0.2152781963E+00   0.2012497981E-04  -0.3837616541E-04   0.1811248183E-03  -0.3453854887E-03   0.3072036797E+00  -0.5003249520E-03   0.9201100643E-01   0.3313099441E-01   0.0000000000E+00   0.0000000000E+00   0.2797504753E-02  -0.1202647308E-02   0.4307029274E-03   0.0000000000E+00   0.0000000000E+00   0.0000000000E+00   0.2792598825E+00
   0.8782052392E-01   0.1990649148E+00   0.2456620184E-04  -0.3444661583E-04   0.2210958165E-03  -0.3100195425E-03   0.3248911599E+00  -0.5879131950E-02   0.9570360837E-01   0.3654681933E-01   0.0000000000E+00   0.0000000000E+00   0.2979438169E-02  -0.1320575624E-02   0.4751086513E-03   0.0000000000E+00   0.0000000000E+00   0.0000000000E+00   0.3002483132E+00
   0.1070766425E+00   0.1991785026E+00   0.3033774819E-04  -0.3079464044E-04   0.2730397337E-03  -0.2771517639E-03   0.3289717220E+00  -0.1105173354E-01   0.9537599653E-01   0.3110321538E-01   0.0000000000E+00   0.0000000000E+00   0.3036744431E-02  -0.1383560491E-02   0.4043417999E-03   0.0000000000E+00   0.0000000000E+00   0.0000000000E+00   0.3060524999E+00
   0.1123719435E+00   0.1453638251E+00   0.3915204637E-04  -0.2136358926E-04   0.3523684173E-03  -0.1922723033E-03   0.3459792908E+00  -0.4188452599E-01   0.9122842945E-01   0.6854922912E-02   0.0000000000E+00   0.0000000000E+00   0.3311761198E-02  -0.1730468421E-02   0.8911399785E-04   0.0000000000E+00   0.0000000000E+00   0.0000000000E+00   0.3412377365E+00
   0.1044132803E+00   0.1663139378E+00   0.3333553163E-04  -0.2642512143E-04   0.3000197846E-03  -0.2378260928E-03   0.3456259444E+00  -0.2827827041E-01   0.9520430218E-01   0.2463849963E-01   0.0000000000E+00   0.0000000000E+00   0.3255481348E-02  -0.1605273444E-02   0.3203004952E-03   0.0000000000E+00   0.0000000000E+00   0.0000000000E+00   0.3327500417E+00
   0.9096169554E-01   0.1515588779E+00   0.3100939411E-04  -0.2679951012E-04   0.2790845470E-03  -0.2411955911E-03   0.3599280854E+00  -0.2457921484E-01   0.1006046612E+00   0.2569785874E-01   0.0000000000E+00   0.0000000000E+00   0.3371204515E-02  -0.1627390388E-02   0.3340721636E-03   0.0000000000E+00   0.0000000000E+00   0.0000000000E+00   0.3421674388E+00
   0.9536371613E-01   0.9613978343E-01   0.4662820323E-04  -0.1609898710E-04   0.4196538291E-03  -0.1448908839E-03   0.3075362112E+00  -0.5240985936E-01   0.7653790556E-01  -0.5556412026E-01   0.0000000000E+00   0.0000000000E+00   0.3002977974E-02  -0.1676320944E-02  -0.7223335634E-03   0.0000000000E+00   0.0000000000E+00   0.0000000000E+00   0.3285028011E+00
   0.1094769517E+00   0.7676270633E-01   0.5789377345E-04  -0.1014989721E-04   0.5210439610E-03  -0.9134907493E-04   0.2015951856E+00  -0.7086523613E-01   0.3921898484E-01  -0.7720346051E-01   0.0000000000E+00   0.0000000000E+00   0.2110890610E-02  -0.1431094873E-02  -0.1003644987E-02   0.0000000000E+00   0.0000000000E+00   0.0000000000E+00   0.2721773167E+00
   0.1950012863E+00   0.2159722637E+00   0.5504312632E-04  -0.1992243394E-04   0.4953881369E-03  -0.1793019054E-03   0.3306417081E+00  -0.4735102890E-02   0.9777198157E-01  -0.2065475933E-02   0.0000000000E+00   0.0000000000E+00   0.3027306445E-02  -0.1332592098E-02  -0.2685118713E-04   0.0000000000E+00   0.0000000000E+00   0.0000000000E+00   0.2976802288E+00
   0.2259000488E+00   0.3586071491E-01   0.8312258372E-04  -0.8957992124E-06   0.7481032535E-03  -0.8062192911E-05   0.1438034200E+00   0.2638340336E-01   0.5105604700E-01  -0.2476572476E-01   0.0000000000E+00   0.0000000000E+00   0.1205715849E-02  -0.3207443673E-03  -0.3219544219E-03   0.0000000000E+00   0.0000000000E+00   0.0000000000E+00   0.1153110500E+00
   0.2470465674E+00   0.3604789690E-01   0.8574054102E-04  -0.8822801871E-06   0.7716648692E-03  -0.7940521684E-05   0.1548543688E+00   0.3287739457E-01   0.5631952901E-01  -0.1885934270E-01   0.0000000000E+00   0.0000000000E+00   0.1280952917E-02  -0.3047477477E-03  -0.2451714551E-03   0.0000000000E+00   0.0000000000E+00   0.0000000000E+00   0.1166438408E+00
   0.2748053830E+00   0.1829351920E+00   0.8039339853E-04  -0.1111640452E-04   0.7235405868E-03  -0.1000476407E-03   0.2898841178E+00   0.3369544826E-02   0.8797609878E-01  -0.1352935338E-01   0.0000000000E+00   0.0000000000E+00   0.2624804247E-02  -0.1099885201E-02  -0.1758815939E-03   0.0000000000E+00   0.0000000000E+00   0.0000000000E+00   0.2560342129E+00
   0.2340679705E+00   0.2160504334E+00   0.6669405328E-04  -0.1681125956E-04   0.6002464795E-03  -0.1513013360E-03   0.3239737645E+00  -0.1233042237E-02   0.9682221666E-01  -0.7733553626E-02   0.0000000000E+00   0.0000000000E+00   0.2952970121E-02  -0.1274718366E-02  -0.1005361971E-03   0.0000000000E+00   0.0000000000E+00   0.0000000000E+00   0.2892342841E+00
   0.3157893435E+00   0.2131614218E+00   0.9020285210E-04  -0.1374952002E-04   0.8118256689E-03  -0.1237456802E-03   0.3089441866E+00   0.2439838449E-02   0.9341520751E-01  -0.4518356373E-02   0.0000000000E+00   0.0000000000E+00   0.2801876728E-02  -0.1182679798E-02  -0.5873863285E-04   0.0000000000E+00   0.0000000000E+00   0.0000000000E+00   0.2727633260E+00
   0.3509999940E+00   0.1921959683E+00   0.1000000000E-03  -0.1117277250E-04   0.9000000000E-03  -0.1005549525E-03   0.2910989971E+00   0.5435962121E-02   0.8896048776E-01  -0.4843842762E-04   0.0000000000E+00   0.0000000000E+00   0.2627800621E-02  -0.1085818833E-02  -0.6296995591E-06   0.0000000000E+00   0.0000000000E+00   0.0000000000E+00   0.2544091089E+00
   0.2937943759E+00   0.2156845013E+00   0.8393648815E-04  -0.1442007428E-04   0.7554283933E-03  -0.1297806685E-03   0.3121961254E+00   0.1271022360E-02   0.9404014432E-01  -0.6825162497E-02   0.0000000000E+00   0.0000000000E+00   0.2836027754E-02  -0.1205998585E-02  -0.8872711246E-04   0.0000000000E+00   0.0000000000E+00   0.0000000000E+00   0.2767159344E+00
   0.3354252797E+00   0.2177563362E+00   0.9562597456E-04  -0.1413768225E-04   0.8606337711E-03  -0.1272391403E-03   0.3110647799E+00   0.1619926271E-02   0.9380541185E-01  -0.1852051410E-02   0.0000000000E+00   0.0000000000E+00   0.2824371785E-02  -0.1198411313E-02  -0.2407666833E-04   0.0000000000E+00   0.0000000000E+00   0.0000000000E+00   0.2752082125E+00
   0.5164492975E-01   0.1652608513E+00   0.1626210523E-04  -0.3687736825E-04   0.1463589470E-03  -0.3318963143E-03   0.3635680961E+00   0.2344461730E-01   0.1161038140E+00   0.3728760136E-01   0.0000000000E+00   0.0000000000E+00   0.3217035667E-02  -0.1204569557E-02   0.4847388177E-03   0.0000000000E+00   0.0000000000E+00   0.0000000000E+00   0.3114322947E+00
   0.2481291218E+00   0.9578024871E-01   0.8133278368E-04  -0.3751839124E-05   0.7319950531E-03  -0.3376655212E-04   0.2124027870E+00   0.1613334312E-01   0.6856083903E-01  -0.3042470556E-01   0.0000000000E+00   0.0000000000E+00   0.1869945323E-02  -0.6815574468E-03  -0.3955211723E-03   0.0000000000E+00   0.0000000000E+00   0.0000000000E+00   0.1837103073E+00
   0.2655688806E+00   0.8643403578E-01   0.8522856238E-04  -0.2979561731E-05   0.7670570614E-03  -0.2681605558E-04   0.1995838159E+00   0.2199777944E-01   0.6647447861E-01  -0.2505693389E-01   0.0000000000E+00   0.0000000000E+00   0.1730421385E-02  -0.5781970893E-03  -0.3257401405E-03   0.0000000000E+00   0.0000000000E+00   0.0000000000E+00   0.1658222965E+00
   0.2654114296E+00   0.1059156697E+00   0.8375575922E-04  -0.4235230529E-05   0.7538018329E-03  -0.3811707476E-04   0.2199835432E+00   0.1660800483E-01   0.7097746442E-01  -0.2472228573E-01   0.0000000000E+00   0.0000000000E+00   0.1937079025E-02  -0.7068029747E-03  -0.3213897145E-03   0.0000000000E+00   0.0000000000E+00   0.0000000000E+00   0.1873225186E+00
   0.3509999940E+00   0.2114050049E+00   0.1000000000E-03  -0.1334590767E-04   0.9000000000E-03  -0.1201131690E-03   0.3036981847E+00   0.2099009306E-02   0.9173915820E-01   0.5048891449E-03   0.0000000000E+00   0.0000000000E+00   0.2755467344E-02  -0.1165321936E-02   0.6563558884E-05   0.0000000000E+00   0.0000000000E+00   0.0000000000E+00   0.2682643525E+00
   0.3013911080E+00   0.2007219546E+00   0.8661280102E-04  -0.1252394443E-04   0.7795152092E-03  -0.1127154998E-03   0.3018040605E+00   0.3905376958E-02   0.9171283125E-01  -0.8181906001E-02   0.0000000000E+00   0.0000000000E+00   0.2731185981E-02  -0.1141496906E-02  -0.1063647780E-03   0.0000000000E+00   0.0000000000E+00   0.0000000000E+00   0.2655187153E+00
   0.2967347330E+00   0.1828968090E+00   0.8611209591E-04  -0.1061989748E-04   0.7750088631E-03  -0.9557907733E-04   0.2876308419E+00   0.6227067375E-02   0.8815737277E-01  -0.1038635633E-01   0.0000000000E+00   0.0000000000E+00   0.2593155098E-02  -0.1065093970E-02  -0.1350226323E-03   0.0000000000E+00   0.0000000000E+00   0.0000000000E+00   0.2513373673E+00
   0.3002977486E+00   0.1249963498E+00   0.8958096474E-04  -0.5272015348E-05   0.8062286827E-03  -0.4744813813E-04   0.2359115290E+00   0.1867864087E-01   0.7637705095E-01  -0.1434655580E-01   0.0000000000E+00   0.0000000000E+00   0.2073948214E-02  -0.7500793311E-03  -0.1865052254E-03   0.0000000000E+00   0.0000000000E+00   0.0000000000E+00   0.1964769407E+00
   0.2806105642E+00   0.5577269234E-01   0.8942511934E-04  -0.1510935844E-05   0.8048260740E-03  -0.1359842260E-04   0.1769167150E+00   0.3558666422E-01   0.6375101377E-01  -0.1649354749E-01   0.0000000000E+00   0.0000000000E+00   0.1471154116E-02  -0.3661365442E-03  -0.2144161174E-03   0.0000000000E+00   0.0000000000E+00   0.0000000000E+00   0.1327156528E+00
   0.2991635199E+00   0.6735680936E-01   0.9177918794E-04  -0.1932743700E-05   0.8260126915E-03  -0.1739469330E-04   0.1875381737E+00   0.3448112006E-01   0.6660578812E-01  -0.1336262739E-01   0.0000000000E+00   0.0000000000E+00   0.1572121012E-02  -0.4176206848E-03  -0.1737141560E-03   0.0000000000E+00   0.0000000000E+00   0.0000000000E+00   0.1416800230E+00
   0.3170955861E+00   0.1536339700E+00   0.9218840939E-04  -0.7496504528E-05   0.8296956845E-03  -0.6746854075E-04   0.2604136936E+00   0.1313003785E-01   0.8206311943E-01  -0.8325929005E-02   0.0000000000E+00   0.0000000000E+00   0.2318557464E-02  -0.8961300605E-03  -0.1082370771E-03   0.0000000000E+00   0.0000000000E+00   0.0000000000E+00   0.2215004168E+00
   0.2243537855E+00   0.1991252850E+00   0.6535154740E-04  -0.1529060226E-04   0.5881639266E-03  -0.1376154203E-03   0.3127389580E+00  -0.3867619143E-02   0.9266140165E-01  -0.1021391021E-01   0.0000000000E+00   0.0000000000E+00   0.2861008232E-02  -0.1254877270E-02  -0.1327808328E-03   0.0000000000E+00   0.0000000000E+00   0.0000000000E+00   0.2816095990E+00
   0.2047909155E+00   0.1990530406E+00   0.5972634615E-04  -0.1677364474E-04   0.5375371154E-03  -0.1509628027E-03   0.3170131582E+00  -0.7100243228E-02   0.9297387450E-01  -0.7162618369E-02   0.0000000000E+00   0.0000000000E+00   0.2912510688E-02  -0.1300963530E-02  -0.9311403880E-04   0.0000000000E+00   0.0000000000E+00   0.0000000000E+00   0.2877068428E+00
   0.2538145352E+00   0.2160743079E+00   0.7246601828E-04  -0.1576940575E-04   0.6521941645E-03  -0.1419246517E-03   0.3198990281E+00   0.3118812495E-04   0.9597906486E-01  -0.8348066633E-02   0.0000000000E+00   0.0000000000E+00   0.2910959522E-02  -0.1247322398E-02  -0.1085248662E-03   0.0000000000E+00   0.0000000000E+00   0.0000000000E+00   0.2846589431E+00
   0.1169334805E+00   0.2159196824E+00   0.3140355172E-04  -0.3123346478E-04   0.2826319655E-03  -0.2811011830E-03   0.3243059382E+00  -0.6820728273E-02   0.9524556298E-01   0.2448056636E-01   0.0000000000E+00   0.0000000000E+00   0.2977784878E-02  -0.1326861786E-02   0.3182473626E-03   0.0000000000E+00   0.0000000000E+00   0.0000000000E+00   0.2966480782E+00
   0.1461779445E+00   0.1990382277E+00   0.4226234506E-04  -0.2388903121E-04   0.3803611056E-03  -0.2150012809E-03   0.3283239961E+00  -0.1524623987E-01   0.9392332686E-01   0.1357204169E-01   0.0000000000E+00   0.0000000000E+00   0.3047208700E-02  -0.1419204367E-02   0.1764365420E-03   0.0000000000E+00   0.0000000000E+00   0.0000000000E+00   0.3049409822E+00
   0.1360651204E+00   0.1821218818E+00   0.4127874233E-04  -0.2306162498E-04   0.3715086810E-03  -0.2075546248E-03   0.3296642655E+00  -0.2409642297E-01   0.9167035275E-01   0.1487949112E-01   0.0000000000E+00   0.0000000000E+00   0.3093920865E-02  -0.1504968084E-02   0.1934333846E-03   0.0000000000E+00   0.0000000000E+00   0.0000000000E+00   0.3134091195E+00
   0.2048319088E+00   0.3563820651E-01   0.8069088099E-04  -0.9308689699E-06   0.7262179289E-03  -0.8377820730E-05   0.1303203608E+00   0.1775429811E-01   0.4442239767E-01  -0.3145448217E-01   0.0000000000E+00   0.0000000000E+00   0.1116673521E-02  -0.3466852942E-03  -0.4089082682E-03   0.0000000000E+00   0.0000000000E+00   0.0000000000E+00   0.1152847934E+00
   0.1754830217E+00   0.1820276814E+00   0.5316027313E-04  -0.1744785510E-04   0.4784424581E-03  -0.1570306959E-03   0.3150737756E+00  -0.1841496484E-01   0.8899764322E-01  -0.3562358936E-02   0.0000000000E+00   0.0000000000E+00   0.2938989721E-02  -0.1396363905E-02  -0.4631066617E-04   0.0000000000E+00   0.0000000000E+00   0.0000000000E+00   0.2948728518E+00
   0.1657245745E+00   0.1990156548E+00   0.4817684922E-04  -0.2104111738E-04   0.4335916430E-03  -0.1893700565E-03   0.3253285771E+00  -0.1354917760E-01   0.9353381986E-01   0.4912715415E-02   0.0000000000E+00   0.0000000000E+00   0.3013331844E-02  -0.1392078967E-02   0.6386530040E-04   0.0000000000E+00   0.0000000000E+00   0.0000000000E+00   0.3001204192E+00
   0.1852576272E+00   0.1990202943E+00   0.5400312350E-04  -0.1867586586E-04   0.4860281115E-03  -0.1680827927E-03   0.3214566986E+00  -0.1048064886E-01   0.9329281491E-01  -0.2140149940E-02   0.0000000000E+00   0.0000000000E+00   0.2966130488E-02  -0.1349055029E-02  -0.2782194922E-04   0.0000000000E+00   0.0000000000E+00   0.0000000000E+00   0.2941163061E+00
   0.1942937915E+00   0.5327538453E-01   0.7752574879E-04  -0.1763496775E-05   0.6977317391E-03  -0.1587147098E-04   0.1470799654E+00   0.4495991427E-02   0.4547278706E-01  -0.4584439494E-01   0.0000000000E+00   0.0000000000E+00   0.1320893319E-02  -0.5326983432E-03  -0.5959771342E-03   0.0000000000E+00   0.0000000000E+00   0.0000000000E+00   0.1501416588E+00
   0.2152905212E+00   0.5361909422E-01   0.8029392365E-04  -0.1614908091E-05   0.7226453129E-03  -0.1453417282E-04   0.1562042215E+00   0.1577801613E-01   0.5159467128E-01  -0.3700227651E-01   0.0000000000E+00   0.0000000000E+00   0.1359924152E-02  -0.4656165169E-03  -0.4810295947E-03   0.0000000000E+00   0.0000000000E+00   0.0000000000E+00   0.1418483690E+00
   0.2440941353E+00   0.1992030467E+00   0.7092973118E-04  -0.1415733287E-04   0.6383675807E-03  -0.1274159958E-03   0.3086685933E+00  -0.9645555588E-03   0.9231121133E-01  -0.1153340029E-01   0.0000000000E+00   0.0000000000E+00   0.2812645966E-02  -0.1212584970E-02  -0.1499342038E-03   0.0000000000E+00   0.0000000000E+00   0.0000000000E+00   0.2758420805E+00
   0.5037903333E-01   0.1845323101E+00   0.1457176330E-04  -0.3934548866E-04   0.1311458697E-03  -0.3541093980E-03   0.3344336796E+00   0.1753519235E-01   0.1055906616E+00   0.3764972089E-01   0.0000000000E+00   0.0000000000E+00   0.2974959235E-02  -0.1144721100E-02   0.4894463716E-03   0.0000000000E+00   0.0000000000E+00   0.0000000000E+00   0.2908577872E+00
   0.3165606830E+00   0.1728887629E+00   0.9149289683E-04  -0.9327413347E-05   0.8234360715E-03  -0.8394672013E-04   0.2773984589E+00   0.8887665108E-02   0.8588583719E-01  -0.7405715197E-02   0.0000000000E+00   0.0000000000E+00   0.2489664082E-02  -0.1000976237E-02  -0.9627429756E-04   0.0000000000E+00   0.0000000000E+00   0.0000000000E+00   0.2398378953E+00
   0.2992496201E+00   0.1762648209E-01   0.9301610573E-04  -0.4018609195E-06   0.8371449516E-03  -0.3616748276E-05   0.1642918776E+00   0.4431238050E-01   0.6258127743E-01  -0.3648184538E-02   0.0000000000E+00   0.0000000000E+00   0.1322237802E-02  -0.2374956601E-03  -0.4742639899E-04   0.0000000000E+00   0.0000000000E+00   0.0000000000E+00   0.1121353304E+00
   0.3092776231E+00   0.0000000000E+00   0.9442861150E-04   0.0000000000E+00   0.8498575035E-03   0.0000000000E+00   0.1653674724E+00   0.4617501327E-01   0.6346274572E-01  -0.1128617444E-02   0.0000000000E+00   0.0000000000E+00   0.1324761447E-02  -0.2247405217E-03  -0.1467202678E-04   0.0000000000E+00   0.0000000000E+00   0.0000000000E+00   0.1115625879E+00
   0.2668318400E+00   0.6954086088E-01   0.8657229915E-04  -0.2117191741E-05   0.7791506924E-03  -0.1905472567E-04   0.1852932518E+00   0.2990781825E-01   0.6456032101E-01  -0.2304675670E-01   0.0000000000E+00   0.0000000000E+00   0.1569528100E-02  -0.4504825358E-03  -0.2996078371E-03   0.0000000000E+00   0.0000000000E+00   0.0000000000E+00   0.1467009326E+00
   0.2476214042E+00   0.7417563201E-01   0.8319341711E-04  -0.2437228834E-05   0.7487407540E-03  -0.2193505950E-04   0.1864991785E+00   0.2205938780E-01   0.6256756989E-01  -0.2989138532E-01   0.0000000000E+00   0.0000000000E+00   0.1611110912E-02  -0.5266063671E-03  -0.3885880092E-03   0.0000000000E+00   0.0000000000E+00   0.0000000000E+00   0.1571822578E+00
   0.1728614541E+00   0.5292477469E-01   0.7479161473E-04  -0.2088391227E-05   0.6731245326E-03  -0.1879552104E-04   0.1347070079E+00  -0.1288295039E-01   0.3654721724E-01  -0.5632804310E-01   0.0000000000E+00   0.0000000000E+00   0.1276077278E-02  -0.6425921792E-03  -0.7322645603E-03   0.0000000000E+00   0.0000000000E+00   0.0000000000E+00   0.1631239908E+00
   0.2331952791E+00   0.8722566312E-01   0.7948320817E-04  -0.3383808425E-05   0.7153488736E-03  -0.3045427583E-04   0.1982040758E+00   0.1127727888E-01   0.6284440640E-01  -0.3661854610E-01   0.0000000000E+00   0.0000000000E+00   0.1759675702E-02  -0.6703726578E-03  -0.4760410992E-03   0.0000000000E+00   0.0000000000E+00   0.0000000000E+00   0.1787900639E+00
   0.2154925937E+00   0.8959921694E-01   0.7601407209E-04  -0.3853196070E-05   0.6841266488E-03  -0.3467876463E-04   0.2041758688E+00   0.1148414863E-02   0.6159728510E-01  -0.4333185235E-01   0.0000000000E+00   0.0000000000E+00   0.1853521588E-02  -0.7858353131E-03  -0.5633140806E-03   0.0000000000E+00   0.0000000000E+00   0.0000000000E+00   0.1954301818E+00
   0.2254029336E+00   0.7171053475E-01   0.7988335576E-04  -0.2500375409E-05   0.7189502019E-03  -0.2250337868E-04   0.1811631515E+00   0.1378729779E-01   0.5848513479E-01  -0.3809090611E-01   0.0000000000E+00   0.0000000000E+00   0.1594814217E-02  -0.5810718810E-03  -0.4951817794E-03   0.0000000000E+00   0.0000000000E+00   0.0000000000E+00   0.1639973650E+00
   0.2365078889E+00   0.5425332359E-01   0.8316748699E-04  -0.1554691318E-05   0.7485073829E-03  -0.1399222186E-04   0.1647862510E+00   0.2418100364E-01   0.5669017640E-01  -0.2890134921E-01   0.0000000000E+00   0.0000000000E+00   0.1405248970E-02  -0.4226192458E-03  -0.3757175397E-03   0.0000000000E+00   0.0000000000E+00   0.0000000000E+00   0.1370255728E+00
   0.7501491065E-01   0.1104154450E+00   0.3476655517E-04  -0.2359359881E-04   0.3128989965E-03  -0.2123423893E-03   0.3855884731E+00  -0.1695136481E-01   0.1105911325E+00  -0.2989175547E-01   0.0000000000E+00   0.0000000000E+00   0.3574965428E-02  -0.1658052465E-02  -0.3885928211E-03   0.0000000000E+00   0.0000000000E+00   0.0000000000E+00   0.3563242251E+00
   0.1266099280E+00   0.1990884434E+00   0.3629240136E-04  -0.2718226231E-04   0.3266316123E-03  -0.2446403608E-03   0.3297581592E+00  -0.1465684061E-01   0.9453039559E-01   0.2284150870E-01   0.0000000000E+00   0.0000000000E+00   0.3057960927E-02  -0.1419434071E-02   0.2969396132E-03   0.0000000000E+00   0.0000000000E+00   0.0000000000E+00   0.3073996624E+00
   0.1161841420E+00   0.1824743531E+00   0.3504800033E-04  -0.2665739471E-04   0.3154320030E-03  -0.2399165524E-03   0.3360983608E+00  -0.2148304035E-01   0.9438459614E-01   0.2574064795E-01   0.0000000000E+00   0.0000000000E+00   0.3142278941E-02  -0.1506279274E-02   0.3346284234E-03   0.0000000000E+00   0.0000000000E+00   0.0000000000E+00   0.3190825069E+00
   0.1493961934E+00   0.5212611678E-01   0.7196933986E-04  -0.2760472441E-05   0.6477240587E-03  -0.2484425196E-04   0.1252604724E+00  -0.3434674177E-01   0.2727411919E-01  -0.6474551267E-01   0.0000000000E+00   0.0000000000E+00   0.1273822592E-02  -0.8010711924E-03  -0.8416916648E-03   0.0000000000E+00   0.0000000000E+00   0.0000000000E+00   0.1793984243E+00
   0.7084128240E-01   0.1569382710E+00   0.2340075986E-04  -0.3200609809E-04   0.2106068387E-03  -0.2880548828E-03   0.3735290230E+00  -0.1061138039E-02   0.1117403655E+00   0.3536108107E-01   0.0000000000E+00   0.0000000000E+00   0.3403252547E-02  -0.1466419546E-02   0.4596940539E-03   0.0000000000E+00   0.0000000000E+00   0.0000000000E+00   0.3380854127E+00
   0.8524705392E-01   0.1699506381E+00   0.2666704170E-04  -0.3090309479E-04   0.2400033753E-03  -0.2781278531E-03   0.3517296262E+00  -0.1302084230E-01   0.1016126352E+00   0.3516111521E-01   0.0000000000E+00   0.0000000000E+00   0.3251520883E-02  -0.1490235207E-02   0.4570944977E-03   0.0000000000E+00   0.0000000000E+00   0.0000000000E+00   0.3288627561E+00
   0.8084900680E-01   0.1850159562E+00   0.2376287966E-04  -0.3390807866E-04   0.2138659170E-03  -0.3051727079E-03   0.3357599887E+00  -0.4080811283E-02   0.9950375323E-01   0.3985939835E-01   0.0000000000E+00   0.0000000000E+00   0.3071331061E-02  -0.1346599339E-02   0.5181721786E-03   0.0000000000E+00   0.0000000000E+00   0.0000000000E+00   0.3094737509E+00
   0.6766561429E-01   0.1763479428E+00   0.2043247854E-04  -0.3530071751E-04   0.1838923069E-03  -0.3177064576E-03   0.3467246599E+00   0.4993571718E-02   0.1055154695E+00   0.4100789978E-01   0.0000000000E+00   0.0000000000E+00   0.3135719475E-02  -0.1306784671E-02   0.5331026971E-03   0.0000000000E+00   0.0000000000E+00   0.0000000000E+00   0.3124023062E+00
   0.9688886005E-01   0.1835597545E+00   0.2887671452E-04  -0.3055244630E-04   0.2598904307E-03  -0.2749720167E-03   0.3386456417E+00  -0.1357784646E-01   0.9752033857E-01   0.3505562125E-01   0.0000000000E+00   0.0000000000E+00   0.3134628940E-02  -0.1444276405E-02   0.4557230762E-03   0.0000000000E+00   0.0000000000E+00   0.0000000000E+00   0.3176579390E+00
   0.2996801570E+00   0.1626662325E+00   0.8774239678E-04  -0.8526350248E-05   0.7896815710E-03  -0.7673715224E-04   0.2684795726E+00   0.8937453452E-02   0.8322510781E-01  -0.1201325319E-01   0.0000000000E+00   0.0000000000E+00   0.2408308042E-02  -0.9657395066E-03  -0.1561722914E-03   0.0000000000E+00   0.0000000000E+00   0.0000000000E+00   0.2324502954E+00
   0.2839673585E+00   0.1691653453E+00   0.8356104818E-04  -0.9441165863E-05   0.7520494337E-03  -0.8497049276E-04   0.2775503452E+00   0.6465162622E-02   0.8520465236E-01  -0.1375664853E-01   0.0000000000E+00   0.0000000000E+00   0.2500494007E-02  -0.1023613367E-02  -0.1788364309E-03   0.0000000000E+00   0.0000000000E+00   0.0000000000E+00   0.2427080267E+00
   0.2831704282E+00   0.1531221113E+00   0.8430741951E-04  -0.7864868203E-05   0.7587667756E-03  -0.7078381382E-04   0.2642322167E+00   0.9743310908E-02   0.8219265829E-01  -0.1618149758E-01   0.0000000000E+00   0.0000000000E+00   0.2366514260E-02  -0.9418415160E-03  -0.2103594685E-03   0.0000000000E+00   0.0000000000E+00   0.0000000000E+00   0.2288418743E+00
   0.2047458611E+00   0.7154494576E-01   0.7658920632E-04  -0.2722394025E-05   0.6893028569E-03  -0.2450154622E-04   0.1795100068E+00   0.3084126284E-02   0.5477823994E-01  -0.4728671362E-01   0.0000000000E+00   0.0000000000E+00   0.1621512970E-02  -0.6720234775E-03  -0.6147272770E-03   0.0000000000E+00   0.0000000000E+00   0.0000000000E+00   0.1772009154E+00
   0.3001542617E+00   0.1439375379E+00   0.8869097262E-04  -0.6802914340E-05   0.7982187536E-03  -0.6122622906E-04   0.2528571190E+00   0.1355443513E-01   0.7992346625E-01  -0.1332622778E-01   0.0000000000E+00   0.0000000000E+00   0.2248137486E-02  -0.8627974045E-03  -0.1732409612E-03   0.0000000000E+00   0.0000000000E+00   0.0000000000E+00   0.2152292950E+00
   0.2825056007E+00   0.7698219602E-01   0.8867076971E-04  -0.2414398213E-05   0.7980369274E-03  -0.2172958392E-04   0.1959598419E+00   0.3113390306E-01   0.6812812350E-01  -0.1886077165E-01   0.0000000000E+00   0.0000000000E+00   0.1661812340E-02  -0.4809248657E-03  -0.2451900315E-03   0.0000000000E+00   0.0000000000E+00   0.0000000000E+00   0.1533055751E+00
   0.1287407441E+00   0.8312227354E-01   0.5986700584E-04  -0.8121355960E-05   0.5388030525E-03  -0.7309220364E-04   0.2270752368E+00  -0.6243180749E-01   0.4939302878E-01  -0.7070856651E-01   0.0000000000E+00   0.0000000000E+00   0.2309868704E-02  -0.1453722872E-02  -0.9192113647E-03   0.0000000000E+00   0.0000000000E+00   0.0000000000E+00   0.2804638287E+00
   0.1288706539E+00   0.1030178252E+00   0.5403788878E-04  -0.1115918132E-04   0.4863409990E-03  -0.1004326319E-03   0.2748215332E+00  -0.6227170304E-01   0.6376494905E-01  -0.5268927090E-01   0.0000000000E+00   0.0000000000E+00   0.2743735594E-02  -0.1638476477E-02  -0.6849605217E-03   0.0000000000E+00   0.0000000000E+00   0.0000000000E+00   0.3089144160E+00
   0.1148757806E+00   0.9376892898E-01   0.5299026334E-04  -0.1183777201E-04   0.4769123701E-03  -0.1065399481E-03   0.2732528052E+00  -0.5961673844E-01   0.6409082003E-01  -0.6102185605E-01   0.0000000000E+00   0.0000000000E+00   0.2719105807E-02  -0.1608198260E-02  -0.7932841287E-03   0.0000000000E+00   0.0000000000E+00   0.0000000000E+00   0.3111359738E+00
   0.1950578027E+00   0.1820696741E+00   0.5881276988E-04  -0.1542118773E-04   0.5293149289E-03  -0.1387906895E-03   0.3082011177E+00  -0.1291665435E-01   0.8858533899E-01  -0.9688509797E-02   0.0000000000E+00   0.0000000000E+00   0.2855005123E-02  -0.1319525913E-02  -0.1259506274E-03   0.0000000000E+00   0.0000000000E+00   0.0000000000E+00   0.2847629150E+00
   0.2544387236E+00   0.1823258458E+00   0.7508055518E-04  -0.1171471631E-04   0.6757249966E-03  -0.1054324468E-03   0.2928749678E+00   0.1079293005E-02   0.8818627826E-01  -0.1456874138E-01   0.0000000000E+00   0.0000000000E+00   0.2660952965E-02  -0.1132390808E-02  -0.1893936380E-03   0.0000000000E+00   0.0000000000E+00   0.0000000000E+00   0.2606560570E+00
   0.2342840630E+00   0.1823503362E+00   0.6966939632E-04  -0.1264078109E-04   0.6270245669E-03  -0.1137670298E-03   0.2975079281E+00  -0.3093379498E-02   0.8832436459E-01  -0.1481708481E-01   0.0000000000E+00   0.0000000000E+00   0.2719386326E-02  -0.1188430673E-02  -0.1926221025E-03   0.0000000000E+00   0.0000000000E+00   0.0000000000E+00   0.2681194758E+00
   0.2520327009E+00   0.1519215242E+00   0.7697678851E-04  -0.8531081945E-05   0.6927910966E-03  -0.7677973751E-04   0.2688731915E+00   0.4068423878E-02   0.8188248461E-01  -0.2201418595E-01   0.0000000000E+00   0.0000000000E+00   0.2430879189E-02  -0.1011582790E-02  -0.2861844173E-03   0.0000000000E+00   0.0000000000E+00   0.0000000000E+00   0.2387807861E+00
   0.2351912783E+00   0.1493557949E+00   0.7312972711E-04  -0.8853209451E-05   0.6581675440E-03  -0.7967888505E-04   0.2680608783E+00  -0.2886996569E-02   0.7955216451E-01  -0.2475051364E-01   0.0000000000E+00   0.0000000000E+00   0.2450613279E-02  -0.1071709094E-02  -0.3217566773E-03   0.0000000000E+00   0.0000000000E+00   0.0000000000E+00   0.2443761418E+00
   0.2488138384E+00   0.1359177062E+00   0.7769774264E-04  -0.7046978892E-05   0.6992796838E-03  -0.6342281003E-04   0.2519973723E+00   0.4493524083E-02   0.7694726892E-01  -0.2584862735E-01   0.0000000000E+00   0.0000000000E+00   0.2275651344E-02  -0.9418986829E-03  -0.3360321556E-03   0.0000000000E+00   0.0000000000E+00   0.0000000000E+00   0.2248915455E+00
   0.7661847198E-01   0.1344975587E+00   0.2887862848E-04  -0.2722982892E-04   0.2599076563E-03  -0.2450684602E-03   0.3844858640E+00  -0.1531248276E-01   0.1107520144E+00   0.1181927966E-01   0.0000000000E+00   0.0000000000E+00   0.3558540045E-02  -0.1638838463E-02   0.1536506356E-03   0.0000000000E+00   0.0000000000E+00   0.0000000000E+00   0.3553161628E+00
   0.2146429888E+00   0.1821940179E+00   0.6430017819E-04  -0.1384230638E-04   0.5787016037E-03  -0.1245807574E-03   0.3021845978E+00  -0.7635575364E-02   0.8836470672E-01  -0.1312367051E-01   0.0000000000E+00   0.0000000000E+00   0.2779658584E-02  -0.1248003667E-02  -0.1706077167E-03   0.0000000000E+00   0.0000000000E+00   0.0000000000E+00   0.2756105469E+00
   0.2578513592E+00   0.5433715567E-01   0.8620592160E-04  -0.1502723491E-05   0.7758532944E-03  -0.1352451142E-04   0.1712552209E+00   0.3105196492E-01   0.6069215574E-01  -0.2279871098E-01   0.0000000000E+00   0.0000000000E+00   0.1437319847E-02  -0.3853224807E-03  -0.2963832427E-03   0.0000000000E+00   0.0000000000E+00   0.0000000000E+00   0.1340120850E+00
   0.2828530113E+00   0.9621717163E-01   0.8767582844E-04  -0.3452467152E-05   0.7890824560E-03  -0.3107220437E-04   0.2109006920E+00   0.2424593326E-01   0.7054398757E-01  -0.1981417910E-01   0.0000000000E+00   0.0000000000E+00   0.1824637157E-02  -0.6018747061E-03  -0.2575843283E-03   0.0000000000E+00   0.0000000000E+00   0.0000000000E+00   0.1718045307E+00
   0.1431528525E+00   0.7222921047E-01   0.6598425080E-04  -0.5217252584E-05   0.5938582572E-03  -0.4695527325E-04   0.1779057307E+00  -0.5048903944E-01   0.3822500737E-01  -0.7148263861E-01   0.0000000000E+00   0.0000000000E+00   0.1815849403E-02  -0.1153282609E-02  -0.9292743019E-03   0.0000000000E+00   0.0000000000E+00   0.0000000000E+00   0.2344340160E+00
   0.1250951954E+00   0.1647778778E+00   0.4019954422E-04  -0.2225162219E-04   0.3617958980E-03  -0.2002645998E-03   0.3339355456E+00  -0.3405143372E-01   0.8996523357E-01   0.1346017372E-01   0.0000000000E+00   0.0000000000E+00   0.3171614056E-02  -0.1612216675E-02   0.1749822584E-03   0.0000000000E+00   0.0000000000E+00   0.0000000000E+00   0.3250173754E+00
   0.2663440669E+00   0.1441896485E+00   0.8099339070E-04  -0.7385750085E-05   0.7289405163E-03  -0.6647175076E-04   0.2561510190E+00   0.7404136035E-02   0.7906654650E-01  -0.2065922927E-01   0.0000000000E+00   0.0000000000E+00   0.2302098142E-02  -0.9316113361E-03  -0.2685699805E-03   0.0000000000E+00   0.0000000000E+00   0.0000000000E+00   0.2246500456E+00
   0.2831237130E+00   0.1345281131E+00   0.8542649807E-04  -0.6212490076E-05   0.7688384826E-03  -0.5591241069E-04   0.2459513156E+00   0.1365822601E-01   0.7788286248E-01  -0.1810236995E-01   0.0000000000E+00   0.0000000000E+00   0.2184889890E-02  -0.8349202741E-03  -0.2353308094E-03   0.0000000000E+00   0.0000000000E+00   0.0000000000E+00   0.2101234530E+00
   0.2829866765E+00   0.1154955283E+00   0.8656145024E-04  -0.4730069929E-05   0.7790530521E-03  -0.4257062936E-04   0.2282028679E+00   0.1847478022E-01   0.7400329444E-01  -0.1937377436E-01   0.0000000000E+00   0.0000000000E+00   0.2004594455E-02  -0.7218706848E-03  -0.2518590667E-03   0.0000000000E+00   0.0000000000E+00   0.0000000000E+00   0.1911750685E+00
   0.2246924886E+00   0.1655270050E+00   0.6877135983E-04  -0.1118139800E-04   0.6189422385E-03  -0.1006325820E-03   0.2848902008E+00  -0.6410217854E-02   0.8354399488E-01  -0.1913181215E-01   0.0000000000E+00   0.0000000000E+00   0.2617500677E-02  -0.1169404766E-02  -0.2487135580E-03   0.0000000000E+00   0.0000000000E+00   0.0000000000E+00   0.2604485260E+00
   0.2442494924E+00   0.1659213968E+00   0.7378603568E-04  -0.1028712287E-04   0.6640743211E-03  -0.9258410586E-04   0.2808172598E+00  -0.1316614200E-02   0.8385019367E-01  -0.1911438440E-01   0.0000000000E+00   0.0000000000E+00   0.2560571859E-02  -0.1107168502E-02  -0.2484869972E-03   0.0000000000E+00   0.0000000000E+00   0.0000000000E+00   0.2528011594E+00
   0.1827832130E+00   0.1088207020E+00   0.6630689825E-04  -0.6921998310E-05   0.5967620843E-03  -0.6229798479E-04   0.2418308996E+00  -0.2688224865E-01   0.6448459529E-01  -0.4565581288E-01   0.0000000000E+00   0.0000000000E+00   0.2305501956E-02  -0.1187768971E-02  -0.5935255674E-03   0.0000000000E+00   0.0000000000E+00   0.0000000000E+00   0.2494206098E+00
   0.2063354188E+00   0.1119927623E+00   0.7106148492E-04  -0.6119867277E-05   0.6395533643E-03  -0.5507880549E-04   0.2360635854E+00  -0.1035688911E-01   0.6771200889E-01  -0.4012989791E-01   0.0000000000E+00   0.0000000000E+00   0.2188570495E-02  -0.1014895674E-02  -0.5216886728E-03   0.0000000000E+00   0.0000000000E+00   0.0000000000E+00   0.2289312230E+00
   0.1894747558E+00   0.1288023870E+00   0.6455128247E-04  -0.8924502956E-05   0.5809615423E-03  -0.8032052660E-04   0.2628823057E+00  -0.2341681408E-01   0.7183964750E-01  -0.3536378965E-01   0.0000000000E+00   0.0000000000E+00   0.2483554557E-02  -0.1238334000E-02  -0.4597292655E-03   0.0000000000E+00   0.0000000000E+00   0.0000000000E+00   0.2598369089E+00
   0.2655651558E+00   0.1642202650E+00   0.7930387870E-04  -0.9367702802E-05   0.7137349083E-03  -0.8430932522E-04   0.2759458690E+00   0.4428750066E-02   0.8411238573E-01  -0.1719857268E-01   0.0000000000E+00   0.0000000000E+00   0.2493835283E-02  -0.1035887264E-02  -0.2235814448E-03   0.0000000000E+00   0.0000000000E+00   0.0000000000E+00   0.2435693947E+00
   0.1943791653E+00   0.9043330495E-01   0.7186232587E-04  -0.4468315220E-05   0.6467609329E-03  -0.4021483698E-04   0.2105514298E+00  -0.1064381148E-01   0.5997228549E-01  -0.4957577554E-01   0.0000000000E+00   0.0000000000E+00   0.1957528876E-02  -0.9180092607E-03  -0.6444850820E-03   0.0000000000E+00   0.0000000000E+00   0.0000000000E+00   0.2137112123E+00
   0.1354656129E+00   0.1460046795E+00   0.4642809209E-04  -0.1740574678E-04   0.4178528288E-03  -0.1566517210E-03   0.3228754507E+00  -0.4375706996E-01   0.8373551422E-01  -0.6590810592E-02   0.0000000000E+00   0.0000000000E+00   0.3108819174E-02  -0.1657403594E-02  -0.8568053770E-04   0.0000000000E+00   0.0000000000E+00   0.0000000000E+00   0.3223995100E+00
   0.1855879842E+00   0.1647075076E+00   0.5829152026E-04  -0.1398214185E-04   0.5246236823E-03  -0.1258392767E-03   0.3003137702E+00  -0.2066392688E-01   0.8389495299E-01  -0.1402822459E-01   0.0000000000E+00   0.0000000000E+00   0.2813444623E-02  -0.1359265438E-02  -0.1823669197E-03   0.0000000000E+00   0.0000000000E+00   0.0000000000E+00   0.2845048447E+00
   0.1964764098E+00   0.1477001883E+00   0.6354247705E-04  -0.1083186603E-04   0.5718822934E-03  -0.9748679428E-04   0.2814526726E+00  -0.1879517320E-01   0.7879724982E-01  -0.2527522794E-01   0.0000000000E+00   0.0000000000E+00   0.2634520496E-02  -0.1268701499E-02  -0.3285779632E-03   0.0000000000E+00   0.0000000000E+00   0.0000000000E+00   0.2688312115E+00
   0.1767303180E+00   0.1462150351E+00   0.5845409821E-04  -0.1227719457E-04   0.5260868839E-03  -0.1104947511E-03   0.2894616976E+00  -0.2986907137E-01   0.7787778787E-01  -0.2256387047E-01   0.0000000000E+00   0.0000000000E+00   0.2750590826E-02  -0.1400709170E-02  -0.2933303161E-03   0.0000000000E+00   0.0000000000E+00   0.0000000000E+00   0.2839876742E+00
   0.9375518404E-01   0.1192329416E+00   0.3862141379E-04  -0.2061383980E-04   0.3475927241E-03  -0.1855245582E-03   0.3539646069E+00  -0.4822247575E-01   0.9172263934E-01  -0.1992808147E-01   0.0000000000E+00   0.0000000000E+00   0.3409145578E-02  -0.1819286496E-02  -0.2590650591E-03   0.0000000000E+00   0.0000000000E+00   0.0000000000E+00   0.3552520074E+00
   0.2051761455E+00   0.1651106552E+00   0.6363545411E-04  -0.1239698249E-04   0.5727190870E-03  -0.1115728424E-03   0.2925059615E+00  -0.1245354119E-01   0.8401572611E-01  -0.1812734626E-01   0.0000000000E+00   0.0000000000E+00   0.2710373061E-02  -0.1254100475E-02  -0.2356555013E-03   0.0000000000E+00   0.0000000000E+00   0.0000000000E+00   0.2717780437E+00
   0.2656253064E+00   0.1253629718E+00   0.8230293932E-04  -0.5731520663E-05   0.7407264539E-03  -0.5158368596E-04   0.2382538065E+00   0.1042760453E-01   0.7460442332E-01  -0.2335543078E-01   0.0000000000E+00   0.0000000000E+00   0.2127441982E-02  -0.8342986443E-03  -0.3036206002E-03   0.0000000000E+00   0.0000000000E+00   0.0000000000E+00   0.2074664841E+00
   0.2473879036E+00   0.1160597919E+00   0.7927895943E-04  -0.5294710601E-05   0.7135106349E-03  -0.4765239541E-04   0.2331487768E+00   0.8189723779E-02   0.7240155018E-01  -0.2880306244E-01   0.0000000000E+00   0.0000000000E+00   0.2089713946E-02  -0.8347537432E-03  -0.3744398117E-03   0.0000000000E+00   0.0000000000E+00   0.0000000000E+00   0.2068543002E+00
   0.2270167113E+00   0.1285157361E+00   0.7352473290E-04  -0.6998985108E-05   0.6617225961E-03  -0.6299086597E-04   0.2479800176E+00  -0.4212642609E-02   0.7313021249E-01  -0.3091046521E-01   0.0000000000E+00   0.0000000000E+00   0.2273047466E-02  -0.1005457116E-02  -0.4018360477E-03   0.0000000000E+00   0.0000000000E+00   0.0000000000E+00   0.2300939634E+00
   0.1264193762E+00   0.1247785462E+00   0.4783381875E-04  -0.1524317565E-04   0.4305043688E-03  -0.1371885808E-03   0.3148691675E+00  -0.5818071745E-01   0.7700653502E-01  -0.2655132981E-01   0.0000000000E+00   0.0000000000E+00   0.3092214222E-02  -0.1757434282E-02  -0.3451672875E-03   0.0000000000E+00   0.0000000000E+00   0.0000000000E+00   0.3301961094E+00
   0.1080433636E+00   0.1272692665E+00   0.4137965587E-04  -0.1898875257E-04   0.3724169028E-03  -0.1708987732E-03   0.3467366263E+00  -0.5134782925E-01   0.8861663911E-01  -0.1308697862E-01   0.0000000000E+00   0.0000000000E+00   0.3355559833E-02  -0.1819538089E-02  -0.1701307221E-03   0.0000000000E+00   0.0000000000E+00   0.0000000000E+00   0.3505746477E+00
   0.1113090279E+00   0.1107180019E+00   0.4680738592E-04  -0.1532161133E-04   0.4212664733E-03  -0.1378945020E-03   0.3078640501E+00  -0.6434300220E-01   0.7305631436E-01  -0.3688364881E-01   0.0000000000E+00   0.0000000000E+00   0.3052500564E-02  -0.1786191115E-02  -0.4794874345E-03   0.0000000000E+00   0.0000000000E+00   0.0000000000E+00   0.3316819466E+00
   0.9633895775E-01   0.1356597508E+00   0.3558995526E-04  -0.2295261923E-04   0.3203095974E-03  -0.2065735730E-03   0.3628514322E+00  -0.3905914096E-01   0.9713768738E-01   0.6075410163E-02   0.0000000000E+00   0.0000000000E+00   0.3454278683E-02  -0.1770558768E-02   0.7898033212E-04   0.0000000000E+00   0.0000000000E+00   0.0000000000E+00   0.3540742355E+00
   0.2295874206E+00   0.1048648781E+00   0.7681845799E-04  -0.4761891542E-05   0.6913661219E-03  -0.4285702388E-04   0.2215446753E+00   0.4160642460E-02   0.6771159532E-01  -0.3523741269E-01   0.0000000000E+00   0.0000000000E+00   0.1999830040E-02  -0.8261623872E-03  -0.4580863650E-03   0.0000000000E+00   0.0000000000E+00   0.0000000000E+00   0.2029176956E+00
   0.1563153046E+00   0.1459577032E+00   0.5271806216E-04  -0.1450088103E-04   0.4744625594E-03  -0.1305079293E-03   0.3070450888E+00  -0.3655001383E-01   0.8114852251E-01  -0.1636511436E-01   0.0000000000E+00   0.0000000000E+00   0.2936655362E-02  -0.1530080972E-02  -0.2127464866E-03   0.0000000000E+00   0.0000000000E+00   0.0000000000E+00   0.3035403110E+00
   0.2069443529E+00   0.1330539453E+00   0.6819878842E-04  -0.8432371108E-05   0.6137890958E-03  -0.7589133997E-04   0.2633043024E+00  -0.1447919297E-01   0.7464753283E-01  -0.3301781498E-01   0.0000000000E+00   0.0000000000E+00   0.2452538005E-02  -0.1158647435E-02  -0.4292315947E-03   0.0000000000E+00   0.0000000000E+00   0.0000000000E+00   0.2521211977E+00
   0.2156733189E+00   0.1482629362E+00   0.6842529390E-04  -0.9691376414E-05   0.6158276451E-03  -0.8722238773E-04   0.2754095733E+00  -0.7617366043E-02   0.8033766219E-01  -0.2442947212E-01   0.0000000000E+00   0.0000000000E+00   0.2535934845E-02  -0.1143415367E-02  -0.3175831376E-03   0.0000000000E+00   0.0000000000E+00   0.0000000000E+00   0.2543288658E+00
   0.1469850482E+00   0.1280179360E+00   0.5329341505E-04  -0.1285929642E-04   0.4796407354E-03  -0.1157336678E-03   0.2962323810E+00  -0.4687691577E-01   0.7480663956E-01  -0.2935177700E-01   0.0000000000E+00   0.0000000000E+00   0.2878534639E-02  -0.1581886219E-02  -0.3815731010E-03   0.0000000000E+00   0.0000000000E+00   0.0000000000E+00   0.3054824923E+00
   0.1675082236E+00   0.1252738307E+00   0.5951766449E-04  -0.1020212695E-04   0.5356589804E-03  -0.9181914259E-04   0.2778201796E+00  -0.3504942017E-01   0.7283122784E-01  -0.3508532785E-01   0.0000000000E+00   0.0000000000E+00   0.2664856373E-02  -0.1402448424E-02  -0.4561092621E-03   0.0000000000E+00   0.0000000000E+00   0.0000000000E+00   0.2818289036E+00
   0.1497472488E+00   0.9401566928E-01   0.6173808214E-04  -0.7357051614E-05   0.5556427393E-03  -0.6621346452E-04   0.2336344770E+00  -0.4962471417E-01   0.5520292884E-01  -0.6015505748E-01   0.0000000000E+00   0.0000000000E+00   0.2319610126E-02  -0.1362759359E-02  -0.7820157472E-03   0.0000000000E+00   0.0000000000E+00   0.0000000000E+00   0.2693332250E+00
   0.1543727042E+00   0.1131625276E+00   0.5846741680E-04  -0.9756240121E-05   0.5262067512E-03  -0.8780616109E-04   0.2693186215E+00  -0.5111786014E-01   0.6546022842E-01  -0.4700417086E-01   0.0000000000E+00   0.0000000000E+00   0.2650159110E-02  -0.1515515151E-02  -0.6110542212E-03   0.0000000000E+00   0.0000000000E+00   0.0000000000E+00   0.2923230749E+00
   0.1655277530E+00   0.1063132842E+00   0.6271819546E-04  -0.7833180590E-05   0.5644637591E-03  -0.7049862531E-04   0.2421849915E+00  -0.4068865694E-01   0.6044890036E-01  -0.4886935840E-01   0.0000000000E+00   0.0000000000E+00   0.2362569185E-02  -0.1314788245E-02  -0.6353016593E-03   0.0000000000E+00   0.0000000000E+00   0.0000000000E+00   0.2619420126E+00
   0.1412792198E+00   0.1125999702E+00   0.5509548119E-04  -0.1112807777E-04   0.4958593307E-03  -0.1001526999E-03   0.2877149112E+00  -0.5271895807E-01   0.7049878593E-01  -0.4152190073E-01   0.0000000000E+00   0.0000000000E+00   0.2823809628E-02  -0.1601830672E-02  -0.5397847095E-03   0.0000000000E+00   0.0000000000E+00   0.0000000000E+00   0.3061576861E+00
           1           2           3           3
           4           5           6           6
           7           8           9           9
          10          11          12          12
          13           7          14          14
          15          16          17          17
          18          19          10          10
          20          21          22          22
          23          24           2           2
          25          23           2           2
          26           3          27          27
          28          29          30          30
          31          32          33          33
          34          31          25          25
          35          36          20          20
          26          27           8           8
          37          15          17          17
          38          39          40          40
          41          40          42          42
          43          44          45          45
          46          47          41          41
          48          49          50          50
          51          52          53          53
          54          55          56          56
          57          58          59          59
          60          61          62          62
          63          64          57          57
          62          13          65          65
          66          67          68          68
          69          66          70          70
          71          72          73          73
          74          75          76          76
          75          77          78          78
          77          79          78          78
          80          53          48          48
          81          82          83          83
          45          84          85          85
          44          86          45          45
          87          88          44          44
          41          42          87          87
          36          89          21          21
          20          36          21          21
          35          30          90          90
          91           1          26          26
          92          93          30          30
           6          94          92          92
          95          96           4           4
          12          97          95          95
          98          12          95          95
          99         100          10          10
         101         102          99          99
         103         104         101         101
         105         106         103         103
         107         108         105         105
         109         110         107         107
         111         112         109         109
          69          70         111         111
           8          27           9           9
           7           9          14          14
          13          14          65          65
         113         114         115         115
          59          58         116         116
          51         116          52          52
          62          65          15          15
         117         118         119         119
         120         121         122         122
         122         123         124         124
          31          33          25          25
          25          33          23          23
          28          20         120         120
         124          32          31          31
         125         124         126         126
         124         123          32          32
         127         120         122         122
         122         121         123         123
         120          20          22          22
         120          22         121         121
          91         128          34          34
         129           4           6           6
          37          17         130         130
         131         132          63          63
          53          52          49          49
          85         133          83          83
          83         134         135         135
          51          59         116         116
          57          64          58          58
          19          99          10          10
         136          63         137         137
          63         132          64          64
         138          60          37          37
         131         130         132         132
          37          62          15          15
          37         130         131         131
         135         134          79          79
         139         103         101         101
          56          55          82          82
          83         133         134         134
          55          45          85          85
          85          84         133         133
         140          46         141         141
          45          86          84          84
         142          44          43          43
          44          88          86          86
          46          87         142         142
          87          42          88          88
          47          38          41          41
          41          38          40          40
         143          29         144         144
          30          93          90          90
         145          92          29          29
          92          94          93          93
         146         147         129         129
           6           5          94          94
         148         149         150         150
           4          96           5           5
         151           7         152         152
          95          97          96          96
          18          12          98          98
          12          11          97          97
         153         139         101         101
          10         100          11          11
         153          99          19          19
          99         102         100         100
         154          51         155         155
         101         104         102         102
         156          71          73          73
         103         106         104         104
         157         103         139         139
         105         108         106         106
          74          76         158         158
         107         110         108         108
          76          75         159         159
         109         112         110         110
         160         109          72          72
         111          70         112         112
         161          67          69          69
          69          67          66          66
         126         124          31          31
         128         162         126         126
         144          28         127         127
         125         127         122         122
         125         122         124         124
         143         146         145         145
          77         135          79          79
          75          78         159         159
          82          85          83          83
         163         164         165         165
          76         159         166         166
         167         168          74          74
          81          83         135         135
         169          56          82          82
          55          43          45          45
          55          85          82          82
         170         141         171         171
         142          87          44          44
         161          76         166         166
         158          69         111         111
         172         135          77          77
         173         139         174         174
         161         166          67          67
         158         161          69          69
          72         109         107         107
         175         107         105         105
         176          95           4           4
         152           7          13          13
         145           6          92          92
         114         177         178         178
          18          10          12          12
         154          59          51          51
         153         101          99          99
         179         137          57          57
         114         180         181         181
         181         182          19          19
         183         179         184         184
         174         153         182         182
         173         185         157         157
         157         105         103         103
          29          92          30          30
         186         127         125         125
          35          90          36          36
          28          35          20          20
         186         144         127         127
         145         129           6           6
         176          98          95          95
         176           4         129         129
         175          72         107         107
         175         105         157         157
          74         187          75          75
         160         111         109         109
           1          25           2           2
           1           3          26          26
          48          53          49          49
         188          48          50          50
         188          50         189         189
          47         188         189         189
         155          51          53          53
         190         164         191         191
         137          63          57          57
         179          57          59          59
         154         179          59          59
         183         192         137         137
         193         194         195         195
         196         184         154         154
          60          62          37          37
         136         131          63          63
          47         189          38          38
          46          41          87          87
          28          30          35          35
          28         120         127         127
         141          46         142         142
          46         188          47          47
         197          26           8           8
         151           8           7           7
         178         198         199         199
          61         152          13          13
          61          13          62          62
         200         136         192         192
         198         176         147         147
         151         197           8           8
          34         126          31          31
          34          25           1           1
         158          76         161         161
         158         111         160         160
         144          29          28          28
         162         125         126         126
         162         186         125         125
         201         162         128         128
         128         126          34          34
         202         203         204         204
         140         188          46          46
         171         142          43          43
          91          34           1           1
         205         199         147         147
         168         206         187         187
         187          77          75          75
         167         158         160         160
         207         208         206         206
         169          82          81          81
         195         209         184         184
         210          81         172         172
         173         157         139         139
         190         170         211         211
          54          43          55          55
         171         141         142         142
         171          43          54          54
         172          81         135         135
         172          77         187         187
         182         153          19          19
         181          19          18          18
         147         176         129         129
         146         129         145         145
         177          18          98          98
         212         213         214         214
         143         145          29          29
         204         203         143         143
          73          72         175         175
         185         175         157         157
         215         182         180         180
         174         139         153         153
         216         185         217         217
         185          73         175         175
         198          98         176         176
         199         198         147         147
         167          71         168         168
          71         160          72          72
         177         181          18          18
         177          98         198         198
         215         174         182         182
         218         219         220         220
         143         144         186         186
         202         204         201         201
          91          26         197         197
         221          91         197         197
          80         155          53          53
         140          80          48          48
         184         179         154         154
         196         154         155         155
         192         136         137         137
         183         137         179         179
         215         222         174         174
         209         118         183         183
         223         155          80          80
         224          54          56          56
         138          37         131         131
         138         200          60          60
         140          48         188         188
         170         140         141         141
         170          80         140         140
         211          54         224         224
         225          61         200         200
         200          61          60          60
         221         128          91          91
         149         226         199         199
         227         228         208         208
         206         172         187         187
         229          56         169         169
         229         224          56          56
         211         170         171         171
         211         171          54          54
         168         187          74          74
         156         168          71          71
         228         169         210         210
         217         185         173         173
         210         169          81          81
         210         172         206         206
         167          74         158         158
         167         160          71          71
         222         173         174         174
         230         231         217         217
         205         147         146         146
         226         178         199         199
         232         233         234         234
         178         177         198         198
         235         156         216         216
         216          73         185         185
         207         168         156         156
         156          73         216         216
         180         182         181         181
         114         181         177         177
         203         205         146         146
         150         202         201         201
         194         236         209         209
         222         217         173         173
         115         178         226         226
         237         115         226         226
         203         146         143         143
         204         143         186         186
         238         180         113         113
         239         238         240         240
         221         201         128         128
         241         197         151         151
         223         196         155         155
         223          80         170         170
         118         192         183         183
         209         183         184         184
         195         184         196         196
         242         215         238         238
         191         196         223         223
         165         164         224         224
         204         186         162         162
         204         162         201         201
         227         208         235         235
         208         210         206         206
         164         211         224         224
         165         224         229         229
         243         229         228         228
         244         220         245         245
         207         206         168         168
         235         207         156         156
         149         199         205         205
         246         148         247         247
         231         216         217         217
         230         217         222         222
         138         131         136         136
         138         136         200         200
         235         208         207         207
         235         216         231         231
         213         248         214         214
         115         114         178         178
         202         149         205         205
         249         221         241         241
         242         222         215         215
         250         244         245         245
         202         205         203         203
         150         201         221         221
         251         115         237         237
         113         180         114         114
         240         113         251         251
         238         215         180         180
         252         233         245         245
         242         230         222         222
         228         229         169         169
         228         210         208         208
         191         195         196         196
         190         191         223         223
         236         118         209         209
         194         209         195         195
         193         195         191         191
         253         219         230         230
         190         223         170         170
         190         211         164         164
         241         221         197         197
         150         149         202         202
         248         241         151         151
         249         148         150         150
         218         235         231         231
         218         220         227         227
         148         237         226         226
         254         251         237         237
         148         226         149         149
         246         247         248         248
         219         231         230         230
         253         230         242         242
         255         251         254         254
         251         113         115         115
         239         242         238         238
         252         245         253         253
         234         252         239         239
         240         238         113         113
         234         240         255         255
         239         253         242         242
         243         165         229         229
         243         228         227         227
         163         191         164         164
         244         243         220         220
         225         212          61          61
         119         118         236         236
         249         150         221         221
         247         249         241         241
         233         236         194         194
         250         245         233         233
         214         151         152         152
         256         213         212         212
         247         148         249         249
         247         241         248         248
         220         243         227         227
         245         220         219         219
         213         246         248         248
         246         237         148         148
         257         255         254         254
         254         237         246         246
         245         219         253         253
         250         233         194         194
         163         244         250         250
         244         165         243         243
         232         234         255         255
         255         240         251         251
         252         253         239         239
         234         239         240         240
         258         255         257         257
         234         233         252         252
         232         119         236         236
         232         236         233         233
         250         194         193         193
         163         250         193         193
         117         200         192         192
         117         192         118         118
         218         227         235         235
         218         231         219         219
         214         248         151         151
         212         214         152         152
         259         256         257         257
         259         246         213         213
         212         152          61          61
         225         256         212         212
         258         257         256         256
         259         257         254         254
         163         193         191         191
         163         165         244         244
         256         117         119         119
         258         256         119         119
         259         254         246         246
         259         213         256         256
         258         119         232         232
         258         232         255         255
         225         200         117         117
         225         117         256         256
