 VARIABLES = X,Y,DU1,DU2,U1,U2,S11,S22,S33,S12,S13,S23,E11,E22,E12,E33,E13,E23,SMISES
 ZONE, T="0.1000D+01" F=FEPOINT, I=  281 J=  250
   0.1776201181E-01   0.1341989548E+00   0.6995108697E-05  -0.3884119502E-04   0.0000000000E+00   0.0000000000E+00   0.4743019377E-01   0.9094899254E-02   0.1695752791E-01   0.7256227286E-03   0.0000000000E+00   0.0000000000E+00   0.3961446563E-03  -0.1022141725E-03   0.9433095472E-05   0.0000000000E+00   0.0000000000E+00   0.0000000000E+00   0.3489480833E-01
   0.0000000000E+00   0.1332936940E+00   0.0000000000E+00  -0.3964596163E-04   0.0000000000E+00   0.0000000000E+00   0.4772934226E-01   0.9481303838E-02   0.1716319383E-01   0.1226047583E-02   0.0000000000E+00   0.0000000000E+00   0.3973599296E-03  -0.9986456989E-04   0.1593861858E-04   0.0000000000E+00   0.0000000000E+00   0.0000000000E+00   0.3511710771E-01
   0.0000000000E+00   0.1166292426E+00   0.0000000000E+00  -0.3742435212E-04   0.0000000000E+00   0.0000000000E+00   0.5982934956E-01   0.3999699100E-02   0.1914871460E-01   0.9754108165E-03   0.0000000000E+00   0.0000000000E+00   0.5288482545E-03  -0.1969372015E-03   0.1268034061E-04   0.0000000000E+00   0.0000000000E+00   0.0000000000E+00   0.4987956480E-01
   0.1916396658E-01   0.1162547676E+00   0.9829582524E-05  -0.3642042832E-04   0.0000000000E+00   0.0000000000E+00   0.5466201406E-01   0.3839876600E-02   0.1755056720E-01  -0.4861803349E-02   0.0000000000E+00   0.0000000000E+00   0.4824488092E-03  -0.1782389778E-03  -0.6320344354E-04   0.0000000000E+00   0.0000000000E+00   0.0000000000E+00   0.4652859316E-01
   0.7801999814E-01   0.2318358890E+00   0.1849893641E-04  -0.4051400749E-04   0.0000000000E+00   0.0000000000E+00   0.2908907510E-01   0.1514353118E-04   0.8731265588E-02   0.2015041416E-02   0.0000000000E+00   0.0000000000E+00   0.2646515236E-03  -0.1133095867E-03   0.2619553840E-04   0.0000000000E+00   0.0000000000E+00   0.0000000000E+00   0.2608922135E-01
   0.9780186512E-01   0.2320183392E+00   0.2386522070E-04  -0.3692275069E-04   0.0000000000E+00   0.0000000000E+00   0.3074629830E-01  -0.1502686036E-03   0.9178808909E-02   0.1835363805E-02   0.0000000000E+00   0.0000000000E+00   0.2803773621E-03  -0.1212780077E-03   0.2385972947E-04   0.0000000000E+00   0.0000000000E+00   0.0000000000E+00   0.2764146370E-01
   0.9724318012E-01   0.2499608351E+00   0.2095621536E-04  -0.3916492128E-04   0.0000000000E+00   0.0000000000E+00   0.2999115933E-01  -0.1526232655E-03   0.8951560820E-02   0.6305401596E-03   0.0000000000E+00   0.0000000000E+00   0.2735147807E-03  -0.1183543931E-03   0.8197022075E-05   0.0000000000E+00   0.0000000000E+00   0.0000000000E+00   0.2677073472E-01
   0.7779366361E-01   0.2499574556E+00   0.1588301032E-04  -0.4254439680E-04   0.0000000000E+00   0.0000000000E+00   0.2714160168E-01  -0.2715142025E-03   0.8061026244E-02   0.7005002766E-03   0.0000000000E+00   0.0000000000E+00   0.2480474807E-03  -0.1083230258E-03   0.9106503595E-05   0.0000000000E+00   0.0000000000E+00   0.0000000000E+00   0.2433725353E-01
   0.1910237751E-01   0.2332746120E+00   0.4186906655E-05  -0.4821695311E-04   0.0000000000E+00   0.0000000000E+00   0.2464959666E-01   0.6885335772E-03   0.7601439071E-02   0.5811285737E-03   0.0000000000E+00   0.0000000000E+00   0.2216260486E-03  -0.8986777142E-04   0.7554671458E-05   0.0000000000E+00   0.0000000000E+00   0.0000000000E+00   0.2142541804E-01
   0.0000000000E+00   0.2332845579E+00   0.0000000000E+00  -0.4877609362E-04   0.0000000000E+00   0.0000000000E+00   0.2425130887E-01   0.7311701652E-03   0.7494743710E-02   0.6546494652E-03   0.0000000000E+00   0.0000000000E+00   0.2178353471E-03  -0.8792645609E-04   0.8510443048E-05   0.0000000000E+00   0.0000000000E+00   0.0000000000E+00   0.2099588794E-01
   0.0000000000E+00   0.2166194409E+00   0.0000000000E+00  -0.4722813783E-04   0.0000000000E+00   0.0000000000E+00   0.2755673303E-01   0.1403174819E-02   0.8687972356E-02   0.6705865767E-03   0.0000000000E+00   0.0000000000E+00   0.2452938888E-03  -0.9470236798E-04   0.8717625497E-05   0.0000000000E+00   0.0000000000E+00   0.0000000000E+00   0.2338934406E-01
   0.1853686014E-01   0.2167279294E+00   0.4565344514E-05  -0.4668358177E-04   0.0000000000E+00   0.0000000000E+00   0.2782976619E-01   0.1295525821E-02   0.8737587604E-02   0.1139516199E-02   0.0000000000E+00   0.0000000000E+00   0.2481983216E-03  -0.9674680317E-04   0.1481371059E-04   0.0000000000E+00   0.0000000000E+00   0.0000000000E+00   0.2382419738E-01
   0.2572891060E+00   0.9227097485E-01   0.8362000731E-04  -0.3296152572E-05   0.0000000000E+00   0.0000000000E+00   0.2050399916E-01   0.1927704314E-02   0.6729511042E-02  -0.2796415435E-02   0.0000000000E+00   0.0000000000E+00   0.1790683455E-03  -0.6242348745E-04  -0.3635340066E-04   0.0000000000E+00   0.0000000000E+00   0.0000000000E+00   0.1738494380E-01
   0.2586836440E+00   0.1102814175E+00   0.8236604865E-04  -0.4512505276E-05   0.0000000000E+00   0.0000000000E+00   0.2239157804E-01   0.1427717337E-02   0.7145788612E-02  -0.2688596103E-02   0.0000000000E+00   0.0000000000E+00   0.1981952625E-03  -0.7433492657E-04  -0.3495174934E-04   0.0000000000E+00   0.0000000000E+00   0.0000000000E+00   0.1933413954E-01
   0.2419345072E+00   0.1106718200E+00   0.7897520231E-04  -0.4849041415E-05   0.0000000000E+00   0.0000000000E+00   0.2261089477E-01   0.7734549803E-03   0.7015304925E-02  -0.3164560964E-02   0.0000000000E+00   0.0000000000E+00   0.2027426680E-03  -0.8114404928E-04  -0.4113929253E-04   0.0000000000E+00   0.0000000000E+00   0.0000000000E+00   0.2023374538E-01
   0.2394604991E+00   0.9267777873E-01   0.8036313396E-04  -0.3539770277E-05   0.0000000000E+00   0.0000000000E+00   0.2056450557E-01   0.1240725828E-02   0.6541569420E-02  -0.3402809431E-02   0.0000000000E+00   0.0000000000E+00   0.1822981700E-03  -0.6891096669E-04  -0.4423652261E-04   0.0000000000E+00   0.0000000000E+00   0.0000000000E+00   0.1826476151E-01
   0.9245906452E-01   0.3825766033E-01   0.7111261511E-04  -0.1068227345E-04   0.0000000000E+00   0.0000000000E+00  -0.3506517428E-02  -0.1800357351E-01  -0.6453027282E-02   0.2508106289E-02   0.0000000000E+00   0.0000000000E+00   0.3830462810E-04  -0.1501571010E-03   0.3260538176E-04   0.0000000000E+00   0.0000000000E+00   0.0000000000E+00   0.1287841055E-01
   0.1081165025E+00   0.4609179754E-01   0.6964251905E-04  -0.6743959537E-05   0.0000000000E+00   0.0000000000E+00   0.6206220236E-02  -0.7367165167E-02  -0.3482834790E-03  -0.3739121266E-02   0.0000000000E+00   0.0000000000E+00   0.8520854830E-04  -0.9124546194E-04  -0.4860857646E-04   0.0000000000E+00   0.0000000000E+00   0.0000000000E+00   0.1281564466E-01
   0.9617262483E-01   0.6353054221E-01   0.6152843021E-04  -0.1165248961E-04   0.0000000000E+00   0.0000000000E+00   0.1169168252E-01  -0.4500694926E-02   0.2157296279E-02  -0.5566538690E-02   0.0000000000E+00   0.0000000000E+00   0.1239470212E-03  -0.8655388568E-04  -0.7236500297E-04   0.0000000000E+00   0.0000000000E+00   0.0000000000E+00   0.1715092214E-01
   0.8321127223E-01   0.5554086829E-01   0.6431273462E-04  -0.1615541316E-04   0.0000000000E+00   0.0000000000E+00   0.3143763486E-02  -0.4021642662E-02  -0.2633637527E-03  -0.1797823273E-02   0.0000000000E+00   0.0000000000E+00   0.4429265410E-04  -0.4885762582E-04  -0.2337170255E-04   0.0000000000E+00   0.0000000000E+00   0.0000000000E+00   0.6985309917E-02
   0.9815353670E-01   0.1950376784E-01   0.7501009803E-04  -0.5264561245E-05   0.0000000000E+00   0.0000000000E+00  -0.3689828248E-02  -0.2809418065E-01  -0.9535202668E-02   0.3505620055E-02   0.0000000000E+00   0.0000000000E+00   0.7598986746E-04  -0.2412667137E-03   0.4557306071E-04   0.0000000000E+00   0.0000000000E+00   0.0000000000E+00   0.2174239984E-01
   0.1000766917E+00   0.0000000000E+00   0.7669068531E-04   0.0000000000E+00   0.0000000000E+00   0.0000000000E+00  -0.5025768372E-02  -0.3042949425E-01  -0.1063657879E-01  -0.1914000083E-02   0.0000000000E+00   0.0000000000E+00   0.7294053540E-04  -0.2573079011E-03  -0.2488200108E-04   0.0000000000E+00   0.0000000000E+00   0.0000000000E+00   0.2322703549E-01
   0.1209114818E+00   0.0000000000E+00   0.7815183898E-04   0.0000000000E+00   0.0000000000E+00   0.0000000000E+00   0.7526406297E-03  -0.9627846555E-02  -0.2662561777E-02  -0.2054102975E-02   0.0000000000E+00   0.0000000000E+00   0.4439763129E-04  -0.9054870210E-04  -0.2670333867E-04   0.0000000000E+00   0.0000000000E+00   0.0000000000E+00   0.9687749993E-02
   0.1218066984E+00   0.2610987716E-01   0.7583442070E-04  -0.2431542051E-05   0.0000000000E+00   0.0000000000E+00   0.2948913224E-02  -0.9298568417E-02  -0.1904896558E-02  -0.2465278974E-02   0.0000000000E+00   0.0000000000E+00   0.6309952716E-04  -0.9611773417E-04  -0.3204862667E-04   0.0000000000E+00   0.0000000000E+00   0.0000000000E+00   0.1218024885E-01
   0.2106257089E+00   0.3763230615E-01   0.8156992776E-04  -0.9266450683E-06   0.0000000000E+00   0.0000000000E+00   0.1335568801E-01   0.2027425130E-02   0.4614933942E-02  -0.3104867084E-02   0.0000000000E+00   0.0000000000E+00   0.1136298029E-03  -0.3363761455E-04  -0.4036327210E-04   0.0000000000E+00   0.0000000000E+00   0.0000000000E+00   0.1156471244E-01
   0.1905372022E+00   0.3838146130E-01   0.7929222066E-04  -0.1039095662E-05   0.0000000000E+00   0.0000000000E+00   0.1206219581E-01   0.7633715393E-03   0.3847670204E-02  -0.3995987566E-02   0.0000000000E+00   0.0000000000E+00   0.1067888329E-03  -0.4009588265E-04  -0.5194783836E-04   0.0000000000E+00   0.0000000000E+00   0.0000000000E+00   0.1220213646E-01
   0.1867887457E+00   0.1901247842E-01   0.8059366394E-04  -0.4421810457E-06   0.0000000000E+00   0.0000000000E+00   0.9534949426E-02   0.1239711358E-02   0.3232398235E-02  -0.1972385312E-02   0.0000000000E+00   0.0000000000E+00   0.8193316548E-04  -0.2590492940E-04  -0.2564100906E-04   0.0000000000E+00   0.0000000000E+00   0.0000000000E+00   0.8325607377E-02
   0.2073147252E+00   0.1873762671E-01   0.8244318411E-04  -0.3971898792E-06   0.0000000000E+00   0.0000000000E+00   0.1160302363E-01   0.2358061849E-02   0.4188325645E-02  -0.1555464212E-02   0.0000000000E+00   0.0000000000E+00   0.9639107385E-04  -0.2379342935E-04  -0.2022103475E-04   0.0000000000E+00   0.0000000000E+00   0.0000000000E+00   0.8939683210E-02
   0.1574670624E+00   0.2159329825E+00   0.4371544168E-04  -0.2446553376E-04   0.0000000000E+00   0.0000000000E+00   0.3323227765E-01  -0.7256868409E-03   0.9751977243E-02   0.8774400581E-03   0.0000000000E+00   0.0000000000E+00   0.3052439053E-03  -0.1362096331E-03   0.1140672076E-04   0.0000000000E+00   0.0000000000E+00   0.0000000000E+00   0.3015466944E-01
   0.1564939653E+00   0.2325786375E+00   0.4129432021E-04  -0.2686449964E-04   0.0000000000E+00   0.0000000000E+00   0.3402364911E-01  -0.3483982248E-03   0.1010257527E-01   0.5539408906E-03   0.0000000000E+00   0.0000000000E+00   0.3109739600E-03  -0.1358626554E-03   0.7201231578E-05   0.0000000000E+00   0.0000000000E+00   0.0000000000E+00   0.3053753396E-01
   0.1370146625E+00   0.2326001935E+00   0.3529146640E-04  -0.2994046399E-04   0.0000000000E+00   0.0000000000E+00   0.3332265415E-01  -0.3493485817E-03   0.9891991672E-02   0.9889186526E-03   0.0000000000E+00   0.0000000000E+00   0.3045986123E-03  -0.1331374233E-03   0.1285594248E-04   0.0000000000E+00   0.0000000000E+00   0.0000000000E+00   0.2995022067E-01
   0.1382529951E+00   0.2157852951E+00   0.3788511910E-04  -0.2747788619E-04   0.0000000000E+00   0.0000000000E+00   0.3298363198E-01  -0.8092577724E-03   0.9652312262E-02   0.1623581670E-02   0.0000000000E+00   0.0000000000E+00   0.3033071563E-03  -0.1360004104E-03   0.2110656171E-04   0.0000000000E+00   0.0000000000E+00   0.0000000000E+00   0.3008960714E-01
   0.0000000000E+00   0.9996680824E-01   0.0000000000E+00  -0.3319275520E-04   0.0000000000E+00   0.0000000000E+00   0.9200432960E-01   0.8461549888E-02   0.3013976385E-01   0.1088485625E-02   0.0000000000E+00   0.0000000000E+00   0.8042393548E-03  -0.2818167815E-03   0.1415031312E-04   0.0000000000E+00   0.0000000000E+00   0.0000000000E+00   0.7429724795E-01
   0.1952447977E-01   0.9804632748E-01   0.1544737453E-04  -0.3219911729E-04   0.0000000000E+00   0.0000000000E+00   0.8451357005E-01   0.8003100406E-02   0.2775500114E-01  -0.1268772386E-01   0.0000000000E+00   0.0000000000E+00   0.7378613958E-03  -0.2567747095E-03  -0.1649404102E-03   0.0000000000E+00   0.0000000000E+00   0.0000000000E+00   0.7154776247E-01
   0.1680476534E-01   0.1512960884E+00   0.5706535176E-05  -0.4062660207E-04   0.0000000000E+00   0.0000000000E+00   0.4032295246E-01   0.6756942385E-02   0.1412396845E-01   0.1240848575E-02   0.0000000000E+00   0.0000000000E+00   0.3405867920E-03  -0.9577133887E-04   0.1613103147E-04   0.0000000000E+00   0.0000000000E+00   0.0000000000E+00   0.3075712415E-01
   0.0000000000E+00   0.1499588085E+00   0.0000000000E+00  -0.4119750748E-04   0.0000000000E+00   0.0000000000E+00   0.4075458835E-01   0.7684847486E-02   0.1453183075E-01   0.9492476109E-03   0.0000000000E+00   0.0000000000E+00   0.3408958488E-03  -0.8901078245E-04   0.1234021894E-04   0.0000000000E+00   0.0000000000E+00   0.0000000000E+00   0.3025577239E-01
   0.5107345057E-01   0.1386356921E+00   0.1914046851E-04  -0.3394788473E-04   0.0000000000E+00   0.0000000000E+00   0.4157646160E-01   0.2551022258E-02   0.1323824516E-01   0.2166110657E-02   0.0000000000E+00   0.0000000000E+00   0.3683968137E-03  -0.1389338977E-03   0.2815943854E-04   0.0000000000E+00   0.0000000000E+00   0.0000000000E+00   0.3510022892E-01
   0.4906340865E-01   0.1540236299E+00   0.1650485225E-04  -0.3634614103E-04   0.0000000000E+00   0.0000000000E+00   0.3868164789E-01   0.2941385415E-02   0.1248690999E-01   0.3373937192E-02   0.0000000000E+00   0.0000000000E+00   0.3405315927E-03  -0.1240918195E-03   0.4386118349E-04   0.0000000000E+00   0.0000000000E+00   0.0000000000E+00   0.3259753629E-01
   0.3318666741E-01   0.1526975751E+00   0.1120270566E-04  -0.3887989452E-04   0.0000000000E+00   0.0000000000E+00   0.3971981640E-01   0.5134964794E-02   0.1345643436E-01   0.2584885898E-02   0.0000000000E+00   0.0000000000E+00   0.3414239666E-03  -0.1081791043E-03   0.3360351667E-04   0.0000000000E+00   0.0000000000E+00   0.0000000000E+00   0.3176220273E-01
   0.3438476388E-01   0.1357030297E+00   0.1328728485E-04  -0.3675829144E-04   0.0000000000E+00   0.0000000000E+00   0.4386549554E-01   0.5409347841E-02   0.1478245302E-01   0.2558034874E-02   0.0000000000E+00   0.0000000000E+00   0.3780795529E-03  -0.1218503673E-03   0.3325445336E-04   0.0000000000E+00   0.0000000000E+00   0.0000000000E+00   0.3438667240E-01
   0.1668981246E-01   0.1677609893E+00   0.5146158594E-05  -0.4214870292E-04   0.0000000000E+00   0.0000000000E+00   0.3651035012E-01   0.5682363447E-02   0.1265781407E-01   0.1512852879E-02   0.0000000000E+00   0.0000000000E+00   0.3100829687E-03  -0.9068085812E-04   0.1966708743E-04   0.0000000000E+00   0.0000000000E+00   0.0000000000E+00   0.2814914288E-01
   0.0000000000E+00   0.1666240321E+00   0.0000000000E+00  -0.4263990217E-04   0.0000000000E+00   0.0000000000E+00   0.3653552416E-01   0.6162661022E-02   0.1280945555E-01   0.8092439676E-03   0.0000000000E+00   0.0000000000E+00   0.3084388918E-03  -0.8640832891E-04   0.1052017158E-04   0.0000000000E+00   0.0000000000E+00   0.0000000000E+00   0.2766338727E-01
   0.1709635776E-01   0.1840818939E+00   0.4895355700E-05  -0.4363409146E-04   0.0000000000E+00   0.0000000000E+00   0.3335385101E-01   0.3992864780E-02   0.1120401474E-01   0.1483141680E-02   0.0000000000E+00   0.0000000000E+00   0.2879478715E-03  -0.9374494942E-04   0.1928084184E-04   0.0000000000E+00   0.0000000000E+00   0.0000000000E+00   0.2667093198E-01
   0.3340083158E-01   0.1685663661E+00   0.1032078073E-04  -0.4052590440E-04   0.0000000000E+00   0.0000000000E+00   0.3622888404E-01   0.4137693232E-02   0.1210997318E-01   0.3220728196E-02   0.0000000000E+00   0.0000000000E+00   0.3135458411E-03  -0.1036396393E-03   0.4186946655E-04   0.0000000000E+00   0.0000000000E+00   0.0000000000E+00   0.2940202058E-01
   0.3452324641E-01   0.1842372246E+00   0.9944307253E-05  -0.4200844510E-04   0.0000000000E+00   0.0000000000E+00   0.3345797518E-01   0.3026236383E-02   0.1094526347E-01   0.3110386639E-02   0.0000000000E+00   0.0000000000E+00   0.2926652522E-03  -0.1029473521E-03   0.4043502630E-04   0.0000000000E+00   0.0000000000E+00   0.0000000000E+00   0.2787217280E-01
   0.1944794746E-01   0.2499503758E+00   0.3502358286E-05  -0.4962417774E-04   0.0000000000E+00   0.0000000000E+00   0.1993377901E-01  -0.6024246596E-03   0.5799406304E-02   0.1103245963E-03   0.0000000000E+00   0.0000000000E+00   0.1837468451E-03  -0.8322380253E-04   0.1434219752E-05   0.0000000000E+00   0.0000000000E+00   0.0000000000E+00   0.1822976667E-01
   0.3848641081E-01   0.2328977512E+00   0.8595105215E-05  -0.4652877048E-04   0.0000000000E+00   0.0000000000E+00   0.2575189938E-01   0.5340369266E-03   0.7885780891E-02   0.1462323617E-02   0.0000000000E+00   0.0000000000E+00   0.2322595403E-03  -0.9557267153E-04   0.1901020703E-04   0.0000000000E+00   0.0000000000E+00   0.0000000000E+00   0.2261999558E-01
   0.3889610541E-01   0.2499519578E+00   0.7215112174E-05  -0.4804222306E-04   0.0000000000E+00   0.0000000000E+00   0.2169529577E-01  -0.5189290087E-03   0.6352910028E-02   0.5558372378E-03   0.0000000000E+00   0.0000000000E+00   0.1994510146E-03  -0.8933390748E-04   0.7225884092E-05   0.0000000000E+00   0.0000000000E+00   0.0000000000E+00   0.1971649547E-01
   0.3292639108E+00   0.0000000000E+00   0.9722979590E-04   0.0000000000E+00   0.0000000000E+00   0.0000000000E+00   0.1660561644E-01   0.4787377866E-02   0.6417898293E-02  -0.4817115264E-04   0.0000000000E+00   0.0000000000E+00   0.1324403360E-03  -0.2119676555E-04  -0.6262249844E-06   0.0000000000E+00   0.0000000000E+00   0.0000000000E+00   0.1109291090E-01
   0.3500999940E+00   0.0000000000E+00   0.1000000000E-03   0.0000000000E+00   0.0000000000E+00   0.0000000000E+00   0.1670275950E-01   0.4815940786E-02   0.6455610087E-02  -0.2967580405E-06   0.0000000000E+00   0.0000000000E+00   0.1332129424E-03  -0.2131570091E-04  -0.3857854527E-08   0.0000000000E+00   0.0000000000E+00   0.0000000000E+00   0.1115772092E-01
   0.3500999940E+00   0.1923035071E-01   0.1000000000E-03  -0.4191893133E-06   0.0000000000E+00   0.0000000000E+00   0.1688414150E-01   0.4733701577E-02   0.6485352923E-02  -0.2787923802E-05   0.0000000000E+00   0.0000000000E+00   0.1351842515E-03  -0.2277146751E-04  -0.3624300943E-07   0.0000000000E+00   0.0000000000E+00   0.0000000000E+00   0.1137560012E-01
   0.3298600562E+00   0.1871413963E-01   0.9726922721E-04  -0.4056707959E-06   0.0000000000E+00   0.0000000000E+00   0.1679840357E-01   0.4711331213E-02   0.6452920436E-02  -0.1548514812E-03   0.0000000000E+00   0.0000000000E+00   0.1344912808E-03  -0.2264065989E-04  -0.2013069256E-05   0.0000000000E+00   0.0000000000E+00   0.0000000000E+00   0.1132007077E-01
   0.3500999940E+00   0.3846064573E-01   0.1000000000E-03  -0.8941745386E-06   0.0000000000E+00   0.0000000000E+00   0.1743577934E-01   0.4495487611E-02   0.6579380086E-02  -0.3317178457E-05   0.0000000000E+00   0.0000000000E+00   0.1411331903E-03  -0.2709060217E-04  -0.4312331994E-07   0.0000000000E+00   0.0000000000E+00   0.0000000000E+00   0.1203238207E-01
   0.3303030397E+00   0.3768216121E-01   0.9721169021E-04  -0.8712883692E-06   0.0000000000E+00   0.0000000000E+00   0.1736874746E-01   0.4485747633E-02   0.6556348527E-02  -0.3205132933E-03   0.0000000000E+00   0.0000000000E+00   0.1405611861E-03  -0.2691781163E-04  -0.4166672813E-05   0.0000000000E+00   0.0000000000E+00   0.0000000000E+00   0.1199298797E-01
   0.3306555845E+00   0.5676127858E-01   0.9707545881E-04  -0.1446518214E-05   0.0000000000E+00   0.0000000000E+00   0.1828437306E-01   0.4123971231E-02   0.6722503287E-02  -0.4332734285E-03   0.0000000000E+00   0.0000000000E+00   0.1503043070E-03  -0.3378091672E-04  -0.5632554571E-05   0.0000000000E+00   0.0000000000E+00   0.0000000000E+00   0.1307458687E-01
   0.3309345421E+00   0.7595447225E-01   0.9687509014E-04  -0.2177845691E-05   0.0000000000E+00   0.0000000000E+00   0.1949316733E-01   0.3657102076E-02   0.6945080822E-02  -0.5146240001E-03   0.0000000000E+00   0.0000000000E+00   0.1631251246E-03  -0.4274372369E-04  -0.6690112002E-05   0.0000000000E+00   0.0000000000E+00   0.0000000000E+00   0.1449785166E-01
   0.3119053356E+00   0.7514335178E-01   0.9379855219E-04  -0.2161022229E-05   0.0000000000E+00   0.0000000000E+00   0.1931876127E-01   0.3526370756E-02   0.6853539608E-02  -0.1024671442E-02   0.0000000000E+00   0.0000000000E+00   0.1620478816E-03  -0.4325319507E-04  -0.1332072874E-04   0.0000000000E+00   0.0000000000E+00   0.0000000000E+00   0.1452413181E-01
   0.3112391014E+00   0.5605177196E-01   0.9418344150E-04  -0.1426937509E-05   0.0000000000E+00   0.0000000000E+00   0.1806565103E-01   0.4004045767E-02   0.6620909040E-02  -0.8680340490E-03   0.0000000000E+00   0.0000000000E+00   0.1487816459E-03  -0.3401922256E-04  -0.1128444264E-04   0.0000000000E+00   0.0000000000E+00   0.0000000000E+00   0.1303657865E-01
   0.3310789699E+00   0.9525289878E-01   0.9661286549E-04  -0.3102015565E-05   0.0000000000E+00   0.0000000000E+00   0.2092763553E-01   0.3115896216E-02   0.7213059524E-02  -0.5572454889E-03   0.0000000000E+00   0.0000000000E+00   0.1782894881E-03  -0.5326312300E-04  -0.7244191356E-05   0.0000000000E+00   0.0000000000E+00   0.0000000000E+00   0.1618168001E-01
   0.3122819439E+00   0.9439752749E-01   0.9328885909E-04  -0.3094511305E-05   0.0000000000E+00   0.0000000000E+00   0.2080144648E-01   0.2982520350E-02   0.7135190049E-02  -0.1102136604E-02   0.0000000000E+00   0.0000000000E+00   0.1776613336E-03  -0.5398470609E-04  -0.1432777585E-04   0.0000000000E+00   0.0000000000E+00   0.0000000000E+00   0.1625658279E-01
   0.3310650899E+00   0.1147053157E+00   0.9629288459E-04  -0.4248333869E-05   0.0000000000E+00   0.0000000000E+00   0.2252719346E-01   0.2544527517E-02   0.7521516294E-02  -0.5688347500E-03   0.0000000000E+00   0.0000000000E+00   0.1950738032E-03  -0.6470085410E-04  -0.7394851750E-05   0.0000000000E+00   0.0000000000E+00   0.0000000000E+00   0.1803980633E-01
   0.3309236116E+00   0.1342694048E+00   0.9592859401E-04  -0.5629205086E-05   0.0000000000E+00   0.0000000000E+00   0.2421708714E-01   0.1979463544E-02   0.7858965206E-02  -0.5467339629E-03   0.0000000000E+00   0.0000000000E+00   0.2126555852E-03  -0.7643352161E-04  -0.7107541518E-05   0.0000000000E+00   0.0000000000E+00   0.0000000000E+00   0.1997679173E-01
   0.3118897477E+00   0.1337879929E+00   0.9189067596E-04  -0.5689135348E-05   0.0000000000E+00   0.0000000000E+00   0.2421595597E-01   0.1837910101E-02   0.7816159821E-02  -0.1072105023E-02   0.0000000000E+00   0.0000000000E+00   0.2131973499E-03  -0.7771724636E-04  -0.1393736530E-04   0.0000000000E+00   0.0000000000E+00   0.0000000000E+00   0.2015148712E-01
   0.3122786535E+00   0.1139312609E+00   0.9265045444E-04  -0.4262086569E-05   0.0000000000E+00   0.0000000000E+00   0.2245418785E-01   0.2397852523E-02   0.7455612113E-02  -0.1114686233E-02   0.0000000000E+00   0.0000000000E+00   0.1949814846E-03  -0.6575087467E-04  -0.1449092103E-04   0.0000000000E+00   0.0000000000E+00   0.0000000000E+00   0.1816600029E-01
   0.2890874501E+00   0.1826378414E-01   0.9188609178E-04  -0.3884599257E-06   0.0000000000E+00   0.0000000000E+00   0.1604676218E-01   0.4421077418E-02   0.6140351878E-02  -0.4813613510E-03   0.0000000000E+00   0.0000000000E+00   0.1287833339E-03  -0.2235056799E-04  -0.6257697563E-05   0.0000000000E+00   0.0000000000E+00   0.0000000000E+00   0.1090257609E-01
   0.2875918124E+00   0.0000000000E+00   0.9181836775E-04   0.0000000000E+00   0.0000000000E+00   0.0000000000E+00   0.1578914507E-01   0.4489670468E-02   0.6083644661E-02  -0.1515709331E-03   0.0000000000E+00   0.0000000000E+00   0.1261715053E-03  -0.2072166450E-04  -0.1970422130E-05   0.0000000000E+00   0.0000000000E+00   0.0000000000E+00   0.1058971165E-01
   0.3084278285E+00   0.0000000000E+00   0.9449153983E-04   0.0000000000E+00   0.0000000000E+00   0.0000000000E+00   0.1630577085E-01   0.4679875053E-02   0.6295693770E-02  -0.9745239983E-04   0.0000000000E+00   0.0000000000E+00   0.1301310020E-03  -0.2100564332E-04  -0.1266881198E-05   0.0000000000E+00   0.0000000000E+00   0.0000000000E+00   0.1090683933E-01
   0.3094821741E+00   0.1840585748E-01   0.9455008192E-04  -0.3958208889E-06   0.0000000000E+00   0.0000000000E+00   0.1651666268E-01   0.4606115108E-02   0.6336833335E-02  -0.3117607007E-03   0.0000000000E+00   0.0000000000E+00   0.1323377814E-03  -0.2249933695E-04  -0.4052889110E-05   0.0000000000E+00   0.0000000000E+00   0.0000000000E+00   0.1115998378E-01
   0.2122731628E+00   0.1636790293E+00   0.6594978410E-04  -0.1158267187E-04   0.0000000000E+00   0.0000000000E+00   0.2880850825E-01  -0.1001295250E-02   0.8342163899E-02  -0.1943821565E-02   0.0000000000E+00   0.0000000000E+00   0.2660624765E-03  -0.1214649689E-03  -0.2526968034E-04   0.0000000000E+00   0.0000000000E+00   0.0000000000E+00   0.2661972619E-01
   0.2163775255E+00   0.1467599025E+00   0.6903645009E-04  -0.9352462573E-05   0.0000000000E+00   0.0000000000E+00   0.2692316428E-01  -0.1047483728E-02   0.7762704167E-02  -0.2639159159E-02   0.0000000000E+00   0.0000000000E+00   0.2490859815E-03  -0.1145324426E-03  -0.3430906907E-04   0.0000000000E+00   0.0000000000E+00   0.0000000000E+00   0.2518061040E-01
   0.2310276311E+00   0.1467270844E+00   0.7265606977E-04  -0.8613612827E-05   0.0000000000E+00   0.0000000000E+00   0.2667426205E-01  -0.3606759799E-03   0.7894075821E-02  -0.2487323553E-02   0.0000000000E+00   0.0000000000E+00   0.2441424210E-03  -0.1073117734E-03  -0.3233520620E-04   0.0000000000E+00   0.0000000000E+00   0.0000000000E+00   0.2437889055E-01
   0.2322203398E+00   0.1630948174E+00   0.7123079675E-04  -0.1035760553E-04   0.0000000000E+00   0.0000000000E+00   0.2818882497E-01  -0.3234666830E-03   0.8359607485E-02  -0.1983592731E-02   0.0000000000E+00   0.0000000000E+00   0.2577798273E-03  -0.1128799642E-03  -0.2578670551E-04   0.0000000000E+00   0.0000000000E+00   0.0000000000E+00   0.2554456435E-01
   0.2278500083E+00   0.1845671002E-01   0.8455232205E-04  -0.3822755862E-06   0.0000000000E+00   0.0000000000E+00   0.1319535678E-01   0.3173527976E-02   0.4910665427E-02  -0.1193001006E-02   0.0000000000E+00   0.0000000000E+00   0.1077009876E-03  -0.2258278687E-04  -0.1550901307E-04   0.0000000000E+00   0.0000000000E+00   0.0000000000E+00   0.9525708017E-02
   0.2307022522E+00   0.3704729682E-01   0.8396922866E-04  -0.8679830320E-06   0.0000000000E+00   0.0000000000E+00   0.1451581165E-01   0.2851278593E-02   0.5210127074E-02  -0.2393065801E-02   0.0000000000E+00   0.0000000000E+00   0.1209738995E-03  -0.3066503025E-04  -0.3110985541E-04   0.0000000000E+00   0.0000000000E+00   0.0000000000E+00   0.1143000013E-01
   0.1834142413E+00   0.0000000000E+00   0.8090429524E-04   0.0000000000E+00   0.0000000000E+00   0.0000000000E+00   0.8483440606E-02   0.1165147727E-02   0.2894576500E-02  -0.6875746756E-03   0.0000000000E+00   0.0000000000E+00   0.7265523338E-04  -0.2248257405E-04  -0.8938470782E-05   0.0000000000E+00   0.0000000000E+00   0.0000000000E+00   0.6603713912E-02
   0.2042492547E+00   0.0000000000E+00   0.8258871421E-04   0.0000000000E+00   0.0000000000E+00   0.0000000000E+00   0.1080059069E-01   0.2440842576E-02   0.3972429980E-02  -0.5156273526E-03   0.0000000000E+00   0.0000000000E+00   0.8876608923E-04  -0.1991063625E-04  -0.6703155583E-05   0.0000000000E+00   0.0000000000E+00   0.0000000000E+00   0.7678979459E-02
   0.1417453985E+00   0.0000000000E+00   0.7873252785E-04   0.0000000000E+00   0.0000000000E+00   0.0000000000E+00   0.1680302856E-02  -0.4632442289E-02  -0.8856418300E-03  -0.1620278251E-02   0.0000000000E+00   0.0000000000E+00   0.3335728091E-04  -0.4870840597E-04  -0.2106361726E-04   0.0000000000E+00   0.0000000000E+00   0.0000000000E+00   0.6008675138E-02
   0.1457473364E+00   0.2098063353E-01   0.7765236580E-04  -0.9278672853E-06   0.0000000000E+00   0.0000000000E+00   0.3803981110E-02  -0.3699489018E-02   0.3134762763E-04  -0.2814273473E-02   0.0000000000E+00   0.0000000000E+00   0.4904423527E-04  -0.4850087639E-04  -0.3658555514E-04   0.0000000000E+00   0.0000000000E+00   0.0000000000E+00   0.8300841732E-02
   0.3500999940E+00   0.2499821448E+00   0.1000000000E-03  -0.1785524699E-04   0.0000000000E+00   0.0000000000E+00   0.3296593746E-01   0.1600560243E-03   0.9937798046E-02   0.8548511598E-04   0.0000000000E+00   0.0000000000E+00   0.2993658124E-03  -0.1271106463E-03   0.1111306508E-05   0.0000000000E+00   0.0000000000E+00   0.0000000000E+00   0.2917335795E-01
   0.3306497320E+00   0.2499820686E+00   0.9417396747E-04  -0.1793140322E-04   0.0000000000E+00   0.0000000000E+00   0.3305959018E-01   0.1620768615E-03   0.9966500114E-02  -0.6571546049E-04   0.0000000000E+00   0.0000000000E+00   0.3002101709E-03  -0.1274575023E-03  -0.8543009864E-06   0.0000000000E+00   0.0000000000E+00   0.0000000000E+00   0.2925495148E-01
   0.3308829796E+00   0.2310312304E+00   0.9442660748E-04  -0.1553558417E-04   0.0000000000E+00   0.0000000000E+00   0.3194751900E-01   0.5980911206E-04   0.9602198432E-02  -0.1629457208E-03   0.0000000000E+00   0.0000000000E+00   0.2904891673E-03  -0.1240510612E-03  -0.2118294371E-05   0.0000000000E+00   0.0000000000E+00   0.0000000000E+00   0.2834923770E-01
   0.3500999940E+00   0.2307537990E+00   0.1000000000E-03  -0.1543299741E-04   0.0000000000E+00   0.0000000000E+00   0.3188476538E-01   0.7234351931E-04   0.9587132668E-02   0.7716797897E-04   0.0000000000E+00   0.0000000000E+00   0.2898692252E-03  -0.1236922589E-03   0.1003183727E-05   0.0000000000E+00   0.0000000000E+00   0.0000000000E+00   0.2828230188E-01
   0.2730970028E+00   0.2316487497E+00   0.7742075583E-04  -0.1677229499E-04   0.0000000000E+00   0.0000000000E+00   0.3285697042E-01  -0.1776466977E-04   0.9851761726E-02  -0.4462593522E-03   0.0000000000E+00   0.0000000000E+00   0.2990677131E-03  -0.1283038431E-03  -0.5801371578E-05   0.0000000000E+00   0.0000000000E+00   0.0000000000E+00   0.2922941154E-01
   0.2923456993E+00   0.2314735055E+00   0.8314533876E-04  -0.1618249943E-04   0.0000000000E+00   0.0000000000E+00   0.3246319940E-01   0.1792782098E-04   0.9744338168E-02  -0.3776791174E-03   0.0000000000E+00   0.0000000000E+00   0.2953451961E-03  -0.1264433345E-03  -0.4909828527E-05   0.0000000000E+00   0.0000000000E+00   0.0000000000E+00   0.2884778342E-01
   0.2917490533E+00   0.2499814186E+00   0.8239634191E-04  -0.1858138456E-04   0.0000000000E+00   0.0000000000E+00   0.3375945847E-01   0.1867248264E-03   0.1018385499E-01  -0.1107512890E-03   0.0000000000E+00   0.0000000000E+00   0.3064828453E-03  -0.1299626921E-03  -0.1439766757E-05   0.0000000000E+00   0.0000000000E+00   0.0000000000E+00   0.2985700872E-01
   0.2722986120E+00   0.2499808021E+00   0.7639098608E-04  -0.1919788099E-04   0.0000000000E+00   0.0000000000E+00   0.3431187444E-01   0.2084823824E-03   0.1035610705E-01  -0.1289409505E-03   0.0000000000E+00   0.0000000000E+00   0.3114249761E-03  -0.1319191206E-03  -0.1676232356E-05   0.0000000000E+00   0.0000000000E+00   0.0000000000E+00   0.3033069947E-01
   0.3500999940E+00   0.1730679476E+00   0.1000000000E-03  -0.8980370861E-05   0.0000000000E+00   0.0000000000E+00   0.2757579289E-01   0.1037872451E-02   0.8584099602E-02   0.5718879545E-04   0.0000000000E+00   0.0000000000E+00   0.2468920127E-03  -0.9810095296E-04   0.7434543409E-06   0.0000000000E+00   0.0000000000E+00   0.0000000000E+00   0.2368294545E-01
   0.3308733719E+00   0.1733052635E+00   0.9524993189E-04  -0.9054530451E-05   0.0000000000E+00   0.0000000000E+00   0.2760681583E-01   0.9937692141E-03   0.8580175513E-02  -0.4444473105E-03   0.0000000000E+00   0.0000000000E+00   0.2473463241E-03  -0.9862328188E-04  -0.5777815036E-05   0.0000000000E+00   0.0000000000E+00   0.0000000000E+00   0.2375713478E-01
   0.3308652645E+00   0.1538401139E+00   0.9557648399E-04  -0.7238081602E-05   0.0000000000E+00   0.0000000000E+00   0.2593034719E-01   0.1459546243E-02   0.8216968029E-02  -0.5084270832E-03   0.0000000000E+00   0.0000000000E+00   0.2302739290E-03  -0.8784648321E-04  -0.6609552082E-05   0.0000000000E+00   0.0000000000E+00   0.0000000000E+00   0.2190365849E-01
   0.3500999940E+00   0.1538389646E+00   0.1000000000E-03  -0.7195357515E-05   0.0000000000E+00   0.0000000000E+00   0.2590627853E-01   0.1497275663E-02   0.8221066258E-02   0.5033988593E-04   0.0000000000E+00   0.0000000000E+00   0.2299077595E-03  -0.8740927774E-04   0.6544185172E-06   0.0000000000E+00   0.0000000000E+00   0.0000000000E+00   0.2183544853E-01
   0.3500999940E+00   0.1346097684E+00   0.1000000000E-03  -0.5622636430E-05   0.0000000000E+00   0.0000000000E+00   0.2420096503E-01   0.2009140758E-02   0.7863031736E-02   0.3658365568E-04   0.0000000000E+00   0.0000000000E+00   0.2123931328E-03  -0.7610058272E-04   0.4755875238E-06   0.0000000000E+00   0.0000000000E+00   0.0000000000E+00   0.1991783442E-01
   0.3500999940E+00   0.1153803462E+00   0.1000000000E-03  -0.4269824529E-05   0.0000000000E+00   0.0000000000E+00   0.2252091718E-01   0.2554800329E-02   0.7522715254E-02   0.2664055326E-04   0.0000000000E+00   0.0000000000E+00   0.1949766251E-03  -0.6458289402E-04   0.3463271924E-06   0.0000000000E+00   0.0000000000E+00   0.0000000000E+00   0.1799983056E-01
   0.3500999940E+00   0.9615071075E-01   0.1000000000E-03  -0.3137145836E-05   0.0000000000E+00   0.0000000000E+00   0.2093581310E-01   0.3113961403E-02   0.7214932352E-02   0.1473848503E-04   0.0000000000E+00   0.0000000000E+00   0.1783714498E-03  -0.5331262233E-04   0.1916003053E-06   0.0000000000E+00   0.0000000000E+00   0.0000000000E+00   0.1616193495E-01
   0.3500999940E+00   0.7692086602E-01   0.1000000000E-03  -0.2213783975E-05   0.0000000000E+00   0.0000000000E+00   0.1951577946E-01   0.3649140440E-02   0.6949475970E-02   0.5818962355E-05   0.0000000000E+00   0.0000000000E+00   0.1633619454E-03  -0.4290436189E-04   0.7564651062E-07   0.0000000000E+00   0.0000000000E+00   0.0000000000E+00   0.1449663795E-01
   0.3500999940E+00   0.5769083048E-01   0.1000000000E-03  -0.1477515094E-05   0.0000000000E+00   0.0000000000E+00   0.1832875248E-01   0.4122742566E-02   0.6735448515E-02  -0.4365336815E-06   0.0000000000E+00   0.0000000000E+00   0.1507129516E-03  -0.3396517734E-04  -0.5674937860E-08   0.0000000000E+00   0.0000000000E+00   0.0000000000E+00   0.1309311847E-01
   0.0000000000E+00   0.2499498313E+00   0.0000000000E+00  -0.5016874555E-04   0.0000000000E+00   0.0000000000E+00   0.1930473464E-01  -0.6320069060E-03   0.5601818320E-02   0.6309913753E-03   0.0000000000E+00   0.0000000000E+00   0.1781379121E-03  -0.8103972793E-04   0.8202887879E-05   0.0000000000E+00   0.0000000000E+00   0.0000000000E+00   0.1769851222E-01
   0.3759642010E-01   0.2161737228E+00   0.9380895507E-05  -0.4495721023E-04   0.0000000000E+00   0.0000000000E+00   0.2852787067E-01   0.9759973210E-03   0.8851160399E-02   0.2510251108E-02   0.0000000000E+00   0.0000000000E+00   0.2557972336E-03  -0.1023771200E-03   0.3263326441E-04   0.0000000000E+00   0.0000000000E+00   0.0000000000E+00   0.2494757564E-01
   0.3620306611E-01   0.2000612461E+00   0.9758608009E-05  -0.4345291551E-04   0.0000000000E+00   0.0000000000E+00   0.3101329990E-01   0.1930564429E-02   0.9883159300E-02   0.2926906927E-02   0.0000000000E+00   0.0000000000E+00   0.2746918278E-03  -0.1033837333E-03   0.3804979006E-04   0.0000000000E+00   0.0000000000E+00   0.0000000000E+00   0.2650924202E-01
   0.5559818701E-01   0.1985684790E+00   0.1526500664E-04  -0.4054498539E-04   0.0000000000E+00   0.0000000000E+00   0.3191382620E-01   0.1120433534E-02   0.9910277921E-02   0.3871372645E-02   0.0000000000E+00   0.0000000000E+00   0.2860461277E-03  -0.1142679770E-03   0.5032784438E-04   0.0000000000E+00   0.0000000000E+00   0.0000000000E+00   0.2829291990E-01
   0.5752141963E-01   0.2148832675E+00   0.1467952611E-04  -0.4208152110E-04   0.0000000000E+00   0.0000000000E+00   0.2979481350E-01   0.4743562590E-03   0.9080750929E-02   0.3244309284E-02   0.0000000000E+00   0.0000000000E+00   0.2692828135E-03  -0.1118831307E-03   0.4217602070E-04   0.0000000000E+00   0.0000000000E+00   0.0000000000E+00   0.2669495651E-01
   0.1781242643E-01   0.2003702304E+00   0.4758325043E-05  -0.4514255757E-04   0.0000000000E+00   0.0000000000E+00   0.3065346558E-01   0.2602109923E-02   0.9976672649E-02   0.1373052065E-02   0.0000000000E+00   0.0000000000E+00   0.2687983080E-03  -0.9586931545E-04   0.1784967685E-04   0.0000000000E+00   0.0000000000E+00   0.0000000000E+00   0.2533673496E-01
   0.5821150499E-01   0.2322742368E+00   0.1337708885E-04  -0.4385115247E-04   0.0000000000E+00   0.0000000000E+00   0.2734316491E-01   0.3326441128E-03   0.8302742707E-02   0.1875716024E-02   0.0000000000E+00   0.0000000000E+00   0.2475254887E-03  -0.1036112817E-03   0.2438430832E-04   0.0000000000E+00   0.0000000000E+00   0.0000000000E+00   0.2428115390E-01
   0.1555941678E+00   0.2499706257E+00   0.3860682891E-04  -0.2937427694E-04   0.0000000000E+00   0.0000000000E+00   0.3562089802E-01   0.1948985618E-03   0.1074473898E-01   0.2212058351E-03   0.0000000000E+00   0.0000000000E+00   0.3233900676E-03  -0.1371479254E-03   0.2875675856E-05   0.0000000000E+00   0.0000000000E+00   0.0000000000E+00   0.3150678817E-01
   0.1361435245E+00   0.2499676036E+00   0.3241450046E-04  -0.3239640165E-04   0.0000000000E+00   0.0000000000E+00   0.3438640255E-01   0.1071705721E-03   0.1034807194E-01   0.3666376787E-03   0.0000000000E+00   0.0000000000E+00   0.3124982980E-03  -0.1331317178E-03   0.4766289824E-05   0.0000000000E+00   0.0000000000E+00   0.0000000000E+00   0.3047721406E-01
   0.1750449522E+00   0.2499732713E+00   0.4495523747E-04  -0.2672871854E-04   0.0000000000E+00   0.0000000000E+00   0.3622627270E-01   0.2431645771E-03   0.1094083118E-01   0.9416746577E-04   0.0000000000E+00   0.0000000000E+00   0.3287107397E-03  -0.1390696659E-03   0.1224177055E-05   0.0000000000E+00   0.0000000000E+00   0.0000000000E+00   0.3200721818E-01
   0.1759715336E+00   0.2324719217E+00   0.4739660308E-04  -0.2419130940E-04   0.0000000000E+00   0.0000000000E+00   0.3435112734E-01  -0.3151426867E-03   0.1021079540E-01   0.1776663643E-03   0.0000000000E+00   0.0000000000E+00   0.3138243153E-03  -0.1368371951E-03   0.2309662736E-05   0.0000000000E+00   0.0000000000E+00   0.0000000000E+00   0.3078789182E-01
   0.2250845733E+00   0.0000000000E+00   0.8457931641E-04   0.0000000000E+00   0.0000000000E+00   0.0000000000E+00   0.1259058566E-01   0.3219557713E-02   0.4743043013E-02  -0.3882182347E-03   0.0000000000E+00   0.0000000000E+00   0.1020180544E-03  -0.1980530889E-04  -0.5046837052E-05   0.0000000000E+00   0.0000000000E+00   0.0000000000E+00   0.8691528961E-02
   0.2459201549E+00   0.0000000000E+00   0.8681788694E-04   0.0000000000E+00   0.0000000000E+00   0.0000000000E+00   0.1398420647E-01   0.3796202200E-02   0.5334122600E-02  -0.2914876493E-03   0.0000000000E+00   0.0000000000E+00   0.1124510903E-03  -0.1999296520E-04  -0.3789339441E-05   0.0000000000E+00   0.0000000000E+00   0.0000000000E+00   0.9501510571E-02
   0.2483331996E+00   0.1834204703E-01   0.8685758056E-04  -0.3808744516E-06   0.0000000000E+00   0.0000000000E+00   0.1442589066E-01   0.3733785746E-02   0.5447902923E-02  -0.9073525139E-03   0.0000000000E+00   0.0000000000E+00   0.1167138406E-03  -0.2228352330E-04  -0.1179558268E-04   0.0000000000E+00   0.0000000000E+00   0.0000000000E+00   0.1008084055E-01
   0.1966060038E+00   0.1994971262E+00   0.5743778943E-04  -0.1745682971E-04   0.0000000000E+00   0.0000000000E+00   0.3191383283E-01  -0.8435313853E-03   0.9321090432E-02  -0.5814784140E-03   0.0000000000E+00   0.0000000000E+00   0.2937056511E-03  -0.1321400836E-03  -0.7559219382E-05   0.0000000000E+00   0.0000000000E+00   0.0000000000E+00   0.2905916771E-01
   0.2156222109E+00   0.1983765852E+00   0.6308590182E-04  -0.1567178774E-04   0.0000000000E+00   0.0000000000E+00   0.3141530536E-01  -0.5067917063E-03   0.9272554097E-02  -0.9691611806E-03   0.0000000000E+00   0.0000000000E+00   0.2878557664E-03  -0.1271314954E-03  -0.1259909535E-04   0.0000000000E+00   0.0000000000E+00   0.0000000000E+00   0.2837773584E-01
   0.2156034762E+00   0.2151202219E+00   0.6142818595E-04  -0.1782606700E-04   0.0000000000E+00   0.0000000000E+00   0.3271414138E-01  -0.2652552856E-03   0.9734665827E-02  -0.6478731808E-03   0.0000000000E+00   0.0000000000E+00   0.2987331821E-03  -0.1299989745E-03  -0.8422351351E-05   0.0000000000E+00   0.0000000000E+00   0.0000000000E+00   0.2931154312E-01
   0.1962782773E+00   0.2156016998E+00   0.5556932879E-04  -0.1962221448E-04   0.0000000000E+00   0.0000000000E+00   0.3305654353E-01  -0.4370351101E-03   0.9785852525E-02  -0.2913852236E-03   0.0000000000E+00   0.0000000000E+00   0.3025189830E-03  -0.1328975393E-03  -0.3788007907E-05   0.0000000000E+00   0.0000000000E+00   0.0000000000E+00   0.2973639363E-01
   0.1175473597E+00   0.2324036770E+00   0.2948565159E-04  -0.3332303605E-04   0.0000000000E+00   0.0000000000E+00   0.3219419970E-01  -0.3176422870E-03   0.9562967224E-02   0.1451565161E-02   0.0000000000E+00   0.0000000000E+00   0.2942060222E-03  -0.1284479236E-03   0.1887034709E-04   0.0000000000E+00   0.0000000000E+00   0.0000000000E+00   0.2898482352E-01
   0.1189127603E+00   0.2152168841E+00   0.3213026755E-04  -0.3082185770E-04   0.0000000000E+00   0.0000000000E+00   0.3251926057E-01  -0.7891124676E-03   0.9519044432E-02   0.2417853893E-02   0.0000000000E+00   0.0000000000E+00   0.2990028098E-03  -0.1340060397E-03   0.3143210061E-04   0.0000000000E+00   0.0000000000E+00   0.0000000000E+00   0.2981749224E-01
   0.2139466331E+00   0.2499773455E+00   0.5774914268E-04  -0.2265453888E-04   0.0000000000E+00   0.0000000000E+00   0.3605160808E-01   0.2668734917E-03   0.1089554447E-01  -0.7582554655E-04   0.0000000000E+00   0.0000000000E+00   0.3270288269E-03  -0.1381727227E-03  -0.9857321051E-06   0.0000000000E+00   0.0000000000E+00   0.0000000000E+00   0.3183207390E-01
   0.1944958094E+00   0.2499755095E+00   0.5136137927E-04  -0.2449051154E-04   0.0000000000E+00   0.0000000000E+00   0.3632599189E-01   0.2655653235E-03   0.1097746717E-01  -0.4870373506E-05   0.0000000000E+00   0.0000000000E+00   0.3295308215E-03  -0.1392547239E-03  -0.6331485558E-07   0.0000000000E+00   0.0000000000E+00   0.0000000000E+00   0.3207773074E-01
   0.1954886682E+00   0.2323971030E+00   0.5353118238E-04  -0.2195596547E-04   0.0000000000E+00   0.0000000000E+00   0.3435963055E-01  -0.2592045627E-03   0.1023012779E-01  -0.1173502097E-03   0.0000000000E+00   0.0000000000E+00   0.3136835358E-03  -0.1363613206E-03  -0.1525552726E-05   0.0000000000E+00   0.0000000000E+00   0.0000000000E+00   0.3074962354E-01
   0.2149717798E+00   0.2322635854E+00   0.5963383937E-04  -0.2014061769E-04   0.0000000000E+00   0.0000000000E+00   0.3412272078E-01  -0.1934558977E-03   0.1017877946E-01  -0.3212425105E-03   0.0000000000E+00   0.0000000000E+00   0.3112712371E-03  -0.1348390597E-03  -0.4176152636E-05   0.0000000000E+00   0.0000000000E+00   0.0000000000E+00   0.3049057751E-01
   0.2343998576E+00   0.2319348894E+00   0.6567157012E-04  -0.1868655179E-04   0.0000000000E+00   0.0000000000E+00   0.3374336794E-01  -0.1282707013E-03   0.1008452917E-01  -0.4361784854E-03   0.0000000000E+00   0.0000000000E+00   0.3075649040E-03  -0.1327663984E-03  -0.5670320310E-05   0.0000000000E+00   0.0000000000E+00   0.0000000000E+00   0.3010552399E-01
   0.2537686018E+00   0.2318065083E+00   0.7159375233E-04  -0.1759168562E-04   0.0000000000E+00   0.0000000000E+00   0.3329631076E-01  -0.6937069055E-04   0.9968082021E-02  -0.4731203760E-03   0.0000000000E+00   0.0000000000E+00   0.3032669736E-03  -0.1304868852E-03  -0.6150564888E-05   0.0000000000E+00   0.0000000000E+00   0.0000000000E+00   0.2966268919E-01
   0.2528480676E+00   0.2499799469E+00   0.7028262278E-04  -0.2005314519E-04   0.0000000000E+00   0.0000000000E+00   0.3493167263E-01   0.2323176875E-03   0.1054919710E-01  -0.1324364040E-03   0.0000000000E+00   0.0000000000E+00   0.3169721820E-03  -0.1341194323E-03  -0.1721673251E-05   0.0000000000E+00   0.0000000000E+00   0.0000000000E+00   0.3086272656E-01
   0.2333973995E+00   0.2499788093E+00   0.6406549314E-04  -0.2119073790E-04   0.0000000000E+00   0.0000000000E+00   0.3554423656E-01   0.2537313783E-03   0.1073939038E-01  -0.1167097324E-03   0.0000000000E+00   0.0000000000E+00   0.3224630003E-03  -0.1363135670E-03  -0.1517226521E-05   0.0000000000E+00   0.0000000000E+00   0.0000000000E+00   0.3139065335E-01
   0.3111994377E+00   0.2499818319E+00   0.8831574196E-04  -0.1816807218E-04   0.0000000000E+00   0.0000000000E+00   0.3333119555E-01   0.1703707614E-03   0.1005046989E-01  -0.7344920392E-04   0.0000000000E+00   0.0000000000E+00   0.3026494336E-03  -0.1284412887E-03  -0.9548396510E-06   0.0000000000E+00   0.0000000000E+00   0.0000000000E+00   0.2948956699E-01
   0.3115913198E+00   0.2312564428E+00   0.8880379496E-04  -0.1577818986E-04   0.0000000000E+00   0.0000000000E+00   0.3215414084E-01   0.4706640992E-04   0.9660362175E-02  -0.2644314234E-03   0.0000000000E+00   0.0000000000E+00   0.2924191226E-03  -0.1249728449E-03  -0.3437608504E-05   0.0000000000E+00   0.0000000000E+00   0.0000000000E+00   0.2854604260E-01
   0.5560038698E-01   0.8312125496E-01   0.4336328099E-04  -0.2570453598E-04   0.0000000000E+00   0.0000000000E+00   0.4064704253E-01   0.1437671651E-01   0.1650712771E-01  -0.1951856138E-01   0.0000000000E+00   0.0000000000E+00   0.3138188927E-03  -0.2769534563E-04  -0.2537412979E-03   0.0000000000E+00   0.0000000000E+00   0.0000000000E+00   0.4059646493E-01
   0.7197079042E-01   0.9411896347E-01   0.4086622030E-04  -0.2215472786E-04   0.0000000000E+00   0.0000000000E+00   0.3083698472E-01  -0.1701365549E-02   0.8740685753E-02  -0.8433253472E-02   0.0000000000E+00   0.0000000000E+00   0.2872518866E-03  -0.1357466669E-03  -0.1096322951E-03   0.0000000000E+00   0.0000000000E+00   0.0000000000E+00   0.3225472752E-01
   0.6202004759E-01   0.1069616516E+00   0.3193969263E-04  -0.2675643739E-04   0.0000000000E+00   0.0000000000E+00   0.3776586916E-01  -0.3738889808E-03   0.1121759405E-01  -0.5174395386E-02   0.0000000000E+00   0.0000000000E+00   0.3451275764E-03  -0.1506892795E-03  -0.6726714002E-04   0.0000000000E+00   0.0000000000E+00   0.0000000000E+00   0.3460799232E-01
   0.3829774269E-01   0.9235775446E-01   0.2940008503E-04  -0.3019743840E-04   0.0000000000E+00   0.0000000000E+00   0.5847727057E-01   0.1081712913E-01   0.2078831991E-01  -0.1475253420E-01   0.0000000000E+00   0.0000000000E+00   0.4899563586E-03  -0.1296254801E-03  -0.1917829446E-03   0.0000000000E+00   0.0000000000E+00   0.0000000000E+00   0.4954073280E-01
   0.0000000000E+00   0.1999543521E+00   0.0000000000E+00  -0.4565091088E-04   0.0000000000E+00   0.0000000000E+00   0.3048706470E-01   0.2814185689E-02   0.9990375118E-02   0.6867246143E-03   0.0000000000E+00   0.0000000000E+00   0.2664569646E-03  -0.9329046257E-04   0.8927419987E-05   0.0000000000E+00   0.0000000000E+00   0.0000000000E+00   0.2487590175E-01
   0.0000000000E+00   0.1832892235E+00   0.0000000000E+00  -0.4411351065E-04   0.0000000000E+00   0.0000000000E+00   0.3329703461E-01   0.4374501935E-02   0.1130146096E-01   0.7252652129E-03   0.0000000000E+00   0.0000000000E+00   0.2859424574E-03  -0.9005046738E-04   0.9428447768E-05   0.0000000000E+00   0.0000000000E+00   0.0000000000E+00   0.2615737066E-01
   0.3652419605E-01   0.1168334953E+00   0.1755814919E-04  -0.3392073119E-04   0.0000000000E+00   0.0000000000E+00   0.5203357491E-01   0.6995799683E-02   0.1770881238E-01  -0.5311136957E-02   0.0000000000E+00   0.0000000000E+00   0.4462219129E-03  -0.1392691650E-03  -0.6904478044E-04   0.0000000000E+00   0.0000000000E+00   0.0000000000E+00   0.4233580987E-01
   0.2667559279E+00   0.0000000000E+00   0.8924692316E-04   0.0000000000E+00   0.0000000000E+00   0.0000000000E+00   0.1502722007E-01   0.4201607199E-02   0.5768648182E-02  -0.2160391138E-03   0.0000000000E+00   0.0000000000E+00   0.1203614346E-03  -0.2037153278E-04  -0.2808508479E-05   0.0000000000E+00   0.0000000000E+00   0.0000000000E+00   0.1012737913E-01
   0.2687152565E+00   0.1829112644E-01   0.8931149300E-04  -0.3841633150E-06   0.0000000000E+00   0.0000000000E+00   0.1536091664E-01   0.4138464333E-02   0.5849814293E-02  -0.6761235361E-03   0.0000000000E+00   0.0000000000E+00   0.1236443306E-03  -0.2224754948E-04  -0.8789605969E-05   0.0000000000E+00   0.0000000000E+00   0.0000000000E+00   0.1054276931E-01
   0.2366061222E+00   0.7431376868E-01   0.8171924476E-04  -0.2427418756E-05   0.0000000000E+00   0.0000000000E+00   0.1843161555E-01   0.1793382554E-02   0.6067499432E-02  -0.3404460708E-02   0.0000000000E+00   0.0000000000E+00   0.1607335096E-03  -0.5556351941E-04  -0.4425798921E-04   0.0000000000E+00   0.0000000000E+00   0.0000000000E+00   0.1607846275E-01
   0.2553013248E+00   0.7383561835E-01   0.8475575079E-04  -0.2272847038E-05   0.0000000000E+00   0.0000000000E+00   0.1862761802E-01   0.2472605243E-02   0.6330066980E-02  -0.2723491963E-02   0.0000000000E+00   0.0000000000E+00   0.1598681636E-03  -0.5014700258E-04  -0.3540539553E-04   0.0000000000E+00   0.0000000000E+00   0.0000000000E+00   0.1534943463E-01
   0.3104298993E+00   0.3712610801E-01   0.9444228720E-04  -0.8540932766E-06   0.0000000000E+00   0.0000000000E+00   0.1711385598E-01   0.4374879587E-02   0.6446620669E-02  -0.6441619623E-03   0.0000000000E+00   0.0000000000E+00   0.1386740590E-03  -0.2693263406E-04  -0.8374105510E-05   0.0000000000E+00   0.0000000000E+00   0.0000000000E+00   0.1188833020E-01
   0.2905318279E+00   0.3677639704E-01   0.9171585545E-04  -0.8422632047E-06   0.0000000000E+00   0.0000000000E+00   0.1672215995E-01   0.4182063229E-02   0.6271266953E-02  -0.9908683989E-03   0.0000000000E+00   0.0000000000E+00   0.1358616089E-03  -0.2715964841E-04  -0.1288128919E-04   0.0000000000E+00   0.0000000000E+00   0.0000000000E+00   0.1175629631E-01
   0.3500999940E+00   0.2115253410E+00   0.1000000000E-03  -0.1312300519E-04   0.0000000000E+00   0.0000000000E+00   0.3063194779E-01   0.3337224451E-03   0.9289701071E-02   0.7082603652E-04   0.0000000000E+00   0.0000000000E+00   0.2774492074E-03  -0.1164277221E-03   0.9207384747E-06   0.0000000000E+00   0.0000000000E+00   0.0000000000E+00   0.2695985429E-01
   0.3310031156E+00   0.2119676269E+00   0.9469763007E-04  -0.1323710540E-04   0.0000000000E+00   0.0000000000E+00   0.3068103567E-01   0.3081984880E-03   0.9296770246E-02  -0.2872599002E-03   0.0000000000E+00   0.0000000000E+00   0.2779954504E-03  -0.1168514329E-03  -0.3734378703E-05   0.0000000000E+00   0.0000000000E+00   0.0000000000E+00   0.2702774150E-01
   0.3309379891E+00   0.1926905750E+00   0.9495805534E-04  -0.1106299549E-04   0.0000000000E+00   0.0000000000E+00   0.2920115108E-01   0.5994160220E-03   0.8940170130E-02  -0.3716914934E-03   0.0000000000E+00   0.0000000000E+00   0.2633927523E-03  -0.1084298034E-03  -0.4831989414E-05   0.0000000000E+00   0.0000000000E+00   0.0000000000E+00   0.2548356883E-01
   0.3500999940E+00   0.1922967330E+00   0.1000000000E-03  -0.1096298813E-04   0.0000000000E+00   0.0000000000E+00   0.2916586554E-01   0.6398825988E-03   0.8941724443E-02   0.6552748489E-04   0.0000000000E+00   0.0000000000E+00   0.2629138343E-03  -0.1079239440E-03   0.8518573035E-06   0.0000000000E+00   0.0000000000E+00   0.0000000000E+00   0.2541260867E-01
   0.2926466990E+00   0.2126701857E+00   0.8394598769E-04  -0.1386432639E-04   0.0000000000E+00   0.0000000000E+00   0.3111672181E-01   0.2194846567E-03   0.9400861939E-02  -0.7145665265E-03   0.0000000000E+00   0.0000000000E+00   0.2823061783E-03  -0.1193579047E-03  -0.9289364845E-05   0.0000000000E+00   0.0000000000E+00   0.0000000000E+00   0.2750914435E-01
   0.2735824414E+00   0.2131289197E+00   0.7851239308E-04  -0.1444429677E-04   0.0000000000E+00   0.0000000000E+00   0.3146386083E-01   0.1336300078E-03   0.9479247250E-02  -0.8552593559E-03   0.0000000000E+00   0.0000000000E+00   0.2857999765E-03  -0.1214930242E-03  -0.1111837163E-04   0.0000000000E+00   0.0000000000E+00   0.0000000000E+00   0.2789777262E-01
   0.2734350748E+00   0.1942602820E+00   0.7956075545E-04  -0.1222097110E-04   0.0000000000E+00   0.0000000000E+00   0.2992866950E-01   0.2652703627E-03   0.9058181959E-02  -0.1146233889E-02   0.0000000000E+00   0.0000000000E+00   0.2713163380E-03  -0.1143078507E-03  -0.1490104056E-04   0.0000000000E+00   0.0000000000E+00   0.0000000000E+00   0.2646412458E-01
   0.2925036678E+00   0.1934351430E+00   0.8474077434E-04  -0.1164200695E-04   0.0000000000E+00   0.0000000000E+00   0.2960211049E-01   0.3999231294E-03   0.9000610086E-02  -0.9618203337E-03   0.0000000000E+00   0.0000000000E+00   0.2678195053E-03  -0.1118089304E-03  -0.1250366434E-04   0.0000000000E+00   0.0000000000E+00   0.0000000000E+00   0.2604457564E-01
   0.1944838930E+00   0.5816815139E-01   0.7727900391E-04  -0.1966009768E-05   0.0000000000E+00   0.0000000000E+00   0.1533095751E-01   0.3518979358E-03   0.4704856634E-02  -0.4814533036E-02   0.0000000000E+00   0.0000000000E+00   0.1381393114E-03  -0.5658846308E-04  -0.6258892947E-04   0.0000000000E+00   0.0000000000E+00   0.0000000000E+00   0.1572982097E-01
   0.2141740656E+00   0.5661190176E-01   0.8018661435E-04  -0.1681343961E-05   0.0000000000E+00   0.0000000000E+00   0.1577715946E-01   0.1447478475E-02   0.5167391379E-02  -0.3866314154E-02   0.0000000000E+00   0.0000000000E+00   0.1379269850E-03  -0.4835886776E-04  -0.5026208401E-04   0.0000000000E+00   0.0000000000E+00   0.0000000000E+00   0.1451803193E-01
   0.7320781865E-01   0.1305644753E+00   0.2884934778E-04  -0.2758768933E-04   0.0000000000E+00   0.0000000000E+00   0.3908880550E-01  -0.1488178101E-02   0.1128018822E-01   0.8127500201E-03   0.0000000000E+00   0.0000000000E+00   0.3615120247E-03  -0.1659887622E-03   0.1056575026E-04   0.0000000000E+00   0.0000000000E+00   0.0000000000E+00   0.3594507294E-01
   0.5551177846E-01   0.1224448455E+00   0.2415685582E-04  -0.3061449407E-04   0.0000000000E+00   0.0000000000E+00   0.4548549939E-01   0.3380545864E-02   0.1465981358E-01  -0.1338126138E-02   0.0000000000E+00   0.0000000000E+00   0.4007339156E-03  -0.1466304803E-03  -0.1739563979E-04   0.0000000000E+00   0.0000000000E+00   0.0000000000E+00   0.3772367867E-01
   0.8081224504E-01   0.1172526856E+00   0.3502464357E-04  -0.2340140762E-04   0.0000000000E+00   0.0000000000E+00   0.3756966493E-01  -0.2480449596E-02   0.1052676460E-01  -0.1607016497E-02   0.0000000000E+00   0.0000000000E+00   0.3515577043E-03  -0.1690937845E-03  -0.2089121446E-04   0.0000000000E+00   0.0000000000E+00   0.0000000000E+00   0.3543902636E-01
   0.5834464284E-01   0.2499544028E+00   0.1130924386E-04  -0.4559721554E-04   0.0000000000E+00   0.0000000000E+00   0.2425952346E-01  -0.3983614928E-03   0.7158348589E-02   0.6376929242E-03   0.0000000000E+00   0.0000000000E+00   0.2223152733E-03  -0.9823723106E-04   0.8290008014E-05   0.0000000000E+00   0.0000000000E+00   0.0000000000E+00   0.2188257391E-01
   0.7820916701E-01   0.2133823150E+00   0.2050920841E-04  -0.3831501503E-04   0.0000000000E+00   0.0000000000E+00   0.3075709983E-01  -0.1117584926E-03   0.9193602401E-02   0.3516341852E-02   0.0000000000E+00   0.0000000000E+00   0.2803254666E-03  -0.1209696916E-03   0.4571244408E-04   0.0000000000E+00   0.0000000000E+00   0.0000000000E+00   0.2807851708E-01
   0.7801872169E-01   0.1933985116E+00   0.2222189015E-04  -0.3586141678E-04   0.0000000000E+00   0.0000000000E+00   0.3290575748E-01  -0.2256281657E-03   0.9804038794E-02   0.4139163283E-02   0.0000000000E+00   0.0000000000E+00   0.3003223429E-03  -0.1303856705E-03   0.5380912267E-04   0.0000000000E+00   0.0000000000E+00   0.0000000000E+00   0.3028650967E-01
   0.1768060772E+00   0.2157777740E+00   0.4963515717E-04  -0.2182601722E-04   0.0000000000E+00   0.0000000000E+00   0.3324378042E-01  -0.5945619302E-03   0.9794765547E-02   0.2225677961E-03   0.0000000000E+00   0.0000000000E+00   0.3048371933E-03  -0.1350612572E-03   0.2893381349E-05   0.0000000000E+00   0.0000000000E+00   0.0000000000E+00   0.3002652200E-01
   0.3116003562E+00   0.1537223501E+00   0.9113416322E-04  -0.7356876277E-05   0.0000000000E+00   0.0000000000E+00   0.2600927689E-01   0.1329414508E-02   0.8201607418E-02  -0.9615997567E-03   0.0000000000E+00   0.0000000000E+00   0.2314997031E-03  -0.8933850784E-04  -0.1250079684E-04   0.0000000000E+00   0.0000000000E+00   0.0000000000E+00   0.2212321623E-01
   0.3115871692E+00   0.1734288929E+00   0.9046423970E-04  -0.9224129168E-05   0.0000000000E+00   0.0000000000E+00   0.2772514344E-01   0.8995174855E-03   0.8587398277E-02  -0.8391093963E-03   0.0000000000E+00   0.0000000000E+00   0.2487906871E-03  -0.9994245029E-04  -0.1090842215E-04   0.0000000000E+00   0.0000000000E+00   0.0000000000E+00   0.2396967913E-01
   0.1166931607E+00   0.2499642899E+00   0.2649370354E-04  -0.3571009118E-04   0.0000000000E+00   0.0000000000E+00   0.3247911713E-01  -0.2758352029E-05   0.9742907632E-02   0.5178641015E-03   0.0000000000E+00   0.0000000000E+00   0.2955707234E-03  -0.1266936578E-03   0.6732233319E-05   0.0000000000E+00   0.0000000000E+00   0.0000000000E+00   0.2886584891E-01
   0.7076563749E-01   0.7068939531E-01   0.5495609108E-04  -0.2128608886E-04   0.0000000000E+00   0.0000000000E+00   0.1610899619E-01   0.8368304553E-02   0.7343190223E-02  -0.1017159140E-01   0.0000000000E+00   0.0000000000E+00   0.1139554776E-03   0.1332648629E-04  -0.1322306882E-03   0.0000000000E+00   0.0000000000E+00   0.0000000000E+00   0.1806415709E-01
   0.8394447527E-01   0.7964803701E-01   0.5151887248E-04  -0.1693098727E-04   0.0000000000E+00   0.0000000000E+00   0.2113128676E-01  -0.1131120781E-02   0.6000049792E-02  -0.8446334519E-02   0.0000000000E+00   0.0000000000E+00   0.1967060805E-03  -0.9270521745E-04  -0.1098023487E-03   0.0000000000E+00   0.0000000000E+00   0.0000000000E+00   0.2465645457E-01
   0.2350057114E+00   0.2142946415E+00   0.6725343610E-04  -0.1636248011E-04   0.0000000000E+00   0.0000000000E+00   0.3229522991E-01  -0.1102484305E-03   0.9655494445E-02  -0.8392973540E-03   0.0000000000E+00   0.0000000000E+00   0.2943165611E-03  -0.1269546574E-03  -0.1091086560E-04   0.0000000000E+00   0.0000000000E+00   0.0000000000E+00   0.2882966135E-01
   0.1774908227E+00   0.1998938990E+00   0.5172870771E-04  -0.1958800015E-04   0.0000000000E+00   0.0000000000E+00   0.3234714298E-01  -0.1133899518E-02   0.9363973038E-02   0.5569939641E-05   0.0000000000E+00   0.0000000000E+00   0.2987812092E-03  -0.1364723432E-03   0.7240921534E-07   0.0000000000E+00   0.0000000000E+00   0.0000000000E+00   0.2965888220E-01
   0.1585696734E+00   0.1997653628E+00   0.4605440837E-04  -0.2207520624E-04   0.0000000000E+00   0.0000000000E+00   0.3265521761E-01  -0.1380886046E-02   0.9382299469E-02   0.7539781726E-03   0.0000000000E+00   0.0000000000E+00   0.3025479358E-03  -0.1399214117E-03   0.9801716244E-05   0.0000000000E+00   0.0000000000E+00   0.0000000000E+00   0.3015849858E-01
   0.1597298731E+00   0.1838913533E+00   0.4841911791E-04  -0.1965773147E-04   0.0000000000E+00   0.0000000000E+00   0.3215693613E-01  -0.2083523491E-02   0.9022023792E-02   0.3407165796E-03   0.0000000000E+00   0.0000000000E+00   0.3007538604E-03  -0.1443721147E-03   0.4429315535E-05   0.0000000000E+00   0.0000000000E+00   0.0000000000E+00   0.3025789599E-01
   0.1778657783E+00   0.1845699014E+00   0.5372330886E-04  -0.1744363698E-04   0.0000000000E+00   0.0000000000E+00   0.3158968039E-01  -0.1633198272E-02   0.8986944636E-02  -0.4030276580E-03   0.0000000000E+00   0.0000000000E+00   0.2938355648E-03  -0.1380618578E-03  -0.5239359554E-05   0.0000000000E+00   0.0000000000E+00   0.0000000000E+00   0.2939420192E-01
   0.2543716987E+00   0.2137030929E+00   0.7295166176E-04  -0.1526206976E-04   0.0000000000E+00   0.0000000000E+00   0.3185463013E-01   0.1372886868E-04   0.9560507698E-02  -0.9025761849E-03   0.0000000000E+00   0.0000000000E+00   0.2898235916E-03  -0.1241081248E-03  -0.1173349040E-04   0.0000000000E+00   0.0000000000E+00   0.0000000000E+00   0.2834461646E-01
   0.3118008280E+00   0.2123190570E+00   0.8933796839E-04  -0.1347495539E-04   0.0000000000E+00   0.0000000000E+00   0.3086100299E-01   0.2733023885E-03   0.9340291613E-02  -0.5075756653E-03   0.0000000000E+00   0.0000000000E+00   0.2797692479E-03  -0.1178708599E-03  -0.6598483649E-05   0.0000000000E+00   0.0000000000E+00   0.0000000000E+00   0.2722577213E-01
   0.3117552397E+00   0.1930218821E+00   0.8988370687E-04  -0.1127685707E-04   0.0000000000E+00   0.0000000000E+00   0.2936634677E-01   0.5404888357E-03   0.8972050683E-02  -0.6811344586E-03   0.0000000000E+00   0.0000000000E+00   0.2651258492E-03  -0.1096103040E-03  -0.8854747961E-05   0.0000000000E+00   0.0000000000E+00   0.0000000000E+00   0.2569762903E-01
   0.6711701905E-01   0.1440401885E+00   0.2410865206E-04  -0.3115253338E-04   0.0000000000E+00   0.0000000000E+00   0.3912488686E-01   0.2879929633E-03   0.1182386395E-01   0.2699259058E-02   0.0000000000E+00   0.0000000000E+00   0.3549132979E-03  -0.1499663228E-03   0.3509036775E-04   0.0000000000E+00   0.0000000000E+00   0.0000000000E+00   0.3485060446E-01
   0.6213701730E-01   0.1546056765E+00   0.2094570302E-04  -0.3376152268E-04   0.0000000000E+00   0.0000000000E+00   0.3829117652E-01   0.8672051168E-03   0.1174751449E-01   0.3456768803E-02   0.0000000000E+00   0.0000000000E+00   0.3450676063E-03  -0.1414440219E-03   0.4493799444E-04   0.0000000000E+00   0.0000000000E+00   0.0000000000E+00   0.3385521429E-01
   0.1526112686E+00   0.3951399532E-01   0.7538264361E-04  -0.1723475463E-05   0.0000000000E+00   0.0000000000E+00   0.9301669696E-02  -0.2599447763E-02   0.2010666580E-02  -0.5763402295E-02   0.0000000000E+00   0.0000000000E+00   0.9478304051E-04  -0.5993148646E-04  -0.7492422983E-04   0.0000000000E+00   0.0000000000E+00   0.0000000000E+00   0.1432614575E-01
   0.1354254699E+00   0.4589561726E-01   0.7227689862E-04  -0.3121935649E-05   0.0000000000E+00   0.0000000000E+00   0.9006231444E-02  -0.5475387243E-02   0.1059253260E-02  -0.7452148408E-02   0.0000000000E+00   0.0000000000E+00   0.1033107164E-03  -0.8495032654E-04  -0.9687792931E-04   0.0000000000E+00   0.0000000000E+00   0.0000000000E+00   0.1762624242E-01
   0.1625795924E+00   0.0000000000E+00   0.7959841504E-04   0.0000000000E+00   0.0000000000E+00   0.0000000000E+00   0.5566410138E-02  -0.5324758370E-03   0.1510180290E-02  -0.9518625683E-03   0.0000000000E+00   0.0000000000E+00   0.5273098802E-04  -0.2655452965E-04  -0.1237421339E-04   0.0000000000E+00   0.0000000000E+00   0.0000000000E+00   0.5445851711E-02
   0.1665089885E+00   0.1949819317E-01   0.7903654284E-04  -0.5630312982E-06   0.0000000000E+00   0.0000000000E+00   0.7410946675E-02  -0.4872644750E-03   0.2077104660E-02  -0.2431083101E-02   0.0000000000E+00   0.0000000000E+00   0.6933994620E-04  -0.3333679876E-04  -0.3160408031E-04   0.0000000000E+00   0.0000000000E+00   0.0000000000E+00   0.8279325571E-02
   0.2755282479E+00   0.9272098822E-01   0.8683990451E-04  -0.3171181461E-05   0.0000000000E+00   0.0000000000E+00   0.2055901303E-01   0.2410946039E-02   0.6890987720E-02  -0.2219825786E-02   0.0000000000E+00   0.0000000000E+00   0.1776843290E-03  -0.5824054186E-04  -0.2885773522E-04   0.0000000000E+00   0.0000000000E+00   0.0000000000E+00   0.1681490673E-01
   0.2937176177E+00   0.9348749582E-01   0.9002768717E-04  -0.3112180055E-05   0.0000000000E+00   0.0000000000E+00   0.2068986085E-01   0.2749474414E-02   0.7031800580E-02  -0.1653473748E-02   0.0000000000E+00   0.0000000000E+00   0.1775547835E-03  -0.5567024015E-04  -0.2149515873E-04   0.0000000000E+00   0.0000000000E+00   0.0000000000E+00   0.1647531651E-01
   0.2938588201E+00   0.1128445088E+00   0.8910309467E-04  -0.4302248918E-05   0.0000000000E+00   0.0000000000E+00   0.2238897350E-01   0.2197625829E-02   0.7375979800E-02  -0.1656402294E-02   0.0000000000E+00   0.0000000000E+00   0.1951689181E-03  -0.6731860162E-04  -0.2153322982E-04   0.0000000000E+00   0.0000000000E+00   0.0000000000E+00   0.1838562723E-01
   0.2759895731E+00   0.1113701837E+00   0.8569214473E-04  -0.4366294152E-05   0.0000000000E+00   0.0000000000E+00   0.2235823997E-01   0.1854057383E-02   0.7263689206E-02  -0.2161520333E-02   0.0000000000E+00   0.0000000000E+00   0.1962291599E-03  -0.7032521369E-04  -0.2809976432E-04   0.0000000000E+00   0.0000000000E+00   0.0000000000E+00   0.1878003656E-01
   0.2929658136E+00   0.7443649805E-01   0.9076259478E-04  -0.2163252861E-05   0.0000000000E+00   0.0000000000E+00   0.1912079116E-01   0.3311283355E-02   0.6729622355E-02  -0.1554578275E-02   0.0000000000E+00   0.0000000000E+00   0.1610851945E-03  -0.4443840700E-04  -0.2020951757E-04   0.0000000000E+00   0.0000000000E+00   0.0000000000E+00   0.1465242877E-01
   0.1711663062E+00   0.3888095520E-01   0.7726819918E-04  -0.1274300084E-05   0.0000000000E+00   0.0000000000E+00   0.1007567471E-01  -0.7739601904E-03   0.2790514357E-02  -0.4969194504E-02   0.0000000000E+00   0.0000000000E+00   0.9470708465E-04  -0.4633816912E-04  -0.6459952855E-04   0.0000000000E+00   0.0000000000E+00   0.0000000000E+00   0.1281010620E-01
   0.2930525187E+00   0.1327435917E+00   0.8791166033E-04  -0.5772272906E-05   0.0000000000E+00   0.0000000000E+00   0.2424342694E-01   0.1563412545E-02   0.7742051846E-02  -0.1587793327E-02   0.0000000000E+00   0.0000000000E+00   0.2145178762E-03  -0.8032231091E-04  -0.2064131325E-04   0.0000000000E+00   0.0000000000E+00   0.0000000000E+00   0.2049047348E-01
   0.5193023388E-01   0.1833291222E+00   0.1516198383E-04  -0.3936679635E-04   0.0000000000E+00   0.0000000000E+00   0.3394324980E-01   0.1619313716E-02   0.1066876906E-01   0.3941508782E-02   0.0000000000E+00   0.0000000000E+00   0.3025682497E-03  -0.1176429194E-03   0.5123961417E-04   0.0000000000E+00   0.0000000000E+00   0.0000000000E+00   0.2968866332E-01
   0.5043608738E-01   0.1685541602E+00   0.1572117688E-04  -0.3787575877E-04   0.0000000000E+00   0.0000000000E+00   0.3615753449E-01   0.2459274344E-02   0.1158504265E-01   0.4051278790E-02   0.0000000000E+00   0.0000000000E+00   0.3194423939E-03  -0.1186349880E-03   0.5266662428E-04   0.0000000000E+00   0.0000000000E+00   0.0000000000E+00   0.3099731765E-01
   0.2918311205E+00   0.5550440551E-01   0.9132845648E-04  -0.1417792474E-05   0.0000000000E+00   0.0000000000E+00   0.1777049571E-01   0.3796217058E-02   0.6470013831E-02  -0.1325543933E-02   0.0000000000E+00   0.0000000000E+00   0.1469062644E-03  -0.3475935805E-04  -0.1723207113E-04   0.0000000000E+00   0.0000000000E+00   0.0000000000E+00   0.1304797410E-01
   0.2917518589E+00   0.1532865988E+00   0.8654290687E-04  -0.7562227190E-05   0.0000000000E+00   0.0000000000E+00   0.2611687883E-01   0.1138031758E-02   0.8176473177E-02  -0.1414301209E-02   0.0000000000E+00   0.0000000000E+00   0.2332252735E-03  -0.9149973844E-04  -0.1838591571E-04   0.0000000000E+00   0.0000000000E+00   0.0000000000E+00   0.2243888132E-01
   0.2706556372E+00   0.3669169827E-01   0.8905419356E-04  -0.8391329373E-06   0.0000000000E+00   0.0000000000E+00   0.1616880545E-01   0.3881878903E-02   0.6015205307E-02  -0.1380739903E-02   0.0000000000E+00   0.0000000000E+00   0.1319968019E-03  -0.2773324325E-04  -0.1794961874E-04   0.0000000000E+00   0.0000000000E+00   0.0000000000E+00   0.1160890805E-01
   0.2507763964E+00   0.3681339607E-01   0.8647235662E-04  -0.8465331496E-06   0.0000000000E+00   0.0000000000E+00   0.1543431917E-01   0.3453946903E-02   0.5666479823E-02  -0.1839485081E-02   0.0000000000E+00   0.0000000000E+00   0.1269819116E-03  -0.2876292797E-04  -0.2391330605E-04   0.0000000000E+00   0.0000000000E+00   0.0000000000E+00   0.1147482802E-01
   0.2336179896E+00   0.5569864260E-01   0.8296764064E-04  -0.1536596432E-05   0.0000000000E+00   0.0000000000E+00   0.1633585432E-01   0.2368598153E-02   0.5611335743E-02  -0.3072564658E-02   0.0000000000E+00   0.0000000000E+00   0.1394187416E-03  -0.4215558868E-04  -0.3994334055E-04   0.0000000000E+00   0.0000000000E+00   0.0000000000E+00   0.1373258435E-01
   0.2531230729E+00   0.5532600896E-01   0.8573987911E-04  -0.1462339098E-05   0.0000000000E+00   0.0000000000E+00   0.1688741762E-01   0.3005513626E-02   0.5967879374E-02  -0.2395164409E-02   0.0000000000E+00   0.0000000000E+00   0.1419539972E-03  -0.3851075472E-04  -0.3113713731E-04   0.0000000000E+00   0.0000000000E+00   0.0000000000E+00   0.1332282186E-01
   0.2349344081E+00   0.1970403369E+00   0.6871311402E-04  -0.1421307978E-04   0.0000000000E+00   0.0000000000E+00   0.3088779670E-01  -0.2369613388E-03   0.9195250607E-02  -0.1185424708E-02   0.0000000000E+00   0.0000000000E+00   0.2820030992E-03  -0.1226187553E-03  -0.1541052120E-04   0.0000000000E+00   0.0000000000E+00   0.0000000000E+00   0.2771986125E-01
   0.2542951609E+00   0.1956620733E+00   0.7422789374E-04  -0.1307672857E-04   0.0000000000E+00   0.0000000000E+00   0.3037424614E-01   0.1542535633E-04   0.9116901449E-02  -0.1249077816E-02   0.0000000000E+00   0.0000000000E+00   0.2763454810E-03  -0.1183191892E-03  -0.1623801160E-04   0.0000000000E+00   0.0000000000E+00   0.0000000000E+00   0.2707216561E-01
   0.1596376441E+00   0.7269154394E-01   0.6923009463E-04  -0.4113663592E-05   0.0000000000E+00   0.0000000000E+00   0.1757736438E-01  -0.3532465017E-02   0.4213469809E-02  -0.6818019521E-02   0.0000000000E+00   0.0000000000E+00   0.1737306294E-03  -0.1006971527E-03  -0.8863425378E-04   0.0000000000E+00   0.0000000000E+00   0.0000000000E+00   0.2191089476E-01
   0.1738109226E+00   0.6065923955E-01   0.7399256170E-04  -0.2478649132E-05   0.0000000000E+00   0.0000000000E+00   0.1507905601E-01  -0.1530103185E-02   0.4064685847E-02  -0.6058939524E-02   0.0000000000E+00   0.0000000000E+00   0.1431868121E-03  -0.7273225742E-04  -0.7876621381E-04   0.0000000000E+00   0.0000000000E+00   0.0000000000E+00   0.1801044052E-01
   0.1841911573E+00   0.8233531788E-01   0.7166427245E-04  -0.3991319596E-05   0.0000000000E+00   0.0000000000E+00   0.1973439523E-01  -0.1726898749E-02   0.5402248943E-02  -0.5712913473E-02   0.0000000000E+00   0.0000000000E+00   0.1863179017E-03  -0.9267892000E-04  -0.7426787514E-04   0.0000000000E+00   0.0000000000E+00   0.0000000000E+00   0.2133863266E-01
   0.1694678155E+00   0.8994884663E-01   0.6731748394E-04  -0.5432769936E-05   0.0000000000E+00   0.0000000000E+00   0.2138601772E-01  -0.3231464523E-02   0.5446365959E-02  -0.5791043337E-02   0.0000000000E+00   0.0000000000E+00   0.2072154729E-03  -0.1128117963E-03  -0.7528356338E-04   0.0000000000E+00   0.0000000000E+00   0.0000000000E+00   0.2383665504E-01
   0.9886521127E-01   0.2141748883E+00   0.2633057069E-04  -0.3448970646E-04   0.0000000000E+00   0.0000000000E+00   0.3176247542E-01  -0.6247308993E-03   0.9341323355E-02   0.3161480990E-02   0.0000000000E+00   0.0000000000E+00   0.2914749768E-03  -0.1295587053E-03   0.4109925287E-04   0.0000000000E+00   0.0000000000E+00   0.0000000000E+00   0.2923127812E-01
   0.1397861256E+00   0.1993612253E+00   0.4039859167E-04  -0.2493972595E-04   0.0000000000E+00   0.0000000000E+00   0.3285312683E-01  -0.1541877531E-02   0.9393374789E-02   0.1619770790E-02   0.0000000000E+00   0.0000000000E+00   0.3049767765E-03  -0.1421582802E-03   0.2105702027E-04   0.0000000000E+00   0.0000000000E+00   0.0000000000E+00   0.3056436153E-01
   0.1209229112E+00   0.1986111299E+00   0.3473015698E-04  -0.2815906534E-04   0.0000000000E+00   0.0000000000E+00   0.3290598631E-01  -0.1531182369E-02   0.9412441182E-02   0.2523856614E-02   0.0000000000E+00   0.0000000000E+00   0.3054160867E-03  -0.1422671062E-03   0.3281013598E-04   0.0000000000E+00   0.0000000000E+00   0.0000000000E+00   0.3078460682E-01
   0.2182500127E+00   0.7553399984E-01   0.7860969786E-04  -0.2698263677E-05   0.0000000000E+00   0.0000000000E+00   0.1837749057E-01   0.9069816416E-03   0.5785341663E-02  -0.4164713899E-02   0.0000000000E+00   0.0000000000E+00   0.1636979358E-03  -0.6341868028E-04  -0.5414128069E-04   0.0000000000E+00   0.0000000000E+00   0.0000000000E+00   0.1718776863E-01
   0.8033344474E-01   0.1527655834E+00   0.2736924135E-04  -0.2952260833E-04   0.0000000000E+00   0.0000000000E+00   0.3672705977E-01  -0.1633598363E-02   0.1052803842E-01   0.3058594006E-02   0.0000000000E+00   0.0000000000E+00   0.3405872775E-03  -0.1581012782E-03   0.3976172207E-04   0.0000000000E+00   0.0000000000E+00   0.0000000000E+00   0.3435010655E-01
   0.6985775341E-01   0.1667069880E+00   0.2213530928E-04  -0.3387695894E-04   0.0000000000E+00   0.0000000000E+00   0.3589594347E-01   0.1896196779E-03   0.1082566895E-01   0.4019996029E-02   0.0000000000E+00   0.0000000000E+00   0.3259135689E-03  -0.1382686405E-03   0.5225994837E-04   0.0000000000E+00   0.0000000000E+00   0.0000000000E+00   0.3251021356E-01
   0.1414883204E+00   0.1830927099E+00   0.4298139368E-04  -0.2229507171E-04   0.0000000000E+00   0.0000000000E+00   0.3270762157E-01  -0.2332379370E-02   0.9112572660E-02   0.1227635831E-02   0.0000000000E+00   0.0000000000E+00   0.3067356358E-03  -0.1487843764E-03   0.1595926581E-04   0.0000000000E+00   0.0000000000E+00   0.0000000000E+00   0.3101446035E-01
   0.2725831249E+00   0.1744964374E+00   0.8058292429E-04  -0.1006263584E-04   0.0000000000E+00   0.0000000000E+00   0.2838369489E-01   0.4623926526E-03   0.8653826263E-02  -0.1494968640E-02   0.0000000000E+00   0.0000000000E+00   0.2564882921E-03  -0.1064886369E-03  -0.1943459232E-04   0.0000000000E+00   0.0000000000E+00   0.0000000000E+00   0.2499205600E-01
   0.2920285526E+00   0.1736195949E+00   0.8556857515E-04  -0.9525078588E-05   0.0000000000E+00   0.0000000000E+00   0.2792903428E-01   0.7441141341E-03   0.8601944523E-02  -0.1230213342E-02   0.0000000000E+00   0.0000000000E+00   0.2512521668E-03  -0.1021517951E-03  -0.1599277345E-04   0.0000000000E+00   0.0000000000E+00   0.0000000000E+00   0.2432434208E-01
   0.9429650741E-01   0.1610125270E+00   0.3091231260E-04  -0.2776395799E-04   0.0000000000E+00   0.0000000000E+00   0.3544404615E-01  -0.2427984148E-02   0.9904818602E-02   0.2940525437E-02   0.0000000000E+00   0.0000000000E+00   0.3320099582E-03  -0.1603264357E-03   0.3822683068E-04   0.0000000000E+00   0.0000000000E+00   0.0000000000E+00   0.3382867369E-01
   0.8720639574E-01   0.1754523539E+00   0.2682434210E-04  -0.3148405663E-04   0.0000000000E+00   0.0000000000E+00   0.3478597557E-01  -0.1269333228E-02   0.1005499270E-01   0.3961859678E-02   0.0000000000E+00   0.0000000000E+00   0.3215027773E-03  -0.1472162371E-03   0.5150417582E-04   0.0000000000E+00   0.0000000000E+00   0.0000000000E+00   0.3266648819E-01
   0.2741686676E+00   0.7397128862E-01   0.8776563083E-04  -0.2195676154E-05   0.0000000000E+00   0.0000000000E+00   0.1887625101E-01   0.2965055520E-02   0.6552391959E-02  -0.2109256600E-02   0.0000000000E+00   0.0000000000E+00   0.1602101677E-03  -0.4663537370E-04  -0.2742033581E-04   0.0000000000E+00   0.0000000000E+00   0.0000000000E+00   0.1490478518E-01
   0.2262234425E+00   0.1122955653E+00   0.7555246916E-04  -0.5381720451E-05   0.0000000000E+00   0.0000000000E+00   0.2306860669E-01   0.6052336672E-05   0.6922397708E-02  -0.3563884514E-02   0.0000000000E+00   0.0000000000E+00   0.2099007168E-03  -0.8991248983E-04  -0.4633049868E-04   0.0000000000E+00   0.0000000000E+00   0.0000000000E+00   0.2140198337E-01
   0.2225218413E+00   0.9418063034E-01   0.7705328310E-04  -0.3947161722E-05   0.0000000000E+00   0.0000000000E+00   0.2089109840E-01   0.3951641241E-03   0.6385878757E-02  -0.3992868735E-02   0.0000000000E+00   0.0000000000E+00   0.1885678553E-03  -0.7787929022E-04  -0.5190729356E-04   0.0000000000E+00   0.0000000000E+00   0.0000000000E+00   0.1951313876E-01
   0.2724743227E+00   0.5526062052E-01   0.8851669780E-04  -0.1427277164E-05   0.0000000000E+00   0.0000000000E+00   0.1737227113E-01   0.3472786416E-02   0.6253517263E-02  -0.1827347758E-02   0.0000000000E+00   0.0000000000E+00   0.1445438002E-03  -0.3614950101E-04  -0.2375552085E-04   0.0000000000E+00   0.0000000000E+00   0.0000000000E+00   0.1312308981E-01
   0.1569426640E+00   0.5349169475E-01   0.7304402369E-04  -0.2587349601E-05   0.0000000000E+00   0.0000000000E+00   0.1371389889E-01  -0.2743358093E-02   0.3291162238E-02  -0.6595779790E-02   0.0000000000E+00   0.0000000000E+00   0.1354955764E-03  -0.7844876430E-04  -0.8574513727E-04   0.0000000000E+00   0.0000000000E+00   0.0000000000E+00   0.1841448709E-01
   0.1468239790E+00   0.6075319014E-01   0.6998204912E-04  -0.3683162597E-05   0.0000000000E+00   0.0000000000E+00   0.1451122003E-01  -0.3960506926E-02   0.3165213931E-02  -0.6925380768E-02   0.0000000000E+00   0.0000000000E+00   0.1474980793E-03  -0.9263437114E-04  -0.9002994998E-04   0.0000000000E+00   0.0000000000E+00   0.0000000000E+00   0.2019740716E-01
   0.1239077561E+00   0.1490847976E+00   0.4250207860E-04  -0.1985741850E-04   0.0000000000E+00   0.0000000000E+00   0.3330813375E-01  -0.4362258851E-02   0.8683762470E-02   0.2723007511E-03   0.0000000000E+00   0.0000000000E+00   0.3201168267E-03  -0.1695982772E-03   0.3539909765E-05   0.0000000000E+00   0.0000000000E+00   0.0000000000E+00   0.3312001067E-01
   0.1446488653E+00   0.1473428238E+00   0.4927834438E-04  -0.1620420370E-04   0.0000000000E+00   0.0000000000E+00   0.3148808369E-01  -0.4194118134E-02   0.8188189668E-02  -0.1138408964E-02   0.0000000000E+00   0.0000000000E+00   0.3028986223E-03  -0.1609700014E-03  -0.1479931653E-04   0.0000000000E+00   0.0000000000E+00   0.0000000000E+00   0.3143895697E-01
   0.1432107293E+00   0.1661136756E+00   0.4584132989E-04  -0.1943037697E-04   0.0000000000E+00   0.0000000000E+00   0.3242519543E-01  -0.3354837486E-02   0.8721107384E-02   0.3725996193E-03   0.0000000000E+00   0.0000000000E+00   0.3081531446E-03  -0.1569872833E-03   0.4843795050E-05   0.0000000000E+00   0.0000000000E+00   0.0000000000E+00   0.3151881714E-01
   0.1255248335E+00   0.1662906267E+00   0.4030754423E-04  -0.2242534689E-04   0.0000000000E+00   0.0000000000E+00   0.3320354182E-01  -0.3480203064E-02   0.8917001626E-02   0.1291147188E-02   0.0000000000E+00   0.0000000000E+00   0.3157250225E-03  -0.1611636610E-03   0.1678491345E-04   0.0000000000E+00   0.0000000000E+00   0.0000000000E+00   0.3238865497E-01
   0.6670518090E-01   0.1808494677E+00   0.1987689781E-04  -0.3635427527E-04   0.0000000000E+00   0.0000000000E+00   0.3384686719E-01   0.2334740305E-03   0.1022410237E-01   0.4079885587E-02   0.0000000000E+00   0.0000000000E+00   0.3070959427E-03  -0.1298781684E-03   0.5303851263E-04   0.0000000000E+00   0.0000000000E+00   0.0000000000E+00   0.3071636819E-01
   0.1095790032E+00   0.1660947095E+00   0.3523215481E-04  -0.2541745577E-04   0.0000000000E+00   0.0000000000E+00   0.3438778940E-01  -0.3097818993E-02   0.9386991123E-02   0.2311444255E-02   0.0000000000E+00   0.0000000000E+00   0.3250103776E-03  -0.1623025315E-03   0.3004877531E-04   0.0000000000E+00   0.0000000000E+00   0.0000000000E+00   0.3330243183E-01
   0.1054635602E+00   0.1805660517E+00   0.3206319219E-04  -0.2849732976E-04   0.0000000000E+00   0.0000000000E+00   0.3384945975E-01  -0.1954698894E-02   0.9568428257E-02   0.3149825678E-02   0.0000000000E+00   0.0000000000E+00   0.3156534094E-03  -0.1498006530E-03   0.4094773382E-04   0.0000000000E+00   0.0000000000E+00   0.0000000000E+00   0.3211226862E-01
   0.2147667952E+00   0.1816696393E+00   0.6459123705E-04  -0.1363271147E-04   0.0000000000E+00   0.0000000000E+00   0.3018031960E-01  -0.7845473765E-03   0.8818731668E-02  -0.1407000027E-02   0.0000000000E+00   0.0000000000E+00   0.2777006432E-03  -0.1248426276E-03  -0.1829100035E-04   0.0000000000E+00   0.0000000000E+00   0.0000000000E+00   0.2756116098E-01
   0.2339765336E+00   0.1798082551E+00   0.7004062385E-04  -0.1219292210E-04   0.0000000000E+00   0.0000000000E+00   0.2951267774E-01  -0.3180755100E-03   0.8758380668E-02  -0.1597298268E-02   0.0000000000E+00   0.0000000000E+00   0.2698058619E-03  -0.1179939303E-03  -0.2076487748E-04   0.0000000000E+00   0.0000000000E+00   0.0000000000E+00   0.2663056562E-01
   0.2753098289E+00   0.1304996079E+00   0.8424885689E-04  -0.5835099803E-05   0.0000000000E+00   0.0000000000E+00   0.2405605834E-01   0.1281441333E-02   0.7601249903E-02  -0.2085783130E-02   0.0000000000E+00   0.0000000000E+00   0.2139125097E-03  -0.8215751141E-04  -0.2711518069E-04   0.0000000000E+00   0.0000000000E+00   0.0000000000E+00   0.2067769692E-01
   0.2704021339E+00   0.1522784550E+00   0.8159894325E-04  -0.7851038284E-05   0.0000000000E+00   0.0000000000E+00   0.2630371975E-01   0.7149565290E-03   0.8105602885E-02  -0.1909185183E-02   0.0000000000E+00   0.0000000000E+00   0.2365755193E-03  -0.9607840263E-04  -0.2481940738E-04   0.0000000000E+00   0.0000000000E+00   0.0000000000E+00   0.2304746724E-01
   0.2533689162E+00   0.1774759341E+00   0.7540215082E-04  -0.1102194319E-04   0.0000000000E+00   0.0000000000E+00   0.2879256272E-01   0.8999057716E-04   0.8664765989E-02  -0.1614601179E-02   0.0000000000E+00   0.0000000000E+00   0.2616613575E-03  -0.1114720804E-03  -0.2098981533E-04   0.0000000000E+00   0.0000000000E+00   0.0000000000E+00   0.2567168639E-01
   0.1221274690E+00   0.5812196995E-01   0.6721500237E-04  -0.5630753255E-05   0.0000000000E+00   0.0000000000E+00   0.1218687369E-01  -0.7282350266E-02   0.1471357028E-02  -0.7351518661E-02   0.0000000000E+00   0.0000000000E+00   0.1393017166E-03  -0.1137981948E-03  -0.9556974260E-04   0.0000000000E+00   0.0000000000E+00   0.0000000000E+00   0.2129877693E-01
   0.1101010585E+00   0.7309409779E-01   0.5982054015E-04  -0.9464207410E-05   0.0000000000E+00   0.0000000000E+00   0.1903561962E-01  -0.7070149005E-02   0.3589641184E-02  -0.7732761863E-02   0.0000000000E+00   0.0000000000E+00   0.2007977196E-03  -0.1385772725E-03  -0.1005259042E-03   0.0000000000E+00   0.0000000000E+00   0.0000000000E+00   0.2632758940E-01
   0.1475262317E+00   0.8122933516E-01   0.6486165552E-04  -0.5879936840E-05   0.0000000000E+00   0.0000000000E+00   0.2049534118E-01  -0.4991706758E-02   0.4651090327E-02  -0.6885095253E-02   0.0000000000E+00   0.0000000000E+00   0.2059752611E-03  -0.1253563621E-03  -0.8950623829E-04   0.0000000000E+00   0.0000000000E+00   0.0000000000E+00   0.2528168650E-01
   0.1352984969E+00   0.7050232282E-01   0.6546694114E-04  -0.5620778391E-05   0.0000000000E+00   0.0000000000E+00   0.1744498009E-01  -0.5709009731E-02   0.3520791108E-02  -0.7665282025E-02   0.0000000000E+00   0.0000000000E+00   0.1810144568E-03  -0.1199874109E-03  -0.9964866632E-04   0.0000000000E+00   0.0000000000E+00   0.0000000000E+00   0.2410923771E-01
   0.1010107055E+00   0.1969349336E+00   0.2884451696E-04  -0.3174435952E-04   0.0000000000E+00   0.0000000000E+00   0.3300577752E-01  -0.1220617359E-02   0.9535548047E-02   0.3451502070E-02   0.0000000000E+00   0.0000000000E+00   0.3051129831E-03  -0.1398301503E-03   0.4486952691E-04   0.0000000000E+00   0.0000000000E+00   0.0000000000E+00   0.3089818361E-01
   0.1235685151E+00   0.1823413856E+00   0.3753114979E-04  -0.2528336159E-04   0.0000000000E+00   0.0000000000E+00   0.3329921787E-01  -0.2376468427E-02   0.9276824832E-02   0.2207200993E-02   0.0000000000E+00   0.0000000000E+00   0.3122911095E-03  -0.1514928124E-03   0.2869361292E-04   0.0000000000E+00   0.0000000000E+00   0.0000000000E+00   0.3173150174E-01
   0.1611621212E+00   0.1679366569E+00   0.5101922171E-04  -0.1713208430E-04   0.0000000000E+00   0.0000000000E+00   0.3150997443E-01  -0.2746417900E-02   0.8629066959E-02  -0.4629909300E-03   0.0000000000E+00   0.0000000000E+00   0.2974517971E-03  -0.1478813032E-03  -0.6018882090E-05   0.0000000000E+00   0.0000000000E+00   0.0000000000E+00   0.3022587000E-01
   0.1782015184E+00   0.1698337271E+00   0.5573742188E-04  -0.1537094473E-04   0.0000000000E+00   0.0000000000E+00   0.3074255260E-01  -0.2115588530E-02   0.8588089222E-02  -0.9828343241E-03   0.0000000000E+00   0.0000000000E+00   0.2880080240E-03  -0.1391478108E-03  -0.1277684621E-04   0.0000000000E+00   0.0000000000E+00   0.0000000000E+00   0.2907387380E-01
   0.8809051527E-01   0.1398057953E+00   0.3222987025E-04  -0.2561370782E-04   0.0000000000E+00   0.0000000000E+00   0.3703466923E-01  -0.2957951514E-02   0.1022301532E-01   0.1422300577E-02   0.0000000000E+00   0.0000000000E+00   0.3485515009E-03  -0.1713525688E-03   0.1848990750E-04   0.0000000000E+00   0.0000000000E+00   0.0000000000E+00   0.3537715196E-01
   0.9944018747E-01   0.8895164583E-01   0.5099947492E-04  -0.1406066699E-04   0.0000000000E+00   0.0000000000E+00   0.2694575980E-01  -0.6370038043E-02   0.6172716526E-02  -0.6377011551E-02   0.0000000000E+00   0.0000000000E+00   0.2700495625E-03  -0.1630558094E-03  -0.8290115017E-04   0.0000000000E+00   0.0000000000E+00   0.0000000000E+00   0.3088935793E-01
   0.9641410443E-01   0.1276311484E+00   0.3773003375E-04  -0.2157158389E-04   0.0000000000E+00   0.0000000000E+00   0.3562750258E-01  -0.4660385725E-02   0.9290135058E-02  -0.3822385825E-03   0.0000000000E+00   0.0000000000E+00   0.3423857778E-03  -0.1813567702E-03  -0.4969101572E-05   0.0000000000E+00   0.0000000000E+00   0.0000000000E+00   0.3537937177E-01
   0.2506117777E+00   0.1600867826E+00   0.7617068628E-04  -0.9237352915E-05   0.0000000000E+00   0.0000000000E+00   0.2726387607E-01   0.1411611607E-04   0.8183397656E-02  -0.2006492191E-02   0.0000000000E+00   0.0000000000E+00   0.2480462194E-03  -0.1062006600E-03  -0.2608439849E-04   0.0000000000E+00   0.0000000000E+00   0.0000000000E+00   0.2446970496E-01
   0.2594343290E+00   0.1275292826E+00   0.8104898170E-04  -0.5881389929E-05   0.0000000000E+00   0.0000000000E+00   0.2423982759E-01   0.9880390839E-03   0.7568360002E-02  -0.2459700621E-02   0.0000000000E+00   0.0000000000E+00   0.2167290786E-03  -0.8554417193E-04  -0.3197610808E-04   0.0000000000E+00   0.0000000000E+00   0.0000000000E+00   0.2119005399E-01
   0.1962362233E+00   0.1840287875E+00   0.5911329582E-04  -0.1545454236E-04   0.0000000000E+00   0.0000000000E+00   0.3084873443E-01  -0.1235608034E-02   0.8883937920E-02  -0.9942741017E-03   0.0000000000E+00   0.0000000000E+00   0.2855423547E-03  -0.1315540974E-03  -0.1292556332E-04   0.0000000000E+00   0.0000000000E+00   0.0000000000E+00   0.2846125767E-01
   0.2583641634E+00   0.1414975374E+00   0.7962435686E-04  -0.7167578765E-05   0.0000000000E+00   0.0000000000E+00   0.2598568378E-01   0.9927174070E-03   0.8093520356E-02  -0.2204228121E-02   0.0000000000E+00   0.0000000000E+00   0.2325981245E-03  -0.9231043834E-04  -0.2865496558E-04   0.0000000000E+00   0.0000000000E+00   0.0000000000E+00   0.2262803701E-01
   0.2460241825E+00   0.1446347688E+00   0.7646348351E-04  -0.7822228633E-05   0.0000000000E+00   0.0000000000E+00   0.2602477619E-01   0.2675283954E-03   0.7887691375E-02  -0.2386667226E-02   0.0000000000E+00   0.0000000000E+00   0.2357821026E-03  -0.9906211873E-04  -0.3102667394E-04   0.0000000000E+00   0.0000000000E+00   0.0000000000E+00   0.2328584826E-01
   0.1917366962E+00   0.1589769708E+00   0.6100323645E-04  -0.1259322767E-04   0.0000000000E+00   0.0000000000E+00   0.2928709393E-01  -0.1662020941E-02   0.8287521898E-02  -0.1877003997E-02   0.0000000000E+00   0.0000000000E+00   0.2729944365E-03  -0.1293440569E-03  -0.2440105196E-04   0.0000000000E+00   0.0000000000E+00   0.0000000000E+00   0.2755815566E-01
   0.1945660807E+00   0.1697763681E+00   0.6038872182E-04  -0.1373590286E-04   0.0000000000E+00   0.0000000000E+00   0.2988413997E-01  -0.1632142794E-02   0.8475599152E-02  -0.1459781162E-02   0.0000000000E+00   0.0000000000E+00   0.2783110306E-03  -0.1314006453E-03  -0.1897715511E-04   0.0000000000E+00   0.0000000000E+00   0.0000000000E+00   0.2798671057E-01
   0.1798301895E+00   0.1552828805E+00   0.5822953609E-04  -0.1319148248E-04   0.0000000000E+00   0.0000000000E+00   0.2978689227E-01  -0.2336788357E-02   0.8235031174E-02  -0.1706977542E-02   0.0000000000E+00   0.0000000000E+00   0.2801741942E-03  -0.1374336539E-03  -0.2219070805E-04   0.0000000000E+00   0.0000000000E+00   0.0000000000E+00   0.2849946808E-01
   0.1010150269E+00   0.1485432408E+00   0.3507292333E-04  -0.2425723160E-04   0.0000000000E+00   0.0000000000E+00   0.3518553016E-01  -0.3717405072E-02   0.9440437527E-02   0.1569318174E-02   0.0000000000E+00   0.0000000000E+00   0.3346862043E-03  -0.1710519538E-03   0.2040113626E-04   0.0000000000E+00   0.0000000000E+00   0.0000000000E+00   0.3437432205E-01
   0.2004594602E+00   0.7797733729E-01   0.7530519088E-04  -0.3166109539E-05   0.0000000000E+00   0.0000000000E+00   0.1869537196E-01  -0.2076011440E-03   0.5546331243E-02  -0.4983050604E-02   0.0000000000E+00   0.0000000000E+00   0.1709375293E-03  -0.7480112104E-04  -0.6477965785E-04   0.0000000000E+00   0.0000000000E+00   0.0000000000E+00   0.1886358866E-01
   0.2114213462E+00   0.1146646552E+00   0.7206719307E-04  -0.6112763399E-05   0.0000000000E+00   0.0000000000E+00   0.2376446282E-01  -0.8269805355E-03   0.6881244686E-02  -0.3818638003E-02   0.0000000000E+00   0.0000000000E+00   0.2194818358E-03  -0.1002069279E-03  -0.4964229403E-04   0.0000000000E+00   0.0000000000E+00   0.0000000000E+00   0.2275987079E-01
   0.2066512424E+00   0.9689081470E-01   0.7361344777E-04  -0.4581998317E-05   0.0000000000E+00   0.0000000000E+00   0.2151458326E-01  -0.7043195955E-03   0.6243079100E-02  -0.4495381794E-02   0.0000000000E+00   0.0000000000E+00   0.1985295541E-03  -0.9031618304E-04  -0.5843996332E-04   0.0000000000E+00   0.0000000000E+00   0.0000000000E+00   0.2115933632E-01
   0.8996470476E-01   0.1039797141E+00   0.4247775646E-04  -0.1884291655E-04   0.0000000000E+00   0.0000000000E+00   0.3443891183E-01  -0.4093365860E-02   0.9103663791E-02  -0.3992743767E-02   0.0000000000E+00   0.0000000000E+00   0.3293582245E-03  -0.1715613855E-03  -0.5190566897E-04   0.0000000000E+00   0.0000000000E+00   0.0000000000E+00   0.3431140813E-01
   0.1245350540E+00   0.8337856952E-01   0.5925404604E-04  -0.8619079452E-05   0.0000000000E+00   0.0000000000E+00   0.2213101844E-01  -0.6828808190E-02   0.4590663076E-02  -0.7120867223E-02   0.0000000000E+00   0.0000000000E+00   0.2280246198E-03  -0.1484531264E-03  -0.9257127390E-04   0.0000000000E+00   0.0000000000E+00   0.0000000000E+00   0.2807270135E-01
   0.1087992855E+00   0.1151750132E+00   0.4498549426E-04  -0.1663280581E-04   0.0000000000E+00   0.0000000000E+00   0.3223734432E-01  -0.5920159019E-02   0.7895155591E-02  -0.3057165412E-02   0.0000000000E+00   0.0000000000E+00   0.3164484535E-03  -0.1795990899E-03  -0.3974315036E-04   0.0000000000E+00   0.0000000000E+00   0.0000000000E+00   0.3392908901E-01
   0.2438940653E+00   0.1279833947E+00   0.7761527264E-04  -0.6299315114E-05   0.0000000000E+00   0.0000000000E+00   0.2436881587E-01   0.4064497697E-03   0.7432579692E-02  -0.2830567646E-02   0.0000000000E+00   0.0000000000E+00   0.2201710703E-03  -0.9133968899E-04  -0.3679737939E-04   0.0000000000E+00   0.0000000000E+00   0.0000000000E+00   0.2188698942E-01
   0.1989489624E+00   0.1517305066E+00   0.6390942272E-04  -0.1108737186E-04   0.0000000000E+00   0.0000000000E+00   0.2828910609E-01  -0.1760659486E-02   0.7958533980E-02  -0.2282012542E-02   0.0000000000E+00   0.0000000000E+00   0.2642974374E-03  -0.1263495151E-03  -0.2966616304E-04   0.0000000000E+00   0.0000000000E+00   0.0000000000E+00   0.2684694985E-01
   0.2054364516E+00   0.1444260428E+00   0.6657660111E-04  -0.9735160343E-05   0.0000000000E+00   0.0000000000E+00   0.2732179400E-01  -0.1617591069E-02   0.7711260878E-02  -0.2672979523E-02   0.0000000000E+00   0.0000000000E+00   0.2549369305E-03  -0.1212750753E-03  -0.3474873380E-04   0.0000000000E+00   0.0000000000E+00   0.0000000000E+00   0.2599976415E-01
   0.1924627185E+00   0.1008151239E+00   0.7008648365E-04  -0.5492129963E-05   0.0000000000E+00   0.0000000000E+00   0.2249924190E-01  -0.1749935482E-02   0.6224791926E-02  -0.4729077050E-02   0.0000000000E+00   0.0000000000E+00   0.2115678497E-03  -0.1036714563E-03  -0.6147800165E-04   0.0000000000E+00   0.0000000000E+00   0.0000000000E+00   0.2290285155E-01
   0.1417451431E+00   0.1242007491E+00   0.5287711363E-04  -0.1287893470E-04   0.0000000000E+00   0.0000000000E+00   0.2956661381E-01  -0.5239827023E-02   0.7298036035E-02  -0.3107317134E-02   0.0000000000E+00   0.0000000000E+00   0.2894915110E-03  -0.1629922198E-03  -0.4039512274E-04   0.0000000000E+00   0.0000000000E+00   0.0000000000E+00   0.3099768831E-01
   0.1459234972E+00   0.1118788306E+00   0.5680516558E-04  -0.1039737675E-04   0.0000000000E+00   0.0000000000E+00   0.2741967691E-01  -0.5311344587E-02   0.6632499696E-02  -0.4520252333E-02   0.0000000000E+00   0.0000000000E+00   0.2702333037E-03  -0.1552699757E-03  -0.5876328032E-04   0.0000000000E+00   0.0000000000E+00   0.0000000000E+00   0.2972019795E-01
   0.1586597831E+00   0.1176589869E+00   0.5894609992E-04  -0.9932122033E-05   0.0000000000E+00   0.0000000000E+00   0.2714964865E-01  -0.4420165676E-02   0.6818844891E-02  -0.4124815024E-02   0.0000000000E+00   0.0000000000E+00   0.2643004488E-03  -0.1461071374E-03  -0.5362259531E-04   0.0000000000E+00   0.0000000000E+00   0.0000000000E+00   0.2862663769E-01
   0.1541494644E+00   0.1313649541E+00   0.5499144681E-04  -0.1247492150E-04   0.0000000000E+00   0.0000000000E+00   0.2898998779E-01  -0.4632983762E-02   0.7307101210E-02  -0.2970149094E-02   0.0000000000E+00   0.0000000000E+00   0.2818775256E-03  -0.1552211046E-03  -0.3861193822E-04   0.0000000000E+00   0.0000000000E+00   0.0000000000E+00   0.2992416667E-01
   0.1638194103E+00   0.1519651969E+00   0.5418826213E-04  -0.1444307832E-04   0.0000000000E+00   0.0000000000E+00   0.3040681129E-01  -0.3058947381E-02   0.8204359173E-02  -0.1506946818E-02   0.0000000000E+00   0.0000000000E+00   0.2886318775E-03  -0.1464229852E-03  -0.1959030864E-04   0.0000000000E+00   0.0000000000E+00   0.0000000000E+00   0.2959458414E-01
   0.1114301962E+00   0.1549250292E+00   0.3751218567E-04  -0.2321981897E-04   0.0000000000E+00   0.0000000000E+00   0.3480111981E-01  -0.3308496412E-02   0.9447787018E-02   0.1646542864E-02   0.0000000000E+00   0.0000000000E+00   0.3295933262E-03  -0.1658316846E-03   0.2140505724E-04   0.0000000000E+00   0.0000000000E+00   0.0000000000E+00   0.3369686839E-01
   0.1373083684E+00   0.1347286157E+00   0.4939144433E-04  -0.1526834020E-04   0.0000000000E+00   0.0000000000E+00   0.3232209202E-01  -0.4474279960E-02   0.8354343617E-02  -0.1734766346E-02   0.0000000000E+00   0.0000000000E+00   0.3115807292E-03  -0.1667721065E-03  -0.2255196250E-04   0.0000000000E+00   0.0000000000E+00   0.0000000000E+00   0.3245817144E-01
   0.1805585782E+00   0.1056478796E+00   0.6662424212E-04  -0.6643374937E-05   0.0000000000E+00   0.0000000000E+00   0.2350622128E-01  -0.3002038944E-02   0.6151254702E-02  -0.4921352145E-02   0.0000000000E+00   0.0000000000E+00   0.2256145656E-03  -0.1189928174E-03  -0.6397757788E-04   0.0000000000E+00   0.0000000000E+00   0.0000000000E+00   0.2482034637E-01
   0.1510314545E+00   0.1000284992E+00   0.6090653366E-04  -0.8106772622E-05   0.0000000000E+00   0.0000000000E+00   0.2438131385E-01  -0.4933639629E-02   0.5834302267E-02  -0.5577432542E-02   0.0000000000E+00   0.0000000000E+00   0.2411111506E-03  -0.1399832446E-03  -0.7250662305E-04   0.0000000000E+00   0.0000000000E+00   0.0000000000E+00   0.2742257393E-01
   0.1381608451E+00   0.9238915065E-01   0.5975906191E-04  -0.8300754298E-05   0.0000000000E+00   0.0000000000E+00   0.2395190082E-01  -0.5953940286E-02   0.5399388161E-02  -0.6379623928E-02   0.0000000000E+00   0.0000000000E+00   0.2411826646E-03  -0.1475932698E-03  -0.8293511106E-04   0.0000000000E+00   0.0000000000E+00   0.0000000000E+00   0.2835387177E-01
   0.1558249976E+00   0.9053950216E-01   0.6427763313E-04  -0.6465044649E-05   0.0000000000E+00   0.0000000000E+00   0.2170931948E-01  -0.5073691262E-02   0.4990688465E-02  -0.6590863813E-02   0.0000000000E+00   0.0000000000E+00   0.2173422032E-03  -0.1308369364E-03  -0.8568122957E-04   0.0000000000E+00   0.0000000000E+00   0.0000000000E+00   0.2603222738E-01
   0.1273062763E+00   0.1185562997E+00   0.4989733071E-04  -0.1402033992E-04   0.0000000000E+00   0.0000000000E+00   0.3105436182E-01  -0.5748057727E-02   0.7591891227E-02  -0.3275015618E-02   0.0000000000E+00   0.0000000000E+00   0.3050121177E-03  -0.1734193364E-03  -0.4257520303E-04   0.0000000000E+00   0.0000000000E+00   0.0000000000E+00   0.3273140894E-01
   0.1259855807E+00   0.1331203664E+00   0.4616668466E-04  -0.1678555818E-04   0.0000000000E+00   0.0000000000E+00   0.3208346002E-01  -0.5249384372E-02   0.8050222695E-02  -0.1592818799E-02   0.0000000000E+00   0.0000000000E+00   0.3124320852E-03  -0.1728948919E-03  -0.2070664438E-04   0.0000000000E+00   0.0000000000E+00   0.0000000000E+00   0.3289144362E-01
   0.1144814116E+00   0.1296994177E+00   0.4327255450E-04  -0.1823027997E-04   0.0000000000E+00   0.0000000000E+00   0.3264051914E-01  -0.6094471186E-02   0.7963814385E-02  -0.1365434855E-02   0.0000000000E+00   0.0000000000E+00   0.3207971618E-03  -0.1827577124E-03  -0.1775065312E-04   0.0000000000E+00   0.0000000000E+00   0.0000000000E+00   0.3398463885E-01
   0.2290500353E+00   0.1294837708E+00   0.7412825571E-04  -0.6917238165E-05   0.0000000000E+00   0.0000000000E+00   0.2492913382E-01  -0.2021076449E-03   0.7418107854E-02  -0.3033863089E-02   0.0000000000E+00   0.0000000000E+00   0.2276433376E-03  -0.9906280148E-04  -0.3944022015E-04   0.0000000000E+00   0.0000000000E+00   0.0000000000E+00   0.2292509657E-01
   0.2011975508E+00   0.1332287001E+00   0.6707083804E-04  -0.8646911476E-05   0.0000000000E+00   0.0000000000E+00   0.2647666604E-01  -0.1532133764E-02   0.7483359683E-02  -0.3147418782E-02   0.0000000000E+00   0.0000000000E+00   0.2469129826E-03  -0.1172014148E-03  -0.4091644417E-04   0.0000000000E+00   0.0000000000E+00   0.0000000000E+00   0.2535242792E-01
   0.1975856296E+00   0.1181023566E+00   0.6844356555E-04  -0.7115359001E-05   0.0000000000E+00   0.0000000000E+00   0.2481490327E-01  -0.1722710072E-02   0.6927657958E-02  -0.3902950987E-02   0.0000000000E+00   0.0000000000E+00   0.2325341890E-03  -0.1124547844E-03  -0.5073836284E-04   0.0000000000E+00   0.0000000000E+00   0.0000000000E+00   0.2439188141E-01
   0.2149769087E+00   0.1311508778E+00   0.7066372763E-04  -0.7683186389E-05   0.0000000000E+00   0.0000000000E+00   0.2548298689E-01  -0.9408404573E-03   0.7362643931E-02  -0.3184627204E-02   0.0000000000E+00   0.0000000000E+00   0.2355644585E-03  -0.1079452971E-03  -0.4140015365E-04   0.0000000000E+00   0.0000000000E+00   0.0000000000E+00   0.2404231822E-01
   0.1086296171E+00   0.1384936744E+00   0.3948411807E-04  -0.2093359380E-04   0.0000000000E+00   0.0000000000E+00   0.3460148822E-01  -0.4751596625E-02   0.8954967478E-02  -0.1802942791E-04   0.0000000000E+00   0.0000000000E+00   0.3334047696E-03  -0.1781853333E-03  -0.2343825628E-06   0.0000000000E+00   0.0000000000E+00   0.0000000000E+00   0.3458164630E-01
   0.1687991437E+00   0.1364822524E+00   0.5814066663E-04  -0.1163860653E-04   0.0000000000E+00   0.0000000000E+00   0.2862712960E-01  -0.3661639549E-02   0.7489647016E-02  -0.2763772693E-02   0.0000000000E+00   0.0000000000E+00   0.2747872736E-03  -0.1449667253E-03  -0.3592904501E-04   0.0000000000E+00   0.0000000000E+00   0.0000000000E+00   0.2879623059E-01
   0.1863584193E+00   0.1396153853E+00   0.6234332283E-04  -0.1047667495E-04   0.0000000000E+00   0.0000000000E+00   0.2779605026E-01  -0.2513712535E-02   0.7584701319E-02  -0.2801950146E-02   0.0000000000E+00   0.0000000000E+00   0.2627475363E-03  -0.1312793801E-03  -0.3642535189E-04   0.0000000000E+00   0.0000000000E+00   0.0000000000E+00   0.2716128396E-01
   0.1627045378E+00   0.1046974384E+00   0.6269980322E-04  -0.7753604266E-05   0.0000000000E+00   0.0000000000E+00   0.2520776187E-01  -0.3840436370E-02   0.6410197650E-02  -0.4944017968E-02   0.0000000000E+00   0.0000000000E+00   0.2443683348E-03  -0.1332582423E-03  -0.6427223359E-04   0.0000000000E+00   0.0000000000E+00   0.0000000000E+00   0.2687500752E-01
   0.1844455620E+00   0.1214575098E+00   0.6476196547E-04  -0.8315181976E-05   0.0000000000E+00   0.0000000000E+00   0.2585178757E-01  -0.2568741990E-02   0.6984913675E-02  -0.3812028285E-02   0.0000000000E+00   0.0000000000E+00   0.2452693607E-03  -0.1241975236E-03  -0.4955636770E-04   0.0000000000E+00   0.0000000000E+00   0.0000000000E+00   0.2588954540E-01
   0.1716055042E+00   0.1218039853E+00   0.6150317536E-04  -0.9326672378E-05   0.0000000000E+00   0.0000000000E+00   0.2654736638E-01  -0.3578700465E-02   0.6890599775E-02  -0.3843182585E-02   0.0000000000E+00   0.0000000000E+00   0.2555379659E-03  -0.1361009031E-03  -0.4996137361E-04   0.0000000000E+00   0.0000000000E+00   0.0000000000E+00   0.2730236964E-01
   0.1156614695E+00   0.9813228667E-01   0.5218848362E-04  -0.1238612799E-04   0.0000000000E+00   0.0000000000E+00   0.2747275648E-01  -0.6890825780E-02   0.6174579210E-02  -0.5661851971E-02   0.0000000000E+00   0.0000000000E+00   0.2768763045E-03  -0.1698502649E-03  -0.7360407562E-04   0.0000000000E+00   0.0000000000E+00   0.0000000000E+00   0.3157530971E-01
   0.1314740439E+00   0.1053037866E+00   0.5448988158E-04  -0.1114638387E-04   0.0000000000E+00   0.0000000000E+00   0.2782268314E-01  -0.6192407997E-02   0.6489082542E-02  -0.4966566726E-02   0.0000000000E+00   0.0000000000E+00   0.2773368077E-03  -0.1648593770E-03  -0.6456536744E-04   0.0000000000E+00   0.0000000000E+00   0.0000000000E+00   0.3094234931E-01
   0.1719096448E+00   0.1103343967E+00   0.6374678220E-04  -0.7800280448E-05   0.0000000000E+00   0.0000000000E+00   0.2425721975E-01  -0.3712397554E-02   0.6163446660E-02  -0.4722173163E-02   0.0000000000E+00   0.0000000000E+00   0.2352190502E-03  -0.1283859748E-03  -0.6138825113E-04   0.0000000000E+00   0.0000000000E+00   0.0000000000E+00   0.2588765410E-01
           1           2           3           4
           5           6           7           8
           9          10          11          12
          13          14          15          16
          17          18          19          20
          21          22          23          24
          25          26          27          28
          29          30          31          32
          33          34           4           3
           2           1          35          36
          37          38          39          40
          41          42          36          35
          43          41          44          45
          46           9          47          48
          41          35          39          44
          49          50          51          52
          52          51          53          54
          55          56          57          58
          56          59          60          57
          61          62          63          64
          65          66          67          68
          69          70          71          72
          73          74          25          28
          27          75          76          28
          77          78          24          23
          79          80          81          82
          83          84          85          86
          87          88          89          90
          90          89          62          91
          61          92          91          62
          92          61          59          93
          56          94          93          59
          95          55          54          53
          46          96          10           9
          97          98          99         100
          12         101          98          97
          97         100         102          47
         103         104          31          30
         105         103          30         106
          73         107         108         109
         110         111         112         113
          32          31         114         115
         116         117         118         119
         120         121         122         123
         121          83          86         122
          80         124         125          81
         126         127         128         129
         130         101          12          11
         131          43         101         130
          34         129         132           4
          42          41          43         131
          35           1          40          39
         101          43          45          98
         133         134         109         108
         135         136          13          16
         137         138          65          68
          94          56          55          95
          58         137          54          55
          49          52          68          67
         139         140         141         142
         140         139          82          81
          88          87         142         141
         143         144         145         146
         147          26          25         148
         149         150         128         151
           5           8         152         102
         132         129         128         150
         153         100          99         154
          48          47         102         152
          59          61          64          60
         106         155         113         118
          62          89         156          63
          88         157         156          89
         123         116         119         120
          66          65         134         133
         144         143          84          83
           9          12          97          47
         104         158         114          31
         159         160         127         126
         119         112         161         120
         117         105         106         118
         162         163         164         165
          83         121         166         144
         167         168         141         140
         167         143         146         168
           6         114         158           7
          38          37         169         170
          40         132         150          37
         160         159          20          19
          78         171         172          24
          18          17          21          24
         173         174          78          77
         132          40           1           4
          28          76         107          73
         175         176         177         178
         176         179          57          60
         137          68          52          54
          60          64         177         176
         163         162         155          29
          75          27         174         173
         180         174          27          26
          64          63         181         177
          98          45         182          99
         183         182          45          44
          38         183          44          39
          58          57         179         184
         185         181          63         156
         134         186         187         109
         188          74         187         189
         138         186         134          65
          88         141         168         157
         166         121         120         161
         190         191         166         161
         155         106          30          29
         192         193         194         195
         118         113         112         119
         125          84         143         167
         124          85          84         125
           6         196         115         114
         196           6           5         153
         197          32         115         198
         111         190         161         112
         199         148         188         135
         170         169         200         201
         202         164         163         197
         203         204         146         145
         205         206         201         200
         187          74          73         109
         176         175         207         179
         208         209          16          15
         210         186         138         184
         184         138         137          58
         179         207         210         184
         211         212         172         171
          78         174         180         171
         125         167         140          81
          37         150         149         169
         213         214         215         216
         217         182         183         201
         170         201         183          38
         218         219         206         205
         111         220         221         190
         157         168         146         204
         177         181         222         178
         222         181         185         223
         186         210         189         187
         224         191         190         221
         100         153           5         102
         185         156         157         204
         113         155         162         110
          26         147         193         180
          29          32         197         163
         225         226          19          18
         144         166         191         145
         212         192         227         228
         198         115         196         229
         206         154         217         201
         153         154         229         196
         172         225          18          24
         148          25          74         188
          14          13         175         178
         207         175          13         136
         189         136         135         188
         230         202         197         198
         210         207         136         189
         165         164         231         232
         169         149         233         200
         234         160          19         226
         217         154          99         182
         203         145         191         224
         151         235         233         149
         236         223         203         224
         185         204         203         223
         178         222         237          14
         110         162         165         238
         239         223         236         240
         238         220         111         110
         219         230         198         229
         241         242         232         243
         242          69         220         238
          72          71         240         236
         244         205         200         233
         215         231         164         202
         211         171         180         193
         228         225         172         212
         194         193         147         245
         245         147         148         199
         135          16         209         199
         209         208         246         247
         127         160         234         248
         193         192         212         211
         226         225         228         249
         151         128         127         248
         248         250         235         151
          72         221         220          69
          14         237         251          15
          70          69         252         253
         206         219         229         154
         238         165         232         242
          72         236         224         221
         216         215         202         230
         245         247         254         194
         255         256         257         258
         230         219         218         216
         214         259         231         215
         216         218         260         213
         261         255         258         214
         239         237         222         223
         194         254         262         195
         263         264         227         265
         250         266         267         268
         199         209         247         245
         240          71         269         251
         270         271         246         272
         260         244         273         213
         237         239         240         251
         218         205         244         260
          70         272         269          71
         232         231         259         243
         274         275         243         259
         257         256         263         276
         277         275         274         278
         234         226         249         279
         271         277         262         254
         271         254         247         246
         246         208         269         272
         244         233         235         273
         251         269         208          15
         275         270         253         252
         234         279         250         248
         279         249         264         280
         259         214         258         274
         262         281         276         195
         195         276         263         265
         257         276         281         278
         278         274         258         257
         266         280         256         255
         261         214         213         267
         267         266         255         261
         266         250         279         280
         228         227         264         249
         256         280         264         263
         265         227         192         195
         281         262         277         278
         235         250         268         273
         273         268         267         213
         277         271         270         275
         253         270         272          70
         252          69         242         241
         243         275         252         241
 VARIABLES = X,Y,DU1,DU2,U1,U2,S11,S22,S33,S12,S13,S23,E11,E22,E12,E33,E13,E23,SMISES
 ZONE, T="0.2000D+01" F=FEPOINT, I=  281 J=  250
   0.1776900692E-01   0.1341601136E+00   0.6995108697E-05  -0.3884119502E-04   0.6995108697E-05  -0.3884119502E-04   0.9486038755E-01   0.1818979851E-01   0.3391505582E-01   0.1451245457E-02   0.0000000000E+00   0.0000000000E+00   0.7922893125E-03  -0.2044283450E-03   0.1886619094E-04   0.0000000000E+00   0.0000000000E+00   0.0000000000E+00   0.6978961666E-01
   0.0000000000E+00   0.1332540481E+00   0.0000000000E+00  -0.3964596163E-04   0.0000000000E+00  -0.3964596163E-04   0.9545868452E-01   0.1896260768E-01   0.3432638766E-01   0.2452095166E-02   0.0000000000E+00   0.0000000000E+00   0.7947198592E-03  -0.1997291398E-03   0.3187723716E-04   0.0000000000E+00   0.0000000000E+00   0.0000000000E+00   0.7023421542E-01
   0.0000000000E+00   0.1165918183E+00   0.0000000000E+00  -0.3742435212E-04   0.0000000000E+00  -0.3742435212E-04   0.1196586991E+00   0.7999398200E-02   0.3829742920E-01   0.1950821633E-02   0.0000000000E+00   0.0000000000E+00   0.1057696509E-02  -0.3938744030E-03   0.2536068123E-04   0.0000000000E+00   0.0000000000E+00   0.0000000000E+00   0.9975912959E-01
   0.1917379617E-01   0.1162183471E+00   0.9829582524E-05  -0.3642042832E-04   0.9829582524E-05  -0.3642042832E-04   0.1093240281E+00   0.7679753201E-02   0.3510113440E-01  -0.9723606699E-02   0.0000000000E+00   0.0000000000E+00   0.9648976184E-03  -0.3564779555E-03  -0.1264068871E-03   0.0000000000E+00   0.0000000000E+00   0.0000000000E+00   0.9305718633E-01
   0.7803849707E-01   0.2317953750E+00   0.1849893641E-04  -0.4051400749E-04   0.1849893641E-04  -0.4051400749E-04   0.5817815019E-01   0.3028706237E-04   0.1746253118E-01   0.4030082831E-02   0.0000000000E+00   0.0000000000E+00   0.5293030472E-03  -0.2266191735E-03   0.5239107681E-04   0.0000000000E+00   0.0000000000E+00   0.0000000000E+00   0.5217844270E-01
   0.9782573034E-01   0.2319814165E+00   0.2386522070E-04  -0.3692275069E-04   0.2386522070E-04  -0.3692275069E-04   0.6149259660E-01  -0.3005372072E-03   0.1835761782E-01   0.3670727611E-02   0.0000000000E+00   0.0000000000E+00   0.5607547242E-03  -0.2425560153E-03   0.4771945894E-04   0.0000000000E+00   0.0000000000E+00   0.0000000000E+00   0.5528292740E-01
   0.9726413633E-01   0.2499216702E+00   0.2095621536E-04  -0.3916492128E-04   0.2095621536E-04  -0.3916492128E-04   0.5998231867E-01  -0.3052465310E-03   0.1790312164E-01   0.1261080319E-02   0.0000000000E+00   0.0000000000E+00   0.5470295613E-03  -0.2367087862E-03   0.1639404415E-04   0.0000000000E+00   0.0000000000E+00   0.0000000000E+00   0.5354146944E-01
   0.7780954662E-01   0.2499149112E+00   0.1588301032E-04  -0.4254439680E-04   0.1588301032E-04  -0.4254439680E-04   0.5428320337E-01  -0.5430284050E-03   0.1612205249E-01   0.1401000553E-02   0.0000000000E+00   0.0000000000E+00   0.4960949614E-03  -0.2166460516E-03   0.1821300719E-04   0.0000000000E+00   0.0000000000E+00   0.0000000000E+00   0.4867450707E-01
   0.1910656441E-01   0.2332263951E+00   0.4186906655E-05  -0.4821695311E-04   0.4186906655E-05  -0.4821695311E-04   0.4929919332E-01   0.1377067154E-02   0.1520287814E-01   0.1162257147E-02   0.0000000000E+00   0.0000000000E+00   0.4432520973E-03  -0.1797355428E-03   0.1510934292E-04   0.0000000000E+00   0.0000000000E+00   0.0000000000E+00   0.4285083608E-01
   0.0000000000E+00   0.2332357818E+00   0.0000000000E+00  -0.4877609362E-04   0.0000000000E+00  -0.4877609362E-04   0.4850261774E-01   0.1462340330E-02   0.1498948742E-01   0.1309298930E-02   0.0000000000E+00   0.0000000000E+00   0.4356706941E-03  -0.1758529122E-03   0.1702088610E-04   0.0000000000E+00   0.0000000000E+00   0.0000000000E+00   0.4199177589E-01
   0.0000000000E+00   0.2165722127E+00   0.0000000000E+00  -0.4722813783E-04   0.0000000000E+00  -0.4722813783E-04   0.5511346607E-01   0.2806349638E-02   0.1737594471E-01   0.1341173153E-02   0.0000000000E+00   0.0000000000E+00   0.4905877776E-03  -0.1894047360E-03   0.1743525099E-04   0.0000000000E+00   0.0000000000E+00   0.0000000000E+00   0.4677868811E-01
   0.1854142549E-01   0.2166812458E+00   0.4565344514E-05  -0.4668358177E-04   0.4565344514E-05  -0.4668358177E-04   0.5565953238E-01   0.2591051643E-02   0.1747517521E-01   0.2279032398E-02   0.0000000000E+00   0.0000000000E+00   0.4963966433E-03  -0.1934936063E-03   0.2962742117E-04   0.0000000000E+00   0.0000000000E+00   0.0000000000E+00   0.4764839475E-01
   0.2573727260E+00   0.9226767869E-01   0.8362000731E-04  -0.3296152572E-05   0.8362000731E-04  -0.3296152572E-05   0.4100799832E-01   0.3855408629E-02   0.1345902208E-01  -0.5592830871E-02   0.0000000000E+00   0.0000000000E+00   0.3581366910E-03  -0.1248469749E-03  -0.7270680132E-04   0.0000000000E+00   0.0000000000E+00   0.0000000000E+00   0.3476988761E-01
   0.2587660101E+00   0.1102769050E+00   0.8236604865E-04  -0.4512505276E-05   0.8236604865E-04  -0.4512505276E-05   0.4478315607E-01   0.2855434674E-02   0.1429157722E-01  -0.5377192205E-02   0.0000000000E+00   0.0000000000E+00   0.3963905250E-03  -0.1486698531E-03  -0.6990349867E-04   0.0000000000E+00   0.0000000000E+00   0.0000000000E+00   0.3866827908E-01
   0.2420134824E+00   0.1106669709E+00   0.7897520231E-04  -0.4849041415E-05   0.7897520231E-04  -0.4849041415E-05   0.4522178954E-01   0.1546909961E-02   0.1403060985E-01  -0.6329121928E-02   0.0000000000E+00   0.0000000000E+00   0.4054853360E-03  -0.1622880986E-03  -0.8227858507E-04   0.0000000000E+00   0.0000000000E+00   0.0000000000E+00   0.4046749077E-01
   0.2395408623E+00   0.9267423896E-01   0.8036313396E-04  -0.3539770277E-05   0.8036313396E-04  -0.3539770277E-05   0.4112901114E-01   0.2481451657E-02   0.1308313884E-01  -0.6805618862E-02   0.0000000000E+00   0.0000000000E+00   0.3645963399E-03  -0.1378219334E-03  -0.8847304521E-04   0.0000000000E+00   0.0000000000E+00   0.0000000000E+00   0.3652952303E-01
   0.9253017713E-01   0.3824697805E-01   0.7111261511E-04  -0.1068227345E-04   0.7111261511E-04  -0.1068227345E-04  -0.7013034856E-02  -0.3600714702E-01  -0.1290605456E-01   0.5016212578E-02   0.0000000000E+00   0.0000000000E+00   0.7660925620E-04  -0.3003142020E-03   0.6521076352E-04   0.0000000000E+00   0.0000000000E+00   0.0000000000E+00   0.2575682110E-01
   0.1081861450E+00   0.4608505358E-01   0.6964251905E-04  -0.6743959537E-05   0.6964251905E-04  -0.6743959537E-05   0.1241244047E-01  -0.1473433033E-01  -0.6965669581E-03  -0.7478242532E-02   0.0000000000E+00   0.0000000000E+00   0.1704170966E-03  -0.1824909239E-03  -0.9721715291E-04   0.0000000000E+00   0.0000000000E+00   0.0000000000E+00   0.2563128932E-01
   0.9623415326E-01   0.6351888972E-01   0.6152843021E-04  -0.1165248961E-04   0.6152843021E-04  -0.1165248961E-04   0.2338336505E-01  -0.9001389853E-02   0.4314592559E-02  -0.1113307738E-01   0.0000000000E+00   0.0000000000E+00   0.2478940424E-03  -0.1731077714E-03  -0.1447300059E-03   0.0000000000E+00   0.0000000000E+00   0.0000000000E+00   0.3430184428E-01
   0.8327558497E-01   0.5552471287E-01   0.6431273462E-04  -0.1615541316E-04   0.6431273462E-04  -0.1615541316E-04   0.6287526972E-02  -0.8043285323E-02  -0.5267275053E-03  -0.3595646546E-02   0.0000000000E+00   0.0000000000E+00   0.8858530821E-04  -0.9771525163E-04  -0.4674340509E-04   0.0000000000E+00   0.0000000000E+00   0.0000000000E+00   0.1397061983E-01
   0.9822854680E-01   0.1949850328E-01   0.7501009803E-04  -0.5264561245E-05   0.7501009803E-04  -0.5264561245E-05  -0.7379656496E-02  -0.5618836129E-01  -0.1907040534E-01   0.7011240109E-02   0.0000000000E+00   0.0000000000E+00   0.1519797349E-03  -0.4825334274E-03   0.9114612142E-04   0.0000000000E+00   0.0000000000E+00   0.0000000000E+00   0.4348479968E-01
   0.1001533824E+00   0.0000000000E+00   0.7669068531E-04   0.0000000000E+00   0.7669068531E-04   0.0000000000E+00  -0.1005153674E-01  -0.6085898851E-01  -0.2127315758E-01  -0.3828000166E-02   0.0000000000E+00   0.0000000000E+00   0.1458810708E-03  -0.5146158021E-03  -0.4976400216E-04   0.0000000000E+00   0.0000000000E+00   0.0000000000E+00   0.4645407098E-01
   0.1209896337E+00   0.0000000000E+00   0.7815183898E-04   0.0000000000E+00   0.7815183898E-04   0.0000000000E+00   0.1505281259E-02  -0.1925569311E-01  -0.5325123555E-02  -0.4108205949E-02   0.0000000000E+00   0.0000000000E+00   0.8879526259E-04  -0.1810974042E-03  -0.5340667734E-04   0.0000000000E+00   0.0000000000E+00   0.0000000000E+00   0.1937549999E-01
   0.1218825328E+00   0.2610744562E-01   0.7583442070E-04  -0.2431542051E-05   0.7583442070E-04  -0.2431542051E-05   0.5897826447E-02  -0.1859713683E-01  -0.3809793116E-02  -0.4930557949E-02   0.0000000000E+00   0.0000000000E+00   0.1261990543E-03  -0.1922354683E-03  -0.6409725333E-04   0.0000000000E+00   0.0000000000E+00   0.0000000000E+00   0.2436049770E-01
   0.2107072789E+00   0.3763137951E-01   0.8156992776E-04  -0.9266450683E-06   0.8156992776E-04  -0.9266450683E-06   0.2671137602E-01   0.4054850260E-02   0.9229867884E-02  -0.6209734169E-02   0.0000000000E+00   0.0000000000E+00   0.2272596058E-03  -0.6727522910E-04  -0.8072654420E-04   0.0000000000E+00   0.0000000000E+00   0.0000000000E+00   0.2312942488E-01
   0.1906164944E+00   0.3838042221E-01   0.7929222066E-04  -0.1039095662E-05   0.7929222066E-04  -0.1039095662E-05   0.2412439162E-01   0.1526743079E-02   0.7695340409E-02  -0.7991975132E-02   0.0000000000E+00   0.0000000000E+00   0.2135776657E-03  -0.8019176530E-04  -0.1038956767E-03   0.0000000000E+00   0.0000000000E+00   0.0000000000E+00   0.2440427293E-01
   0.1868693393E+00   0.1901203624E-01   0.8059366394E-04  -0.4421810457E-06   0.8059366394E-04  -0.4421810457E-06   0.1906989885E-01   0.2479422717E-02   0.6464796471E-02  -0.3944770624E-02   0.0000000000E+00   0.0000000000E+00   0.1638663310E-03  -0.5180985880E-04  -0.5128201812E-04   0.0000000000E+00   0.0000000000E+00   0.0000000000E+00   0.1665121475E-01
   0.2073971684E+00   0.1873722952E-01   0.8244318411E-04  -0.3971898792E-06   0.8244318411E-04  -0.3971898792E-06   0.2320604727E-01   0.4716123698E-02   0.8376651289E-02  -0.3110928424E-02   0.0000000000E+00   0.0000000000E+00   0.1927821477E-03  -0.4758685869E-04  -0.4044206951E-04   0.0000000000E+00   0.0000000000E+00   0.0000000000E+00   0.1787936642E-01
   0.1575107779E+00   0.2159085169E+00   0.4371544168E-04  -0.2446553376E-04   0.4371544168E-04  -0.2446553376E-04   0.6646455530E-01  -0.1451373682E-02   0.1950395449E-01   0.1754880116E-02   0.0000000000E+00   0.0000000000E+00   0.6104878106E-03  -0.2724192662E-03   0.2281344151E-04   0.0000000000E+00   0.0000000000E+00   0.0000000000E+00   0.6030933888E-01
   0.1565352596E+00   0.2325517730E+00   0.4129432021E-04  -0.2686449964E-04   0.4129432021E-04  -0.2686449964E-04   0.6804729822E-01  -0.6967964496E-03   0.2020515053E-01   0.1107881781E-02   0.0000000000E+00   0.0000000000E+00   0.6219479199E-03  -0.2717253107E-03   0.1440246316E-04   0.0000000000E+00   0.0000000000E+00   0.0000000000E+00   0.6107506791E-01
   0.1370499539E+00   0.2325702531E+00   0.3529146640E-04  -0.2994046399E-04   0.3529146640E-04  -0.2994046399E-04   0.6664530831E-01  -0.6986971634E-03   0.1978398334E-01   0.1977837305E-02   0.0000000000E+00   0.0000000000E+00   0.6091972245E-03  -0.2662748466E-03   0.2571188497E-04   0.0000000000E+00   0.0000000000E+00   0.0000000000E+00   0.5990044135E-01
   0.1382908802E+00   0.2157578172E+00   0.3788511910E-04  -0.2747788619E-04   0.3788511910E-04  -0.2747788619E-04   0.6596726396E-01  -0.1618515545E-02   0.1930462452E-01   0.3247163340E-02   0.0000000000E+00   0.0000000000E+00   0.6066143126E-03  -0.2720008209E-03   0.4221312342E-04   0.0000000000E+00   0.0000000000E+00   0.0000000000E+00   0.6017921429E-01
   0.0000000000E+00   0.9993361549E-01   0.0000000000E+00  -0.3319275520E-04   0.0000000000E+00  -0.3319275520E-04   0.1840086592E+00   0.1692309978E-01   0.6027952769E-01   0.2176971249E-02   0.0000000000E+00   0.0000000000E+00   0.1608478710E-02  -0.5636335629E-03   0.2830062624E-04   0.0000000000E+00   0.0000000000E+00   0.0000000000E+00   0.1485944959E+00
   0.1953992715E-01   0.9801412837E-01   0.1544737453E-04  -0.3219911729E-04   0.1544737453E-04  -0.3219911729E-04   0.1690271401E+00   0.1600620081E-01   0.5551000227E-01  -0.2537544773E-01   0.0000000000E+00   0.0000000000E+00   0.1475722792E-02  -0.5135494190E-03  -0.3298808205E-03   0.0000000000E+00   0.0000000000E+00   0.0000000000E+00   0.1430955249E+00
   0.1681047187E-01   0.1512554618E+00   0.5706535176E-05  -0.4062660207E-04   0.5706535176E-05  -0.4062660207E-04   0.8064590491E-01   0.1351388477E-01   0.2824793690E-01   0.2481697150E-02   0.0000000000E+00   0.0000000000E+00   0.6811735841E-03  -0.1915426777E-03   0.3226206295E-04   0.0000000000E+00   0.0000000000E+00   0.0000000000E+00   0.6151424830E-01
   0.0000000000E+00   0.1499176110E+00   0.0000000000E+00  -0.4119750748E-04   0.0000000000E+00  -0.4119750748E-04   0.8150917670E-01   0.1536969497E-01   0.2906366150E-01   0.1898495222E-02   0.0000000000E+00   0.0000000000E+00   0.6817916976E-03  -0.1780215649E-03   0.2468043788E-04   0.0000000000E+00   0.0000000000E+00   0.0000000000E+00   0.6051154479E-01
   0.5109259104E-01   0.1386017442E+00   0.1914046851E-04  -0.3394788473E-04   0.1914046851E-04  -0.3394788473E-04   0.8315292320E-01   0.5102044517E-02   0.2647649031E-01   0.4332221313E-02   0.0000000000E+00   0.0000000000E+00   0.7367936275E-03  -0.2778677954E-03   0.5631887707E-04   0.0000000000E+00   0.0000000000E+00   0.0000000000E+00   0.7020045784E-01
   0.4907991350E-01   0.1539872837E+00   0.1650485225E-04  -0.3634614103E-04   0.1650485225E-04  -0.3634614103E-04   0.7736329578E-01   0.5882770830E-02   0.2497381998E-01   0.6747874383E-02   0.0000000000E+00   0.0000000000E+00   0.6810631853E-03  -0.2481836390E-03   0.8772236698E-04   0.0000000000E+00   0.0000000000E+00   0.0000000000E+00   0.6519507258E-01
   0.3319787011E-01   0.1526586952E+00   0.1120270566E-04  -0.3887989452E-04   0.1120270566E-04  -0.3887989452E-04   0.7943963281E-01   0.1026992959E-01   0.2691286872E-01   0.5169771795E-02   0.0000000000E+00   0.0000000000E+00   0.6828479332E-03  -0.2163582087E-03   0.6720703334E-04   0.0000000000E+00   0.0000000000E+00   0.0000000000E+00   0.6352440547E-01
   0.3439805117E-01   0.1356662714E+00   0.1328728485E-04  -0.3675829144E-04   0.1328728485E-04  -0.3675829144E-04   0.8773099109E-01   0.1081869568E-01   0.2956490603E-01   0.5116069748E-02   0.0000000000E+00   0.0000000000E+00   0.7561591057E-03  -0.2437007345E-03   0.6650890673E-04   0.0000000000E+00   0.0000000000E+00   0.0000000000E+00   0.6877334479E-01
   0.1669495862E-01   0.1677188406E+00   0.5146158594E-05  -0.4214870292E-04   0.5146158594E-05  -0.4214870292E-04   0.7302070025E-01   0.1136472689E-01   0.2531562814E-01   0.3025705759E-02   0.0000000000E+00   0.0000000000E+00   0.6201659374E-03  -0.1813617162E-03   0.3933417486E-04   0.0000000000E+00   0.0000000000E+00   0.0000000000E+00   0.5629828577E-01
   0.0000000000E+00   0.1665813922E+00   0.0000000000E+00  -0.4263990217E-04   0.0000000000E+00  -0.4263990217E-04   0.7307104831E-01   0.1232532204E-01   0.2561891111E-01   0.1618487935E-02   0.0000000000E+00   0.0000000000E+00   0.6168777837E-03  -0.1728166578E-03   0.2104034316E-04   0.0000000000E+00   0.0000000000E+00   0.0000000000E+00   0.5532677454E-01
   0.1710125311E-01   0.1840382598E+00   0.4895355700E-05  -0.4363409146E-04   0.4895355700E-05  -0.4363409146E-04   0.6670770201E-01   0.7985729560E-02   0.2240802947E-01   0.2966283360E-02   0.0000000000E+00   0.0000000000E+00   0.5758957430E-03  -0.1874898988E-03   0.3856168367E-04   0.0000000000E+00   0.0000000000E+00   0.0000000000E+00   0.5334186397E-01
   0.3341115236E-01   0.1685258402E+00   0.1032078073E-04  -0.4052590440E-04   0.1032078073E-04  -0.4052590440E-04   0.7245776807E-01   0.8275386465E-02   0.2421994636E-01   0.6441456392E-02   0.0000000000E+00   0.0000000000E+00   0.6270916823E-03  -0.2072792787E-03   0.8373893310E-04   0.0000000000E+00   0.0000000000E+00   0.0000000000E+00   0.5880404117E-01
   0.3453319071E-01   0.1841952161E+00   0.9944307253E-05  -0.4200844510E-04   0.9944307253E-05  -0.4200844510E-04   0.6691595035E-01   0.6052472766E-02   0.2189052694E-01   0.6220773277E-02   0.0000000000E+00   0.0000000000E+00   0.5853305044E-03  -0.2058947042E-03   0.8087005260E-04   0.0000000000E+00   0.0000000000E+00   0.0000000000E+00   0.5574434561E-01
   0.1945144982E-01   0.2499007516E+00   0.3502358286E-05  -0.4962417774E-04   0.3502358286E-05  -0.4962417774E-04   0.3986755801E-01  -0.1204849319E-02   0.1159881261E-01   0.2206491926E-03   0.0000000000E+00   0.0000000000E+00   0.3674936903E-03  -0.1664476051E-03   0.2868439504E-05   0.0000000000E+00   0.0000000000E+00   0.0000000000E+00   0.3645953334E-01
   0.3849500591E-01   0.2328512225E+00   0.8595105215E-05  -0.4652877048E-04   0.8595105215E-05  -0.4652877048E-04   0.5150379875E-01   0.1068073853E-02   0.1577156178E-01   0.2924647235E-02   0.0000000000E+00   0.0000000000E+00   0.4645190806E-03  -0.1911453431E-03   0.3802041405E-04   0.0000000000E+00   0.0000000000E+00   0.0000000000E+00   0.4523999117E-01
   0.3890332052E-01   0.2499039156E+00   0.7215112174E-05  -0.4804222306E-04   0.7215112174E-05  -0.4804222306E-04   0.4339059154E-01  -0.1037858017E-02   0.1270582006E-01   0.1111674476E-02   0.0000000000E+00   0.0000000000E+00   0.3989020293E-03  -0.1786678150E-03   0.1445176818E-04   0.0000000000E+00   0.0000000000E+00   0.0000000000E+00   0.3943299093E-01
   0.3293611406E+00   0.0000000000E+00   0.9722979590E-04   0.0000000000E+00   0.9722979590E-04   0.0000000000E+00   0.3321123289E-01   0.9574755733E-02   0.1283579659E-01  -0.9634230529E-04   0.0000000000E+00   0.0000000000E+00   0.2648806719E-03  -0.4239353109E-04  -0.1252449969E-05   0.0000000000E+00   0.0000000000E+00   0.0000000000E+00   0.2218582179E-01
   0.3501999940E+00   0.0000000000E+00   0.1000000000E-03   0.0000000000E+00   0.1000000000E-03   0.0000000000E+00   0.3340551901E-01   0.9631881573E-02   0.1291122017E-01  -0.5935160810E-06   0.0000000000E+00   0.0000000000E+00   0.2664258848E-03  -0.4263140182E-04  -0.7715709053E-08   0.0000000000E+00   0.0000000000E+00   0.0000000000E+00   0.2231544184E-01
   0.3501999940E+00   0.1922993152E-01   0.1000000000E-03  -0.4191893133E-06   0.1000000000E-03  -0.4191893133E-06   0.3376828300E-01   0.9467403153E-02   0.1297070585E-01  -0.5575847605E-05   0.0000000000E+00   0.0000000000E+00   0.2703685030E-03  -0.4554293501E-04  -0.7248601886E-07   0.0000000000E+00   0.0000000000E+00   0.0000000000E+00   0.2275120024E-01
   0.3299573255E+00   0.1871373396E-01   0.9726922721E-04  -0.4056707959E-06   0.9726922721E-04  -0.4056707959E-06   0.3359680715E-01   0.9422662427E-02   0.1290584087E-01  -0.3097029624E-03   0.0000000000E+00   0.0000000000E+00   0.2689825616E-03  -0.4528131979E-04  -0.4026138512E-05   0.0000000000E+00   0.0000000000E+00   0.0000000000E+00   0.2264014155E-01
   0.3501999940E+00   0.3845975155E-01   0.1000000000E-03  -0.8941745386E-06   0.1000000000E-03  -0.8941745386E-06   0.3487155868E-01   0.8990975223E-02   0.1315876017E-01  -0.6634356914E-05   0.0000000000E+00   0.0000000000E+00   0.2822663806E-03  -0.5418120433E-04  -0.8624663988E-07   0.0000000000E+00   0.0000000000E+00   0.0000000000E+00   0.2406476414E-01
   0.3304002514E+00   0.3768128992E-01   0.9721169021E-04  -0.8712883692E-06   0.9721169021E-04  -0.8712883692E-06   0.3473749492E-01   0.8971495266E-02   0.1311269705E-01  -0.6410265866E-03   0.0000000000E+00   0.0000000000E+00   0.2811223722E-03  -0.5383562326E-04  -0.8333345626E-05   0.0000000000E+00   0.0000000000E+00   0.0000000000E+00   0.2398597594E-01
   0.3307526599E+00   0.5675983206E-01   0.9707545881E-04  -0.1446518214E-05   0.9707545881E-04  -0.1446518214E-05   0.3656874612E-01   0.8247942462E-02   0.1344500657E-01  -0.8665468570E-03   0.0000000000E+00   0.0000000000E+00   0.3006086141E-03  -0.6756183345E-04  -0.1126510914E-04   0.0000000000E+00   0.0000000000E+00   0.0000000000E+00   0.2614917374E-01
   0.3310314172E+00   0.7595229441E-01   0.9687509014E-04  -0.2177845691E-05   0.9687509014E-04  -0.2177845691E-05   0.3898633466E-01   0.7314204153E-02   0.1389016164E-01  -0.1029248000E-02   0.0000000000E+00   0.0000000000E+00   0.3262502492E-03  -0.8548744737E-04  -0.1338022400E-04   0.0000000000E+00   0.0000000000E+00   0.0000000000E+00   0.2899570332E-01
   0.3119991341E+00   0.7514119076E-01   0.9379855219E-04  -0.2161022229E-05   0.9379855219E-04  -0.2161022229E-05   0.3863752254E-01   0.7052741512E-02   0.1370707922E-01  -0.2049342884E-02   0.0000000000E+00   0.0000000000E+00   0.3240957632E-03  -0.8650639014E-04  -0.2664145749E-04   0.0000000000E+00   0.0000000000E+00   0.0000000000E+00   0.2904826363E-01
   0.3113332849E+00   0.5605034502E-01   0.9418344150E-04  -0.1426937509E-05   0.9418344150E-04  -0.1426937509E-05   0.3613130207E-01   0.8008091533E-02   0.1324181808E-01  -0.1736068098E-02   0.0000000000E+00   0.0000000000E+00   0.2975632918E-03  -0.6803844511E-04  -0.2256888528E-04   0.0000000000E+00   0.0000000000E+00   0.0000000000E+00   0.2607315731E-01
   0.3311755827E+00   0.9524979677E-01   0.9661286549E-04  -0.3102015565E-05   0.9661286549E-04  -0.3102015565E-05   0.4185527106E-01   0.6231792432E-02   0.1442611905E-01  -0.1114490978E-02   0.0000000000E+00   0.0000000000E+00   0.3565789762E-03  -0.1065262460E-03  -0.1448838271E-04   0.0000000000E+00   0.0000000000E+00   0.0000000000E+00   0.3236336002E-01
   0.3123752327E+00   0.9439443298E-01   0.9328885909E-04  -0.3094511305E-05   0.9328885909E-04  -0.3094511305E-05   0.4160289296E-01   0.5965040701E-02   0.1427038010E-01  -0.2204273208E-02   0.0000000000E+00   0.0000000000E+00   0.3553226672E-03  -0.1079694122E-03  -0.2865555171E-04   0.0000000000E+00   0.0000000000E+00   0.0000000000E+00   0.3251316558E-01
   0.3311613828E+00   0.1147010673E+00   0.9629288459E-04  -0.4248333869E-05   0.9629288459E-04  -0.4248333869E-05   0.4505438692E-01   0.5089055033E-02   0.1504303259E-01  -0.1137669500E-02   0.0000000000E+00   0.0000000000E+00   0.3901476064E-03  -0.1294017082E-03  -0.1478970350E-04   0.0000000000E+00   0.0000000000E+00   0.0000000000E+00   0.3607961267E-01
   0.3310195402E+00   0.1342637756E+00   0.9592859401E-04  -0.5629205086E-05   0.9592859401E-04  -0.5629205086E-05   0.4843417429E-01   0.3958927087E-02   0.1571793041E-01  -0.1093467926E-02   0.0000000000E+00   0.0000000000E+00   0.4253111704E-03  -0.1528670432E-03  -0.1421508304E-04   0.0000000000E+00   0.0000000000E+00   0.0000000000E+00   0.3995358346E-01
   0.3119816384E+00   0.1337823037E+00   0.9189067596E-04  -0.5689135348E-05   0.9189067596E-04  -0.5689135348E-05   0.4843191194E-01   0.3675820202E-02   0.1563231964E-01  -0.2144210046E-02   0.0000000000E+00   0.0000000000E+00   0.4263946998E-03  -0.1554344927E-03  -0.2787473060E-04   0.0000000000E+00   0.0000000000E+00   0.0000000000E+00   0.4030297424E-01
   0.3123713039E+00   0.1139269988E+00   0.9265045444E-04  -0.4262086569E-05   0.9265045444E-04  -0.4262086569E-05   0.4490837571E-01   0.4795705045E-02   0.1491122423E-01  -0.2229372466E-02   0.0000000000E+00   0.0000000000E+00   0.3899629693E-03  -0.1315017493E-03  -0.2898184206E-04   0.0000000000E+00   0.0000000000E+00   0.0000000000E+00   0.3633200058E-01
   0.2891793362E+00   0.1826339568E-01   0.9188609178E-04  -0.3884599257E-06   0.9188609178E-04  -0.3884599257E-06   0.3209352435E-01   0.8842154835E-02   0.1228070376E-01  -0.9627227019E-03   0.0000000000E+00   0.0000000000E+00   0.2575666677E-03  -0.4470113597E-04  -0.1251539513E-04   0.0000000000E+00   0.0000000000E+00   0.0000000000E+00   0.2180515219E-01
   0.2876836307E+00   0.0000000000E+00   0.9181836775E-04   0.0000000000E+00   0.9181836775E-04   0.0000000000E+00   0.3157829013E-01   0.8979340936E-02   0.1216728932E-01  -0.3031418661E-03   0.0000000000E+00   0.0000000000E+00   0.2523430106E-03  -0.4144332901E-04  -0.3940844260E-05   0.0000000000E+00   0.0000000000E+00   0.0000000000E+00   0.2117942329E-01
   0.3085223201E+00   0.0000000000E+00   0.9449153983E-04   0.0000000000E+00   0.9449153983E-04   0.0000000000E+00   0.3261154169E-01   0.9359750106E-02   0.1259138754E-01  -0.1949047997E-03   0.0000000000E+00   0.0000000000E+00   0.2602620040E-03  -0.4201128664E-04  -0.2533762396E-05   0.0000000000E+00   0.0000000000E+00   0.0000000000E+00   0.2181367867E-01
   0.3095767242E+00   0.1840546166E-01   0.9455008192E-04  -0.3958208889E-06   0.9455008192E-04  -0.3958208889E-06   0.3303332535E-01   0.9212230216E-02   0.1267366667E-01  -0.6235214015E-03   0.0000000000E+00   0.0000000000E+00   0.2646755629E-03  -0.4499867391E-04  -0.8105778219E-05   0.0000000000E+00   0.0000000000E+00   0.0000000000E+00   0.2231996756E-01
   0.2123391126E+00   0.1636674467E+00   0.6594978410E-04  -0.1158267187E-04   0.6594978410E-04  -0.1158267187E-04   0.5761701649E-01  -0.2002590501E-02   0.1668432780E-01  -0.3887643129E-02   0.0000000000E+00   0.0000000000E+00   0.5321249530E-03  -0.2429299379E-03  -0.5053936068E-04   0.0000000000E+00   0.0000000000E+00   0.0000000000E+00   0.5323945237E-01
   0.2164465619E+00   0.1467505501E+00   0.6903645009E-04  -0.9352462573E-05   0.6903645009E-04  -0.9352462573E-05   0.5384632857E-01  -0.2094967455E-02   0.1552540833E-01  -0.5278318319E-02   0.0000000000E+00   0.0000000000E+00   0.4981719630E-03  -0.2290648853E-03  -0.6861813814E-04   0.0000000000E+00   0.0000000000E+00   0.0000000000E+00   0.5036122081E-01
   0.2311002871E+00   0.1467184708E+00   0.7265606977E-04  -0.8613612827E-05   0.7265606977E-04  -0.8613612827E-05   0.5334852410E-01  -0.7213519599E-03   0.1578815164E-01  -0.4974647107E-02   0.0000000000E+00   0.0000000000E+00   0.4882848420E-03  -0.2146235468E-03  -0.6467041239E-04   0.0000000000E+00   0.0000000000E+00   0.0000000000E+00   0.4875778110E-01
   0.2322915706E+00   0.1630844598E+00   0.7123079675E-04  -0.1035760553E-04   0.7123079675E-04  -0.1035760553E-04   0.5637764993E-01  -0.6469333660E-03   0.1671921497E-01  -0.3967185462E-02   0.0000000000E+00   0.0000000000E+00   0.5155596545E-03  -0.2257599284E-03  -0.5157341101E-04   0.0000000000E+00   0.0000000000E+00   0.0000000000E+00   0.5108912871E-01
   0.2279345606E+00   0.1845632775E-01   0.8455232205E-04  -0.3822755862E-06   0.8455232205E-04  -0.3822755862E-06   0.2639071356E-01   0.6347055952E-02   0.9821330855E-02  -0.2386002012E-02   0.0000000000E+00   0.0000000000E+00   0.2154019752E-03  -0.4516557373E-04  -0.3101802615E-04   0.0000000000E+00   0.0000000000E+00   0.0000000000E+00   0.1905141603E-01
   0.2307862215E+00   0.3704642883E-01   0.8396922866E-04  -0.8679830320E-06   0.8396922866E-04  -0.8679830320E-06   0.2903162330E-01   0.5702557185E-02   0.1042025415E-01  -0.4786131601E-02   0.0000000000E+00   0.0000000000E+00   0.2419477990E-03  -0.6133006050E-04  -0.6221971082E-04   0.0000000000E+00   0.0000000000E+00   0.0000000000E+00   0.2286000027E-01
   0.1834951456E+00   0.0000000000E+00   0.8090429524E-04   0.0000000000E+00   0.8090429524E-04   0.0000000000E+00   0.1696688121E-01   0.2330295455E-02   0.5789153000E-02  -0.1375149351E-02   0.0000000000E+00   0.0000000000E+00   0.1453104668E-03  -0.4496514809E-04  -0.1787694156E-04   0.0000000000E+00   0.0000000000E+00   0.0000000000E+00   0.1320742782E-01
   0.2043318434E+00   0.0000000000E+00   0.8258871421E-04   0.0000000000E+00   0.8258871421E-04   0.0000000000E+00   0.2160118138E-01   0.4881685152E-02   0.7944859960E-02  -0.1031254705E-02   0.0000000000E+00   0.0000000000E+00   0.1775321785E-03  -0.3982127249E-04  -0.1340631117E-04   0.0000000000E+00   0.0000000000E+00   0.0000000000E+00   0.1535795892E-01
   0.1418241311E+00   0.0000000000E+00   0.7873252785E-04   0.0000000000E+00   0.7873252785E-04   0.0000000000E+00   0.3360605711E-02  -0.9264884578E-02  -0.1771283660E-02  -0.3240556502E-02   0.0000000000E+00   0.0000000000E+00   0.6671456183E-04  -0.9741681194E-04  -0.4212723453E-04   0.0000000000E+00   0.0000000000E+00   0.0000000000E+00   0.1201735028E-01
   0.1458249887E+00   0.2097970567E-01   0.7765236580E-04  -0.9278672853E-06   0.7765236580E-04  -0.9278672853E-06   0.7607962220E-02  -0.7398978036E-02   0.6269525526E-04  -0.5628546945E-02   0.0000000000E+00   0.0000000000E+00   0.9808847054E-04  -0.9700175279E-04  -0.7317111029E-04   0.0000000000E+00   0.0000000000E+00   0.0000000000E+00   0.1660168346E-01
   0.3501999940E+00   0.2499642895E+00   0.1000000000E-03  -0.1785524699E-04   0.1000000000E-03  -0.1785524699E-04   0.6593187492E-01   0.3201120485E-03   0.1987559609E-01   0.1709702320E-03   0.0000000000E+00   0.0000000000E+00   0.5987316248E-03  -0.2542212926E-03   0.2222613015E-05   0.0000000000E+00   0.0000000000E+00   0.0000000000E+00   0.5834671591E-01
   0.3307439059E+00   0.2499641372E+00   0.9417396747E-04  -0.1793140322E-04   0.9417396747E-04  -0.1793140322E-04   0.6611918037E-01   0.3241537230E-03   0.1993300023E-01  -0.1314309210E-03   0.0000000000E+00   0.0000000000E+00   0.6004203418E-03  -0.2549150046E-03  -0.1708601973E-05   0.0000000000E+00   0.0000000000E+00   0.0000000000E+00   0.5850990296E-01
   0.3309774062E+00   0.2310156948E+00   0.9442660748E-04  -0.1553558417E-04   0.9442660748E-04  -0.1553558417E-04   0.6389503799E-01   0.1196182241E-03   0.1920439686E-01  -0.3258914417E-03   0.0000000000E+00   0.0000000000E+00   0.5809783347E-03  -0.2481021223E-03  -0.4236588742E-05   0.0000000000E+00   0.0000000000E+00   0.0000000000E+00   0.5669847540E-01
   0.3501999940E+00   0.2307383660E+00   0.1000000000E-03  -0.1543299741E-04   0.1000000000E-03  -0.1543299741E-04   0.6376953075E-01   0.1446870386E-03   0.1917426534E-01   0.1543359579E-03   0.0000000000E+00   0.0000000000E+00   0.5797384504E-03  -0.2473845179E-03   0.2006367453E-05   0.0000000000E+00   0.0000000000E+00   0.0000000000E+00   0.5656460376E-01
   0.2731744235E+00   0.2316319774E+00   0.7742075583E-04  -0.1677229499E-04   0.7742075583E-04  -0.1677229499E-04   0.6571394085E-01  -0.3552933953E-04   0.1970352345E-01  -0.8925187044E-03   0.0000000000E+00   0.0000000000E+00   0.5981354261E-03  -0.2566076863E-03  -0.1160274316E-04   0.0000000000E+00   0.0000000000E+00   0.0000000000E+00   0.5845882308E-01
   0.2924288447E+00   0.2314573230E+00   0.8314533876E-04  -0.1618249943E-04   0.8314533876E-04  -0.1618249943E-04   0.6492639881E-01   0.3585564196E-04   0.1948867634E-01  -0.7553582349E-03   0.0000000000E+00   0.0000000000E+00   0.5906903922E-03  -0.2528866690E-03  -0.9819657054E-05   0.0000000000E+00   0.0000000000E+00   0.0000000000E+00   0.5769556683E-01
   0.2918314497E+00   0.2499628372E+00   0.8239634191E-04  -0.1858138456E-04   0.8239634191E-04  -0.1858138456E-04   0.6751891695E-01   0.3734496527E-03   0.2036770998E-01  -0.2215025780E-03   0.0000000000E+00   0.0000000000E+00   0.6129656906E-03  -0.2599253843E-03  -0.2879533514E-05   0.0000000000E+00   0.0000000000E+00   0.0000000000E+00   0.5971401744E-01
   0.2723750030E+00   0.2499616042E+00   0.7639098608E-04  -0.1919788099E-04   0.7639098608E-04  -0.1919788099E-04   0.6862374887E-01   0.4169647648E-03   0.2071221409E-01  -0.2578819010E-03   0.0000000000E+00   0.0000000000E+00   0.6228499521E-03  -0.2638382412E-03  -0.3352464713E-05   0.0000000000E+00   0.0000000000E+00   0.0000000000E+00   0.6066139893E-01
   0.3501999940E+00   0.1730589673E+00   0.1000000000E-03  -0.8980370861E-05   0.1000000000E-03  -0.8980370861E-05   0.5515158578E-01   0.2075744902E-02   0.1716819920E-01   0.1143775909E-03   0.0000000000E+00   0.0000000000E+00   0.4937840254E-03  -0.1962019059E-03   0.1486908682E-05   0.0000000000E+00   0.0000000000E+00   0.0000000000E+00   0.4736589089E-01
   0.3309686219E+00   0.1732962089E+00   0.9524993189E-04  -0.9054530451E-05   0.9524993189E-04  -0.9054530451E-05   0.5521363166E-01   0.1987538428E-02   0.1716035103E-01  -0.8888946210E-03   0.0000000000E+00   0.0000000000E+00   0.4946926482E-03  -0.1972465638E-03  -0.1155563007E-04   0.0000000000E+00   0.0000000000E+00   0.0000000000E+00   0.4751426955E-01
   0.3309608410E+00   0.1538328758E+00   0.9557648399E-04  -0.7238081602E-05   0.9557648399E-04  -0.7238081602E-05   0.5186069437E-01   0.2919092487E-02   0.1643393606E-01  -0.1016854166E-02   0.0000000000E+00   0.0000000000E+00   0.4605478581E-03  -0.1756929664E-03  -0.1321910416E-04   0.0000000000E+00   0.0000000000E+00   0.0000000000E+00   0.4380731698E-01
   0.3501999940E+00   0.1538317693E+00   0.1000000000E-03  -0.7195357515E-05   0.1000000000E-03  -0.7195357515E-05   0.5181255706E-01   0.2994551327E-02   0.1644213252E-01   0.1006797719E-03   0.0000000000E+00   0.0000000000E+00   0.4598155191E-03  -0.1748185555E-03   0.1308837034E-05   0.0000000000E+00   0.0000000000E+00   0.0000000000E+00   0.4367089706E-01
   0.3501999940E+00   0.1346041457E+00   0.1000000000E-03  -0.5622636430E-05   0.1000000000E-03  -0.5622636430E-05   0.4840193006E-01   0.4018281516E-02   0.1572606347E-01   0.7316731135E-04   0.0000000000E+00   0.0000000000E+00   0.4247862656E-03  -0.1522011654E-03   0.9511750476E-06   0.0000000000E+00   0.0000000000E+00   0.0000000000E+00   0.3983566884E-01
   0.3501999940E+00   0.1153760764E+00   0.1000000000E-03  -0.4269824529E-05   0.1000000000E-03  -0.4269824529E-05   0.4504183437E-01   0.5109600659E-02   0.1504543051E-01   0.5328110653E-04   0.0000000000E+00   0.0000000000E+00   0.3899532502E-03  -0.1291657880E-03   0.6926543849E-06   0.0000000000E+00   0.0000000000E+00   0.0000000000E+00   0.3599966112E-01
   0.3501999940E+00   0.9614757361E-01   0.1000000000E-03  -0.3137145836E-05   0.1000000000E-03  -0.3137145836E-05   0.4187162621E-01   0.6227922806E-02   0.1442986470E-01   0.2947697005E-04   0.0000000000E+00   0.0000000000E+00   0.3567428995E-03  -0.1066252447E-03   0.3832006107E-06   0.0000000000E+00   0.0000000000E+00   0.0000000000E+00   0.3232386990E-01
   0.3501999940E+00   0.7691865223E-01   0.1000000000E-03  -0.2213783975E-05   0.1000000000E-03  -0.2213783975E-05   0.3903155892E-01   0.7298280880E-02   0.1389895194E-01   0.1163792471E-04   0.0000000000E+00   0.0000000000E+00   0.3267238907E-03  -0.8580872378E-04   0.1512930212E-06   0.0000000000E+00   0.0000000000E+00   0.0000000000E+00   0.2899327590E-01
   0.3501999940E+00   0.5768935297E-01   0.1000000000E-03  -0.1477515094E-05   0.1000000000E-03  -0.1477515094E-05   0.3665750497E-01   0.8245485131E-02   0.1347089703E-01  -0.8730673630E-06   0.0000000000E+00   0.0000000000E+00   0.3014259032E-03  -0.6793035468E-04  -0.1134987572E-07   0.0000000000E+00   0.0000000000E+00   0.0000000000E+00   0.2618623694E-01
   0.0000000000E+00   0.2498996625E+00   0.0000000000E+00  -0.5016874555E-04   0.0000000000E+00  -0.5016874555E-04   0.3860946928E-01  -0.1264013812E-02   0.1120363664E-01   0.1261982751E-02   0.0000000000E+00   0.0000000000E+00   0.3562758243E-03  -0.1620794559E-03   0.1640577576E-04   0.0000000000E+00   0.0000000000E+00   0.0000000000E+00   0.3539702443E-01
   0.3760580099E-01   0.2161287656E+00   0.9380895507E-05  -0.4495721023E-04   0.9380895507E-05  -0.4495721023E-04   0.5705574135E-01   0.1951994642E-02   0.1770232080E-01   0.5020502216E-02   0.0000000000E+00   0.0000000000E+00   0.5115944672E-03  -0.2047542400E-03   0.6526652881E-04   0.0000000000E+00   0.0000000000E+00   0.0000000000E+00   0.4989515129E-01
   0.3621282472E-01   0.2000177932E+00   0.9758608009E-05  -0.4345291551E-04   0.9758608009E-05  -0.4345291551E-04   0.6202659981E-01   0.3861128859E-02   0.1976631860E-01   0.5853813855E-02   0.0000000000E+00   0.0000000000E+00   0.5493836557E-03  -0.2067674666E-03   0.7609958011E-04   0.0000000000E+00   0.0000000000E+00   0.0000000000E+00   0.5301848405E-01
   0.5561345201E-01   0.1985279340E+00   0.1526500664E-04  -0.4054498539E-04   0.1526500664E-04  -0.4054498539E-04   0.6382765240E-01   0.2240867068E-02   0.1982055584E-01   0.7742745290E-02   0.0000000000E+00   0.0000000000E+00   0.5720922553E-03  -0.2285359541E-03   0.1006556888E-03   0.0000000000E+00   0.0000000000E+00   0.0000000000E+00   0.5658583980E-01
   0.5753609915E-01   0.2148411860E+00   0.1467952611E-04  -0.4208152110E-04   0.1467952611E-04  -0.4208152110E-04   0.5958962701E-01   0.9487125179E-03   0.1816150186E-01   0.6488618569E-02   0.0000000000E+00   0.0000000000E+00   0.5385656269E-03  -0.2237662614E-03   0.8435204139E-04   0.0000000000E+00   0.0000000000E+00   0.0000000000E+00   0.5338991302E-01
   0.1781718475E-01   0.2003250879E+00   0.4758325043E-05  -0.4514255757E-04   0.4758325043E-05  -0.4514255757E-04   0.6130693115E-01   0.5204219846E-02   0.1995334530E-01   0.2746104131E-02   0.0000000000E+00   0.0000000000E+00   0.5375966161E-03  -0.1917386309E-03   0.3569935370E-04   0.0000000000E+00   0.0000000000E+00   0.0000000000E+00   0.5067346993E-01
   0.5822488208E-01   0.2322303857E+00   0.1337708885E-04  -0.4385115247E-04   0.1337708885E-04  -0.4385115247E-04   0.5468632982E-01   0.6652882256E-03   0.1660548541E-01   0.3751432049E-02   0.0000000000E+00   0.0000000000E+00   0.4950509773E-03  -0.2072225635E-03   0.4876861663E-04   0.0000000000E+00   0.0000000000E+00   0.0000000000E+00   0.4856230780E-01
   0.1556327747E+00   0.2499412514E+00   0.3860682891E-04  -0.2937427694E-04   0.3860682891E-04  -0.2937427694E-04   0.7124179605E-01   0.3897971236E-03   0.2148947795E-01   0.4424116702E-03   0.0000000000E+00   0.0000000000E+00   0.6467801353E-03  -0.2742958508E-03   0.5751351713E-05   0.0000000000E+00   0.0000000000E+00   0.0000000000E+00   0.6301357634E-01
   0.1361759390E+00   0.2499352072E+00   0.3241450046E-04  -0.3239640165E-04   0.3241450046E-04  -0.3239640165E-04   0.6877280511E-01   0.2143411441E-03   0.2069614388E-01   0.7332753575E-03   0.0000000000E+00   0.0000000000E+00   0.6249965960E-03  -0.2662634355E-03   0.9532579647E-05   0.0000000000E+00   0.0000000000E+00   0.0000000000E+00   0.6095442813E-01
   0.1750899075E+00   0.2499465426E+00   0.4495523747E-04  -0.2672871854E-04   0.4495523747E-04  -0.2672871854E-04   0.7245254541E-01   0.4863291541E-03   0.2188166237E-01   0.1883349315E-03   0.0000000000E+00   0.0000000000E+00   0.6574214795E-03  -0.2781393318E-03   0.2448354110E-05   0.0000000000E+00   0.0000000000E+00   0.0000000000E+00   0.6401443635E-01
   0.1760189302E+00   0.2324477304E+00   0.4739660308E-04  -0.2419130940E-04   0.4739660308E-04  -0.2419130940E-04   0.6870225468E-01  -0.6302853733E-03   0.2042159079E-01   0.3553327286E-03   0.0000000000E+00   0.0000000000E+00   0.6276486305E-03  -0.2736743901E-03   0.4619325472E-05   0.0000000000E+00   0.0000000000E+00   0.0000000000E+00   0.6157578363E-01
   0.2251691526E+00   0.0000000000E+00   0.8457931641E-04   0.0000000000E+00   0.8457931641E-04   0.0000000000E+00   0.2518117132E-01   0.6439115426E-02   0.9486086025E-02  -0.7764364695E-03   0.0000000000E+00   0.0000000000E+00   0.2040361089E-03  -0.3961061779E-04  -0.1009367410E-04   0.0000000000E+00   0.0000000000E+00   0.0000000000E+00   0.1738305792E-01
   0.2460069728E+00   0.0000000000E+00   0.8681788694E-04   0.0000000000E+00   0.8681788694E-04   0.0000000000E+00   0.2796841293E-01   0.7592404400E-02   0.1066824520E-01  -0.5829752986E-03   0.0000000000E+00   0.0000000000E+00   0.2249021805E-03  -0.3998593039E-04  -0.7578678881E-05   0.0000000000E+00   0.0000000000E+00   0.0000000000E+00   0.1900302114E-01
   0.2484200572E+00   0.1834166615E-01   0.8685758056E-04  -0.3808744516E-06   0.8685758056E-04  -0.3808744516E-06   0.2885178133E-01   0.7467571492E-02   0.1089580585E-01  -0.1814705028E-02   0.0000000000E+00   0.0000000000E+00   0.2334276812E-03  -0.4456704660E-04  -0.2359116536E-04   0.0000000000E+00   0.0000000000E+00   0.0000000000E+00   0.2016168111E-01
   0.1966634416E+00   0.1994796693E+00   0.5743778943E-04  -0.1745682971E-04   0.5743778943E-04  -0.1745682971E-04   0.6382766565E-01  -0.1687062771E-02   0.1864218086E-01  -0.1162956828E-02   0.0000000000E+00   0.0000000000E+00   0.5874113023E-03  -0.2642801673E-03  -0.1511843876E-04   0.0000000000E+00   0.0000000000E+00   0.0000000000E+00   0.5811833542E-01
   0.2156852968E+00   0.1983609134E+00   0.6308590182E-04  -0.1567178774E-04   0.6308590182E-04  -0.1567178774E-04   0.6283061072E-01  -0.1013583413E-02   0.1854510819E-01  -0.1938322361E-02   0.0000000000E+00   0.0000000000E+00   0.5757115329E-03  -0.2542629909E-03  -0.2519819070E-04   0.0000000000E+00   0.0000000000E+00   0.0000000000E+00   0.5675547168E-01
   0.2156649044E+00   0.2151023959E+00   0.6142818595E-04  -0.1782606700E-04   0.6142818595E-04  -0.1782606700E-04   0.6542828275E-01  -0.5305105713E-03   0.1946933165E-01  -0.1295746362E-02   0.0000000000E+00   0.0000000000E+00   0.5974663643E-03  -0.2599979489E-03  -0.1684470270E-04   0.0000000000E+00   0.0000000000E+00   0.0000000000E+00   0.5862308624E-01
   0.1963338467E+00   0.2155820776E+00   0.5556932879E-04  -0.1962221448E-04   0.5556932879E-04  -0.1962221448E-04   0.6611308705E-01  -0.8740702201E-03   0.1957170505E-01  -0.5827704472E-03   0.0000000000E+00   0.0000000000E+00   0.6050379660E-03  -0.2657950785E-03  -0.7576015814E-05   0.0000000000E+00   0.0000000000E+00   0.0000000000E+00   0.5947278726E-01
   0.1175768453E+00   0.2323703539E+00   0.2948565159E-04  -0.3332303605E-04   0.2948565159E-04  -0.3332303605E-04   0.6438839940E-01  -0.6352845740E-03   0.1912593445E-01   0.2903130322E-02   0.0000000000E+00   0.0000000000E+00   0.5884120444E-03  -0.2568958473E-03   0.3774069419E-04   0.0000000000E+00   0.0000000000E+00   0.0000000000E+00   0.5796964704E-01
   0.1189448905E+00   0.2151860623E+00   0.3213026755E-04  -0.3082185770E-04   0.3213026755E-04  -0.3082185770E-04   0.6503852115E-01  -0.1578224935E-02   0.1903808886E-01   0.4835707786E-02   0.0000000000E+00   0.0000000000E+00   0.5980056197E-03  -0.2680120794E-03   0.6286420121E-04   0.0000000000E+00   0.0000000000E+00   0.0000000000E+00   0.5963498448E-01
   0.2140043823E+00   0.2499546909E+00   0.5774914268E-04  -0.2265453888E-04   0.5774914268E-04  -0.2265453888E-04   0.7210321616E-01   0.5337469835E-03   0.2179108894E-01  -0.1516510931E-03   0.0000000000E+00   0.0000000000E+00   0.6540576538E-03  -0.2763454455E-03  -0.1971464210E-05   0.0000000000E+00   0.0000000000E+00   0.0000000000E+00   0.6366414779E-01
   0.1945471708E+00   0.2499510190E+00   0.5136137927E-04  -0.2449051154E-04   0.5136137927E-04  -0.2449051154E-04   0.7265198379E-01   0.5311306471E-03   0.2195493433E-01  -0.9740747012E-05   0.0000000000E+00   0.0000000000E+00   0.6590616429E-03  -0.2785094479E-03  -0.1266297112E-06   0.0000000000E+00   0.0000000000E+00   0.0000000000E+00   0.6415546148E-01
   0.1955421994E+00   0.2323751471E+00   0.5353118238E-04  -0.2195596547E-04   0.5353118238E-04  -0.2195596547E-04   0.6871926109E-01  -0.5184091254E-03   0.2046025559E-01  -0.2347004194E-03   0.0000000000E+00   0.0000000000E+00   0.6273670715E-03  -0.2727226413E-03  -0.3051105452E-05   0.0000000000E+00   0.0000000000E+00   0.0000000000E+00   0.6149924709E-01
   0.2150314137E+00   0.2322434448E+00   0.5963383937E-04  -0.2014061769E-04   0.5963383937E-04  -0.2014061769E-04   0.6824544155E-01  -0.3869117955E-03   0.2035755893E-01  -0.6424850210E-03   0.0000000000E+00   0.0000000000E+00   0.6225424742E-03  -0.2696781194E-03  -0.8352305273E-05   0.0000000000E+00   0.0000000000E+00   0.0000000000E+00   0.6098115501E-01
   0.2344655291E+00   0.2319162029E+00   0.6567157012E-04  -0.1868655179E-04   0.6567157012E-04  -0.1868655179E-04   0.6748673588E-01  -0.2565414027E-03   0.2016905834E-01  -0.8723569708E-03   0.0000000000E+00   0.0000000000E+00   0.6151298080E-03  -0.2655327967E-03  -0.1134064062E-04   0.0000000000E+00   0.0000000000E+00   0.0000000000E+00   0.6021104798E-01
   0.2538401955E+00   0.2317889166E+00   0.7159375233E-04  -0.1759168562E-04   0.7159375233E-04  -0.1759168562E-04   0.6659262152E-01  -0.1387413811E-03   0.1993616404E-01  -0.9462407519E-03   0.0000000000E+00   0.0000000000E+00   0.6065339472E-03  -0.2609737705E-03  -0.1230112978E-04   0.0000000000E+00   0.0000000000E+00   0.0000000000E+00   0.5932537838E-01
   0.2529183502E+00   0.2499598937E+00   0.7028262278E-04  -0.2005314519E-04   0.7028262278E-04  -0.2005314519E-04   0.6986334526E-01   0.4646353750E-03   0.2109839419E-01  -0.2648728079E-03   0.0000000000E+00   0.0000000000E+00   0.6339443639E-03  -0.2682388646E-03  -0.3443346503E-05   0.0000000000E+00   0.0000000000E+00   0.0000000000E+00   0.6172545311E-01
   0.2334614650E+00   0.2499576185E+00   0.6406549314E-04  -0.2119073790E-04   0.6406549314E-04  -0.2119073790E-04   0.7108847312E-01   0.5074627566E-03   0.2147878076E-01  -0.2334194647E-03   0.0000000000E+00   0.0000000000E+00   0.6449260006E-03  -0.2726271341E-03  -0.3034453041E-05   0.0000000000E+00   0.0000000000E+00   0.0000000000E+00   0.6278130670E-01
   0.3112877535E+00   0.2499636639E+00   0.8831574196E-04  -0.1816807218E-04   0.8831574196E-04  -0.1816807218E-04   0.6666239111E-01   0.3407415227E-03   0.2010093979E-01  -0.1468984078E-03   0.0000000000E+00   0.0000000000E+00   0.6052988672E-03  -0.2568825775E-03  -0.1909679302E-05   0.0000000000E+00   0.0000000000E+00   0.0000000000E+00   0.5897913398E-01
   0.3116801236E+00   0.2312406646E+00   0.8880379496E-04  -0.1577818986E-04   0.8880379496E-04  -0.1577818986E-04   0.6430828168E-01   0.9413281984E-04   0.1932072435E-01  -0.5288628468E-03   0.0000000000E+00   0.0000000000E+00   0.5848382453E-03  -0.2499456899E-03  -0.6875217009E-05   0.0000000000E+00   0.0000000000E+00   0.0000000000E+00   0.5709208520E-01
   0.5564375026E-01   0.8309555043E-01   0.4336328099E-04  -0.2570453598E-04   0.4336328099E-04  -0.2570453598E-04   0.8129408507E-01   0.2875343302E-01   0.3301425543E-01  -0.3903712276E-01   0.0000000000E+00   0.0000000000E+00   0.6276377853E-03  -0.5539069125E-04  -0.5074825958E-03   0.0000000000E+00   0.0000000000E+00   0.0000000000E+00   0.8119292986E-01
   0.7201165664E-01   0.9409680874E-01   0.4086622030E-04  -0.2215472786E-04   0.4086622030E-04  -0.2215472786E-04   0.6167396945E-01  -0.3402731099E-02   0.1748137151E-01  -0.1686650694E-01   0.0000000000E+00   0.0000000000E+00   0.5745037733E-03  -0.2714933338E-03  -0.2192645903E-03   0.0000000000E+00   0.0000000000E+00   0.0000000000E+00   0.6450945504E-01
   0.6205198729E-01   0.1069348951E+00   0.3193969263E-04  -0.2675643739E-04   0.3193969263E-04  -0.2675643739E-04   0.7553173833E-01  -0.7477779616E-03   0.2243518811E-01  -0.1034879077E-01   0.0000000000E+00   0.0000000000E+00   0.6902551528E-03  -0.3013785589E-03  -0.1345342800E-03   0.0000000000E+00   0.0000000000E+00   0.0000000000E+00   0.6921598463E-01
   0.3832714277E-01   0.9232755702E-01   0.2940008503E-04  -0.3019743840E-04   0.2940008503E-04  -0.3019743840E-04   0.1169545411E+00   0.2163425827E-01   0.4157663982E-01  -0.2950506841E-01   0.0000000000E+00   0.0000000000E+00   0.9799127172E-03  -0.2592509602E-03  -0.3835658893E-03   0.0000000000E+00   0.0000000000E+00   0.0000000000E+00   0.9908146559E-01
   0.0000000000E+00   0.1999087012E+00   0.0000000000E+00  -0.4565091088E-04   0.0000000000E+00  -0.4565091088E-04   0.6097412941E-01   0.5628371378E-02   0.1998075024E-01   0.1373449229E-02   0.0000000000E+00   0.0000000000E+00   0.5329139292E-03  -0.1865809251E-03   0.1785483997E-04   0.0000000000E+00   0.0000000000E+00   0.0000000000E+00   0.4975180349E-01
   0.0000000000E+00   0.1832451100E+00   0.0000000000E+00  -0.4411351065E-04   0.0000000000E+00  -0.4411351065E-04   0.6659406922E-01   0.8749003870E-02   0.2260292193E-01   0.1450530426E-02   0.0000000000E+00   0.0000000000E+00   0.5718849148E-03  -0.1801009348E-03   0.1885689554E-04   0.0000000000E+00   0.0000000000E+00   0.0000000000E+00   0.5231474132E-01
   0.3654175420E-01   0.1167995745E+00   0.1755814919E-04  -0.3392073119E-04   0.1755814919E-04  -0.3392073119E-04   0.1040671498E+00   0.1399159937E-01   0.3541762475E-01  -0.1062227391E-01   0.0000000000E+00   0.0000000000E+00   0.8924438258E-03  -0.2785383300E-03  -0.1380895609E-03   0.0000000000E+00   0.0000000000E+00   0.0000000000E+00   0.8467161975E-01
   0.2668451748E+00   0.0000000000E+00   0.8924692316E-04   0.0000000000E+00   0.8924692316E-04   0.0000000000E+00   0.3005444015E-01   0.8403214398E-02   0.1153729636E-01  -0.4320782276E-03   0.0000000000E+00   0.0000000000E+00   0.2407228692E-03  -0.4074306555E-04  -0.5617016958E-05   0.0000000000E+00   0.0000000000E+00   0.0000000000E+00   0.2025475826E-01
   0.2688045680E+00   0.1829074227E-01   0.8931149300E-04  -0.3841633150E-06   0.8931149300E-04  -0.3841633150E-06   0.3072183329E-01   0.8276928665E-02   0.1169962859E-01  -0.1352247072E-02   0.0000000000E+00   0.0000000000E+00   0.2472886611E-03  -0.4449509897E-04  -0.1757921194E-04   0.0000000000E+00   0.0000000000E+00   0.0000000000E+00   0.2108553861E-01
   0.2366878415E+00   0.7431134126E-01   0.8171924476E-04  -0.2427418756E-05   0.8171924476E-04  -0.2427418756E-05   0.3686323111E-01   0.3586765109E-02   0.1213499886E-01  -0.6808921417E-02   0.0000000000E+00   0.0000000000E+00   0.3214670191E-03  -0.1111270388E-03  -0.8851597842E-04   0.0000000000E+00   0.0000000000E+00   0.0000000000E+00   0.3215692551E-01
   0.2553860805E+00   0.7383334551E-01   0.8475575079E-04  -0.2272847038E-05   0.8475575079E-04  -0.2272847038E-05   0.3725523605E-01   0.4945210486E-02   0.1266013396E-01  -0.5446983927E-02   0.0000000000E+00   0.0000000000E+00   0.3197363271E-03  -0.1002940052E-03  -0.7081079105E-04   0.0000000000E+00   0.0000000000E+00   0.0000000000E+00   0.3069886927E-01
   0.3105243416E+00   0.3712525391E-01   0.9444228720E-04  -0.8540932766E-06   0.9444228720E-04  -0.8540932766E-06   0.3422771195E-01   0.8749759175E-02   0.1289324134E-01  -0.1288323925E-02   0.0000000000E+00   0.0000000000E+00   0.2773481180E-03  -0.5386526813E-04  -0.1674821102E-04   0.0000000000E+00   0.0000000000E+00   0.0000000000E+00   0.2377666040E-01
   0.2906235437E+00   0.3677555477E-01   0.9171585545E-04  -0.8422632047E-06   0.9171585545E-04  -0.8422632047E-06   0.3344431989E-01   0.8364126459E-02   0.1254253391E-01  -0.1981736798E-02   0.0000000000E+00   0.0000000000E+00   0.2717232178E-03  -0.5431929681E-04  -0.2576257837E-04   0.0000000000E+00   0.0000000000E+00   0.0000000000E+00   0.2351259263E-01
   0.3501999940E+00   0.2115122180E+00   0.1000000000E-03  -0.1312300519E-04   0.1000000000E-03  -0.1312300519E-04   0.6126389558E-01   0.6674448902E-03   0.1857940214E-01   0.1416520730E-03   0.0000000000E+00   0.0000000000E+00   0.5548984147E-03  -0.2328554443E-03   0.1841476949E-05   0.0000000000E+00   0.0000000000E+00   0.0000000000E+00   0.5391970858E-01
   0.3310978133E+00   0.2119543898E+00   0.9469763007E-04  -0.1323710540E-04   0.9469763007E-04  -0.1323710540E-04   0.6136207133E-01   0.6163969760E-03   0.1859354049E-01  -0.5745198004E-03   0.0000000000E+00   0.0000000000E+00   0.5559909009E-03  -0.2337028657E-03  -0.7468757406E-05   0.0000000000E+00   0.0000000000E+00   0.0000000000E+00   0.5405548299E-01
   0.3310329471E+00   0.1926795120E+00   0.9495805534E-04  -0.1106299549E-04   0.9495805534E-04  -0.1106299549E-04   0.5840230215E-01   0.1198832044E-02   0.1788034026E-01  -0.7433829868E-03   0.0000000000E+00   0.0000000000E+00   0.5267855046E-03  -0.2168596068E-03  -0.9663978828E-05   0.0000000000E+00   0.0000000000E+00   0.0000000000E+00   0.5096713766E-01
   0.3501999940E+00   0.1922857700E+00   0.1000000000E-03  -0.1096298813E-04   0.1000000000E-03  -0.1096298813E-04   0.5833173109E-01   0.1279765198E-02   0.1788344889E-01   0.1310549698E-03   0.0000000000E+00   0.0000000000E+00   0.5258276686E-03  -0.2158478879E-03   0.1703714607E-05   0.0000000000E+00   0.0000000000E+00   0.0000000000E+00   0.5082521733E-01
   0.2927306450E+00   0.2126563213E+00   0.8394598769E-04  -0.1386432639E-04   0.8394598769E-04  -0.1386432639E-04   0.6223344361E-01   0.4389693135E-03   0.1880172388E-01  -0.1429133053E-02   0.0000000000E+00   0.0000000000E+00   0.5646123566E-03  -0.2387158093E-03  -0.1857872969E-04   0.0000000000E+00   0.0000000000E+00   0.0000000000E+00   0.5501828871E-01
   0.2736609538E+00   0.2131144754E+00   0.7851239308E-04  -0.1444429677E-04   0.7851239308E-04  -0.1444429677E-04   0.6292772165E-01   0.2672600157E-03   0.1895849450E-01  -0.1710518712E-02   0.0000000000E+00   0.0000000000E+00   0.5715999530E-03  -0.2429860483E-03  -0.2223674325E-04   0.0000000000E+00   0.0000000000E+00   0.0000000000E+00   0.5579554524E-01
   0.2735146355E+00   0.1942480611E+00   0.7956075545E-04  -0.1222097110E-04   0.7956075545E-04  -0.1222097110E-04   0.5985733900E-01   0.5305407254E-03   0.1811636392E-01  -0.2292467778E-02   0.0000000000E+00   0.0000000000E+00   0.5426326761E-03  -0.2286157015E-03  -0.2980208111E-04   0.0000000000E+00   0.0000000000E+00   0.0000000000E+00   0.5292824917E-01
   0.2925884085E+00   0.1934235010E+00   0.8474077434E-04  -0.1164200695E-04   0.8474077434E-04  -0.1164200695E-04   0.5920422098E-01   0.7998462589E-03   0.1800122017E-01  -0.1923640667E-02   0.0000000000E+00   0.0000000000E+00   0.5356390105E-03  -0.2236178609E-03  -0.2500732868E-04   0.0000000000E+00   0.0000000000E+00   0.0000000000E+00   0.5208915128E-01
   0.1945611720E+00   0.5816618538E-01   0.7727900391E-04  -0.1966009768E-05   0.7727900391E-04  -0.1966009768E-05   0.3066191502E-01   0.7037958716E-03   0.9409713268E-02  -0.9629066073E-02   0.0000000000E+00   0.0000000000E+00   0.2762786228E-03  -0.1131769262E-03  -0.1251778589E-03   0.0000000000E+00   0.0000000000E+00   0.0000000000E+00   0.3145964193E-01
   0.2142542522E+00   0.5661022041E-01   0.8018661435E-04  -0.1681343961E-05   0.8018661435E-04  -0.1681343961E-05   0.3155431891E-01   0.2894956950E-02   0.1033478276E-01  -0.7732628309E-02   0.0000000000E+00   0.0000000000E+00   0.2758539700E-03  -0.9671773551E-04  -0.1005241680E-03   0.0000000000E+00   0.0000000000E+00   0.0000000000E+00   0.2903606387E-01
   0.7323666800E-01   0.1305368876E+00   0.2884934778E-04  -0.2758768933E-04   0.2884934778E-04  -0.2758768933E-04   0.7817761101E-01  -0.2976356202E-02   0.2256037644E-01   0.1625500040E-02   0.0000000000E+00   0.0000000000E+00   0.7230240494E-03  -0.3319775244E-03   0.2113150052E-04   0.0000000000E+00   0.0000000000E+00   0.0000000000E+00   0.7189014587E-01
   0.5553593531E-01   0.1224142310E+00   0.2415685582E-04  -0.3061449407E-04   0.2415685582E-04  -0.3061449407E-04   0.9097099877E-01   0.6761091727E-02   0.2931962715E-01  -0.2676252276E-02   0.0000000000E+00   0.0000000000E+00   0.8014678311E-03  -0.2932609605E-03  -0.3479127959E-04   0.0000000000E+00   0.0000000000E+00   0.0000000000E+00   0.7544735734E-01
   0.8084726969E-01   0.1172292842E+00   0.3502464357E-04  -0.2340140762E-04   0.3502464357E-04  -0.2340140762E-04   0.7513932985E-01  -0.4960899192E-02   0.2105352920E-01  -0.3214032994E-02   0.0000000000E+00   0.0000000000E+00   0.7031154085E-03  -0.3381875691E-03  -0.4178242892E-04   0.0000000000E+00   0.0000000000E+00   0.0000000000E+00   0.7087805272E-01
   0.5835595209E-01   0.2499088056E+00   0.1130924386E-04  -0.4559721554E-04   0.1130924386E-04  -0.4559721554E-04   0.4851904691E-01  -0.7967229855E-03   0.1431669718E-01   0.1275385848E-02   0.0000000000E+00   0.0000000000E+00   0.4446305466E-03  -0.1964744621E-03   0.1658001603E-04   0.0000000000E+00   0.0000000000E+00   0.0000000000E+00   0.4376514782E-01
   0.7822967622E-01   0.2133440000E+00   0.2050920841E-04  -0.3831501503E-04   0.2050920841E-04  -0.3831501503E-04   0.6151419966E-01  -0.2235169852E-03   0.1838720480E-01   0.7032683704E-02   0.0000000000E+00   0.0000000000E+00   0.5606509331E-03  -0.2419393832E-03   0.9142488815E-04   0.0000000000E+00   0.0000000000E+00   0.0000000000E+00   0.5615703416E-01
   0.7804094358E-01   0.1933626502E+00   0.2222189015E-04  -0.3586141678E-04   0.2222189015E-04  -0.3586141678E-04   0.6581151496E-01  -0.4512563313E-03   0.1960807759E-01   0.8278326565E-02   0.0000000000E+00   0.0000000000E+00   0.6006446858E-03  -0.2607713409E-03   0.1076182453E-03   0.0000000000E+00   0.0000000000E+00   0.0000000000E+00   0.6057301934E-01
   0.1768557123E+00   0.2157559480E+00   0.4963515717E-04  -0.2182601722E-04   0.4963515717E-04  -0.2182601722E-04   0.6648756084E-01  -0.1189123860E-02   0.1958953109E-01   0.4451355921E-03   0.0000000000E+00   0.0000000000E+00   0.6096743867E-03  -0.2701225144E-03   0.5786762698E-05   0.0000000000E+00   0.0000000000E+00   0.0000000000E+00   0.6005304400E-01
   0.3116914903E+00   0.1537149932E+00   0.9113416322E-04  -0.7356876277E-05   0.9113416322E-04  -0.7356876277E-05   0.5201855377E-01   0.2658829015E-02   0.1640321484E-01  -0.1923199513E-02   0.0000000000E+00   0.0000000000E+00   0.4629994062E-03  -0.1786770157E-03  -0.2500159368E-04   0.0000000000E+00   0.0000000000E+00   0.0000000000E+00   0.4424643247E-01
   0.3116776335E+00   0.1734196687E+00   0.9046423970E-04  -0.9224129168E-05   0.9046423970E-04  -0.9224129168E-05   0.5545028687E-01   0.1799034971E-02   0.1717479655E-01  -0.1678218793E-02   0.0000000000E+00   0.0000000000E+00   0.4975813742E-03  -0.1998849006E-03  -0.2181684430E-04   0.0000000000E+00   0.0000000000E+00   0.0000000000E+00   0.4793935826E-01
   0.1167196544E+00   0.2499285798E+00   0.2649370354E-04  -0.3571009118E-04   0.2649370354E-04  -0.3571009118E-04   0.6495823425E-01  -0.5516704058E-05   0.1948581526E-01   0.1035728203E-02   0.0000000000E+00   0.0000000000E+00   0.5911414468E-03  -0.2533873156E-03   0.1346446664E-04   0.0000000000E+00   0.0000000000E+00   0.0000000000E+00   0.5773169781E-01
   0.7082059358E-01   0.7066810922E-01   0.5495609108E-04  -0.2128608886E-04   0.5495609108E-04  -0.2128608886E-04   0.3221799238E-01   0.1673660911E-01   0.1468638045E-01  -0.2034318280E-01   0.0000000000E+00   0.0000000000E+00   0.2279109552E-03   0.2665297259E-04  -0.2644613764E-03   0.0000000000E+00   0.0000000000E+00   0.0000000000E+00   0.3612831418E-01
   0.8399599414E-01   0.7963110603E-01   0.5151887248E-04  -0.1693098727E-04   0.5151887248E-04  -0.1693098727E-04   0.4226257351E-01  -0.2262241561E-02   0.1200009958E-01  -0.1689266904E-01   0.0000000000E+00   0.0000000000E+00   0.3934121610E-03  -0.1854104349E-03  -0.2196046975E-03   0.0000000000E+00   0.0000000000E+00   0.0000000000E+00   0.4931290915E-01
   0.2350729649E+00   0.2142782790E+00   0.6725343610E-04  -0.1636248011E-04   0.6725343610E-04  -0.1636248011E-04   0.6459045983E-01  -0.2204968610E-03   0.1931098889E-01  -0.1678594708E-02   0.0000000000E+00   0.0000000000E+00   0.5886331222E-03  -0.2539093148E-03  -0.2182173120E-04   0.0000000000E+00   0.0000000000E+00   0.0000000000E+00   0.5765932269E-01
   0.1775425514E+00   0.1998743110E+00   0.5172870771E-04  -0.1958800015E-04   0.5172870771E-04  -0.1958800015E-04   0.6469428596E-01  -0.2267799037E-02   0.1872794608E-01   0.1113987928E-04   0.0000000000E+00   0.0000000000E+00   0.5975624185E-03  -0.2729446865E-03   0.1448184307E-06   0.0000000000E+00   0.0000000000E+00   0.0000000000E+00   0.5931776440E-01
   0.1586157278E+00   0.1997432876E+00   0.4605440837E-04  -0.2207520624E-04   0.4605440837E-04  -0.2207520624E-04   0.6531043522E-01  -0.2761772091E-02   0.1876459894E-01   0.1507956345E-02   0.0000000000E+00   0.0000000000E+00   0.6050958716E-03  -0.2798428234E-03   0.1960343249E-04   0.0000000000E+00   0.0000000000E+00   0.0000000000E+00   0.6031699715E-01
   0.1597782922E+00   0.1838716955E+00   0.4841911791E-04  -0.1965773147E-04   0.4841911791E-04  -0.1965773147E-04   0.6431387226E-01  -0.4167046982E-02   0.1804404758E-01   0.6814331592E-03   0.0000000000E+00   0.0000000000E+00   0.6015077208E-03  -0.2887442294E-03   0.8858631070E-05   0.0000000000E+00   0.0000000000E+00   0.0000000000E+00   0.6051579198E-01
   0.1779195016E+00   0.1845524577E+00   0.5372330886E-04  -0.1744363698E-04   0.5372330886E-04  -0.1744363698E-04   0.6317936079E-01  -0.3266396545E-02   0.1797388927E-01  -0.8060553161E-03   0.0000000000E+00   0.0000000000E+00   0.5876711297E-03  -0.2761237156E-03  -0.1047871911E-04   0.0000000000E+00   0.0000000000E+00   0.0000000000E+00   0.5878840384E-01
   0.2544446503E+00   0.2136878309E+00   0.7295166176E-04  -0.1526206976E-04   0.7295166176E-04  -0.1526206976E-04   0.6370926025E-01   0.2745773735E-04   0.1912101540E-01  -0.1805152370E-02   0.0000000000E+00   0.0000000000E+00   0.5796471831E-03  -0.2482162496E-03  -0.2346698081E-04   0.0000000000E+00   0.0000000000E+00   0.0000000000E+00   0.5668923292E-01
   0.3118901659E+00   0.2123055821E+00   0.8933796839E-04  -0.1347495539E-04   0.8933796839E-04  -0.1347495539E-04   0.6172200598E-01   0.5466047771E-03   0.1868058323E-01  -0.1015151331E-02   0.0000000000E+00   0.0000000000E+00   0.5595384958E-03  -0.2357417198E-03  -0.1319696730E-04   0.0000000000E+00   0.0000000000E+00   0.0000000000E+00   0.5445154425E-01
   0.3118451234E+00   0.1930106053E+00   0.8988370687E-04  -0.1127685707E-04   0.8988370687E-04  -0.1127685707E-04   0.5873269355E-01   0.1080977671E-02   0.1794410137E-01  -0.1362268917E-02   0.0000000000E+00   0.0000000000E+00   0.5302516984E-03  -0.2192206080E-03  -0.1770949592E-04   0.0000000000E+00   0.0000000000E+00   0.0000000000E+00   0.5139525807E-01
   0.6714112770E-01   0.1440090359E+00   0.2410865206E-04  -0.3115253338E-04   0.2410865206E-04  -0.3115253338E-04   0.7824977372E-01   0.5759859265E-03   0.2364772789E-01   0.5398518116E-02   0.0000000000E+00   0.0000000000E+00   0.7098265958E-03  -0.2999326456E-03   0.7018073550E-04   0.0000000000E+00   0.0000000000E+00   0.0000000000E+00   0.6970120893E-01
   0.6215796301E-01   0.1545719150E+00   0.2094570302E-04  -0.3376152268E-04   0.2094570302E-04  -0.3376152268E-04   0.7658235303E-01   0.1734410234E-02   0.2349502898E-01   0.6913537606E-02   0.0000000000E+00   0.0000000000E+00   0.6901352127E-03  -0.2828880437E-03   0.8987598888E-04   0.0000000000E+00   0.0000000000E+00   0.0000000000E+00   0.6771042858E-01
   0.1526866513E+00   0.3951227185E-01   0.7538264361E-04  -0.1723475463E-05   0.7538264361E-04  -0.1723475463E-05   0.1860333939E-01  -0.5198895527E-02   0.4021333159E-02  -0.1152680459E-01   0.0000000000E+00   0.0000000000E+00   0.1895660810E-03  -0.1198629729E-03  -0.1498484597E-03   0.0000000000E+00   0.0000000000E+00   0.0000000000E+00   0.2865229150E-01
   0.1354977468E+00   0.4589249533E-01   0.7227689862E-04  -0.3121935649E-05   0.7227689862E-04  -0.3121935649E-05   0.1801246289E-01  -0.1095077449E-01   0.2118506520E-02  -0.1490429682E-01   0.0000000000E+00   0.0000000000E+00   0.2066214328E-03  -0.1699006531E-03  -0.1937558586E-03   0.0000000000E+00   0.0000000000E+00   0.0000000000E+00   0.3525248484E-01
   0.1626591908E+00   0.0000000000E+00   0.7959841504E-04   0.0000000000E+00   0.7959841504E-04   0.0000000000E+00   0.1113282028E-01  -0.1064951674E-02   0.3020360580E-02  -0.1903725137E-02   0.0000000000E+00   0.0000000000E+00   0.1054619760E-03  -0.5310905931E-04  -0.2474842678E-04   0.0000000000E+00   0.0000000000E+00   0.0000000000E+00   0.1089170342E-01
   0.1665880251E+00   0.1949763014E-01   0.7903654284E-04  -0.5630312982E-06   0.7903654284E-04  -0.5630312982E-06   0.1482189335E-01  -0.9745289501E-03   0.4154209320E-02  -0.4862166202E-02   0.0000000000E+00   0.0000000000E+00   0.1386798924E-03  -0.6667359751E-04  -0.6320816062E-04   0.0000000000E+00   0.0000000000E+00   0.0000000000E+00   0.1655865114E-01
   0.2756150878E+00   0.9271781704E-01   0.8683990451E-04  -0.3171181461E-05   0.8683990451E-04  -0.3171181461E-05   0.4111802606E-01   0.4821892078E-02   0.1378197544E-01  -0.4439651572E-02   0.0000000000E+00   0.0000000000E+00   0.3553686580E-03  -0.1164810837E-03  -0.5771547044E-04   0.0000000000E+00   0.0000000000E+00   0.0000000000E+00   0.3362981346E-01
   0.2938076454E+00   0.9348438364E-01   0.9002768717E-04  -0.3112180055E-05   0.9002768717E-04  -0.3112180055E-05   0.4137972170E-01   0.5498948828E-02   0.1406360116E-01  -0.3306947496E-02   0.0000000000E+00   0.0000000000E+00   0.3551095671E-03  -0.1113404803E-03  -0.4299031745E-04   0.0000000000E+00   0.0000000000E+00   0.0000000000E+00   0.3295063302E-01
   0.2939479232E+00   0.1128402065E+00   0.8910309467E-04  -0.4302248918E-05   0.8910309467E-04  -0.4302248918E-05   0.4477794701E-01   0.4395251658E-02   0.1475195960E-01  -0.3312804588E-02   0.0000000000E+00   0.0000000000E+00   0.3903378363E-03  -0.1346372032E-03  -0.4306645965E-04   0.0000000000E+00   0.0000000000E+00   0.0000000000E+00   0.3677125446E-01
   0.2760752653E+00   0.1113658174E+00   0.8569214473E-04  -0.4366294152E-05   0.8569214473E-04  -0.4366294152E-05   0.4471647994E-01   0.3708114767E-02   0.1452737841E-01  -0.4323040665E-02   0.0000000000E+00   0.0000000000E+00   0.3924583199E-03  -0.1406504274E-03  -0.5619952865E-04   0.0000000000E+00   0.0000000000E+00   0.0000000000E+00   0.3756007312E-01
   0.2930565762E+00   0.7443433479E-01   0.9076259478E-04  -0.2163252861E-05   0.9076259478E-04  -0.2163252861E-05   0.3824158232E-01   0.6622566710E-02   0.1345924471E-01  -0.3109156550E-02   0.0000000000E+00   0.0000000000E+00   0.3221703890E-03  -0.8887681400E-04  -0.4041903515E-04   0.0000000000E+00   0.0000000000E+00   0.0000000000E+00   0.2930485755E-01
   0.1712435744E+00   0.3887968090E-01   0.7726819918E-04  -0.1274300084E-05   0.7726819918E-04  -0.1274300084E-05   0.2015134943E-01  -0.1547920381E-02   0.5581028715E-02  -0.9938389008E-02   0.0000000000E+00   0.0000000000E+00   0.1894141693E-03  -0.9267633824E-04  -0.1291990571E-03   0.0000000000E+00   0.0000000000E+00   0.0000000000E+00   0.2562021239E-01
   0.2931404303E+00   0.1327378195E+00   0.8791166033E-04  -0.5772272906E-05   0.8791166033E-04  -0.5772272906E-05   0.4848685388E-01   0.3126825090E-02   0.1548410369E-01  -0.3175586654E-02   0.0000000000E+00   0.0000000000E+00   0.4290357525E-03  -0.1606446218E-03  -0.4128262651E-04   0.0000000000E+00   0.0000000000E+00   0.0000000000E+00   0.4098094695E-01
   0.5194539587E-01   0.1832897554E+00   0.1516198383E-04  -0.3936679635E-04   0.1516198383E-04  -0.3936679635E-04   0.6788649960E-01   0.3238627432E-02   0.2133753811E-01   0.7883017565E-02   0.0000000000E+00   0.0000000000E+00   0.6051364994E-03  -0.2352858388E-03   0.1024792283E-03   0.0000000000E+00   0.0000000000E+00   0.0000000000E+00   0.5937732663E-01
   0.5045180855E-01   0.1685162845E+00   0.1572117688E-04  -0.3787575877E-04   0.1572117688E-04  -0.3787575877E-04   0.7231506898E-01   0.4918548688E-02   0.2317008530E-01   0.8102557581E-02   0.0000000000E+00   0.0000000000E+00   0.6388847878E-03  -0.2372699760E-03   0.1053332486E-03   0.0000000000E+00   0.0000000000E+00   0.0000000000E+00   0.6199463530E-01
   0.2919224489E+00   0.5550298772E-01   0.9132845648E-04  -0.1417792474E-05   0.9132845648E-04  -0.1417792474E-05   0.3554099142E-01   0.7592434116E-02   0.1294002766E-01  -0.2651087866E-02   0.0000000000E+00   0.0000000000E+00   0.2938125289E-03  -0.6951871610E-04  -0.3446414226E-04   0.0000000000E+00   0.0000000000E+00   0.0000000000E+00   0.2609594820E-01
   0.2918384018E+00   0.1532790365E+00   0.8654290687E-04  -0.7562227190E-05   0.8654290687E-04  -0.7562227190E-05   0.5223375766E-01   0.2276063516E-02   0.1635294635E-01  -0.2828602417E-02   0.0000000000E+00   0.0000000000E+00   0.4664505470E-03  -0.1829994769E-03  -0.3677183143E-04   0.0000000000E+00   0.0000000000E+00   0.0000000000E+00   0.4487776264E-01
   0.2707446914E+00   0.3669085913E-01   0.8905419356E-04  -0.8391329373E-06   0.8905419356E-04  -0.8391329373E-06   0.3233761091E-01   0.7763757806E-02   0.1203041061E-01  -0.2761479807E-02   0.0000000000E+00   0.0000000000E+00   0.2639936038E-03  -0.5546648649E-04  -0.3589923749E-04   0.0000000000E+00   0.0000000000E+00   0.0000000000E+00   0.2321781609E-01
   0.2508628687E+00   0.3681254953E-01   0.8647235662E-04  -0.8465331496E-06   0.8647235662E-04  -0.8465331496E-06   0.3086863835E-01   0.6907893806E-02   0.1133295965E-01  -0.3678970162E-02   0.0000000000E+00   0.0000000000E+00   0.2539638231E-03  -0.5752585593E-04  -0.4782661210E-04   0.0000000000E+00   0.0000000000E+00   0.0000000000E+00   0.2294965604E-01
   0.2337009573E+00   0.5569710601E-01   0.8296764064E-04  -0.1536596432E-05   0.8296764064E-04  -0.1536596432E-05   0.3267170865E-01   0.4737196306E-02   0.1122267149E-01  -0.6145129315E-02   0.0000000000E+00   0.0000000000E+00   0.2788374831E-03  -0.8431117735E-04  -0.7988668110E-04   0.0000000000E+00   0.0000000000E+00   0.0000000000E+00   0.2746516870E-01
   0.2532088128E+00   0.5532454662E-01   0.8573987911E-04  -0.1462339098E-05   0.8573987911E-04  -0.1462339098E-05   0.3377483524E-01   0.6011027252E-02   0.1193575875E-01  -0.4790328817E-02   0.0000000000E+00   0.0000000000E+00   0.2839079944E-03  -0.7702150945E-04  -0.6227427463E-04   0.0000000000E+00   0.0000000000E+00   0.0000000000E+00   0.2664564372E-01
   0.2350031212E+00   0.1970261238E+00   0.6871311402E-04  -0.1421307978E-04   0.6871311402E-04  -0.1421307978E-04   0.6177559339E-01  -0.4739226775E-03   0.1839050121E-01  -0.2370849415E-02   0.0000000000E+00   0.0000000000E+00   0.5640061983E-03  -0.2452375106E-03  -0.3082104240E-04   0.0000000000E+00   0.0000000000E+00   0.0000000000E+00   0.5543972249E-01
   0.2543693888E+00   0.1956489965E+00   0.7422789374E-04  -0.1307672857E-04   0.7422789374E-04  -0.1307672857E-04   0.6074849228E-01   0.3085071265E-04   0.1823380290E-01  -0.2498155631E-02   0.0000000000E+00   0.0000000000E+00   0.5526909620E-03  -0.2366383784E-03  -0.3247602321E-04   0.0000000000E+00   0.0000000000E+00   0.0000000000E+00   0.5414433123E-01
   0.1597068742E+00   0.7268743027E-01   0.6923009463E-04  -0.4113663592E-05   0.6923009463E-04  -0.4113663592E-05   0.3515472876E-01  -0.7064930033E-02   0.8426939618E-02  -0.1363603904E-01   0.0000000000E+00   0.0000000000E+00   0.3474612589E-03  -0.2013943055E-03  -0.1772685076E-03   0.0000000000E+00   0.0000000000E+00   0.0000000000E+00   0.4382178952E-01
   0.1738849151E+00   0.6065676090E-01   0.7399256170E-04  -0.2478649132E-05   0.7399256170E-04  -0.2478649132E-05   0.3015811202E-01  -0.3060206371E-02   0.8129371694E-02  -0.1211787905E-01   0.0000000000E+00   0.0000000000E+00   0.2863736242E-03  -0.1454645148E-03  -0.1575324276E-03   0.0000000000E+00   0.0000000000E+00   0.0000000000E+00   0.3602088104E-01
   0.1842628215E+00   0.8233132656E-01   0.7166427245E-04  -0.3991319596E-05   0.7166427245E-04  -0.3991319596E-05   0.3946879045E-01  -0.3453797498E-02   0.1080449789E-01  -0.1142582695E-01   0.0000000000E+00   0.0000000000E+00   0.3726358033E-03  -0.1853578400E-03  -0.1485357503E-03   0.0000000000E+00   0.0000000000E+00   0.0000000000E+00   0.4267726532E-01
   0.1695351330E+00   0.8994341386E-01   0.6731748394E-04  -0.5432769936E-05   0.6731748394E-04  -0.5432769936E-05   0.4277203544E-01  -0.6462929046E-02   0.1089273192E-01  -0.1158208667E-01   0.0000000000E+00   0.0000000000E+00   0.4144309458E-03  -0.2256235925E-03  -0.1505671268E-03   0.0000000000E+00   0.0000000000E+00   0.0000000000E+00   0.4767331009E-01
   0.9889154184E-01   0.2141403986E+00   0.2633057069E-04  -0.3448970646E-04   0.2633057069E-04  -0.3448970646E-04   0.6352495083E-01  -0.1249461799E-02   0.1868264671E-01   0.6322961981E-02   0.0000000000E+00   0.0000000000E+00   0.5829499536E-03  -0.2591174106E-03   0.8219850575E-04   0.0000000000E+00   0.0000000000E+00   0.0000000000E+00   0.5846255624E-01
   0.1398265242E+00   0.1993362855E+00   0.4039859167E-04  -0.2493972595E-04   0.4039859167E-04  -0.2493972595E-04   0.6570625366E-01  -0.3083755062E-02   0.1878674958E-01   0.3239541579E-02   0.0000000000E+00   0.0000000000E+00   0.6099535530E-03  -0.2843165603E-03   0.4211404053E-04   0.0000000000E+00   0.0000000000E+00   0.0000000000E+00   0.6112872306E-01
   0.1209576413E+00   0.1985829709E+00   0.3473015698E-04  -0.2815906534E-04   0.3473015698E-04  -0.2815906534E-04   0.6581197262E-01  -0.3062364739E-02   0.1882488236E-01   0.5047713228E-02   0.0000000000E+00   0.0000000000E+00   0.6108321733E-03  -0.2845342123E-03   0.6562027196E-04   0.0000000000E+00   0.0000000000E+00   0.0000000000E+00   0.6156921364E-01
   0.2183286224E+00   0.7553130157E-01   0.7860969786E-04  -0.2698263677E-05   0.7860969786E-04  -0.2698263677E-05   0.3675498114E-01   0.1813963283E-02   0.1157068333E-01  -0.8329427798E-02   0.0000000000E+00   0.0000000000E+00   0.3273958715E-03  -0.1268373606E-03  -0.1082825614E-03   0.0000000000E+00   0.0000000000E+00   0.0000000000E+00   0.3437553726E-01
   0.8036081398E-01   0.1527360608E+00   0.2736924135E-04  -0.2952260833E-04   0.2736924135E-04  -0.2952260833E-04   0.7345411954E-01  -0.3267196726E-02   0.2105607685E-01   0.6117188011E-02   0.0000000000E+00   0.0000000000E+00   0.6811745551E-03  -0.3162025564E-03   0.7952344415E-04   0.0000000000E+00   0.0000000000E+00   0.0000000000E+00   0.6870021310E-01
   0.6987988872E-01   0.1666731111E+00   0.2213530928E-04  -0.3387695894E-04   0.2213530928E-04  -0.3387695894E-04   0.7179188695E-01   0.3792393558E-03   0.2165133789E-01   0.8039992058E-02   0.0000000000E+00   0.0000000000E+00   0.6518271377E-03  -0.2765372809E-03   0.1045198967E-03   0.0000000000E+00   0.0000000000E+00   0.0000000000E+00   0.6502042711E-01
   0.1415313018E+00   0.1830704149E+00   0.4298139368E-04  -0.2229507171E-04   0.4298139368E-04  -0.2229507171E-04   0.6541524314E-01  -0.4664758739E-02   0.1822514532E-01   0.2455271662E-02   0.0000000000E+00   0.0000000000E+00   0.6134712717E-03  -0.2975687528E-03   0.3191853161E-04   0.0000000000E+00   0.0000000000E+00   0.0000000000E+00   0.6202892070E-01
   0.2726637078E+00   0.1744863747E+00   0.8058292429E-04  -0.1006263584E-04   0.8058292429E-04  -0.1006263584E-04   0.5676738978E-01   0.9247853053E-03   0.1730765253E-01  -0.2989937280E-02   0.0000000000E+00   0.0000000000E+00   0.5129765843E-03  -0.2129772739E-03  -0.3886918464E-04   0.0000000000E+00   0.0000000000E+00   0.0000000000E+00   0.4998411200E-01
   0.2921141212E+00   0.1736100698E+00   0.8556857515E-04  -0.9525078588E-05   0.8556857515E-04  -0.9525078588E-05   0.5585806855E-01   0.1488228268E-02   0.1720388905E-01  -0.2460426684E-02   0.0000000000E+00   0.0000000000E+00   0.5025043336E-03  -0.2043035901E-03  -0.3198554690E-04   0.0000000000E+00   0.0000000000E+00   0.0000000000E+00   0.4864868415E-01
   0.9432741973E-01   0.1609847631E+00   0.3091231260E-04  -0.2776395799E-04   0.3091231260E-04  -0.2776395799E-04   0.7088809231E-01  -0.4855968296E-02   0.1980963720E-01   0.5881050874E-02   0.0000000000E+00   0.0000000000E+00   0.6640199164E-03  -0.3206528715E-03   0.7645366136E-04   0.0000000000E+00   0.0000000000E+00   0.0000000000E+00   0.6765734738E-01
   0.8723322008E-01   0.1754208699E+00   0.2682434210E-04  -0.3148405663E-04   0.2682434210E-04  -0.3148405663E-04   0.6957195114E-01  -0.2538666455E-02   0.2010998541E-01   0.7923719357E-02   0.0000000000E+00   0.0000000000E+00   0.6430055545E-03  -0.2944324742E-03   0.1030083516E-03   0.0000000000E+00   0.0000000000E+00   0.0000000000E+00   0.6533297638E-01
   0.2742564333E+00   0.7396909295E-01   0.8776563083E-04  -0.2195676154E-05   0.8776563083E-04  -0.2195676154E-05   0.3775250202E-01   0.5930111041E-02   0.1310478392E-01  -0.4218513201E-02   0.0000000000E+00   0.0000000000E+00   0.3204203353E-03  -0.9327074741E-04  -0.5484067161E-04   0.0000000000E+00   0.0000000000E+00   0.0000000000E+00   0.2980957036E-01
   0.2262989949E+00   0.1122901836E+00   0.7555246916E-04  -0.5381720451E-05   0.7555246916E-04  -0.5381720451E-05   0.4613721338E-01   0.1210467334E-04   0.1384479542E-01  -0.7127769027E-02   0.0000000000E+00   0.0000000000E+00   0.4198014335E-03  -0.1798249797E-03  -0.9266099735E-04   0.0000000000E+00   0.0000000000E+00   0.0000000000E+00   0.4280396673E-01
   0.2225988946E+00   0.9417668318E-01   0.7705328310E-04  -0.3947161722E-05   0.7705328310E-04  -0.3947161722E-05   0.4178219680E-01   0.7903282483E-03   0.1277175751E-01  -0.7985737470E-02   0.0000000000E+00   0.0000000000E+00   0.3771357107E-03  -0.1557585804E-03  -0.1038145871E-03   0.0000000000E+00   0.0000000000E+00   0.0000000000E+00   0.3902627753E-01
   0.2725628394E+00   0.5525919325E-01   0.8851669780E-04  -0.1427277164E-05   0.8851669780E-04  -0.1427277164E-05   0.3474454225E-01   0.6945572832E-02   0.1250703453E-01  -0.3654695515E-02   0.0000000000E+00   0.0000000000E+00   0.2890876005E-03  -0.7229900201E-04  -0.4751104170E-04   0.0000000000E+00   0.0000000000E+00   0.0000000000E+00   0.2624617963E-01
   0.1570157080E+00   0.5348910740E-01   0.7304402369E-04  -0.2587349601E-05   0.7304402369E-04  -0.2587349601E-05   0.2742779777E-01  -0.5486716186E-02   0.6582324476E-02  -0.1319155958E-01   0.0000000000E+00   0.0000000000E+00   0.2709911529E-03  -0.1568975286E-03  -0.1714902745E-03   0.0000000000E+00   0.0000000000E+00   0.0000000000E+00   0.3682897417E-01
   0.1468939611E+00   0.6074950697E-01   0.6998204912E-04  -0.3683162597E-05   0.6998204912E-04  -0.3683162597E-05   0.2902244006E-01  -0.7921013852E-02   0.6330427863E-02  -0.1385076154E-01   0.0000000000E+00   0.0000000000E+00   0.2949961586E-03  -0.1852687423E-03  -0.1800599000E-03   0.0000000000E+00   0.0000000000E+00   0.0000000000E+00   0.4039481432E-01
   0.1239502582E+00   0.1490649402E+00   0.4250207860E-04  -0.1985741850E-04   0.4250207860E-04  -0.1985741850E-04   0.6661626750E-01  -0.8724517702E-02   0.1736752494E-01   0.5446015022E-03   0.0000000000E+00   0.0000000000E+00   0.6402336533E-03  -0.3391965544E-03   0.7079819529E-05   0.0000000000E+00   0.0000000000E+00   0.0000000000E+00   0.6624002135E-01
   0.1446981437E+00   0.1473266196E+00   0.4927834438E-04  -0.1620420370E-04   0.4927834438E-04  -0.1620420370E-04   0.6297616739E-01  -0.8388236269E-02   0.1637637934E-01  -0.2276817927E-02   0.0000000000E+00   0.0000000000E+00   0.6057972447E-03  -0.3219400029E-03  -0.2959863305E-04   0.0000000000E+00   0.0000000000E+00   0.0000000000E+00   0.6287791393E-01
   0.1432565707E+00   0.1660942452E+00   0.4584132989E-04  -0.1943037697E-04   0.4584132989E-04  -0.1943037697E-04   0.6485039087E-01  -0.6709674972E-02   0.1744221477E-01   0.7451992385E-03   0.0000000000E+00   0.0000000000E+00   0.6163062893E-03  -0.3139745666E-03   0.9687590101E-05   0.0000000000E+00   0.0000000000E+00   0.0000000000E+00   0.6303763427E-01
   0.1255651411E+00   0.1662682013E+00   0.4030754423E-04  -0.2242534689E-04   0.4030754423E-04  -0.2242534689E-04   0.6640708363E-01  -0.6960406128E-02   0.1783400325E-01   0.2582294377E-02   0.0000000000E+00   0.0000000000E+00   0.6314500450E-03  -0.3223273219E-03   0.3356982690E-04   0.0000000000E+00   0.0000000000E+00   0.0000000000E+00   0.6477730993E-01
   0.6672505780E-01   0.1808131134E+00   0.1987689781E-04  -0.3635427527E-04   0.1987689781E-04  -0.3635427527E-04   0.6769373438E-01   0.4669480610E-03   0.2044820473E-01   0.8159771174E-02   0.0000000000E+00   0.0000000000E+00   0.6141918854E-03  -0.2597563367E-03   0.1060770253E-03   0.0000000000E+00   0.0000000000E+00   0.0000000000E+00   0.6143273637E-01
   0.1096142353E+00   0.1660692921E+00   0.3523215481E-04  -0.2541745577E-04   0.3523215481E-04  -0.2541745577E-04   0.6877557881E-01  -0.6195637986E-02   0.1877398225E-01   0.4622888509E-02   0.0000000000E+00   0.0000000000E+00   0.6500207553E-03  -0.3246050630E-03   0.6009755062E-04   0.0000000000E+00   0.0000000000E+00   0.0000000000E+00   0.6660486365E-01
   0.1054956234E+00   0.1805375543E+00   0.3206319219E-04  -0.2849732976E-04   0.3206319219E-04  -0.2849732976E-04   0.6769891950E-01  -0.3909397788E-02   0.1913685651E-01   0.6299651357E-02   0.0000000000E+00   0.0000000000E+00   0.6313068188E-03  -0.2996013059E-03   0.8189546764E-04   0.0000000000E+00   0.0000000000E+00   0.0000000000E+00   0.6422453724E-01
   0.2148313865E+00   0.1816560066E+00   0.6459123705E-04  -0.1363271147E-04   0.6459123705E-04  -0.1363271147E-04   0.6036063921E-01  -0.1569094753E-02   0.1763746334E-01  -0.2814000054E-02   0.0000000000E+00   0.0000000000E+00   0.5554012863E-03  -0.2496852552E-03  -0.3658200070E-04   0.0000000000E+00   0.0000000000E+00   0.0000000000E+00   0.5512232197E-01
   0.2340465742E+00   0.1797960622E+00   0.7004062385E-04  -0.1219292210E-04   0.7004062385E-04  -0.1219292210E-04   0.5902535547E-01  -0.6361510199E-03   0.1751676134E-01  -0.3194596536E-02   0.0000000000E+00   0.0000000000E+00   0.5396117238E-03  -0.2359878606E-03  -0.4152975497E-04   0.0000000000E+00   0.0000000000E+00   0.0000000000E+00   0.5326113124E-01
   0.2753940777E+00   0.1304937728E+00   0.8424885689E-04  -0.5835099803E-05   0.8424885689E-04  -0.5835099803E-05   0.4811211669E-01   0.2562882665E-02   0.1520249981E-01  -0.4171566261E-02   0.0000000000E+00   0.0000000000E+00   0.4278250195E-03  -0.1643150228E-03  -0.5423036139E-04   0.0000000000E+00   0.0000000000E+00   0.0000000000E+00   0.4135539384E-01
   0.2704837329E+00   0.1522706039E+00   0.8159894325E-04  -0.7851038284E-05   0.8159894325E-04  -0.7851038284E-05   0.5260743951E-01   0.1429913058E-02   0.1621120577E-01  -0.3818370367E-02   0.0000000000E+00   0.0000000000E+00   0.4731510386E-03  -0.1921568053E-03  -0.4963881477E-04   0.0000000000E+00   0.0000000000E+00   0.0000000000E+00   0.4609493448E-01
   0.2534443183E+00   0.1774649121E+00   0.7540215082E-04  -0.1102194319E-04   0.7540215082E-04  -0.1102194319E-04   0.5758512544E-01   0.1799811543E-03   0.1732953198E-01  -0.3229202358E-02   0.0000000000E+00   0.0000000000E+00   0.5233227150E-03  -0.2229441607E-03  -0.4197963065E-04   0.0000000000E+00   0.0000000000E+00   0.0000000000E+00   0.5134337278E-01
   0.1221946840E+00   0.5811633919E-01   0.6721500237E-04  -0.5630753255E-05   0.6721500237E-04  -0.5630753255E-05   0.2437374739E-01  -0.1456470053E-01   0.2942714056E-02  -0.1470303732E-01   0.0000000000E+00   0.0000000000E+00   0.2786034333E-03  -0.2275963897E-03  -0.1911394852E-03   0.0000000000E+00   0.0000000000E+00   0.0000000000E+00   0.4259755385E-01
   0.1101608791E+00   0.7308463359E-01   0.5982054015E-04  -0.9464207410E-05   0.5982054015E-04  -0.9464207410E-05   0.3807123924E-01  -0.1414029801E-01   0.7179282368E-02  -0.1546552373E-01   0.0000000000E+00   0.0000000000E+00   0.4015954393E-03  -0.2771545449E-03  -0.2010518084E-03   0.0000000000E+00   0.0000000000E+00   0.0000000000E+00   0.5265517880E-01
   0.1475910933E+00   0.8122345523E-01   0.6486165552E-04  -0.5879936840E-05   0.6486165552E-04  -0.5879936840E-05   0.4099068236E-01  -0.9983413517E-02   0.9302180654E-02  -0.1377019051E-01   0.0000000000E+00   0.0000000000E+00   0.4119505222E-03  -0.2507127242E-03  -0.1790124766E-03   0.0000000000E+00   0.0000000000E+00   0.0000000000E+00   0.5056337301E-01
   0.1353639639E+00   0.7049670204E-01   0.6546694114E-04  -0.5620778391E-05   0.6546694114E-04  -0.5620778391E-05   0.3488996018E-01  -0.1141801946E-01   0.7041582216E-02  -0.1533056405E-01   0.0000000000E+00   0.0000000000E+00   0.3620289136E-03  -0.2399748218E-03  -0.1992973326E-03   0.0000000000E+00   0.0000000000E+00   0.0000000000E+00   0.4821847543E-01
   0.1010395500E+00   0.1969031893E+00   0.2884451696E-04  -0.3174435952E-04   0.2884451696E-04  -0.3174435952E-04   0.6601155503E-01  -0.2441234717E-02   0.1907109609E-01   0.6903004141E-02   0.0000000000E+00   0.0000000000E+00   0.6102259662E-03  -0.2796603005E-03   0.8973905383E-04   0.0000000000E+00   0.0000000000E+00   0.0000000000E+00   0.6179636722E-01
   0.1236060463E+00   0.1823161023E+00   0.3753114979E-04  -0.2528336159E-04   0.3753114979E-04  -0.2528336159E-04   0.6659843573E-01  -0.4752936855E-02   0.1855364966E-01   0.4414401987E-02   0.0000000000E+00   0.0000000000E+00   0.6245822189E-03  -0.3029856247E-03   0.5738722583E-04   0.0000000000E+00   0.0000000000E+00   0.0000000000E+00   0.6346300349E-01
   0.1612131404E+00   0.1679195248E+00   0.5101922171E-04  -0.1713208430E-04   0.5101922171E-04  -0.1713208430E-04   0.6301994886E-01  -0.5492835799E-02   0.1725813392E-01  -0.9259818600E-03   0.0000000000E+00   0.0000000000E+00   0.5949035942E-03  -0.2957626063E-03  -0.1203776418E-04   0.0000000000E+00   0.0000000000E+00   0.0000000000E+00   0.6045174001E-01
   0.1782572558E+00   0.1698183561E+00   0.5573742188E-04  -0.1537094473E-04   0.5573742188E-04  -0.1537094473E-04   0.6148510521E-01  -0.4231177060E-02   0.1717617844E-01  -0.1965668648E-02   0.0000000000E+00   0.0000000000E+00   0.5760160479E-03  -0.2782956215E-03  -0.2555369243E-04   0.0000000000E+00   0.0000000000E+00   0.0000000000E+00   0.5814774760E-01
   0.8812274514E-01   0.1397801816E+00   0.3222987025E-04  -0.2561370782E-04   0.3222987025E-04  -0.2561370782E-04   0.7406933847E-01  -0.5915903027E-02   0.2044603063E-01   0.2844601154E-02   0.0000000000E+00   0.0000000000E+00   0.6971030019E-03  -0.3427051376E-03   0.3697981500E-04   0.0000000000E+00   0.0000000000E+00   0.0000000000E+00   0.7075430392E-01
   0.9949118695E-01   0.8893758517E-01   0.5099947492E-04  -0.1406066699E-04   0.5099947492E-04  -0.1406066699E-04   0.5389151959E-01  -0.1274007609E-01   0.1234543305E-01  -0.1275402310E-01   0.0000000000E+00   0.0000000000E+00   0.5400991250E-03  -0.3261116188E-03  -0.1658023003E-03   0.0000000000E+00   0.0000000000E+00   0.0000000000E+00   0.6177871586E-01
   0.9645183447E-01   0.1276095768E+00   0.3773003375E-04  -0.2157158389E-04   0.3773003375E-04  -0.2157158389E-04   0.7125500517E-01  -0.9320771450E-02   0.1858027012E-01  -0.7644771649E-03   0.0000000000E+00   0.0000000000E+00   0.6847715557E-03  -0.3627135403E-03  -0.9938203144E-05   0.0000000000E+00   0.0000000000E+00   0.0000000000E+00   0.7075874354E-01
   0.2506879484E+00   0.1600775453E+00   0.7617068628E-04  -0.9237352915E-05   0.7617068628E-04  -0.9237352915E-05   0.5452775214E-01   0.2823223214E-04   0.1636679531E-01  -0.4012984383E-02   0.0000000000E+00   0.0000000000E+00   0.4960924388E-03  -0.2124013200E-03  -0.5216879698E-04   0.0000000000E+00   0.0000000000E+00   0.0000000000E+00   0.4893940991E-01
   0.2595153780E+00   0.1275234012E+00   0.8104898170E-04  -0.5881389929E-05   0.8104898170E-04  -0.5881389929E-05   0.4847965518E-01   0.1976078168E-02   0.1513672000E-01  -0.4919401243E-02   0.0000000000E+00   0.0000000000E+00   0.4334581572E-03  -0.1710883439E-03  -0.6395221616E-04   0.0000000000E+00   0.0000000000E+00   0.0000000000E+00   0.4238010798E-01
   0.1962953366E+00   0.1840133329E+00   0.5911329582E-04  -0.1545454236E-04   0.5911329582E-04  -0.1545454236E-04   0.6169746887E-01  -0.2471216068E-02   0.1776787584E-01  -0.1988548203E-02   0.0000000000E+00   0.0000000000E+00   0.5710847093E-03  -0.2631081948E-03  -0.2585112665E-04   0.0000000000E+00   0.0000000000E+00   0.0000000000E+00   0.5692251534E-01
   0.2584437877E+00   0.1414903698E+00   0.7962435686E-04  -0.7167578765E-05   0.7962435686E-04  -0.7167578765E-05   0.5197136756E-01   0.1985434814E-02   0.1618704071E-01  -0.4408456243E-02   0.0000000000E+00   0.0000000000E+00   0.4651962490E-03  -0.1846208767E-03  -0.5730993115E-04   0.0000000000E+00   0.0000000000E+00   0.0000000000E+00   0.4525607401E-01
   0.2461006460E+00   0.1446269465E+00   0.7646348351E-04  -0.7822228633E-05   0.7646348351E-04  -0.7822228633E-05   0.5204955237E-01   0.5350567907E-03   0.1577538275E-01  -0.4773334452E-02   0.0000000000E+00   0.0000000000E+00   0.4715642051E-03  -0.1981242375E-03  -0.6205334788E-04   0.0000000000E+00   0.0000000000E+00   0.0000000000E+00   0.4657169652E-01
   0.1917976995E+00   0.1589643775E+00   0.6100323645E-04  -0.1259322767E-04   0.6100323645E-04  -0.1259322767E-04   0.5857418787E-01  -0.3324041882E-02   0.1657504380E-01  -0.3754007994E-02   0.0000000000E+00   0.0000000000E+00   0.5459888730E-03  -0.2586881138E-03  -0.4880210393E-04   0.0000000000E+00   0.0000000000E+00   0.0000000000E+00   0.5511631133E-01
   0.1946264694E+00   0.1697626322E+00   0.6038872182E-04  -0.1373590286E-04   0.6038872182E-04  -0.1373590286E-04   0.5976827994E-01  -0.3264285589E-02   0.1695119830E-01  -0.2919562324E-02   0.0000000000E+00   0.0000000000E+00   0.5566220612E-03  -0.2628012906E-03  -0.3795431021E-04   0.0000000000E+00   0.0000000000E+00   0.0000000000E+00   0.5597342114E-01
   0.1798884191E+00   0.1552696890E+00   0.5822953609E-04  -0.1319148248E-04   0.5822953609E-04  -0.1319148248E-04   0.5957378454E-01  -0.4673576714E-02   0.1647006235E-01  -0.3413955084E-02   0.0000000000E+00   0.0000000000E+00   0.5603483885E-03  -0.2748673078E-03  -0.4438141609E-04   0.0000000000E+00   0.0000000000E+00   0.0000000000E+00   0.5699893615E-01
   0.1010500998E+00   0.1485189835E+00   0.3507292333E-04  -0.2425723160E-04   0.3507292333E-04  -0.2425723160E-04   0.7037106033E-01  -0.7434810144E-02   0.1888087505E-01   0.3138636348E-02   0.0000000000E+00   0.0000000000E+00   0.6693724085E-03  -0.3421039076E-03   0.4080227252E-04   0.0000000000E+00   0.0000000000E+00   0.0000000000E+00   0.6874864410E-01
   0.2005347654E+00   0.7797417118E-01   0.7530519088E-04  -0.3166109539E-05   0.7530519088E-04  -0.3166109539E-05   0.3739074391E-01  -0.4152022880E-03   0.1109266249E-01  -0.9966101208E-02   0.0000000000E+00   0.0000000000E+00   0.3418750585E-03  -0.1496022421E-03  -0.1295593157E-03   0.0000000000E+00   0.0000000000E+00   0.0000000000E+00   0.3772717732E-01
   0.2114934134E+00   0.1146585425E+00   0.7206719307E-04  -0.6112763399E-05   0.7206719307E-04  -0.6112763399E-05   0.4752892564E-01  -0.1653961071E-02   0.1376248937E-01  -0.7637276005E-02   0.0000000000E+00   0.0000000000E+00   0.4389636715E-03  -0.2004138558E-03  -0.9928458807E-04   0.0000000000E+00   0.0000000000E+00   0.0000000000E+00   0.4551974158E-01
   0.2067248559E+00   0.9688623270E-01   0.7361344777E-04  -0.4581998317E-05   0.7361344777E-04  -0.4581998317E-05   0.4302916652E-01  -0.1408639191E-02   0.1248615820E-01  -0.8990763588E-02   0.0000000000E+00   0.0000000000E+00   0.3970591082E-03  -0.1806323661E-03  -0.1168799266E-03   0.0000000000E+00   0.0000000000E+00   0.0000000000E+00   0.4231867263E-01
   0.9000718251E-01   0.1039608712E+00   0.4247775646E-04  -0.1884291655E-04   0.4247775646E-04  -0.1884291655E-04   0.6887782366E-01  -0.8186731719E-02   0.1820732758E-01  -0.7985487534E-02   0.0000000000E+00   0.0000000000E+00   0.6587164490E-03  -0.3431227709E-03  -0.1038113379E-03   0.0000000000E+00   0.0000000000E+00   0.0000000000E+00   0.6862281626E-01
   0.1245943081E+00   0.8336995044E-01   0.5925404604E-04  -0.8619079452E-05   0.5925404604E-04  -0.8619079452E-05   0.4426203688E-01  -0.1365761638E-01   0.9181326151E-02  -0.1424173445E-01   0.0000000000E+00   0.0000000000E+00   0.4560492395E-03  -0.2969062529E-03  -0.1851425478E-03   0.0000000000E+00   0.0000000000E+00   0.0000000000E+00   0.5614540270E-01
   0.1088442710E+00   0.1151583804E+00   0.4498549426E-04  -0.1663280581E-04   0.4498549426E-04  -0.1663280581E-04   0.6447468864E-01  -0.1184031804E-01   0.1579031118E-01  -0.6114330824E-02   0.0000000000E+00   0.0000000000E+00   0.6328969070E-03  -0.3591981799E-03  -0.7948630072E-04   0.0000000000E+00   0.0000000000E+00   0.0000000000E+00   0.6785817802E-01
   0.2439716805E+00   0.1279770954E+00   0.7761527264E-04  -0.6299315114E-05   0.7761527264E-04  -0.6299315114E-05   0.4873763174E-01   0.8128995395E-03   0.1486515938E-01  -0.5661135291E-02   0.0000000000E+00   0.0000000000E+00   0.4403421406E-03  -0.1826793780E-03  -0.7359475879E-04   0.0000000000E+00   0.0000000000E+00   0.0000000000E+00   0.4377397884E-01
   0.1990128718E+00   0.1517194193E+00   0.6390942272E-04  -0.1108737186E-04   0.6390942272E-04  -0.1108737186E-04   0.5657821217E-01  -0.3521318973E-02   0.1591706796E-01  -0.4564025083E-02   0.0000000000E+00   0.0000000000E+00   0.5285948748E-03  -0.2526990301E-03  -0.5933232609E-04   0.0000000000E+00   0.0000000000E+00   0.0000000000E+00   0.5369389970E-01
   0.2055030282E+00   0.1444163077E+00   0.6657660111E-04  -0.9735160343E-05   0.6657660111E-04  -0.9735160343E-05   0.5464358799E-01  -0.3235182139E-02   0.1542252176E-01  -0.5345959046E-02   0.0000000000E+00   0.0000000000E+00   0.5098738611E-03  -0.2425501506E-03  -0.6949746759E-04   0.0000000000E+00   0.0000000000E+00   0.0000000000E+00   0.5199952830E-01
   0.1925328050E+00   0.1008096317E+00   0.7008648365E-04  -0.5492129963E-05   0.7008648365E-04  -0.5492129963E-05   0.4499848381E-01  -0.3499870963E-02   0.1244958385E-01  -0.9458154100E-02   0.0000000000E+00   0.0000000000E+00   0.4231356994E-03  -0.2073429126E-03  -0.1229560033E-03   0.0000000000E+00   0.0000000000E+00   0.0000000000E+00   0.4580570310E-01
   0.1417980202E+00   0.1241878701E+00   0.5287711363E-04  -0.1287893470E-04   0.5287711363E-04  -0.1287893470E-04   0.5913322761E-01  -0.1047965405E-01   0.1459607207E-01  -0.6214634268E-02   0.0000000000E+00   0.0000000000E+00   0.5789830220E-03  -0.3259844395E-03  -0.8079024549E-04   0.0000000000E+00   0.0000000000E+00   0.0000000000E+00   0.6199537662E-01
   0.1459803023E+00   0.1118684332E+00   0.5680516558E-04  -0.1039737675E-04   0.5680516558E-04  -0.1039737675E-04   0.5483935381E-01  -0.1062268917E-01   0.1326499939E-01  -0.9040504665E-02   0.0000000000E+00   0.0000000000E+00   0.5404666075E-03  -0.3105399514E-03  -0.1175265606E-03   0.0000000000E+00   0.0000000000E+00   0.0000000000E+00   0.5944039591E-01
   0.1587187292E+00   0.1176490548E+00   0.5894609992E-04  -0.9932122033E-05   0.5894609992E-04  -0.9932122033E-05   0.5429929729E-01  -0.8840331351E-02   0.1363768978E-01  -0.8249630047E-02   0.0000000000E+00   0.0000000000E+00   0.5286008976E-03  -0.2922142747E-03  -0.1072451906E-03   0.0000000000E+00   0.0000000000E+00   0.0000000000E+00   0.5725327538E-01
   0.1542044559E+00   0.1313524792E+00   0.5499144681E-04  -0.1247492150E-04   0.5499144681E-04  -0.1247492150E-04   0.5797997559E-01  -0.9265967525E-02   0.1461420242E-01  -0.5940298187E-02   0.0000000000E+00   0.0000000000E+00   0.5637550512E-03  -0.3104422093E-03  -0.7722387643E-04   0.0000000000E+00   0.0000000000E+00   0.0000000000E+00   0.5984833334E-01
   0.1638735985E+00   0.1519507538E+00   0.5418826213E-04  -0.1444307832E-04   0.5418826213E-04  -0.1444307832E-04   0.6081362259E-01  -0.6117894762E-02   0.1640871835E-01  -0.3013893636E-02   0.0000000000E+00   0.0000000000E+00   0.5772637551E-03  -0.2928459704E-03  -0.3918061727E-04   0.0000000000E+00   0.0000000000E+00   0.0000000000E+00   0.5918916828E-01
   0.1114677084E+00   0.1549018094E+00   0.3751218567E-04  -0.2321981897E-04   0.3751218567E-04  -0.2321981897E-04   0.6960223961E-01  -0.6616992824E-02   0.1889557404E-01   0.3293085729E-02   0.0000000000E+00   0.0000000000E+00   0.6591866525E-03  -0.3316633692E-03   0.4281011447E-04   0.0000000000E+00   0.0000000000E+00   0.0000000000E+00   0.6739373677E-01
   0.1373577599E+00   0.1347133473E+00   0.4939144433E-04  -0.1526834020E-04   0.4939144433E-04  -0.1526834020E-04   0.6464418404E-01  -0.8948559921E-02   0.1670868723E-01  -0.3469532693E-02   0.0000000000E+00   0.0000000000E+00   0.6231614584E-03  -0.3335442130E-03  -0.4510392501E-04   0.0000000000E+00   0.0000000000E+00   0.0000000000E+00   0.6491634288E-01
   0.1806252025E+00   0.1056412363E+00   0.6662424212E-04  -0.6643374937E-05   0.6662424212E-04  -0.6643374937E-05   0.4701244257E-01  -0.6004077889E-02   0.1230250940E-01  -0.9842704289E-02   0.0000000000E+00   0.0000000000E+00   0.4512291311E-03  -0.2379856348E-03  -0.1279551558E-03   0.0000000000E+00   0.0000000000E+00   0.0000000000E+00   0.4964069274E-01
   0.1510923611E+00   0.1000203925E+00   0.6090653366E-04  -0.8106772622E-05   0.6090653366E-04  -0.8106772622E-05   0.4876262770E-01  -0.9867279259E-02   0.1166860453E-01  -0.1115486508E-01   0.0000000000E+00   0.0000000000E+00   0.4822223012E-03  -0.2799664893E-03  -0.1450132461E-03   0.0000000000E+00   0.0000000000E+00   0.0000000000E+00   0.5484514786E-01
   0.1382206041E+00   0.9238084989E-01   0.5975906191E-04  -0.8300754298E-05   0.5975906191E-04  -0.8300754298E-05   0.4790380165E-01  -0.1190788057E-01   0.1079877632E-01  -0.1275924786E-01   0.0000000000E+00   0.0000000000E+00   0.4823653292E-03  -0.2951865396E-03  -0.1658702221E-03   0.0000000000E+00   0.0000000000E+00   0.0000000000E+00   0.5670774354E-01
   0.1558892753E+00   0.9053303711E-01   0.6427763313E-04  -0.6465044649E-05   0.6427763313E-04  -0.6465044649E-05   0.4341863896E-01  -0.1014738252E-01   0.9981376930E-02  -0.1318172763E-01   0.0000000000E+00   0.0000000000E+00   0.4346844064E-03  -0.2616738729E-03  -0.1713624591E-03   0.0000000000E+00   0.0000000000E+00   0.0000000000E+00   0.5206445477E-01
   0.1273561737E+00   0.1185422793E+00   0.4989733071E-04  -0.1402033992E-04   0.4989733071E-04  -0.1402033992E-04   0.6210872363E-01  -0.1149611545E-01   0.1518378245E-01  -0.6550031236E-02   0.0000000000E+00   0.0000000000E+00   0.6100242353E-03  -0.3468386728E-03  -0.8515040606E-04   0.0000000000E+00   0.0000000000E+00   0.0000000000E+00   0.6546281788E-01
   0.1260317474E+00   0.1331035809E+00   0.4616668466E-04  -0.1678555818E-04   0.4616668466E-04  -0.1678555818E-04   0.6416692004E-01  -0.1049876874E-01   0.1610044539E-01  -0.3185637597E-02   0.0000000000E+00   0.0000000000E+00   0.6248641705E-03  -0.3457897837E-03  -0.4141328877E-04   0.0000000000E+00   0.0000000000E+00   0.0000000000E+00   0.6578288725E-01
   0.1145246841E+00   0.1296811874E+00   0.4327255450E-04  -0.1823027997E-04   0.4327255450E-04  -0.1823027997E-04   0.6528103827E-01  -0.1218894237E-01   0.1592762877E-01  -0.2730869711E-02   0.0000000000E+00   0.0000000000E+00   0.6415943235E-03  -0.3655154248E-03  -0.3550130624E-04   0.0000000000E+00   0.0000000000E+00   0.0000000000E+00   0.6796927770E-01
   0.2291241635E+00   0.1294768535E+00   0.7412825571E-04  -0.6917238165E-05   0.7412825571E-04  -0.6917238165E-05   0.4985826765E-01  -0.4042152897E-03   0.1483621571E-01  -0.6067726177E-02   0.0000000000E+00   0.0000000000E+00   0.4552866752E-03  -0.1981256030E-03  -0.7888044031E-04   0.0000000000E+00   0.0000000000E+00   0.0000000000E+00   0.4585019314E-01
   0.2012646217E+00   0.1332200532E+00   0.6707083804E-04  -0.8646911476E-05   0.6707083804E-04  -0.8646911476E-05   0.5295333208E-01  -0.3064267529E-02   0.1496671937E-01  -0.6294837564E-02   0.0000000000E+00   0.0000000000E+00   0.4938259653E-03  -0.2344028296E-03  -0.8183288834E-04   0.0000000000E+00   0.0000000000E+00   0.0000000000E+00   0.5070485584E-01
   0.1976540731E+00   0.1180952413E+00   0.6844356555E-04  -0.7115359001E-05   0.6844356555E-04  -0.7115359001E-05   0.4962980653E-01  -0.3445420144E-02   0.1385531592E-01  -0.7805901975E-02   0.0000000000E+00   0.0000000000E+00   0.4650683780E-03  -0.2249095688E-03  -0.1014767257E-03   0.0000000000E+00   0.0000000000E+00   0.0000000000E+00   0.4878376281E-01
   0.2150475725E+00   0.1311431946E+00   0.7066372763E-04  -0.7683186389E-05   0.7066372763E-04  -0.7683186389E-05   0.5096597379E-01  -0.1881680915E-02   0.1472528786E-01  -0.6369254407E-02   0.0000000000E+00   0.0000000000E+00   0.4711289171E-03  -0.2158905941E-03  -0.8280030729E-04   0.0000000000E+00   0.0000000000E+00   0.0000000000E+00   0.4808463643E-01
   0.1086691012E+00   0.1384727408E+00   0.3948411807E-04  -0.2093359380E-04   0.3948411807E-04  -0.2093359380E-04   0.6920297643E-01  -0.9503193250E-02   0.1790993496E-01  -0.3605885582E-04   0.0000000000E+00   0.0000000000E+00   0.6668095392E-03  -0.3563706667E-03  -0.4687651256E-06   0.0000000000E+00   0.0000000000E+00   0.0000000000E+00   0.6916329260E-01
   0.1688572843E+00   0.1364706138E+00   0.5814066663E-04  -0.1163860653E-04   0.5814066663E-04  -0.1163860653E-04   0.5725425920E-01  -0.7323279099E-02   0.1497929403E-01  -0.5527545386E-02   0.0000000000E+00   0.0000000000E+00   0.5495745472E-03  -0.2899334507E-03  -0.7185809002E-04   0.0000000000E+00   0.0000000000E+00   0.0000000000E+00   0.5759246117E-01
   0.1864207626E+00   0.1396049087E+00   0.6234332283E-04  -0.1047667495E-04   0.6234332283E-04  -0.1047667495E-04   0.5559210053E-01  -0.5027425071E-02   0.1516940264E-01  -0.5603900291E-02   0.0000000000E+00   0.0000000000E+00   0.5254950726E-03  -0.2625587602E-03  -0.7285070379E-04   0.0000000000E+00   0.0000000000E+00   0.0000000000E+00   0.5432256793E-01
   0.1627672376E+00   0.1046896848E+00   0.6269980322E-04  -0.7753604266E-05   0.6269980322E-04  -0.7753604266E-05   0.5041552374E-01  -0.7680872740E-02   0.1282039530E-01  -0.9888035937E-02   0.0000000000E+00   0.0000000000E+00   0.4887366697E-03  -0.2665164845E-03  -0.1285444672E-03   0.0000000000E+00   0.0000000000E+00   0.0000000000E+00   0.5375001504E-01
   0.1845103239E+00   0.1214491946E+00   0.6476196547E-04  -0.8315181976E-05   0.6476196547E-04  -0.8315181976E-05   0.5170357514E-01  -0.5137483980E-02   0.1396982735E-01  -0.7624056569E-02   0.0000000000E+00   0.0000000000E+00   0.4905387213E-03  -0.2483950473E-03  -0.9911273540E-04   0.0000000000E+00   0.0000000000E+00   0.0000000000E+00   0.5177909080E-01
   0.1716670074E+00   0.1217946587E+00   0.6150317536E-04  -0.9326672378E-05   0.6150317536E-04  -0.9326672378E-05   0.5309473276E-01  -0.7157400929E-02   0.1378119955E-01  -0.7686365171E-02   0.0000000000E+00   0.0000000000E+00   0.5110759317E-03  -0.2722018062E-03  -0.9992274722E-04   0.0000000000E+00   0.0000000000E+00   0.0000000000E+00   0.5460473928E-01
   0.1157136580E+00   0.9811990054E-01   0.5218848362E-04  -0.1238612799E-04   0.5218848362E-04  -0.1238612799E-04   0.5494551296E-01  -0.1378165156E-01   0.1234915842E-01  -0.1132370394E-01   0.0000000000E+00   0.0000000000E+00   0.5537526090E-03  -0.3397005297E-03  -0.1472081512E-03   0.0000000000E+00   0.0000000000E+00   0.0000000000E+00   0.6315061942E-01
   0.1315285338E+00   0.1052926402E+00   0.5448988158E-04  -0.1114638387E-04   0.5448988158E-04  -0.1114638387E-04   0.5564536627E-01  -0.1238481599E-01   0.1297816508E-01  -0.9933133453E-02   0.0000000000E+00   0.0000000000E+00   0.5546736155E-03  -0.3297187540E-03  -0.1291307349E-03   0.0000000000E+00   0.0000000000E+00   0.0000000000E+00   0.6188469862E-01
   0.1719733916E+00   0.1103265964E+00   0.6374678220E-04  -0.7800280448E-05   0.6374678220E-04  -0.7800280448E-05   0.4851443951E-01  -0.7424795108E-02   0.1232689332E-01  -0.9444346327E-02   0.0000000000E+00   0.0000000000E+00   0.4704381004E-03  -0.2567719496E-03  -0.1227765023E-03   0.0000000000E+00   0.0000000000E+00   0.0000000000E+00   0.5177530820E-01
           1           2           3           4
           5           6           7           8
           9          10          11          12
          13          14          15          16
          17          18          19          20
          21          22          23          24
          25          26          27          28
          29          30          31          32
          33          34           4           3
           2           1          35          36
          37          38          39          40
          41          42          36          35
          43          41          44          45
          46           9          47          48
          41          35          39          44
          49          50          51          52
          52          51          53          54
          55          56          57          58
          56          59          60          57
          61          62          63          64
          65          66          67          68
          69          70          71          72
          73          74          25          28
          27          75          76          28
          77          78          24          23
          79          80          81          82
          83          84          85          86
          87          88          89          90
          90          89          62          91
          61          92          91          62
          92          61          59          93
          56          94          93          59
          95          55          54          53
          46          96          10           9
          97          98          99         100
          12         101          98          97
          97         100         102          47
         103         104          31          30
         105         103          30         106
          73         107         108         109
         110         111         112         113
          32          31         114         115
         116         117         118         119
         120         121         122         123
         121          83          86         122
          80         124         125          81
         126         127         128         129
         130         101          12          11
         131          43         101         130
          34         129         132           4
          42          41          43         131
          35           1          40          39
         101          43          45          98
         133         134         109         108
         135         136          13          16
         137         138          65          68
          94          56          55          95
          58         137          54          55
          49          52          68          67
         139         140         141         142
         140         139          82          81
          88          87         142         141
         143         144         145         146
         147          26          25         148
         149         150         128         151
           5           8         152         102
         132         129         128         150
         153         100          99         154
          48          47         102         152
          59          61          64          60
         106         155         113         118
          62          89         156          63
          88         157         156          89
         123         116         119         120
          66          65         134         133
         144         143          84          83
           9          12          97          47
         104         158         114          31
         159         160         127         126
         119         112         161         120
         117         105         106         118
         162         163         164         165
          83         121         166         144
         167         168         141         140
         167         143         146         168
           6         114         158           7
          38          37         169         170
          40         132         150          37
         160         159          20          19
          78         171         172          24
          18          17          21          24
         173         174          78          77
         132          40           1           4
          28          76         107          73
         175         176         177         178
         176         179          57          60
         137          68          52          54
          60          64         177         176
         163         162         155          29
          75          27         174         173
         180         174          27          26
          64          63         181         177
          98          45         182          99
         183         182          45          44
          38         183          44          39
          58          57         179         184
         185         181          63         156
         134         186         187         109
         188          74         187         189
         138         186         134          65
          88         141         168         157
         166         121         120         161
         190         191         166         161
         155         106          30          29
         192         193         194         195
         118         113         112         119
         125          84         143         167
         124          85          84         125
           6         196         115         114
         196           6           5         153
         197          32         115         198
         111         190         161         112
         199         148         188         135
         170         169         200         201
         202         164         163         197
         203         204         146         145
         205         206         201         200
         187          74          73         109
         176         175         207         179
         208         209          16          15
         210         186         138         184
         184         138         137          58
         179         207         210         184
         211         212         172         171
          78         174         180         171
         125         167         140          81
          37         150         149         169
         213         214         215         216
         217         182         183         201
         170         201         183          38
         218         219         206         205
         111         220         221         190
         157         168         146         204
         177         181         222         178
         222         181         185         223
         186         210         189         187
         224         191         190         221
         100         153           5         102
         185         156         157         204
         113         155         162         110
          26         147         193         180
          29          32         197         163
         225         226          19          18
         144         166         191         145
         212         192         227         228
         198         115         196         229
         206         154         217         201
         153         154         229         196
         172         225          18          24
         148          25          74         188
          14          13         175         178
         207         175          13         136
         189         136         135         188
         230         202         197         198
         210         207         136         189
         165         164         231         232
         169         149         233         200
         234         160          19         226
         217         154          99         182
         203         145         191         224
         151         235         233         149
         236         223         203         224
         185         204         203         223
         178         222         237          14
         110         162         165         238
         239         223         236         240
         238         220         111         110
         219         230         198         229
         241         242         232         243
         242          69         220         238
          72          71         240         236
         244         205         200         233
         215         231         164         202
         211         171         180         193
         228         225         172         212
         194         193         147         245
         245         147         148         199
         135          16         209         199
         209         208         246         247
         127         160         234         248
         193         192         212         211
         226         225         228         249
         151         128         127         248
         248         250         235         151
          72         221         220          69
          14         237         251          15
          70          69         252         253
         206         219         229         154
         238         165         232         242
          72         236         224         221
         216         215         202         230
         245         247         254         194
         255         256         257         258
         230         219         218         216
         214         259         231         215
         216         218         260         213
         261         255         258         214
         239         237         222         223
         194         254         262         195
         263         264         227         265
         250         266         267         268
         199         209         247         245
         240          71         269         251
         270         271         246         272
         260         244         273         213
         237         239         240         251
         218         205         244         260
          70         272         269          71
         232         231         259         243
         274         275         243         259
         257         256         263         276
         277         275         274         278
         234         226         249         279
         271         277         262         254
         271         254         247         246
         246         208         269         272
         244         233         235         273
         251         269         208          15
         275         270         253         252
         234         279         250         248
         279         249         264         280
         259         214         258         274
         262         281         276         195
         195         276         263         265
         257         276         281         278
         278         274         258         257
         266         280         256         255
         261         214         213         267
         267         266         255         261
         266         250         279         280
         228         227         264         249
         256         280         264         263
         265         227         192         195
         281         262         277         278
         235         250         268         273
         273         268         267         213
         277         271         270         275
         253         270         272          70
         252          69         242         241
         243         275         252         241
 VARIABLES = X,Y,DU1,DU2,U1,U2,S11,S22,S33,S12,S13,S23,E11,E22,E12,E33,E13,E23,SMISES
 ZONE, T="0.3000D+01" F=FEPOINT, I=  281 J=  250
   0.1777600203E-01   0.1341212724E+00   0.6995108697E-05  -0.3884119502E-04   0.1399021739E-04  -0.7768239004E-04   0.1422905813E+00   0.2728469776E-01   0.5087258373E-01   0.2176868186E-02   0.0000000000E+00   0.0000000000E+00   0.1188433969E-02  -0.3066425175E-03   0.2829928641E-04   0.0000000000E+00   0.0000000000E+00   0.0000000000E+00   0.1046844250E+00
   0.0000000000E+00   0.1332144021E+00   0.0000000000E+00  -0.3964596163E-04   0.0000000000E+00  -0.7929192326E-04   0.1431880268E+00   0.2844391151E-01   0.5148958149E-01   0.3678142749E-02   0.0000000000E+00   0.0000000000E+00   0.1192079789E-02  -0.2995937097E-03   0.4781585574E-04   0.0000000000E+00   0.0000000000E+00   0.0000000000E+00   0.1053513231E+00
   0.0000000000E+00   0.1165543939E+00   0.0000000000E+00  -0.3742435212E-04   0.0000000000E+00  -0.7484870425E-04   0.1794880487E+00   0.1199909730E-01   0.5744614380E-01   0.2926232450E-02   0.0000000000E+00   0.0000000000E+00   0.1586544764E-02  -0.5908116045E-03   0.3804102184E-04   0.0000000000E+00   0.0000000000E+00   0.0000000000E+00   0.1496386944E+00
   0.1918362575E-01   0.1161819267E+00   0.9829582524E-05  -0.3642042832E-04   0.1965916505E-04  -0.7284085664E-04   0.1639860422E+00   0.1151962980E-01   0.5265170159E-01  -0.1458541005E-01   0.0000000000E+00   0.0000000000E+00   0.1447346428E-02  -0.5347169333E-03  -0.1896103306E-03   0.0000000000E+00   0.0000000000E+00   0.0000000000E+00   0.1395857795E+00
   0.7805699601E-01   0.2317548610E+00   0.1849893641E-04  -0.4051400749E-04   0.3699787281E-04  -0.8102801497E-04   0.8726722529E-01   0.4543059355E-04   0.2619379676E-01   0.6045124247E-02   0.0000000000E+00   0.0000000000E+00   0.7939545708E-03  -0.3399287602E-03   0.7858661521E-04   0.0000000000E+00   0.0000000000E+00   0.0000000000E+00   0.7826766405E-01
   0.9784959556E-01   0.2319444937E+00   0.2386522070E-04  -0.3692275069E-04   0.4773044139E-04  -0.7384550139E-04   0.9223889490E-01  -0.4508058109E-03   0.2753642673E-01   0.5506091416E-02   0.0000000000E+00   0.0000000000E+00   0.8411320862E-03  -0.3638340230E-03   0.7157918840E-04   0.0000000000E+00   0.0000000000E+00   0.0000000000E+00   0.8292439110E-01
   0.9728509255E-01   0.2498825052E+00   0.2095621536E-04  -0.3916492128E-04   0.4191243072E-04  -0.7832984256E-04   0.8997347800E-01  -0.4578697965E-03   0.2685468246E-01   0.1891620479E-02   0.0000000000E+00   0.0000000000E+00   0.8205443420E-03  -0.3550631794E-03   0.2459106622E-04   0.0000000000E+00   0.0000000000E+00   0.0000000000E+00   0.8031220416E-01
   0.7782542963E-01   0.2498723668E+00   0.1588301032E-04  -0.4254439680E-04   0.3176602064E-04  -0.8508879360E-04   0.8142480505E-01  -0.8145426075E-03   0.2418307873E-01   0.2101500830E-02   0.0000000000E+00   0.0000000000E+00   0.7441424421E-03  -0.3249690774E-03   0.2731951079E-04   0.0000000000E+00   0.0000000000E+00   0.0000000000E+00   0.7301176060E-01
   0.1911075132E-01   0.2331781781E+00   0.4186906655E-05  -0.4821695311E-04   0.8373813310E-05  -0.9643390622E-04   0.7394878998E-01   0.2065600732E-02   0.2280431721E-01   0.1743385721E-02   0.0000000000E+00   0.0000000000E+00   0.6648781459E-03  -0.2696033143E-03   0.2266401437E-04   0.0000000000E+00   0.0000000000E+00   0.0000000000E+00   0.6427625412E-01
   0.0000000000E+00   0.2331870057E+00   0.0000000000E+00  -0.4877609362E-04   0.0000000000E+00  -0.9755218724E-04   0.7275392661E-01   0.2193510496E-02   0.2248423113E-01   0.1963948396E-02   0.0000000000E+00   0.0000000000E+00   0.6535060412E-03  -0.2637793683E-03   0.2553132914E-04   0.0000000000E+00   0.0000000000E+00   0.0000000000E+00   0.6298766383E-01
   0.0000000000E+00   0.2165249846E+00   0.0000000000E+00  -0.4722813783E-04   0.0000000000E+00  -0.9445627565E-04   0.8267019910E-01   0.4209524457E-02   0.2606391707E-01   0.2011759730E-02   0.0000000000E+00   0.0000000000E+00   0.7358816664E-03  -0.2841071039E-03   0.2615287649E-04   0.0000000000E+00   0.0000000000E+00   0.0000000000E+00   0.7016803217E-01
   0.1854599083E-01   0.2166345623E+00   0.4565344514E-05  -0.4668358177E-04   0.9130689029E-05  -0.9336716354E-04   0.8348929857E-01   0.3886577464E-02   0.2621276281E-01   0.3418548597E-02   0.0000000000E+00   0.0000000000E+00   0.7445949649E-03  -0.2902404095E-03   0.4444113176E-04   0.0000000000E+00   0.0000000000E+00   0.0000000000E+00   0.7147259213E-01
   0.2574563460E+00   0.9226438254E-01   0.8362000731E-04  -0.3296152572E-05   0.1672400146E-03  -0.6592305144E-05   0.6151199747E-01   0.5783112943E-02   0.2018853313E-01  -0.8389246306E-02   0.0000000000E+00   0.0000000000E+00   0.5372050365E-03  -0.1872704624E-03  -0.1090602020E-03   0.0000000000E+00   0.0000000000E+00   0.0000000000E+00   0.5215483141E-01
   0.2588483761E+00   0.1102723925E+00   0.8236604865E-04  -0.4512505276E-05   0.1647320973E-03  -0.9025010551E-05   0.6717473411E-01   0.4283152011E-02   0.2143736584E-01  -0.8065788308E-02   0.0000000000E+00   0.0000000000E+00   0.5945857875E-03  -0.2230047797E-03  -0.1048552480E-03   0.0000000000E+00   0.0000000000E+00   0.0000000000E+00   0.5800241862E-01
   0.2420924576E+00   0.1106621219E+00   0.7897520231E-04  -0.4849041415E-05   0.1579504046E-03  -0.9698082831E-05   0.6783268431E-01   0.2320364941E-02   0.2104591478E-01  -0.9493682892E-02   0.0000000000E+00   0.0000000000E+00   0.6082280040E-03  -0.2434321479E-03  -0.1234178776E-03   0.0000000000E+00   0.0000000000E+00   0.0000000000E+00   0.6070123615E-01
   0.2396212254E+00   0.9267069919E-01   0.8036313396E-04  -0.3539770277E-05   0.1607262679E-03  -0.7079540553E-05   0.6169351671E-01   0.3722177485E-02   0.1962470826E-01  -0.1020842829E-01   0.0000000000E+00   0.0000000000E+00   0.5468945099E-03  -0.2067329001E-03  -0.1327095678E-03   0.0000000000E+00   0.0000000000E+00   0.0000000000E+00   0.5479428454E-01
   0.9260128975E-01   0.3823629578E-01   0.7111261511E-04  -0.1068227345E-04   0.1422252302E-03  -0.2136454691E-04  -0.1051955228E-01  -0.5401072054E-01  -0.1935908185E-01   0.7524318868E-02   0.0000000000E+00   0.0000000000E+00   0.1149138843E-03  -0.4504713030E-03   0.9781614528E-04   0.0000000000E+00   0.0000000000E+00   0.0000000000E+00   0.3863523166E-01
   0.1082557876E+00   0.4607830962E-01   0.6964251905E-04  -0.6743959537E-05   0.1392850381E-03  -0.1348791907E-04   0.1861866071E-01  -0.2210149550E-01  -0.1044850437E-02  -0.1121736380E-01   0.0000000000E+00   0.0000000000E+00   0.2556256449E-03  -0.2737363858E-03  -0.1458257294E-03   0.0000000000E+00   0.0000000000E+00   0.0000000000E+00   0.3844693397E-01
   0.9629568169E-01   0.6350723723E-01   0.6152843021E-04  -0.1165248961E-04   0.1230568604E-03  -0.2330497922E-04   0.3507504757E-01  -0.1350208478E-01   0.6471888838E-02  -0.1669961607E-01   0.0000000000E+00   0.0000000000E+00   0.3718410636E-03  -0.2596616570E-03  -0.2170950089E-03   0.0000000000E+00   0.0000000000E+00   0.0000000000E+00   0.5145276643E-01
   0.8333989770E-01   0.5550855746E-01   0.6431273462E-04  -0.1615541316E-04   0.1286254692E-03  -0.3231082633E-04   0.9431290458E-02  -0.1206492798E-01  -0.7900912580E-03  -0.5393469819E-02   0.0000000000E+00   0.0000000000E+00   0.1328779623E-03  -0.1465728774E-03  -0.7011510764E-04   0.0000000000E+00   0.0000000000E+00   0.0000000000E+00   0.2095592975E-01
   0.9830355689E-01   0.1949323872E-01   0.7501009803E-04  -0.5264561245E-05   0.1500201961E-03  -0.1052912249E-04  -0.1106948474E-01  -0.8428254194E-01  -0.2860560800E-01   0.1051686016E-01   0.0000000000E+00   0.0000000000E+00   0.2279696024E-03  -0.7238001411E-03   0.1367191821E-03   0.0000000000E+00   0.0000000000E+00   0.0000000000E+00   0.6522719952E-01
   0.1002300731E+00   0.0000000000E+00   0.7669068531E-04   0.0000000000E+00   0.1533813706E-03   0.0000000000E+00  -0.1507730512E-01  -0.9128848276E-01  -0.3190973636E-01  -0.5742000249E-02   0.0000000000E+00   0.0000000000E+00   0.2188216062E-03  -0.7719237032E-03  -0.7464600324E-04   0.0000000000E+00   0.0000000000E+00   0.0000000000E+00   0.6968110647E-01
   0.1210677855E+00   0.0000000000E+00   0.7815183898E-04   0.0000000000E+00   0.1563036780E-03   0.0000000000E+00   0.2257921889E-02  -0.2888353966E-01  -0.7987685332E-02  -0.6162308924E-02   0.0000000000E+00   0.0000000000E+00   0.1331928939E-03  -0.2716461063E-03  -0.8011001601E-04   0.0000000000E+00   0.0000000000E+00   0.0000000000E+00   0.2906324998E-01
   0.1219583673E+00   0.2610501407E-01   0.7583442070E-04  -0.2431542051E-05   0.1516688414E-03  -0.4863084102E-05   0.8846739671E-02  -0.2789570525E-01  -0.5714689674E-02  -0.7395836923E-02   0.0000000000E+00   0.0000000000E+00   0.1892985815E-03  -0.2883532025E-03  -0.9614588000E-04   0.0000000000E+00   0.0000000000E+00   0.0000000000E+00   0.3654074654E-01
   0.2107888488E+00   0.3763045286E-01   0.8156992776E-04  -0.9266450683E-06   0.1631398555E-03  -0.1853290137E-05   0.4006706403E-01   0.6082275391E-02   0.1384480183E-01  -0.9314601253E-02   0.0000000000E+00   0.0000000000E+00   0.3408894086E-03  -0.1009128437E-03  -0.1210898163E-03   0.0000000000E+00   0.0000000000E+00   0.0000000000E+00   0.3469413733E-01
   0.1906957867E+00   0.3837938311E-01   0.7929222066E-04  -0.1039095662E-05   0.1585844413E-03  -0.2078191323E-05   0.3618658743E-01   0.2290114618E-02   0.1154301061E-01  -0.1198796270E-01   0.0000000000E+00   0.0000000000E+00   0.3203664986E-03  -0.1202876479E-03  -0.1558435151E-03   0.0000000000E+00   0.0000000000E+00   0.0000000000E+00   0.3660640939E-01
   0.1869499330E+00   0.1901159406E-01   0.8059366394E-04  -0.4421810457E-06   0.1611873279E-03  -0.8843620913E-06   0.2860484828E-01   0.3719134075E-02   0.9697194706E-02  -0.5917155937E-02   0.0000000000E+00   0.0000000000E+00   0.2457994964E-03  -0.7771478819E-04  -0.7692302718E-04   0.0000000000E+00   0.0000000000E+00   0.0000000000E+00   0.2497682213E-01
   0.2074796116E+00   0.1873683233E-01   0.8244318411E-04  -0.3971898792E-06   0.1648863682E-03  -0.7943797585E-06   0.3480907090E-01   0.7074185547E-02   0.1256497693E-01  -0.4666392636E-02   0.0000000000E+00   0.0000000000E+00   0.2891732216E-03  -0.7138028804E-04  -0.6066310426E-04   0.0000000000E+00   0.0000000000E+00   0.0000000000E+00   0.2681904963E-01
   0.1575544933E+00   0.2158840514E+00   0.4371544168E-04  -0.2446553376E-04   0.8743088335E-04  -0.4893106751E-04   0.9969683295E-01  -0.2177060523E-02   0.2925593173E-01   0.2632320174E-02   0.0000000000E+00   0.0000000000E+00   0.9157317159E-03  -0.4086288993E-03   0.3422016227E-04   0.0000000000E+00   0.0000000000E+00   0.0000000000E+00   0.9046400831E-01
   0.1565765540E+00   0.2325249085E+00   0.4129432021E-04  -0.2686449964E-04   0.8258864043E-04  -0.5372899929E-04   0.1020709473E+00  -0.1045194674E-02   0.3030772580E-01   0.1661822672E-02   0.0000000000E+00   0.0000000000E+00   0.9329218799E-03  -0.4075879661E-03   0.2160369474E-04   0.0000000000E+00   0.0000000000E+00   0.0000000000E+00   0.9161260187E-01
   0.1370852454E+00   0.2325403126E+00   0.3529146640E-04  -0.2994046399E-04   0.7058293280E-04  -0.5988092798E-04   0.9996796246E-01  -0.1048045745E-02   0.2967597501E-01   0.2966755958E-02   0.0000000000E+00   0.0000000000E+00   0.9137958368E-03  -0.3994122699E-03   0.3856782745E-04   0.0000000000E+00   0.0000000000E+00   0.0000000000E+00   0.8985066202E-01
   0.1383287654E+00   0.2157303393E+00   0.3788511910E-04  -0.2747788619E-04   0.7577023819E-04  -0.5495577238E-04   0.9895089594E-01  -0.2427773317E-02   0.2895693679E-01   0.4870745010E-02   0.0000000000E+00   0.0000000000E+00   0.9099214690E-03  -0.4080012313E-03   0.6331968513E-04   0.0000000000E+00   0.0000000000E+00   0.0000000000E+00   0.9026882143E-01
   0.0000000000E+00   0.9990042273E-01   0.0000000000E+00  -0.3319275520E-04   0.0000000000E+00  -0.6638551039E-04   0.2760129888E+00   0.2538464966E-01   0.9041929154E-01   0.3265456874E-02   0.0000000000E+00   0.0000000000E+00   0.2412718064E-02  -0.8454503444E-03   0.4245093936E-04   0.0000000000E+00   0.0000000000E+00   0.0000000000E+00   0.2228917438E+00
   0.1955537452E-01   0.9798192925E-01   0.1544737453E-04  -0.3219911729E-04   0.3089474906E-04  -0.6439823458E-04   0.2535407101E+00   0.2400930122E-01   0.8326500341E-01  -0.3806317159E-01   0.0000000000E+00   0.0000000000E+00   0.2213584188E-02  -0.7703241285E-03  -0.4948212307E-03   0.0000000000E+00   0.0000000000E+00   0.0000000000E+00   0.2146432874E+00
   0.1681617841E-01   0.1512148352E+00   0.5706535176E-05  -0.4062660207E-04   0.1141307035E-04  -0.8125320414E-04   0.1209688574E+00   0.2027082716E-01   0.4237190536E-01   0.3722545725E-02   0.0000000000E+00   0.0000000000E+00   0.1021760376E-02  -0.2873140166E-03   0.4839309442E-04   0.0000000000E+00   0.0000000000E+00   0.0000000000E+00   0.9227137246E-01
   0.0000000000E+00   0.1498764135E+00   0.0000000000E+00  -0.4119750748E-04   0.0000000000E+00  -0.8239501496E-04   0.1222637651E+00   0.2305454246E-01   0.4359549225E-01   0.2847742833E-02   0.0000000000E+00   0.0000000000E+00   0.1022687546E-02  -0.2670323473E-03   0.3702065682E-04   0.0000000000E+00   0.0000000000E+00   0.0000000000E+00   0.9076731718E-01
   0.5111173151E-01   0.1385677963E+00   0.1914046851E-04  -0.3394788473E-04   0.3828093702E-04  -0.6789576945E-04   0.1247293848E+00   0.7653066775E-02   0.3971473547E-01   0.6498331970E-02   0.0000000000E+00   0.0000000000E+00   0.1105190441E-02  -0.4168016931E-03   0.8447831561E-04   0.0000000000E+00   0.0000000000E+00   0.0000000000E+00   0.1053006868E+00
   0.4909641836E-01   0.1539509376E+00   0.1650485225E-04  -0.3634614103E-04   0.3300970450E-04  -0.7269228207E-04   0.1160449437E+00   0.8824156245E-02   0.3746072997E-01   0.1012181158E-01   0.0000000000E+00   0.0000000000E+00   0.1021594778E-02  -0.3722754585E-03   0.1315835505E-03   0.0000000000E+00   0.0000000000E+00   0.0000000000E+00   0.9779260888E-01
   0.3320907282E-01   0.1526198153E+00   0.1120270566E-04  -0.3887989452E-04   0.2240541133E-04  -0.7775978903E-04   0.1191594492E+00   0.1540489438E-01   0.4036930308E-01   0.7754657693E-02   0.0000000000E+00   0.0000000000E+00   0.1024271900E-02  -0.3245373130E-03   0.1008105500E-03   0.0000000000E+00   0.0000000000E+00   0.0000000000E+00   0.9528660820E-01
   0.3441133845E-01   0.1356295131E+00   0.1328728485E-04  -0.3675829144E-04   0.2657456970E-04  -0.7351658287E-04   0.1315964866E+00   0.1622804352E-01   0.4434735905E-01   0.7674104623E-02   0.0000000000E+00   0.0000000000E+00   0.1134238659E-02  -0.3655511018E-03   0.9976336009E-04   0.0000000000E+00   0.0000000000E+00   0.0000000000E+00   0.1031600172E+00
   0.1670010478E-01   0.1676766919E+00   0.5146158594E-05  -0.4214870292E-04   0.1029231719E-04  -0.8429740585E-04   0.1095310504E+00   0.1704709034E-01   0.3797344221E-01   0.4538558638E-02   0.0000000000E+00   0.0000000000E+00   0.9302489061E-03  -0.2720425744E-03   0.5900126229E-04   0.0000000000E+00   0.0000000000E+00   0.0000000000E+00   0.8444742865E-01
   0.0000000000E+00   0.1665387523E+00   0.0000000000E+00  -0.4263990217E-04   0.0000000000E+00  -0.8527980433E-04   0.1096065725E+00   0.1848798307E-01   0.3842836666E-01   0.2427731903E-02   0.0000000000E+00   0.0000000000E+00   0.9253166755E-03  -0.2592249867E-03   0.3156051474E-04   0.0000000000E+00   0.0000000000E+00   0.0000000000E+00   0.8299016181E-01
   0.1710614847E-01   0.1839946257E+00   0.4895355700E-05  -0.4363409146E-04   0.9790711400E-05  -0.8726818293E-04   0.1000615530E+00   0.1197859434E-01   0.3361204421E-01   0.4449425039E-02   0.0000000000E+00   0.0000000000E+00   0.8638436145E-03  -0.2812348483E-03   0.5784252551E-04   0.0000000000E+00   0.0000000000E+00   0.0000000000E+00   0.8001279595E-01
   0.3342147314E-01   0.1684853143E+00   0.1032078073E-04  -0.4052590440E-04   0.2064156146E-04  -0.8105180880E-04   0.1086866521E+00   0.1241307970E-01   0.3632991954E-01   0.9662184588E-02   0.0000000000E+00   0.0000000000E+00   0.9406375234E-03  -0.3109189180E-03   0.1256083996E-03   0.0000000000E+00   0.0000000000E+00   0.0000000000E+00   0.8820606175E-01
   0.3454313502E-01   0.1841532077E+00   0.9944307253E-05  -0.4200844510E-04   0.1988861451E-04  -0.8401689020E-04   0.1003739255E+00   0.9078709149E-02   0.3283579040E-01   0.9331159916E-02   0.0000000000E+00   0.0000000000E+00   0.8779957566E-03  -0.3088420563E-03   0.1213050789E-03   0.0000000000E+00   0.0000000000E+00   0.0000000000E+00   0.8361651841E-01
   0.1945495217E-01   0.2498511275E+00   0.3502358286E-05  -0.4962417774E-04   0.7004716572E-05  -0.9924835548E-04   0.5980133702E-01  -0.1807273979E-02   0.1739821891E-01   0.3309737890E-03   0.0000000000E+00   0.0000000000E+00   0.5512405354E-03  -0.2496714076E-03   0.4302659256E-05   0.0000000000E+00   0.0000000000E+00   0.0000000000E+00   0.5468930001E-01
   0.3850360102E-01   0.2328046937E+00   0.8595105215E-05  -0.4652877048E-04   0.1719021043E-04  -0.9305754097E-04   0.7725569813E-01   0.1602110780E-02   0.2365734267E-01   0.4386970852E-02   0.0000000000E+00   0.0000000000E+00   0.6967786209E-03  -0.2867180146E-03   0.5703062108E-04   0.0000000000E+00   0.0000000000E+00   0.0000000000E+00   0.6785998675E-01
   0.3891053564E-01   0.2498558733E+00   0.7215112174E-05  -0.4804222306E-04   0.1443022435E-04  -0.9608444611E-04   0.6508588731E-01  -0.1556787026E-02   0.1905873008E-01   0.1667511714E-02   0.0000000000E+00   0.0000000000E+00   0.5983530439E-03  -0.2680017224E-03   0.2167765228E-04   0.0000000000E+00   0.0000000000E+00   0.0000000000E+00   0.5914948640E-01
   0.3294583704E+00   0.0000000000E+00   0.9722979590E-04   0.0000000000E+00   0.1944595918E-03   0.0000000000E+00   0.4981684933E-01   0.1436213360E-01   0.1925369488E-01  -0.1445134579E-03   0.0000000000E+00   0.0000000000E+00   0.3973210079E-03  -0.6359029664E-04  -0.1878674953E-05   0.0000000000E+00   0.0000000000E+00   0.0000000000E+00   0.3327873269E-01
   0.3502999940E+00   0.0000000000E+00   0.1000000000E-03   0.0000000000E+00   0.2000000000E-03   0.0000000000E+00   0.5010827851E-01   0.1444782236E-01   0.1936683026E-01  -0.8902741215E-06   0.0000000000E+00   0.0000000000E+00   0.3996388273E-03  -0.6394710273E-04  -0.1157356358E-07   0.0000000000E+00   0.0000000000E+00   0.0000000000E+00   0.3347316275E-01
   0.3502999940E+00   0.1922951233E-01   0.1000000000E-03  -0.4191893133E-06   0.2000000000E-03  -0.8383786265E-06   0.5065242450E-01   0.1420110473E-01   0.1945605877E-01  -0.8363771407E-05   0.0000000000E+00   0.0000000000E+00   0.4055527545E-03  -0.6831440252E-04  -0.1087290283E-06   0.0000000000E+00   0.0000000000E+00   0.0000000000E+00   0.3412680037E-01
   0.3300545947E+00   0.1871332829E-01   0.9726922721E-04  -0.4056707959E-06   0.1945384544E-03  -0.8113415917E-06   0.5039521072E-01   0.1413399364E-01   0.1935876131E-01  -0.4645544436E-03   0.0000000000E+00   0.0000000000E+00   0.4034738423E-03  -0.6792197968E-04  -0.6039207767E-05   0.0000000000E+00   0.0000000000E+00   0.0000000000E+00   0.3396021232E-01
   0.3502999940E+00   0.3845885738E-01   0.1000000000E-03  -0.8941745386E-06   0.2000000000E-03  -0.1788349077E-05   0.5230733802E-01   0.1348646283E-01   0.1973814026E-01  -0.9951535371E-05   0.0000000000E+00   0.0000000000E+00   0.4233995709E-03  -0.8127180650E-04  -0.1293699598E-06   0.0000000000E+00   0.0000000000E+00   0.0000000000E+00   0.3609714621E-01
   0.3304974631E+00   0.3768041863E-01   0.9721169021E-04  -0.8712883692E-06   0.1944233804E-03  -0.1742576738E-05   0.5210624238E-01   0.1345724290E-01   0.1966904558E-01  -0.9615398799E-03   0.0000000000E+00   0.0000000000E+00   0.4216835583E-03  -0.8075343489E-04  -0.1250001844E-04   0.0000000000E+00   0.0000000000E+00   0.0000000000E+00   0.3597896391E-01
   0.3308497354E+00   0.5675838555E-01   0.9707545881E-04  -0.1446518214E-05   0.1941509176E-03  -0.2893036428E-05   0.5485311918E-01   0.1237191369E-01   0.2016750986E-01  -0.1299820286E-02   0.0000000000E+00   0.0000000000E+00   0.4509129211E-03  -0.1013427502E-03  -0.1689766371E-04   0.0000000000E+00   0.0000000000E+00   0.0000000000E+00   0.3922376061E-01
   0.3311282923E+00   0.7595011656E-01   0.9687509014E-04  -0.2177845691E-05   0.1937501803E-03  -0.4355691383E-05   0.5847950199E-01   0.1097130623E-01   0.2083524246E-01  -0.1543872000E-02   0.0000000000E+00   0.0000000000E+00   0.4893753738E-03  -0.1282311711E-03  -0.2007033601E-04   0.0000000000E+00   0.0000000000E+00   0.0000000000E+00   0.4349355498E-01
   0.3120929327E+00   0.7513902973E-01   0.9379855219E-04  -0.2161022229E-05   0.1875971044E-03  -0.4322044459E-05   0.5795628381E-01   0.1057911227E-01   0.2056061882E-01  -0.3074014326E-02   0.0000000000E+00   0.0000000000E+00   0.4861436448E-03  -0.1297595852E-03  -0.3996218623E-04   0.0000000000E+00   0.0000000000E+00   0.0000000000E+00   0.4357239544E-01
   0.3114274683E+00   0.5604891809E-01   0.9418344150E-04  -0.1426937509E-05   0.1883668830E-03  -0.2853875018E-05   0.5419695310E-01   0.1201213730E-01   0.1986272712E-01  -0.2604102147E-02   0.0000000000E+00   0.0000000000E+00   0.4463449377E-03  -0.1020576677E-03  -0.3385332791E-04   0.0000000000E+00   0.0000000000E+00   0.0000000000E+00   0.3910973596E-01
   0.3312721956E+00   0.9524669475E-01   0.9661286549E-04  -0.3102015565E-05   0.1932257310E-03  -0.6204031129E-05   0.6278290659E-01   0.9347688648E-02   0.2163917857E-01  -0.1671736467E-02   0.0000000000E+00   0.0000000000E+00   0.5348684643E-03  -0.1597893690E-03  -0.2173257407E-04   0.0000000000E+00   0.0000000000E+00   0.0000000000E+00   0.4854504003E-01
   0.3124685216E+00   0.9439133847E-01   0.9328885909E-04  -0.3094511305E-05   0.1865777182E-03  -0.6189022609E-05   0.6240433944E-01   0.8947561051E-02   0.2140557015E-01  -0.3306409813E-02   0.0000000000E+00   0.0000000000E+00   0.5329840008E-03  -0.1619541183E-03  -0.4298332756E-04   0.0000000000E+00   0.0000000000E+00   0.0000000000E+00   0.4876974836E-01
   0.3312576757E+00   0.1146968190E+00   0.9629288459E-04  -0.4248333869E-05   0.1925857692E-03  -0.8496667738E-05   0.6758158039E-01   0.7633582550E-02   0.2256454888E-01  -0.1706504250E-02   0.0000000000E+00   0.0000000000E+00   0.5852214096E-03  -0.1941025623E-03  -0.2218455525E-04   0.0000000000E+00   0.0000000000E+00   0.0000000000E+00   0.5411941900E-01
   0.3311154688E+00   0.1342581464E+00   0.9592859401E-04  -0.5629205086E-05   0.1918571880E-03  -0.1125841017E-04   0.7265126143E-01   0.5938390631E-02   0.2357689562E-01  -0.1640201889E-02   0.0000000000E+00   0.0000000000E+00   0.6379667556E-03  -0.2293005648E-03  -0.2132262455E-04   0.0000000000E+00   0.0000000000E+00   0.0000000000E+00   0.5993037519E-01
   0.3120735290E+00   0.1337766146E+00   0.9189067596E-04  -0.5689135348E-05   0.1837813519E-03  -0.1137827070E-04   0.7264786791E-01   0.5513730303E-02   0.2344847946E-01  -0.3216315069E-02   0.0000000000E+00   0.0000000000E+00   0.6395920498E-03  -0.2331517391E-03  -0.4181209590E-04   0.0000000000E+00   0.0000000000E+00   0.0000000000E+00   0.6045446136E-01
   0.3124639544E+00   0.1139227367E+00   0.9265045444E-04  -0.4262086569E-05   0.1853009089E-03  -0.8524173137E-05   0.6736256356E-01   0.7193557568E-02   0.2236683634E-01  -0.3344058700E-02   0.0000000000E+00   0.0000000000E+00   0.5849444539E-03  -0.1972526240E-03  -0.4347276310E-04   0.0000000000E+00   0.0000000000E+00   0.0000000000E+00   0.5449800087E-01
   0.2892712223E+00   0.1826300722E-01   0.9188609178E-04  -0.3884599257E-06   0.1837721836E-03  -0.7769198513E-06   0.4814028653E-01   0.1326323225E-01   0.1842105563E-01  -0.1444084053E-02   0.0000000000E+00   0.0000000000E+00   0.3863500016E-03  -0.6705170396E-04  -0.1877309269E-04   0.0000000000E+00   0.0000000000E+00   0.0000000000E+00   0.3270772828E-01
   0.2877754491E+00   0.0000000000E+00   0.9181836775E-04   0.0000000000E+00   0.1836367355E-03   0.0000000000E+00   0.4736743520E-01   0.1346901140E-01   0.1825093398E-01  -0.4547127992E-03   0.0000000000E+00   0.0000000000E+00   0.3785145159E-03  -0.6216499351E-04  -0.5911266390E-05   0.0000000000E+00   0.0000000000E+00   0.0000000000E+00   0.3176913494E-01
   0.3086168116E+00   0.0000000000E+00   0.9449153983E-04   0.0000000000E+00   0.1889830797E-03   0.0000000000E+00   0.4891731254E-01   0.1403962516E-01   0.1888708131E-01  -0.2923571995E-03   0.0000000000E+00   0.0000000000E+00   0.3903930060E-03  -0.6301692996E-04  -0.3800643593E-05   0.0000000000E+00   0.0000000000E+00   0.0000000000E+00   0.3272051800E-01
   0.3096712742E+00   0.1840506584E-01   0.9455008192E-04  -0.3958208889E-06   0.1891001638E-03  -0.7916417777E-06   0.4954998803E-01   0.1381834532E-01   0.1901050001E-01  -0.9352821022E-03   0.0000000000E+00   0.0000000000E+00   0.3970133443E-03  -0.6749801086E-04  -0.1215866733E-04   0.0000000000E+00   0.0000000000E+00   0.0000000000E+00   0.3347995134E-01
   0.2124050624E+00   0.1636558640E+00   0.6594978410E-04  -0.1158267187E-04   0.1318995682E-03  -0.2316534375E-04   0.8642552474E-01  -0.3003885751E-02   0.2502649170E-01  -0.5831464694E-02   0.0000000000E+00   0.0000000000E+00   0.7981874296E-03  -0.3643949068E-03  -0.7580904102E-04   0.0000000000E+00   0.0000000000E+00   0.0000000000E+00   0.7985917856E-01
   0.2165155984E+00   0.1467411976E+00   0.6903645009E-04  -0.9352462573E-05   0.1380729002E-03  -0.1870492515E-04   0.8076949285E-01  -0.3142451183E-02   0.2328811250E-01  -0.7917477478E-02   0.0000000000E+00   0.0000000000E+00   0.7472579446E-03  -0.3435973279E-03  -0.1029272072E-03   0.0000000000E+00   0.0000000000E+00   0.0000000000E+00   0.7554183121E-01
   0.2311729432E+00   0.1467098572E+00   0.7265606977E-04  -0.8613612827E-05   0.1453121395E-03  -0.1722722565E-04   0.8002278615E-01  -0.1082027940E-02   0.2368222746E-01  -0.7461970660E-02   0.0000000000E+00   0.0000000000E+00   0.7324272629E-03  -0.3219353202E-03  -0.9700561859E-04   0.0000000000E+00   0.0000000000E+00   0.0000000000E+00   0.7313667165E-01
   0.2323628014E+00   0.1630741022E+00   0.7123079675E-04  -0.1035760553E-04   0.1424615935E-03  -0.2071521106E-04   0.8456647490E-01  -0.9704000490E-03   0.2507882246E-01  -0.5950778194E-02   0.0000000000E+00   0.0000000000E+00   0.7733394818E-03  -0.3386398926E-03  -0.7736011652E-04   0.0000000000E+00   0.0000000000E+00   0.0000000000E+00   0.7663369306E-01
   0.2280191130E+00   0.1845594547E-01   0.8455232205E-04  -0.3822755862E-06   0.1691046441E-03  -0.7645511724E-06   0.3958607034E-01   0.9520583928E-02   0.1473199628E-01  -0.3579003017E-02   0.0000000000E+00   0.0000000000E+00   0.3231029628E-03  -0.6774836060E-04  -0.4652703922E-04   0.0000000000E+00   0.0000000000E+00   0.0000000000E+00   0.2857712405E-01
   0.2308701907E+00   0.3704556085E-01   0.8396922866E-04  -0.8679830320E-06   0.1679384573E-03  -0.1735966064E-05   0.4354743496E-01   0.8553835778E-02   0.1563038122E-01  -0.7179197402E-02   0.0000000000E+00   0.0000000000E+00   0.3629216986E-03  -0.9199509075E-04  -0.9332956623E-04   0.0000000000E+00   0.0000000000E+00   0.0000000000E+00   0.3429000040E-01
   0.1835760499E+00   0.0000000000E+00   0.8090429524E-04   0.0000000000E+00   0.1618085905E-03   0.0000000000E+00   0.2545032182E-01   0.3495443182E-02   0.8683729500E-02  -0.2062724027E-02   0.0000000000E+00   0.0000000000E+00   0.2179657001E-03  -0.6744772214E-04  -0.2681541235E-04   0.0000000000E+00   0.0000000000E+00   0.0000000000E+00   0.1981114174E-01
   0.2044144321E+00   0.0000000000E+00   0.8258871421E-04   0.0000000000E+00   0.1651774284E-03   0.0000000000E+00   0.3240177207E-01   0.7322527728E-02   0.1191728994E-01  -0.1546882058E-02   0.0000000000E+00   0.0000000000E+00   0.2662982677E-03  -0.5973190874E-04  -0.2010946675E-04   0.0000000000E+00   0.0000000000E+00   0.0000000000E+00   0.2303693838E-01
   0.1419028636E+00   0.0000000000E+00   0.7873252785E-04   0.0000000000E+00   0.1574650557E-03   0.0000000000E+00   0.5040908567E-02  -0.1389732687E-01  -0.2656925490E-02  -0.4860834753E-02   0.0000000000E+00   0.0000000000E+00   0.1000718427E-03  -0.1461252179E-03  -0.6319085179E-04   0.0000000000E+00   0.0000000000E+00   0.0000000000E+00   0.1802602541E-01
   0.1459026411E+00   0.2097877780E-01   0.7765236580E-04  -0.9278672853E-06   0.1553047316E-03  -0.1855734571E-05   0.1141194333E-01  -0.1109846705E-01   0.9404288289E-04  -0.8442820418E-02   0.0000000000E+00   0.0000000000E+00   0.1471327058E-03  -0.1455026292E-03  -0.1097566654E-03   0.0000000000E+00   0.0000000000E+00   0.0000000000E+00   0.2490252520E-01
   0.3502999940E+00   0.2499464343E+00   0.1000000000E-03  -0.1785524699E-04   0.2000000000E-03  -0.3571049398E-04   0.9889781239E-01   0.4801680728E-03   0.2981339414E-01   0.2564553479E-03   0.0000000000E+00   0.0000000000E+00   0.8980974372E-03  -0.3813319388E-03   0.3333919523E-05   0.0000000000E+00   0.0000000000E+00   0.0000000000E+00   0.8752007386E-01
   0.3308380799E+00   0.2499462058E+00   0.9417396747E-04  -0.1793140322E-04   0.1883479349E-03  -0.3586280644E-04   0.9917877055E-01   0.4862305846E-03   0.2989950034E-01  -0.1971463815E-03   0.0000000000E+00   0.0000000000E+00   0.9006305127E-03  -0.3823725068E-03  -0.2562902959E-05   0.0000000000E+00   0.0000000000E+00   0.0000000000E+00   0.8776485444E-01
   0.3310718328E+00   0.2310001592E+00   0.9442660748E-04  -0.1553558417E-04   0.1888532150E-03  -0.3107116835E-04   0.9584255699E-01   0.1794273362E-03   0.2880659530E-01  -0.4888371625E-03   0.0000000000E+00   0.0000000000E+00   0.8714675020E-03  -0.3721531835E-03  -0.6354883112E-05   0.0000000000E+00   0.0000000000E+00   0.0000000000E+00   0.8504771310E-01
   0.3502999940E+00   0.2307229330E+00   0.1000000000E-03  -0.1543299741E-04   0.2000000000E-03  -0.3086599482E-04   0.9565429613E-01   0.2170305579E-03   0.2876139801E-01   0.2315039369E-03   0.0000000000E+00   0.0000000000E+00   0.8696076756E-03  -0.3710767768E-03   0.3009551180E-05   0.0000000000E+00   0.0000000000E+00   0.0000000000E+00   0.8484690565E-01
   0.2732518443E+00   0.2316152051E+00   0.7742075583E-04  -0.1677229499E-04   0.1548415117E-03  -0.3354458997E-04   0.9857091127E-01  -0.5329400930E-04   0.2955528518E-01  -0.1338778057E-02   0.0000000000E+00   0.0000000000E+00   0.8972031392E-03  -0.3849115294E-03  -0.1740411474E-04   0.0000000000E+00   0.0000000000E+00   0.0000000000E+00   0.8768823462E-01
   0.2925119900E+00   0.2314411405E+00   0.8314533876E-04  -0.1618249943E-04   0.1662906775E-03  -0.3236499886E-04   0.9738959821E-01   0.5378346295E-04   0.2923301450E-01  -0.1133037352E-02   0.0000000000E+00   0.0000000000E+00   0.8860355882E-03  -0.3793300035E-03  -0.1472948558E-04   0.0000000000E+00   0.0000000000E+00   0.0000000000E+00   0.8654335025E-01
   0.2919138460E+00   0.2499442558E+00   0.8239634191E-04  -0.1858138456E-04   0.1647926838E-03  -0.3716276912E-04   0.1012783754E+00   0.5601744791E-03   0.3055156497E-01  -0.3322538670E-03   0.0000000000E+00   0.0000000000E+00   0.9194485359E-03  -0.3898880764E-03  -0.4319300270E-05   0.0000000000E+00   0.0000000000E+00   0.0000000000E+00   0.8957102616E-01
   0.2724513940E+00   0.2499424064E+00   0.7639098608E-04  -0.1919788099E-04   0.1527819722E-03  -0.3839576198E-04   0.1029356233E+00   0.6254471471E-03   0.3106832114E-01  -0.3868228515E-03   0.0000000000E+00   0.0000000000E+00   0.9342749282E-03  -0.3957573619E-03  -0.5028697069E-05   0.0000000000E+00   0.0000000000E+00   0.0000000000E+00   0.9099209840E-01
   0.3502999940E+00   0.1730499869E+00   0.1000000000E-03  -0.8980370861E-05   0.2000000000E-03  -0.1796074172E-04   0.8272737866E-01   0.3113617352E-02   0.2575229880E-01   0.1715663864E-03   0.0000000000E+00   0.0000000000E+00   0.7406760382E-03  -0.2943028589E-03   0.2230363023E-05   0.0000000000E+00   0.0000000000E+00   0.0000000000E+00   0.7104883634E-01
   0.3310638718E+00   0.1732871544E+00   0.9524993189E-04  -0.9054530451E-05   0.1904998638E-03  -0.1810906090E-04   0.8282044748E-01   0.2981307642E-02   0.2574052654E-01  -0.1333341931E-02   0.0000000000E+00   0.0000000000E+00   0.7420389723E-03  -0.2958698456E-03  -0.1733344511E-04   0.0000000000E+00   0.0000000000E+00   0.0000000000E+00   0.7127140433E-01
   0.3310564175E+00   0.1538256378E+00   0.9557648399E-04  -0.7238081602E-05   0.1911529680E-03  -0.1447616320E-04   0.7779104156E-01   0.4378638730E-02   0.2465090409E-01  -0.1525281250E-02   0.0000000000E+00   0.0000000000E+00   0.6908217871E-03  -0.2635394496E-03  -0.1982865625E-04   0.0000000000E+00   0.0000000000E+00   0.0000000000E+00   0.6571097547E-01
   0.3502999940E+00   0.1538245739E+00   0.1000000000E-03  -0.7195357515E-05   0.2000000000E-03  -0.1439071503E-04   0.7771883559E-01   0.4491826990E-02   0.2466319877E-01   0.1510196578E-03   0.0000000000E+00   0.0000000000E+00   0.6897232786E-03  -0.2622278332E-03   0.1963255551E-05   0.0000000000E+00   0.0000000000E+00   0.0000000000E+00   0.6550634559E-01
   0.3502999940E+00   0.1345985231E+00   0.1000000000E-03  -0.5622636430E-05   0.2000000000E-03  -0.1124527286E-04   0.7260289509E-01   0.6027422274E-02   0.2358909521E-01   0.1097509670E-03   0.0000000000E+00   0.0000000000E+00   0.6371793984E-03  -0.2283017482E-03   0.1426762571E-05   0.0000000000E+00   0.0000000000E+00   0.0000000000E+00   0.5975350326E-01
   0.3502999940E+00   0.1153718065E+00   0.1000000000E-03  -0.4269824529E-05   0.2000000000E-03  -0.8539649057E-05   0.6756275155E-01   0.7664400988E-02   0.2256814576E-01   0.7992165979E-04   0.0000000000E+00   0.0000000000E+00   0.5849298753E-03  -0.1937486821E-03   0.1038981577E-05   0.0000000000E+00   0.0000000000E+00   0.0000000000E+00   0.5399949168E-01
   0.3502999940E+00   0.9614443646E-01   0.1000000000E-03  -0.3137145836E-05   0.2000000000E-03  -0.6274291671E-05   0.6280743931E-01   0.9341884209E-02   0.2164479706E-01   0.4421545508E-04   0.0000000000E+00   0.0000000000E+00   0.5351143493E-03  -0.1599378670E-03   0.5748009160E-06   0.0000000000E+00   0.0000000000E+00   0.0000000000E+00   0.4848580485E-01
   0.3502999940E+00   0.7691643845E-01   0.1000000000E-03  -0.2213783975E-05   0.2000000000E-03  -0.4427567950E-05   0.5854733838E-01   0.1094742132E-01   0.2084842791E-01   0.1745688707E-04   0.0000000000E+00   0.0000000000E+00   0.4900858361E-03  -0.1287130857E-03   0.2269395319E-06   0.0000000000E+00   0.0000000000E+00   0.0000000000E+00   0.4348991384E-01
   0.3502999940E+00   0.5768787545E-01   0.1000000000E-03  -0.1477515094E-05   0.2000000000E-03  -0.2955030188E-05   0.5498625745E-01   0.1236822770E-01   0.2020634555E-01  -0.1309601044E-05   0.0000000000E+00   0.0000000000E+00   0.4521388548E-03  -0.1018955320E-03  -0.1702481358E-07   0.0000000000E+00   0.0000000000E+00   0.0000000000E+00   0.3927935542E-01
   0.0000000000E+00   0.2498494938E+00   0.0000000000E+00  -0.5016874555E-04   0.0000000000E+00  -0.1003374911E-03   0.5791420391E-01  -0.1896020718E-02   0.1680545496E-01   0.1892974126E-02   0.0000000000E+00   0.0000000000E+00   0.5344137364E-03  -0.2431191838E-03   0.2460866364E-04   0.0000000000E+00   0.0000000000E+00   0.0000000000E+00   0.5309553665E-01
   0.3761518189E-01   0.2160838084E+00   0.9380895507E-05  -0.4495721023E-04   0.1876179101E-04  -0.8991442046E-04   0.8558361202E-01   0.2927991963E-02   0.2655348120E-01   0.7530753325E-02   0.0000000000E+00   0.0000000000E+00   0.7673917007E-03  -0.3071313600E-03   0.9789979322E-04   0.0000000000E+00   0.0000000000E+00   0.0000000000E+00   0.7484272693E-01
   0.3622258332E-01   0.1999743403E+00   0.9758608009E-05  -0.4345291551E-04   0.1951721602E-04  -0.8690583102E-04   0.9303989971E-01   0.5791693288E-02   0.2964947790E-01   0.8780720782E-02   0.0000000000E+00   0.0000000000E+00   0.8240754835E-03  -0.3101511999E-03   0.1141493702E-03   0.0000000000E+00   0.0000000000E+00   0.0000000000E+00   0.7952772607E-01
   0.5562871702E-01   0.1984873890E+00   0.1526500664E-04  -0.4054498539E-04   0.3053001328E-04  -0.8108997078E-04   0.9574147861E-01   0.3361300601E-02   0.2973083376E-01   0.1161411793E-01   0.0000000000E+00   0.0000000000E+00   0.8581383830E-03  -0.3428039311E-03   0.1509835332E-03   0.0000000000E+00   0.0000000000E+00   0.0000000000E+00   0.8487875970E-01
   0.5755077868E-01   0.2147991044E+00   0.1467952611E-04  -0.4208152110E-04   0.2935905222E-04  -0.8416304220E-04   0.8938444051E-01   0.1423068777E-02   0.2724225279E-01   0.9732927853E-02   0.0000000000E+00   0.0000000000E+00   0.8078484404E-03  -0.3356493921E-03   0.1265280621E-03   0.0000000000E+00   0.0000000000E+00   0.0000000000E+00   0.8008486953E-01
   0.1782194308E-01   0.2002799453E+00   0.4758325043E-05  -0.4514255757E-04   0.9516650086E-05  -0.9028511514E-04   0.9196039673E-01   0.7806329769E-02   0.2993001795E-01   0.4119156196E-02   0.0000000000E+00   0.0000000000E+00   0.8063949241E-03  -0.2876079463E-03   0.5354903055E-04   0.0000000000E+00   0.0000000000E+00   0.0000000000E+00   0.7601020489E-01
   0.5823825917E-01   0.2321865345E+00   0.1337708885E-04  -0.4385115247E-04   0.2675417770E-04  -0.8770230495E-04   0.8202949474E-01   0.9979323384E-03   0.2490822812E-01   0.5627148073E-02   0.0000000000E+00   0.0000000000E+00   0.7425764660E-03  -0.3108338452E-03   0.7315292495E-04   0.0000000000E+00   0.0000000000E+00   0.0000000000E+00   0.7284346170E-01
   0.1556713815E+00   0.2499118772E+00   0.3860682891E-04  -0.2937427694E-04   0.7721365782E-04  -0.5874855389E-04   0.1068626941E+00   0.5846956854E-03   0.3223421693E-01   0.6636175053E-03   0.0000000000E+00   0.0000000000E+00   0.9701702029E-03  -0.4114437761E-03   0.8627027569E-05   0.0000000000E+00   0.0000000000E+00   0.0000000000E+00   0.9452036450E-01
   0.1362083535E+00   0.2499028108E+00   0.3241450046E-04  -0.3239640165E-04   0.6482900093E-04  -0.6479280329E-04   0.1031592077E+00   0.3215117162E-03   0.3104421581E-01   0.1099913036E-02   0.0000000000E+00   0.0000000000E+00   0.9374948940E-03  -0.3993951533E-03   0.1429886947E-04   0.0000000000E+00   0.0000000000E+00   0.0000000000E+00   0.9143164219E-01
   0.1751348627E+00   0.2499198138E+00   0.4495523747E-04  -0.2672871854E-04   0.8991047494E-04  -0.5345743707E-04   0.1086788181E+00   0.7294937312E-03   0.3282249355E-01   0.2825023973E-03   0.0000000000E+00   0.0000000000E+00   0.9861322192E-03  -0.4172089977E-03   0.3672531165E-05   0.0000000000E+00   0.0000000000E+00   0.0000000000E+00   0.9602165453E-01
   0.1760663268E+00   0.2324235391E+00   0.4739660308E-04  -0.2419130940E-04   0.9479320617E-04  -0.4838261879E-04   0.1030533820E+00  -0.9454280600E-03   0.3063238619E-01   0.5329990930E-03   0.0000000000E+00   0.0000000000E+00   0.9414729458E-03  -0.4105115852E-03   0.6928988208E-05   0.0000000000E+00   0.0000000000E+00   0.0000000000E+00   0.9236367545E-01
   0.2252537319E+00   0.0000000000E+00   0.8457931641E-04   0.0000000000E+00   0.1691586328E-03   0.0000000000E+00   0.3777175699E-01   0.9658673139E-02   0.1422912904E-01  -0.1164654704E-02   0.0000000000E+00   0.0000000000E+00   0.3060541633E-03  -0.5941592668E-04  -0.1514051116E-04   0.0000000000E+00   0.0000000000E+00   0.0000000000E+00   0.2607458688E-01
   0.2460937907E+00   0.0000000000E+00   0.8681788694E-04   0.0000000000E+00   0.1736357739E-03   0.0000000000E+00   0.4195261940E-01   0.1138860660E-01   0.1600236780E-01  -0.8744629479E-03   0.0000000000E+00   0.0000000000E+00   0.3373532708E-03  -0.5997889559E-04  -0.1136801832E-04   0.0000000000E+00   0.0000000000E+00   0.0000000000E+00   0.2850453171E-01
   0.2485069147E+00   0.1834128528E-01   0.8685758056E-04  -0.3808744516E-06   0.1737151611E-03  -0.7617489032E-06   0.4327767199E-01   0.1120135724E-01   0.1634370877E-01  -0.2722057542E-02   0.0000000000E+00   0.0000000000E+00   0.3501415219E-03  -0.6685056990E-04  -0.3538674804E-04   0.0000000000E+00   0.0000000000E+00   0.0000000000E+00   0.3024252166E-01
   0.1967208794E+00   0.1994622125E+00   0.5743778943E-04  -0.1745682971E-04   0.1148755789E-03  -0.3491365942E-04   0.9574149848E-01  -0.2530594156E-02   0.2796327130E-01  -0.1744435242E-02   0.0000000000E+00   0.0000000000E+00   0.8811169534E-03  -0.3964202509E-03  -0.2267765814E-04   0.0000000000E+00   0.0000000000E+00   0.0000000000E+00   0.8717750314E-01
   0.2157483827E+00   0.1983452416E+00   0.6308590182E-04  -0.1567178774E-04   0.1261718036E-03  -0.3134357547E-04   0.9424591609E-01  -0.1520375119E-02   0.2781766229E-01  -0.2907483542E-02   0.0000000000E+00   0.0000000000E+00   0.8635672993E-03  -0.3813944863E-03  -0.3779728604E-04   0.0000000000E+00   0.0000000000E+00   0.0000000000E+00   0.8513320752E-01
   0.2157263326E+00   0.2150845698E+00   0.6142818595E-04  -0.1782606700E-04   0.1228563719E-03  -0.3565213400E-04   0.9814242413E-01  -0.7957658569E-03   0.2920399748E-01  -0.1943619542E-02   0.0000000000E+00   0.0000000000E+00   0.8961995464E-03  -0.3899969234E-03  -0.2526705405E-04   0.0000000000E+00   0.0000000000E+00   0.0000000000E+00   0.8793462936E-01
   0.1963894160E+00   0.2155624554E+00   0.5556932879E-04  -0.1962221448E-04   0.1111386576E-03  -0.3924442896E-04   0.9916963058E-01  -0.1311105330E-02   0.2935755758E-01  -0.8741556708E-03   0.0000000000E+00   0.0000000000E+00   0.9075569491E-03  -0.3986926178E-03  -0.1136402372E-04   0.0000000000E+00   0.0000000000E+00   0.0000000000E+00   0.8920918089E-01
   0.1176063310E+00   0.2323370309E+00   0.2948565159E-04  -0.3332303605E-04   0.5897130318E-04  -0.6664607211E-04   0.9658259910E-01  -0.9529268611E-03   0.2868890167E-01   0.4354695483E-02   0.0000000000E+00   0.0000000000E+00   0.8826180666E-03  -0.3853437709E-03   0.5661104128E-04   0.0000000000E+00   0.0000000000E+00   0.0000000000E+00   0.8695447056E-01
   0.1189770208E+00   0.2151552404E+00   0.3213026755E-04  -0.3082185770E-04   0.6426053509E-04  -0.6164371539E-04   0.9755778172E-01  -0.2367337403E-02   0.2855713329E-01   0.7253561679E-02   0.0000000000E+00   0.0000000000E+00   0.8970084295E-03  -0.4020181191E-03   0.9429630182E-04   0.0000000000E+00   0.0000000000E+00   0.0000000000E+00   0.8945247671E-01
   0.2140621314E+00   0.2499320364E+00   0.5774914268E-04  -0.2265453888E-04   0.1154982854E-03  -0.4530907775E-04   0.1081548242E+00   0.8006204752E-03   0.3268663341E-01  -0.2274766396E-03   0.0000000000E+00   0.0000000000E+00   0.9810864807E-03  -0.4145181682E-03  -0.2957196315E-05   0.0000000000E+00   0.0000000000E+00   0.0000000000E+00   0.9549622169E-01
   0.1945985321E+00   0.2499265285E+00   0.5136137927E-04  -0.2449051154E-04   0.1027227585E-03  -0.4898102308E-04   0.1089779757E+00   0.7966959706E-03   0.3293240150E-01  -0.1461112052E-04   0.0000000000E+00   0.0000000000E+00   0.9885924644E-03  -0.4177641718E-03  -0.1899445667E-06   0.0000000000E+00   0.0000000000E+00   0.0000000000E+00   0.9623319222E-01
   0.1955957305E+00   0.2323531911E+00   0.5353118238E-04  -0.2195596547E-04   0.1070623648E-03  -0.4391193094E-04   0.1030788916E+00  -0.7776136881E-03   0.3069038338E-01  -0.3520506291E-03   0.0000000000E+00   0.0000000000E+00   0.9410506073E-03  -0.4090839619E-03  -0.4576658178E-05   0.0000000000E+00   0.0000000000E+00   0.0000000000E+00   0.9224887063E-01
   0.2150910475E+00   0.2322233041E+00   0.5963383937E-04  -0.2014061769E-04   0.1192676787E-03  -0.4028123538E-04   0.1023681623E+00  -0.5803676932E-03   0.3053633839E-01  -0.9637275315E-03   0.0000000000E+00   0.0000000000E+00   0.9338137112E-03  -0.4045171791E-03  -0.1252845791E-04   0.0000000000E+00   0.0000000000E+00   0.0000000000E+00   0.9147173252E-01
   0.2345312007E+00   0.2318975163E+00   0.6567157012E-04  -0.1868655179E-04   0.1313431402E-03  -0.3737310359E-04   0.1012301038E+00  -0.3848121040E-03   0.3025358752E-01  -0.1308535456E-02   0.0000000000E+00   0.0000000000E+00   0.9226947120E-03  -0.3982991951E-03  -0.1701096093E-04   0.0000000000E+00   0.0000000000E+00   0.0000000000E+00   0.9031657197E-01
   0.2539117893E+00   0.2317713249E+00   0.7159375233E-04  -0.1759168562E-04   0.1431875047E-03  -0.3518337124E-04   0.9988893228E-01  -0.2081120717E-03   0.2990424606E-01  -0.1419361128E-02   0.0000000000E+00   0.0000000000E+00   0.9098009208E-03  -0.3914606557E-03  -0.1845169466E-04   0.0000000000E+00   0.0000000000E+00   0.0000000000E+00   0.8898806757E-01
   0.2529886329E+00   0.2499398406E+00   0.7028262278E-04  -0.2005314519E-04   0.1405652456E-03  -0.4010629037E-04   0.1047950179E+00   0.6969530625E-03   0.3164759129E-01  -0.3973092119E-03   0.0000000000E+00   0.0000000000E+00   0.9509165459E-03  -0.4023582969E-03  -0.5165019754E-05   0.0000000000E+00   0.0000000000E+00   0.0000000000E+00   0.9258817967E-01
   0.2335255305E+00   0.2499364278E+00   0.6406549314E-04  -0.2119073790E-04   0.1281309863E-03  -0.4238147581E-04   0.1066327097E+00   0.7611941348E-03   0.3221817114E-01  -0.3501291971E-03   0.0000000000E+00   0.0000000000E+00   0.9673890009E-03  -0.4089407011E-03  -0.4551679562E-05   0.0000000000E+00   0.0000000000E+00   0.0000000000E+00   0.9417196005E-01
   0.3113760692E+00   0.2499454958E+00   0.8831574196E-04  -0.1816807218E-04   0.1766314839E-03  -0.3633614435E-04   0.9999358666E-01   0.5111122841E-03   0.3015140968E-01  -0.2203476118E-03   0.0000000000E+00   0.0000000000E+00   0.9079483007E-03  -0.3853238662E-03  -0.2864518953E-05   0.0000000000E+00   0.0000000000E+00   0.0000000000E+00   0.8846870097E-01
   0.3117689274E+00   0.2312248864E+00   0.8880379496E-04  -0.1577818986E-04   0.1776075899E-03  -0.3155637972E-04   0.9646242252E-01   0.1411992298E-03   0.2898108653E-01  -0.7932942702E-03   0.0000000000E+00   0.0000000000E+00   0.8772573679E-03  -0.3749185348E-03  -0.1031282551E-04   0.0000000000E+00   0.0000000000E+00   0.0000000000E+00   0.8563812780E-01
   0.5568711354E-01   0.8306984589E-01   0.4336328099E-04  -0.2570453598E-04   0.8672656198E-04  -0.5140907196E-04   0.1219411276E+00   0.4313014953E-01   0.4952138314E-01  -0.5855568413E-01   0.0000000000E+00   0.0000000000E+00   0.9414566780E-03  -0.8308603688E-04  -0.7612238937E-03   0.0000000000E+00   0.0000000000E+00   0.0000000000E+00   0.1217893948E+00
   0.7205252286E-01   0.9407465402E-01   0.4086622030E-04  -0.2215472786E-04   0.8173244060E-04  -0.4430945572E-04   0.9251095417E-01  -0.5104096648E-02   0.2622205726E-01  -0.2529976042E-01   0.0000000000E+00   0.0000000000E+00   0.8617556599E-03  -0.4072400008E-03  -0.3288968854E-03   0.0000000000E+00   0.0000000000E+00   0.0000000000E+00   0.9676418256E-01
   0.6208392698E-01   0.1069081387E+00   0.3193969263E-04  -0.2675643739E-04   0.6387938526E-04  -0.5351287477E-04   0.1132976075E+00  -0.1121666942E-02   0.3365278216E-01  -0.1552318616E-01   0.0000000000E+00   0.0000000000E+00   0.1035382729E-02  -0.4520678384E-03  -0.2018014201E-03   0.0000000000E+00   0.0000000000E+00   0.0000000000E+00   0.1038239769E+00
   0.3835654286E-01   0.9229735958E-01   0.2940008503E-04  -0.3019743840E-04   0.5880017005E-04  -0.6039487680E-04   0.1754318117E+00   0.3245138740E-01   0.6236495974E-01  -0.4425760261E-01   0.0000000000E+00   0.0000000000E+00   0.1469869076E-02  -0.3888764404E-03  -0.5753488339E-03   0.0000000000E+00   0.0000000000E+00   0.0000000000E+00   0.1486221984E+00
   0.0000000000E+00   0.1998630503E+00   0.0000000000E+00  -0.4565091088E-04   0.0000000000E+00  -0.9130182177E-04   0.9146119411E-01   0.8442557068E-02   0.2997112535E-01   0.2060173843E-02   0.0000000000E+00   0.0000000000E+00   0.7993708939E-03  -0.2798713877E-03   0.2678225996E-04   0.0000000000E+00   0.0000000000E+00   0.0000000000E+00   0.7462770524E-01
   0.0000000000E+00   0.1832009965E+00   0.0000000000E+00  -0.4411351065E-04   0.0000000000E+00  -0.8822702130E-04   0.9989110384E-01   0.1312350581E-01   0.3390438289E-01   0.2175795639E-02   0.0000000000E+00   0.0000000000E+00   0.8578273723E-03  -0.2701514021E-03   0.2828534330E-04   0.0000000000E+00   0.0000000000E+00   0.0000000000E+00   0.7847211198E-01
   0.3655931235E-01   0.1167656538E+00   0.1755814919E-04  -0.3392073119E-04   0.3511629837E-04  -0.6784146238E-04   0.1561007247E+00   0.2098739905E-01   0.5312643713E-01  -0.1593341087E-01   0.0000000000E+00   0.0000000000E+00   0.1338665739E-02  -0.4178074951E-03  -0.2071343413E-03   0.0000000000E+00   0.0000000000E+00   0.0000000000E+00   0.1270074296E+00
   0.2669344218E+00   0.0000000000E+00   0.8924692316E-04   0.0000000000E+00   0.1784938463E-03   0.0000000000E+00   0.4508166022E-01   0.1260482160E-01   0.1730594455E-01  -0.6481173413E-03   0.0000000000E+00   0.0000000000E+00   0.3610843038E-03  -0.6111459833E-04  -0.8425525437E-05   0.0000000000E+00   0.0000000000E+00   0.0000000000E+00   0.3038213738E-01
   0.2688938795E+00   0.1829035811E-01   0.8931149300E-04  -0.3841633150E-06   0.1786229860E-03  -0.7683266300E-06   0.4608274993E-01   0.1241539300E-01   0.1754944288E-01  -0.2028370608E-02   0.0000000000E+00   0.0000000000E+00   0.3709329917E-03  -0.6674264845E-04  -0.2636881791E-04   0.0000000000E+00   0.0000000000E+00   0.0000000000E+00   0.3162830792E-01
   0.2367695607E+00   0.7430891384E-01   0.8171924476E-04  -0.2427418756E-05   0.1634384895E-03  -0.4854837512E-05   0.5529484666E-01   0.5380147663E-02   0.1820249830E-01  -0.1021338212E-01   0.0000000000E+00   0.0000000000E+00   0.4822005287E-03  -0.1666905582E-03  -0.1327739676E-03   0.0000000000E+00   0.0000000000E+00   0.0000000000E+00   0.4823538826E-01
   0.2554708363E+00   0.7383107266E-01   0.8475575079E-04  -0.2272847038E-05   0.1695115016E-03  -0.4545694077E-05   0.5588285407E-01   0.7417815729E-02   0.1899020094E-01  -0.8170475890E-02   0.0000000000E+00   0.0000000000E+00   0.4796044907E-03  -0.1504410078E-03  -0.1062161866E-03   0.0000000000E+00   0.0000000000E+00   0.0000000000E+00   0.4604830390E-01
   0.3106187839E+00   0.3712439982E-01   0.9444228720E-04  -0.8540932766E-06   0.1888845744E-03  -0.1708186553E-05   0.5134156793E-01   0.1312463876E-01   0.1933986201E-01  -0.1932485887E-02   0.0000000000E+00   0.0000000000E+00   0.4160221770E-03  -0.8079790219E-04  -0.2512231653E-04   0.0000000000E+00   0.0000000000E+00   0.0000000000E+00   0.3566499060E-01
   0.2907152596E+00   0.3677471251E-01   0.9171585545E-04  -0.8422632047E-06   0.1834317109E-03  -0.1684526409E-05   0.5016647984E-01   0.1254618969E-01   0.1881380086E-01  -0.2972605197E-02   0.0000000000E+00   0.0000000000E+00   0.4075848268E-03  -0.8147894522E-04  -0.3864386756E-04   0.0000000000E+00   0.0000000000E+00   0.0000000000E+00   0.3526888894E-01
   0.3502999940E+00   0.2114990950E+00   0.1000000000E-03  -0.1312300519E-04   0.2000000000E-03  -0.2624601038E-04   0.9189584337E-01   0.1001167335E-02   0.2786910321E-01   0.2124781096E-03   0.0000000000E+00   0.0000000000E+00   0.8323476221E-03  -0.3492831664E-03   0.2762215424E-05   0.0000000000E+00   0.0000000000E+00   0.0000000000E+00   0.8087956287E-01
   0.3311925109E+00   0.2119411527E+00   0.9469763007E-04  -0.1323710540E-04   0.1893952601E-03  -0.2647421079E-04   0.9204310700E-01   0.9245954641E-03   0.2789031074E-01  -0.8617797007E-03   0.0000000000E+00   0.0000000000E+00   0.8339863513E-03  -0.3505542986E-03  -0.1120313611E-04   0.0000000000E+00   0.0000000000E+00   0.0000000000E+00   0.8108322449E-01
   0.3311279052E+00   0.1926684490E+00   0.9495805534E-04  -0.1106299549E-04   0.1899161107E-03  -0.2212599098E-04   0.8760345323E-01   0.1798248066E-02   0.2682051039E-01  -0.1115074480E-02   0.0000000000E+00   0.0000000000E+00   0.7901782569E-03  -0.3252894102E-03  -0.1449596824E-04   0.0000000000E+00   0.0000000000E+00   0.0000000000E+00   0.7645070650E-01
   0.3502999940E+00   0.1922748070E+00   0.1000000000E-03  -0.1096298813E-04   0.2000000000E-03  -0.2192597626E-04   0.8749759663E-01   0.1919647797E-02   0.2682517333E-01   0.1965824547E-03   0.0000000000E+00   0.0000000000E+00   0.7887415030E-03  -0.3237718319E-03   0.2555571911E-05   0.0000000000E+00   0.0000000000E+00   0.0000000000E+00   0.7623782600E-01
   0.2928145910E+00   0.2126424570E+00   0.8394598769E-04  -0.1386432639E-04   0.1678919754E-03  -0.2772865278E-04   0.9335016542E-01   0.6584539702E-03   0.2820258582E-01  -0.2143699580E-02   0.0000000000E+00   0.0000000000E+00   0.8469185348E-03  -0.3580737140E-03  -0.2786809453E-04   0.0000000000E+00   0.0000000000E+00   0.0000000000E+00   0.8252743306E-01
   0.2737394662E+00   0.2131000311E+00   0.7851239308E-04  -0.1444429677E-04   0.1570247862E-03  -0.2888859354E-04   0.9439158248E-01   0.4008900235E-03   0.2843774175E-01  -0.2565778068E-02   0.0000000000E+00   0.0000000000E+00   0.8573999295E-03  -0.3644790725E-03  -0.3335511488E-04   0.0000000000E+00   0.0000000000E+00   0.0000000000E+00   0.8369331786E-01
   0.2735941963E+00   0.1942358401E+00   0.7956075545E-04  -0.1222097110E-04   0.1591215109E-03  -0.2444194220E-04   0.8978600850E-01   0.7958110882E-03   0.2717454588E-01  -0.3438701667E-02   0.0000000000E+00   0.0000000000E+00   0.8139490141E-03  -0.3429235522E-03  -0.4470312167E-04   0.0000000000E+00   0.0000000000E+00   0.0000000000E+00   0.7939237375E-01
   0.2926731493E+00   0.1934118590E+00   0.8474077434E-04  -0.1164200695E-04   0.1694815487E-03  -0.2328401390E-04   0.8880633147E-01   0.1199769388E-02   0.2700183026E-01  -0.2885461001E-02   0.0000000000E+00   0.0000000000E+00   0.8034585158E-03  -0.3354267913E-03  -0.3751099301E-04   0.0000000000E+00   0.0000000000E+00   0.0000000000E+00   0.7813372692E-01
   0.1946384510E+00   0.5816421937E-01   0.7727900391E-04  -0.1966009768E-05   0.1545580078E-03  -0.3932019536E-05   0.4599287253E-01   0.1055693807E-02   0.1411456990E-01  -0.1444359911E-01   0.0000000000E+00   0.0000000000E+00   0.4144179342E-03  -0.1697653892E-03  -0.1877667884E-03   0.0000000000E+00   0.0000000000E+00   0.0000000000E+00   0.4718946290E-01
   0.2143344388E+00   0.5660853907E-01   0.8018661435E-04  -0.1681343961E-05   0.1603732287E-03  -0.3362687923E-05   0.4733147837E-01   0.4342435425E-02   0.1550217414E-01  -0.1159894246E-01   0.0000000000E+00   0.0000000000E+00   0.4137809550E-03  -0.1450766033E-03  -0.1507862520E-03   0.0000000000E+00   0.0000000000E+00   0.0000000000E+00   0.4355409580E-01
   0.7326551734E-01   0.1305092999E+00   0.2884934778E-04  -0.2758768933E-04   0.5769869556E-04  -0.5517537867E-04   0.1172664165E+00  -0.4464534304E-02   0.3384056466E-01   0.2438250060E-02   0.0000000000E+00   0.0000000000E+00   0.1084536074E-02  -0.4979662866E-03   0.3169725078E-04   0.0000000000E+00   0.0000000000E+00   0.0000000000E+00   0.1078352188E+00
   0.5556009217E-01   0.1223836165E+00   0.2415685582E-04  -0.3061449407E-04   0.4831371164E-04  -0.6122898814E-04   0.1364564982E+00   0.1014163759E-01   0.4397944073E-01  -0.4014378414E-02   0.0000000000E+00   0.0000000000E+00   0.1202201747E-02  -0.4398914408E-03  -0.5218691938E-04   0.0000000000E+00   0.0000000000E+00   0.0000000000E+00   0.1131710360E+00
   0.8088229433E-01   0.1172058828E+00   0.3502464357E-04  -0.2340140762E-04   0.7004928714E-04  -0.4680281525E-04   0.1127089948E+00  -0.7441348789E-02   0.3158029380E-01  -0.4821049491E-02   0.0000000000E+00   0.0000000000E+00   0.1054673113E-02  -0.5072813536E-03  -0.6267364338E-04   0.0000000000E+00   0.0000000000E+00   0.0000000000E+00   0.1063170791E+00
   0.5836726133E-01   0.2498632084E+00   0.1130924386E-04  -0.4559721554E-04   0.2261848771E-04  -0.9119443109E-04   0.7277857037E-01  -0.1195084478E-02   0.2147504577E-01   0.1913078773E-02   0.0000000000E+00   0.0000000000E+00   0.6669458198E-03  -0.2947116932E-03   0.2487002404E-04   0.0000000000E+00   0.0000000000E+00   0.0000000000E+00   0.6564772173E-01
   0.7825018543E-01   0.2133056850E+00   0.2050920841E-04  -0.3831501503E-04   0.4101841681E-04  -0.7663003007E-04   0.9227129949E-01  -0.3352754778E-03   0.2758080720E-01   0.1054902556E-01   0.0000000000E+00   0.0000000000E+00   0.8409763997E-03  -0.3629090748E-03   0.1371373322E-03   0.0000000000E+00   0.0000000000E+00   0.0000000000E+00   0.8423555124E-01
   0.7806316547E-01   0.1933267887E+00   0.2222189015E-04  -0.3586141678E-04   0.4444378030E-04  -0.7172283356E-04   0.9871727243E-01  -0.6768844970E-03   0.2941211638E-01   0.1241748985E-01   0.0000000000E+00   0.0000000000E+00   0.9009670287E-03  -0.3911570114E-03   0.1614273680E-03   0.0000000000E+00   0.0000000000E+00   0.0000000000E+00   0.9085952901E-01
   0.1769053475E+00   0.2157341219E+00   0.4963515717E-04  -0.2182601722E-04   0.9927031433E-04  -0.4365203445E-04   0.9973134126E-01  -0.1783685791E-02   0.2938429664E-01   0.6677033882E-03   0.0000000000E+00   0.0000000000E+00   0.9145115800E-03  -0.4051837716E-03   0.8680144047E-05   0.0000000000E+00   0.0000000000E+00   0.0000000000E+00   0.9007956599E-01
   0.3117826245E+00   0.1537076364E+00   0.9113416322E-04  -0.7356876277E-05   0.1822683264E-03  -0.1471375255E-04   0.7802783066E-01   0.3988243523E-02   0.2460482226E-01  -0.2884799270E-02   0.0000000000E+00   0.0000000000E+00   0.6944991093E-03  -0.2680155235E-03  -0.3750239051E-04   0.0000000000E+00   0.0000000000E+00   0.0000000000E+00   0.6636964870E-01
   0.3117680977E+00   0.1734104446E+00   0.9046423970E-04  -0.9224129168E-05   0.1809284794E-03  -0.1844825834E-04   0.8317543031E-01   0.2698552456E-02   0.2576219483E-01  -0.2517328189E-02   0.0000000000E+00   0.0000000000E+00   0.7463720613E-03  -0.2998273509E-03  -0.3272526646E-04   0.0000000000E+00   0.0000000000E+00   0.0000000000E+00   0.7190903738E-01
   0.1167461481E+00   0.2498928697E+00   0.2649370354E-04  -0.3571009118E-04   0.5298740708E-04  -0.7142018235E-04   0.9743735138E-01  -0.8275056087E-05   0.2922872290E-01   0.1553592304E-02   0.0000000000E+00   0.0000000000E+00   0.8867121703E-03  -0.3800809734E-03   0.2019669996E-04   0.0000000000E+00   0.0000000000E+00   0.0000000000E+00   0.8659754672E-01
   0.7087554967E-01   0.7064682313E-01   0.5495609108E-04  -0.2128608886E-04   0.1099121822E-03  -0.4257217771E-04   0.4832698857E-01   0.2510491366E-01   0.2202957067E-01  -0.3051477420E-01   0.0000000000E+00   0.0000000000E+00   0.3418664327E-03   0.3997945888E-04  -0.3966920646E-03   0.0000000000E+00   0.0000000000E+00   0.0000000000E+00   0.5419247127E-01
   0.8404751302E-01   0.7961417504E-01   0.5151887248E-04  -0.1693098727E-04   0.1030377450E-03  -0.3386197454E-04   0.6339386027E-01  -0.3393362342E-02   0.1800014938E-01  -0.2533900356E-01   0.0000000000E+00   0.0000000000E+00   0.5901182415E-03  -0.2781156523E-03  -0.3294070462E-03   0.0000000000E+00   0.0000000000E+00   0.0000000000E+00   0.7396936372E-01
   0.2351402183E+00   0.2142619166E+00   0.6725343610E-04  -0.1636248011E-04   0.1345068722E-03  -0.3272496021E-04   0.9688568974E-01  -0.3307452915E-03   0.2896648333E-01  -0.2517892062E-02   0.0000000000E+00   0.0000000000E+00   0.8829496833E-03  -0.3808639721E-03  -0.3273259681E-04   0.0000000000E+00   0.0000000000E+00   0.0000000000E+00   0.8648898404E-01
   0.1775942801E+00   0.1998547230E+00   0.5172870771E-04  -0.1958800015E-04   0.1034574154E-03  -0.3917600031E-04   0.9704142894E-01  -0.3401698555E-02   0.2809191911E-01   0.1670981892E-04   0.0000000000E+00   0.0000000000E+00   0.8963436277E-03  -0.4094170297E-03   0.2172276460E-06   0.0000000000E+00   0.0000000000E+00   0.0000000000E+00   0.8897664660E-01
   0.1586617822E+00   0.1997212124E+00   0.4605440837E-04  -0.2207520624E-04   0.9210881675E-04  -0.4415041249E-04   0.9796565282E-01  -0.4142658137E-02   0.2814689841E-01   0.2261934518E-02   0.0000000000E+00   0.0000000000E+00   0.9076438074E-03  -0.4197642351E-03   0.2940514873E-04   0.0000000000E+00   0.0000000000E+00   0.0000000000E+00   0.9047549573E-01
   0.1598267114E+00   0.1838520378E+00   0.4841911791E-04  -0.1965773147E-04   0.9683823582E-04  -0.3931546293E-04   0.9647080839E-01  -0.6250570473E-02   0.2706607138E-01   0.1022149739E-02   0.0000000000E+00   0.0000000000E+00   0.9022615812E-03  -0.4331163440E-03   0.1328794661E-04   0.0000000000E+00   0.0000000000E+00   0.0000000000E+00   0.9077368798E-01
   0.1779732249E+00   0.1845350141E+00   0.5372330886E-04  -0.1744363698E-04   0.1074466177E-03  -0.3488727395E-04   0.9476904118E-01  -0.4899594817E-02   0.2696083391E-01  -0.1209082974E-02   0.0000000000E+00   0.0000000000E+00   0.8815066945E-03  -0.4141855734E-03  -0.1571807866E-04   0.0000000000E+00   0.0000000000E+00   0.0000000000E+00   0.8818260575E-01
   0.2545176020E+00   0.2136725688E+00   0.7295166176E-04  -0.1526206976E-04   0.1459033235E-03  -0.3052413953E-04   0.9556389038E-01   0.4118660603E-04   0.2868152310E-01  -0.2707728555E-02   0.0000000000E+00   0.0000000000E+00   0.8694707747E-03  -0.3723243744E-03  -0.3520047121E-04   0.0000000000E+00   0.0000000000E+00   0.0000000000E+00   0.8503384938E-01
   0.3119795039E+00   0.2122921071E+00   0.8933796839E-04  -0.1347495539E-04   0.1786759368E-03  -0.2694991079E-04   0.9258300896E-01   0.8199071656E-03   0.2802087484E-01  -0.1522726996E-02   0.0000000000E+00   0.0000000000E+00   0.8393077436E-03  -0.3536125798E-03  -0.1979545095E-04   0.0000000000E+00   0.0000000000E+00   0.0000000000E+00   0.8167731638E-01
   0.3119350071E+00   0.1929993284E+00   0.8988370687E-04  -0.1127685707E-04   0.1797674137E-03  -0.2255371414E-04   0.8809904032E-01   0.1621466507E-02   0.2691615205E-01  -0.2043403376E-02   0.0000000000E+00   0.0000000000E+00   0.7953775476E-03  -0.3288309120E-03  -0.2656424388E-04   0.0000000000E+00   0.0000000000E+00   0.0000000000E+00   0.7709288710E-01
   0.6716523636E-01   0.1439778834E+00   0.2410865206E-04  -0.3115253338E-04   0.4821730412E-04  -0.6230506675E-04   0.1173746606E+00   0.8639788898E-03   0.3547159184E-01   0.8097777173E-02   0.0000000000E+00   0.0000000000E+00   0.1064739894E-02  -0.4498989684E-03   0.1052711033E-03   0.0000000000E+00   0.0000000000E+00   0.0000000000E+00   0.1045518134E+00
   0.6217890871E-01   0.1545381534E+00   0.2094570302E-04  -0.3376152268E-04   0.4189140603E-04  -0.6752304536E-04   0.1148735295E+00   0.2601615350E-02   0.3524254347E-01   0.1037030641E-01   0.0000000000E+00   0.0000000000E+00   0.1035202819E-02  -0.4243320656E-03   0.1348139833E-03   0.0000000000E+00   0.0000000000E+00   0.0000000000E+00   0.1015656429E+00
   0.1527620339E+00   0.3951054837E-01   0.7538264361E-04  -0.1723475463E-05   0.1507652872E-03  -0.3446950925E-05   0.2790500909E-01  -0.7798343290E-02   0.6031999739E-02  -0.1729020688E-01   0.0000000000E+00   0.0000000000E+00   0.2843491215E-03  -0.1797944594E-03  -0.2247726895E-03   0.0000000000E+00   0.0000000000E+00   0.0000000000E+00   0.4297843725E-01
   0.1355700237E+00   0.4588937339E-01   0.7227689862E-04  -0.3121935649E-05   0.1445537972E-03  -0.6243871298E-05   0.2701869433E-01  -0.1642616173E-01   0.3177759780E-02  -0.2235644522E-01   0.0000000000E+00   0.0000000000E+00   0.3099321492E-03  -0.2548509796E-03  -0.2906337879E-03   0.0000000000E+00   0.0000000000E+00   0.0000000000E+00   0.5287872726E-01
   0.1627387892E+00   0.0000000000E+00   0.7959841504E-04   0.0000000000E+00   0.1591968301E-03   0.0000000000E+00   0.1669923041E-01  -0.1597427511E-02   0.4530540871E-02  -0.2855587705E-02   0.0000000000E+00   0.0000000000E+00   0.1581929641E-03  -0.7966358896E-04  -0.3712264016E-04   0.0000000000E+00   0.0000000000E+00   0.0000000000E+00   0.1633755513E-01
   0.1666670616E+00   0.1949706711E-01   0.7903654284E-04  -0.5630312982E-06   0.1580730857E-03  -0.1126062596E-05   0.2223284003E-01  -0.1461793425E-02   0.6231313980E-02  -0.7293249302E-02   0.0000000000E+00   0.0000000000E+00   0.2080198386E-03  -0.1000103963E-03  -0.9481224093E-04   0.0000000000E+00   0.0000000000E+00   0.0000000000E+00   0.2483797671E-01
   0.2757019277E+00   0.9271464586E-01   0.8683990451E-04  -0.3171181461E-05   0.1736798090E-03  -0.6342362922E-05   0.6167703909E-01   0.7232838117E-02   0.2067296316E-01  -0.6659477358E-02   0.0000000000E+00   0.0000000000E+00   0.5330529870E-03  -0.1747216256E-03  -0.8657320566E-04   0.0000000000E+00   0.0000000000E+00   0.0000000000E+00   0.5044472019E-01
   0.2938976731E+00   0.9348127146E-01   0.9002768717E-04  -0.3112180055E-05   0.1800553743E-03  -0.6224360110E-05   0.6206958256E-01   0.8248423242E-02   0.2109540174E-01  -0.4960421245E-02   0.0000000000E+00   0.0000000000E+00   0.5326643506E-03  -0.1670107205E-03  -0.6448547618E-04   0.0000000000E+00   0.0000000000E+00   0.0000000000E+00   0.4942594953E-01
   0.2940370263E+00   0.1128359043E+00   0.8910309467E-04  -0.4302248918E-05   0.1782061893E-03  -0.8604497836E-05   0.6716692051E-01   0.6592877487E-02   0.2212793940E-01  -0.4969206883E-02   0.0000000000E+00   0.0000000000E+00   0.5855067544E-03  -0.2019558049E-03  -0.6459968947E-04   0.0000000000E+00   0.0000000000E+00   0.0000000000E+00   0.5515688169E-01
   0.2761609574E+00   0.1113614511E+00   0.8569214473E-04  -0.4366294152E-05   0.1713842895E-03  -0.8732588304E-05   0.6707471991E-01   0.5562172150E-02   0.2179106762E-01  -0.6484560998E-02   0.0000000000E+00   0.0000000000E+00   0.5886874798E-03  -0.2109756411E-03  -0.8429929297E-04   0.0000000000E+00   0.0000000000E+00   0.0000000000E+00   0.5634010968E-01
   0.2931473388E+00   0.7443217154E-01   0.9076259478E-04  -0.2163252861E-05   0.1815251896E-03  -0.4326505723E-05   0.5736237348E-01   0.9933850065E-02   0.2018886706E-01  -0.4663734825E-02   0.0000000000E+00   0.0000000000E+00   0.4832555835E-03  -0.1333152210E-03  -0.6062855272E-04   0.0000000000E+00   0.0000000000E+00   0.0000000000E+00   0.4395728632E-01
   0.1713208426E+00   0.3887840660E-01   0.7726819918E-04  -0.1274300084E-05   0.1545363984E-03  -0.2548600169E-05   0.3022702414E-01  -0.2321880571E-02   0.8371543072E-02  -0.1490758351E-01   0.0000000000E+00   0.0000000000E+00   0.2841212539E-03  -0.1390145074E-03  -0.1937985857E-03   0.0000000000E+00   0.0000000000E+00   0.0000000000E+00   0.3843031859E-01
   0.2932283420E+00   0.1327320472E+00   0.8791166033E-04  -0.5772272906E-05   0.1758233207E-03  -0.1154454581E-04   0.7273028082E-01   0.4690237635E-02   0.2322615554E-01  -0.4763379982E-02   0.0000000000E+00   0.0000000000E+00   0.6435536287E-03  -0.2409669327E-03  -0.6192393976E-04   0.0000000000E+00   0.0000000000E+00   0.0000000000E+00   0.6147142043E-01
   0.5196055785E-01   0.1832503886E+00   0.1516198383E-04  -0.3936679635E-04   0.3032396766E-04  -0.7873359270E-04   0.1018297494E+00   0.4857941147E-02   0.3200630717E-01   0.1182452635E-01   0.0000000000E+00   0.0000000000E+00   0.9077047491E-03  -0.3529287582E-03   0.1537188425E-03   0.0000000000E+00   0.0000000000E+00   0.0000000000E+00   0.8906598995E-01
   0.5046752973E-01   0.1684784087E+00   0.1572117688E-04  -0.3787575877E-04   0.3144235376E-04  -0.7575151753E-04   0.1084726035E+00   0.7377823033E-02   0.3475512795E-01   0.1215383637E-01   0.0000000000E+00   0.0000000000E+00   0.9583271818E-03  -0.3559049639E-03   0.1579998728E-03   0.0000000000E+00   0.0000000000E+00   0.0000000000E+00   0.9299195295E-01
   0.2920137774E+00   0.5550156992E-01   0.9132845648E-04  -0.1417792474E-05   0.1826569130E-03  -0.2835584947E-05   0.5331148713E-01   0.1138865117E-01   0.1941004149E-01  -0.3976631800E-02   0.0000000000E+00   0.0000000000E+00   0.4407187933E-03  -0.1042780741E-03  -0.5169621340E-04   0.0000000000E+00   0.0000000000E+00   0.0000000000E+00   0.3914392230E-01
   0.2919249447E+00   0.1532714743E+00   0.8654290687E-04  -0.7562227190E-05   0.1730858137E-03  -0.1512445438E-04   0.7835063649E-01   0.3414095275E-02   0.2452941953E-01  -0.4242903626E-02   0.0000000000E+00   0.0000000000E+00   0.6996758205E-03  -0.2744992153E-03  -0.5515774714E-04   0.0000000000E+00   0.0000000000E+00   0.0000000000E+00   0.6731664395E-01
   0.2708337456E+00   0.3669002000E-01   0.8905419356E-04  -0.8391329373E-06   0.1781083871E-03  -0.1678265875E-05   0.4850641636E-01   0.1164563671E-01   0.1804561592E-01  -0.4142219710E-02   0.0000000000E+00   0.0000000000E+00   0.3959904057E-03  -0.8319972974E-04  -0.5384885623E-04   0.0000000000E+00   0.0000000000E+00   0.0000000000E+00   0.3482672414E-01
   0.2509493411E+00   0.3681170300E-01   0.8647235662E-04  -0.8465331496E-06   0.1729447132E-03  -0.1693066299E-05   0.4630295752E-01   0.1036184071E-01   0.1699943947E-01  -0.5518455243E-02   0.0000000000E+00   0.0000000000E+00   0.3809457347E-03  -0.8628878390E-04  -0.7173991816E-04   0.0000000000E+00   0.0000000000E+00   0.0000000000E+00   0.3442448406E-01
   0.2337839249E+00   0.5569556941E-01   0.8296764064E-04  -0.1536596432E-05   0.1659352813E-03  -0.3073192864E-05   0.4900756297E-01   0.7105794459E-02   0.1683400723E-01  -0.9217693973E-02   0.0000000000E+00   0.0000000000E+00   0.4182562247E-03  -0.1264667660E-03  -0.1198300216E-03   0.0000000000E+00   0.0000000000E+00   0.0000000000E+00   0.4119775304E-01
   0.2532945526E+00   0.5532308428E-01   0.8573987911E-04  -0.1462339098E-05   0.1714797582E-03  -0.2924678197E-05   0.5066225286E-01   0.9016540878E-02   0.1790363812E-01  -0.7185493226E-02   0.0000000000E+00   0.0000000000E+00   0.4258619916E-03  -0.1155322642E-03  -0.9341141194E-04   0.0000000000E+00   0.0000000000E+00   0.0000000000E+00   0.3996846557E-01
   0.2350718343E+00   0.1970119108E+00   0.6871311402E-04  -0.1421307978E-04   0.1374262280E-03  -0.2842615957E-04   0.9266339009E-01  -0.7108840163E-03   0.2758575182E-01  -0.3556274123E-02   0.0000000000E+00   0.0000000000E+00   0.8460092975E-03  -0.3678562659E-03  -0.4623156360E-04   0.0000000000E+00   0.0000000000E+00   0.0000000000E+00   0.8315958374E-01
   0.2544436167E+00   0.1956359198E+00   0.7422789374E-04  -0.1307672857E-04   0.1484557875E-03  -0.2615345713E-04   0.9112273842E-01   0.4627606898E-04   0.2735070435E-01  -0.3747233447E-02   0.0000000000E+00   0.0000000000E+00   0.8290364429E-03  -0.3549575676E-03  -0.4871403481E-04   0.0000000000E+00   0.0000000000E+00   0.0000000000E+00   0.8121649684E-01
   0.1597761043E+00   0.7268331661E-01   0.6923009463E-04  -0.4113663592E-05   0.1384601893E-03  -0.8227327185E-05   0.5273209314E-01  -0.1059739505E-01   0.1264040943E-01  -0.2045405856E-01   0.0000000000E+00   0.0000000000E+00   0.5211918883E-03  -0.3020914582E-03  -0.2659027613E-03   0.0000000000E+00   0.0000000000E+00   0.0000000000E+00   0.6573268428E-01
   0.1739589077E+00   0.6065428225E-01   0.7399256170E-04  -0.2478649132E-05   0.1479851234E-03  -0.4957298264E-05   0.4523716803E-01  -0.4590309556E-02   0.1219405754E-01  -0.1817681857E-01   0.0000000000E+00   0.0000000000E+00   0.4295604363E-03  -0.2181967723E-03  -0.2362986414E-03   0.0000000000E+00   0.0000000000E+00   0.0000000000E+00   0.5403132156E-01
   0.1843344858E+00   0.8232733524E-01   0.7166427245E-04  -0.3991319596E-05   0.1433285449E-03  -0.7982639192E-05   0.5920318568E-01  -0.5180696248E-02   0.1620674683E-01  -0.1713874042E-01   0.0000000000E+00   0.0000000000E+00   0.5589537050E-03  -0.2780367600E-03  -0.2228036254E-03   0.0000000000E+00   0.0000000000E+00   0.0000000000E+00   0.6401589798E-01
   0.1696024505E+00   0.8993798109E-01   0.6731748394E-04  -0.5432769936E-05   0.1346349679E-03  -0.1086553987E-04   0.6415805316E-01  -0.9694393569E-02   0.1633909788E-01  -0.1737313001E-01   0.0000000000E+00   0.0000000000E+00   0.6216464187E-03  -0.3384353888E-03  -0.2258506901E-03   0.0000000000E+00   0.0000000000E+00   0.0000000000E+00   0.7150996513E-01
   0.9891787241E-01   0.2141059089E+00   0.2633057069E-04  -0.3448970646E-04   0.5266114138E-04  -0.6897941292E-04   0.9528742625E-01  -0.1874192698E-02   0.2802397007E-01   0.9484442971E-02   0.0000000000E+00   0.0000000000E+00   0.8744249304E-03  -0.3886761159E-03   0.1232977586E-03   0.0000000000E+00   0.0000000000E+00   0.0000000000E+00   0.8769383435E-01
   0.1398669228E+00   0.1993113458E+00   0.4039859167E-04  -0.2493972595E-04   0.8079718334E-04  -0.4987945191E-04   0.9855938049E-01  -0.4625632594E-02   0.2818012437E-01   0.4859312369E-02   0.0000000000E+00   0.0000000000E+00   0.9149303295E-03  -0.4264748405E-03   0.6317106080E-04   0.0000000000E+00   0.0000000000E+00   0.0000000000E+00   0.9169308459E-01
   0.1209923715E+00   0.1985548118E+00   0.3473015698E-04  -0.2815906534E-04   0.6946031396E-04  -0.5631813069E-04   0.9871795893E-01  -0.4593547108E-02   0.2823732355E-01   0.7571569842E-02   0.0000000000E+00   0.0000000000E+00   0.9162482600E-03  -0.4268013185E-03   0.9843040795E-04   0.0000000000E+00   0.0000000000E+00   0.0000000000E+00   0.9235382046E-01
   0.2184072321E+00   0.7552860331E-01   0.7860969786E-04  -0.2698263677E-05   0.1572193957E-03  -0.5396527354E-05   0.5513247170E-01   0.2720944925E-02   0.1735602499E-01  -0.1249414170E-01   0.0000000000E+00   0.0000000000E+00   0.4910938073E-03  -0.1902560408E-03  -0.1624238421E-03   0.0000000000E+00   0.0000000000E+00   0.0000000000E+00   0.5156330590E-01
   0.8038818322E-01   0.1527065382E+00   0.2736924135E-04  -0.2952260833E-04   0.5473848270E-04  -0.5904521666E-04   0.1101811793E+00  -0.4900795089E-02   0.3158411527E-01   0.9175782017E-02   0.0000000000E+00   0.0000000000E+00   0.1021761833E-02  -0.4743038346E-03   0.1192851662E-03   0.0000000000E+00   0.0000000000E+00   0.0000000000E+00   0.1030503196E+00
   0.6990202403E-01   0.1666392341E+00   0.2213530928E-04  -0.3387695894E-04   0.4427061856E-04  -0.6775391788E-04   0.1076878304E+00   0.5688590337E-03   0.3247700684E-01   0.1205998809E-01   0.0000000000E+00   0.0000000000E+00   0.9777407066E-03  -0.4148059214E-03   0.1567798451E-03   0.0000000000E+00   0.0000000000E+00   0.0000000000E+00   0.9753064067E-01
   0.1415742832E+00   0.1830481198E+00   0.4298139368E-04  -0.2229507171E-04   0.8596278737E-04  -0.4459014341E-04   0.9812286471E-01  -0.6997138109E-02   0.2733771798E-01   0.3682907493E-02   0.0000000000E+00   0.0000000000E+00   0.9202069075E-03  -0.4463531292E-03   0.4787779742E-04   0.0000000000E+00   0.0000000000E+00   0.0000000000E+00   0.9304338104E-01
   0.2727442908E+00   0.1744763121E+00   0.8058292429E-04  -0.1006263584E-04   0.1611658486E-03  -0.2012527167E-04   0.8515108467E-01   0.1387177958E-02   0.2596147879E-01  -0.4484905920E-02   0.0000000000E+00   0.0000000000E+00   0.7694648764E-03  -0.3194659108E-03  -0.5830377696E-04   0.0000000000E+00   0.0000000000E+00   0.0000000000E+00   0.7497616800E-01
   0.2921996897E+00   0.1736005448E+00   0.8556857515E-04  -0.9525078588E-05   0.1711371503E-03  -0.1905015718E-04   0.8378710283E-01   0.2232342402E-02   0.2580583357E-01  -0.3690640026E-02   0.0000000000E+00   0.0000000000E+00   0.7537565004E-03  -0.3064553852E-03  -0.4797832034E-04   0.0000000000E+00   0.0000000000E+00   0.0000000000E+00   0.7297302623E-01
   0.9435833204E-01   0.1609569991E+00   0.3091231260E-04  -0.2776395799E-04   0.6182462519E-04  -0.5552791598E-04   0.1063321385E+00  -0.7283952444E-02   0.2971445581E-01   0.8821576311E-02   0.0000000000E+00   0.0000000000E+00   0.9960298745E-03  -0.4809793072E-03   0.1146804920E-03   0.0000000000E+00   0.0000000000E+00   0.0000000000E+00   0.1014860211E+00
   0.8726004443E-01   0.1753893858E+00   0.2682434210E-04  -0.3148405663E-04   0.5364868419E-04  -0.6296811325E-04   0.1043579267E+00  -0.3807999683E-02   0.3016497811E-01   0.1188557904E-01   0.0000000000E+00   0.0000000000E+00   0.9645083318E-03  -0.4416487113E-03   0.1545125275E-03   0.0000000000E+00   0.0000000000E+00   0.0000000000E+00   0.9799946457E-01
   0.2743441989E+00   0.7396689727E-01   0.8776563083E-04  -0.2195676154E-05   0.1755312617E-03  -0.4391352309E-05   0.5662875303E-01   0.8895166561E-02   0.1965717588E-01  -0.6327769801E-02   0.0000000000E+00   0.0000000000E+00   0.4806305030E-03  -0.1399061211E-03  -0.8226100742E-04   0.0000000000E+00   0.0000000000E+00   0.0000000000E+00   0.4471435554E-01
   0.2263745474E+00   0.1122848018E+00   0.7555246916E-04  -0.5381720451E-05   0.1511049383E-03  -0.1076344090E-04   0.6920582007E-01   0.1815701001E-04   0.2076719312E-01  -0.1069165354E-01   0.0000000000E+00   0.0000000000E+00   0.6297021503E-03  -0.2697374695E-03  -0.1389914960E-03   0.0000000000E+00   0.0000000000E+00   0.0000000000E+00   0.6420595010E-01
   0.2226759478E+00   0.9417273601E-01   0.7705328310E-04  -0.3947161722E-05   0.1541065662E-03  -0.7894323443E-05   0.6267329519E-01   0.1185492372E-02   0.1915763627E-01  -0.1197860621E-01   0.0000000000E+00   0.0000000000E+00   0.5657035660E-03  -0.2336378707E-03  -0.1557218807E-03   0.0000000000E+00   0.0000000000E+00   0.0000000000E+00   0.5853941629E-01
   0.2726513561E+00   0.5525776597E-01   0.8851669780E-04  -0.1427277164E-05   0.1770333956E-03  -0.2854554329E-05   0.5211681338E-01   0.1041835925E-01   0.1876055179E-01  -0.5482043273E-02   0.0000000000E+00   0.0000000000E+00   0.4336314007E-03  -0.1084485030E-03  -0.7126656255E-04   0.0000000000E+00   0.0000000000E+00   0.0000000000E+00   0.3936926944E-01
   0.1570887521E+00   0.5348652005E-01   0.7304402369E-04  -0.2587349601E-05   0.1460880474E-03  -0.5174699201E-05   0.4114169666E-01  -0.8230074279E-02   0.9873486714E-02  -0.1978733937E-01   0.0000000000E+00   0.0000000000E+00   0.4064867293E-03  -0.2353462929E-03  -0.2572354118E-03   0.0000000000E+00   0.0000000000E+00   0.0000000000E+00   0.5524346126E-01
   0.1469639431E+00   0.6074582381E-01   0.6998204912E-04  -0.3683162597E-05   0.1399640982E-03  -0.7366325193E-05   0.4353366009E-01  -0.1188152078E-01   0.9495641794E-02  -0.2077614230E-01   0.0000000000E+00   0.0000000000E+00   0.4424942379E-03  -0.2779031134E-03  -0.2700898499E-03   0.0000000000E+00   0.0000000000E+00   0.0000000000E+00   0.6059222148E-01
   0.1239927602E+00   0.1490450827E+00   0.4250207860E-04  -0.1985741850E-04   0.8500415720E-04  -0.3971483700E-04   0.9992440126E-01  -0.1308677655E-01   0.2605128741E-01   0.8169022534E-03   0.0000000000E+00   0.0000000000E+00   0.9603504800E-03  -0.5087948315E-03   0.1061972929E-04   0.0000000000E+00   0.0000000000E+00   0.0000000000E+00   0.9936003202E-01
   0.1447474220E+00   0.1473104154E+00   0.4927834438E-04  -0.1620420370E-04   0.9855668877E-04  -0.3240840741E-04   0.9446425108E-01  -0.1258235440E-01   0.2456456900E-01  -0.3415226891E-02   0.0000000000E+00   0.0000000000E+00   0.9086958670E-03  -0.4829100043E-03  -0.4439794958E-04   0.0000000000E+00   0.0000000000E+00   0.0000000000E+00   0.9431687090E-01
   0.1433024120E+00   0.1660748149E+00   0.4584132989E-04  -0.1943037697E-04   0.9168265979E-04  -0.3886075395E-04   0.9727558630E-01  -0.1006451246E-01   0.2616332215E-01   0.1117798858E-02   0.0000000000E+00   0.0000000000E+00   0.9244594339E-03  -0.4709618499E-03   0.1453138515E-04   0.0000000000E+00   0.0000000000E+00   0.0000000000E+00   0.9455645141E-01
   0.1256054486E+00   0.1662457760E+00   0.4030754423E-04  -0.2242534689E-04   0.8061508847E-04  -0.4485069378E-04   0.9961062545E-01  -0.1044060919E-01   0.2675100488E-01   0.3873441565E-02   0.0000000000E+00   0.0000000000E+00   0.9471750674E-03  -0.4834909829E-03   0.5035474035E-04   0.0000000000E+00   0.0000000000E+00   0.0000000000E+00   0.9716596490E-01
   0.6674493469E-01   0.1807767592E+00   0.1987689781E-04  -0.3635427527E-04   0.3975379563E-04  -0.7270855054E-04   0.1015406016E+00   0.7004220915E-03   0.3067230710E-01   0.1223965676E-01   0.0000000000E+00   0.0000000000E+00   0.9212878281E-03  -0.3896345051E-03   0.1591155379E-03   0.0000000000E+00   0.0000000000E+00   0.0000000000E+00   0.9214910456E-01
   0.1096494675E+00   0.1660438746E+00   0.3523215481E-04  -0.2541745577E-04   0.7046430961E-04  -0.5083491154E-04   0.1031633682E+00  -0.9293456980E-02   0.2816097337E-01   0.6934332764E-02   0.0000000000E+00   0.0000000000E+00   0.9750311329E-03  -0.4869075945E-03   0.9014632593E-04   0.0000000000E+00   0.0000000000E+00   0.0000000000E+00   0.9990729548E-01
   0.1055276866E+00   0.1805090570E+00   0.3206319219E-04  -0.2849732976E-04   0.6412638438E-04  -0.5699465952E-04   0.1015483793E+00  -0.5864096682E-02   0.2870528477E-01   0.9449477035E-02   0.0000000000E+00   0.0000000000E+00   0.9469602282E-03  -0.4494019589E-03   0.1228432015E-03   0.0000000000E+00   0.0000000000E+00   0.0000000000E+00   0.9633680587E-01
   0.2148959777E+00   0.1816423739E+00   0.6459123705E-04  -0.1363271147E-04   0.1291824741E-03  -0.2726542294E-04   0.9054095881E-01  -0.2353642129E-02   0.2645619501E-01  -0.4221000081E-02   0.0000000000E+00   0.0000000000E+00   0.8331019295E-03  -0.3745278828E-03  -0.5487300106E-04   0.0000000000E+00   0.0000000000E+00   0.0000000000E+00   0.8268348295E-01
   0.2341166149E+00   0.1797838692E+00   0.7004062385E-04  -0.1219292210E-04   0.1400812477E-03  -0.2438584421E-04   0.8853803321E-01  -0.9542265299E-03   0.2627514200E-01  -0.4791894804E-02   0.0000000000E+00   0.0000000000E+00   0.8094175857E-03  -0.3539817909E-03  -0.6229463245E-04   0.0000000000E+00   0.0000000000E+00   0.0000000000E+00   0.7989169686E-01
   0.2754783266E+00   0.1304879377E+00   0.8424885689E-04  -0.5835099803E-05   0.1684977138E-03  -0.1167019961E-04   0.7216817503E-01   0.3844323998E-02   0.2280374971E-01  -0.6257349391E-02   0.0000000000E+00   0.0000000000E+00   0.6417375292E-03  -0.2464725342E-03  -0.8134554208E-04   0.0000000000E+00   0.0000000000E+00   0.0000000000E+00   0.6203309076E-01
   0.2705653318E+00   0.1522627529E+00   0.8159894325E-04  -0.7851038284E-05   0.1631978865E-03  -0.1570207657E-04   0.7891115926E-01   0.2144869587E-02   0.2431680866E-01  -0.5727555550E-02   0.0000000000E+00   0.0000000000E+00   0.7097265579E-03  -0.2882352079E-03  -0.7445822215E-04   0.0000000000E+00   0.0000000000E+00   0.0000000000E+00   0.6914240172E-01
   0.2535197205E+00   0.1774538902E+00   0.7540215082E-04  -0.1102194319E-04   0.1508043016E-03  -0.2204388639E-04   0.8637768816E-01   0.2699717315E-03   0.2599429797E-01  -0.4843803537E-02   0.0000000000E+00   0.0000000000E+00   0.7849840725E-03  -0.3344162411E-03  -0.6296944598E-04   0.0000000000E+00   0.0000000000E+00   0.0000000000E+00   0.7701505917E-01
   0.1222618990E+00   0.5811070844E-01   0.6721500237E-04  -0.5630753255E-05   0.1344300047E-03  -0.1126150651E-04   0.3656062108E-01  -0.2184705080E-01   0.4414071084E-02  -0.2205455598E-01   0.0000000000E+00   0.0000000000E+00   0.4179051499E-03  -0.3413945845E-03  -0.2867092278E-03   0.0000000000E+00   0.0000000000E+00   0.0000000000E+00   0.6389633078E-01
   0.1102206996E+00   0.7307516938E-01   0.5982054015E-04  -0.9464207410E-05   0.1196410803E-03  -0.1892841482E-04   0.5710685886E-01  -0.2121044701E-01   0.1076892355E-01  -0.2319828559E-01   0.0000000000E+00   0.0000000000E+00   0.6023931589E-03  -0.4157318174E-03  -0.3015777127E-03   0.0000000000E+00   0.0000000000E+00   0.0000000000E+00   0.7898276820E-01
   0.1476559550E+00   0.8121757529E-01   0.6486165552E-04  -0.5879936840E-05   0.1297233110E-03  -0.1175987368E-04   0.6148602354E-01  -0.1497512028E-01   0.1395327098E-01  -0.2065528576E-01   0.0000000000E+00   0.0000000000E+00   0.6179257833E-03  -0.3760690863E-03  -0.2685187149E-03   0.0000000000E+00   0.0000000000E+00   0.0000000000E+00   0.7584505951E-01
   0.1354294308E+00   0.7049108126E-01   0.6546694114E-04  -0.5620778391E-05   0.1309338823E-03  -0.1124155678E-04   0.5233494028E-01  -0.1712702919E-01   0.1056237332E-01  -0.2299584607E-01   0.0000000000E+00   0.0000000000E+00   0.5430433704E-03  -0.3599622327E-03  -0.2989459990E-03   0.0000000000E+00   0.0000000000E+00   0.0000000000E+00   0.7232771314E-01
   0.1010683946E+00   0.1968714449E+00   0.2884451696E-04  -0.3174435952E-04   0.5768903392E-04  -0.6348871905E-04   0.9901733255E-01  -0.3661852076E-02   0.2860664414E-01   0.1035450621E-01   0.0000000000E+00   0.0000000000E+00   0.9153389493E-03  -0.4194904508E-03   0.1346085807E-03   0.0000000000E+00   0.0000000000E+00   0.0000000000E+00   0.9269455083E-01
   0.1236435774E+00   0.1822908189E+00   0.3753114979E-04  -0.2528336159E-04   0.7506229958E-04  -0.5056672319E-04   0.9989765360E-01  -0.7129405282E-02   0.2783047450E-01   0.6621602980E-02   0.0000000000E+00   0.0000000000E+00   0.9368733284E-03  -0.4544784371E-03   0.8608083875E-04   0.0000000000E+00   0.0000000000E+00   0.0000000000E+00   0.9519450523E-01
   0.1612641597E+00   0.1679023927E+00   0.5101922171E-04  -0.1713208430E-04   0.1020384434E-03  -0.3426416860E-04   0.9452992329E-01  -0.8239253699E-02   0.2588720088E-01  -0.1388972790E-02   0.0000000000E+00   0.0000000000E+00   0.8923553914E-03  -0.4436439095E-03  -0.1805664627E-04   0.0000000000E+00   0.0000000000E+00   0.0000000000E+00   0.9067761001E-01
   0.1783129933E+00   0.1698029852E+00   0.5573742188E-04  -0.1537094473E-04   0.1114748438E-03  -0.3074188947E-04   0.9222765781E-01  -0.6346765590E-02   0.2576426767E-01  -0.2948502972E-02   0.0000000000E+00   0.0000000000E+00   0.8640240719E-03  -0.4174434323E-03  -0.3833053864E-04   0.0000000000E+00   0.0000000000E+00   0.0000000000E+00   0.8722162140E-01
   0.8815497501E-01   0.1397545679E+00   0.3222987025E-04  -0.2561370782E-04   0.6445974050E-04  -0.5122741565E-04   0.1111040077E+00  -0.8873854541E-02   0.3066904595E-01   0.4266901731E-02   0.0000000000E+00   0.0000000000E+00   0.1045654503E-02  -0.5140577064E-03   0.5546972250E-04   0.0000000000E+00   0.0000000000E+00   0.0000000000E+00   0.1061314559E+00
   0.9954218642E-01   0.8892352450E-01   0.5099947492E-04  -0.1406066699E-04   0.1019989498E-03  -0.2812133397E-04   0.8083727939E-01  -0.1911011413E-01   0.1851814958E-01  -0.1913103465E-01   0.0000000000E+00   0.0000000000E+00   0.8101486876E-03  -0.4891674282E-03  -0.2487034505E-03   0.0000000000E+00   0.0000000000E+00   0.0000000000E+00   0.9266807378E-01
   0.9648956450E-01   0.1275880052E+00   0.3773003375E-04  -0.2157158389E-04   0.7546006750E-04  -0.4314316778E-04   0.1068825077E+00  -0.1398115717E-01   0.2787040517E-01  -0.1146715747E-02   0.0000000000E+00   0.0000000000E+00   0.1027157334E-02  -0.5440703105E-03  -0.1490730472E-04   0.0000000000E+00   0.0000000000E+00   0.0000000000E+00   0.1061381153E+00
   0.2507641191E+00   0.1600683079E+00   0.7617068628E-04  -0.9237352915E-05   0.1523413726E-03  -0.1847470583E-04   0.8179162821E-01   0.4234834820E-04   0.2455019297E-01  -0.6019476574E-02   0.0000000000E+00   0.0000000000E+00   0.7441386581E-03  -0.3186019800E-03  -0.7825319546E-04   0.0000000000E+00   0.0000000000E+00   0.0000000000E+00   0.7340911487E-01
   0.2595964269E+00   0.1275175198E+00   0.8104898170E-04  -0.5881389929E-05   0.1620979634E-03  -0.1176277986E-04   0.7271948276E-01   0.2964117252E-02   0.2270508000E-01  -0.7379101864E-02   0.0000000000E+00   0.0000000000E+00   0.6501872359E-03  -0.2566325158E-03  -0.9592832423E-04   0.0000000000E+00   0.0000000000E+00   0.0000000000E+00   0.6357016196E-01
   0.1963544499E+00   0.1839978784E+00   0.5911329582E-04  -0.1545454236E-04   0.1182265916E-03  -0.3090908473E-04   0.9254620330E-01  -0.3706824101E-02   0.2665181376E-01  -0.2982822305E-02   0.0000000000E+00   0.0000000000E+00   0.8566270640E-03  -0.3946622922E-03  -0.3877668997E-04   0.0000000000E+00   0.0000000000E+00   0.0000000000E+00   0.8538377301E-01
   0.2585234121E+00   0.1414832023E+00   0.7962435686E-04  -0.7167578765E-05   0.1592487137E-03  -0.1433515753E-04   0.7795705134E-01   0.2978152221E-02   0.2428056107E-01  -0.6612684364E-02   0.0000000000E+00   0.0000000000E+00   0.6977943735E-03  -0.2769313150E-03  -0.8596489673E-04   0.0000000000E+00   0.0000000000E+00   0.0000000000E+00   0.6788411102E-01
   0.2461771095E+00   0.1446191243E+00   0.7646348351E-04  -0.7822228633E-05   0.1529269670E-03  -0.1564445727E-04   0.7807432856E-01   0.8025851861E-03   0.2366307412E-01  -0.7160001678E-02   0.0000000000E+00   0.0000000000E+00   0.7073463077E-03  -0.2971863562E-03  -0.9308002182E-04   0.0000000000E+00   0.0000000000E+00   0.0000000000E+00   0.6985754478E-01
   0.1918587027E+00   0.1589517843E+00   0.6100323645E-04  -0.1259322767E-04   0.1220064729E-03  -0.2518645534E-04   0.8786128180E-01  -0.4986062823E-02   0.2486256569E-01  -0.5631011992E-02   0.0000000000E+00   0.0000000000E+00   0.8189833094E-03  -0.3880321707E-03  -0.7320315589E-04   0.0000000000E+00   0.0000000000E+00   0.0000000000E+00   0.8267446699E-01
   0.1946868582E+00   0.1697488963E+00   0.6038872182E-04  -0.1373590286E-04   0.1207774436E-03  -0.2747180571E-04   0.8965241991E-01  -0.4896428383E-02   0.2542679746E-01  -0.4379343486E-02   0.0000000000E+00   0.0000000000E+00   0.8349330919E-03  -0.3942019359E-03  -0.5693146532E-04   0.0000000000E+00   0.0000000000E+00   0.0000000000E+00   0.8396013170E-01
   0.1799466486E+00   0.1552564976E+00   0.5822953609E-04  -0.1319148248E-04   0.1164590722E-03  -0.2638296496E-04   0.8936067681E-01  -0.7010365071E-02   0.2470509352E-01  -0.5120932626E-02   0.0000000000E+00   0.0000000000E+00   0.8405225827E-03  -0.4123009617E-03  -0.6657212414E-04   0.0000000000E+00   0.0000000000E+00   0.0000000000E+00   0.8549840423E-01
   0.1010851728E+00   0.1484947263E+00   0.3507292333E-04  -0.2425723160E-04   0.7014584666E-04  -0.4851446320E-04   0.1055565905E+00  -0.1115221522E-01   0.2832131258E-01   0.4707954522E-02   0.0000000000E+00   0.0000000000E+00   0.1004058613E-02  -0.5131558614E-03   0.6120340879E-04   0.0000000000E+00   0.0000000000E+00   0.0000000000E+00   0.1031229662E+00
   0.2006100706E+00   0.7797100507E-01   0.7530519088E-04  -0.3166109539E-05   0.1506103818E-03  -0.6332219079E-05   0.5608611587E-01  -0.6228034319E-03   0.1663899373E-01  -0.1494915181E-01   0.0000000000E+00   0.0000000000E+00   0.5128125878E-03  -0.2244033631E-03  -0.1943389735E-03   0.0000000000E+00   0.0000000000E+00   0.0000000000E+00   0.5659076598E-01
   0.2115654806E+00   0.1146524297E+00   0.7206719307E-04  -0.6112763399E-05   0.1441343861E-03  -0.1222552680E-04   0.7129338846E-01  -0.2480941606E-02   0.2064373406E-01  -0.1145591401E-01   0.0000000000E+00   0.0000000000E+00   0.6584455073E-03  -0.3006207836E-03  -0.1489268821E-03   0.0000000000E+00   0.0000000000E+00   0.0000000000E+00   0.6827961237E-01
   0.2067984693E+00   0.9688165071E-01   0.7361344777E-04  -0.4581998317E-05   0.1472268955E-03  -0.9163996634E-05   0.6454374978E-01  -0.2112958786E-02   0.1872923730E-01  -0.1348614538E-01   0.0000000000E+00   0.0000000000E+00   0.5955886623E-03  -0.2709485491E-03  -0.1753198900E-03   0.0000000000E+00   0.0000000000E+00   0.0000000000E+00   0.6347800895E-01
   0.9004966027E-01   0.1039420283E+00   0.4247775646E-04  -0.1884291655E-04   0.8495551292E-04  -0.3768583310E-04   0.1033167355E+00  -0.1228009758E-01   0.2731099137E-01  -0.1197823130E-01   0.0000000000E+00   0.0000000000E+00   0.9880746735E-03  -0.5146841564E-03  -0.1557170069E-03   0.0000000000E+00   0.0000000000E+00   0.0000000000E+00   0.1029342244E+00
   0.1246535621E+00   0.8336133136E-01   0.5925404604E-04  -0.8619079452E-05   0.1185080921E-03  -0.1723815890E-04   0.6639305532E-01  -0.2048642457E-01   0.1377198923E-01  -0.2136260167E-01   0.0000000000E+00   0.0000000000E+00   0.6840738593E-03  -0.4453593793E-03  -0.2777138217E-03   0.0000000000E+00   0.0000000000E+00   0.0000000000E+00   0.8421810405E-01
   0.1088892565E+00   0.1151417476E+00   0.4498549426E-04  -0.1663280581E-04   0.8997098852E-04  -0.3326561162E-04   0.9671203296E-01  -0.1776047706E-01   0.2368546677E-01  -0.9171496236E-02   0.0000000000E+00   0.0000000000E+00   0.9493453605E-03  -0.5387972698E-03  -0.1192294511E-03   0.0000000000E+00   0.0000000000E+00   0.0000000000E+00   0.1017872670E+00
   0.2440492958E+00   0.1279707961E+00   0.7761527264E-04  -0.6299315114E-05   0.1552305453E-03  -0.1259863023E-04   0.7310644761E-01   0.1219349309E-02   0.2229773908E-01  -0.8491702937E-02   0.0000000000E+00   0.0000000000E+00   0.6605132110E-03  -0.2740190670E-03  -0.1103921382E-03   0.0000000000E+00   0.0000000000E+00   0.0000000000E+00   0.6566096827E-01
   0.1990767813E+00   0.1517083319E+00   0.6390942272E-04  -0.1108737186E-04   0.1278188454E-03  -0.2217474372E-04   0.8486731826E-01  -0.5281978459E-02   0.2387560194E-01  -0.6846037625E-02   0.0000000000E+00   0.0000000000E+00   0.7928923121E-03  -0.3790485452E-03  -0.8899848913E-04   0.0000000000E+00   0.0000000000E+00   0.0000000000E+00   0.8054084954E-01
   0.2055696048E+00   0.1444065725E+00   0.6657660111E-04  -0.9735160343E-05   0.1331532022E-03  -0.1947032069E-04   0.8196538199E-01  -0.4852773208E-02   0.2313378264E-01  -0.8018938568E-02   0.0000000000E+00   0.0000000000E+00   0.7648107916E-03  -0.3638252260E-03  -0.1042462014E-03   0.0000000000E+00   0.0000000000E+00   0.0000000000E+00   0.7799929245E-01
   0.1926028915E+00   0.1008041396E+00   0.7008648365E-04  -0.5492129963E-05   0.1401729673E-03  -0.1098425993E-04   0.6749772571E-01  -0.5249806445E-02   0.1867437578E-01  -0.1418723115E-01   0.0000000000E+00   0.0000000000E+00   0.6347035491E-03  -0.3110143689E-03  -0.1844340049E-03   0.0000000000E+00   0.0000000000E+00   0.0000000000E+00   0.6870855465E-01
   0.1418508973E+00   0.1241749912E+00   0.5287711363E-04  -0.1287893470E-04   0.1057542273E-03  -0.2575786939E-04   0.8869984142E-01  -0.1571948107E-01   0.2189410810E-01  -0.9321951402E-02   0.0000000000E+00   0.0000000000E+00   0.8684745331E-03  -0.4889766593E-03  -0.1211853682E-03   0.0000000000E+00   0.0000000000E+00   0.0000000000E+00   0.9299306494E-01
   0.1460371075E+00   0.1118580359E+00   0.5680516558E-04  -0.1039737675E-04   0.1136103312E-03  -0.2079475350E-04   0.8225903072E-01  -0.1593403376E-01   0.1989749909E-01  -0.1356075700E-01   0.0000000000E+00   0.0000000000E+00   0.8106999112E-03  -0.4658099270E-03  -0.1762898410E-03   0.0000000000E+00   0.0000000000E+00   0.0000000000E+00   0.8916059386E-01
   0.1587776753E+00   0.1176391226E+00   0.5894609992E-04  -0.9932122033E-05   0.1178921998E-03  -0.1986424407E-04   0.8144894594E-01  -0.1326049703E-01   0.2045653467E-01  -0.1237444507E-01   0.0000000000E+00   0.0000000000E+00   0.7929013464E-03  -0.4383214121E-03  -0.1608677859E-03   0.0000000000E+00   0.0000000000E+00   0.0000000000E+00   0.8587991308E-01
   0.1542594473E+00   0.1313400042E+00   0.5499144681E-04  -0.1247492150E-04   0.1099828936E-03  -0.2494984300E-04   0.8696996338E-01  -0.1389895129E-01   0.2192130363E-01  -0.8910447281E-02   0.0000000000E+00   0.0000000000E+00   0.8456325768E-03  -0.4656633139E-03  -0.1158358146E-03   0.0000000000E+00   0.0000000000E+00   0.0000000000E+00   0.8977250001E-01
   0.1639277868E+00   0.1519363108E+00   0.5418826213E-04  -0.1444307832E-04   0.1083765243E-03  -0.2888615663E-04   0.9122043388E-01  -0.9176842143E-02   0.2461307752E-01  -0.4520840454E-02   0.0000000000E+00   0.0000000000E+00   0.8658956326E-03  -0.4392689556E-03  -0.5877092591E-04   0.0000000000E+00   0.0000000000E+00   0.0000000000E+00   0.8878375243E-01
   0.1115052206E+00   0.1548785895E+00   0.3751218567E-04  -0.2321981897E-04   0.7502437134E-04  -0.4643963795E-04   0.1044033594E+00  -0.9925489235E-02   0.2834336106E-01   0.4939628593E-02   0.0000000000E+00   0.0000000000E+00   0.9887799787E-03  -0.4974950538E-03   0.6421517171E-04   0.0000000000E+00   0.0000000000E+00   0.0000000000E+00   0.1010906052E+00
   0.1374071513E+00   0.1346980790E+00   0.4939144433E-04  -0.1526834020E-04   0.9878288865E-04  -0.3053668041E-04   0.9696627605E-01  -0.1342283988E-01   0.2506303085E-01  -0.5204299039E-02   0.0000000000E+00   0.0000000000E+00   0.9347421876E-03  -0.5003163195E-03  -0.6765588751E-04   0.0000000000E+00   0.0000000000E+00   0.0000000000E+00   0.9737451432E-01
   0.1806918267E+00   0.1056345929E+00   0.6662424212E-04  -0.6643374937E-05   0.1332484842E-03  -0.1328674987E-04   0.7051866385E-01  -0.9006116833E-02   0.1845376411E-01  -0.1476405643E-01   0.0000000000E+00   0.0000000000E+00   0.6768436967E-03  -0.3569784522E-03  -0.1919327336E-03   0.0000000000E+00   0.0000000000E+00   0.0000000000E+00   0.7446103912E-01
   0.1511532676E+00   0.1000122857E+00   0.6090653366E-04  -0.8106772622E-05   0.1218130673E-03  -0.1621354524E-04   0.7314394155E-01  -0.1480091889E-01   0.1750290680E-01  -0.1673229763E-01   0.0000000000E+00   0.0000000000E+00   0.7233334518E-03  -0.4199497339E-03  -0.2175198691E-03   0.0000000000E+00   0.0000000000E+00   0.0000000000E+00   0.8226772179E-01
   0.1382803632E+00   0.9237254914E-01   0.5975906191E-04  -0.8300754298E-05   0.1195181238E-03  -0.1660150860E-04   0.7185570247E-01  -0.1786182086E-01   0.1619816448E-01  -0.1913887178E-01   0.0000000000E+00   0.0000000000E+00   0.7235479938E-03  -0.4427798095E-03  -0.2488053332E-03   0.0000000000E+00   0.0000000000E+00   0.0000000000E+00   0.8506161531E-01
   0.1559535529E+00   0.9052657207E-01   0.6427763313E-04  -0.6465044649E-05   0.1285552663E-03  -0.1293008930E-04   0.6512795844E-01  -0.1522107378E-01   0.1497206540E-01  -0.1977259144E-01   0.0000000000E+00   0.0000000000E+00   0.6520266095E-03  -0.3925108093E-03  -0.2570436887E-03   0.0000000000E+00   0.0000000000E+00   0.0000000000E+00   0.7809668215E-01
   0.1274060710E+00   0.1185282590E+00   0.4989733071E-04  -0.1402033992E-04   0.9979466143E-04  -0.2804067985E-04   0.9316308545E-01  -0.1724417318E-01   0.2277567368E-01  -0.9825046854E-02   0.0000000000E+00   0.0000000000E+00   0.9150363530E-03  -0.5202580092E-03  -0.1277256091E-03   0.0000000000E+00   0.0000000000E+00   0.0000000000E+00   0.9819422682E-01
   0.1260779141E+00   0.1330867953E+00   0.4616668466E-04  -0.1678555818E-04   0.9233336933E-04  -0.3357111636E-04   0.9625038006E-01  -0.1574815312E-01   0.2415066808E-01  -0.4778456396E-02   0.0000000000E+00   0.0000000000E+00   0.9372962557E-03  -0.5186846756E-03  -0.6211993315E-04   0.0000000000E+00   0.0000000000E+00   0.0000000000E+00   0.9867433087E-01
   0.1145679567E+00   0.1296629572E+00   0.4327255450E-04  -0.1823027997E-04   0.8654510900E-04  -0.3646055995E-04   0.9792155741E-01  -0.1828341356E-01   0.2389144316E-01  -0.4096304566E-02   0.0000000000E+00   0.0000000000E+00   0.9623914853E-03  -0.5482731373E-03  -0.5325195936E-04   0.0000000000E+00   0.0000000000E+00   0.0000000000E+00   0.1019539165E+00
   0.2291982918E+00   0.1294699363E+00   0.7412825571E-04  -0.6917238165E-05   0.1482565114E-03  -0.1383447633E-04   0.7478740147E-01  -0.6063229346E-03   0.2225432356E-01  -0.9101589266E-02   0.0000000000E+00   0.0000000000E+00   0.6829300129E-03  -0.2971884045E-03  -0.1183206605E-03   0.0000000000E+00   0.0000000000E+00   0.0000000000E+00   0.6877528970E-01
   0.2013316925E+00   0.1332114063E+00   0.6707083804E-04  -0.8646911476E-05   0.1341416761E-03  -0.1729382295E-04   0.7942999812E-01  -0.4596401293E-02   0.2245007905E-01  -0.9442256347E-02   0.0000000000E+00   0.0000000000E+00   0.7407389479E-03  -0.3516042444E-03  -0.1227493325E-03   0.0000000000E+00   0.0000000000E+00   0.0000000000E+00   0.7605728375E-01
   0.1977225167E+00   0.1180881259E+00   0.6844356555E-04  -0.7115359001E-05   0.1368871311E-03  -0.1423071800E-04   0.7444470980E-01  -0.5168130216E-02   0.2078297387E-01  -0.1170885296E-01   0.0000000000E+00   0.0000000000E+00   0.6976025670E-03  -0.3373643532E-03  -0.1522150885E-03   0.0000000000E+00   0.0000000000E+00   0.0000000000E+00   0.7317564422E-01
   0.2151182362E+00   0.1311355114E+00   0.7066372763E-04  -0.7683186389E-05   0.1413274553E-03  -0.1536637278E-04   0.7644896068E-01  -0.2822521372E-02   0.2208793179E-01  -0.9553881611E-02   0.0000000000E+00   0.0000000000E+00   0.7066933756E-03  -0.3238358912E-03  -0.1242004609E-03   0.0000000000E+00   0.0000000000E+00   0.0000000000E+00   0.7212695465E-01
   0.1087085854E+00   0.1384518072E+00   0.3948411807E-04  -0.2093359380E-04   0.7896823613E-04  -0.4186718760E-04   0.1038044647E+00  -0.1425478987E-01   0.2686490243E-01  -0.5408828373E-04   0.0000000000E+00   0.0000000000E+00   0.1000214309E-02  -0.5345560000E-03  -0.7031476885E-06   0.0000000000E+00   0.0000000000E+00   0.0000000000E+00   0.1037449389E+00
   0.1689154250E+00   0.1364589752E+00   0.5814066663E-04  -0.1163860653E-04   0.1162813333E-03  -0.2327721307E-04   0.8588138880E-01  -0.1098491865E-01   0.2246894105E-01  -0.8291318080E-02   0.0000000000E+00   0.0000000000E+00   0.8243618208E-03  -0.4349001760E-03  -0.1077871350E-03   0.0000000000E+00   0.0000000000E+00   0.0000000000E+00   0.8638869176E-01
   0.1864831060E+00   0.1395944320E+00   0.6234332283E-04  -0.1047667495E-04   0.1246866457E-03  -0.2095334990E-04   0.8338815079E-01  -0.7541137606E-02   0.2275410396E-01  -0.8405850437E-02   0.0000000000E+00   0.0000000000E+00   0.7882426089E-03  -0.3938381403E-03  -0.1092760557E-03   0.0000000000E+00   0.0000000000E+00   0.0000000000E+00   0.8148385189E-01
   0.1628299374E+00   0.1046819312E+00   0.6269980322E-04  -0.7753604266E-05   0.1253996064E-03  -0.1550720853E-04   0.7562328561E-01  -0.1152130911E-01   0.1923059295E-01  -0.1483205391E-01   0.0000000000E+00   0.0000000000E+00   0.7331050045E-03  -0.3997747268E-03  -0.1928167008E-03   0.0000000000E+00   0.0000000000E+00   0.0000000000E+00   0.8062502256E-01
   0.1845750859E+00   0.1214408795E+00   0.6476196547E-04  -0.8315181976E-05   0.1295239309E-03  -0.1663036395E-04   0.7755536272E-01  -0.7706225969E-02   0.2095474102E-01  -0.1143608485E-01   0.0000000000E+00   0.0000000000E+00   0.7358080820E-03  -0.3725925709E-03  -0.1486691031E-03   0.0000000000E+00   0.0000000000E+00   0.0000000000E+00   0.7766863620E-01
   0.1717285105E+00   0.1217853320E+00   0.6150317536E-04  -0.9326672378E-05   0.1230063507E-03  -0.1865334476E-04   0.7964209914E-01  -0.1073610139E-01   0.2067179932E-01  -0.1152954776E-01   0.0000000000E+00   0.0000000000E+00   0.7666138976E-03  -0.4083027093E-03  -0.1498841208E-03   0.0000000000E+00   0.0000000000E+00   0.0000000000E+00   0.8190710892E-01
   0.1157658465E+00   0.9810751442E-01   0.5218848362E-04  -0.1238612799E-04   0.1043769672E-03  -0.2477225598E-04   0.8241826944E-01  -0.2067247734E-01   0.1852373763E-01  -0.1698555591E-01   0.0000000000E+00   0.0000000000E+00   0.8306289135E-03  -0.5095507946E-03  -0.2208122269E-03   0.0000000000E+00   0.0000000000E+00   0.0000000000E+00   0.9472592914E-01
   0.1315830236E+00   0.1052814938E+00   0.5448988158E-04  -0.1114638387E-04   0.1089797632E-03  -0.2229276774E-04   0.8346804941E-01  -0.1857722399E-01   0.1946724763E-01  -0.1489970018E-01   0.0000000000E+00   0.0000000000E+00   0.8320104232E-03  -0.4945781310E-03  -0.1936961023E-03   0.0000000000E+00   0.0000000000E+00   0.0000000000E+00   0.9282704792E-01
   0.1720371383E+00   0.1103187962E+00   0.6374678220E-04  -0.7800280448E-05   0.1274935644E-03  -0.1560056090E-04   0.7277165926E-01  -0.1113719266E-01   0.1849033998E-01  -0.1416651949E-01   0.0000000000E+00   0.0000000000E+00   0.7056571507E-03  -0.3851579243E-03  -0.1841647534E-03   0.0000000000E+00   0.0000000000E+00   0.0000000000E+00   0.7766296230E-01
           1           2           3           4
           5           6           7           8
           9          10          11          12
          13          14          15          16
          17          18          19          20
          21          22          23          24
          25          26          27          28
          29          30          31          32
          33          34           4           3
           2           1          35          36
          37          38          39          40
          41          42          36          35
          43          41          44          45
          46           9          47          48
          41          35          39          44
          49          50          51          52
          52          51          53          54
          55          56          57          58
          56          59          60          57
          61          62          63          64
          65          66          67          68
          69          70          71          72
          73          74          25          28
          27          75          76          28
          77          78          24          23
          79          80          81          82
          83          84          85          86
          87          88          89          90
          90          89          62          91
          61          92          91          62
          92          61          59          93
          56          94          93          59
          95          55          54          53
          46          96          10           9
          97          98          99         100
          12         101          98          97
          97         100         102          47
         103         104          31          30
         105         103          30         106
          73         107         108         109
         110         111         112         113
          32          31         114         115
         116         117         118         119
         120         121         122         123
         121          83          86         122
          80         124         125          81
         126         127         128         129
         130         101          12          11
         131          43         101         130
          34         129         132           4
          42          41          43         131
          35           1          40          39
         101          43          45          98
         133         134         109         108
         135         136          13          16
         137         138          65          68
          94          56          55          95
          58         137          54          55
          49          52          68          67
         139         140         141         142
         140         139          82          81
          88          87         142         141
         143         144         145         146
         147          26          25         148
         149         150         128         151
           5           8         152         102
         132         129         128         150
         153         100          99         154
          48          47         102         152
          59          61          64          60
         106         155         113         118
          62          89         156          63
          88         157         156          89
         123         116         119         120
          66          65         134         133
         144         143          84          83
           9          12          97          47
         104         158         114          31
         159         160         127         126
         119         112         161         120
         117         105         106         118
         162         163         164         165
          83         121         166         144
         167         168         141         140
         167         143         146         168
           6         114         158           7
          38          37         169         170
          40         132         150          37
         160         159          20          19
          78         171         172          24
          18          17          21          24
         173         174          78          77
         132          40           1           4
          28          76         107          73
         175         176         177         178
         176         179          57          60
         137          68          52          54
          60          64         177         176
         163         162         155          29
          75          27         174         173
         180         174          27          26
          64          63         181         177
          98          45         182          99
         183         182          45          44
          38         183          44          39
          58          57         179         184
         185         181          63         156
         134         186         187         109
         188          74         187         189
         138         186         134          65
          88         141         168         157
         166         121         120         161
         190         191         166         161
         155         106          30          29
         192         193         194         195
         118         113         112         119
         125          84         143         167
         124          85          84         125
           6         196         115         114
         196           6           5         153
         197          32         115         198
         111         190         161         112
         199         148         188         135
         170         169         200         201
         202         164         163         197
         203         204         146         145
         205         206         201         200
         187          74          73         109
         176         175         207         179
         208         209          16          15
         210         186         138         184
         184         138         137          58
         179         207         210         184
         211         212         172         171
          78         174         180         171
         125         167         140          81
          37         150         149         169
         213         214         215         216
         217         182         183         201
         170         201         183          38
         218         219         206         205
         111         220         221         190
         157         168         146         204
         177         181         222         178
         222         181         185         223
         186         210         189         187
         224         191         190         221
         100         153           5         102
         185         156         157         204
         113         155         162         110
          26         147         193         180
          29          32         197         163
         225         226          19          18
         144         166         191         145
         212         192         227         228
         198         115         196         229
         206         154         217         201
         153         154         229         196
         172         225          18          24
         148          25          74         188
          14          13         175         178
         207         175          13         136
         189         136         135         188
         230         202         197         198
         210         207         136         189
         165         164         231         232
         169         149         233         200
         234         160          19         226
         217         154          99         182
         203         145         191         224
         151         235         233         149
         236         223         203         224
         185         204         203         223
         178         222         237          14
         110         162         165         238
         239         223         236         240
         238         220         111         110
         219         230         198         229
         241         242         232         243
         242          69         220         238
          72          71         240         236
         244         205         200         233
         215         231         164         202
         211         171         180         193
         228         225         172         212
         194         193         147         245
         245         147         148         199
         135          16         209         199
         209         208         246         247
         127         160         234         248
         193         192         212         211
         226         225         228         249
         151         128         127         248
         248         250         235         151
          72         221         220          69
          14         237         251          15
          70          69         252         253
         206         219         229         154
         238         165         232         242
          72         236         224         221
         216         215         202         230
         245         247         254         194
         255         256         257         258
         230         219         218         216
         214         259         231         215
         216         218         260         213
         261         255         258         214
         239         237         222         223
         194         254         262         195
         263         264         227         265
         250         266         267         268
         199         209         247         245
         240          71         269         251
         270         271         246         272
         260         244         273         213
         237         239         240         251
         218         205         244         260
          70         272         269          71
         232         231         259         243
         274         275         243         259
         257         256         263         276
         277         275         274         278
         234         226         249         279
         271         277         262         254
         271         254         247         246
         246         208         269         272
         244         233         235         273
         251         269         208          15
         275         270         253         252
         234         279         250         248
         279         249         264         280
         259         214         258         274
         262         281         276         195
         195         276         263         265
         257         276         281         278
         278         274         258         257
         266         280         256         255
         261         214         213         267
         267         266         255         261
         266         250         279         280
         228         227         264         249
         256         280         264         263
         265         227         192         195
         281         262         277         278
         235         250         268         273
         273         268         267         213
         277         271         270         275
         253         270         272          70
         252          69         242         241
         243         275         252         241
 VARIABLES = X,Y,DU1,DU2,U1,U2,S11,S22,S33,S12,S13,S23,E11,E22,E12,E33,E13,E23,SMISES
 ZONE, T="0.4000D+01" F=FEPOINT, I=  281 J=  250
   0.1778299713E-01   0.1340824312E+00   0.6995108697E-05  -0.3884119502E-04   0.2098532609E-04  -0.1165235851E-03   0.1897207751E+00   0.3637959702E-01   0.6783011163E-01   0.2902490914E-02   0.0000000000E+00   0.0000000000E+00   0.1584578625E-02  -0.4088566900E-03   0.3773238189E-04   0.0000000000E+00   0.0000000000E+00   0.0000000000E+00   0.1395792333E+00
   0.0000000000E+00   0.1331747562E+00   0.0000000000E+00  -0.3964596163E-04   0.0000000000E+00  -0.1189378849E-03   0.1909173690E+00   0.3792521535E-01   0.6865277532E-01   0.4904190332E-02   0.0000000000E+00   0.0000000000E+00   0.1589439718E-02  -0.3994582796E-03   0.6375447432E-04   0.0000000000E+00   0.0000000000E+00   0.0000000000E+00   0.1404684308E+00
   0.0000000000E+00   0.1165169696E+00   0.0000000000E+00  -0.3742435212E-04   0.0000000000E+00  -0.1122730564E-03   0.2393173983E+00   0.1599879640E-01   0.7659485840E-01   0.3901643266E-02   0.0000000000E+00   0.0000000000E+00   0.2115393018E-02  -0.7877488060E-03   0.5072136246E-04   0.0000000000E+00   0.0000000000E+00   0.0000000000E+00   0.1995182592E+00
   0.1919345533E-01   0.1161455063E+00   0.9829582524E-05  -0.3642042832E-04   0.2948874757E-04  -0.1092612850E-03   0.2186480562E+00   0.1535950640E-01   0.7020226879E-01  -0.1944721340E-01   0.0000000000E+00   0.0000000000E+00   0.1929795237E-02  -0.7129559111E-03  -0.2528137742E-03   0.0000000000E+00   0.0000000000E+00   0.0000000000E+00   0.1861143727E+00
   0.7807549495E-01   0.2317143470E+00   0.1849893641E-04  -0.4051400749E-04   0.5549680922E-04  -0.1215420225E-03   0.1163563004E+00   0.6057412473E-04   0.3492506235E-01   0.8060165663E-02   0.0000000000E+00   0.0000000000E+00   0.1058606094E-02  -0.4532383470E-03   0.1047821536E-03   0.0000000000E+00   0.0000000000E+00   0.0000000000E+00   0.1043568854E+00
   0.9787346078E-01   0.2319075710E+00   0.2386522070E-04  -0.3692275069E-04   0.7159566209E-04  -0.1107682521E-03   0.1229851932E+00  -0.6010744145E-03   0.3671523564E-01   0.7341455221E-02   0.0000000000E+00   0.0000000000E+00   0.1121509448E-02  -0.4851120306E-03   0.9543891787E-04   0.0000000000E+00   0.0000000000E+00   0.0000000000E+00   0.1105658548E+00
   0.9730604876E-01   0.2498433403E+00   0.2095621536E-04  -0.3916492128E-04   0.6286864607E-04  -0.1174947638E-03   0.1199646373E+00  -0.6104930620E-03   0.3580624328E-01   0.2522160638E-02   0.0000000000E+00   0.0000000000E+00   0.1094059123E-02  -0.4734175725E-03   0.3278808830E-04   0.0000000000E+00   0.0000000000E+00   0.0000000000E+00   0.1070829389E+00
   0.7784131264E-01   0.2498298224E+00   0.1588301032E-04  -0.4254439680E-04   0.4764903096E-04  -0.1276331904E-03   0.1085664067E+00  -0.1086056810E-02   0.3224410498E-01   0.2802001106E-02   0.0000000000E+00   0.0000000000E+00   0.9921899229E-03  -0.4332921032E-03   0.3642601438E-04   0.0000000000E+00   0.0000000000E+00   0.0000000000E+00   0.9734901413E-01
   0.1911493823E-01   0.2331299612E+00   0.4186906655E-05  -0.4821695311E-04   0.1256071997E-04  -0.1446508593E-03   0.9859838664E-01   0.2754134309E-02   0.3040575628E-01   0.2324514295E-02   0.0000000000E+00   0.0000000000E+00   0.8865041946E-03  -0.3594710857E-03   0.3021868583E-04   0.0000000000E+00   0.0000000000E+00   0.0000000000E+00   0.8570167216E-01
   0.0000000000E+00   0.2331382296E+00   0.0000000000E+00  -0.4877609362E-04   0.0000000000E+00  -0.1463282809E-03   0.9700523548E-01   0.2924680661E-02   0.2997897484E-01   0.2618597861E-02   0.0000000000E+00   0.0000000000E+00   0.8713413883E-03  -0.3517058243E-03   0.3404177219E-04   0.0000000000E+00   0.0000000000E+00   0.0000000000E+00   0.8398355178E-01
   0.0000000000E+00   0.2164777564E+00   0.0000000000E+00  -0.4722813783E-04   0.0000000000E+00  -0.1416844135E-03   0.1102269321E+00   0.5612699276E-02   0.3475188942E-01   0.2682346307E-02   0.0000000000E+00   0.0000000000E+00   0.9811755553E-03  -0.3788094719E-03   0.3487050199E-04   0.0000000000E+00   0.0000000000E+00   0.0000000000E+00   0.9355737623E-01
   0.1855055618E-01   0.2165878787E+00   0.4565344514E-05  -0.4668358177E-04   0.1369603354E-04  -0.1400507453E-03   0.1113190648E+00   0.5182103285E-02   0.3495035041E-01   0.4558064796E-02   0.0000000000E+00   0.0000000000E+00   0.9927932865E-03  -0.3869872127E-03   0.5925484235E-04   0.0000000000E+00   0.0000000000E+00   0.0000000000E+00   0.9529678950E-01
   0.2575399660E+00   0.9226108639E-01   0.8362000731E-04  -0.3296152572E-05   0.2508600219E-03  -0.9888457717E-05   0.8201599663E-01   0.7710817258E-02   0.2691804417E-01  -0.1118566174E-01   0.0000000000E+00   0.0000000000E+00   0.7162733820E-03  -0.2496939498E-03  -0.1454136026E-03   0.0000000000E+00   0.0000000000E+00   0.0000000000E+00   0.6953977522E-01
   0.2589307422E+00   0.1102678800E+00   0.8236604865E-04  -0.4512505276E-05   0.2470981460E-03  -0.1353751583E-04   0.8956631214E-01   0.5710869348E-02   0.2858315445E-01  -0.1075438441E-01   0.0000000000E+00   0.0000000000E+00   0.7927810500E-03  -0.2973397063E-03  -0.1398069973E-03   0.0000000000E+00   0.0000000000E+00   0.0000000000E+00   0.7733655816E-01
   0.2421714328E+00   0.1106572728E+00   0.7897520231E-04  -0.4849041415E-05   0.2369256069E-03  -0.1454712425E-04   0.9044357908E-01   0.3093819921E-02   0.2806121970E-01  -0.1265824386E-01   0.0000000000E+00   0.0000000000E+00   0.8109706720E-03  -0.3245761971E-03  -0.1645571701E-03   0.0000000000E+00   0.0000000000E+00   0.0000000000E+00   0.8093498154E-01
   0.2397015885E+00   0.9266715942E-01   0.8036313396E-04  -0.3539770277E-05   0.2410894019E-03  -0.1061931083E-04   0.8225802229E-01   0.4962903313E-02   0.2616627768E-01  -0.1361123772E-01   0.0000000000E+00   0.0000000000E+00   0.7291926799E-03  -0.2756438668E-03  -0.1769460904E-03   0.0000000000E+00   0.0000000000E+00   0.0000000000E+00   0.7305904606E-01
   0.9267240236E-01   0.3822561351E-01   0.7111261511E-04  -0.1068227345E-04   0.2133378453E-03  -0.3204682036E-04  -0.1402606971E-01  -0.7201429405E-01  -0.2581210913E-01   0.1003242516E-01   0.0000000000E+00   0.0000000000E+00   0.1532185124E-03  -0.6006284040E-03   0.1304215270E-03   0.0000000000E+00   0.0000000000E+00   0.0000000000E+00   0.5151364221E-01
   0.1083254301E+00   0.4607156566E-01   0.6964251905E-04  -0.6743959537E-05   0.2089275571E-03  -0.2023187861E-04   0.2482488095E-01  -0.2946866067E-01  -0.1393133916E-02  -0.1495648506E-01   0.0000000000E+00   0.0000000000E+00   0.3408341932E-03  -0.3649818478E-03  -0.1944343058E-03   0.0000000000E+00   0.0000000000E+00   0.0000000000E+00   0.5126257863E-01
   0.9635721012E-01   0.6349558474E-01   0.6152843021E-04  -0.1165248961E-04   0.1845852906E-03  -0.3495746883E-04   0.4676673010E-01  -0.1800277971E-01   0.8629185117E-02  -0.2226615476E-01   0.0000000000E+00   0.0000000000E+00   0.4957880847E-03  -0.3462155427E-03  -0.2894600119E-03   0.0000000000E+00   0.0000000000E+00   0.0000000000E+00   0.6860368857E-01
   0.8340421044E-01   0.5549240205E-01   0.6431273462E-04  -0.1615541316E-04   0.1929382038E-03  -0.4846623949E-04   0.1257505394E-01  -0.1608657065E-01  -0.1053455011E-02  -0.7191293092E-02   0.0000000000E+00   0.0000000000E+00   0.1771706164E-03  -0.1954305033E-03  -0.9348681019E-04   0.0000000000E+00   0.0000000000E+00   0.0000000000E+00   0.2794123967E-01
   0.9837856699E-01   0.1948797416E-01   0.7501009803E-04  -0.5264561245E-05   0.2250302941E-03  -0.1579368373E-04  -0.1475931299E-01  -0.1123767226E+00  -0.3814081067E-01   0.1402248022E-01   0.0000000000E+00   0.0000000000E+00   0.3039594698E-03  -0.9650668548E-03   0.1822922428E-03   0.0000000000E+00   0.0000000000E+00   0.0000000000E+00   0.8696959936E-01
   0.1003067637E+00   0.0000000000E+00   0.7669068531E-04   0.0000000000E+00   0.2300720559E-03   0.0000000000E+00  -0.2010307349E-01  -0.1217179770E+00  -0.4254631515E-01  -0.7656000332E-02   0.0000000000E+00   0.0000000000E+00   0.2917621416E-03  -0.1029231604E-02  -0.9952800432E-04   0.0000000000E+00   0.0000000000E+00   0.0000000000E+00   0.9290814196E-01
   0.1211459374E+00   0.0000000000E+00   0.7815183898E-04   0.0000000000E+00   0.2344555169E-03   0.0000000000E+00   0.3010562519E-02  -0.3851138622E-01  -0.1065024711E-01  -0.8216411898E-02   0.0000000000E+00   0.0000000000E+00   0.1775905252E-03  -0.3621948084E-03  -0.1068133547E-03   0.0000000000E+00   0.0000000000E+00   0.0000000000E+00   0.3875099997E-01
   0.1220342017E+00   0.2610258253E-01   0.7583442070E-04  -0.2431542051E-05   0.2275032621E-03  -0.7294626153E-05   0.1179565289E-01  -0.3719427367E-01  -0.7619586232E-02  -0.9861115898E-02   0.0000000000E+00   0.0000000000E+00   0.2523981086E-03  -0.3844709367E-03  -0.1281945067E-03   0.0000000000E+00   0.0000000000E+00   0.0000000000E+00   0.4872099539E-01
   0.2108704187E+00   0.3762952622E-01   0.8156992776E-04  -0.9266450683E-06   0.2447097833E-03  -0.2779935205E-05   0.5342275204E-01   0.8109700521E-02   0.1845973577E-01  -0.1241946834E-01   0.0000000000E+00   0.0000000000E+00   0.4545192115E-03  -0.1345504582E-03  -0.1614530884E-03   0.0000000000E+00   0.0000000000E+00   0.0000000000E+00   0.4625884977E-01
   0.1907750789E+00   0.3837834402E-01   0.7929222066E-04  -0.1039095662E-05   0.2378766620E-03  -0.3117286985E-05   0.4824878324E-01   0.3053486157E-02   0.1539068082E-01  -0.1598395026E-01   0.0000000000E+00   0.0000000000E+00   0.4271553314E-03  -0.1603835306E-03  -0.2077913534E-03   0.0000000000E+00   0.0000000000E+00   0.0000000000E+00   0.4880854586E-01
   0.1870305267E+00   0.1901115188E-01   0.8059366394E-04  -0.4421810457E-06   0.2417809918E-03  -0.1326543137E-05   0.3813979770E-01   0.4958845434E-02   0.1292959294E-01  -0.7889541249E-02   0.0000000000E+00   0.0000000000E+00   0.3277326619E-03  -0.1036197176E-03  -0.1025640362E-03   0.0000000000E+00   0.0000000000E+00   0.0000000000E+00   0.3330242951E-01
   0.2075620547E+00   0.1873643514E-01   0.8244318411E-04  -0.3971898792E-06   0.2473295523E-03  -0.1191569638E-05   0.4641209453E-01   0.9432247396E-02   0.1675330258E-01  -0.6221856848E-02   0.0000000000E+00   0.0000000000E+00   0.3855642954E-03  -0.9517371738E-04  -0.8088413902E-04   0.0000000000E+00   0.0000000000E+00   0.0000000000E+00   0.3575873284E-01
   0.1575982088E+00   0.2158595859E+00   0.4371544168E-04  -0.2446553376E-04   0.1311463250E-03  -0.7339660127E-04   0.1329291106E+00  -0.2902747364E-02   0.3900790897E-01   0.3509760233E-02   0.0000000000E+00   0.0000000000E+00   0.1220975621E-02  -0.5448385324E-03   0.4562688302E-04   0.0000000000E+00   0.0000000000E+00   0.0000000000E+00   0.1206186778E+00
   0.1566178483E+00   0.2324980440E+00   0.4129432021E-04  -0.2686449964E-04   0.1238829606E-03  -0.8059349893E-04   0.1360945964E+00  -0.1393592899E-02   0.4041030106E-01   0.2215763563E-02   0.0000000000E+00   0.0000000000E+00   0.1243895840E-02  -0.5434506215E-03   0.2880492631E-04   0.0000000000E+00   0.0000000000E+00   0.0000000000E+00   0.1221501358E+00
   0.1371205369E+00   0.2325103721E+00   0.3529146640E-04  -0.2994046399E-04   0.1058743992E-03  -0.8982139197E-04   0.1332906166E+00  -0.1397394327E-02   0.3956796669E-01   0.3955674610E-02   0.0000000000E+00   0.0000000000E+00   0.1218394449E-02  -0.5325496932E-03   0.5142376993E-04   0.0000000000E+00   0.0000000000E+00   0.0000000000E+00   0.1198008827E+00
   0.1383666505E+00   0.2157028615E+00   0.3788511910E-04  -0.2747788619E-04   0.1136553573E-03  -0.8243365858E-04   0.1319345279E+00  -0.3237031090E-02   0.3860924905E-01   0.6494326680E-02   0.0000000000E+00   0.0000000000E+00   0.1213228625E-02  -0.5440016418E-03   0.8442624684E-04   0.0000000000E+00   0.0000000000E+00   0.0000000000E+00   0.1203584286E+00
   0.0000000000E+00   0.9986722998E-01   0.0000000000E+00  -0.3319275520E-04   0.0000000000E+00  -0.9957826559E-04   0.3680173184E+00   0.3384619955E-01   0.1205590554E+00   0.4353942498E-02   0.0000000000E+00   0.0000000000E+00   0.3216957419E-02  -0.1127267126E-02   0.5660125248E-04   0.0000000000E+00   0.0000000000E+00   0.0000000000E+00   0.2971889918E+00
   0.1957082190E-01   0.9794973013E-01   0.1544737453E-04  -0.3219911729E-04   0.4634212358E-04  -0.9659735186E-04   0.3380542802E+00   0.3201240162E-01   0.1110200045E+00  -0.5075089546E-01   0.0000000000E+00   0.0000000000E+00   0.2951445583E-02  -0.1027098838E-02  -0.6597616409E-03   0.0000000000E+00   0.0000000000E+00   0.0000000000E+00   0.2861910499E+00
   0.1682188494E-01   0.1511742086E+00   0.5706535176E-05  -0.4062660207E-04   0.1711960553E-04  -0.1218798062E-03   0.1612918098E+00   0.2702776954E-01   0.5649587381E-01   0.4963394299E-02   0.0000000000E+00   0.0000000000E+00   0.1362347168E-02  -0.3830853555E-03   0.6452412589E-04   0.0000000000E+00   0.0000000000E+00   0.0000000000E+00   0.1230284966E+00
   0.0000000000E+00   0.1498352160E+00   0.0000000000E+00  -0.4119750748E-04   0.0000000000E+00  -0.1235925224E-03   0.1630183534E+00   0.3073938994E-01   0.5812732300E-01   0.3796990444E-02   0.0000000000E+00   0.0000000000E+00   0.1363583395E-02  -0.3560431298E-03   0.4936087577E-04   0.0000000000E+00   0.0000000000E+00   0.0000000000E+00   0.1210230896E+00
   0.5113087197E-01   0.1385338485E+00   0.1914046851E-04  -0.3394788473E-04   0.5742140554E-04  -0.1018436542E-03   0.1663058464E+00   0.1020408903E-01   0.5295298063E-01   0.8664442626E-02   0.0000000000E+00   0.0000000000E+00   0.1473587255E-02  -0.5557355907E-03   0.1126377541E-03   0.0000000000E+00   0.0000000000E+00   0.0000000000E+00   0.1404009157E+00
   0.4911292321E-01   0.1539145914E+00   0.1650485225E-04  -0.3634614103E-04   0.4951455675E-04  -0.1090384231E-03   0.1547265916E+00   0.1176554166E-01   0.4994763996E-01   0.1349574877E-01   0.0000000000E+00   0.0000000000E+00   0.1362126371E-02  -0.4963672780E-03   0.1754447340E-03   0.0000000000E+00   0.0000000000E+00   0.0000000000E+00   0.1303901452E+00
   0.3322027552E-01   0.1525809354E+00   0.1120270566E-04  -0.3887989452E-04   0.3360811699E-04  -0.1166396835E-03   0.1588792656E+00   0.2053985918E-01   0.5382573744E-01   0.1033954359E-01   0.0000000000E+00   0.0000000000E+00   0.1365695866E-02  -0.4327164174E-03   0.1344140667E-03   0.0000000000E+00   0.0000000000E+00   0.0000000000E+00   0.1270488109E+00
   0.3442462574E-01   0.1355927548E+00   0.1328728485E-04  -0.3675829144E-04   0.3986185455E-04  -0.1102748743E-03   0.1754619822E+00   0.2163739136E-01   0.5912981206E-01   0.1023213950E-01   0.0000000000E+00   0.0000000000E+00   0.1512318211E-02  -0.4874014691E-03   0.1330178135E-03   0.0000000000E+00   0.0000000000E+00   0.0000000000E+00   0.1375466896E+00
   0.1670525093E-01   0.1676345432E+00   0.5146158594E-05  -0.4214870292E-04   0.1543847578E-04  -0.1264461088E-03   0.1460414005E+00   0.2272945379E-01   0.5063125628E-01   0.6051411517E-02   0.0000000000E+00   0.0000000000E+00   0.1240331875E-02  -0.3627234325E-03   0.7866834972E-04   0.0000000000E+00   0.0000000000E+00   0.0000000000E+00   0.1125965715E+00
   0.0000000000E+00   0.1664961124E+00   0.0000000000E+00  -0.4263990217E-04   0.0000000000E+00  -0.1279197065E-03   0.1461420966E+00   0.2465064409E-01   0.5123782222E-01   0.3236975870E-02   0.0000000000E+00   0.0000000000E+00   0.1233755567E-02  -0.3456333157E-03   0.4208068632E-04   0.0000000000E+00   0.0000000000E+00   0.0000000000E+00   0.1106535491E+00
   0.1711104382E-01   0.1839509916E+00   0.4895355700E-05  -0.4363409146E-04   0.1468606710E-04  -0.1309022744E-03   0.1334154040E+00   0.1597145912E-01   0.4481605894E-01   0.5932566719E-02   0.0000000000E+00   0.0000000000E+00   0.1151791486E-02  -0.3749797977E-03   0.7712336735E-04   0.0000000000E+00   0.0000000000E+00   0.0000000000E+00   0.1066837279E+00
   0.3343179392E-01   0.1684447884E+00   0.1032078073E-04  -0.4052590440E-04   0.3096234220E-04  -0.1215777132E-03   0.1449155361E+00   0.1655077293E-01   0.4843989272E-01   0.1288291278E-01   0.0000000000E+00   0.0000000000E+00   0.1254183365E-02  -0.4145585573E-03   0.1674778662E-03   0.0000000000E+00   0.0000000000E+00   0.0000000000E+00   0.1176080823E+00
   0.3455307933E-01   0.1841111992E+00   0.9944307253E-05  -0.4200844510E-04   0.2983292176E-04  -0.1260253353E-03   0.1338319007E+00   0.1210494553E-01   0.4378105387E-01   0.1244154655E-01   0.0000000000E+00   0.0000000000E+00   0.1170661009E-02  -0.4117894084E-03   0.1617401052E-03   0.0000000000E+00   0.0000000000E+00   0.0000000000E+00   0.1114886912E+00
   0.1945845453E-01   0.2498015033E+00   0.3502358286E-05  -0.4962417774E-04   0.1050707486E-04  -0.1488725332E-03   0.7973511603E-01  -0.2409698638E-02   0.2319762522E-01   0.4412983853E-03   0.0000000000E+00   0.0000000000E+00   0.7349873805E-03  -0.3328952101E-03   0.5736879009E-05   0.0000000000E+00   0.0000000000E+00   0.0000000000E+00   0.7291906668E-01
   0.3851219612E-01   0.2327581649E+00   0.8595105215E-05  -0.4652877048E-04   0.2578531565E-04  -0.1395863115E-03   0.1030075975E+00   0.2136147706E-02   0.3154312356E-01   0.5849294470E-02   0.0000000000E+00   0.0000000000E+00   0.9290381612E-03  -0.3822906861E-03   0.7604082811E-04   0.0000000000E+00   0.0000000000E+00   0.0000000000E+00   0.9047998234E-01
   0.3891775075E-01   0.2498078311E+00   0.7215112174E-05  -0.4804222306E-04   0.2164533652E-04  -0.1441266692E-03   0.8678118308E-01  -0.2075716035E-02   0.2541164011E-01   0.2223348951E-02   0.0000000000E+00   0.0000000000E+00   0.7978040585E-03  -0.3573356299E-03   0.2890353637E-04   0.0000000000E+00   0.0000000000E+00   0.0000000000E+00   0.7886598186E-01
   0.3295556002E+00   0.0000000000E+00   0.9722979590E-04   0.0000000000E+00   0.2916893877E-03   0.0000000000E+00   0.6642246577E-01   0.1914951147E-01   0.2567159317E-01  -0.1926846106E-03   0.0000000000E+00   0.0000000000E+00   0.5297613438E-03  -0.8478706219E-04  -0.2504899937E-05   0.0000000000E+00   0.0000000000E+00   0.0000000000E+00   0.4437164359E-01
   0.3503999940E+00   0.0000000000E+00   0.1000000000E-03   0.0000000000E+00   0.3000000000E-03   0.0000000000E+00   0.6681103802E-01   0.1926376315E-01   0.2582244035E-01  -0.1187032162E-05   0.0000000000E+00   0.0000000000E+00   0.5328517697E-03  -0.8526280364E-04  -0.1543141811E-07   0.0000000000E+00   0.0000000000E+00   0.0000000000E+00   0.4463088367E-01
   0.3503999940E+00   0.1922909314E-01   0.1000000000E-03  -0.4191893133E-06   0.3000000000E-03  -0.1257567940E-05   0.6753656600E-01   0.1893480631E-01   0.2594141169E-01  -0.1115169521E-04   0.0000000000E+00   0.0000000000E+00   0.5407370060E-03  -0.9108587003E-04  -0.1449720377E-06   0.0000000000E+00   0.0000000000E+00   0.0000000000E+00   0.4550240049E-01
   0.3301518639E+00   0.1871292262E-01   0.9726922721E-04  -0.4056707959E-06   0.2918076816E-03  -0.1217012388E-05   0.6719361429E-01   0.1884532485E-01   0.2581168174E-01  -0.6194059249E-03   0.0000000000E+00   0.0000000000E+00   0.5379651231E-03  -0.9056263957E-04  -0.8052277023E-05   0.0000000000E+00   0.0000000000E+00   0.0000000000E+00   0.4528028309E-01
   0.3503999940E+00   0.3845796320E-01   0.1000000000E-03  -0.8941745386E-06   0.3000000000E-03  -0.2682523616E-05   0.6974311736E-01   0.1798195045E-01   0.2631752034E-01  -0.1326871383E-04   0.0000000000E+00   0.0000000000E+00   0.5645327613E-03  -0.1083624087E-03  -0.1724932798E-06   0.0000000000E+00   0.0000000000E+00   0.0000000000E+00   0.4812952827E-01
   0.3305946748E+00   0.3767954735E-01   0.9721169021E-04  -0.8712883692E-06   0.2916350706E-03  -0.2613865107E-05   0.6947498983E-01   0.1794299053E-01   0.2622539411E-01  -0.1282053173E-02   0.0000000000E+00   0.0000000000E+00   0.5622447444E-03  -0.1076712465E-03  -0.1666669125E-04   0.0000000000E+00   0.0000000000E+00   0.0000000000E+00   0.4797195188E-01
   0.3309468108E+00   0.5675693903E-01   0.9707545881E-04  -0.1446518214E-05   0.2912263764E-03  -0.4339554641E-05   0.7313749223E-01   0.1649588492E-01   0.2689001315E-01  -0.1733093714E-02   0.0000000000E+00   0.0000000000E+00   0.6012172281E-03  -0.1351236669E-03  -0.2253021828E-04   0.0000000000E+00   0.0000000000E+00   0.0000000000E+00   0.5229834748E-01
   0.3312251674E+00   0.7594793872E-01   0.9687509014E-04  -0.2177845691E-05   0.2906252704E-03  -0.6533537074E-05   0.7797266931E-01   0.1462840831E-01   0.2778032329E-01  -0.2058496001E-02   0.0000000000E+00   0.0000000000E+00   0.6525004984E-03  -0.1709748947E-03  -0.2676044801E-04   0.0000000000E+00   0.0000000000E+00   0.0000000000E+00   0.5799140664E-01
   0.3121867312E+00   0.7513686871E-01   0.9379855219E-04  -0.2161022229E-05   0.2813956566E-03  -0.6483066688E-05   0.7727504508E-01   0.1410548302E-01   0.2741415843E-01  -0.4098685768E-02   0.0000000000E+00   0.0000000000E+00   0.6481915264E-03  -0.1730127803E-03  -0.5328291498E-04   0.0000000000E+00   0.0000000000E+00   0.0000000000E+00   0.5809652725E-01
   0.3115216518E+00   0.5604749115E-01   0.9418344150E-04  -0.1426937509E-05   0.2825503245E-03  -0.4280812527E-05   0.7226260413E-01   0.1601618307E-01   0.2648363616E-01  -0.3472136196E-02   0.0000000000E+00   0.0000000000E+00   0.5951265837E-03  -0.1360768902E-03  -0.4513777055E-04   0.0000000000E+00   0.0000000000E+00   0.0000000000E+00   0.5214631462E-01
   0.3313688085E+00   0.9524359274E-01   0.9661286549E-04  -0.3102015565E-05   0.2898385965E-03  -0.9306046694E-05   0.8371054212E-01   0.1246358486E-01   0.2885223810E-01  -0.2228981956E-02   0.0000000000E+00   0.0000000000E+00   0.7131579524E-03  -0.2130524920E-03  -0.2897676542E-04   0.0000000000E+00   0.0000000000E+00   0.0000000000E+00   0.6472672005E-01
   0.3125618104E+00   0.9438824395E-01   0.9328885909E-04  -0.3094511305E-05   0.2798665773E-03  -0.9283533914E-05   0.8320578592E-01   0.1193008140E-01   0.2854076020E-01  -0.4408546417E-02   0.0000000000E+00   0.0000000000E+00   0.7106453344E-03  -0.2159388244E-03  -0.5731110342E-04   0.0000000000E+00   0.0000000000E+00   0.0000000000E+00   0.6502633115E-01
   0.3313539685E+00   0.1146925707E+00   0.9629288459E-04  -0.4248333869E-05   0.2888786538E-03  -0.1274500161E-04   0.9010877385E-01   0.1017811007E-01   0.3008606517E-01  -0.2275339000E-02   0.0000000000E+00   0.0000000000E+00   0.7802952128E-03  -0.2588034164E-03  -0.2957940700E-04   0.0000000000E+00   0.0000000000E+00   0.0000000000E+00   0.7215922533E-01
   0.3312113974E+00   0.1342525172E+00   0.9592859401E-04  -0.5629205086E-05   0.2877857820E-03  -0.1688761526E-04   0.9686834857E-01   0.7917854174E-02   0.3143586082E-01  -0.2186935852E-02   0.0000000000E+00   0.0000000000E+00   0.8506223407E-03  -0.3057340865E-03  -0.2843016607E-04   0.0000000000E+00   0.0000000000E+00   0.0000000000E+00   0.7990716692E-01
   0.3121654197E+00   0.1337709255E+00   0.9189067596E-04  -0.5689135348E-05   0.2756720279E-03  -0.1706740604E-04   0.9686382387E-01   0.7351640404E-02   0.3126463928E-01  -0.4288420092E-02   0.0000000000E+00   0.0000000000E+00   0.8527893997E-03  -0.3108689854E-03  -0.5574946120E-04   0.0000000000E+00   0.0000000000E+00   0.0000000000E+00   0.8060594848E-01
   0.3125566048E+00   0.1139184747E+00   0.9265045444E-04  -0.4262086569E-05   0.2779513633E-03  -0.1278625971E-04   0.8981675141E-01   0.9591410090E-02   0.2982244845E-01  -0.4458744933E-02   0.0000000000E+00   0.0000000000E+00   0.7799259385E-03  -0.2630034987E-03  -0.5796368413E-04   0.0000000000E+00   0.0000000000E+00   0.0000000000E+00   0.7266400116E-01
   0.2893631084E+00   0.1826261876E-01   0.9188609178E-04  -0.3884599257E-06   0.2756582753E-03  -0.1165379777E-05   0.6418704870E-01   0.1768430967E-01   0.2456140751E-01  -0.1925445404E-02   0.0000000000E+00   0.0000000000E+00   0.5151333355E-03  -0.8940227195E-04  -0.2503079025E-04   0.0000000000E+00   0.0000000000E+00   0.0000000000E+00   0.4361030437E-01
   0.2878672675E+00   0.0000000000E+00   0.9181836775E-04   0.0000000000E+00   0.2754551032E-03   0.0000000000E+00   0.6315658027E-01   0.1795868187E-01   0.2433457864E-01  -0.6062837323E-03   0.0000000000E+00   0.0000000000E+00   0.5046860211E-03  -0.8288665802E-04  -0.7881688519E-05   0.0000000000E+00   0.0000000000E+00   0.0000000000E+00   0.4235884658E-01
   0.3087113032E+00   0.0000000000E+00   0.9449153983E-04   0.0000000000E+00   0.2834746195E-03   0.0000000000E+00   0.6522308339E-01   0.1871950021E-01   0.2518277508E-01  -0.3898095993E-03   0.0000000000E+00   0.0000000000E+00   0.5205240080E-03  -0.8402257328E-04  -0.5067524791E-05   0.0000000000E+00   0.0000000000E+00   0.0000000000E+00   0.4362735734E-01
   0.3097658243E+00   0.1840467002E-01   0.9455008192E-04  -0.3958208889E-06   0.2836502458E-03  -0.1187462667E-05   0.6606665071E-01   0.1842446043E-01   0.2534733334E-01  -0.1247042803E-02   0.0000000000E+00   0.0000000000E+00   0.5293511257E-03  -0.8999734782E-04  -0.1621155644E-04   0.0000000000E+00   0.0000000000E+00   0.0000000000E+00   0.4463993513E-01
   0.2124710121E+00   0.1636442813E+00   0.6594978410E-04  -0.1158267187E-04   0.1978493523E-03  -0.3474801562E-04   0.1152340330E+00  -0.4005181001E-02   0.3336865560E-01  -0.7775286258E-02   0.0000000000E+00   0.0000000000E+00   0.1064249906E-02  -0.4858598758E-03  -0.1010787214E-03   0.0000000000E+00   0.0000000000E+00   0.0000000000E+00   0.1064789047E+00
   0.2165846348E+00   0.1467318451E+00   0.6903645009E-04  -0.9352462573E-05   0.2071093503E-03  -0.2805738772E-04   0.1076926571E+00  -0.4189934911E-02   0.3105081667E-01  -0.1055663664E-01   0.0000000000E+00   0.0000000000E+00   0.9963439261E-03  -0.4581297705E-03  -0.1372362763E-03   0.0000000000E+00   0.0000000000E+00   0.0000000000E+00   0.1007224416E+00
   0.2312455993E+00   0.1467012435E+00   0.7265606977E-04  -0.8613612827E-05   0.2179682093E-03  -0.2584083848E-04   0.1066970482E+00  -0.1442703920E-02   0.3157630328E-01  -0.9949294214E-02   0.0000000000E+00   0.0000000000E+00   0.9765696839E-03  -0.4292470937E-03  -0.1293408248E-03   0.0000000000E+00   0.0000000000E+00   0.0000000000E+00   0.9751556220E-01
   0.2324340322E+00   0.1630637446E+00   0.7123079675E-04  -0.1035760553E-04   0.2136923902E-03  -0.3107281659E-04   0.1127552999E+00  -0.1293866732E-02   0.3343842994E-01  -0.7934370925E-02   0.0000000000E+00   0.0000000000E+00   0.1031119309E-02  -0.4515198567E-03  -0.1031468220E-03   0.0000000000E+00   0.0000000000E+00   0.0000000000E+00   0.1021782574E+00
   0.2281036653E+00   0.1845556320E-01   0.8455232205E-04  -0.3822755862E-06   0.2536569662E-03  -0.1146826759E-05   0.5278142713E-01   0.1269411190E-01   0.1964266171E-01  -0.4772004023E-02   0.0000000000E+00   0.0000000000E+00   0.4308039504E-03  -0.9033114746E-04  -0.6203605230E-04   0.0000000000E+00   0.0000000000E+00   0.0000000000E+00   0.3810283207E-01
   0.2309541599E+00   0.3704469287E-01   0.8396922866E-04  -0.8679830320E-06   0.2519076860E-03  -0.2603949096E-05   0.5806324661E-01   0.1140511437E-01   0.2084050829E-01  -0.9572263203E-02   0.0000000000E+00   0.0000000000E+00   0.4838955981E-03  -0.1226601210E-03  -0.1244394216E-03   0.0000000000E+00   0.0000000000E+00   0.0000000000E+00   0.4572000054E-01
   0.1836569542E+00   0.0000000000E+00   0.8090429524E-04   0.0000000000E+00   0.2427128857E-03   0.0000000000E+00   0.3393376243E-01   0.4660590909E-02   0.1157830600E-01  -0.2750298702E-02   0.0000000000E+00   0.0000000000E+00   0.2906209335E-03  -0.8993029619E-04  -0.3575388313E-04   0.0000000000E+00   0.0000000000E+00   0.0000000000E+00   0.2641485565E-01
   0.2044970209E+00   0.0000000000E+00   0.8258871421E-04   0.0000000000E+00   0.2477661426E-03   0.0000000000E+00   0.4320236276E-01   0.9763370305E-02   0.1588971992E-01  -0.2062509410E-02   0.0000000000E+00   0.0000000000E+00   0.3550643569E-03  -0.7964254499E-04  -0.2681262233E-04   0.0000000000E+00   0.0000000000E+00   0.0000000000E+00   0.3071591783E-01
   0.1419815961E+00   0.0000000000E+00   0.7873252785E-04   0.0000000000E+00   0.2361975835E-03   0.0000000000E+00   0.6721211423E-02  -0.1852976916E-01  -0.3542567320E-02  -0.6481113005E-02   0.0000000000E+00   0.0000000000E+00   0.1334291237E-03  -0.1948336239E-03  -0.8425446906E-04   0.0000000000E+00   0.0000000000E+00   0.0000000000E+00   0.2403470055E-01
   0.1459802935E+00   0.2097784993E-01   0.7765236580E-04  -0.9278672853E-06   0.2329570974E-03  -0.2783601856E-05   0.1521592444E-01  -0.1479795607E-01   0.1253905105E-03  -0.1125709389E-01   0.0000000000E+00   0.0000000000E+00   0.1961769411E-03  -0.1940035056E-03  -0.1463422206E-03   0.0000000000E+00   0.0000000000E+00   0.0000000000E+00   0.3320336693E-01
   0.3503999940E+00   0.2499285790E+00   0.1000000000E-03  -0.1785524699E-04   0.3000000000E-03  -0.5356574098E-04   0.1318637498E+00   0.6402240970E-03   0.3975119218E-01   0.3419404639E-03   0.0000000000E+00   0.0000000000E+00   0.1197463250E-02  -0.5084425851E-03   0.4445226031E-05   0.0000000000E+00   0.0000000000E+00   0.0000000000E+00   0.1166934318E+00
   0.3309322539E+00   0.2499282744E+00   0.9417396747E-04  -0.1793140322E-04   0.2825219024E-03  -0.5379420966E-04   0.1322383607E+00   0.6483074461E-03   0.3986600045E-01  -0.2628618420E-03   0.0000000000E+00   0.0000000000E+00   0.1200840684E-02  -0.5098300091E-03  -0.3417203945E-05   0.0000000000E+00   0.0000000000E+00   0.0000000000E+00   0.1170198059E+00
   0.3311662594E+00   0.2309846237E+00   0.9442660748E-04  -0.1553558417E-04   0.2832798224E-03  -0.4660675252E-04   0.1277900760E+00   0.2392364482E-03   0.3840879373E-01  -0.6517828833E-03   0.0000000000E+00   0.0000000000E+00   0.1161956669E-02  -0.4962042447E-03  -0.8473177483E-05   0.0000000000E+00   0.0000000000E+00   0.0000000000E+00   0.1133969508E+00
   0.3503999940E+00   0.2307075000E+00   0.1000000000E-03  -0.1543299741E-04   0.3000000000E-03  -0.4629899223E-04   0.1275390615E+00   0.2893740772E-03   0.3834853067E-01   0.3086719159E-03   0.0000000000E+00   0.0000000000E+00   0.1159476901E-02  -0.4947690358E-03   0.4012734906E-05   0.0000000000E+00   0.0000000000E+00   0.0000000000E+00   0.1131292075E+00
   0.2733292650E+00   0.2315984328E+00   0.7742075583E-04  -0.1677229499E-04   0.2322622675E-03  -0.5031688496E-04   0.1314278817E+00  -0.7105867906E-04   0.3940704690E-01  -0.1785037409E-02   0.0000000000E+00   0.0000000000E+00   0.1196270852E-02  -0.5132153726E-03  -0.2320548631E-04   0.0000000000E+00   0.0000000000E+00   0.0000000000E+00   0.1169176462E+00
   0.2925951354E+00   0.2314249580E+00   0.8314533876E-04  -0.1618249943E-04   0.2494360163E-03  -0.4854749829E-04   0.1298527976E+00   0.7171128393E-04   0.3897735267E-01  -0.1510716470E-02   0.0000000000E+00   0.0000000000E+00   0.1181380784E-02  -0.5057733380E-03  -0.1963931411E-04   0.0000000000E+00   0.0000000000E+00   0.0000000000E+00   0.1153911337E+00
   0.2919962424E+00   0.2499256745E+00   0.8239634191E-04  -0.1858138456E-04   0.2471890257E-03  -0.5574415368E-04   0.1350378339E+00   0.7468993054E-03   0.4073541996E-01  -0.4430051559E-03   0.0000000000E+00   0.0000000000E+00   0.1225931381E-02  -0.5198507685E-03  -0.5759067027E-05   0.0000000000E+00   0.0000000000E+00   0.0000000000E+00   0.1194280349E+00
   0.2725277849E+00   0.2499232085E+00   0.7639098608E-04  -0.1919788099E-04   0.2291729582E-03  -0.5759364297E-04   0.1372474977E+00   0.8339295295E-03   0.4142442818E-01  -0.5157638020E-03   0.0000000000E+00   0.0000000000E+00   0.1245699904E-02  -0.5276764825E-03  -0.6704929425E-05   0.0000000000E+00   0.0000000000E+00   0.0000000000E+00   0.1213227979E+00
   0.3503999940E+00   0.1730410065E+00   0.1000000000E-03  -0.8980370861E-05   0.3000000000E-03  -0.2694111258E-04   0.1103031716E+00   0.4151489803E-02   0.3433639841E-01   0.2287551818E-03   0.0000000000E+00   0.0000000000E+00   0.9875680509E-03  -0.3924038118E-03   0.2973817364E-05   0.0000000000E+00   0.0000000000E+00   0.0000000000E+00   0.9473178178E-01
   0.3311591217E+00   0.1732780999E+00   0.9524993189E-04  -0.9054530451E-05   0.2857497957E-03  -0.2716359135E-04   0.1104272633E+00   0.3975076856E-02   0.3432070205E-01  -0.1777789242E-02   0.0000000000E+00   0.0000000000E+00   0.9893852964E-03  -0.3944931275E-03  -0.2311126015E-04   0.0000000000E+00   0.0000000000E+00   0.0000000000E+00   0.9502853910E-01
   0.3311519939E+00   0.1538183997E+00   0.9557648399E-04  -0.7238081602E-05   0.2867294520E-03  -0.2171424481E-04   0.1037213887E+00   0.5838184974E-02   0.3286787211E-01  -0.2033708333E-02   0.0000000000E+00   0.0000000000E+00   0.9210957162E-03  -0.3513859328E-03  -0.2643820833E-04   0.0000000000E+00   0.0000000000E+00   0.0000000000E+00   0.8761463396E-01
   0.3503999940E+00   0.1538173786E+00   0.1000000000E-03  -0.7195357515E-05   0.3000000000E-03  -0.2158607255E-04   0.1036251141E+00   0.5989102653E-02   0.3288426503E-01   0.2013595437E-03   0.0000000000E+00   0.0000000000E+00   0.9196310382E-03  -0.3496371109E-03   0.2617674069E-05   0.0000000000E+00   0.0000000000E+00   0.0000000000E+00   0.8734179411E-01
   0.3503999940E+00   0.1345929005E+00   0.1000000000E-03  -0.5622636430E-05   0.3000000000E-03  -0.1686790929E-04   0.9680386012E-01   0.8036563032E-02   0.3145212694E-01   0.1463346227E-03   0.0000000000E+00   0.0000000000E+00   0.8495725312E-03  -0.3044023309E-03   0.1902350095E-05   0.0000000000E+00   0.0000000000E+00   0.0000000000E+00   0.7967133768E-01
   0.3503999940E+00   0.1153675367E+00   0.1000000000E-03  -0.4269824529E-05   0.3000000000E-03  -0.1280947359E-04   0.9008366874E-01   0.1021920132E-01   0.3009086102E-01   0.1065622131E-03   0.0000000000E+00   0.0000000000E+00   0.7799065004E-03  -0.2583315761E-03   0.1385308770E-05   0.0000000000E+00   0.0000000000E+00   0.0000000000E+00   0.7199932223E-01
   0.3503999940E+00   0.9614129932E-01   0.1000000000E-03  -0.3137145836E-05   0.3000000000E-03  -0.9411437507E-05   0.8374325241E-01   0.1245584561E-01   0.2885972941E-01   0.5895394010E-04   0.0000000000E+00   0.0000000000E+00   0.7134857991E-03  -0.2132504893E-03   0.7664012213E-06   0.0000000000E+00   0.0000000000E+00   0.0000000000E+00   0.6464773981E-01
   0.3503999940E+00   0.7691422466E-01   0.1000000000E-03  -0.2213783975E-05   0.3000000000E-03  -0.6641351925E-05   0.7806311784E-01   0.1459656176E-01   0.2779790388E-01   0.2327584942E-04   0.0000000000E+00   0.0000000000E+00   0.6534477815E-03  -0.1716174476E-03   0.3025860425E-06   0.0000000000E+00   0.0000000000E+00   0.0000000000E+00   0.5798655179E-01
   0.3503999940E+00   0.5768639794E-01   0.1000000000E-03  -0.1477515094E-05   0.3000000000E-03  -0.4432545283E-05   0.7331500994E-01   0.1649097026E-01   0.2694179406E-01  -0.1746134726E-05   0.0000000000E+00   0.0000000000E+00   0.6028518064E-03  -0.1358607094E-03  -0.2269975144E-07   0.0000000000E+00   0.0000000000E+00   0.0000000000E+00   0.5237247389E-01
   0.0000000000E+00   0.2497993250E+00   0.0000000000E+00  -0.5016874555E-04   0.0000000000E+00  -0.1505062366E-03   0.7721893855E-01  -0.2528027624E-02   0.2240727328E-01   0.2523965501E-02   0.0000000000E+00   0.0000000000E+00   0.7125516486E-03  -0.3241589117E-03   0.3281155152E-04   0.0000000000E+00   0.0000000000E+00   0.0000000000E+00   0.7079404887E-01
   0.3762456278E-01   0.2160388512E+00   0.9380895507E-05  -0.4495721023E-04   0.2814268652E-04  -0.1348716307E-03   0.1141114827E+00   0.3903989284E-02   0.3540464159E-01   0.1004100443E-01   0.0000000000E+00   0.0000000000E+00   0.1023188934E-02  -0.4095084800E-03   0.1305330576E-03   0.0000000000E+00   0.0000000000E+00   0.0000000000E+00   0.9979030258E-01
   0.3623234193E-01   0.1999308873E+00   0.9758608009E-05  -0.4345291551E-04   0.2927582403E-04  -0.1303587465E-03   0.1240531996E+00   0.7722257718E-02   0.3953263720E-01   0.1170762771E-01   0.0000000000E+00   0.0000000000E+00   0.1098767311E-02  -0.4135349333E-03   0.1521991602E-03   0.0000000000E+00   0.0000000000E+00   0.0000000000E+00   0.1060369681E+00
   0.5564398203E-01   0.1984468441E+00   0.1526500664E-04  -0.4054498539E-04   0.4579501992E-04  -0.1216349562E-03   0.1276553048E+00   0.4481734135E-02   0.3964111168E-01   0.1548549058E-01   0.0000000000E+00   0.0000000000E+00   0.1144184511E-02  -0.4570719081E-03   0.2013113775E-03   0.0000000000E+00   0.0000000000E+00   0.0000000000E+00   0.1131716796E+00
   0.5756545820E-01   0.2147570229E+00   0.1467952611E-04  -0.4208152110E-04   0.4403857833E-04  -0.1262445633E-03   0.1191792540E+00   0.1897425036E-02   0.3632300371E-01   0.1297723714E-01   0.0000000000E+00   0.0000000000E+00   0.1077131254E-02  -0.4475325228E-03   0.1687040828E-03   0.0000000000E+00   0.0000000000E+00   0.0000000000E+00   0.1067798260E+00
   0.1782670140E-01   0.2002348028E+00   0.4758325043E-05  -0.4514255757E-04   0.1427497513E-04  -0.1354276727E-03   0.1226138623E+00   0.1040843969E-01   0.3990669060E-01   0.5492208262E-02   0.0000000000E+00   0.0000000000E+00   0.1075193232E-02  -0.3834772618E-03   0.7139870740E-04   0.0000000000E+00   0.0000000000E+00   0.0000000000E+00   0.1013469399E+00
   0.5825163626E-01   0.2321426834E+00   0.1337708885E-04  -0.4385115247E-04   0.4013126656E-04  -0.1315534574E-03   0.1093726596E+00   0.1330576451E-02   0.3321097083E-01   0.7502864097E-02   0.0000000000E+00   0.0000000000E+00   0.9901019546E-03  -0.4144451269E-03   0.9753723326E-04   0.0000000000E+00   0.0000000000E+00   0.0000000000E+00   0.9712461559E-01
   0.1557099883E+00   0.2498825029E+00   0.3860682891E-04  -0.2937427694E-04   0.1158204867E-03  -0.8812283083E-04   0.1424835921E+00   0.7795942472E-03   0.4297895590E-01   0.8848233404E-03   0.0000000000E+00   0.0000000000E+00   0.1293560271E-02  -0.5485917015E-03   0.1150270343E-04   0.0000000000E+00   0.0000000000E+00   0.0000000000E+00   0.1260271527E+00
   0.1362407680E+00   0.2498704144E+00   0.3241450046E-04  -0.3239640165E-04   0.9724350139E-04  -0.9718920494E-04   0.1375456102E+00   0.4286822882E-03   0.4139228775E-01   0.1466550715E-02   0.0000000000E+00   0.0000000000E+00   0.1249993192E-02  -0.5325268710E-03   0.1906515929E-04   0.0000000000E+00   0.0000000000E+00   0.0000000000E+00   0.1219088563E+00
   0.1751798179E+00   0.2498930851E+00   0.4495523747E-04  -0.2672871854E-04   0.1348657124E-03  -0.8018615561E-04   0.1449050908E+00   0.9726583082E-03   0.4376332474E-01   0.3766698631E-03   0.0000000000E+00   0.0000000000E+00   0.1314842959E-02  -0.5562786636E-03   0.4896708220E-05   0.0000000000E+00   0.0000000000E+00   0.0000000000E+00   0.1280288727E+00
   0.1761137234E+00   0.2323993478E+00   0.4739660308E-04  -0.2419130940E-04   0.1421898093E-03  -0.7257392819E-04   0.1374045094E+00  -0.1260570747E-02   0.4084318158E-01   0.7106654573E-03   0.0000000000E+00   0.0000000000E+00   0.1255297261E-02  -0.5473487803E-03   0.9238650944E-05   0.0000000000E+00   0.0000000000E+00   0.0000000000E+00   0.1231515673E+00
   0.2253383113E+00   0.0000000000E+00   0.8457931641E-04   0.0000000000E+00   0.2537379492E-03   0.0000000000E+00   0.5036234265E-01   0.1287823085E-01   0.1897217205E-01  -0.1552872939E-02   0.0000000000E+00   0.0000000000E+00   0.4080722178E-03  -0.7922123558E-04  -0.2018734821E-04   0.0000000000E+00   0.0000000000E+00   0.0000000000E+00   0.3476611584E-01
   0.2461806085E+00   0.0000000000E+00   0.8681788694E-04   0.0000000000E+00   0.2604536608E-03   0.0000000000E+00   0.5593682586E-01   0.1518480880E-01   0.2133649040E-01  -0.1165950597E-02   0.0000000000E+00   0.0000000000E+00   0.4498043610E-03  -0.7997186079E-04  -0.1515735776E-04   0.0000000000E+00   0.0000000000E+00   0.0000000000E+00   0.3800604228E-01
   0.2485937723E+00   0.1834090440E-01   0.8685758056E-04  -0.3808744516E-06   0.2605727417E-03  -0.1142623355E-05   0.5770356265E-01   0.1493514298E-01   0.2179161169E-01  -0.3629410056E-02   0.0000000000E+00   0.0000000000E+00   0.4668553625E-03  -0.8913409319E-04  -0.4718233072E-04   0.0000000000E+00   0.0000000000E+00   0.0000000000E+00   0.4032336222E-01
   0.1967783172E+00   0.1994447557E+00   0.5743778943E-04  -0.1745682971E-04   0.1723133683E-03  -0.5237048913E-04   0.1276553313E+00  -0.3374125541E-02   0.3728436173E-01  -0.2325913656E-02   0.0000000000E+00   0.0000000000E+00   0.1174822605E-02  -0.5285603345E-03  -0.3023687753E-04   0.0000000000E+00   0.0000000000E+00   0.0000000000E+00   0.1162366708E+00
   0.2158114686E+00   0.1983295698E+00   0.6308590182E-04  -0.1567178774E-04   0.1892577055E-03  -0.4701536321E-04   0.1256612214E+00  -0.2027166825E-02   0.3709021639E-01  -0.3876644722E-02   0.0000000000E+00   0.0000000000E+00   0.1151423066E-02  -0.5085259817E-03  -0.5039638139E-04   0.0000000000E+00   0.0000000000E+00   0.0000000000E+00   0.1135109434E+00
   0.2157877607E+00   0.2150667437E+00   0.6142818595E-04  -0.1782606700E-04   0.1842845578E-03  -0.5347820101E-04   0.1308565655E+00  -0.1061021143E-02   0.3893866331E-01  -0.2591492723E-02   0.0000000000E+00   0.0000000000E+00   0.1194932729E-02  -0.5199958979E-03  -0.3368940540E-04   0.0000000000E+00   0.0000000000E+00   0.0000000000E+00   0.1172461725E+00
   0.1964449853E+00   0.2155428331E+00   0.5556932879E-04  -0.1962221448E-04   0.1667079864E-03  -0.5886664344E-04   0.1322261741E+00  -0.1748140440E-02   0.3914341010E-01  -0.1165540894E-02   0.0000000000E+00   0.0000000000E+00   0.1210075932E-02  -0.5315901570E-03  -0.1515203163E-04   0.0000000000E+00   0.0000000000E+00   0.0000000000E+00   0.1189455745E+00
   0.1176358166E+00   0.2323037079E+00   0.2948565159E-04  -0.3332303605E-04   0.8845695478E-04  -0.9996910816E-04   0.1287767988E+00  -0.1270569148E-02   0.3825186889E-01   0.5806260644E-02   0.0000000000E+00   0.0000000000E+00   0.1176824089E-02  -0.5137916946E-03   0.7548138837E-04   0.0000000000E+00   0.0000000000E+00   0.0000000000E+00   0.1159392941E+00
   0.1190091511E+00   0.2151244186E+00   0.3213026755E-04  -0.3082185770E-04   0.9639080264E-04  -0.9246557309E-04   0.1300770423E+00  -0.3156449870E-02   0.3807617773E-01   0.9671415571E-02   0.0000000000E+00   0.0000000000E+00   0.1196011239E-02  -0.5360241588E-03   0.1257284024E-03   0.0000000000E+00   0.0000000000E+00   0.0000000000E+00   0.1192699690E+00
   0.2141198806E+00   0.2499093818E+00   0.5774914268E-04  -0.2265453888E-04   0.1732474280E-03  -0.6796361663E-04   0.1442064323E+00   0.1067493967E-02   0.4358217789E-01  -0.3033021862E-03   0.0000000000E+00   0.0000000000E+00   0.1308115308E-02  -0.5526908909E-03  -0.3942928420E-05   0.0000000000E+00   0.0000000000E+00   0.0000000000E+00   0.1273282956E+00
   0.1946498935E+00   0.2499020380E+00   0.5136137927E-04  -0.2449051154E-04   0.1540841378E-03  -0.7347153462E-04   0.1453039676E+00   0.1062261294E-02   0.4390986866E-01  -0.1948149402E-04   0.0000000000E+00   0.0000000000E+00   0.1318123286E-02  -0.5570188958E-03  -0.2532594223E-06   0.0000000000E+00   0.0000000000E+00   0.0000000000E+00   0.1283109230E+00
   0.1956492617E+00   0.2323312351E+00   0.5353118238E-04  -0.2195596547E-04   0.1605935471E-03  -0.6586789642E-04   0.1374385222E+00  -0.1036818251E-02   0.4092051118E-01  -0.4694008388E-03   0.0000000000E+00   0.0000000000E+00   0.1254734143E-02  -0.5454452826E-03  -0.6102210904E-05   0.0000000000E+00   0.0000000000E+00   0.0000000000E+00   0.1229984942E+00
   0.2151506814E+00   0.2322031635E+00   0.5963383937E-04  -0.2014061769E-04   0.1789015181E-03  -0.6042185307E-04   0.1364908831E+00  -0.7738235909E-03   0.4071511786E-01  -0.1284970042E-02   0.0000000000E+00   0.0000000000E+00   0.1245084948E-02  -0.5393562388E-03  -0.1670461055E-04   0.0000000000E+00   0.0000000000E+00   0.0000000000E+00   0.1219623100E+00
   0.2345968723E+00   0.2318788298E+00   0.6567157012E-04  -0.1868655179E-04   0.1970147104E-03  -0.5605965538E-04   0.1349734718E+00  -0.5130828054E-03   0.4033811669E-01  -0.1744713942E-02   0.0000000000E+00   0.0000000000E+00   0.1230259616E-02  -0.5310655934E-03  -0.2268128124E-04   0.0000000000E+00   0.0000000000E+00   0.0000000000E+00   0.1204220960E+00
   0.2539833830E+00   0.2317537333E+00   0.7159375233E-04  -0.1759168562E-04   0.2147812570E-03  -0.5277505686E-04   0.1331852430E+00  -0.2774827622E-03   0.3987232808E-01  -0.1892481504E-02   0.0000000000E+00   0.0000000000E+00   0.1213067894E-02  -0.5219475410E-03  -0.2460225955E-04   0.0000000000E+00   0.0000000000E+00   0.0000000000E+00   0.1186507568E+00
   0.2530589155E+00   0.2499197874E+00   0.7028262278E-04  -0.2005314519E-04   0.2108478683E-03  -0.6015943556E-04   0.1397266905E+00   0.9292707500E-03   0.4219678838E-01  -0.5297456158E-03   0.0000000000E+00   0.0000000000E+00   0.1267888728E-02  -0.5364777292E-03  -0.6886693006E-05   0.0000000000E+00   0.0000000000E+00   0.0000000000E+00   0.1234509062E+00
   0.2335895960E+00   0.2499152370E+00   0.6406549314E-04  -0.2119073790E-04   0.1921964794E-03  -0.6357221371E-04   0.1421769462E+00   0.1014925513E-02   0.4295756153E-01  -0.4668389294E-03   0.0000000000E+00   0.0000000000E+00   0.1289852001E-02  -0.5452542682E-03  -0.6068906083E-05   0.0000000000E+00   0.0000000000E+00   0.0000000000E+00   0.1255626134E+00
   0.3114643850E+00   0.2499273277E+00   0.8831574196E-04  -0.1816807218E-04   0.2649472259E-03  -0.5450421653E-04   0.1333247822E+00   0.6814830454E-03   0.4020187958E-01  -0.2937968157E-03   0.0000000000E+00   0.0000000000E+00   0.1210597734E-02  -0.5137651549E-03  -0.3819358604E-05   0.0000000000E+00   0.0000000000E+00   0.0000000000E+00   0.1179582680E+00
   0.3118577312E+00   0.2312091082E+00   0.8880379496E-04  -0.1577818986E-04   0.2664113849E-03  -0.4733456957E-04   0.1286165634E+00   0.1882656397E-03   0.3864144870E-01  -0.1057725694E-02   0.0000000000E+00   0.0000000000E+00   0.1169676491E-02  -0.4998913798E-03  -0.1375043402E-04   0.0000000000E+00   0.0000000000E+00   0.0000000000E+00   0.1141841704E+00
   0.5573047682E-01   0.8304414136E-01   0.4336328099E-04  -0.2570453598E-04   0.1300898430E-03  -0.7711360794E-04   0.1625881701E+00   0.5750686605E-01   0.6602851085E-01  -0.7807424551E-01   0.0000000000E+00   0.0000000000E+00   0.1255275571E-02  -0.1107813825E-03  -0.1014965192E-02   0.0000000000E+00   0.0000000000E+00   0.0000000000E+00   0.1623858597E+00
   0.7209338908E-01   0.9405249929E-01   0.4086622030E-04  -0.2215472786E-04   0.1225986609E-03  -0.6646418358E-04   0.1233479389E+00  -0.6805462197E-02   0.3496274301E-01  -0.3373301389E-01   0.0000000000E+00   0.0000000000E+00   0.1149007547E-02  -0.5429866677E-03  -0.4385291805E-03   0.0000000000E+00   0.0000000000E+00   0.0000000000E+00   0.1290189101E+00
   0.6211586667E-01   0.1068813823E+00   0.3193969263E-04  -0.2675643739E-04   0.9581907790E-04  -0.8026931216E-04   0.1510634767E+00  -0.1495555923E-02   0.4487037622E-01  -0.2069758155E-01   0.0000000000E+00   0.0000000000E+00   0.1380510306E-02  -0.6027571179E-03  -0.2690685601E-03   0.0000000000E+00   0.0000000000E+00   0.0000000000E+00   0.1384319693E+00
   0.3838594294E-01   0.9226716215E-01   0.2940008503E-04  -0.3019743840E-04   0.8820025508E-04  -0.9059231521E-04   0.2339090823E+00   0.4326851653E-01   0.8315327965E-01  -0.5901013681E-01   0.0000000000E+00   0.0000000000E+00   0.1959825434E-02  -0.5185019205E-03  -0.7671317786E-03   0.0000000000E+00   0.0000000000E+00   0.0000000000E+00   0.1981629312E+00
   0.0000000000E+00   0.1998173994E+00   0.0000000000E+00  -0.4565091088E-04   0.0000000000E+00  -0.1369527327E-03   0.1219482588E+00   0.1125674276E-01   0.3996150047E-01   0.2746898457E-02   0.0000000000E+00   0.0000000000E+00   0.1065827858E-02  -0.3731618503E-03   0.3570967995E-04   0.0000000000E+00   0.0000000000E+00   0.0000000000E+00   0.9950360699E-01
   0.0000000000E+00   0.1831568830E+00   0.0000000000E+00  -0.4411351065E-04   0.0000000000E+00  -0.1323405320E-03   0.1331881384E+00   0.1749800774E-01   0.4520584386E-01   0.2901060852E-02   0.0000000000E+00   0.0000000000E+00   0.1143769830E-02  -0.3602018695E-03   0.3771379107E-04   0.0000000000E+00   0.0000000000E+00   0.0000000000E+00   0.1046294826E+00
   0.3657687050E-01   0.1167317331E+00   0.1755814919E-04  -0.3392073119E-04   0.5267444756E-04  -0.1017621936E-03   0.2081342996E+00   0.2798319873E-01   0.7083524951E-01  -0.2124454783E-01   0.0000000000E+00   0.0000000000E+00   0.1784887652E-02  -0.5570766601E-03  -0.2761791218E-03   0.0000000000E+00   0.0000000000E+00   0.0000000000E+00   0.1693432395E+00
   0.2670236687E+00   0.0000000000E+00   0.8924692316E-04   0.0000000000E+00   0.2677407695E-03   0.0000000000E+00   0.6010888029E-01   0.1680642880E-01   0.2307459273E-01  -0.8641564551E-03   0.0000000000E+00   0.0000000000E+00   0.4814457384E-03  -0.8148613110E-04  -0.1123403392E-04   0.0000000000E+00   0.0000000000E+00   0.0000000000E+00   0.4050951651E-01
   0.2689831910E+00   0.1828997395E-01   0.8931149300E-04  -0.3841633150E-06   0.2679344790E-03  -0.1152489945E-05   0.6144366657E-01   0.1655385733E-01   0.2339925717E-01  -0.2704494144E-02   0.0000000000E+00   0.0000000000E+00   0.4945773222E-03  -0.8899019793E-04  -0.3515842388E-04   0.0000000000E+00   0.0000000000E+00   0.0000000000E+00   0.4217107722E-01
   0.2368512800E+00   0.7430648642E-01   0.8171924476E-04  -0.2427418756E-05   0.2451577343E-03  -0.7282256268E-05   0.7372646221E-01   0.7173530217E-02   0.2426999773E-01  -0.1361784283E-01   0.0000000000E+00   0.0000000000E+00   0.6429340383E-03  -0.2222540776E-03  -0.1770319568E-03   0.0000000000E+00   0.0000000000E+00   0.0000000000E+00   0.6431385101E-01
   0.2555555920E+00   0.7382879981E-01   0.8475575079E-04  -0.2272847038E-05   0.2542672524E-03  -0.6818541115E-05   0.7451047210E-01   0.9890420972E-02   0.2532026792E-01  -0.1089396785E-01   0.0000000000E+00   0.0000000000E+00   0.6394726543E-03  -0.2005880103E-03  -0.1416215821E-03   0.0000000000E+00   0.0000000000E+00   0.0000000000E+00   0.6139773853E-01
   0.3107132261E+00   0.3712354573E-01   0.9444228720E-04  -0.8540932766E-06   0.2833268616E-03  -0.2562279830E-05   0.6845542391E-01   0.1749951835E-01   0.2578648268E-01  -0.2576647849E-02   0.0000000000E+00   0.0000000000E+00   0.5546962360E-03  -0.1077305363E-03  -0.3349642204E-04   0.0000000000E+00   0.0000000000E+00   0.0000000000E+00   0.4755332080E-01
   0.2908069754E+00   0.3677387025E-01   0.9171585545E-04  -0.8422632047E-06   0.2751475663E-03  -0.2526789614E-05   0.6688863979E-01   0.1672825292E-01   0.2508506781E-01  -0.3963473596E-02   0.0000000000E+00   0.0000000000E+00   0.5434464357E-03  -0.1086385936E-03  -0.5152515674E-04   0.0000000000E+00   0.0000000000E+00   0.0000000000E+00   0.4702518525E-01
   0.3503999940E+00   0.2114859720E+00   0.1000000000E-03  -0.1312300519E-04   0.3000000000E-03  -0.3936901558E-04   0.1225277912E+00   0.1334889780E-02   0.3715880428E-01   0.2833041461E-03   0.0000000000E+00   0.0000000000E+00   0.1109796829E-02  -0.4657108885E-03   0.3682953899E-05   0.0000000000E+00   0.0000000000E+00   0.0000000000E+00   0.1078394172E+00
   0.3312872085E+00   0.2119279156E+00   0.9469763007E-04  -0.1323710540E-04   0.2840928902E-03  -0.3971131619E-04   0.1227241427E+00   0.1232793952E-02   0.3718708098E-01  -0.1149039601E-02   0.0000000000E+00   0.0000000000E+00   0.1111981802E-02  -0.4674057314E-03  -0.1493751481E-04   0.0000000000E+00   0.0000000000E+00   0.0000000000E+00   0.1081109660E+00
   0.3312228632E+00   0.1926573860E+00   0.9495805534E-04  -0.1106299549E-04   0.2848741660E-03  -0.3318898646E-04   0.1168046043E+00   0.2397664088E-02   0.3576068052E-01  -0.1486765974E-02   0.0000000000E+00   0.0000000000E+00   0.1053571009E-02  -0.4337192136E-03  -0.1932795766E-04   0.0000000000E+00   0.0000000000E+00   0.0000000000E+00   0.1019342753E+00
   0.3503999940E+00   0.1922638440E+00   0.1000000000E-03  -0.1096298813E-04   0.3000000000E-03  -0.3288896439E-04   0.1166634622E+00   0.2559530395E-02   0.3576689777E-01   0.2621099395E-03   0.0000000000E+00   0.0000000000E+00   0.1051655337E-02  -0.4316957759E-03   0.3407429214E-05   0.0000000000E+00   0.0000000000E+00   0.0000000000E+00   0.1016504347E+00
   0.2928985370E+00   0.2126285927E+00   0.8394598769E-04  -0.1386432639E-04   0.2518379631E-03  -0.4159297917E-04   0.1244668872E+00   0.8779386270E-03   0.3760344776E-01  -0.2858266106E-02   0.0000000000E+00   0.0000000000E+00   0.1129224713E-02  -0.4774316187E-03  -0.3715745938E-04   0.0000000000E+00   0.0000000000E+00   0.0000000000E+00   0.1100365774E+00
   0.2738179786E+00   0.2130855868E+00   0.7851239308E-04  -0.1444429677E-04   0.2355371793E-03  -0.4333289031E-04   0.1258554433E+00   0.5345200314E-03   0.3791698900E-01  -0.3421037424E-02   0.0000000000E+00   0.0000000000E+00   0.1143199906E-02  -0.4859720966E-03  -0.4447348651E-04   0.0000000000E+00   0.0000000000E+00   0.0000000000E+00   0.1115910905E+00
   0.2736737570E+00   0.1942236191E+00   0.7956075545E-04  -0.1222097110E-04   0.2386822663E-03  -0.3666291330E-04   0.1197146780E+00   0.1061081451E-02   0.3623272784E-01  -0.4584935556E-02   0.0000000000E+00   0.0000000000E+00   0.1085265352E-02  -0.4572314030E-03  -0.5960416223E-04   0.0000000000E+00   0.0000000000E+00   0.0000000000E+00   0.1058564983E+00
   0.2927578901E+00   0.1934002170E+00   0.8474077434E-04  -0.1164200695E-04   0.2542223230E-03  -0.3492602085E-04   0.1184084420E+00   0.1599692518E-02   0.3600244034E-01  -0.3847281335E-02   0.0000000000E+00   0.0000000000E+00   0.1071278021E-02  -0.4472357217E-03  -0.5001465735E-04   0.0000000000E+00   0.0000000000E+00   0.0000000000E+00   0.1041783026E+00
   0.1947157300E+00   0.5816225336E-01   0.7727900391E-04  -0.1966009768E-05   0.2318370117E-03  -0.5898029303E-05   0.6132383004E-01   0.1407591743E-02   0.1881942654E-01  -0.1925813215E-01   0.0000000000E+00   0.0000000000E+00   0.5525572456E-03  -0.2263538523E-03  -0.2503557179E-03   0.0000000000E+00   0.0000000000E+00   0.0000000000E+00   0.6291928386E-01
   0.2144146255E+00   0.5660685772E-01   0.8018661435E-04  -0.1681343961E-05   0.2405598430E-03  -0.5044031884E-05   0.6310863783E-01   0.5789913900E-02   0.2066956552E-01  -0.1546525662E-01   0.0000000000E+00   0.0000000000E+00   0.5517079400E-03  -0.1934354710E-03  -0.2010483360E-03   0.0000000000E+00   0.0000000000E+00   0.0000000000E+00   0.5807212774E-01
   0.7329436669E-01   0.1304817122E+00   0.2884934778E-04  -0.2758768933E-04   0.8654804333E-04  -0.8276306800E-04   0.1563552220E+00  -0.5952712405E-02   0.4512075288E-01   0.3251000080E-02   0.0000000000E+00   0.0000000000E+00   0.1446048099E-02  -0.6639550487E-03   0.4226300104E-04   0.0000000000E+00   0.0000000000E+00   0.0000000000E+00   0.1437802917E+00
   0.5558424902E-01   0.1223530020E+00   0.2415685582E-04  -0.3061449407E-04   0.7247056746E-04  -0.9184348222E-04   0.1819419975E+00   0.1352218345E-01   0.5863925430E-01  -0.5352504552E-02   0.0000000000E+00   0.0000000000E+00   0.1602935662E-02  -0.5865219210E-03  -0.6958255918E-04   0.0000000000E+00   0.0000000000E+00   0.0000000000E+00   0.1508947147E+00
   0.8091731897E-01   0.1171824814E+00   0.3502464357E-04  -0.2340140762E-04   0.1050739307E-03  -0.7020422287E-04   0.1502786597E+00  -0.9921798385E-02   0.4210705840E-01  -0.6428065988E-02   0.0000000000E+00   0.0000000000E+00   0.1406230817E-02  -0.6763751382E-03  -0.8356485785E-04   0.0000000000E+00   0.0000000000E+00   0.0000000000E+00   0.1417561054E+00
   0.5837857058E-01   0.2498176111E+00   0.1130924386E-04  -0.4559721554E-04   0.3392773157E-04  -0.1367916466E-03   0.9703809383E-01  -0.1593445971E-02   0.2863339436E-01   0.2550771697E-02   0.0000000000E+00   0.0000000000E+00   0.8892610931E-03  -0.3929489243E-03   0.3316003206E-04   0.0000000000E+00   0.0000000000E+00   0.0000000000E+00   0.8753029564E-01
   0.7827069463E-01   0.2132673699E+00   0.2050920841E-04  -0.3831501503E-04   0.6152762522E-04  -0.1149450451E-03   0.1230283993E+00  -0.4470339704E-03   0.3677440960E-01   0.1406536741E-01   0.0000000000E+00   0.0000000000E+00   0.1121301866E-02  -0.4838787665E-03   0.1828497763E-03   0.0000000000E+00   0.0000000000E+00   0.0000000000E+00   0.1123140683E+00
   0.7808538736E-01   0.1932909273E+00   0.2222189015E-04  -0.3586141678E-04   0.6666567045E-04  -0.1075842503E-03   0.1316230299E+00  -0.9025126627E-03   0.3921615517E-01   0.1655665313E-01   0.0000000000E+00   0.0000000000E+00   0.1201289372E-02  -0.5215426819E-03   0.2152364907E-03   0.0000000000E+00   0.0000000000E+00   0.0000000000E+00   0.1211460387E+00
   0.1769549826E+00   0.2157122959E+00   0.4963515717E-04  -0.2182601722E-04   0.1489054715E-03  -0.6547805167E-04   0.1329751217E+00  -0.2378247721E-02   0.3917906219E-01   0.8902711843E-03   0.0000000000E+00   0.0000000000E+00   0.1219348773E-02  -0.5402450288E-03   0.1157352540E-04   0.0000000000E+00   0.0000000000E+00   0.0000000000E+00   0.1201060880E+00
   0.3118737587E+00   0.1537002795E+00   0.9113416322E-04  -0.7356876277E-05   0.2734024897E-03  -0.2207062883E-04   0.1040371075E+00   0.5317658030E-02   0.3280642967E-01  -0.3846399027E-02   0.0000000000E+00   0.0000000000E+00   0.9259988124E-03  -0.3573540314E-03  -0.5000318735E-04   0.0000000000E+00   0.0000000000E+00   0.0000000000E+00   0.8849286493E-01
   0.3118585620E+00   0.1734012205E+00   0.9046423970E-04  -0.9224129168E-05   0.2713927191E-03  -0.2767238751E-04   0.1109005737E+00   0.3598069942E-02   0.3434959311E-01  -0.3356437585E-02   0.0000000000E+00   0.0000000000E+00   0.9951627483E-03  -0.3997698012E-03  -0.4363368861E-04   0.0000000000E+00   0.0000000000E+00   0.0000000000E+00   0.9587871651E-01
   0.1167726418E+00   0.2498571596E+00   0.2649370354E-04  -0.3571009118E-04   0.7948111062E-04  -0.1071302735E-03   0.1299164685E+00  -0.1103340812E-04   0.3897163053E-01   0.2071456406E-02   0.0000000000E+00   0.0000000000E+00   0.1182282894E-02  -0.5067746312E-03   0.2692893328E-04   0.0000000000E+00   0.0000000000E+00   0.0000000000E+00   0.1154633956E+00
   0.7093050576E-01   0.7062553704E-01   0.5495609108E-04  -0.2128608886E-04   0.1648682733E-03  -0.6385826657E-04   0.6443598476E-01   0.3347321821E-01   0.2937276089E-01  -0.4068636560E-01   0.0000000000E+00   0.0000000000E+00   0.4558219103E-03   0.5330594517E-04  -0.5289227528E-03   0.0000000000E+00   0.0000000000E+00   0.0000000000E+00   0.7225662836E-01
   0.8409903189E-01   0.7959724405E-01   0.5151887248E-04  -0.1693098727E-04   0.1545566174E-03  -0.5079296181E-04   0.8452514702E-01  -0.4524483122E-02   0.2400019917E-01  -0.3378533807E-01   0.0000000000E+00   0.0000000000E+00   0.7868243221E-03  -0.3708208698E-03  -0.4392093950E-03   0.0000000000E+00   0.0000000000E+00   0.0000000000E+00   0.9862581830E-01
   0.2352074717E+00   0.2142455541E+00   0.6725343610E-04  -0.1636248011E-04   0.2017603083E-03  -0.4908744032E-04   0.1291809197E+00  -0.4409937220E-03   0.3862197778E-01  -0.3357189416E-02   0.0000000000E+00   0.0000000000E+00   0.1177266244E-02  -0.5078186295E-03  -0.4364346241E-04   0.0000000000E+00   0.0000000000E+00   0.0000000000E+00   0.1153186454E+00
   0.1776460088E+00   0.1998351350E+00   0.5172870771E-04  -0.1958800015E-04   0.1551861231E-03  -0.5876400046E-04   0.1293885719E+00  -0.4535598073E-02   0.3745589215E-01   0.2227975857E-04   0.0000000000E+00   0.0000000000E+00   0.1195124837E-02  -0.5458893729E-03   0.2896368613E-06   0.0000000000E+00   0.0000000000E+00   0.0000000000E+00   0.1186355288E+00
   0.1587078366E+00   0.1996991372E+00   0.4605440837E-04  -0.2207520624E-04   0.1381632251E-03  -0.6622561873E-04   0.1306208704E+00  -0.5523544183E-02   0.3752919788E-01   0.3015912690E-02   0.0000000000E+00   0.0000000000E+00   0.1210191743E-02  -0.5596856468E-03   0.3920686498E-04   0.0000000000E+00   0.0000000000E+00   0.0000000000E+00   0.1206339943E+00
   0.1598751305E+00   0.1838323801E+00   0.4841911791E-04  -0.1965773147E-04   0.1452573537E-03  -0.5897319440E-04   0.1286277445E+00  -0.8334093964E-02   0.3608809517E-01   0.1362866318E-02   0.0000000000E+00   0.0000000000E+00   0.1203015442E-02  -0.5774884587E-03   0.1771726214E-04   0.0000000000E+00   0.0000000000E+00   0.0000000000E+00   0.1210315840E+00
   0.1780269482E+00   0.1845175705E+00   0.5372330886E-04  -0.1744363698E-04   0.1611699266E-03  -0.5233091093E-04   0.1263587216E+00  -0.6532793089E-02   0.3594777855E-01  -0.1612110632E-02   0.0000000000E+00   0.0000000000E+00   0.1175342259E-02  -0.5522474313E-03  -0.2095743822E-04   0.0000000000E+00   0.0000000000E+00   0.0000000000E+00   0.1175768077E+00
   0.2545905536E+00   0.2136573067E+00   0.7295166176E-04  -0.1526206976E-04   0.2188549853E-03  -0.4578620929E-04   0.1274185205E+00   0.5491547470E-04   0.3824203079E-01  -0.3610304739E-02   0.0000000000E+00   0.0000000000E+00   0.1159294366E-02  -0.4964324991E-03  -0.4693396161E-04   0.0000000000E+00   0.0000000000E+00   0.0000000000E+00   0.1133784658E+00
   0.3120688419E+00   0.2122786322E+00   0.8933796839E-04  -0.1347495539E-04   0.2680139052E-03  -0.4042486618E-04   0.1234440120E+00   0.1093209554E-02   0.3736116645E-01  -0.2030302661E-02   0.0000000000E+00   0.0000000000E+00   0.1119076992E-02  -0.4714834397E-03  -0.2639393460E-04   0.0000000000E+00   0.0000000000E+00   0.0000000000E+00   0.1089030885E+00
   0.3120248908E+00   0.1929880516E+00   0.8988370687E-04  -0.1127685707E-04   0.2696511206E-03  -0.3383057122E-04   0.1174653871E+00   0.2161955343E-02   0.3588820273E-01  -0.2724537834E-02   0.0000000000E+00   0.0000000000E+00   0.1060503397E-02  -0.4384412161E-03  -0.3541899185E-04   0.0000000000E+00   0.0000000000E+00   0.0000000000E+00   0.1027905161E+00
   0.6718934501E-01   0.1439467309E+00   0.2410865206E-04  -0.3115253338E-04   0.7232595618E-04  -0.9345760013E-04   0.1564995474E+00   0.1151971853E-02   0.4729545579E-01   0.1079703623E-01   0.0000000000E+00   0.0000000000E+00   0.1419653192E-02  -0.5998652912E-03   0.1403614710E-03   0.0000000000E+00   0.0000000000E+00   0.0000000000E+00   0.1394024179E+00
   0.6219985441E-01   0.1545043919E+00   0.2094570302E-04  -0.3376152268E-04   0.6283710905E-04  -0.1012845680E-03   0.1531647061E+00   0.3468820467E-02   0.4699005796E-01   0.1382707521E-01   0.0000000000E+00   0.0000000000E+00   0.1380270425E-02  -0.5657760874E-03   0.1797519778E-03   0.0000000000E+00   0.0000000000E+00   0.0000000000E+00   0.1354208572E+00
   0.1528374166E+00   0.3950882490E-01   0.7538264361E-04  -0.1723475463E-05   0.2261479308E-03  -0.5170426388E-05   0.3720667878E-01  -0.1039779105E-01   0.8042666319E-02  -0.2305360918E-01   0.0000000000E+00   0.0000000000E+00   0.3791321620E-03  -0.2397259458E-03  -0.2996969193E-03   0.0000000000E+00   0.0000000000E+00   0.0000000000E+00   0.5730458299E-01
   0.1356423006E+00   0.4588625146E-01   0.7227689862E-04  -0.3121935649E-05   0.2168306958E-03  -0.9365806948E-05   0.3602492577E-01  -0.2190154897E-01   0.4237013041E-02  -0.2980859363E-01   0.0000000000E+00   0.0000000000E+00   0.4132428655E-03  -0.3398013062E-03  -0.3875117172E-03   0.0000000000E+00   0.0000000000E+00   0.0000000000E+00   0.7050496968E-01
   0.1628183877E+00   0.0000000000E+00   0.7959841504E-04   0.0000000000E+00   0.2387952451E-03   0.0000000000E+00   0.2226564055E-01  -0.2129903348E-02   0.6040721161E-02  -0.3807450273E-02   0.0000000000E+00   0.0000000000E+00   0.2109239521E-03  -0.1062181186E-03  -0.4949685355E-04   0.0000000000E+00   0.0000000000E+00   0.0000000000E+00   0.2178340685E-01
   0.1667460982E+00   0.1949650407E-01   0.7903654284E-04  -0.5630312982E-06   0.2371096285E-03  -0.1689093895E-05   0.2964378670E-01  -0.1949057900E-02   0.8308418640E-02  -0.9724332403E-02   0.0000000000E+00   0.0000000000E+00   0.2773597848E-03  -0.1333471950E-03  -0.1264163212E-03   0.0000000000E+00   0.0000000000E+00   0.0000000000E+00   0.3311730228E-01
   0.2757887676E+00   0.9271147467E-01   0.8683990451E-04  -0.3171181461E-05   0.2605197135E-03  -0.9513544382E-05   0.8223605212E-01   0.9643784156E-02   0.2756395088E-01  -0.8879303144E-02   0.0000000000E+00   0.0000000000E+00   0.7107373160E-03  -0.2329621674E-03  -0.1154309409E-03   0.0000000000E+00   0.0000000000E+00   0.0000000000E+00   0.6725962692E-01
   0.2939877007E+00   0.9347815928E-01   0.9002768717E-04  -0.3112180055E-05   0.2700830615E-03  -0.9336540165E-05   0.8275944341E-01   0.1099789766E-01   0.2812720232E-01  -0.6613894993E-02   0.0000000000E+00   0.0000000000E+00   0.7102191341E-03  -0.2226809606E-03  -0.8598063491E-04   0.0000000000E+00   0.0000000000E+00   0.0000000000E+00   0.6590126604E-01
   0.2941261294E+00   0.1128316020E+00   0.8910309467E-04  -0.4302248918E-05   0.2673092840E-03  -0.1290674675E-04   0.8955589401E-01   0.8790503316E-02   0.2950391920E-01  -0.6625609177E-02   0.0000000000E+00   0.0000000000E+00   0.7806756726E-03  -0.2692744065E-03  -0.8613291930E-04   0.0000000000E+00   0.0000000000E+00   0.0000000000E+00   0.7354250892E-01
   0.2762466496E+00   0.1113570848E+00   0.8569214473E-04  -0.4366294152E-05   0.2570764342E-03  -0.1309888246E-04   0.8943295988E-01   0.7416229533E-02   0.2905475682E-01  -0.8646081330E-02   0.0000000000E+00   0.0000000000E+00   0.7849166397E-03  -0.2813008548E-03  -0.1123990573E-03   0.0000000000E+00   0.0000000000E+00   0.0000000000E+00   0.7512014624E-01
   0.2932381014E+00   0.7443000829E-01   0.9076259478E-04  -0.2163252861E-05   0.2722877843E-03  -0.6489758584E-05   0.7648316465E-01   0.1324513342E-01   0.2691848942E-01  -0.6218313100E-02   0.0000000000E+00   0.0000000000E+00   0.6443407779E-03  -0.1777536280E-03  -0.8083807030E-04   0.0000000000E+00   0.0000000000E+00   0.0000000000E+00   0.5860971509E-01
   0.1713981108E+00   0.3887713230E-01   0.7726819918E-04  -0.1274300084E-05   0.2318045975E-03  -0.3822900253E-05   0.4030269886E-01  -0.3095840762E-02   0.1116205743E-01  -0.1987677802E-01   0.0000000000E+00   0.0000000000E+00   0.3788283386E-03  -0.1853526765E-03  -0.2583981142E-03   0.0000000000E+00   0.0000000000E+00   0.0000000000E+00   0.5124042479E-01
   0.2933162536E+00   0.1327262749E+00   0.8791166033E-04  -0.5772272906E-05   0.2637349810E-03  -0.1731681872E-04   0.9697370776E-01   0.6253650180E-02   0.3096820738E-01  -0.6351173309E-02   0.0000000000E+00   0.0000000000E+00   0.8580715050E-03  -0.3212892436E-03  -0.8256525302E-04   0.0000000000E+00   0.0000000000E+00   0.0000000000E+00   0.8196189390E-01
   0.5197571984E-01   0.1832110218E+00   0.1516198383E-04  -0.3936679635E-04   0.4548595150E-04  -0.1181003891E-03   0.1357729992E+00   0.6477254863E-02   0.4267507622E-01   0.1576603513E-01   0.0000000000E+00   0.0000000000E+00   0.1210272999E-02  -0.4705716777E-03   0.2049584567E-03   0.0000000000E+00   0.0000000000E+00   0.0000000000E+00   0.1187546533E+00
   0.5048325091E-01   0.1684405330E+00   0.1572117688E-04  -0.3787575877E-04   0.4716353064E-04  -0.1136272763E-03   0.1446301380E+00   0.9837097377E-02   0.4634017060E-01   0.1620511516E-01   0.0000000000E+00   0.0000000000E+00   0.1277769576E-02  -0.4745399519E-03   0.2106664971E-03   0.0000000000E+00   0.0000000000E+00   0.0000000000E+00   0.1239892706E+00
   0.2921051058E+00   0.5550015213E-01   0.9132845648E-04  -0.1417792474E-05   0.2739853694E-03  -0.4253377421E-05   0.7108198285E-01   0.1518486823E-01   0.2588005532E-01  -0.5302175733E-02   0.0000000000E+00   0.0000000000E+00   0.5876250578E-03  -0.1390374322E-03  -0.6892828453E-04   0.0000000000E+00   0.0000000000E+00   0.0000000000E+00   0.5219189640E-01
   0.2920114876E+00   0.1532639121E+00   0.8654290687E-04  -0.7562227190E-05   0.2596287206E-03  -0.2268668157E-04   0.1044675153E+00   0.4552127033E-02   0.3270589271E-01  -0.5657204835E-02   0.0000000000E+00   0.0000000000E+00   0.9329010940E-03  -0.3659989538E-03  -0.7354366285E-04   0.0000000000E+00   0.0000000000E+00   0.0000000000E+00   0.8975552527E-01
   0.2709227998E+00   0.3668918087E-01   0.8905419356E-04  -0.8391329373E-06   0.2671625807E-03  -0.2517398812E-05   0.6467522181E-01   0.1552751561E-01   0.2406082123E-01  -0.5522959613E-02   0.0000000000E+00   0.0000000000E+00   0.5279872076E-03  -0.1109329730E-03  -0.7179847497E-04   0.0000000000E+00   0.0000000000E+00   0.0000000000E+00   0.4643563219E-01
   0.2510358134E+00   0.3681085647E-01   0.8647235662E-04  -0.8465331496E-06   0.2594170698E-03  -0.2539599449E-05   0.6173727670E-01   0.1381578761E-01   0.2266591929E-01  -0.7357940324E-02   0.0000000000E+00   0.0000000000E+00   0.5079276463E-03  -0.1150517119E-03  -0.9565322421E-04   0.0000000000E+00   0.0000000000E+00   0.0000000000E+00   0.4589931208E-01
   0.2338668926E+00   0.5569403281E-01   0.8296764064E-04  -0.1536596432E-05   0.2489029219E-03  -0.4609789296E-05   0.6534341730E-01   0.9474392611E-02   0.2244534297E-01  -0.1229025863E-01   0.0000000000E+00   0.0000000000E+00   0.5576749662E-03  -0.1686223547E-03  -0.1597733622E-03   0.0000000000E+00   0.0000000000E+00   0.0000000000E+00   0.5493033739E-01
   0.2533802925E+00   0.5532162194E-01   0.8573987911E-04  -0.1462339098E-05   0.2572196373E-03  -0.4387017295E-05   0.6754967048E-01   0.1202205450E-01   0.2387151750E-01  -0.9580657635E-02   0.0000000000E+00   0.0000000000E+00   0.5678159888E-03  -0.1540430189E-03  -0.1245485493E-03   0.0000000000E+00   0.0000000000E+00   0.0000000000E+00   0.5329128743E-01
   0.2351405475E+00   0.1969976977E+00   0.6871311402E-04  -0.1421307978E-04   0.2061393421E-03  -0.4263923935E-04   0.1235511868E+00  -0.9478453551E-03   0.3678100243E-01  -0.4741698831E-02   0.0000000000E+00   0.0000000000E+00   0.1128012397E-02  -0.4904750212E-03  -0.6164208480E-04   0.0000000000E+00   0.0000000000E+00   0.0000000000E+00   0.1108794450E+00
   0.2545178446E+00   0.1956228431E+00   0.7422789374E-04  -0.1307672857E-04   0.2226836812E-03  -0.3923018570E-04   0.1214969846E+00   0.6170142531E-04   0.3646760579E-01  -0.4996311262E-02   0.0000000000E+00   0.0000000000E+00   0.1105381924E-02  -0.4732767568E-03  -0.6495204641E-04   0.0000000000E+00   0.0000000000E+00   0.0000000000E+00   0.1082886625E+00
   0.1598453344E+00   0.7267920295E-01   0.6923009463E-04  -0.4113663592E-05   0.2076902839E-03  -0.1234099078E-04   0.7030945752E-01  -0.1412986007E-01   0.1685387924E-01  -0.2727207809E-01   0.0000000000E+00   0.0000000000E+00   0.6949225177E-03  -0.4027886109E-03  -0.3545370151E-03   0.0000000000E+00   0.0000000000E+00   0.0000000000E+00   0.8764357904E-01
   0.1740329002E+00   0.6065180360E-01   0.7399256170E-04  -0.2478649132E-05   0.2219776851E-03  -0.7435947395E-05   0.6031622404E-01  -0.6120412741E-02   0.1625874339E-01  -0.2423575809E-01   0.0000000000E+00   0.0000000000E+00   0.5727472484E-03  -0.2909290297E-03  -0.3150648552E-03   0.0000000000E+00   0.0000000000E+00   0.0000000000E+00   0.7204176208E-01
   0.1844061501E+00   0.8232334392E-01   0.7166427245E-04  -0.3991319596E-05   0.2149928173E-03  -0.1197395879E-04   0.7893758090E-01  -0.6907594997E-02   0.2160899577E-01  -0.2285165389E-01   0.0000000000E+00   0.0000000000E+00   0.7452716067E-03  -0.3707156800E-03  -0.2970715006E-03   0.0000000000E+00   0.0000000000E+00   0.0000000000E+00   0.8535453063E-01
   0.1696697679E+00   0.8993254832E-01   0.6731748394E-04  -0.5432769936E-05   0.2019524518E-03  -0.1629830981E-04   0.8554407088E-01  -0.1292585809E-01   0.2178546384E-01  -0.2316417335E-01   0.0000000000E+00   0.0000000000E+00   0.8288618916E-03  -0.4512471851E-03  -0.3011342535E-03   0.0000000000E+00   0.0000000000E+00   0.0000000000E+00   0.9534662017E-01
   0.9894420298E-01   0.2140714192E+00   0.2633057069E-04  -0.3448970646E-04   0.7899171207E-04  -0.1034691194E-03   0.1270499017E+00  -0.2498923597E-02   0.3736529342E-01   0.1264592396E-01   0.0000000000E+00   0.0000000000E+00   0.1165899907E-02  -0.5182348212E-03   0.1643970115E-03   0.0000000000E+00   0.0000000000E+00   0.0000000000E+00   0.1169251125E+00
   0.1399073214E+00   0.1992864061E+00   0.4039859167E-04  -0.2493972595E-04   0.1211957750E-03  -0.7481917786E-04   0.1314125073E+00  -0.6167510125E-02   0.3757349916E-01   0.6479083159E-02   0.0000000000E+00   0.0000000000E+00   0.1219907106E-02  -0.5686331207E-03   0.8422808106E-04   0.0000000000E+00   0.0000000000E+00   0.0000000000E+00   0.1222574461E+00
   0.1210271016E+00   0.1985266527E+00   0.3473015698E-04  -0.2815906534E-04   0.1041904709E-03  -0.8447719603E-04   0.1316239452E+00  -0.6124729478E-02   0.3764976473E-01   0.1009542646E-01   0.0000000000E+00   0.0000000000E+00   0.1221664347E-02  -0.5690684247E-03   0.1312405439E-03   0.0000000000E+00   0.0000000000E+00   0.0000000000E+00   0.1231384273E+00
   0.2184858418E+00   0.7552590505E-01   0.7860969786E-04  -0.2698263677E-05   0.2358290936E-03  -0.8094791031E-05   0.7350996227E-01   0.3627926566E-02   0.2314136665E-01  -0.1665885560E-01   0.0000000000E+00   0.0000000000E+00   0.6547917431E-03  -0.2536747211E-03  -0.2165651228E-03   0.0000000000E+00   0.0000000000E+00   0.0000000000E+00   0.6875107453E-01
   0.8041555247E-01   0.1526770156E+00   0.2736924135E-04  -0.2952260833E-04   0.8210772404E-04  -0.8856782499E-04   0.1469082391E+00  -0.6534393452E-02   0.4211215369E-01   0.1223437602E-01   0.0000000000E+00   0.0000000000E+00   0.1362349110E-02  -0.6324051129E-03   0.1590468883E-03   0.0000000000E+00   0.0000000000E+00   0.0000000000E+00   0.1374004262E+00
   0.6992415934E-01   0.1666053572E+00   0.2213530928E-04  -0.3387695894E-04   0.6640592784E-04  -0.1016308768E-03   0.1435837739E+00   0.7584787115E-03   0.4330267578E-01   0.1607998412E-01   0.0000000000E+00   0.0000000000E+00   0.1303654275E-02  -0.5530745619E-03   0.2090397935E-03   0.0000000000E+00   0.0000000000E+00   0.0000000000E+00   0.1300408542E+00
   0.1416172646E+00   0.1830258247E+00   0.4298139368E-04  -0.2229507171E-04   0.1289441810E-03  -0.6688521512E-04   0.1308304863E+00  -0.9329517478E-02   0.3645029064E-01   0.4910543325E-02   0.0000000000E+00   0.0000000000E+00   0.1226942543E-02  -0.5951375056E-03   0.6383706322E-04   0.0000000000E+00   0.0000000000E+00   0.0000000000E+00   0.1240578414E+00
   0.2728248737E+00   0.1744662495E+00   0.8058292429E-04  -0.1006263584E-04   0.2417487729E-03  -0.3018790751E-04   0.1135347796E+00   0.1849570611E-02   0.3461530505E-01  -0.5979874560E-02   0.0000000000E+00   0.0000000000E+00   0.1025953169E-02  -0.4259545477E-03  -0.7773836928E-04   0.0000000000E+00   0.0000000000E+00   0.0000000000E+00   0.9996822400E-01
   0.2922852583E+00   0.1735910197E+00   0.8556857515E-04  -0.9525078588E-05   0.2567057255E-03  -0.2857523576E-04   0.1117161371E+00   0.2976456536E-02   0.3440777809E-01  -0.4920853369E-02   0.0000000000E+00   0.0000000000E+00   0.1005008667E-02  -0.4086071802E-03  -0.6397109379E-04   0.0000000000E+00   0.0000000000E+00   0.0000000000E+00   0.9729736830E-01
   0.9438924435E-01   0.1609292352E+00   0.3091231260E-04  -0.2776395799E-04   0.9273693779E-04  -0.8329187397E-04   0.1417761846E+00  -0.9711936592E-02   0.3961927441E-01   0.1176210175E-01   0.0000000000E+00   0.0000000000E+00   0.1328039833E-02  -0.6413057430E-03   0.1529073227E-03   0.0000000000E+00   0.0000000000E+00   0.0000000000E+00   0.1353146948E+00
   0.8728686877E-01   0.1753579018E+00   0.2682434210E-04  -0.3148405663E-04   0.8047302629E-04  -0.9445216988E-04   0.1391439023E+00  -0.5077332910E-02   0.4021997081E-01   0.1584743871E-01   0.0000000000E+00   0.0000000000E+00   0.1286011109E-02  -0.5888649484E-03   0.2060167033E-03   0.0000000000E+00   0.0000000000E+00   0.0000000000E+00   0.1306659528E+00
   0.2744319645E+00   0.7396470160E-01   0.8776563083E-04  -0.2195676154E-05   0.2632968925E-03  -0.6587028463E-05   0.7550500404E-01   0.1186022208E-01   0.2620956784E-01  -0.8437026402E-02   0.0000000000E+00   0.0000000000E+00   0.6408406707E-03  -0.1865414948E-03  -0.1096813432E-03   0.0000000000E+00   0.0000000000E+00   0.0000000000E+00   0.5961914073E-01
   0.2264500999E+00   0.1122794201E+00   0.7555246916E-04  -0.5381720451E-05   0.2266574075E-03  -0.1614516135E-04   0.9227442676E-01   0.2420934669E-04   0.2768959083E-01  -0.1425553805E-01   0.0000000000E+00   0.0000000000E+00   0.8396028671E-03  -0.3596499593E-03  -0.1853219947E-03   0.0000000000E+00   0.0000000000E+00   0.0000000000E+00   0.8560793347E-01
   0.2227530011E+00   0.9416878885E-01   0.7705328310E-04  -0.3947161722E-05   0.2311598493E-03  -0.1184148516E-04   0.8356439359E-01   0.1580656497E-02   0.2554351503E-01  -0.1597147494E-01   0.0000000000E+00   0.0000000000E+00   0.7542714214E-03  -0.3115171609E-03  -0.2076291742E-03   0.0000000000E+00   0.0000000000E+00   0.0000000000E+00   0.7805255505E-01
   0.2727398728E+00   0.5525633869E-01   0.8851669780E-04  -0.1427277164E-05   0.2655500934E-03  -0.4281831493E-05   0.6948908451E-01   0.1389114566E-01   0.2501406905E-01  -0.7309391030E-02   0.0000000000E+00   0.0000000000E+00   0.5781752009E-03  -0.1445980040E-03  -0.9502208339E-04   0.0000000000E+00   0.0000000000E+00   0.0000000000E+00   0.5249235925E-01
   0.1571617961E+00   0.5348393270E-01   0.7304402369E-04  -0.2587349601E-05   0.2191320711E-03  -0.7762048802E-05   0.5485559555E-01  -0.1097343237E-01   0.1316464895E-01  -0.2638311916E-01   0.0000000000E+00   0.0000000000E+00   0.5419823057E-03  -0.3137950572E-03  -0.3429805491E-03   0.0000000000E+00   0.0000000000E+00   0.0000000000E+00   0.7365794834E-01
   0.1470339252E+00   0.6074214065E-01   0.6998204912E-04  -0.3683162597E-05   0.2099461474E-03  -0.1104948779E-04   0.5804488012E-01  -0.1584202770E-01   0.1266085573E-01  -0.2770152307E-01   0.0000000000E+00   0.0000000000E+00   0.5899923171E-03  -0.3705374846E-03  -0.3601197999E-03   0.0000000000E+00   0.0000000000E+00   0.0000000000E+00   0.8078962864E-01
   0.1240352623E+00   0.1490252253E+00   0.4250207860E-04  -0.1985741850E-04   0.1275062358E-03  -0.5957225550E-04   0.1332325350E+00  -0.1744903540E-01   0.3473504988E-01   0.1089203004E-02   0.0000000000E+00   0.0000000000E+00   0.1280467307E-02  -0.6783931087E-03   0.1415963906E-04   0.0000000000E+00   0.0000000000E+00   0.0000000000E+00   0.1324800427E+00
   0.1447967004E+00   0.1472942112E+00   0.4927834438E-04  -0.1620420370E-04   0.1478350331E-03  -0.4861261111E-04   0.1259523348E+00  -0.1677647254E-01   0.3275275867E-01  -0.4553635854E-02   0.0000000000E+00   0.0000000000E+00   0.1211594489E-02  -0.6438800057E-03  -0.5919726610E-04   0.0000000000E+00   0.0000000000E+00   0.0000000000E+00   0.1257558279E+00
   0.1433482533E+00   0.1660553845E+00   0.4584132989E-04  -0.1943037697E-04   0.1375239897E-03  -0.5829113092E-04   0.1297007817E+00  -0.1341934994E-01   0.3488442954E-01   0.1490398477E-02   0.0000000000E+00   0.0000000000E+00   0.1232612579E-02  -0.6279491332E-03   0.1937518020E-04   0.0000000000E+00   0.0000000000E+00   0.0000000000E+00   0.1260752685E+00
   0.1256457562E+00   0.1662233506E+00   0.4030754423E-04  -0.2242534689E-04   0.1209226327E-03  -0.6727604066E-04   0.1328141673E+00  -0.1392081226E-01   0.3566800650E-01   0.5164588754E-02   0.0000000000E+00   0.0000000000E+00   0.1262900090E-02  -0.6446546439E-03   0.6713965380E-04   0.0000000000E+00   0.0000000000E+00   0.0000000000E+00   0.1295546199E+00
   0.6676481159E-01   0.1807404049E+00   0.1987689781E-04  -0.3635427527E-04   0.5963069344E-04  -0.1090628258E-03   0.1353874688E+00   0.9338961220E-03   0.4089640946E-01   0.1631954235E-01   0.0000000000E+00   0.0000000000E+00   0.1228383771E-02  -0.5195126735E-03   0.2121540505E-03   0.0000000000E+00   0.0000000000E+00   0.0000000000E+00   0.1228654727E+00
   0.1096846996E+00   0.1660184572E+00   0.3523215481E-04  -0.2541745577E-04   0.1056964644E-03  -0.7625236731E-04   0.1375511576E+00  -0.1239127597E-01   0.3754796449E-01   0.9245777019E-02   0.0000000000E+00   0.0000000000E+00   0.1300041511E-02  -0.6492101260E-03   0.1201951012E-03   0.0000000000E+00   0.0000000000E+00   0.0000000000E+00   0.1332097273E+00
   0.1055597498E+00   0.1804805597E+00   0.3206319219E-04  -0.2849732976E-04   0.9618957657E-04  -0.8549198928E-04   0.1353978390E+00  -0.7818795576E-02   0.3827371303E-01   0.1259930271E-01   0.0000000000E+00   0.0000000000E+00   0.1262613638E-02  -0.5992026118E-03   0.1637909353E-03   0.0000000000E+00   0.0000000000E+00   0.0000000000E+00   0.1284490745E+00
   0.2149605689E+00   0.1816287412E+00   0.6459123705E-04  -0.1363271147E-04   0.1937737111E-03  -0.4089813441E-04   0.1207212784E+00  -0.3138189506E-02   0.3527492667E-01  -0.5628000108E-02   0.0000000000E+00   0.0000000000E+00   0.1110802573E-02  -0.4993705103E-03  -0.7316400141E-04   0.0000000000E+00   0.0000000000E+00   0.0000000000E+00   0.1102446439E+00
   0.2341866555E+00   0.1797716763E+00   0.7004062385E-04  -0.1219292210E-04   0.2101218716E-03  -0.3657876631E-04   0.1180507109E+00  -0.1272302040E-02   0.3503352267E-01  -0.6389193072E-02   0.0000000000E+00   0.0000000000E+00   0.1079223448E-02  -0.4719757213E-03  -0.8305950993E-04   0.0000000000E+00   0.0000000000E+00   0.0000000000E+00   0.1065222625E+00
   0.2755625754E+00   0.1304821026E+00   0.8424885689E-04  -0.5835099803E-05   0.2527465707E-03  -0.1750529941E-04   0.9622423337E-01   0.5125765331E-02   0.3040499961E-01  -0.8343132521E-02   0.0000000000E+00   0.0000000000E+00   0.8556500389E-03  -0.3286300456E-03  -0.1084607228E-03   0.0000000000E+00   0.0000000000E+00   0.0000000000E+00   0.8271078768E-01
   0.2706469308E+00   0.1522549018E+00   0.8159894325E-04  -0.7851038284E-05   0.2447968297E-03  -0.2355311485E-04   0.1052148790E+00   0.2859826116E-02   0.3242241154E-01  -0.7636740734E-02   0.0000000000E+00   0.0000000000E+00   0.9463020772E-03  -0.3843136105E-03  -0.9927762954E-04   0.0000000000E+00   0.0000000000E+00   0.0000000000E+00   0.9218986896E-01
   0.2535951226E+00   0.1774428682E+00   0.7540215082E-04  -0.1102194319E-04   0.2262064525E-03  -0.3306582958E-04   0.1151702509E+00   0.3599623087E-03   0.3465906396E-01  -0.6458404716E-02   0.0000000000E+00   0.0000000000E+00   0.1046645430E-02  -0.4458883214E-03  -0.8395926130E-04   0.0000000000E+00   0.0000000000E+00   0.0000000000E+00   0.1026867456E+00
   0.1223291140E+00   0.5810507769E-01   0.6721500237E-04  -0.5630753255E-05   0.2016450071E-03  -0.1689225977E-04   0.4874749477E-01  -0.2912940107E-01   0.5885428112E-02  -0.2940607465E-01   0.0000000000E+00   0.0000000000E+00   0.5572068666E-03  -0.4551927793E-03  -0.3822789704E-03   0.0000000000E+00   0.0000000000E+00   0.0000000000E+00   0.8519510770E-01
   0.1102805202E+00   0.7306570517E-01   0.5982054015E-04  -0.9464207410E-05   0.1794616205E-03  -0.2839262223E-04   0.7614247848E-01  -0.2828059602E-01   0.1435856474E-01  -0.3093104745E-01   0.0000000000E+00   0.0000000000E+00   0.8031908786E-03  -0.5543090898E-03  -0.4021036169E-03   0.0000000000E+00   0.0000000000E+00   0.0000000000E+00   0.1053103576E+00
   0.1477208166E+00   0.8121169535E-01   0.6486165552E-04  -0.5879936840E-05   0.1945849666E-03  -0.1763981052E-04   0.8198136473E-01  -0.1996682703E-01   0.1860436131E-01  -0.2754038101E-01   0.0000000000E+00   0.0000000000E+00   0.8239010444E-03  -0.5014254484E-03  -0.3580249532E-03   0.0000000000E+00   0.0000000000E+00   0.0000000000E+00   0.1011267460E+00
   0.1354948978E+00   0.7048546049E-01   0.6546694114E-04  -0.5620778391E-05   0.1964008234E-03  -0.1686233517E-04   0.6977992037E-01  -0.2283603892E-01   0.1408316443E-01  -0.3066112810E-01   0.0000000000E+00   0.0000000000E+00   0.7240578271E-03  -0.4799496436E-03  -0.3985946653E-03   0.0000000000E+00   0.0000000000E+00   0.0000000000E+00   0.9643695086E-01
   0.1010972391E+00   0.1968397006E+00   0.2884451696E-04  -0.3174435952E-04   0.8653355087E-04  -0.9523307857E-04   0.1320231101E+00  -0.4882469434E-02   0.3814219219E-01   0.1380600828E-01   0.0000000000E+00   0.0000000000E+00   0.1220451932E-02  -0.5593206011E-03   0.1794781077E-03   0.0000000000E+00   0.0000000000E+00   0.0000000000E+00   0.1235927344E+00
   0.1236811086E+00   0.1822655356E+00   0.3753114979E-04  -0.2528336159E-04   0.1125934494E-03  -0.7585008478E-04   0.1331968715E+00  -0.9505873710E-02   0.3710729933E-01   0.8828803974E-02   0.0000000000E+00   0.0000000000E+00   0.1249164438E-02  -0.6059712495E-03   0.1147744517E-03   0.0000000000E+00   0.0000000000E+00   0.0000000000E+00   0.1269260070E+00
   0.1613151789E+00   0.1678852607E+00   0.5101922171E-04  -0.1713208430E-04   0.1530576651E-03  -0.5139625290E-04   0.1260398977E+00  -0.1098567160E-01   0.3451626784E-01  -0.1851963720E-02   0.0000000000E+00   0.0000000000E+00   0.1189807188E-02  -0.5915252127E-03  -0.2407552836E-04   0.0000000000E+00   0.0000000000E+00   0.0000000000E+00   0.1209034800E+00
   0.1783687307E+00   0.1697876142E+00   0.5573742188E-04  -0.1537094473E-04   0.1672122656E-03  -0.4611283420E-04   0.1229702104E+00  -0.8462354120E-02   0.3435235689E-01  -0.3931337297E-02   0.0000000000E+00   0.0000000000E+00   0.1152032096E-02  -0.5565912431E-03  -0.5110738485E-04   0.0000000000E+00   0.0000000000E+00   0.0000000000E+00   0.1162954952E+00
   0.8818720488E-01   0.1397289542E+00   0.3222987025E-04  -0.2561370782E-04   0.9668961075E-04  -0.7684112347E-04   0.1481386769E+00  -0.1183180605E-01   0.4089206126E-01   0.5689202308E-02   0.0000000000E+00   0.0000000000E+00   0.1394206004E-02  -0.6854102751E-03   0.7395963001E-04   0.0000000000E+00   0.0000000000E+00   0.0000000000E+00   0.1415086078E+00
   0.9959318590E-01   0.8890946383E-01   0.5099947492E-04  -0.1406066699E-04   0.1529984248E-03  -0.4218200096E-04   0.1077830392E+00  -0.2548015217E-01   0.2469086610E-01  -0.2550804621E-01   0.0000000000E+00   0.0000000000E+00   0.1080198250E-02  -0.6522232376E-03  -0.3316046007E-03   0.0000000000E+00   0.0000000000E+00   0.0000000000E+00   0.1235574317E+00
   0.9652729454E-01   0.1275664337E+00   0.3773003375E-04  -0.2157158389E-04   0.1131901013E-03  -0.6471475166E-04   0.1425100103E+00  -0.1864154290E-01   0.3716054023E-01  -0.1528954330E-02   0.0000000000E+00   0.0000000000E+00   0.1369543111E-02  -0.7254270807E-03  -0.1987640629E-04   0.0000000000E+00   0.0000000000E+00   0.0000000000E+00   0.1415174871E+00
   0.2508402897E+00   0.1600590706E+00   0.7617068628E-04  -0.9237352915E-05   0.2285120588E-03  -0.2771205874E-04   0.1090555043E+00   0.5646446427E-04   0.3273359062E-01  -0.8025968766E-02   0.0000000000E+00   0.0000000000E+00   0.9921848775E-03  -0.4248026401E-03  -0.1043375940E-03   0.0000000000E+00   0.0000000000E+00   0.0000000000E+00   0.9787881983E-01
   0.2596774759E+00   0.1275116384E+00   0.8104898170E-04  -0.5881389929E-05   0.2431469451E-03  -0.1764416979E-04   0.9695931035E-01   0.3952156336E-02   0.3027344001E-01  -0.9838802486E-02   0.0000000000E+00   0.0000000000E+00   0.8669163145E-03  -0.3421766877E-03  -0.1279044323E-03   0.0000000000E+00   0.0000000000E+00   0.0000000000E+00   0.8476021595E-01
   0.1964135632E+00   0.1839824238E+00   0.5911329582E-04  -0.1545454236E-04   0.1773398875E-03  -0.4636362709E-04   0.1233949377E+00  -0.4942432135E-02   0.3553575168E-01  -0.3977096407E-02   0.0000000000E+00   0.0000000000E+00   0.1142169419E-02  -0.5262163896E-03  -0.5170225329E-04   0.0000000000E+00   0.0000000000E+00   0.0000000000E+00   0.1138450307E+00
   0.2586030364E+00   0.1414760347E+00   0.7962435686E-04  -0.7167578765E-05   0.2388730706E-03  -0.2150273630E-04   0.1039427351E+00   0.3970869628E-02   0.3237408142E-01  -0.8816912485E-02   0.0000000000E+00   0.0000000000E+00   0.9303924981E-03  -0.3692417534E-03  -0.1146198623E-03   0.0000000000E+00   0.0000000000E+00   0.0000000000E+00   0.9051214802E-01
   0.2462535729E+00   0.1446113021E+00   0.7646348351E-04  -0.7822228633E-05   0.2293904505E-03  -0.2346668590E-04   0.1040991047E+00   0.1070113581E-02   0.3155076550E-01  -0.9546668904E-02   0.0000000000E+00   0.0000000000E+00   0.9431284102E-03  -0.3962484749E-03  -0.1241066958E-03   0.0000000000E+00   0.0000000000E+00   0.0000000000E+00   0.9314339305E-01
   0.1919197059E+00   0.1589391911E+00   0.6100323645E-04  -0.1259322767E-04   0.1830097093E-03  -0.3777968301E-04   0.1171483757E+00  -0.6648083764E-02   0.3315008759E-01  -0.7508015989E-02   0.0000000000E+00   0.0000000000E+00   0.1091977746E-02  -0.5173762276E-03  -0.9760420786E-04   0.0000000000E+00   0.0000000000E+00   0.0000000000E+00   0.1102326227E+00
   0.1947472469E+00   0.1697351604E+00   0.6038872182E-04  -0.1373590286E-04   0.1811661654E-03  -0.4120770857E-04   0.1195365599E+00  -0.6528571177E-02   0.3390239661E-01  -0.5839124648E-02   0.0000000000E+00   0.0000000000E+00   0.1113244122E-02  -0.5256025812E-03  -0.7590862042E-04   0.0000000000E+00   0.0000000000E+00   0.0000000000E+00   0.1119468423E+00
   0.1800048781E+00   0.1552433061E+00   0.5822953609E-04  -0.1319148248E-04   0.1746886083E-03  -0.3957444744E-04   0.1191475691E+00  -0.9347153428E-02   0.3294012469E-01  -0.6827910168E-02   0.0000000000E+00   0.0000000000E+00   0.1120696777E-02  -0.5497346156E-03  -0.8876283219E-04   0.0000000000E+00   0.0000000000E+00   0.0000000000E+00   0.1139978723E+00
   0.1011202457E+00   0.1484704691E+00   0.3507292333E-04  -0.2425723160E-04   0.1052187700E-03  -0.7277169481E-04   0.1407421207E+00  -0.1486962029E-01   0.3776175011E-01   0.6277272696E-02   0.0000000000E+00   0.0000000000E+00   0.1338744817E-02  -0.6842078152E-03   0.8160454505E-04   0.0000000000E+00   0.0000000000E+00   0.0000000000E+00   0.1374972882E+00
   0.2006853758E+00   0.7796783896E-01   0.7530519088E-04  -0.3166109539E-05   0.2259155726E-03  -0.9498328618E-05   0.7478148782E-01  -0.8304045759E-03   0.2218532497E-01  -0.1993220242E-01   0.0000000000E+00   0.0000000000E+00   0.6837501170E-03  -0.2992044841E-03  -0.2591186314E-03   0.0000000000E+00   0.0000000000E+00   0.0000000000E+00   0.7545435464E-01
   0.2116375478E+00   0.1146463169E+00   0.7206719307E-04  -0.6112763399E-05   0.2162015792E-03  -0.1833829020E-04   0.9505785129E-01  -0.3307922142E-02   0.2752497874E-01  -0.1527455201E-01   0.0000000000E+00   0.0000000000E+00   0.8779273430E-03  -0.4008277115E-03  -0.1985691761E-03   0.0000000000E+00   0.0000000000E+00   0.0000000000E+00   0.9103948316E-01
   0.2068720828E+00   0.9687706871E-01   0.7361344777E-04  -0.4581998317E-05   0.2208403433E-03  -0.1374599495E-04   0.8605833305E-01  -0.2817278382E-02   0.2497231640E-01  -0.1798152718E-01   0.0000000000E+00   0.0000000000E+00   0.7941182164E-03  -0.3612647322E-03  -0.2337598533E-03   0.0000000000E+00   0.0000000000E+00   0.0000000000E+00   0.8463734527E-01
   0.9009213803E-01   0.1039231853E+00   0.4247775646E-04  -0.1884291655E-04   0.1274332694E-03  -0.5652874965E-04   0.1377556473E+00  -0.1637346344E-01   0.3641465516E-01  -0.1597097507E-01   0.0000000000E+00   0.0000000000E+00   0.1317432898E-02  -0.6862455418E-03  -0.2076226759E-03   0.0000000000E+00   0.0000000000E+00   0.0000000000E+00   0.1372456325E+00
   0.1247128162E+00   0.8335271228E-01   0.5925404604E-04  -0.8619079452E-05   0.1777621381E-03  -0.2585723836E-04   0.8852407377E-01  -0.2731523276E-01   0.1836265230E-01  -0.2848346889E-01   0.0000000000E+00   0.0000000000E+00   0.9120984790E-03  -0.5938125058E-03  -0.3702850956E-03   0.0000000000E+00   0.0000000000E+00   0.0000000000E+00   0.1122908054E+00
   0.1089342420E+00   0.1151251148E+00   0.4498549426E-04  -0.1663280581E-04   0.1349564828E-03  -0.4989841744E-04   0.1289493773E+00  -0.2368063608E-01   0.3158062236E-01  -0.1222866165E-01   0.0000000000E+00   0.0000000000E+00   0.1265793814E-02  -0.7183963597E-03  -0.1589726014E-03   0.0000000000E+00   0.0000000000E+00   0.0000000000E+00   0.1357163560E+00
   0.2441269111E+00   0.1279644967E+00   0.7761527264E-04  -0.6299315114E-05   0.2328458179E-03  -0.1889794534E-04   0.9747526348E-01   0.1625799079E-02   0.2973031877E-01  -0.1132227058E-01   0.0000000000E+00   0.0000000000E+00   0.8806842813E-03  -0.3653587560E-03  -0.1471895176E-03   0.0000000000E+00   0.0000000000E+00   0.0000000000E+00   0.8754795769E-01
   0.1991406907E+00   0.1516972445E+00   0.6390942272E-04  -0.1108737186E-04   0.1917282682E-03  -0.3326211559E-04   0.1131564243E+00  -0.7042637945E-02   0.3183413592E-01  -0.9128050167E-02   0.0000000000E+00   0.0000000000E+00   0.1057189750E-02  -0.5053980602E-03  -0.1186646522E-03   0.0000000000E+00   0.0000000000E+00   0.0000000000E+00   0.1073877994E+00
   0.2056361814E+00   0.1443968374E+00   0.6657660111E-04  -0.9735160343E-05   0.1997298033E-03  -0.2920548103E-04   0.1092871760E+00  -0.6470364277E-02   0.3084504351E-01  -0.1069191809E-01   0.0000000000E+00   0.0000000000E+00   0.1019747722E-02  -0.4851003013E-03  -0.1389949352E-03   0.0000000000E+00   0.0000000000E+00   0.0000000000E+00   0.1039990566E+00
   0.1926729779E+00   0.1007986475E+00   0.7008648365E-04  -0.5492129963E-05   0.2102594509E-03  -0.1647638989E-04   0.8999696761E-01  -0.6999741926E-02   0.2489916771E-01  -0.1891630820E-01   0.0000000000E+00   0.0000000000E+00   0.8462713988E-03  -0.4146858252E-03  -0.2459120066E-03   0.0000000000E+00   0.0000000000E+00   0.0000000000E+00   0.9161140620E-01
   0.1419037745E+00   0.1241621123E+00   0.5287711363E-04  -0.1287893470E-04   0.1586313409E-03  -0.3863680409E-04   0.1182664552E+00  -0.2095930809E-01   0.2919214414E-01  -0.1242926854E-01   0.0000000000E+00   0.0000000000E+00   0.1157966044E-02  -0.6519688790E-03  -0.1615804910E-03   0.0000000000E+00   0.0000000000E+00   0.0000000000E+00   0.1239907532E+00
   0.1460939127E+00   0.1118476385E+00   0.5680516558E-04  -0.1039737675E-04   0.1704154967E-03  -0.3119213026E-04   0.1096787076E+00  -0.2124537835E-01   0.2652999878E-01  -0.1808100933E-01   0.0000000000E+00   0.0000000000E+00   0.1080933215E-02  -0.6210799027E-03  -0.2350531213E-03   0.0000000000E+00   0.0000000000E+00   0.0000000000E+00   0.1188807918E+00
   0.1588366214E+00   0.1176291905E+00   0.5894609992E-04  -0.9932122033E-05   0.1768382997E-03  -0.2979636610E-04   0.1085985946E+00  -0.1768066270E-01   0.2727537956E-01  -0.1649926009E-01   0.0000000000E+00   0.0000000000E+00   0.1057201795E-02  -0.5844285495E-03  -0.2144903812E-03   0.0000000000E+00   0.0000000000E+00   0.0000000000E+00   0.1145065508E+00
   0.1543144388E+00   0.1313275293E+00   0.5499144681E-04  -0.1247492150E-04   0.1649743404E-03  -0.3742476450E-04   0.1159599512E+00  -0.1853193505E-01   0.2922840484E-01  -0.1188059637E-01   0.0000000000E+00   0.0000000000E+00   0.1127510102E-02  -0.6208844185E-03  -0.1544477529E-03   0.0000000000E+00   0.0000000000E+00   0.0000000000E+00   0.1196966667E+00
   0.1639819750E+00   0.1519218677E+00   0.5418826213E-04  -0.1444307832E-04   0.1625647864E-03  -0.4332923495E-04   0.1216272452E+00  -0.1223578952E-01   0.3281743669E-01  -0.6027787273E-02   0.0000000000E+00   0.0000000000E+00   0.1154527510E-02  -0.5856919408E-03  -0.7836123454E-04   0.0000000000E+00   0.0000000000E+00   0.0000000000E+00   0.1183783366E+00
   0.1115427327E+00   0.1548553697E+00   0.3751218567E-04  -0.2321981897E-04   0.1125365570E-03  -0.6965945692E-04   0.1392044792E+00  -0.1323398565E-01   0.3779114807E-01   0.6586171457E-02   0.0000000000E+00   0.0000000000E+00   0.1318373305E-02  -0.6633267384E-03   0.8562022894E-04   0.0000000000E+00   0.0000000000E+00   0.0000000000E+00   0.1347874735E+00
   0.1374565428E+00   0.1346828106E+00   0.4939144433E-04  -0.1526834020E-04   0.1481743330E-03  -0.4580502061E-04   0.1292883681E+00  -0.1789711984E-01   0.3341737447E-01  -0.6939065385E-02   0.0000000000E+00   0.0000000000E+00   0.1246322917E-02  -0.6670884260E-03  -0.9020785001E-04   0.0000000000E+00   0.0000000000E+00   0.0000000000E+00   0.1298326858E+00
   0.1807584510E+00   0.1056279495E+00   0.6662424212E-04  -0.6643374937E-05   0.1998727263E-03  -0.1993012481E-04   0.9402488514E-01  -0.1200815578E-01   0.2460501881E-01  -0.1968540858E-01   0.0000000000E+00   0.0000000000E+00   0.9024582623E-03  -0.4759712696E-03  -0.2559103115E-03   0.0000000000E+00   0.0000000000E+00   0.0000000000E+00   0.9928138549E-01
   0.1512141741E+00   0.1000041789E+00   0.6090653366E-04  -0.8106772622E-05   0.1827196010E-03  -0.2432031787E-04   0.9752525540E-01  -0.1973455852E-01   0.2333720907E-01  -0.2230973017E-01   0.0000000000E+00   0.0000000000E+00   0.9644446024E-03  -0.5599329786E-03  -0.2900264922E-03   0.0000000000E+00   0.0000000000E+00   0.0000000000E+00   0.1096902957E+00
   0.1383401222E+00   0.9236424838E-01   0.5975906191E-04  -0.8300754298E-05   0.1792771857E-03  -0.2490226289E-04   0.9580760330E-01  -0.2381576115E-01   0.2159755265E-01  -0.2551849571E-01   0.0000000000E+00   0.0000000000E+00   0.9647306585E-03  -0.5903730793E-03  -0.3317404442E-03   0.0000000000E+00   0.0000000000E+00   0.0000000000E+00   0.1134154871E+00
   0.1560178305E+00   0.9052010702E-01   0.6427763313E-04  -0.6465044649E-05   0.1928328994E-03  -0.1939513395E-04   0.8683727792E-01  -0.2029476505E-01   0.1996275386E-01  -0.2636345525E-01   0.0000000000E+00   0.0000000000E+00   0.8693688127E-03  -0.5233477458E-03  -0.3427249183E-03   0.0000000000E+00   0.0000000000E+00   0.0000000000E+00   0.1041289095E+00
   0.1274559683E+00   0.1185142386E+00   0.4989733071E-04  -0.1402033992E-04   0.1496919921E-03  -0.4206101977E-04   0.1242174473E+00  -0.2299223091E-01   0.3036756491E-01  -0.1310006247E-01   0.0000000000E+00   0.0000000000E+00   0.1220048471E-02  -0.6936773456E-03  -0.1703008121E-03   0.0000000000E+00   0.0000000000E+00   0.0000000000E+00   0.1309256358E+00
   0.1261240807E+00   0.1330700098E+00   0.4616668466E-04  -0.1678555818E-04   0.1385000540E-03  -0.5035667453E-04   0.1283338401E+00  -0.2099753749E-01   0.3220089078E-01  -0.6371275195E-02   0.0000000000E+00   0.0000000000E+00   0.1249728341E-02  -0.6915795675E-03  -0.8282657753E-04   0.0000000000E+00   0.0000000000E+00   0.0000000000E+00   0.1315657745E+00
   0.1146112292E+00   0.1296447269E+00   0.4327255450E-04  -0.1823027997E-04   0.1298176635E-03  -0.5469083992E-04   0.1305620765E+00  -0.2437788474E-01   0.3185525754E-01  -0.5461739422E-02   0.0000000000E+00   0.0000000000E+00   0.1283188647E-02  -0.7310308497E-03  -0.7100261248E-04   0.0000000000E+00   0.0000000000E+00   0.0000000000E+00   0.1359385554E+00
   0.2292724200E+00   0.1294630190E+00   0.7412825571E-04  -0.6917238165E-05   0.2223847671E-03  -0.2075171450E-04   0.9971653530E-01  -0.8084305794E-03   0.2967243142E-01  -0.1213545235E-01   0.0000000000E+00   0.0000000000E+00   0.9105733505E-03  -0.3962512059E-03  -0.1577608806E-03   0.0000000000E+00   0.0000000000E+00   0.0000000000E+00   0.9170038627E-01
   0.2013987634E+00   0.1332027594E+00   0.6707083804E-04  -0.8646911476E-05   0.2012125141E-03  -0.2594073443E-04   0.1059066642E+00  -0.6128535058E-02   0.2993343873E-01  -0.1258967513E-01   0.0000000000E+00   0.0000000000E+00   0.9876519306E-03  -0.4688056592E-03  -0.1636657767E-03   0.0000000000E+00   0.0000000000E+00   0.0000000000E+00   0.1014097117E+00
   0.1977909603E+00   0.1180810106E+00   0.6844356555E-04  -0.7115359001E-05   0.2053306967E-03  -0.2134607700E-04   0.9925961306E-01  -0.6890840288E-02   0.2771063183E-01  -0.1561180395E-01   0.0000000000E+00   0.0000000000E+00   0.9301367560E-03  -0.4498191376E-03  -0.2029534513E-03   0.0000000000E+00   0.0000000000E+00   0.0000000000E+00   0.9756752562E-01
   0.2151888999E+00   0.1311278283E+00   0.7066372763E-04  -0.7683186389E-05   0.2119911829E-03  -0.2304955917E-04   0.1019319476E+00  -0.3763361829E-02   0.2945057573E-01  -0.1273850881E-01   0.0000000000E+00   0.0000000000E+00   0.9422578341E-03  -0.4317811882E-03  -0.1656006146E-03   0.0000000000E+00   0.0000000000E+00   0.0000000000E+00   0.9616927286E-01
   0.1087480695E+00   0.1384308736E+00   0.3948411807E-04  -0.2093359380E-04   0.1184523542E-03  -0.6280078140E-04   0.1384059529E+00  -0.1900638650E-01   0.3581986991E-01  -0.7211771164E-04   0.0000000000E+00   0.0000000000E+00   0.1333619078E-02  -0.7127413333E-03  -0.9375302513E-06   0.0000000000E+00   0.0000000000E+00   0.0000000000E+00   0.1383265852E+00
   0.1689735657E+00   0.1364473366E+00   0.5814066663E-04  -0.1163860653E-04   0.1744219999E-03  -0.3491581960E-04   0.1145085184E+00  -0.1464655820E-01   0.2995858806E-01  -0.1105509077E-01   0.0000000000E+00   0.0000000000E+00   0.1099149094E-02  -0.5798669014E-03  -0.1437161800E-03   0.0000000000E+00   0.0000000000E+00   0.0000000000E+00   0.1151849223E+00
   0.1865454493E+00   0.1395839553E+00   0.6234332283E-04  -0.1047667495E-04   0.1870299685E-03  -0.3143002485E-04   0.1111842011E+00  -0.1005485014E-01   0.3033880528E-01  -0.1120780058E-01   0.0000000000E+00   0.0000000000E+00   0.1050990145E-02  -0.5251175204E-03  -0.1457014076E-03   0.0000000000E+00   0.0000000000E+00   0.0000000000E+00   0.1086451359E+00
   0.1628926372E+00   0.1046741776E+00   0.6269980322E-04  -0.7753604266E-05   0.1880994097E-03  -0.2326081280E-04   0.1008310475E+00  -0.1536174548E-01   0.2564079060E-01  -0.1977607187E-01   0.0000000000E+00   0.0000000000E+00   0.9774733394E-03  -0.5330329690E-03  -0.2570889344E-03   0.0000000000E+00   0.0000000000E+00   0.0000000000E+00   0.1075000301E+00
   0.1846398479E+00   0.1214325643E+00   0.6476196547E-04  -0.8315181976E-05   0.1942858964E-03  -0.2494554593E-04   0.1034071503E+00  -0.1027496796E-01   0.2793965470E-01  -0.1524811314E-01   0.0000000000E+00   0.0000000000E+00   0.9810774427E-03  -0.4967900946E-03  -0.1982254708E-03   0.0000000000E+00   0.0000000000E+00   0.0000000000E+00   0.1035581816E+00
   0.1717900137E+00   0.1217760053E+00   0.6150317536E-04  -0.9326672378E-05   0.1845095261E-03  -0.2798001713E-04   0.1061894655E+00  -0.1431480186E-01   0.2756239910E-01  -0.1537273034E-01   0.0000000000E+00   0.0000000000E+00   0.1022151863E-02  -0.5444036124E-03  -0.1998454944E-03   0.0000000000E+00   0.0000000000E+00   0.0000000000E+00   0.1092094786E+00
   0.1158180349E+00   0.9809512829E-01   0.5218848362E-04  -0.1238612799E-04   0.1565654509E-03  -0.3715838398E-04   0.1098910259E+00  -0.2756330312E-01   0.2469831684E-01  -0.2264740788E-01   0.0000000000E+00   0.0000000000E+00   0.1107505218E-02  -0.6794010595E-03  -0.2944163025E-03   0.0000000000E+00   0.0000000000E+00   0.0000000000E+00   0.1263012388E+00
   0.1316375135E+00   0.1052703475E+00   0.5448988158E-04  -0.1114638387E-04   0.1634696447E-03  -0.3343915161E-04   0.1112907325E+00  -0.2476963199E-01   0.2595633017E-01  -0.1986626691E-01   0.0000000000E+00   0.0000000000E+00   0.1109347231E-02  -0.6594375080E-03  -0.2582614698E-03   0.0000000000E+00   0.0000000000E+00   0.0000000000E+00   0.1237693972E+00
   0.1721008851E+00   0.1103109959E+00   0.6374678220E-04  -0.7800280448E-05   0.1912403466E-03  -0.2340084134E-04   0.9702887902E-01  -0.1484959022E-01   0.2465378664E-01  -0.1888869265E-01   0.0000000000E+00   0.0000000000E+00   0.9408762009E-03  -0.5135438991E-03  -0.2455530045E-03   0.0000000000E+00   0.0000000000E+00   0.0000000000E+00   0.1035506164E+00
           1           2           3           4
           5           6           7           8
           9          10          11          12
          13          14          15          16
          17          18          19          20
          21          22          23          24
          25          26          27          28
          29          30          31          32
          33          34           4           3
           2           1          35          36
          37          38          39          40
          41          42          36          35
          43          41          44          45
          46           9          47          48
          41          35          39          44
          49          50          51          52
          52          51          53          54
          55          56          57          58
          56          59          60          57
          61          62          63          64
          65          66          67          68
          69          70          71          72
          73          74          25          28
          27          75          76          28
          77          78          24          23
          79          80          81          82
          83          84          85          86
          87          88          89          90
          90          89          62          91
          61          92          91          62
          92          61          59          93
          56          94          93          59
          95          55          54          53
          46          96          10           9
          97          98          99         100
          12         101          98          97
          97         100         102          47
         103         104          31          30
         105         103          30         106
          73         107         108         109
         110         111         112         113
          32          31         114         115
         116         117         118         119
         120         121         122         123
         121          83          86         122
          80         124         125          81
         126         127         128         129
         130         101          12          11
         131          43         101         130
          34         129         132           4
          42          41          43         131
          35           1          40          39
         101          43          45          98
         133         134         109         108
         135         136          13          16
         137         138          65          68
          94          56          55          95
          58         137          54          55
          49          52          68          67
         139         140         141         142
         140         139          82          81
          88          87         142         141
         143         144         145         146
         147          26          25         148
         149         150         128         151
           5           8         152         102
         132         129         128         150
         153         100          99         154
          48          47         102         152
          59          61          64          60
         106         155         113         118
          62          89         156          63
          88         157         156          89
         123         116         119         120
          66          65         134         133
         144         143          84          83
           9          12          97          47
         104         158         114          31
         159         160         127         126
         119         112         161         120
         117         105         106         118
         162         163         164         165
          83         121         166         144
         167         168         141         140
         167         143         146         168
           6         114         158           7
          38          37         169         170
          40         132         150          37
         160         159          20          19
          78         171         172          24
          18          17          21          24
         173         174          78          77
         132          40           1           4
          28          76         107          73
         175         176         177         178
         176         179          57          60
         137          68          52          54
          60          64         177         176
         163         162         155          29
          75          27         174         173
         180         174          27          26
          64          63         181         177
          98          45         182          99
         183         182          45          44
          38         183          44          39
          58          57         179         184
         185         181          63         156
         134         186         187         109
         188          74         187         189
         138         186         134          65
          88         141         168         157
         166         121         120         161
         190         191         166         161
         155         106          30          29
         192         193         194         195
         118         113         112         119
         125          84         143         167
         124          85          84         125
           6         196         115         114
         196           6           5         153
         197          32         115         198
         111         190         161         112
         199         148         188         135
         170         169         200         201
         202         164         163         197
         203         204         146         145
         205         206         201         200
         187          74          73         109
         176         175         207         179
         208         209          16          15
         210         186         138         184
         184         138         137          58
         179         207         210         184
         211         212         172         171
          78         174         180         171
         125         167         140          81
          37         150         149         169
         213         214         215         216
         217         182         183         201
         170         201         183          38
         218         219         206         205
         111         220         221         190
         157         168         146         204
         177         181         222         178
         222         181         185         223
         186         210         189         187
         224         191         190         221
         100         153           5         102
         185         156         157         204
         113         155         162         110
          26         147         193         180
          29          32         197         163
         225         226          19          18
         144         166         191         145
         212         192         227         228
         198         115         196         229
         206         154         217         201
         153         154         229         196
         172         225          18          24
         148          25          74         188
          14          13         175         178
         207         175          13         136
         189         136         135         188
         230         202         197         198
         210         207         136         189
         165         164         231         232
         169         149         233         200
         234         160          19         226
         217         154          99         182
         203         145         191         224
         151         235         233         149
         236         223         203         224
         185         204         203         223
         178         222         237          14
         110         162         165         238
         239         223         236         240
         238         220         111         110
         219         230         198         229
         241         242         232         243
         242          69         220         238
          72          71         240         236
         244         205         200         233
         215         231         164         202
         211         171         180         193
         228         225         172         212
         194         193         147         245
         245         147         148         199
         135          16         209         199
         209         208         246         247
         127         160         234         248
         193         192         212         211
         226         225         228         249
         151         128         127         248
         248         250         235         151
          72         221         220          69
          14         237         251          15
          70          69         252         253
         206         219         229         154
         238         165         232         242
          72         236         224         221
         216         215         202         230
         245         247         254         194
         255         256         257         258
         230         219         218         216
         214         259         231         215
         216         218         260         213
         261         255         258         214
         239         237         222         223
         194         254         262         195
         263         264         227         265
         250         266         267         268
         199         209         247         245
         240          71         269         251
         270         271         246         272
         260         244         273         213
         237         239         240         251
         218         205         244         260
          70         272         269          71
         232         231         259         243
         274         275         243         259
         257         256         263         276
         277         275         274         278
         234         226         249         279
         271         277         262         254
         271         254         247         246
         246         208         269         272
         244         233         235         273
         251         269         208          15
         275         270         253         252
         234         279         250         248
         279         249         264         280
         259         214         258         274
         262         281         276         195
         195         276         263         265
         257         276         281         278
         278         274         258         257
         266         280         256         255
         261         214         213         267
         267         266         255         261
         266         250         279         280
         228         227         264         249
         256         280         264         263
         265         227         192         195
         281         262         277         278
         235         250         268         273
         273         268         267         213
         277         271         270         275
         253         270         272          70
         252          69         242         241
         243         275         252         241
 VARIABLES = X,Y,DU1,DU2,U1,U2,S11,S22,S33,S12,S13,S23,E11,E22,E12,E33,E13,E23,SMISES
 ZONE, T="0.5000D+01" F=FEPOINT, I=  281 J=  250
   0.1778999224E-01   0.1340435900E+00   0.6995108697E-05  -0.3884119502E-04   0.2798043479E-04  -0.1553647801E-03   0.2371509689E+00   0.4547449627E-01   0.8478763954E-01   0.3628113643E-02   0.0000000000E+00   0.0000000000E+00   0.1980723281E-02  -0.5110708625E-03   0.4716547736E-04   0.0000000000E+00   0.0000000000E+00   0.0000000000E+00   0.1744740417E+00
   0.0000000000E+00   0.1331351102E+00   0.0000000000E+00  -0.3964596163E-04   0.0000000000E+00  -0.1585838465E-03   0.2386467113E+00   0.4740651919E-01   0.8581596915E-01   0.6130237915E-02   0.0000000000E+00   0.0000000000E+00   0.1986799648E-02  -0.4993228494E-03   0.7969309290E-04   0.0000000000E+00   0.0000000000E+00   0.0000000000E+00   0.1755855386E+00
   0.0000000000E+00   0.1164795452E+00   0.0000000000E+00  -0.3742435212E-04   0.0000000000E+00  -0.1496974085E-03   0.2991467478E+00   0.1999849550E-01   0.9574357300E-01   0.4877054083E-02   0.0000000000E+00   0.0000000000E+00   0.2644241273E-02  -0.9846860074E-03   0.6340170307E-04   0.0000000000E+00   0.0000000000E+00   0.0000000000E+00   0.2493978240E+00
   0.1920328491E-01   0.1161090859E+00   0.9829582524E-05  -0.3642042832E-04   0.3931833010E-04  -0.1456817133E-03   0.2733100703E+00   0.1919938300E-01   0.8775283599E-01  -0.2430901675E-01   0.0000000000E+00   0.0000000000E+00   0.2412244046E-02  -0.8911948888E-03  -0.3160172177E-03   0.0000000000E+00   0.0000000000E+00   0.0000000000E+00   0.2326429658E+00
   0.7809399388E-01   0.2316738330E+00   0.1849893641E-04  -0.4051400749E-04   0.7399574562E-04  -0.1620560299E-03   0.1454453755E+00   0.7571765592E-04   0.4365632794E-01   0.1007520708E-01   0.0000000000E+00   0.0000000000E+00   0.1323257618E-02  -0.5665479337E-03   0.1309776920E-03   0.0000000000E+00   0.0000000000E+00   0.0000000000E+00   0.1304461068E+00
   0.9789732600E-01   0.2318706482E+00   0.2386522070E-04  -0.3692275069E-04   0.9546088279E-04  -0.1476910028E-03   0.1537314915E+00  -0.7513430181E-03   0.4589404454E-01   0.9176819026E-02   0.0000000000E+00   0.0000000000E+00   0.1401886810E-02  -0.6063900383E-03   0.1192986473E-03   0.0000000000E+00   0.0000000000E+00   0.0000000000E+00   0.1382073185E+00
   0.9732700498E-01   0.2498041754E+00   0.2095621536E-04  -0.3916492128E-04   0.8382486143E-04  -0.1566596851E-03   0.1499557967E+00  -0.7631163275E-03   0.4475780410E-01   0.3152700798E-02   0.0000000000E+00   0.0000000000E+00   0.1367573903E-02  -0.5917719656E-03   0.4098511037E-04   0.0000000000E+00   0.0000000000E+00   0.0000000000E+00   0.1338536736E+00
   0.7785719565E-01   0.2497872780E+00   0.1588301032E-04  -0.4254439680E-04   0.6353204128E-04  -0.1701775872E-03   0.1357080084E+00  -0.1357571013E-02   0.4030513122E-01   0.3502501383E-02   0.0000000000E+00   0.0000000000E+00   0.1240237404E-02  -0.5416151291E-03   0.4553251798E-04   0.0000000000E+00   0.0000000000E+00   0.0000000000E+00   0.1216862677E+00
   0.1911912513E-01   0.2330817442E+00   0.4186906655E-05  -0.4821695311E-04   0.1674762662E-04  -0.1928678124E-03   0.1232479833E+00   0.3442667886E-02   0.3800719535E-01   0.2905642868E-02   0.0000000000E+00   0.0000000000E+00   0.1108130243E-02  -0.4493388571E-03   0.3777335729E-04   0.0000000000E+00   0.0000000000E+00   0.0000000000E+00   0.1071270902E+00
   0.0000000000E+00   0.2330894535E+00   0.0000000000E+00  -0.4877609362E-04   0.0000000000E+00  -0.1951043745E-03   0.1212565443E+00   0.3655850826E-02   0.3747371855E-01   0.3273247326E-02   0.0000000000E+00   0.0000000000E+00   0.1089176735E-02  -0.4396322804E-03   0.4255221524E-04   0.0000000000E+00   0.0000000000E+00   0.0000000000E+00   0.1049794397E+00
   0.0000000000E+00   0.2164305283E+00   0.0000000000E+00  -0.4722813783E-04   0.0000000000E+00  -0.1889125513E-03   0.1377836652E+00   0.7015874095E-02   0.4343986178E-01   0.3352932883E-02   0.0000000000E+00   0.0000000000E+00   0.1226469444E-02  -0.4735118399E-03   0.4358812748E-04   0.0000000000E+00   0.0000000000E+00   0.0000000000E+00   0.1169467203E+00
   0.1855512152E-01   0.2165411951E+00   0.4565344514E-05  -0.4668358177E-04   0.1826137806E-04  -0.1867343271E-03   0.1391488310E+00   0.6477629106E-02   0.4368793802E-01   0.5697580995E-02   0.0000000000E+00   0.0000000000E+00   0.1240991608E-02  -0.4837340158E-03   0.7406855293E-04   0.0000000000E+00   0.0000000000E+00   0.0000000000E+00   0.1191209869E+00
   0.2576235860E+00   0.9225779024E-01   0.8362000731E-04  -0.3296152572E-05   0.3344800292E-03  -0.1318461029E-04   0.1025199958E+00   0.9638521572E-02   0.3364755521E-01  -0.1398207718E-01   0.0000000000E+00   0.0000000000E+00   0.8953417276E-03  -0.3121174373E-03  -0.1817670033E-03   0.0000000000E+00   0.0000000000E+00   0.0000000000E+00   0.8692471902E-01
   0.2590131082E+00   0.1102633675E+00   0.8236604865E-04  -0.4512505276E-05   0.3294641946E-03  -0.1805002110E-04   0.1119578902E+00   0.7138586685E-02   0.3572894306E-01  -0.1344298051E-01   0.0000000000E+00   0.0000000000E+00   0.9909763125E-03  -0.3716746329E-03  -0.1747587467E-03   0.0000000000E+00   0.0000000000E+00   0.0000000000E+00   0.9667069770E-01
   0.2422504080E+00   0.1106524238E+00   0.7897520231E-04  -0.4849041415E-05   0.3159008092E-03  -0.1939616566E-04   0.1130544739E+00   0.3867274902E-02   0.3507652463E-01  -0.1582280482E-01   0.0000000000E+00   0.0000000000E+00   0.1013713340E-02  -0.4057202464E-03  -0.2056964627E-03   0.0000000000E+00   0.0000000000E+00   0.0000000000E+00   0.1011687269E+00
   0.2397819517E+00   0.9266361965E-01   0.8036313396E-04  -0.3539770277E-05   0.3214525359E-03  -0.1415908111E-04   0.1028225279E+00   0.6203629141E-02   0.3270784710E-01  -0.1701404716E-01   0.0000000000E+00   0.0000000000E+00   0.9114908498E-03  -0.3445548335E-03  -0.2211826130E-03   0.0000000000E+00   0.0000000000E+00   0.0000000000E+00   0.9132380757E-01
   0.9274351498E-01   0.3821493123E-01   0.7111261511E-04  -0.1068227345E-04   0.2844504604E-03  -0.4272909381E-04  -0.1753258714E-01  -0.9001786756E-01  -0.3226513641E-01   0.1254053145E-01   0.0000000000E+00   0.0000000000E+00   0.1915231405E-03  -0.7507855049E-03   0.1630269088E-03   0.0000000000E+00   0.0000000000E+00   0.0000000000E+00   0.6439205276E-01
   0.1083950726E+00   0.4606482170E-01   0.6964251905E-04  -0.6743959537E-05   0.2785700762E-03  -0.2697583815E-04   0.3103110118E-01  -0.3683582583E-01  -0.1741417395E-02  -0.1869560633E-01   0.0000000000E+00   0.0000000000E+00   0.4260427415E-03  -0.4562273097E-03  -0.2430428823E-03   0.0000000000E+00   0.0000000000E+00   0.0000000000E+00   0.6407822329E-01
   0.9641873855E-01   0.6348393225E-01   0.6152843021E-04  -0.1165248961E-04   0.2461137209E-03  -0.4660995844E-04   0.5845841262E-01  -0.2250347463E-01   0.1078648140E-01  -0.2783269345E-01   0.0000000000E+00   0.0000000000E+00   0.6197351059E-03  -0.4327694284E-03  -0.3618250148E-03   0.0000000000E+00   0.0000000000E+00   0.0000000000E+00   0.8575461071E-01
   0.8346852317E-01   0.5547624663E-01   0.6431273462E-04  -0.1615541316E-04   0.2572509385E-03  -0.6462165265E-04   0.1571881743E-01  -0.2010821331E-01  -0.1316818763E-02  -0.8989116364E-02   0.0000000000E+00   0.0000000000E+00   0.2214632705E-03  -0.2442881291E-03  -0.1168585127E-03   0.0000000000E+00   0.0000000000E+00   0.0000000000E+00   0.3492654958E-01
   0.9845357709E-01   0.1948270959E-01   0.7501009803E-04  -0.5264561245E-05   0.3000403921E-03  -0.2105824498E-04  -0.1844914124E-01  -0.1404709032E+00  -0.4767601334E-01   0.1752810027E-01   0.0000000000E+00   0.0000000000E+00   0.3799493373E-03  -0.1206333569E-02   0.2278653035E-03   0.0000000000E+00   0.0000000000E+00   0.0000000000E+00   0.1087119992E+00
   0.1003834544E+00   0.0000000000E+00   0.7669068531E-04   0.0000000000E+00   0.3067627412E-03   0.0000000000E+00  -0.2512884186E-01  -0.1521474713E+00  -0.5318289394E-01  -0.9570000415E-02   0.0000000000E+00   0.0000000000E+00   0.3647026770E-03  -0.1286539505E-02  -0.1244100054E-03   0.0000000000E+00   0.0000000000E+00   0.0000000000E+00   0.1161351775E+00
   0.1212240892E+00   0.0000000000E+00   0.7815183898E-04   0.0000000000E+00   0.3126073559E-03   0.0000000000E+00   0.3763203149E-02  -0.4813923277E-01  -0.1331280889E-01  -0.1027051487E-01   0.0000000000E+00   0.0000000000E+00   0.2219881565E-03  -0.4527435105E-03  -0.1335166933E-03   0.0000000000E+00   0.0000000000E+00   0.0000000000E+00   0.4843874997E-01
   0.1221100361E+00   0.2610015099E-01   0.7583442070E-04  -0.2431542051E-05   0.3033376828E-03  -0.9726168204E-05   0.1474456612E-01  -0.4649284208E-01  -0.9524482790E-02  -0.1232639487E-01   0.0000000000E+00   0.0000000000E+00   0.3154976358E-03  -0.4805886708E-03  -0.1602431333E-03   0.0000000000E+00   0.0000000000E+00   0.0000000000E+00   0.6090124424E-01
   0.2109519886E+00   0.3762859957E-01   0.8156992776E-04  -0.9266450683E-06   0.3262797110E-03  -0.3706580273E-05   0.6677844005E-01   0.1013712565E-01   0.2307466971E-01  -0.1552433542E-01   0.0000000000E+00   0.0000000000E+00   0.5681490144E-03  -0.1681880728E-03  -0.2018163605E-03   0.0000000000E+00   0.0000000000E+00   0.0000000000E+00   0.5782356221E-01
   0.1908543711E+00   0.3837730492E-01   0.7929222066E-04  -0.1039095662E-05   0.3171688826E-03  -0.4156382646E-05   0.6031097905E-01   0.3816857696E-02   0.1923835102E-01  -0.1997993783E-01   0.0000000000E+00   0.0000000000E+00   0.5339441643E-03  -0.2004794132E-03  -0.2597391918E-03   0.0000000000E+00   0.0000000000E+00   0.0000000000E+00   0.6101068232E-01
   0.1871111203E+00   0.1901070969E-01   0.8059366394E-04  -0.4421810457E-06   0.3223746558E-03  -0.1768724183E-05   0.4767474713E-01   0.6198556792E-02   0.1616199118E-01  -0.9861926561E-02   0.0000000000E+00   0.0000000000E+00   0.4096658274E-03  -0.1295246470E-03  -0.1282050453E-03   0.0000000000E+00   0.0000000000E+00   0.0000000000E+00   0.4162803688E-01
   0.2076444979E+00   0.1873603795E-01   0.8244318411E-04  -0.3971898792E-06   0.3297727364E-03  -0.1588759517E-05   0.5801511817E-01   0.1179030924E-01   0.2094162822E-01  -0.7777321059E-02   0.0000000000E+00   0.0000000000E+00   0.4819553693E-03  -0.1189671467E-03  -0.1011051738E-03   0.0000000000E+00   0.0000000000E+00   0.0000000000E+00   0.4469841605E-01
   0.1576419242E+00   0.2158351203E+00   0.4371544168E-04  -0.2446553376E-04   0.1748617667E-03  -0.9786213503E-04   0.1661613883E+00  -0.3628434205E-02   0.4875988621E-01   0.4387200291E-02   0.0000000000E+00   0.0000000000E+00   0.1526219526E-02  -0.6810481654E-03   0.5703360378E-04   0.0000000000E+00   0.0000000000E+00   0.0000000000E+00   0.1507733472E+00
   0.1566591426E+00   0.2324711795E+00   0.4129432021E-04  -0.2686449964E-04   0.1651772809E-03  -0.1074579986E-03   0.1701182455E+00  -0.1741991124E-02   0.5051287633E-01   0.2769704453E-02   0.0000000000E+00   0.0000000000E+00   0.1554869800E-02  -0.6793132769E-03   0.3600615789E-04   0.0000000000E+00   0.0000000000E+00   0.0000000000E+00   0.1526876698E+00
   0.1371558283E+00   0.2324804317E+00   0.3529146640E-04  -0.2994046399E-04   0.1411658656E-03  -0.1197618560E-03   0.1666132708E+00  -0.1746742908E-02   0.4945995836E-01   0.4944593263E-02   0.0000000000E+00   0.0000000000E+00   0.1522993061E-02  -0.6656871165E-03   0.6427971242E-04   0.0000000000E+00   0.0000000000E+00   0.0000000000E+00   0.1497511034E+00
   0.1384045356E+00   0.2156753836E+00   0.3788511910E-04  -0.2747788619E-04   0.1515404764E-03  -0.1099115448E-03   0.1649181599E+00  -0.4046288862E-02   0.4826156131E-01   0.8117908350E-02   0.0000000000E+00   0.0000000000E+00   0.1516535782E-02  -0.6800020522E-03   0.1055328086E-03   0.0000000000E+00   0.0000000000E+00   0.0000000000E+00   0.1504480357E+00
   0.0000000000E+00   0.9983403722E-01   0.0000000000E+00  -0.3319275520E-04   0.0000000000E+00  -0.1327710208E-03   0.4600216480E+00   0.4230774944E-01   0.1506988192E+00   0.5442428123E-02   0.0000000000E+00   0.0000000000E+00   0.4021196774E-02  -0.1409083907E-02   0.7075156560E-04   0.0000000000E+00   0.0000000000E+00   0.0000000000E+00   0.3714862397E+00
   0.1958626927E-01   0.9791753101E-01   0.1544737453E-04  -0.3219911729E-04   0.6178949811E-04  -0.1287964692E-03   0.4225678502E+00   0.4001550203E-01   0.1387750057E+00  -0.6343861932E-01   0.0000000000E+00   0.0000000000E+00   0.3689306979E-02  -0.1283873547E-02  -0.8247020511E-03   0.0000000000E+00   0.0000000000E+00   0.0000000000E+00   0.3577388123E+00
   0.1682759148E-01   0.1511335820E+00   0.5706535176E-05  -0.4062660207E-04   0.2282614070E-04  -0.1625064083E-03   0.2016147623E+00   0.3378471193E-01   0.7061984226E-01   0.6204242874E-02   0.0000000000E+00   0.0000000000E+00   0.1702933960E-02  -0.4788566944E-03   0.8065515737E-04   0.0000000000E+00   0.0000000000E+00   0.0000000000E+00   0.1537856208E+00
   0.0000000000E+00   0.1497940185E+00   0.0000000000E+00  -0.4119750748E-04   0.0000000000E+00  -0.1647900299E-03   0.2037729418E+00   0.3842423743E-01   0.7265915375E-01   0.4746238054E-02   0.0000000000E+00   0.0000000000E+00   0.1704479244E-02  -0.4450539122E-03   0.6170109471E-04   0.0000000000E+00   0.0000000000E+00   0.0000000000E+00   0.1512788620E+00
   0.5115001244E-01   0.1384999006E+00   0.1914046851E-04  -0.3394788473E-04   0.7656187405E-04  -0.1357915389E-03   0.2078823080E+00   0.1275511129E-01   0.6619122579E-01   0.1083055328E-01   0.0000000000E+00   0.0000000000E+00   0.1841984069E-02  -0.6946694884E-03   0.1407971927E-03   0.0000000000E+00   0.0000000000E+00   0.0000000000E+00   0.1755011446E+00
   0.4912942806E-01   0.1538782453E+00   0.1650485225E-04  -0.3634614103E-04   0.6601940900E-04  -0.1453845641E-03   0.1934082394E+00   0.1470692708E-01   0.6243454996E-01   0.1686968596E-01   0.0000000000E+00   0.0000000000E+00   0.1702657963E-02  -0.6204590974E-03   0.2193059175E-03   0.0000000000E+00   0.0000000000E+00   0.0000000000E+00   0.1629876815E+00
   0.3323147823E-01   0.1525420555E+00   0.1120270566E-04  -0.3887989452E-04   0.4481082266E-04  -0.1555195781E-03   0.1985990820E+00   0.2567482397E-01   0.6728217180E-01   0.1292442949E-01   0.0000000000E+00   0.0000000000E+00   0.1707119833E-02  -0.5408955217E-03   0.1680175834E-03   0.0000000000E+00   0.0000000000E+00   0.0000000000E+00   0.1588110137E+00
   0.3443791302E-01   0.1355559965E+00   0.1328728485E-04  -0.3675829144E-04   0.5314913940E-04  -0.1470331657E-03   0.2193274777E+00   0.2704673920E-01   0.7391226508E-01   0.1279017437E-01   0.0000000000E+00   0.0000000000E+00   0.1890397764E-02  -0.6092518364E-03   0.1662722668E-03   0.0000000000E+00   0.0000000000E+00   0.0000000000E+00   0.1719333620E+00
   0.1671039709E-01   0.1675923945E+00   0.5146158594E-05  -0.4214870292E-04   0.2058463438E-04  -0.1685948117E-03   0.1825517506E+00   0.2841181723E-01   0.6328907036E-01   0.7564264397E-02   0.0000000000E+00   0.0000000000E+00   0.1550414843E-02  -0.4534042906E-03   0.9833543716E-04   0.0000000000E+00   0.0000000000E+00   0.0000000000E+00   0.1407457144E+00
   0.0000000000E+00   0.1664534725E+00   0.0000000000E+00  -0.4263990217E-04   0.0000000000E+00  -0.1705596087E-03   0.1826776208E+00   0.3081330511E-01   0.6404727777E-01   0.4046219838E-02   0.0000000000E+00   0.0000000000E+00   0.1542194459E-02  -0.4320416446E-03   0.5260085789E-04   0.0000000000E+00   0.0000000000E+00   0.0000000000E+00   0.1383169363E+00
   0.1711593918E-01   0.1839073575E+00   0.4895355700E-05  -0.4363409146E-04   0.1958142280E-04  -0.1745363659E-03   0.1667692550E+00   0.1996432390E-01   0.5602007368E-01   0.7415708399E-02   0.0000000000E+00   0.0000000000E+00   0.1439739358E-02  -0.4687247471E-03   0.9640420919E-04   0.0000000000E+00   0.0000000000E+00   0.0000000000E+00   0.1333546599E+00
   0.3344211470E-01   0.1684042625E+00   0.1032078073E-04  -0.4052590440E-04   0.4128312293E-04  -0.1621036176E-03   0.1811444202E+00   0.2068846616E-01   0.6054986590E-01   0.1610364098E-01   0.0000000000E+00   0.0000000000E+00   0.1567729206E-02  -0.5181981967E-03   0.2093473327E-03   0.0000000000E+00   0.0000000000E+00   0.0000000000E+00   0.1470101029E+00
   0.3456302364E-01   0.1840691908E+00   0.9944307253E-05  -0.4200844510E-04   0.3977722901E-04  -0.1680337804E-03   0.1672898759E+00   0.1513118192E-01   0.5472631734E-01   0.1555193319E-01   0.0000000000E+00   0.0000000000E+00   0.1463326261E-02  -0.5147367605E-03   0.2021751315E-03   0.0000000000E+00   0.0000000000E+00   0.0000000000E+00   0.1393608640E+00
   0.1946195689E-01   0.2497518791E+00   0.3502358286E-05  -0.4962417774E-04   0.1400943314E-04  -0.1984967110E-03   0.9966889504E-01  -0.3012123298E-02   0.2899703152E-01   0.5516229816E-03   0.0000000000E+00   0.0000000000E+00   0.9187342257E-03  -0.4161190126E-03   0.7171098761E-05   0.0000000000E+00   0.0000000000E+00   0.0000000000E+00   0.9114883335E-01
   0.3852079123E-01   0.2327116361E+00   0.8595105215E-05  -0.4652877048E-04   0.3438042086E-04  -0.1861150819E-03   0.1287594969E+00   0.2670184633E-02   0.3942890445E-01   0.7311618087E-02   0.0000000000E+00   0.0000000000E+00   0.1161297702E-02  -0.4778633577E-03   0.9505103513E-04   0.0000000000E+00   0.0000000000E+00   0.0000000000E+00   0.1130999779E+00
   0.3892496586E-01   0.2497597889E+00   0.7215112174E-05  -0.4804222306E-04   0.2886044870E-04  -0.1921688922E-03   0.1084764788E+00  -0.2594645044E-02   0.3176455014E-01   0.2779186189E-02   0.0000000000E+00   0.0000000000E+00   0.9972550732E-03  -0.4466695374E-03   0.3612942046E-04   0.0000000000E+00   0.0000000000E+00   0.0000000000E+00   0.9858247733E-01
   0.3296528300E+00   0.0000000000E+00   0.9722979590E-04   0.0000000000E+00   0.3889191836E-03   0.0000000000E+00   0.8302808222E-01   0.2393688933E-01   0.3208949146E-01  -0.2408557632E-03   0.0000000000E+00   0.0000000000E+00   0.6622016798E-03  -0.1059838277E-03  -0.3131124922E-05   0.0000000000E+00   0.0000000000E+00   0.0000000000E+00   0.5546455448E-01
   0.3504999940E+00   0.0000000000E+00   0.1000000000E-03   0.0000000000E+00   0.4000000000E-03   0.0000000000E+00   0.8351379752E-01   0.2407970393E-01   0.3227805044E-01  -0.1483790203E-05   0.0000000000E+00   0.0000000000E+00   0.6660647121E-03  -0.1065785046E-03  -0.1928927263E-07   0.0000000000E+00   0.0000000000E+00   0.0000000000E+00   0.5578860459E-01
   0.3504999940E+00   0.1922867395E-01   0.1000000000E-03  -0.4191893133E-06   0.4000000000E-03  -0.1676757253E-05   0.8442070751E-01   0.2366850788E-01   0.3242676462E-01  -0.1393961901E-04   0.0000000000E+00   0.0000000000E+00   0.6759212576E-03  -0.1138573375E-03  -0.1812150472E-06   0.0000000000E+00   0.0000000000E+00   0.0000000000E+00   0.5687800061E-01
   0.3302491331E+00   0.1871251695E-01   0.9726922721E-04  -0.4056707959E-06   0.3890769088E-03  -0.1622683183E-05   0.8399201786E-01   0.2355665607E-01   0.3226460218E-01  -0.7742574061E-03   0.0000000000E+00   0.0000000000E+00   0.6724564039E-03  -0.1132032995E-03  -0.1006534628E-04   0.0000000000E+00   0.0000000000E+00   0.0000000000E+00   0.5660035386E-01
   0.3504999940E+00   0.3845706903E-01   0.1000000000E-03  -0.8941745386E-06   0.4000000000E-03  -0.3576698154E-05   0.8717889670E-01   0.2247743806E-01   0.3289690043E-01  -0.1658589229E-04   0.0000000000E+00   0.0000000000E+00   0.7056659516E-03  -0.1354530108E-03  -0.2156165997E-06   0.0000000000E+00   0.0000000000E+00   0.0000000000E+00   0.6016191034E-01
   0.3306918865E+00   0.3767867606E-01   0.9721169021E-04  -0.8712883692E-06   0.3888467608E-03  -0.3485153477E-05   0.8684373729E-01   0.2242873816E-01   0.3278174264E-01  -0.1602566467E-02   0.0000000000E+00   0.0000000000E+00   0.7028059305E-03  -0.1345890582E-03  -0.2083336407E-04   0.0000000000E+00   0.0000000000E+00   0.0000000000E+00   0.5996493984E-01
   0.3310438863E+00   0.5675549251E-01   0.9707545881E-04  -0.1446518214E-05   0.3883018352E-03  -0.5786072855E-05   0.9142186529E-01   0.2061985616E-01   0.3361251643E-01  -0.2166367143E-02   0.0000000000E+00   0.0000000000E+00   0.7515215352E-03  -0.1689045836E-03  -0.2816277285E-04   0.0000000000E+00   0.0000000000E+00   0.0000000000E+00   0.6537293435E-01
   0.3313220425E+00   0.7594576087E-01   0.9687509014E-04  -0.2177845691E-05   0.3875003606E-03  -0.8711382766E-05   0.9746583664E-01   0.1828551038E-01   0.3472540411E-01  -0.2573120001E-02   0.0000000000E+00   0.0000000000E+00   0.8156256230E-03  -0.2137186184E-03  -0.3345056001E-04   0.0000000000E+00   0.0000000000E+00   0.0000000000E+00   0.7248925830E-01
   0.3122805298E+00   0.7513470769E-01   0.9379855219E-04  -0.2161022229E-05   0.3751942088E-03  -0.8644088918E-05   0.9659380635E-01   0.1763185378E-01   0.3426769804E-01  -0.5123357209E-02   0.0000000000E+00   0.0000000000E+00   0.8102394080E-03  -0.2162659753E-03  -0.6660364372E-04   0.0000000000E+00   0.0000000000E+00   0.0000000000E+00   0.7262065907E-01
   0.3116158352E+00   0.5604606421E-01   0.9418344150E-04  -0.1426937509E-05   0.3767337660E-03  -0.5707750035E-05   0.9032825517E-01   0.2002022883E-01   0.3310454520E-01  -0.4340170245E-02   0.0000000000E+00   0.0000000000E+00   0.7439082296E-03  -0.1700961128E-03  -0.5642221319E-04   0.0000000000E+00   0.0000000000E+00   0.0000000000E+00   0.6518289327E-01
   0.3314654213E+00   0.9524049072E-01   0.9661286549E-04  -0.3102015565E-05   0.3864514620E-03  -0.1240806226E-04   0.1046381777E+00   0.1557948108E-01   0.3606529762E-01  -0.2786227445E-02   0.0000000000E+00   0.0000000000E+00   0.8914474404E-03  -0.2663156150E-03  -0.3622095678E-04   0.0000000000E+00   0.0000000000E+00   0.0000000000E+00   0.8090840006E-01
   0.3126550993E+00   0.9438514944E-01   0.9328885909E-04  -0.3094511305E-05   0.3731554364E-03  -0.1237804522E-04   0.1040072324E+00   0.1491260175E-01   0.3567595025E-01  -0.5510683021E-02   0.0000000000E+00   0.0000000000E+00   0.8883066681E-03  -0.2699235304E-03  -0.7163887927E-04   0.0000000000E+00   0.0000000000E+00   0.0000000000E+00   0.8128291394E-01
   0.3314502614E+00   0.1146883223E+00   0.9629288459E-04  -0.4248333869E-05   0.3851715384E-03  -0.1699333548E-04   0.1126359673E+00   0.1272263758E-01   0.3760758147E-01  -0.2844173750E-02   0.0000000000E+00   0.0000000000E+00   0.9753690159E-03  -0.3235042705E-03  -0.3697425875E-04   0.0000000000E+00   0.0000000000E+00   0.0000000000E+00   0.9019903167E-01
   0.3313073260E+00   0.1342468880E+00   0.9592859401E-04  -0.5629205086E-05   0.3837143761E-03  -0.2251682034E-04   0.1210854357E+00   0.9897317718E-02   0.3929482603E-01  -0.2733669814E-02   0.0000000000E+00   0.0000000000E+00   0.1063277926E-02  -0.3821676081E-03  -0.3553770759E-04   0.0000000000E+00   0.0000000000E+00   0.0000000000E+00   0.9988395865E-01
   0.3122573104E+00   0.1337652363E+00   0.9189067596E-04  -0.5689135348E-05   0.3675627039E-03  -0.2275654139E-04   0.1210797798E+00   0.9189550505E-02   0.3908079910E-01  -0.5360525115E-02   0.0000000000E+00   0.0000000000E+00   0.1065986750E-02  -0.3885862318E-03  -0.6968682650E-04   0.0000000000E+00   0.0000000000E+00   0.0000000000E+00   0.1007574356E+00
   0.3126492553E+00   0.1139142126E+00   0.9265045444E-04  -0.4262086569E-05   0.3706018178E-03  -0.1704834627E-04   0.1122709393E+00   0.1198926261E-01   0.3727806056E-01  -0.5573431166E-02   0.0000000000E+00   0.0000000000E+00   0.9749074231E-03  -0.3287543734E-03  -0.7245460516E-04   0.0000000000E+00   0.0000000000E+00   0.0000000000E+00   0.9083000146E-01
   0.2894549945E+00   0.1826223030E-01   0.9188609178E-04  -0.3884599257E-06   0.3675443671E-03  -0.1553839703E-05   0.8023381088E-01   0.2210538709E-01   0.3070175939E-01  -0.2406806755E-02   0.0000000000E+00   0.0000000000E+00   0.6439166694E-03  -0.1117528399E-03  -0.3128848781E-04   0.0000000000E+00   0.0000000000E+00   0.0000000000E+00   0.5451288047E-01
   0.2879590858E+00   0.0000000000E+00   0.9181836775E-04   0.0000000000E+00   0.3672734710E-03   0.0000000000E+00   0.7894572534E-01   0.2244835234E-01   0.3041822330E-01  -0.7578546653E-03   0.0000000000E+00   0.0000000000E+00   0.6308575264E-03  -0.1036083225E-03  -0.9852110649E-05   0.0000000000E+00   0.0000000000E+00   0.0000000000E+00   0.5294855823E-01
   0.3088057947E+00   0.0000000000E+00   0.9449153983E-04   0.0000000000E+00   0.3779661593E-03   0.0000000000E+00   0.8152885423E-01   0.2339937526E-01   0.3147846885E-01  -0.4872619991E-03   0.0000000000E+00   0.0000000000E+00   0.6506550100E-03  -0.1050282166E-03  -0.6334405989E-05   0.0000000000E+00   0.0000000000E+00   0.0000000000E+00   0.5453419667E-01
   0.3098603744E+00   0.1840427420E-01   0.9455008192E-04  -0.3958208889E-06   0.3782003277E-03  -0.1583283555E-05   0.8258331338E-01   0.2303057554E-01   0.3168416668E-01  -0.1558803504E-02   0.0000000000E+00   0.0000000000E+00   0.6616889072E-03  -0.1124966848E-03  -0.2026444555E-04   0.0000000000E+00   0.0000000000E+00   0.0000000000E+00   0.5579991891E-01
   0.2125369619E+00   0.1636326986E+00   0.6594978410E-04  -0.1158267187E-04   0.2637991364E-03  -0.4633068750E-04   0.1440425412E+00  -0.5006476251E-02   0.4171081949E-01  -0.9719107823E-02   0.0000000000E+00   0.0000000000E+00   0.1330312383E-02  -0.6073248447E-03  -0.1263484017E-03   0.0000000000E+00   0.0000000000E+00   0.0000000000E+00   0.1330986309E+00
   0.2166536713E+00   0.1467224927E+00   0.6903645009E-04  -0.9352462573E-05   0.2761458003E-03  -0.3740985029E-04   0.1346158214E+00  -0.5237418639E-02   0.3881352083E-01  -0.1319579580E-01   0.0000000000E+00   0.0000000000E+00   0.1245429908E-02  -0.5726622131E-03  -0.1715453454E-03   0.0000000000E+00   0.0000000000E+00   0.0000000000E+00   0.1259030520E+00
   0.2313182553E+00   0.1466926299E+00   0.7265606977E-04  -0.8613612827E-05   0.2906242791E-03  -0.3445445131E-04   0.1333713103E+00  -0.1803379900E-02   0.3947037911E-01  -0.1243661777E-01   0.0000000000E+00   0.0000000000E+00   0.1220712105E-02  -0.5365588671E-03  -0.1616760310E-03   0.0000000000E+00   0.0000000000E+00   0.0000000000E+00   0.1218944527E+00
   0.2325052630E+00   0.1630533870E+00   0.7123079675E-04  -0.1035760553E-04   0.2849231870E-03  -0.4143042212E-04   0.1409441248E+00  -0.1617333415E-02   0.4179803743E-01  -0.9917963656E-02   0.0000000000E+00   0.0000000000E+00   0.1288899136E-02  -0.5643998209E-03  -0.1289335275E-03   0.0000000000E+00   0.0000000000E+00   0.0000000000E+00   0.1277228218E+00
   0.2281882176E+00   0.1845518092E-01   0.8455232205E-04  -0.3822755862E-06   0.3382092882E-03  -0.1529102345E-05   0.6597678391E-01   0.1586763988E-01   0.2455332714E-01  -0.5965005029E-02   0.0000000000E+00   0.0000000000E+00   0.5385049380E-03  -0.1129139343E-03  -0.7754506537E-04   0.0000000000E+00   0.0000000000E+00   0.0000000000E+00   0.4762854008E-01
   0.2310381291E+00   0.3704382488E-01   0.8396922866E-04  -0.8679830320E-06   0.3358769146E-03  -0.3471932128E-05   0.7257905826E-01   0.1425639296E-01   0.2605063537E-01  -0.1196532900E-01   0.0000000000E+00   0.0000000000E+00   0.6048694976E-03  -0.1533251513E-03  -0.1555492770E-03   0.0000000000E+00   0.0000000000E+00   0.0000000000E+00   0.5715000067E-01
   0.1837378585E+00   0.0000000000E+00   0.8090429524E-04   0.0000000000E+00   0.3236171810E-03   0.0000000000E+00   0.4241720303E-01   0.5825738637E-02   0.1447288250E-01  -0.3437873378E-02   0.0000000000E+00   0.0000000000E+00   0.3632761669E-03  -0.1124128702E-03  -0.4469235391E-04   0.0000000000E+00   0.0000000000E+00   0.0000000000E+00   0.3301856956E-01
   0.2045796096E+00   0.0000000000E+00   0.8258871421E-04   0.0000000000E+00   0.3303548568E-03   0.0000000000E+00   0.5400295345E-01   0.1220421288E-01   0.1986214990E-01  -0.2578136763E-02   0.0000000000E+00   0.0000000000E+00   0.4438304461E-03  -0.9955318124E-04  -0.3351577792E-04   0.0000000000E+00   0.0000000000E+00   0.0000000000E+00   0.3839489729E-01
   0.1420603286E+00   0.0000000000E+00   0.7873252785E-04   0.0000000000E+00   0.3149301114E-03   0.0000000000E+00   0.8401514279E-02  -0.2316221145E-01  -0.4428209150E-02  -0.8101391256E-02   0.0000000000E+00   0.0000000000E+00   0.1667864046E-03  -0.2435420298E-03  -0.1053180863E-03   0.0000000000E+00   0.0000000000E+00   0.0000000000E+00   0.3004337569E-01
   0.1460579458E+00   0.2097692206E-01   0.7765236580E-04  -0.9278672853E-06   0.3106094632E-03  -0.3711469141E-05   0.1901990555E-01  -0.1849744509E-01   0.1567381381E-03  -0.1407136736E-01   0.0000000000E+00   0.0000000000E+00   0.2452211764E-03  -0.2425043820E-03  -0.1829277757E-03   0.0000000000E+00   0.0000000000E+00   0.0000000000E+00   0.4150420866E-01
   0.3504999940E+00   0.2499107238E+00   0.1000000000E-03  -0.1785524699E-04   0.4000000000E-03  -0.7142098797E-04   0.1648296873E+00   0.8002801213E-03   0.4968899023E-01   0.4274255799E-03   0.0000000000E+00   0.0000000000E+00   0.1496829062E-02  -0.6355532314E-03   0.5556532539E-05   0.0000000000E+00   0.0000000000E+00   0.0000000000E+00   0.1458667898E+00
   0.3310264278E+00   0.2499103430E+00   0.9417396747E-04  -0.1793140322E-04   0.3766958699E-03  -0.7172561289E-04   0.1652979509E+00   0.8103843076E-03   0.4983250057E-01  -0.3285773024E-03   0.0000000000E+00   0.0000000000E+00   0.1501050855E-02  -0.6372875114E-03  -0.4271504932E-05   0.0000000000E+00   0.0000000000E+00   0.0000000000E+00   0.1462747574E+00
   0.3312606860E+00   0.2309690881E+00   0.9442660748E-04  -0.1553558417E-04   0.3777064299E-03  -0.6214233669E-04   0.1597375950E+00   0.2990455603E-03   0.4801099216E-01  -0.8147286041E-03   0.0000000000E+00   0.0000000000E+00   0.1452445837E-02  -0.6202553058E-03  -0.1059147185E-04   0.0000000000E+00   0.0000000000E+00   0.0000000000E+00   0.1417461885E+00
   0.3504999940E+00   0.2306920670E+00   0.1000000000E-03  -0.1543299741E-04   0.4000000000E-03  -0.6173198965E-04   0.1594238269E+00   0.3617175966E-03   0.4793566334E-01   0.3858398948E-03   0.0000000000E+00   0.0000000000E+00   0.1449346126E-02  -0.6184612947E-03   0.5015918633E-05   0.0000000000E+00   0.0000000000E+00   0.0000000000E+00   0.1414115094E+00
   0.2734066858E+00   0.2315816605E+00   0.7742075583E-04  -0.1677229499E-04   0.3096830233E-03  -0.6708917994E-04   0.1642848521E+00  -0.8882334883E-04   0.4925880863E-01  -0.2231296761E-02   0.0000000000E+00   0.0000000000E+00   0.1495338565E-02  -0.6415192157E-03  -0.2900685789E-04   0.0000000000E+00   0.0000000000E+00   0.0000000000E+00   0.1461470577E+00
   0.2926782807E+00   0.2314087755E+00   0.8314533876E-04  -0.1618249943E-04   0.3325813550E-03  -0.6472999772E-04   0.1623159970E+00   0.8963910491E-04   0.4872169084E-01  -0.1888395587E-02   0.0000000000E+00   0.0000000000E+00   0.1476725980E-02  -0.6322166725E-03  -0.2454914263E-04   0.0000000000E+00   0.0000000000E+00   0.0000000000E+00   0.1442389171E+00
   0.2920786387E+00   0.2499070931E+00   0.8239634191E-04  -0.1858138456E-04   0.3295853676E-03  -0.7432553824E-04   0.1687972924E+00   0.9336241318E-03   0.5091927495E-01  -0.5537564449E-03   0.0000000000E+00   0.0000000000E+00   0.1532414226E-02  -0.6498134607E-03  -0.7198833784E-05   0.0000000000E+00   0.0000000000E+00   0.0000000000E+00   0.1492850436E+00
   0.2726041759E+00   0.2499040106E+00   0.7639098608E-04  -0.1919788099E-04   0.3055639443E-03  -0.7679152396E-04   0.1715593722E+00   0.1042411912E-02   0.5178053523E-01  -0.6447047524E-03   0.0000000000E+00   0.0000000000E+00   0.1557124880E-02  -0.6595956031E-03  -0.8381161782E-05   0.0000000000E+00   0.0000000000E+00   0.0000000000E+00   0.1516534973E+00
   0.3504999940E+00   0.1730320261E+00   0.1000000000E-03  -0.8980370861E-05   0.4000000000E-03  -0.3592148344E-04   0.1378789644E+00   0.5189362254E-02   0.4292049801E-01   0.2859439773E-03   0.0000000000E+00   0.0000000000E+00   0.1234460064E-02  -0.4905047648E-03   0.3717271705E-05   0.0000000000E+00   0.0000000000E+00   0.0000000000E+00   0.1184147272E+00
   0.3312543717E+00   0.1732690453E+00   0.9524993189E-04  -0.9054530451E-05   0.3809997276E-03  -0.3621812181E-04   0.1380340791E+00   0.4968846070E-02   0.4290087756E-01  -0.2222236552E-02   0.0000000000E+00   0.0000000000E+00   0.1236731620E-02  -0.4931164094E-03  -0.2888907518E-04   0.0000000000E+00   0.0000000000E+00   0.0000000000E+00   0.1187856739E+00
   0.3312475704E+00   0.1538111616E+00   0.9557648399E-04  -0.7238081602E-05   0.3823059359E-03  -0.2895232641E-04   0.1296517359E+00   0.7297731217E-02   0.4108484014E-01  -0.2542135416E-02   0.0000000000E+00   0.0000000000E+00   0.1151369645E-02  -0.4392324160E-03  -0.3304776041E-04   0.0000000000E+00   0.0000000000E+00   0.0000000000E+00   0.1095182924E+00
   0.3504999940E+00   0.1538101832E+00   0.1000000000E-03  -0.7195357515E-05   0.4000000000E-03  -0.2878143006E-04   0.1295313927E+00   0.7486378316E-02   0.4110533129E-01   0.2516994297E-03   0.0000000000E+00   0.0000000000E+00   0.1149538798E-02  -0.4370463887E-03   0.3272092586E-05   0.0000000000E+00   0.0000000000E+00   0.0000000000E+00   0.1091772426E+00
   0.3504999940E+00   0.1345872778E+00   0.1000000000E-03  -0.5622636430E-05   0.4000000000E-03  -0.2249054572E-04   0.1210048251E+00   0.1004570379E-01   0.3931515868E-01   0.1829182784E-03   0.0000000000E+00   0.0000000000E+00   0.1061965664E-02  -0.3805029136E-03   0.2377937619E-05   0.0000000000E+00   0.0000000000E+00   0.0000000000E+00   0.9958917210E-01
   0.3504999940E+00   0.1153632669E+00   0.1000000000E-03  -0.4269824529E-05   0.4000000000E-03  -0.1707929811E-04   0.1126045859E+00   0.1277400165E-01   0.3761357627E-01   0.1332027663E-03   0.0000000000E+00   0.0000000000E+00   0.9748831255E-03  -0.3229144701E-03   0.1731635962E-05   0.0000000000E+00   0.0000000000E+00   0.0000000000E+00   0.8999915279E-01
   0.3504999940E+00   0.9613816217E-01   0.1000000000E-03  -0.3137145836E-05   0.4000000000E-03  -0.1254858334E-04   0.1046790655E+00   0.1556980702E-01   0.3607466176E-01   0.7369242513E-04   0.0000000000E+00   0.0000000000E+00   0.8918572488E-03  -0.2665631117E-03   0.9580015267E-06   0.0000000000E+00   0.0000000000E+00   0.0000000000E+00   0.8080967476E-01
   0.3504999940E+00   0.7691201088E-01   0.1000000000E-03  -0.2213783975E-05   0.4000000000E-03  -0.8855135900E-05   0.9757889730E-01   0.1824570220E-01   0.3474737985E-01   0.2909481178E-04   0.0000000000E+00   0.0000000000E+00   0.8168097269E-03  -0.2145218094E-03   0.3782325531E-06   0.0000000000E+00   0.0000000000E+00   0.0000000000E+00   0.7248318974E-01
   0.3504999940E+00   0.5768492042E-01   0.1000000000E-03  -0.1477515094E-05   0.4000000000E-03  -0.5910060377E-05   0.9164376242E-01   0.2061371283E-01   0.3367724258E-01  -0.2182668407E-05   0.0000000000E+00   0.0000000000E+00   0.7535647580E-03  -0.1698258867E-03  -0.2837468930E-07   0.0000000000E+00   0.0000000000E+00   0.0000000000E+00   0.6546559236E-01
   0.0000000000E+00   0.2497491563E+00   0.0000000000E+00  -0.5016874555E-04   0.0000000000E+00  -0.2006749822E-03   0.9652367319E-01  -0.3160034530E-02   0.2800909160E-01   0.3154956877E-02   0.0000000000E+00   0.0000000000E+00   0.8906895607E-03  -0.4051986397E-03   0.4101443940E-04   0.0000000000E+00   0.0000000000E+00   0.0000000000E+00   0.8849256108E-01
   0.3763394368E-01   0.2159938939E+00   0.9380895507E-05  -0.4495721023E-04   0.3752358203E-04  -0.1798288409E-03   0.1426393534E+00   0.4879986605E-02   0.4425580199E-01   0.1255125554E-01   0.0000000000E+00   0.0000000000E+00   0.1278986168E-02  -0.5118856000E-03   0.1631663220E-03   0.0000000000E+00   0.0000000000E+00   0.0000000000E+00   0.1247378782E+00
   0.3624210054E-01   0.1998874344E+00   0.9758608009E-05  -0.4345291551E-04   0.3903443203E-04  -0.1738116620E-03   0.1550664995E+00   0.9652822147E-02   0.4941579650E-01   0.1463453464E-01   0.0000000000E+00   0.0000000000E+00   0.1373459139E-02  -0.5169186666E-03   0.1902489503E-03   0.0000000000E+00   0.0000000000E+00   0.0000000000E+00   0.1325462101E+00
   0.5565924703E-01   0.1984062991E+00   0.1526500664E-04  -0.4054498539E-04   0.6106002656E-04  -0.1621799416E-03   0.1595691310E+00   0.5602167669E-02   0.4955138960E-01   0.1935686322E-01   0.0000000000E+00   0.0000000000E+00   0.1430230638E-02  -0.5713398852E-03   0.2516392219E-03   0.0000000000E+00   0.0000000000E+00   0.0000000000E+00   0.1414645995E+00
   0.5758013773E-01   0.2147149414E+00   0.1467952611E-04  -0.4208152110E-04   0.5871810444E-04  -0.1683260844E-03   0.1489740675E+00   0.2371781295E-02   0.4540375464E-01   0.1622154642E-01   0.0000000000E+00   0.0000000000E+00   0.1346414067E-02  -0.5594156535E-03   0.2108801035E-03   0.0000000000E+00   0.0000000000E+00   0.0000000000E+00   0.1334747825E+00
   0.1783145973E-01   0.2001896602E+00   0.4758325043E-05  -0.4514255757E-04   0.1903330017E-04  -0.1805702303E-03   0.1532673279E+00   0.1301054961E-01   0.4988336325E-01   0.6865260327E-02   0.0000000000E+00   0.0000000000E+00   0.1343991540E-02  -0.4793465772E-03   0.8924838425E-04   0.0000000000E+00   0.0000000000E+00   0.0000000000E+00   0.1266836748E+00
   0.5826501334E-01   0.2320988322E+00   0.1337708885E-04  -0.4385115247E-04   0.5350835541E-04  -0.1754046099E-03   0.1367158246E+00   0.1663220564E-02   0.4151371354E-01   0.9378580122E-02   0.0000000000E+00   0.0000000000E+00   0.1237627443E-02  -0.5180564087E-03   0.1219215416E-03   0.0000000000E+00   0.0000000000E+00   0.0000000000E+00   0.1214057695E+00
   0.1557485951E+00   0.2498531286E+00   0.3860682891E-04  -0.2937427694E-04   0.1544273156E-03  -0.1174971078E-03   0.1781044901E+00   0.9744928089E-03   0.5372369488E-01   0.1106029176E-02   0.0000000000E+00   0.0000000000E+00   0.1616950338E-02  -0.6857396269E-03   0.1437837928E-04   0.0000000000E+00   0.0000000000E+00   0.0000000000E+00   0.1575339408E+00
   0.1362731825E+00   0.2498380180E+00   0.3241450046E-04  -0.3239640165E-04   0.1296580019E-03  -0.1295856066E-03   0.1719320128E+00   0.5358528603E-03   0.5174035969E-01   0.1833188394E-02   0.0000000000E+00   0.0000000000E+00   0.1562491490E-02  -0.6656585888E-03   0.2383144912E-04   0.0000000000E+00   0.0000000000E+00   0.0000000000E+00   0.1523860703E+00
   0.1752247732E+00   0.2498663564E+00   0.4495523747E-04  -0.2672871854E-04   0.1798209499E-03  -0.1069148741E-03   0.1811313635E+00   0.1215822885E-02   0.5470415592E-01   0.4708373289E-03   0.0000000000E+00   0.0000000000E+00   0.1643553699E-02  -0.6953483295E-03   0.6120885275E-05   0.0000000000E+00   0.0000000000E+00   0.0000000000E+00   0.1600360909E+00
   0.1761611200E+00   0.2323751565E+00   0.4739660308E-04  -0.2419130940E-04   0.1895864123E-03  -0.9676523759E-04   0.1717556367E+00  -0.1575713433E-02   0.5105397698E-01   0.8883318216E-03   0.0000000000E+00   0.0000000000E+00   0.1569121576E-02  -0.6841859753E-03   0.1154831368E-04   0.0000000000E+00   0.0000000000E+00   0.0000000000E+00   0.1539394591E+00
   0.2254228906E+00   0.0000000000E+00   0.8457931641E-04   0.0000000000E+00   0.3383172656E-03   0.0000000000E+00   0.6295292831E-01   0.1609778857E-01   0.2371521506E-01  -0.1941091174E-02   0.0000000000E+00   0.0000000000E+00   0.5100902722E-03  -0.9902654447E-04  -0.2523418526E-04   0.0000000000E+00   0.0000000000E+00   0.0000000000E+00   0.4345764481E-01
   0.2462674264E+00   0.0000000000E+00   0.8681788694E-04   0.0000000000E+00   0.3472715478E-03   0.0000000000E+00   0.6992103233E-01   0.1898101100E-01   0.2667061300E-01  -0.1457438246E-02   0.0000000000E+00   0.0000000000E+00   0.5622554513E-03  -0.9996482599E-04  -0.1894669720E-04   0.0000000000E+00   0.0000000000E+00   0.0000000000E+00   0.4750755285E-01
   0.2486806299E+00   0.1834052353E-01   0.8685758056E-04  -0.3808744516E-06   0.3474303222E-03  -0.1523497806E-05   0.7212945332E-01   0.1866892873E-01   0.2723951461E-01  -0.4536762570E-02   0.0000000000E+00   0.0000000000E+00   0.5835692031E-03  -0.1114176165E-03  -0.5897791341E-04   0.0000000000E+00   0.0000000000E+00   0.0000000000E+00   0.5040420277E-01
   0.1968357549E+00   0.1994272989E+00   0.5743778943E-04  -0.1745682971E-04   0.2297511577E-03  -0.6982731884E-04   0.1595691641E+00  -0.4217656927E-02   0.4660545216E-01  -0.2907392070E-02   0.0000000000E+00   0.0000000000E+00   0.1468528256E-02  -0.6607004182E-03  -0.3779609691E-04   0.0000000000E+00   0.0000000000E+00   0.0000000000E+00   0.1452958386E+00
   0.2158745545E+00   0.1983138981E+00   0.6308590182E-04  -0.1567178774E-04   0.2523436073E-03  -0.6268715094E-04   0.1570765268E+00  -0.2533958531E-02   0.4636277048E-01  -0.4845805903E-02   0.0000000000E+00   0.0000000000E+00   0.1439278832E-02  -0.6356574772E-03  -0.6299547674E-04   0.0000000000E+00   0.0000000000E+00   0.0000000000E+00   0.1418886792E+00
   0.2158491889E+00   0.2150489177E+00   0.6142818595E-04  -0.1782606700E-04   0.2457127438E-03  -0.7130426801E-04   0.1635707069E+00  -0.1326276428E-02   0.4867332914E-01  -0.3239365904E-02   0.0000000000E+00   0.0000000000E+00   0.1493665911E-02  -0.6499948723E-03  -0.4211175675E-04   0.0000000000E+00   0.0000000000E+00   0.0000000000E+00   0.1465577156E+00
   0.1965005546E+00   0.2155232109E+00   0.5556932879E-04  -0.1962221448E-04   0.2222773151E-03  -0.7848885792E-04   0.1652827176E+00  -0.2185175550E-02   0.4892926263E-01  -0.1456926118E-02   0.0000000000E+00   0.0000000000E+00   0.1512594915E-02  -0.6644876963E-03  -0.1894003954E-04   0.0000000000E+00   0.0000000000E+00   0.0000000000E+00   0.1486819682E+00
   0.1176653023E+00   0.2322703848E+00   0.2948565159E-04  -0.3332303605E-04   0.1179426064E-03  -0.1332921442E-03   0.1609709985E+00  -0.1588211435E-02   0.4781483612E-01   0.7257825805E-02   0.0000000000E+00   0.0000000000E+00   0.1471030111E-02  -0.6422396182E-03   0.9435173546E-04   0.0000000000E+00   0.0000000000E+00   0.0000000000E+00   0.1449241176E+00
   0.1190412813E+00   0.2150935967E+00   0.3213026755E-04  -0.3082185770E-04   0.1285210702E-03  -0.1232874308E-03   0.1625963029E+00  -0.3945562338E-02   0.4759522216E-01   0.1208926946E-01   0.0000000000E+00   0.0000000000E+00   0.1495014049E-02  -0.6700301984E-03   0.1571605030E-03   0.0000000000E+00   0.0000000000E+00   0.0000000000E+00   0.1490874612E+00
   0.2141776297E+00   0.2498867273E+00   0.5774914268E-04  -0.2265453888E-04   0.2309965707E-03  -0.9061815551E-04   0.1802580404E+00   0.1334367459E-02   0.5447772236E-01  -0.3791277327E-03   0.0000000000E+00   0.0000000000E+00   0.1635144135E-02  -0.6908636137E-03  -0.4928660525E-05   0.0000000000E+00   0.0000000000E+00   0.0000000000E+00   0.1591603695E+00
   0.1947012549E+00   0.2498775474E+00   0.5136137927E-04  -0.2449051154E-04   0.2054455171E-03  -0.9796204617E-04   0.1816299595E+00   0.1327826618E-02   0.5488733583E-01  -0.2435186753E-04   0.0000000000E+00   0.0000000000E+00   0.1647654107E-02  -0.6962736197E-03  -0.3165742779E-06   0.0000000000E+00   0.0000000000E+00   0.0000000000E+00   0.1603886537E+00
   0.1957027929E+00   0.2323092792E+00   0.5353118238E-04  -0.2195596547E-04   0.2141247295E-03  -0.8782386189E-04   0.1717981527E+00  -0.1296022814E-02   0.5115063897E-01  -0.5867510485E-03   0.0000000000E+00   0.0000000000E+00   0.1568417679E-02  -0.6818066032E-03  -0.7627763630E-05   0.0000000000E+00   0.0000000000E+00   0.0000000000E+00   0.1537481177E+00
   0.2152103152E+00   0.2321830229E+00   0.5963383937E-04  -0.2014061769E-04   0.2385353575E-03  -0.8056247076E-04   0.1706136039E+00  -0.9672794887E-03   0.5089389732E-01  -0.1606212552E-02   0.0000000000E+00   0.0000000000E+00   0.1556356185E-02  -0.6741952985E-03  -0.2088076318E-04   0.0000000000E+00   0.0000000000E+00   0.0000000000E+00   0.1524528875E+00
   0.2346625439E+00   0.2318601432E+00   0.6567157012E-04  -0.1868655179E-04   0.2626862805E-03  -0.7474620718E-04   0.1687168397E+00  -0.6413535067E-03   0.5042264586E-01  -0.2180892427E-02   0.0000000000E+00   0.0000000000E+00   0.1537824520E-02  -0.6638319918E-03  -0.2835160155E-04   0.0000000000E+00   0.0000000000E+00   0.0000000000E+00   0.1505276200E+00
   0.2540549768E+00   0.2317361416E+00   0.7159375233E-04  -0.1759168562E-04   0.2863750093E-03  -0.7036674249E-04   0.1664815538E+00  -0.3468534528E-03   0.4984041010E-01  -0.2365601880E-02   0.0000000000E+00   0.0000000000E+00   0.1516334868E-02  -0.6524344262E-03  -0.3075282444E-04   0.0000000000E+00   0.0000000000E+00   0.0000000000E+00   0.1483134459E+00
   0.2531291981E+00   0.2498997343E+00   0.7028262278E-04  -0.2005314519E-04   0.2811304911E-03  -0.8021258074E-04   0.1746583632E+00   0.1161588437E-02   0.5274598548E-01  -0.6621820198E-03   0.0000000000E+00   0.0000000000E+00   0.1584860910E-02  -0.6705971615E-03  -0.8608366257E-05   0.0000000000E+00   0.0000000000E+00   0.0000000000E+00   0.1543136328E+00
   0.2336536615E+00   0.2498940463E+00   0.6406549314E-04  -0.2119073790E-04   0.2562619726E-03  -0.8476295162E-04   0.1777211828E+00   0.1268656891E-02   0.5369695191E-01  -0.5835486618E-03   0.0000000000E+00   0.0000000000E+00   0.1612315002E-02  -0.6815678352E-03  -0.7586132603E-05   0.0000000000E+00   0.0000000000E+00   0.0000000000E+00   0.1569532668E+00
   0.3115527007E+00   0.2499091596E+00   0.8831574196E-04  -0.1816807218E-04   0.3532629679E-03  -0.7267228871E-04   0.1666559778E+00   0.8518538068E-03   0.5025234947E-01  -0.3672460196E-03   0.0000000000E+00   0.0000000000E+00   0.1513247168E-02  -0.6422064437E-03  -0.4774198255E-05   0.0000000000E+00   0.0000000000E+00   0.0000000000E+00   0.1474478350E+00
   0.3119465350E+00   0.2311933301E+00   0.8880379496E-04  -0.1577818986E-04   0.3552151798E-03  -0.6311275943E-04   0.1607707042E+00   0.2353320496E-03   0.4830181088E-01  -0.1322157117E-02   0.0000000000E+00   0.0000000000E+00   0.1462095613E-02  -0.6248642247E-03  -0.1718804252E-04   0.0000000000E+00   0.0000000000E+00   0.0000000000E+00   0.1427302130E+00
   0.5577384010E-01   0.8301843682E-01   0.4336328099E-04  -0.2570453598E-04   0.1734531240E-03  -0.1028181439E-03   0.2032352127E+00   0.7188358256E-01   0.8253563857E-01  -0.9759280689E-01   0.0000000000E+00   0.0000000000E+00   0.1569094463E-02  -0.1384767281E-03  -0.1268706490E-02   0.0000000000E+00   0.0000000000E+00   0.0000000000E+00   0.2029823247E+00
   0.7213425530E-01   0.9403034456E-01   0.4086622030E-04  -0.2215472786E-04   0.1634648812E-03  -0.8861891144E-04   0.1541849236E+00  -0.8506827746E-02   0.4370342876E-01  -0.4216626736E-01   0.0000000000E+00   0.0000000000E+00   0.1436259433E-02  -0.6787333346E-03  -0.5481614757E-03   0.0000000000E+00   0.0000000000E+00   0.0000000000E+00   0.1612736376E+00
   0.6214780636E-01   0.1068546258E+00   0.3193969263E-04  -0.2675643739E-04   0.1277587705E-03  -0.1070257495E-03   0.1888293458E+00  -0.1869444904E-02   0.5608797027E-01  -0.2587197693E-01   0.0000000000E+00   0.0000000000E+00   0.1725637882E-02  -0.7534463973E-03  -0.3363357001E-03   0.0000000000E+00   0.0000000000E+00   0.0000000000E+00   0.1730399616E+00
   0.3841534303E-01   0.9223696471E-01   0.2940008503E-04  -0.3019743840E-04   0.1176003401E-03  -0.1207897536E-03   0.2923863529E+00   0.5408564567E-01   0.1039415996E+00  -0.7376267101E-01   0.0000000000E+00   0.0000000000E+00   0.2449781793E-02  -0.6481274006E-03  -0.9589147232E-03   0.0000000000E+00   0.0000000000E+00   0.0000000000E+00   0.2477036640E+00
   0.0000000000E+00   0.1997717484E+00   0.0000000000E+00  -0.4565091088E-04   0.0000000000E+00  -0.1826036435E-03   0.1524353235E+00   0.1407092845E-01   0.4995187559E-01   0.3433623072E-02   0.0000000000E+00   0.0000000000E+00   0.1332284823E-02  -0.4664523129E-03   0.4463709993E-04   0.0000000000E+00   0.0000000000E+00   0.0000000000E+00   0.1243795087E+00
   0.0000000000E+00   0.1831127694E+00   0.0000000000E+00  -0.4411351065E-04   0.0000000000E+00  -0.1764540426E-03   0.1664851731E+00   0.2187250968E-01   0.5650730482E-01   0.3626326065E-02   0.0000000000E+00   0.0000000000E+00   0.1429712287E-02  -0.4502523369E-03   0.4714223884E-04   0.0000000000E+00   0.0000000000E+00   0.0000000000E+00   0.1307868533E+00
   0.3659442865E-01   0.1166978123E+00   0.1755814919E-04  -0.3392073119E-04   0.7023259674E-04  -0.1356829248E-03   0.2601678745E+00   0.3497899842E-01   0.8854406189E-01  -0.2655568479E-01   0.0000000000E+00   0.0000000000E+00   0.2231109564E-02  -0.6963458251E-03  -0.3452239022E-03   0.0000000000E+00   0.0000000000E+00   0.0000000000E+00   0.2116790494E+00
   0.2671129156E+00   0.0000000000E+00   0.8924692316E-04   0.0000000000E+00   0.3569876926E-03   0.0000000000E+00   0.7513610037E-01   0.2100803600E-01   0.2884324091E-01  -0.1080195569E-02   0.0000000000E+00   0.0000000000E+00   0.6018071730E-03  -0.1018576639E-03  -0.1404254240E-04   0.0000000000E+00   0.0000000000E+00   0.0000000000E+00   0.5063689564E-01
   0.2690725025E+00   0.1828958978E-01   0.8931149300E-04  -0.3841633150E-06   0.3572459720E-03  -0.1536653260E-05   0.7680458322E-01   0.2069232166E-01   0.2924907146E-01  -0.3380617680E-02   0.0000000000E+00   0.0000000000E+00   0.6182216528E-03  -0.1112377474E-03  -0.4394802985E-04   0.0000000000E+00   0.0000000000E+00   0.0000000000E+00   0.5271384653E-01
   0.2369329992E+00   0.7430405901E-01   0.8171924476E-04  -0.2427418756E-05   0.3268769790E-03  -0.9709675025E-05   0.9215807776E-01   0.8966912772E-02   0.3033749716E-01  -0.1702230354E-01   0.0000000000E+00   0.0000000000E+00   0.8036675478E-03  -0.2778175971E-03  -0.2212899460E-03   0.0000000000E+00   0.0000000000E+00   0.0000000000E+00   0.8039231377E-01
   0.2556403478E+00   0.7382652696E-01   0.8475575079E-04  -0.2272847038E-05   0.3390230032E-03  -0.9091388153E-05   0.9313809012E-01   0.1236302622E-01   0.3165033490E-01  -0.1361745982E-01   0.0000000000E+00   0.0000000000E+00   0.7993408179E-03  -0.2507350129E-03  -0.1770269776E-03   0.0000000000E+00   0.0000000000E+00   0.0000000000E+00   0.7674717317E-01
   0.3108076684E+00   0.3712269163E-01   0.9444228720E-04  -0.8540932766E-06   0.3777691488E-03  -0.3416373106E-05   0.8556927988E-01   0.2187439794E-01   0.3223310335E-01  -0.3220809811E-02   0.0000000000E+00   0.0000000000E+00   0.6933702950E-03  -0.1346631703E-03  -0.4187052755E-04   0.0000000000E+00   0.0000000000E+00   0.0000000000E+00   0.5944165100E-01
   0.2908986913E+00   0.3677302798E-01   0.9171585545E-04  -0.8422632047E-06   0.3668634218E-03  -0.3369052819E-05   0.8361079974E-01   0.2091031615E-01   0.3135633476E-01  -0.4954341995E-02   0.0000000000E+00   0.0000000000E+00   0.6793080446E-03  -0.1357982420E-03  -0.6440644593E-04   0.0000000000E+00   0.0000000000E+00   0.0000000000E+00   0.5878148156E-01
   0.3504999940E+00   0.2114728490E+00   0.1000000000E-03  -0.1312300519E-04   0.4000000000E-03  -0.5249202077E-04   0.1531597390E+00   0.1668612225E-02   0.4644850535E-01   0.3541301826E-03   0.0000000000E+00   0.0000000000E+00   0.1387246037E-02  -0.5821386107E-03   0.4603692374E-05   0.0000000000E+00   0.0000000000E+00   0.0000000000E+00   0.1347992714E+00
   0.3313819062E+00   0.2119146785E+00   0.9469763007E-04  -0.1323710540E-04   0.3787905203E-03  -0.5294842159E-04   0.1534051783E+00   0.1540992440E-02   0.4648385123E-01  -0.1436299501E-02   0.0000000000E+00   0.0000000000E+00   0.1389977252E-02  -0.5842571643E-03  -0.1867189351E-04   0.0000000000E+00   0.0000000000E+00   0.0000000000E+00   0.1351387075E+00
   0.3313178213E+00   0.1926463230E+00   0.9495805534E-04  -0.1106299549E-04   0.3798322214E-03  -0.4425198195E-04   0.1460057554E+00   0.2997080110E-02   0.4470085065E-01  -0.1858457467E-02   0.0000000000E+00   0.0000000000E+00   0.1316963762E-02  -0.5421490170E-03  -0.2415994707E-04   0.0000000000E+00   0.0000000000E+00   0.0000000000E+00   0.1274178442E+00
   0.3504999940E+00   0.1922528811E+00   0.1000000000E-03  -0.1096298813E-04   0.4000000000E-03  -0.4385195252E-04   0.1458293277E+00   0.3199412994E-02   0.4470862221E-01   0.3276374244E-03   0.0000000000E+00   0.0000000000E+00   0.1314569172E-02  -0.5396197199E-03   0.4259286518E-05   0.0000000000E+00   0.0000000000E+00   0.0000000000E+00   0.1270630433E+00
   0.2929824829E+00   0.2126147284E+00   0.8394598769E-04  -0.1386432639E-04   0.3357839508E-03  -0.5545730556E-04   0.1555836090E+00   0.1097423284E-02   0.4700430970E-01  -0.3572832633E-02   0.0000000000E+00   0.0000000000E+00   0.1411530891E-02  -0.5967895234E-03  -0.4644682422E-04   0.0000000000E+00   0.0000000000E+00   0.0000000000E+00   0.1375457218E+00
   0.2738964910E+00   0.2130711425E+00   0.7851239308E-04  -0.1444429677E-04   0.3140495723E-03  -0.5777718707E-04   0.1573193041E+00   0.6681500392E-03   0.4739623625E-01  -0.4276296779E-02   0.0000000000E+00   0.0000000000E+00   0.1428999882E-02  -0.6074651208E-03  -0.5559185813E-04   0.0000000000E+00   0.0000000000E+00   0.0000000000E+00   0.1394888631E+00
   0.2737533178E+00   0.1942113981E+00   0.7956075545E-04  -0.1222097110E-04   0.3182430218E-03  -0.4888388439E-04   0.1496433475E+00   0.1326351814E-02   0.4529090979E-01  -0.5731169445E-02   0.0000000000E+00   0.0000000000E+00   0.1356581690E-02  -0.5715392537E-03  -0.7450520278E-04   0.0000000000E+00   0.0000000000E+00   0.0000000000E+00   0.1323206229E+00
   0.2928426309E+00   0.1933885750E+00   0.8474077434E-04  -0.1164200695E-04   0.3389630974E-03  -0.4656802781E-04   0.1480105525E+00   0.1999615647E-02   0.4500305043E-01  -0.4809101668E-02   0.0000000000E+00   0.0000000000E+00   0.1339097526E-02  -0.5590446522E-03  -0.6251832169E-04   0.0000000000E+00   0.0000000000E+00   0.0000000000E+00   0.1302228782E+00
   0.1947930090E+00   0.5816028735E-01   0.7727900391E-04  -0.1966009768E-05   0.3091160156E-03  -0.7864039071E-05   0.7665478755E-01   0.1759489679E-02   0.2352428317E-01  -0.2407266518E-01   0.0000000000E+00   0.0000000000E+00   0.6906965570E-03  -0.2829423154E-03  -0.3129446474E-03   0.0000000000E+00   0.0000000000E+00   0.0000000000E+00   0.7864910483E-01
   0.2144948121E+00   0.5660517638E-01   0.8018661435E-04  -0.1681343961E-05   0.3207464574E-03  -0.6725375845E-05   0.7888579728E-01   0.7237392375E-02   0.2583695690E-01  -0.1933157077E-01   0.0000000000E+00   0.0000000000E+00   0.6896349250E-03  -0.2417943388E-03  -0.2513104200E-03   0.0000000000E+00   0.0000000000E+00   0.0000000000E+00   0.7259015967E-01
   0.7332321604E-01   0.1304541246E+00   0.2884934778E-04  -0.2758768933E-04   0.1153973911E-03  -0.1103507573E-03   0.1954440275E+00  -0.7440890506E-02   0.5640094110E-01   0.4063750100E-02   0.0000000000E+00   0.0000000000E+00   0.1807560123E-02  -0.8299438109E-03   0.5282875131E-04   0.0000000000E+00   0.0000000000E+00   0.0000000000E+00   0.1797253647E+00
   0.5560840588E-01   0.1223223875E+00   0.2415685582E-04  -0.3061449407E-04   0.9662742328E-04  -0.1224579763E-03   0.2274274969E+00   0.1690272932E-01   0.7329906788E-01  -0.6690630690E-02   0.0000000000E+00   0.0000000000E+00   0.2003669578E-02  -0.7331524013E-03  -0.8697819897E-04   0.0000000000E+00   0.0000000000E+00   0.0000000000E+00   0.1886183934E+00
   0.8095234362E-01   0.1171590800E+00   0.3502464357E-04  -0.2340140762E-04   0.1400985743E-03  -0.9360563049E-04   0.1878483246E+00  -0.1240224798E-01   0.5263382300E-01  -0.8035082485E-02   0.0000000000E+00   0.0000000000E+00   0.1757788521E-02  -0.8454689227E-03  -0.1044560723E-03   0.0000000000E+00   0.0000000000E+00   0.0000000000E+00   0.1771951318E+00
   0.5838987982E-01   0.2497720139E+00   0.1130924386E-04  -0.4559721554E-04   0.4523697542E-04  -0.1823888622E-03   0.1212976173E+00  -0.1991807464E-02   0.3579174295E-01   0.3188464621E-02   0.0000000000E+00   0.0000000000E+00   0.1111576366E-02  -0.4911861553E-03   0.4145004007E-04   0.0000000000E+00   0.0000000000E+00   0.0000000000E+00   0.1094128696E+00
   0.7829120384E-01   0.2132290549E+00   0.2050920841E-04  -0.3831501503E-04   0.8203683363E-04  -0.1532600601E-03   0.1537854991E+00  -0.5587924630E-03   0.4596801200E-01   0.1758170926E-01   0.0000000000E+00   0.0000000000E+00   0.1401627333E-02  -0.6048484581E-03   0.2285622204E-03   0.0000000000E+00   0.0000000000E+00   0.0000000000E+00   0.1403925854E+00
   0.7810760925E-01   0.1932550659E+00   0.2222189015E-04  -0.3586141678E-04   0.8888756059E-04  -0.1434456671E-03   0.1645287874E+00  -0.1128140828E-02   0.4902019397E-01   0.2069581641E-01   0.0000000000E+00   0.0000000000E+00   0.1501611714E-02  -0.6519283524E-03   0.2690456134E-03   0.0000000000E+00   0.0000000000E+00   0.0000000000E+00   0.1514325483E+00
   0.1770046178E+00   0.2156904699E+00   0.4963515717E-04  -0.2182601722E-04   0.1985406287E-03  -0.8730406890E-04   0.1662189021E+00  -0.2972809651E-02   0.4897382773E-01   0.1112838980E-02   0.0000000000E+00   0.0000000000E+00   0.1524185967E-02  -0.6753062860E-03   0.1446690674E-04   0.0000000000E+00   0.0000000000E+00   0.0000000000E+00   0.1501326100E+00
   0.3119648928E+00   0.1536929226E+00   0.9113416322E-04  -0.7356876277E-05   0.3645366529E-03  -0.2942750511E-04   0.1300463844E+00   0.6647072538E-02   0.4100803709E-01  -0.4807998784E-02   0.0000000000E+00   0.0000000000E+00   0.1157498515E-02  -0.4466925392E-03  -0.6250398419E-04   0.0000000000E+00   0.0000000000E+00   0.0000000000E+00   0.1106160812E+00
   0.3119490262E+00   0.1733919964E+00   0.9046423970E-04  -0.9224129168E-05   0.3618569588E-03  -0.3689651667E-04   0.1386257172E+00   0.4497587427E-02   0.4293699138E-01  -0.4195546982E-02   0.0000000000E+00   0.0000000000E+00   0.1243953435E-02  -0.4997122514E-03  -0.5454211076E-04   0.0000000000E+00   0.0000000000E+00   0.0000000000E+00   0.1198483956E+00
   0.1167991355E+00   0.2498214495E+00   0.2649370354E-04  -0.3571009118E-04   0.1059748142E-03  -0.1428403647E-03   0.1623955856E+00  -0.1379176014E-04   0.4871453816E-01   0.2589320507E-02   0.0000000000E+00   0.0000000000E+00   0.1477853617E-02  -0.6334682890E-03   0.3366116659E-04   0.0000000000E+00   0.0000000000E+00   0.0000000000E+00   0.1443292445E+00
   0.7098546186E-01   0.7060425096E-01   0.5495609108E-04  -0.2128608886E-04   0.2198243643E-03  -0.8514435543E-04   0.8054498095E-01   0.4184152277E-01   0.3671595112E-01  -0.5085795700E-01   0.0000000000E+00   0.0000000000E+00   0.5697773879E-03   0.6663243147E-04  -0.6611534410E-03   0.0000000000E+00   0.0000000000E+00   0.0000000000E+00   0.9032078545E-01
   0.8415055076E-01   0.7958031306E-01   0.5151887248E-04  -0.1693098727E-04   0.2060754899E-03  -0.6772394908E-04   0.1056564338E+00  -0.5655603903E-02   0.3000024896E-01  -0.4223167259E-01   0.0000000000E+00   0.0000000000E+00   0.9835304026E-03  -0.4635260872E-03  -0.5490117437E-03   0.0000000000E+00   0.0000000000E+00   0.0000000000E+00   0.1232822729E+00
   0.2352747252E+00   0.2142291916E+00   0.6725343610E-04  -0.1636248011E-04   0.2690137444E-03  -0.6544992042E-04   0.1614761496E+00  -0.5512421524E-03   0.4827747222E-01  -0.4196486770E-02   0.0000000000E+00   0.0000000000E+00   0.1471582805E-02  -0.6347732869E-03  -0.5455432801E-04   0.0000000000E+00   0.0000000000E+00   0.0000000000E+00   0.1441483067E+00
   0.1776977375E+00   0.1998155470E+00   0.5172870771E-04  -0.1958800015E-04   0.2069148308E-03  -0.7835200062E-04   0.1617357149E+00  -0.5669497592E-02   0.4681986519E-01   0.2784969821E-04   0.0000000000E+00   0.0000000000E+00   0.1493906046E-02  -0.6823617162E-03   0.3620460767E-06   0.0000000000E+00   0.0000000000E+00   0.0000000000E+00   0.1482944110E+00
   0.1587538910E+00   0.1996770620E+00   0.4605440837E-04  -0.2207520624E-04   0.1842176335E-03  -0.8830082497E-04   0.1632760880E+00  -0.6904430229E-02   0.4691149734E-01   0.3769890863E-02   0.0000000000E+00   0.0000000000E+00   0.1512739679E-02  -0.6996070584E-03   0.4900858122E-04   0.0000000000E+00   0.0000000000E+00   0.0000000000E+00   0.1507924929E+00
   0.1599235496E+00   0.1838127223E+00   0.4841911791E-04  -0.1965773147E-04   0.1936764716E-03  -0.7863092586E-04   0.1607846807E+00  -0.1041761745E-01   0.4511011896E-01   0.1703582898E-02   0.0000000000E+00   0.0000000000E+00   0.1503769302E-02  -0.7218605734E-03   0.2214657768E-04   0.0000000000E+00   0.0000000000E+00   0.0000000000E+00   0.1512894800E+00
   0.1780806715E+00   0.1845001268E+00   0.5372330886E-04  -0.1744363698E-04   0.2148932354E-03  -0.6977454791E-04   0.1579484020E+00  -0.8165991362E-02   0.4493472318E-01  -0.2015138290E-02   0.0000000000E+00   0.0000000000E+00   0.1469177824E-02  -0.6903092891E-03  -0.2619679777E-04   0.0000000000E+00   0.0000000000E+00   0.0000000000E+00   0.1469710096E+00
   0.2546635053E+00   0.2136420447E+00   0.7295166176E-04  -0.1526206976E-04   0.2918066470E-03  -0.6104827905E-04   0.1592731506E+00   0.6864434338E-04   0.4780253849E-01  -0.4512880924E-02   0.0000000000E+00   0.0000000000E+00   0.1449117958E-02  -0.6205406239E-03  -0.5866745202E-04   0.0000000000E+00   0.0000000000E+00   0.0000000000E+00   0.1417230823E+00
   0.3121581798E+00   0.2122651572E+00   0.8933796839E-04  -0.1347495539E-04   0.3573518736E-03  -0.5389982157E-04   0.1543050149E+00   0.1366511943E-02   0.4670145807E-01  -0.2537878327E-02   0.0000000000E+00   0.0000000000E+00   0.1398846239E-02  -0.5893542996E-03  -0.3299241825E-04   0.0000000000E+00   0.0000000000E+00   0.0000000000E+00   0.1361288606E+00
   0.3121147745E+00   0.1929767747E+00   0.8988370687E-04  -0.1127685707E-04   0.3595348275E-03  -0.4510742829E-04   0.1468317339E+00   0.2702444178E-02   0.4486025342E-01  -0.3405672293E-02   0.0000000000E+00   0.0000000000E+00   0.1325629246E-02  -0.5480515201E-03  -0.4427373981E-04   0.0000000000E+00   0.0000000000E+00   0.0000000000E+00   0.1284881452E+00
   0.6721345366E-01   0.1439155783E+00   0.2410865206E-04  -0.3115253338E-04   0.9643460824E-04  -0.1246101335E-03   0.1956244343E+00   0.1439964816E-02   0.5911931974E-01   0.1349629529E-01   0.0000000000E+00   0.0000000000E+00   0.1774566489E-02  -0.7498316140E-03   0.1754518388E-03   0.0000000000E+00   0.0000000000E+00   0.0000000000E+00   0.1742530223E+00
   0.6222080012E-01   0.1544706304E+00   0.2094570302E-04  -0.3376152268E-04   0.8378281206E-04  -0.1350460907E-03   0.1914558826E+00   0.4336025584E-02   0.5873757245E-01   0.1728384402E-01   0.0000000000E+00   0.0000000000E+00   0.1725338032E-02  -0.7072201093E-03   0.2246899722E-03   0.0000000000E+00   0.0000000000E+00   0.0000000000E+00   0.1692760714E+00
   0.1529127992E+00   0.3950710142E-01   0.7538264361E-04  -0.1723475463E-05   0.3015305744E-03  -0.6893901851E-05   0.4650834848E-01  -0.1299723882E-01   0.1005333290E-01  -0.2881701147E-01   0.0000000000E+00   0.0000000000E+00   0.4739152025E-03  -0.2996574323E-03  -0.3746211492E-03   0.0000000000E+00   0.0000000000E+00   0.0000000000E+00   0.7163072874E-01
   0.1357145775E+00   0.4588312952E-01   0.7227689862E-04  -0.3121935649E-05   0.2891075945E-03  -0.1248774260E-04   0.4503115722E-01  -0.2737693622E-01   0.5296266301E-02  -0.3726074204E-01   0.0000000000E+00   0.0000000000E+00   0.5165535819E-03  -0.4247516327E-03  -0.4843896465E-03   0.0000000000E+00   0.0000000000E+00   0.0000000000E+00   0.8813121210E-01
   0.1628979861E+00   0.0000000000E+00   0.7959841504E-04   0.0000000000E+00   0.3183936601E-03   0.0000000000E+00   0.2783205069E-01  -0.2662379185E-02   0.7550901451E-02  -0.4759312842E-02   0.0000000000E+00   0.0000000000E+00   0.2636549401E-03  -0.1327726483E-03  -0.6187106694E-04   0.0000000000E+00   0.0000000000E+00   0.0000000000E+00   0.2722925856E-01
   0.1668251347E+00   0.1949594104E-01   0.7903654284E-04  -0.5630312982E-06   0.3161461714E-03  -0.2252125193E-05   0.3705473338E-01  -0.2436322375E-02   0.1038552330E-01  -0.1215541550E-01   0.0000000000E+00   0.0000000000E+00   0.3466997310E-03  -0.1666839938E-03  -0.1580204016E-03   0.0000000000E+00   0.0000000000E+00   0.0000000000E+00   0.4139662786E-01
   0.2758756075E+00   0.9270830349E-01   0.8683990451E-04  -0.3171181461E-05   0.3473596180E-03  -0.1268472584E-04   0.1027950651E+00   0.1205473019E-01   0.3445493860E-01  -0.1109912893E-01   0.0000000000E+00   0.0000000000E+00   0.8884216451E-03  -0.2912027093E-03  -0.1442886761E-03   0.0000000000E+00   0.0000000000E+00   0.0000000000E+00   0.8407453365E-01
   0.2940777284E+00   0.9347504710E-01   0.9002768717E-04  -0.3112180055E-05   0.3601107487E-03  -0.1244872022E-04   0.1034493043E+00   0.1374737207E-01   0.3515900290E-01  -0.8267368741E-02   0.0000000000E+00   0.0000000000E+00   0.8877739177E-03  -0.2783512008E-03  -0.1074757936E-03   0.0000000000E+00   0.0000000000E+00   0.0000000000E+00   0.8237658255E-01
   0.2942152325E+00   0.1128272998E+00   0.8910309467E-04  -0.4302248918E-05   0.3564123787E-03  -0.1720899567E-04   0.1119448675E+00   0.1098812914E-01   0.3687989900E-01  -0.8282011471E-02   0.0000000000E+00   0.0000000000E+00   0.9758445907E-03  -0.3365930081E-03  -0.1076661491E-03   0.0000000000E+00   0.0000000000E+00   0.0000000000E+00   0.9192813614E-01
   0.2763323417E+00   0.1113527185E+00   0.8569214473E-04  -0.4366294152E-05   0.3427685789E-03  -0.1746517661E-04   0.1117911998E+00   0.9270286917E-02   0.3631844603E-01  -0.1080760166E-01   0.0000000000E+00   0.0000000000E+00   0.9811457996E-03  -0.3516260685E-03  -0.1404988216E-03   0.0000000000E+00   0.0000000000E+00   0.0000000000E+00   0.9390018280E-01
   0.2933288640E+00   0.7442784504E-01   0.9076259478E-04  -0.2163252861E-05   0.3630503791E-03  -0.8653011446E-05   0.9560395581E-01   0.1655641678E-01   0.3364811177E-01  -0.7772891375E-02   0.0000000000E+00   0.0000000000E+00   0.8054259724E-03  -0.2221920350E-03  -0.1010475879E-03   0.0000000000E+00   0.0000000000E+00   0.0000000000E+00   0.7326214387E-01
   0.1714753790E+00   0.3887585800E-01   0.7726819918E-04  -0.1274300084E-05   0.3090727967E-03  -0.5097200337E-05   0.5037837357E-01  -0.3869800952E-02   0.1395257179E-01  -0.2484597252E-01   0.0000000000E+00   0.0000000000E+00   0.4735354232E-03  -0.2316908456E-03  -0.3229976428E-03   0.0000000000E+00   0.0000000000E+00   0.0000000000E+00   0.6405053099E-01
   0.2934041653E+00   0.1327205026E+00   0.8791166033E-04  -0.5772272906E-05   0.3516466413E-03  -0.2308909162E-04   0.1212171347E+00   0.7817062725E-02   0.3871025923E-01  -0.7938966636E-02   0.0000000000E+00   0.0000000000E+00   0.1072589381E-02  -0.4016115546E-03  -0.1032065663E-03   0.0000000000E+00   0.0000000000E+00   0.0000000000E+00   0.1024523674E+00
   0.5199088182E-01   0.1831716550E+00   0.1516198383E-04  -0.3936679635E-04   0.6064793533E-04  -0.1574671854E-03   0.1697162490E+00   0.8096568579E-02   0.5334384528E-01   0.1970754391E-01   0.0000000000E+00   0.0000000000E+00   0.1512841249E-02  -0.5882145971E-03   0.2561980709E-03   0.0000000000E+00   0.0000000000E+00   0.0000000000E+00   0.1484433166E+00
   0.5049897208E-01   0.1684026572E+00   0.1572117688E-04  -0.3787575877E-04   0.6288470752E-04  -0.1515030351E-03   0.1807876725E+00   0.1229637172E-01   0.5792521325E-01   0.2025639395E-01   0.0000000000E+00   0.0000000000E+00   0.1597211970E-02  -0.5931749399E-03   0.2633331214E-03   0.0000000000E+00   0.0000000000E+00   0.0000000000E+00   0.1549865883E+00
   0.2921964343E+00   0.5549873434E-01   0.9132845648E-04  -0.1417792474E-05   0.3653138259E-03  -0.5671169894E-05   0.8885247856E-01   0.1898108529E-01   0.3235006915E-01  -0.6627719666E-02   0.0000000000E+00   0.0000000000E+00   0.7345313222E-03  -0.1737967902E-03  -0.8616035566E-04   0.0000000000E+00   0.0000000000E+00   0.0000000000E+00   0.6523987051E-01
   0.2920980305E+00   0.1532563499E+00   0.8654290687E-04  -0.7562227190E-05   0.3461716275E-03  -0.3024890876E-04   0.1305843942E+00   0.5690158791E-02   0.4088236588E-01  -0.7071506043E-02   0.0000000000E+00   0.0000000000E+00   0.1166126368E-02  -0.4574986922E-03  -0.9192957856E-04   0.0000000000E+00   0.0000000000E+00   0.0000000000E+00   0.1121944066E+00
   0.2710118540E+00   0.3668834174E-01   0.8905419356E-04  -0.8391329373E-06   0.3562167742E-03  -0.3356531749E-05   0.8084402726E-01   0.1940939452E-01   0.3007602653E-01  -0.6903699517E-02   0.0000000000E+00   0.0000000000E+00   0.6599840095E-03  -0.1386662162E-03  -0.8974809372E-04   0.0000000000E+00   0.0000000000E+00   0.0000000000E+00   0.5804454023E-01
   0.2511222858E+00   0.3681000993E-01   0.8647235662E-04  -0.8465331496E-06   0.3458894265E-03  -0.3386132598E-05   0.7717159587E-01   0.1726973451E-01   0.2833239912E-01  -0.9197425405E-02   0.0000000000E+00   0.0000000000E+00   0.6349095578E-03  -0.1438146398E-03  -0.1195665303E-03   0.0000000000E+00   0.0000000000E+00   0.0000000000E+00   0.5737414010E-01
   0.2339498602E+00   0.5569249622E-01   0.8296764064E-04  -0.1536596432E-05   0.3318705625E-03  -0.6146385728E-05   0.8167927162E-01   0.1184299076E-01   0.2805667872E-01  -0.1536282329E-01   0.0000000000E+00   0.0000000000E+00   0.6970937078E-03  -0.2107779434E-03  -0.1997167027E-03   0.0000000000E+00   0.0000000000E+00   0.0000000000E+00   0.6866292174E-01
   0.2534660324E+00   0.5532015960E-01   0.8573987911E-04  -0.1462339098E-05   0.3429595164E-03  -0.5849356393E-05   0.8443708810E-01   0.1502756813E-01   0.2983939687E-01  -0.1197582204E-01   0.0000000000E+00   0.0000000000E+00   0.7097699860E-03  -0.1925537736E-03  -0.1556856866E-03   0.0000000000E+00   0.0000000000E+00   0.0000000000E+00   0.6661410929E-01
   0.2352092606E+00   0.1969834846E+00   0.6871311402E-04  -0.1421307978E-04   0.2748524561E-03  -0.5685231913E-04   0.1544389835E+00  -0.1184806694E-02   0.4597625304E-01  -0.5927123538E-02   0.0000000000E+00   0.0000000000E+00   0.1410015496E-02  -0.6130937765E-03  -0.7705260600E-04   0.0000000000E+00   0.0000000000E+00   0.0000000000E+00   0.1385993062E+00
   0.2545920725E+00   0.1956097664E+00   0.7422789374E-04  -0.1307672857E-04   0.2969115750E-03  -0.5230691427E-04   0.1518712307E+00   0.7712678164E-04   0.4558450724E-01  -0.6245389078E-02   0.0000000000E+00   0.0000000000E+00   0.1381727405E-02  -0.5915959460E-03  -0.8119005801E-04   0.0000000000E+00   0.0000000000E+00   0.0000000000E+00   0.1353608281E+00
   0.1599145645E+00   0.7267508928E-01   0.6923009463E-04  -0.4113663592E-05   0.2769203785E-03  -0.1645465437E-04   0.8788682190E-01  -0.1766232508E-01   0.2106734905E-01  -0.3409009761E-01   0.0000000000E+00   0.0000000000E+00   0.8686531471E-03  -0.5034857637E-03  -0.4431712689E-03   0.0000000000E+00   0.0000000000E+00   0.0000000000E+00   0.1095544738E+00
   0.1741068928E+00   0.6064932495E-01   0.7399256170E-04  -0.2478649132E-05   0.2959702468E-03  -0.9914596527E-05   0.7539528004E-01  -0.7650515926E-02   0.2032342924E-01  -0.3029469762E-01   0.0000000000E+00   0.0000000000E+00   0.7159340605E-03  -0.3636612871E-03  -0.3938310690E-03   0.0000000000E+00   0.0000000000E+00   0.0000000000E+00   0.9005220260E-01
   0.1844778144E+00   0.8231935260E-01   0.7166427245E-04  -0.3991319596E-05   0.2866570898E-03  -0.1596527838E-04   0.9867197613E-01  -0.8634493746E-02   0.2701124471E-01  -0.2856456736E-01   0.0000000000E+00   0.0000000000E+00   0.9315895084E-03  -0.4633946000E-03  -0.3713393757E-03   0.0000000000E+00   0.0000000000E+00   0.0000000000E+00   0.1066931633E+00
   0.1697370854E+00   0.8992711555E-01   0.6731748394E-04  -0.5432769936E-05   0.2692699358E-03  -0.2173107974E-04   0.1069300886E+00  -0.1615732261E-01   0.2723182980E-01  -0.2895521668E-01   0.0000000000E+00   0.0000000000E+00   0.1036077364E-02  -0.5640589813E-03  -0.3764178169E-03   0.0000000000E+00   0.0000000000E+00   0.0000000000E+00   0.1191832752E+00
   0.9897053355E-01   0.2140369295E+00   0.2633057069E-04  -0.3448970646E-04   0.1053222828E-03  -0.1379588258E-03   0.1588123771E+00  -0.3123654496E-02   0.4670661678E-01   0.1580740495E-01   0.0000000000E+00   0.0000000000E+00   0.1457374884E-02  -0.6477935266E-03   0.2054962644E-03   0.0000000000E+00   0.0000000000E+00   0.0000000000E+00   0.1461563906E+00
   0.1399477200E+00   0.1992614664E+00   0.4039859167E-04  -0.2493972595E-04   0.1615943667E-03  -0.9975890381E-04   0.1642656341E+00  -0.7709387656E-02   0.4696687395E-01   0.8098853948E-02   0.0000000000E+00   0.0000000000E+00   0.1524883883E-02  -0.7107914008E-03   0.1052851013E-03   0.0000000000E+00   0.0000000000E+00   0.0000000000E+00   0.1528218076E+00
   0.1210618318E+00   0.1984984937E+00   0.3473015698E-04  -0.2815906534E-04   0.1389206279E-03  -0.1126362614E-03   0.1645299315E+00  -0.7655911847E-02   0.4706220591E-01   0.1261928307E-01   0.0000000000E+00   0.0000000000E+00   0.1527080433E-02  -0.7113355308E-03   0.1640506799E-03   0.0000000000E+00   0.0000000000E+00   0.0000000000E+00   0.1539230341E+00
   0.2185644515E+00   0.7552320678E-01   0.7860969786E-04  -0.2698263677E-05   0.3144387914E-03  -0.1079305471E-04   0.9188745284E-01   0.4534908208E-02   0.2892670831E-01  -0.2082356950E-01   0.0000000000E+00   0.0000000000E+00   0.8184896788E-03  -0.3170934014E-03  -0.2707064034E-03   0.0000000000E+00   0.0000000000E+00   0.0000000000E+00   0.8593884316E-01
   0.8044292171E-01   0.1526474930E+00   0.2736924135E-04  -0.2952260833E-04   0.1094769654E-03  -0.1180904333E-03   0.1836352989E+00  -0.8167991815E-02   0.5264019211E-01   0.1529297003E-01   0.0000000000E+00   0.0000000000E+00   0.1702936388E-02  -0.7905063911E-03   0.1988086104E-03   0.0000000000E+00   0.0000000000E+00   0.0000000000E+00   0.1717505327E+00
   0.6994629465E-01   0.1665714802E+00   0.2213530928E-04  -0.3387695894E-04   0.8854123712E-04  -0.1355078358E-03   0.1794797174E+00   0.9480983894E-03   0.5412834473E-01   0.2009998014E-01   0.0000000000E+00   0.0000000000E+00   0.1629567844E-02  -0.6913432024E-03   0.2612997419E-03   0.0000000000E+00   0.0000000000E+00   0.0000000000E+00   0.1625510678E+00
   0.1416602460E+00   0.1830035296E+00   0.4298139368E-04  -0.2229507171E-04   0.1719255747E-03  -0.8918028683E-04   0.1635381079E+00  -0.1166189685E-01   0.4556286330E-01   0.6138179156E-02   0.0000000000E+00   0.0000000000E+00   0.1533678179E-02  -0.7439218820E-03   0.7979632903E-04   0.0000000000E+00   0.0000000000E+00   0.0000000000E+00   0.1550723017E+00
   0.2729054566E+00   0.1744561868E+00   0.8058292429E-04  -0.1006263584E-04   0.3223316972E-03  -0.4025054335E-04   0.1419184744E+00   0.2311963263E-02   0.4326913131E-01  -0.7474843200E-02   0.0000000000E+00   0.0000000000E+00   0.1282441461E-02  -0.5324431847E-03  -0.9717296160E-04   0.0000000000E+00   0.0000000000E+00   0.0000000000E+00   0.1249602800E+00
   0.2923708269E+00   0.1735814946E+00   0.8556857515E-04  -0.9525078588E-05   0.3422743006E-03  -0.3810031435E-04   0.1396451714E+00   0.3720570670E-02   0.4300972262E-01  -0.6151066711E-02   0.0000000000E+00   0.0000000000E+00   0.1256260834E-02  -0.5107589753E-03  -0.7996386724E-04   0.0000000000E+00   0.0000000000E+00   0.0000000000E+00   0.1216217104E+00
   0.9442015666E-01   0.1609014712E+00   0.3091231260E-04  -0.2776395799E-04   0.1236492504E-03  -0.1110558320E-03   0.1772202308E+00  -0.1213992074E-01   0.4952409301E-01   0.1470262719E-01   0.0000000000E+00   0.0000000000E+00   0.1660049791E-02  -0.8016321787E-03   0.1911341534E-03   0.0000000000E+00   0.0000000000E+00   0.0000000000E+00   0.1691433684E+00
   0.8731369311E-01   0.1753264177E+00   0.2682434210E-04  -0.3148405663E-04   0.1072973684E-03  -0.1259362265E-03   0.1739298778E+00  -0.6346666138E-02   0.5027496351E-01   0.1980929839E-01   0.0000000000E+00   0.0000000000E+00   0.1607513886E-02  -0.7360811855E-03   0.2575208791E-03   0.0000000000E+00   0.0000000000E+00   0.0000000000E+00   0.1633324410E+00
   0.2745197302E+00   0.7396250592E-01   0.8776563083E-04  -0.2195676154E-05   0.3510625233E-03  -0.8782704617E-05   0.9438125505E-01   0.1482527760E-01   0.3276195980E-01  -0.1054628300E-01   0.0000000000E+00   0.0000000000E+00   0.8010508383E-03  -0.2331768685E-03  -0.1371016790E-03   0.0000000000E+00   0.0000000000E+00   0.0000000000E+00   0.7452392591E-01
   0.2265256523E+00   0.1122740384E+00   0.7555246916E-04  -0.5381720451E-05   0.3022098767E-03  -0.2152688181E-04   0.1153430335E+00   0.3026168336E-04   0.3461198854E-01  -0.1781942257E-01   0.0000000000E+00   0.0000000000E+00   0.1049503584E-02  -0.4495624491E-03  -0.2316524934E-03   0.0000000000E+00   0.0000000000E+00   0.0000000000E+00   0.1070099168E+00
   0.2228300544E+00   0.9416484169E-01   0.7705328310E-04  -0.3947161722E-05   0.3082131324E-03  -0.1578864689E-04   0.1044554920E+00   0.1975820621E-02   0.3192939378E-01  -0.1996434368E-01   0.0000000000E+00   0.0000000000E+00   0.9428392767E-03  -0.3893964511E-03  -0.2595364678E-03   0.0000000000E+00   0.0000000000E+00   0.0000000000E+00   0.9756569382E-01
   0.2728283895E+00   0.5525491141E-01   0.8851669780E-04  -0.1427277164E-05   0.3540667912E-03  -0.5709108658E-05   0.8686135563E-01   0.1736393208E-01   0.3126758631E-01  -0.9136738788E-02   0.0000000000E+00   0.0000000000E+00   0.7227190012E-03  -0.1807475050E-03  -0.1187776042E-03   0.0000000000E+00   0.0000000000E+00   0.0000000000E+00   0.6561544907E-01
   0.1572348401E+00   0.5348134535E-01   0.7304402369E-04  -0.2587349601E-05   0.2921760948E-03  -0.1034939840E-04   0.6856949443E-01  -0.1371679046E-01   0.1645581119E-01  -0.3297889895E-01   0.0000000000E+00   0.0000000000E+00   0.6774778822E-03  -0.3922438215E-03  -0.4287256863E-03   0.0000000000E+00   0.0000000000E+00   0.0000000000E+00   0.9207243543E-01
   0.1471039072E+00   0.6073845749E-01   0.6998204912E-04  -0.3683162597E-05   0.2799281965E-03  -0.1473265039E-04   0.7255610015E-01  -0.1980253463E-01   0.1582606966E-01  -0.3462690384E-01   0.0000000000E+00   0.0000000000E+00   0.7374903964E-03  -0.4631718557E-03  -0.4501497499E-03   0.0000000000E+00   0.0000000000E+00   0.0000000000E+00   0.1009870358E+00
   0.1240777644E+00   0.1490053679E+00   0.4250207860E-04  -0.1985741850E-04   0.1700083144E-03  -0.7942967400E-04   0.1665406688E+00  -0.2181129426E-01   0.4341881235E-01   0.1361503756E-02   0.0000000000E+00   0.0000000000E+00   0.1600584133E-02  -0.8479913859E-03   0.1769954882E-04   0.0000000000E+00   0.0000000000E+00   0.0000000000E+00   0.1656000534E+00
   0.1448459787E+00   0.1472780070E+00   0.4927834438E-04  -0.1620420370E-04   0.1971133775E-03  -0.6481681482E-04   0.1574404185E+00  -0.2097059067E-01   0.4094094834E-01  -0.5692044818E-02   0.0000000000E+00   0.0000000000E+00   0.1514493112E-02  -0.8048500071E-03  -0.7399658263E-04   0.0000000000E+00   0.0000000000E+00   0.0000000000E+00   0.1571947848E+00
   0.1433940946E+00   0.1660359541E+00   0.4584132989E-04  -0.1943037697E-04   0.1833653196E-03  -0.7772150790E-04   0.1621259772E+00  -0.1677418743E-01   0.4360553692E-01   0.1862998096E-02   0.0000000000E+00   0.0000000000E+00   0.1540765723E-02  -0.7849364166E-03   0.2421897525E-04   0.0000000000E+00   0.0000000000E+00   0.0000000000E+00   0.1575940857E+00
   0.1256860637E+00   0.1662009253E+00   0.4030754423E-04  -0.2242534689E-04   0.1612301769E-03  -0.8970138755E-04   0.1660177091E+00  -0.1740101532E-01   0.4458500813E-01   0.6455735942E-02   0.0000000000E+00   0.0000000000E+00   0.1578625112E-02  -0.8058183048E-03   0.8392456725E-04   0.0000000000E+00   0.0000000000E+00   0.0000000000E+00   0.1619432748E+00
   0.6678468849E-01   0.1807040506E+00   0.1987689781E-04  -0.3635427527E-04   0.7950759125E-04  -0.1454171011E-03   0.1692343360E+00   0.1167370153E-02   0.5112051183E-01   0.2039942794E-01   0.0000000000E+00   0.0000000000E+00   0.1535479714E-02  -0.6493908418E-03   0.2651925632E-03   0.0000000000E+00   0.0000000000E+00   0.0000000000E+00   0.1535818409E+00
   0.1097199318E+00   0.1659930397E+00   0.3523215481E-04  -0.2541745577E-04   0.1409286192E-03  -0.1016698231E-03   0.1719389470E+00  -0.1548909497E-01   0.4693495561E-01   0.1155722127E-01   0.0000000000E+00   0.0000000000E+00   0.1625051888E-02  -0.8115126575E-03   0.1502438766E-03   0.0000000000E+00   0.0000000000E+00   0.0000000000E+00   0.1665121591E+00
   0.1055918130E+00   0.1804520624E+00   0.3206319219E-04  -0.2849732976E-04   0.1282527688E-03  -0.1139893190E-03   0.1692472988E+00  -0.9773494470E-02   0.4784214128E-01   0.1574912839E-01   0.0000000000E+00   0.0000000000E+00   0.1578267047E-02  -0.7490032648E-03   0.2047386691E-03   0.0000000000E+00   0.0000000000E+00   0.0000000000E+00   0.1605613431E+00
   0.2150251602E+00   0.1816151084E+00   0.6459123705E-04  -0.1363271147E-04   0.2583649482E-03  -0.5453084588E-04   0.1509015980E+00  -0.3922736882E-02   0.4409365834E-01  -0.7035000135E-02   0.0000000000E+00   0.0000000000E+00   0.1388503216E-02  -0.6242131379E-03  -0.9145500176E-04   0.0000000000E+00   0.0000000000E+00   0.0000000000E+00   0.1378058049E+00
   0.2342566961E+00   0.1797594834E+00   0.7004062385E-04  -0.1219292210E-04   0.2801624954E-03  -0.4877168841E-04   0.1475633887E+00  -0.1590377550E-02   0.4379190334E-01  -0.7986491340E-02   0.0000000000E+00   0.0000000000E+00   0.1349029309E-02  -0.5899696516E-03  -0.1038243874E-03   0.0000000000E+00   0.0000000000E+00   0.0000000000E+00   0.1331528281E+00
   0.2756468243E+00   0.1304762675E+00   0.8424885689E-04  -0.5835099803E-05   0.3369954276E-03  -0.2334039921E-04   0.1202802917E+00   0.6407206663E-02   0.3800624951E-01  -0.1042891565E-01   0.0000000000E+00   0.0000000000E+00   0.1069562549E-02  -0.4107875571E-03  -0.1355759035E-03   0.0000000000E+00   0.0000000000E+00   0.0000000000E+00   0.1033884846E+00
   0.2707285297E+00   0.1522470508E+00   0.8159894325E-04  -0.7851038284E-05   0.3263957730E-03  -0.3140415314E-04   0.1315185988E+00   0.3574782645E-02   0.4052801443E-01  -0.9545925917E-02   0.0000000000E+00   0.0000000000E+00   0.1182877597E-02  -0.4803920131E-03  -0.1240970369E-03   0.0000000000E+00   0.0000000000E+00   0.0000000000E+00   0.1152373362E+00
   0.2536705248E+00   0.1774318463E+00   0.7540215082E-04  -0.1102194319E-04   0.3016086033E-03  -0.4408777277E-04   0.1439628136E+00   0.4499528858E-03   0.4332382995E-01  -0.8073005895E-02   0.0000000000E+00   0.0000000000E+00   0.1308306788E-02  -0.5573604018E-03  -0.1049490766E-03   0.0000000000E+00   0.0000000000E+00   0.0000000000E+00   0.1283584319E+00
   0.1223963290E+00   0.5809944693E-01   0.6721500237E-04  -0.5630753255E-05   0.2688600095E-03  -0.2252301302E-04   0.6093436846E-01  -0.3641175133E-01   0.7356785140E-02  -0.3675759331E-01   0.0000000000E+00   0.0000000000E+00   0.6965085832E-03  -0.5689909741E-03  -0.4778487130E-03   0.0000000000E+00   0.0000000000E+00   0.0000000000E+00   0.1064938846E+00
   0.1103403407E+00   0.7305624096E-01   0.5982054015E-04  -0.9464207410E-05   0.2392821606E-03  -0.3785682964E-04   0.9517809809E-01  -0.3535074502E-01   0.1794820592E-01  -0.3866380932E-01   0.0000000000E+00   0.0000000000E+00   0.1003988598E-02  -0.6928863623E-03  -0.5026295211E-03   0.0000000000E+00   0.0000000000E+00   0.0000000000E+00   0.1316379470E+00
   0.1477856783E+00   0.8120581542E-01   0.6486165552E-04  -0.5879936840E-05   0.2594466221E-03  -0.2351974736E-04   0.1024767059E+00  -0.2495853379E-01   0.2325545163E-01  -0.3442547627E-01   0.0000000000E+00   0.0000000000E+00   0.1029876306E-02  -0.6267818105E-03  -0.4475311914E-03   0.0000000000E+00   0.0000000000E+00   0.0000000000E+00   0.1264084325E+00
   0.1355603647E+00   0.7047983971E-01   0.6546694114E-04  -0.5620778391E-05   0.2618677646E-03  -0.2248311357E-04   0.8722490046E-01  -0.2854504866E-01   0.1760395554E-01  -0.3832641012E-01   0.0000000000E+00   0.0000000000E+00   0.9050722839E-03  -0.5999370546E-03  -0.4982433316E-03   0.0000000000E+00   0.0000000000E+00   0.0000000000E+00   0.1205461886E+00
   0.1011260836E+00   0.1968079562E+00   0.2884451696E-04  -0.3174435952E-04   0.1153780678E-03  -0.1269774381E-03   0.1650288876E+00  -0.6103086793E-02   0.4767774024E-01   0.1725751035E-01   0.0000000000E+00   0.0000000000E+00   0.1525564915E-02  -0.6991507514E-03   0.2243476346E-03   0.0000000000E+00   0.0000000000E+00   0.0000000000E+00   0.1544909181E+00
   0.1237186397E+00   0.1822402522E+00   0.3753114979E-04  -0.2528336159E-04   0.1501245992E-03  -0.1011334464E-03   0.1664960893E+00  -0.1188234214E-01   0.4638412416E-01   0.1103600497E-01   0.0000000000E+00   0.0000000000E+00   0.1561455547E-02  -0.7574640619E-03   0.1434680646E-03   0.0000000000E+00   0.0000000000E+00   0.0000000000E+00   0.1586575087E+00
   0.1613661981E+00   0.1678681286E+00   0.5101922171E-04  -0.1713208430E-04   0.2040768868E-03  -0.6852833720E-04   0.1575498722E+00  -0.1373208950E-01   0.4314533480E-01  -0.2314954650E-02   0.0000000000E+00   0.0000000000E+00   0.1487258986E-02  -0.7394065158E-03  -0.3009441045E-04   0.0000000000E+00   0.0000000000E+00   0.0000000000E+00   0.1511293500E+00
   0.1784244681E+00   0.1697722433E+00   0.5573742188E-04  -0.1537094473E-04   0.2229496875E-03  -0.6148377893E-04   0.1537127630E+00  -0.1057794265E-01   0.4294044611E-01  -0.4914171621E-02   0.0000000000E+00   0.0000000000E+00   0.1440040120E-02  -0.6957390539E-03  -0.6388423107E-04   0.0000000000E+00   0.0000000000E+00   0.0000000000E+00   0.1453693690E+00
   0.8821943475E-01   0.1397033405E+00   0.3222987025E-04  -0.2561370782E-04   0.1289194810E-03  -0.1024548313E-03   0.1851733462E+00  -0.1478975757E-01   0.5111507658E-01   0.7111502885E-02   0.0000000000E+00   0.0000000000E+00   0.1742757505E-02  -0.8567628439E-03   0.9244953751E-04   0.0000000000E+00   0.0000000000E+00   0.0000000000E+00   0.1768857598E+00
   0.9964418537E-01   0.8889540317E-01   0.5099947492E-04  -0.1406066699E-04   0.2039978997E-03  -0.5624266795E-04   0.1347287990E+00  -0.3185019022E-01   0.3086358263E-01  -0.3188505776E-01   0.0000000000E+00   0.0000000000E+00   0.1350247813E-02  -0.8152790470E-03  -0.4145057508E-03   0.0000000000E+00   0.0000000000E+00   0.0000000000E+00   0.1544467896E+00
   0.9656502457E-01   0.1275448621E+00   0.3773003375E-04  -0.2157158389E-04   0.1509201350E-03  -0.8628633555E-04   0.1781375129E+00  -0.2330192862E-01   0.4645067529E-01  -0.1911192912E-02   0.0000000000E+00   0.0000000000E+00   0.1711928889E-02  -0.9067838508E-03  -0.2484550786E-04   0.0000000000E+00   0.0000000000E+00   0.0000000000E+00   0.1768968589E+00
   0.2509164604E+00   0.1600498332E+00   0.7617068628E-04  -0.9237352915E-05   0.3046827451E-03  -0.3694941166E-04   0.1363193803E+00   0.7058058034E-04   0.4091698828E-01  -0.1003246096E-01   0.0000000000E+00   0.0000000000E+00   0.1240231097E-02  -0.5310033001E-03  -0.1304219924E-03   0.0000000000E+00   0.0000000000E+00   0.0000000000E+00   0.1223485248E+00
   0.2597585249E+00   0.1275057571E+00   0.8104898170E-04  -0.5881389929E-05   0.3241959268E-03  -0.2352555972E-04   0.1211991379E+00   0.4940195420E-02   0.3784180001E-01  -0.1229850311E-01   0.0000000000E+00   0.0000000000E+00   0.1083645393E-02  -0.4277208597E-03  -0.1598805404E-03   0.0000000000E+00   0.0000000000E+00   0.0000000000E+00   0.1059502699E+00
   0.1964726765E+00   0.1839669693E+00   0.5911329582E-04  -0.1545454236E-04   0.2364531833E-03  -0.6181816945E-04   0.1542436722E+00  -0.6178040169E-02   0.4441968960E-01  -0.4971370509E-02   0.0000000000E+00   0.0000000000E+00   0.1427711773E-02  -0.6577704870E-03  -0.6462781661E-04   0.0000000000E+00   0.0000000000E+00   0.0000000000E+00   0.1423062883E+00
   0.2586826608E+00   0.1414688671E+00   0.7962435686E-04  -0.7167578765E-05   0.3184974275E-03  -0.2867031506E-04   0.1299284189E+00   0.4963587035E-02   0.4046760178E-01  -0.1102114061E-01   0.0000000000E+00   0.0000000000E+00   0.1162990623E-02  -0.4615521917E-03  -0.1432748279E-03   0.0000000000E+00   0.0000000000E+00   0.0000000000E+00   0.1131401850E+00
   0.2463300364E+00   0.1446034799E+00   0.7646348351E-04  -0.7822228633E-05   0.3058539340E-03  -0.3128891453E-04   0.1301238809E+00   0.1337641977E-02   0.3943845687E-01  -0.1193333613E-01   0.0000000000E+00   0.0000000000E+00   0.1178910513E-02  -0.4953105937E-03  -0.1551333697E-03   0.0000000000E+00   0.0000000000E+00   0.0000000000E+00   0.1164292413E+00
   0.1919807092E+00   0.1589265979E+00   0.6100323645E-04  -0.1259322767E-04   0.2440129458E-03  -0.5037291068E-04   0.1464354697E+00  -0.8310104705E-02   0.4143760949E-01  -0.9385019986E-02   0.0000000000E+00   0.0000000000E+00   0.1364972182E-02  -0.6467202845E-03  -0.1220052598E-03   0.0000000000E+00   0.0000000000E+00   0.0000000000E+00   0.1377907783E+00
   0.1948076356E+00   0.1697214245E+00   0.6038872182E-04  -0.1373590286E-04   0.2415548873E-03  -0.5494361142E-04   0.1494206998E+00  -0.8160713972E-02   0.4237799576E-01  -0.7298905810E-02   0.0000000000E+00   0.0000000000E+00   0.1391555153E-02  -0.6570032265E-03  -0.9488577553E-04   0.0000000000E+00   0.0000000000E+00   0.0000000000E+00   0.1399335528E+00
   0.1800631077E+00   0.1552301146E+00   0.5822953609E-04  -0.1319148248E-04   0.2329181444E-03  -0.5276592992E-04   0.1489344613E+00  -0.1168394178E-01   0.4117515587E-01  -0.8534887710E-02   0.0000000000E+00   0.0000000000E+00   0.1400870971E-02  -0.6871682695E-03  -0.1109535402E-03   0.0000000000E+00   0.0000000000E+00   0.0000000000E+00   0.1424973404E+00
   0.1011553186E+00   0.1484462118E+00   0.3507292333E-04  -0.2425723160E-04   0.1402916933E-03  -0.9702892641E-04   0.1759276508E+00  -0.1858702536E-01   0.4720218764E-01   0.7846590870E-02   0.0000000000E+00   0.0000000000E+00   0.1673431021E-02  -0.8552597690E-03   0.1020056813E-03   0.0000000000E+00   0.0000000000E+00   0.0000000000E+00   0.1718716103E+00
   0.2007606810E+00   0.7796467285E-01   0.7530519088E-04  -0.3166109539E-05   0.3012207635E-03  -0.1266443816E-04   0.9347685978E-01  -0.1038005720E-02   0.2773165622E-01  -0.2491525302E-01   0.0000000000E+00   0.0000000000E+00   0.8546876463E-03  -0.3740056052E-03  -0.3238982892E-03   0.0000000000E+00   0.0000000000E+00   0.0000000000E+00   0.9431794330E-01
   0.2117096150E+00   0.1146402042E+00   0.7206719307E-04  -0.6112763399E-05   0.2882687723E-03  -0.2445105359E-04   0.1188223141E+00  -0.4134902677E-02   0.3440622343E-01  -0.1909319001E-01   0.0000000000E+00   0.0000000000E+00   0.1097409179E-02  -0.5010346394E-03  -0.2482114702E-03   0.0000000000E+00   0.0000000000E+00   0.0000000000E+00   0.1137993539E+00
   0.2069456962E+00   0.9687248671E-01   0.7361344777E-04  -0.4581998317E-05   0.2944537911E-03  -0.1832799327E-04   0.1075729163E+00  -0.3521597977E-02   0.3121539550E-01  -0.2247690897E-01   0.0000000000E+00   0.0000000000E+00   0.9926477705E-03  -0.4515809152E-03  -0.2921998166E-03   0.0000000000E+00   0.0000000000E+00   0.0000000000E+00   0.1057966816E+00
   0.9013461578E-01   0.1039043424E+00   0.4247775646E-04  -0.1884291655E-04   0.1699110258E-03  -0.7537166620E-04   0.1721945591E+00  -0.2046682930E-01   0.4551831895E-01  -0.1996371884E-01   0.0000000000E+00   0.0000000000E+00   0.1646791122E-02  -0.8578069273E-03  -0.2595283449E-03   0.0000000000E+00   0.0000000000E+00   0.0000000000E+00   0.1715570407E+00
   0.1247720702E+00   0.8334409320E-01   0.5925404604E-04  -0.8619079452E-05   0.2370161842E-03  -0.3447631781E-04   0.1106550922E+00  -0.3414404095E-01   0.2295331538E-01  -0.3560433611E-01   0.0000000000E+00   0.0000000000E+00   0.1140123099E-02  -0.7422656322E-03  -0.4628563695E-03   0.0000000000E+00   0.0000000000E+00   0.0000000000E+00   0.1403635068E+00
   0.1089792275E+00   0.1151084820E+00   0.4498549426E-04  -0.1663280581E-04   0.1799419770E-03  -0.6653122325E-04   0.1611867216E+00  -0.2960079510E-01   0.3947577795E-01  -0.1528582706E-01   0.0000000000E+00   0.0000000000E+00   0.1582242268E-02  -0.8979954496E-03  -0.1987157518E-03   0.0000000000E+00   0.0000000000E+00   0.0000000000E+00   0.1696454451E+00
   0.2442045264E+00   0.1279581974E+00   0.7761527264E-04  -0.6299315114E-05   0.3104610905E-03  -0.2519726045E-04   0.1218440794E+00   0.2032248849E-02   0.3716289846E-01  -0.1415283823E-01   0.0000000000E+00   0.0000000000E+00   0.1100855352E-02  -0.4566984449E-03  -0.1839868970E-03   0.0000000000E+00   0.0000000000E+00   0.0000000000E+00   0.1094349471E+00
   0.1992046001E+00   0.1516861571E+00   0.6390942272E-04  -0.1108737186E-04   0.2556376909E-03  -0.4434948745E-04   0.1414455304E+00  -0.8803297432E-02   0.3979266990E-01  -0.1141006271E-01   0.0000000000E+00   0.0000000000E+00   0.1321487187E-02  -0.6317475753E-03  -0.1483308152E-03   0.0000000000E+00   0.0000000000E+00   0.0000000000E+00   0.1342347492E+00
   0.2057027580E+00   0.1443871022E+00   0.6657660111E-04  -0.9735160343E-05   0.2663064044E-03  -0.3894064137E-04   0.1366089700E+00  -0.8087955347E-02   0.3855630439E-01  -0.1336489761E-01   0.0000000000E+00   0.0000000000E+00   0.1274684653E-02  -0.6063753766E-03  -0.1737436690E-03   0.0000000000E+00   0.0000000000E+00   0.0000000000E+00   0.1299988207E+00
   0.1927430644E+00   0.1007931554E+00   0.7008648365E-04  -0.5492129963E-05   0.2803459346E-03  -0.2196851985E-04   0.1124962095E+00  -0.8749677408E-02   0.3112395963E-01  -0.2364538525E-01   0.0000000000E+00   0.0000000000E+00   0.1057839248E-02  -0.5183572815E-03  -0.3073900082E-03   0.0000000000E+00   0.0000000000E+00   0.0000000000E+00   0.1145142578E+00
   0.1419566516E+00   0.1241492333E+00   0.5287711363E-04  -0.1287893470E-04   0.2115084545E-03  -0.5151573878E-04   0.1478330690E+00  -0.2619913512E-01   0.3649018017E-01  -0.1553658567E-01   0.0000000000E+00   0.0000000000E+00   0.1447457555E-02  -0.8149610988E-03  -0.2019756137E-03   0.0000000000E+00   0.0000000000E+00   0.0000000000E+00   0.1549884416E+00
   0.1461507178E+00   0.1118372411E+00   0.5680516558E-04  -0.1039737675E-04   0.2272206623E-03  -0.4158950701E-04   0.1370983845E+00  -0.2655672293E-01   0.3316249848E-01  -0.2260126166E-01   0.0000000000E+00   0.0000000000E+00   0.1351166519E-02  -0.7763498784E-03  -0.2938164016E-03   0.0000000000E+00   0.0000000000E+00   0.0000000000E+00   0.1486009898E+00
   0.1588955675E+00   0.1176192584E+00   0.5894609992E-04  -0.9932122033E-05   0.2357843997E-03  -0.3972848813E-04   0.1357482432E+00  -0.2210082838E-01   0.3409422445E-01  -0.2062407512E-01   0.0000000000E+00   0.0000000000E+00   0.1321502244E-02  -0.7305356868E-03  -0.2681129765E-03   0.0000000000E+00   0.0000000000E+00   0.0000000000E+00   0.1431331885E+00
   0.1543694302E+00   0.1313150544E+00   0.5499144681E-04  -0.1247492150E-04   0.2199657872E-03  -0.4989968601E-04   0.1449499390E+00  -0.2316491881E-01   0.3653550605E-01  -0.1485074547E-01   0.0000000000E+00   0.0000000000E+00   0.1409387628E-02  -0.7761055232E-03  -0.1930596911E-03   0.0000000000E+00   0.0000000000E+00   0.0000000000E+00   0.1496208334E+00
   0.1640361633E+00   0.1519074246E+00   0.5418826213E-04  -0.1444307832E-04   0.2167530485E-03  -0.5777231327E-04   0.1520340565E+00  -0.1529473691E-01   0.4102179587E-01  -0.7534734091E-02   0.0000000000E+00   0.0000000000E+00   0.1443159388E-02  -0.7321149260E-03  -0.9795154318E-04   0.0000000000E+00   0.0000000000E+00   0.0000000000E+00   0.1479729207E+00
   0.1115802449E+00   0.1548321499E+00   0.3751218567E-04  -0.2321981897E-04   0.1500487427E-03  -0.9287927590E-04   0.1740055990E+00  -0.1654248206E-01   0.4723893509E-01   0.8232714321E-02   0.0000000000E+00   0.0000000000E+00   0.1647966631E-02  -0.8291584230E-03   0.1070252862E-03   0.0000000000E+00   0.0000000000E+00   0.0000000000E+00   0.1684843419E+00
   0.1375059342E+00   0.1346675423E+00   0.4939144433E-04  -0.1526834020E-04   0.1975657773E-03  -0.6107336081E-04   0.1616104601E+00  -0.2237139980E-01   0.4177171809E-01  -0.8673831732E-02   0.0000000000E+00   0.0000000000E+00   0.1557903646E-02  -0.8338605325E-03  -0.1127598125E-03   0.0000000000E+00   0.0000000000E+00   0.0000000000E+00   0.1622908572E+00
   0.1808250752E+00   0.1056213061E+00   0.6662424212E-04  -0.6643374937E-05   0.2664969685E-03  -0.2657349975E-04   0.1175311064E+00  -0.1501019472E-01   0.3075627351E-01  -0.2460676072E-01   0.0000000000E+00   0.0000000000E+00   0.1128072828E-02  -0.5949640870E-03  -0.3198878894E-03   0.0000000000E+00   0.0000000000E+00   0.0000000000E+00   0.1241017319E+00
   0.1512750807E+00   0.9999607214E-01   0.6090653366E-04  -0.8106772622E-05   0.2436261346E-03  -0.3242709049E-04   0.1219065693E+00  -0.2466819815E-01   0.2917151133E-01  -0.2788716271E-01   0.0000000000E+00   0.0000000000E+00   0.1205555753E-02  -0.6999162232E-03  -0.3625331152E-03   0.0000000000E+00   0.0000000000E+00   0.0000000000E+00   0.1371128696E+00
   0.1383998813E+00   0.9235594763E-01   0.5975906191E-04  -0.8300754298E-05   0.2390362476E-03  -0.3320301719E-04   0.1197595041E+00  -0.2976970143E-01   0.2699694081E-01  -0.3189811964E-01   0.0000000000E+00   0.0000000000E+00   0.1205913323E-02  -0.7379663491E-03  -0.4146755553E-03   0.0000000000E+00   0.0000000000E+00   0.0000000000E+00   0.1417693589E+00
   0.1560821082E+00   0.9051364198E-01   0.6427763313E-04  -0.6465044649E-05   0.2571105325E-03  -0.2586017860E-04   0.1085465974E+00  -0.2536845631E-01   0.2495344233E-01  -0.3295431907E-01   0.0000000000E+00   0.0000000000E+00   0.1086711016E-02  -0.6541846822E-03  -0.4284061478E-03   0.0000000000E+00   0.0000000000E+00   0.0000000000E+00   0.1301611369E+00
   0.1275058657E+00   0.1185002183E+00   0.4989733071E-04  -0.1402033992E-04   0.1995893229E-03  -0.5608135969E-04   0.1552718091E+00  -0.2874028864E-01   0.3795945613E-01  -0.1637507809E-01   0.0000000000E+00   0.0000000000E+00   0.1525060588E-02  -0.8670966820E-03  -0.2128760152E-03   0.0000000000E+00   0.0000000000E+00   0.0000000000E+00   0.1636570447E+00
   0.1261702474E+00   0.1330532242E+00   0.4616668466E-04  -0.1678555818E-04   0.1846667387E-03  -0.6714223271E-04   0.1604173001E+00  -0.2624692186E-01   0.4025111347E-01  -0.7964093994E-02   0.0000000000E+00   0.0000000000E+00   0.1562160426E-02  -0.8644744593E-03  -0.1035332219E-03   0.0000000000E+00   0.0000000000E+00   0.0000000000E+00   0.1644572181E+00
   0.1146545018E+00   0.1296264966E+00   0.4327255450E-04  -0.1823027997E-04   0.1730902180E-03  -0.7292111990E-04   0.1632025957E+00  -0.3047235593E-01   0.3981907193E-01  -0.6827174277E-02   0.0000000000E+00   0.0000000000E+00   0.1603985809E-02  -0.9137885621E-03  -0.8875326561E-04   0.0000000000E+00   0.0000000000E+00   0.0000000000E+00   0.1699231942E+00
   0.2293465483E+00   0.1294561018E+00   0.7412825571E-04  -0.6917238165E-05   0.2965130229E-03  -0.2766895266E-04   0.1246456691E+00  -0.1010538224E-02   0.3709053927E-01  -0.1516931544E-01   0.0000000000E+00   0.0000000000E+00   0.1138216688E-02  -0.4953140074E-03  -0.1972011008E-03   0.0000000000E+00   0.0000000000E+00   0.0000000000E+00   0.1146254828E+00
   0.2014658342E+00   0.1331941124E+00   0.6707083804E-04  -0.8646911476E-05   0.2682833521E-03  -0.3458764590E-04   0.1323833302E+00  -0.7660668822E-02   0.3741679841E-01  -0.1573709391E-01   0.0000000000E+00   0.0000000000E+00   0.1234564913E-02  -0.5860070741E-03  -0.2045822208E-03   0.0000000000E+00   0.0000000000E+00   0.0000000000E+00   0.1267621396E+00
   0.1978594038E+00   0.1180738952E+00   0.6844356555E-04  -0.7115359001E-05   0.2737742622E-03  -0.2846143601E-04   0.1240745163E+00  -0.8613550360E-02   0.3463828979E-01  -0.1951475494E-01   0.0000000000E+00   0.0000000000E+00   0.1162670945E-02  -0.5622739219E-03  -0.2536918142E-03   0.0000000000E+00   0.0000000000E+00   0.0000000000E+00   0.1219594070E+00
   0.2152595636E+00   0.1311201451E+00   0.7066372763E-04  -0.7683186389E-05   0.2826549105E-03  -0.3073274555E-04   0.1274149345E+00  -0.4704202287E-02   0.3681321966E-01  -0.1592313602E-01   0.0000000000E+00   0.0000000000E+00   0.1177822293E-02  -0.5397264853E-03  -0.2070007682E-03   0.0000000000E+00   0.0000000000E+00   0.0000000000E+00   0.1202115911E+00
   0.1087875536E+00   0.1384099400E+00   0.3948411807E-04  -0.2093359380E-04   0.1579364723E-03  -0.8373437520E-04   0.1730074411E+00  -0.2375798312E-01   0.4477483739E-01  -0.9014713955E-04   0.0000000000E+00   0.0000000000E+00   0.1667023848E-02  -0.8909266667E-03  -0.1171912814E-05   0.0000000000E+00   0.0000000000E+00   0.0000000000E+00   0.1729082315E+00
   0.1690317063E+00   0.1364356980E+00   0.5814066663E-04  -0.1163860653E-04   0.2325626665E-03  -0.4655442613E-04   0.1431356480E+00  -0.1830819775E-01   0.3744823508E-01  -0.1381886347E-01   0.0000000000E+00   0.0000000000E+00   0.1373936368E-02  -0.7248336267E-03  -0.1796452251E-03   0.0000000000E+00   0.0000000000E+00   0.0000000000E+00   0.1439811529E+00
   0.1866077926E+00   0.1395734786E+00   0.6234332283E-04  -0.1047667495E-04   0.2493732913E-03  -0.4190669980E-04   0.1389802513E+00  -0.1256856268E-01   0.3792350659E-01  -0.1400975073E-01   0.0000000000E+00   0.0000000000E+00   0.1313737681E-02  -0.6563969005E-03  -0.1821267595E-03   0.0000000000E+00   0.0000000000E+00   0.0000000000E+00   0.1358064198E+00
   0.1629553370E+00   0.1046664240E+00   0.6269980322E-04  -0.7753604266E-05   0.2507992129E-03  -0.3101441706E-04   0.1260388093E+00  -0.1920218185E-01   0.3205098825E-01  -0.2472008984E-01   0.0000000000E+00   0.0000000000E+00   0.1221841674E-02  -0.6662912113E-03  -0.3213611680E-03   0.0000000000E+00   0.0000000000E+00   0.0000000000E+00   0.1343750376E+00
   0.1847046098E+00   0.1214242491E+00   0.6476196547E-04  -0.8315181976E-05   0.2590478619E-03  -0.3326072790E-04   0.1292589379E+00  -0.1284370995E-01   0.3492456837E-01  -0.1906014142E-01   0.0000000000E+00   0.0000000000E+00   0.1226346803E-02  -0.6209876182E-03  -0.2477818385E-03   0.0000000000E+00   0.0000000000E+00   0.0000000000E+00   0.1294477270E+00
   0.1718515169E+00   0.1217666786E+00   0.6150317536E-04  -0.9326672378E-05   0.2460127014E-03  -0.3730668951E-04   0.1327368319E+00  -0.1789350232E-01   0.3445299887E-01  -0.1921591293E-01   0.0000000000E+00   0.0000000000E+00   0.1277689829E-02  -0.6805045156E-03  -0.2498068681E-03   0.0000000000E+00   0.0000000000E+00   0.0000000000E+00   0.1365118482E+00
   0.1158702234E+00   0.9808274216E-01   0.5218848362E-04  -0.1238612799E-04   0.2087539345E-03  -0.4954451197E-04   0.1373637824E+00  -0.3445412890E-01   0.3087289605E-01  -0.2830925985E-01   0.0000000000E+00   0.0000000000E+00   0.1384381523E-02  -0.8492513244E-03  -0.3680203781E-03   0.0000000000E+00   0.0000000000E+00   0.0000000000E+00   0.1578765486E+00
   0.1316920034E+00   0.1052592011E+00   0.5448988158E-04  -0.1114638387E-04   0.2179595263E-03  -0.4458553548E-04   0.1391134157E+00  -0.3096203998E-01   0.3244541271E-01  -0.2483283363E-01   0.0000000000E+00   0.0000000000E+00   0.1386684039E-02  -0.8242968850E-03  -0.3228268372E-03   0.0000000000E+00   0.0000000000E+00   0.0000000000E+00   0.1547117465E+00
   0.1721646319E+00   0.1103031956E+00   0.6374678220E-04  -0.7800280448E-05   0.2549871288E-03  -0.3120112179E-04   0.1212860988E+00  -0.1856198777E-01   0.3081723330E-01  -0.2361086582E-01   0.0000000000E+00   0.0000000000E+00   0.1176095251E-02  -0.6419298739E-03  -0.3069412556E-03   0.0000000000E+00   0.0000000000E+00   0.0000000000E+00   0.1294382705E+00
           1           2           3           4
           5           6           7           8
           9          10          11          12
          13          14          15          16
          17          18          19          20
          21          22          23          24
          25          26          27          28
          29          30          31          32
          33          34           4           3
           2           1          35          36
          37          38          39          40
          41          42          36          35
          43          41          44          45
          46           9          47          48
          41          35          39          44
          49          50          51          52
          52          51          53          54
          55          56          57          58
          56          59          60          57
          61          62          63          64
          65          66          67          68
          69          70          71          72
          73          74          25          28
          27          75          76          28
          77          78          24          23
          79          80          81          82
          83          84          85          86
          87          88          89          90
          90          89          62          91
          61          92          91          62
          92          61          59          93
          56          94          93          59
          95          55          54          53
          46          96          10           9
          97          98          99         100
          12         101          98          97
          97         100         102          47
         103         104          31          30
         105         103          30         106
          73         107         108         109
         110         111         112         113
          32          31         114         115
         116         117         118         119
         120         121         122         123
         121          83          86         122
          80         124         125          81
         126         127         128         129
         130         101          12          11
         131          43         101         130
          34         129         132           4
          42          41          43         131
          35           1          40          39
         101          43          45          98
         133         134         109         108
         135         136          13          16
         137         138          65          68
          94          56          55          95
          58         137          54          55
          49          52          68          67
         139         140         141         142
         140         139          82          81
          88          87         142         141
         143         144         145         146
         147          26          25         148
         149         150         128         151
           5           8         152         102
         132         129         128         150
         153         100          99         154
          48          47         102         152
          59          61          64          60
         106         155         113         118
          62          89         156          63
          88         157         156          89
         123         116         119         120
          66          65         134         133
         144         143          84          83
           9          12          97          47
         104         158         114          31
         159         160         127         126
         119         112         161         120
         117         105         106         118
         162         163         164         165
          83         121         166         144
         167         168         141         140
         167         143         146         168
           6         114         158           7
          38          37         169         170
          40         132         150          37
         160         159          20          19
          78         171         172          24
          18          17          21          24
         173         174          78          77
         132          40           1           4
          28          76         107          73
         175         176         177         178
         176         179          57          60
         137          68          52          54
          60          64         177         176
         163         162         155          29
          75          27         174         173
         180         174          27          26
          64          63         181         177
          98          45         182          99
         183         182          45          44
          38         183          44          39
          58          57         179         184
         185         181          63         156
         134         186         187         109
         188          74         187         189
         138         186         134          65
          88         141         168         157
         166         121         120         161
         190         191         166         161
         155         106          30          29
         192         193         194         195
         118         113         112         119
         125          84         143         167
         124          85          84         125
           6         196         115         114
         196           6           5         153
         197          32         115         198
         111         190         161         112
         199         148         188         135
         170         169         200         201
         202         164         163         197
         203         204         146         145
         205         206         201         200
         187          74          73         109
         176         175         207         179
         208         209          16          15
         210         186         138         184
         184         138         137          58
         179         207         210         184
         211         212         172         171
          78         174         180         171
         125         167         140          81
          37         150         149         169
         213         214         215         216
         217         182         183         201
         170         201         183          38
         218         219         206         205
         111         220         221         190
         157         168         146         204
         177         181         222         178
         222         181         185         223
         186         210         189         187
         224         191         190         221
         100         153           5         102
         185         156         157         204
         113         155         162         110
          26         147         193         180
          29          32         197         163
         225         226          19          18
         144         166         191         145
         212         192         227         228
         198         115         196         229
         206         154         217         201
         153         154         229         196
         172         225          18          24
         148          25          74         188
          14          13         175         178
         207         175          13         136
         189         136         135         188
         230         202         197         198
         210         207         136         189
         165         164         231         232
         169         149         233         200
         234         160          19         226
         217         154          99         182
         203         145         191         224
         151         235         233         149
         236         223         203         224
         185         204         203         223
         178         222         237          14
         110         162         165         238
         239         223         236         240
         238         220         111         110
         219         230         198         229
         241         242         232         243
         242          69         220         238
          72          71         240         236
         244         205         200         233
         215         231         164         202
         211         171         180         193
         228         225         172         212
         194         193         147         245
         245         147         148         199
         135          16         209         199
         209         208         246         247
         127         160         234         248
         193         192         212         211
         226         225         228         249
         151         128         127         248
         248         250         235         151
          72         221         220          69
          14         237         251          15
          70          69         252         253
         206         219         229         154
         238         165         232         242
          72         236         224         221
         216         215         202         230
         245         247         254         194
         255         256         257         258
         230         219         218         216
         214         259         231         215
         216         218         260         213
         261         255         258         214
         239         237         222         223
         194         254         262         195
         263         264         227         265
         250         266         267         268
         199         209         247         245
         240          71         269         251
         270         271         246         272
         260         244         273         213
         237         239         240         251
         218         205         244         260
          70         272         269          71
         232         231         259         243
         274         275         243         259
         257         256         263         276
         277         275         274         278
         234         226         249         279
         271         277         262         254
         271         254         247         246
         246         208         269         272
         244         233         235         273
         251         269         208          15
         275         270         253         252
         234         279         250         248
         279         249         264         280
         259         214         258         274
         262         281         276         195
         195         276         263         265
         257         276         281         278
         278         274         258         257
         266         280         256         255
         261         214         213         267
         267         266         255         261
         266         250         279         280
         228         227         264         249
         256         280         264         263
         265         227         192         195
         281         262         277         278
         235         250         268         273
         273         268         267         213
         277         271         270         275
         253         270         272          70
         252          69         242         241
         243         275         252         241
 VARIABLES = X,Y,DU1,DU2,U1,U2,S11,S22,S33,S12,S13,S23,E11,E22,E12,E33,E13,E23,SMISES
 ZONE, T="0.6000D+01" F=FEPOINT, I=  281 J=  250
   0.1779698735E-01   0.1340047488E+00   0.6995108697E-05  -0.3884119502E-04   0.3497554349E-04  -0.1942059751E-03   0.2845811626E+00   0.5456939552E-01   0.1017451675E+00   0.4353736372E-02   0.0000000000E+00   0.0000000000E+00   0.2376867938E-02  -0.6132850351E-03   0.5659857283E-04   0.0000000000E+00   0.0000000000E+00   0.0000000000E+00   0.2093688500E+00
   0.0000000000E+00   0.1330954642E+00   0.0000000000E+00  -0.3964596163E-04   0.0000000000E+00  -0.1982298082E-03   0.2863760536E+00   0.5688782303E-01   0.1029791630E+00   0.7356285498E-02   0.0000000000E+00   0.0000000000E+00   0.2384159578E-02  -0.5991874193E-03   0.9563171148E-04   0.0000000000E+00   0.0000000000E+00   0.0000000000E+00   0.2107026463E+00
   0.0000000000E+00   0.1164421209E+00   0.0000000000E+00  -0.3742435212E-04   0.0000000000E+00  -0.1871217606E-03   0.3589760974E+00   0.2399819460E-01   0.1148922876E+00   0.5852464899E-02   0.0000000000E+00   0.0000000000E+00   0.3173089527E-02  -0.1181623209E-02   0.7608204369E-04   0.0000000000E+00   0.0000000000E+00   0.0000000000E+00   0.2992773888E+00
   0.1921311450E-01   0.1160726654E+00   0.9829582524E-05  -0.3642042832E-04   0.4914791262E-04  -0.1821021416E-03   0.3279720844E+00   0.2303925960E-01   0.1053034032E+00  -0.2917082010E-01   0.0000000000E+00   0.0000000000E+00   0.2894692855E-02  -0.1069433867E-02  -0.3792206613E-03   0.0000000000E+00   0.0000000000E+00   0.0000000000E+00   0.2791715590E+00
   0.7811249282E-01   0.2316333190E+00   0.1849893641E-04  -0.4051400749E-04   0.9249468203E-04  -0.2025700374E-03   0.1745344506E+00   0.9086118710E-04   0.5238759353E-01   0.1209024849E-01   0.0000000000E+00   0.0000000000E+00   0.1587909142E-02  -0.6798575204E-03   0.1571732304E-03   0.0000000000E+00   0.0000000000E+00   0.0000000000E+00   0.1565353281E+00
   0.9792119122E-01   0.2318337255E+00   0.2386522070E-04  -0.3692275069E-04   0.1193261035E-03  -0.1846137535E-03   0.1844777898E+00  -0.9016116217E-03   0.5507285345E-01   0.1101218283E-01   0.0000000000E+00   0.0000000000E+00   0.1682264172E-02  -0.7276680460E-03   0.1431583768E-03   0.0000000000E+00   0.0000000000E+00   0.0000000000E+00   0.1658487822E+00
   0.9734796119E-01   0.2497650105E+00   0.2095621536E-04  -0.3916492128E-04   0.1047810768E-03  -0.1958246064E-03   0.1799469560E+00  -0.9157395931E-03   0.5370936492E-01   0.3783240958E-02   0.0000000000E+00   0.0000000000E+00   0.1641088684E-02  -0.7101263587E-03   0.4918213245E-04   0.0000000000E+00   0.0000000000E+00   0.0000000000E+00   0.1606244083E+00
   0.7787307866E-01   0.2497447336E+00   0.1588301032E-04  -0.4254439680E-04   0.7941505161E-04  -0.2127219840E-03   0.1628496101E+00  -0.1629085215E-02   0.4836615747E-01   0.4203001659E-02   0.0000000000E+00   0.0000000000E+00   0.1488284884E-02  -0.6499381549E-03   0.5463902157E-04   0.0000000000E+00   0.0000000000E+00   0.0000000000E+00   0.1460235212E+00
   0.1912331204E-01   0.2330335273E+00   0.4186906655E-05  -0.4821695311E-04   0.2093453328E-04  -0.2410847655E-03   0.1478975800E+00   0.4131201463E-02   0.4560863443E-01   0.3486771442E-02   0.0000000000E+00   0.0000000000E+00   0.1329756292E-02  -0.5392066285E-03   0.4532802875E-04   0.0000000000E+00   0.0000000000E+00   0.0000000000E+00   0.1285525082E+00
   0.0000000000E+00   0.2330406774E+00   0.0000000000E+00  -0.4877609362E-04   0.0000000000E+00  -0.2438804681E-03   0.1455078532E+00   0.4387020991E-02   0.4496846226E-01   0.3927896791E-02   0.0000000000E+00   0.0000000000E+00   0.1307012082E-02  -0.5275587365E-03   0.5106265829E-04   0.0000000000E+00   0.0000000000E+00   0.0000000000E+00   0.1259753277E+00
   0.0000000000E+00   0.2163833002E+00   0.0000000000E+00  -0.4722813783E-04   0.0000000000E+00  -0.2361406891E-03   0.1653403982E+00   0.8419048914E-02   0.5212783414E-01   0.4023519460E-02   0.0000000000E+00   0.0000000000E+00   0.1471763333E-02  -0.5682142079E-03   0.5230575298E-04   0.0000000000E+00   0.0000000000E+00   0.0000000000E+00   0.1403360643E+00
   0.1855968687E-01   0.2164945115E+00   0.4565344514E-05  -0.4668358177E-04   0.2282672257E-04  -0.2334179088E-03   0.1669785971E+00   0.7773154928E-02   0.5242552562E-01   0.6837097194E-02   0.0000000000E+00   0.0000000000E+00   0.1489189930E-02  -0.5804808190E-03   0.8888226352E-04   0.0000000000E+00   0.0000000000E+00   0.0000000000E+00   0.1429451843E+00
   0.2577072060E+00   0.9225449408E-01   0.8362000731E-04  -0.3296152572E-05   0.4181000365E-03  -0.1648076286E-04   0.1230239949E+00   0.1156622589E-01   0.4037706625E-01  -0.1677849261E-01   0.0000000000E+00   0.0000000000E+00   0.1074410073E-02  -0.3745409247E-03  -0.2181204040E-03   0.0000000000E+00   0.0000000000E+00   0.0000000000E+00   0.1043096628E+00
   0.2590954743E+00   0.1102588550E+00   0.8236604865E-04  -0.4512505276E-05   0.4118302433E-03  -0.2256252638E-04   0.1343494682E+00   0.8566304022E-02   0.4287473167E-01  -0.1613157662E-01   0.0000000000E+00   0.0000000000E+00   0.1189171575E-02  -0.4460095594E-03  -0.2097104960E-03   0.0000000000E+00   0.0000000000E+00   0.0000000000E+00   0.1160048372E+00
   0.2423293832E+00   0.1106475748E+00   0.7897520231E-04  -0.4849041415E-05   0.3948760115E-03  -0.2424520708E-04   0.1356653686E+00   0.4640729882E-02   0.4209182955E-01  -0.1898736578E-01   0.0000000000E+00   0.0000000000E+00   0.1216456008E-02  -0.4868642957E-03  -0.2468357552E-03   0.0000000000E+00   0.0000000000E+00   0.0000000000E+00   0.1214024723E+00
   0.2398623148E+00   0.9266007988E-01   0.8036313396E-04  -0.3539770277E-05   0.4018156698E-03  -0.1769885138E-04   0.1233870334E+00   0.7444354970E-02   0.3924941652E-01  -0.2041685659E-01   0.0000000000E+00   0.0000000000E+00   0.1093789020E-02  -0.4134658001E-03  -0.2654191356E-03   0.0000000000E+00   0.0000000000E+00   0.0000000000E+00   0.1095885691E+00
   0.9281462759E-01   0.3820424896E-01   0.7111261511E-04  -0.1068227345E-04   0.3555630755E-03  -0.5341136727E-04  -0.2103910457E-01  -0.1080214411E+00  -0.3871816369E-01   0.1504863774E-01   0.0000000000E+00   0.0000000000E+00   0.2298277686E-03  -0.9009426059E-03   0.1956322906E-03   0.0000000000E+00   0.0000000000E+00   0.0000000000E+00   0.7727046331E-01
   0.1084647151E+00   0.4605807774E-01   0.6964251905E-04  -0.6743959537E-05   0.3482125952E-03  -0.3371979769E-04   0.3723732142E-01  -0.4420299100E-01  -0.2089700874E-02  -0.2243472760E-01   0.0000000000E+00   0.0000000000E+00   0.5112512898E-03  -0.5474727716E-03  -0.2916514587E-03   0.0000000000E+00   0.0000000000E+00   0.0000000000E+00   0.7689386795E-01
   0.9648026698E-01   0.6347227976E-01   0.6152843021E-04  -0.1165248961E-04   0.3076421511E-03  -0.5826244805E-04   0.7015009515E-01  -0.2700416956E-01   0.1294377768E-01  -0.3339923214E-01   0.0000000000E+00   0.0000000000E+00   0.7436821271E-03  -0.5193233141E-03  -0.4341900178E-03   0.0000000000E+00   0.0000000000E+00   0.0000000000E+00   0.1029055329E+00
   0.8353283591E-01   0.5546009122E-01   0.6431273462E-04  -0.1615541316E-04   0.3215636731E-03  -0.8077706582E-04   0.1886258092E-01  -0.2412985597E-01  -0.1580182516E-02  -0.1078693964E-01   0.0000000000E+00   0.0000000000E+00   0.2657559246E-03  -0.2931457549E-03  -0.1402302153E-03   0.0000000000E+00   0.0000000000E+00   0.0000000000E+00   0.4191185950E-01
   0.9852858719E-01   0.1947744503E-01   0.7501009803E-04  -0.5264561245E-05   0.3750504902E-03  -0.2632280622E-04  -0.2213896949E-01  -0.1685650839E+00  -0.5721121601E-01   0.2103372033E-01   0.0000000000E+00   0.0000000000E+00   0.4559392048E-03  -0.1447600282E-02   0.2734383643E-03   0.0000000000E+00   0.0000000000E+00   0.0000000000E+00   0.1304543990E+00
   0.1004601451E+00   0.0000000000E+00   0.7669068531E-04   0.0000000000E+00   0.3834534266E-03   0.0000000000E+00  -0.3015461023E-01  -0.1825769655E+00  -0.6381947273E-01  -0.1148400050E-01   0.0000000000E+00   0.0000000000E+00   0.4376432124E-03  -0.1543847406E-02  -0.1492920065E-03   0.0000000000E+00   0.0000000000E+00   0.0000000000E+00   0.1393622129E+00
   0.1213022410E+00   0.0000000000E+00   0.7815183898E-04   0.0000000000E+00   0.3907591949E-03   0.0000000000E+00   0.4515843778E-02  -0.5776707933E-01  -0.1597537066E-01  -0.1232461785E-01   0.0000000000E+00   0.0000000000E+00   0.2663857878E-03  -0.5432922126E-03  -0.1602200320E-03   0.0000000000E+00   0.0000000000E+00   0.0000000000E+00   0.5812649996E-01
   0.1221858705E+00   0.2609771945E-01   0.7583442070E-04  -0.2431542051E-05   0.3791721035E-03  -0.1215771026E-04   0.1769347934E-01  -0.5579141050E-01  -0.1142937935E-01  -0.1479167385E-01   0.0000000000E+00   0.0000000000E+00   0.3785971630E-03  -0.5767064050E-03  -0.1922917600E-03   0.0000000000E+00   0.0000000000E+00   0.0000000000E+00   0.7308149309E-01
   0.2110335586E+00   0.3762767293E-01   0.8156992776E-04  -0.9266450683E-06   0.4078496388E-03  -0.4633225341E-05   0.8013412806E-01   0.1216455078E-01   0.2768960365E-01  -0.1862920251E-01   0.0000000000E+00   0.0000000000E+00   0.6817788173E-03  -0.2018256873E-03  -0.2421796326E-03   0.0000000000E+00   0.0000000000E+00   0.0000000000E+00   0.6938827465E-01
   0.1909336633E+00   0.3837626583E-01   0.7929222066E-04  -0.1039095662E-05   0.3964611033E-03  -0.5195478308E-05   0.7237317485E-01   0.4580229236E-02   0.2308602123E-01  -0.2397592540E-01   0.0000000000E+00   0.0000000000E+00   0.6407329972E-03  -0.2405752959E-03  -0.3116870302E-03   0.0000000000E+00   0.0000000000E+00   0.0000000000E+00   0.7321281879E-01
   0.1871917140E+00   0.1901026751E-01   0.8059366394E-04  -0.4421810457E-06   0.4029683197E-03  -0.2210905228E-05   0.5720969655E-01   0.7438268151E-02   0.1939438941E-01  -0.1183431187E-01   0.0000000000E+00   0.0000000000E+00   0.4915989929E-03  -0.1554295764E-03  -0.1538460544E-03   0.0000000000E+00   0.0000000000E+00   0.0000000000E+00   0.4995364426E-01
   0.2077269411E+00   0.1873564076E-01   0.8244318411E-04  -0.3971898792E-06   0.4122159205E-03  -0.1985949396E-05   0.6961814180E-01   0.1414837109E-01   0.2512995387E-01  -0.9332785271E-02   0.0000000000E+00   0.0000000000E+00   0.5783464431E-03  -0.1427605761E-03  -0.1213262085E-03   0.0000000000E+00   0.0000000000E+00   0.0000000000E+00   0.5363809926E-01
   0.1576856397E+00   0.2158106548E+00   0.4371544168E-04  -0.2446553376E-04   0.2185772084E-03  -0.1223276688E-03   0.1993936659E+00  -0.4354121046E-02   0.5851186346E-01   0.5264640349E-02   0.0000000000E+00   0.0000000000E+00   0.1831463432E-02  -0.8172577985E-03   0.6844032453E-04   0.0000000000E+00   0.0000000000E+00   0.0000000000E+00   0.1809280166E+00
   0.1567004369E+00   0.2324443150E+00   0.4129432021E-04  -0.2686449964E-04   0.2064716011E-03  -0.1343224982E-03   0.2041418947E+00  -0.2090389349E-02   0.6061545159E-01   0.3323645344E-02   0.0000000000E+00   0.0000000000E+00   0.1865843760E-02  -0.8151759322E-03   0.4320738947E-04   0.0000000000E+00   0.0000000000E+00   0.0000000000E+00   0.1832252037E+00
   0.1371911198E+00   0.2324504912E+00   0.3529146640E-04  -0.2994046399E-04   0.1764573320E-03  -0.1497023199E-03   0.1999359249E+00  -0.2096091490E-02   0.5935195003E-01   0.5933511916E-02   0.0000000000E+00   0.0000000000E+00   0.1827591674E-02  -0.7988245398E-03   0.7713565490E-04   0.0000000000E+00   0.0000000000E+00   0.0000000000E+00   0.1797013240E+00
   0.1384424207E+00   0.2156479057E+00   0.3788511910E-04  -0.2747788619E-04   0.1894255955E-03  -0.1373894310E-03   0.1979017919E+00  -0.4855546634E-02   0.5791387357E-01   0.9741490020E-02   0.0000000000E+00   0.0000000000E+00   0.1819842938E-02  -0.8160024627E-03   0.1266393703E-03   0.0000000000E+00   0.0000000000E+00   0.0000000000E+00   0.1805376429E+00
   0.0000000000E+00   0.9980084447E-01   0.0000000000E+00  -0.3319275520E-04   0.0000000000E+00  -0.1659637760E-03   0.5520259776E+00   0.5076929933E-01   0.1808385831E+00   0.6530913748E-02   0.0000000000E+00   0.0000000000E+00   0.4825436129E-02  -0.1690900689E-02   0.8490187872E-04   0.0000000000E+00   0.0000000000E+00   0.0000000000E+00   0.4457834877E+00
   0.1960171665E-01   0.9788533190E-01   0.1544737453E-04  -0.3219911729E-04   0.7723687264E-04  -0.1609955864E-03   0.5070814203E+00   0.4801860244E-01   0.1665300068E+00  -0.7612634318E-01   0.0000000000E+00   0.0000000000E+00   0.4427168375E-02  -0.1540648257E-02  -0.9896424614E-03   0.0000000000E+00   0.0000000000E+00   0.0000000000E+00   0.4292865748E+00
   0.1683329801E-01   0.1510929554E+00   0.5706535176E-05  -0.4062660207E-04   0.2853267588E-04  -0.2031330103E-03   0.2419377147E+00   0.4054165431E-01   0.8474381071E-01   0.7445091449E-02   0.0000000000E+00   0.0000000000E+00   0.2043520752E-02  -0.5746280332E-03   0.9678618884E-04   0.0000000000E+00   0.0000000000E+00   0.0000000000E+00   0.1845427449E+00
   0.0000000000E+00   0.1497528210E+00   0.0000000000E+00  -0.4119750748E-04   0.0000000000E+00  -0.2059875374E-03   0.2445275301E+00   0.4610908491E-01   0.8719098450E-01   0.5695485665E-02   0.0000000000E+00   0.0000000000E+00   0.2045375093E-02  -0.5340646947E-03   0.7404131365E-04   0.0000000000E+00   0.0000000000E+00   0.0000000000E+00   0.1815346344E+00
   0.5116915291E-01   0.1384659527E+00   0.1914046851E-04  -0.3394788473E-04   0.9570234256E-04  -0.1697394236E-03   0.2494587696E+00   0.1530613355E-01   0.7942947094E-01   0.1299666394E-01   0.0000000000E+00   0.0000000000E+00   0.2210380882E-02  -0.8336033861E-03   0.1689566312E-03   0.0000000000E+00   0.0000000000E+00   0.0000000000E+00   0.2106013735E+00
   0.4914593291E-01   0.1538418992E+00   0.1650485225E-04  -0.3634614103E-04   0.8252426125E-04  -0.1817307052E-03   0.2320898873E+00   0.1764831249E-01   0.7492145995E-01   0.2024362315E-01   0.0000000000E+00   0.0000000000E+00   0.2043189556E-02  -0.7445509169E-03   0.2631671010E-03   0.0000000000E+00   0.0000000000E+00   0.0000000000E+00   0.1955852178E+00
   0.3324268093E-01   0.1525031756E+00   0.1120270566E-04  -0.3887989452E-04   0.5601352832E-04  -0.1943994726E-03   0.2383188984E+00   0.3080978876E-01   0.8073860616E-01   0.1550931539E-01   0.0000000000E+00   0.0000000000E+00   0.2048543799E-02  -0.6490746261E-03   0.2016211000E-03   0.0000000000E+00   0.0000000000E+00   0.0000000000E+00   0.1905732164E+00
   0.3445120031E-01   0.1355192383E+00   0.1328728485E-04  -0.3675829144E-04   0.6643642425E-04  -0.1837914572E-03   0.2631929733E+00   0.3245608705E-01   0.8869471809E-01   0.1534820925E-01   0.0000000000E+00   0.0000000000E+00   0.2268477317E-02  -0.7311022036E-03   0.1995267202E-03   0.0000000000E+00   0.0000000000E+00   0.0000000000E+00   0.2063200344E+00
   0.1671554325E-01   0.1675502458E+00   0.5146158594E-05  -0.4214870292E-04   0.2573079297E-04  -0.2107435146E-03   0.2190621007E+00   0.3409418068E-01   0.7594688443E-01   0.9077117276E-02   0.0000000000E+00   0.0000000000E+00   0.1860497812E-02  -0.5440851487E-03   0.1180025246E-03   0.0000000000E+00   0.0000000000E+00   0.0000000000E+00   0.1688948573E+00
   0.0000000000E+00   0.1664108326E+00   0.0000000000E+00  -0.4263990217E-04   0.0000000000E+00  -0.2131995108E-03   0.2192131449E+00   0.3697596613E-01   0.7685673332E-01   0.4855463806E-02   0.0000000000E+00   0.0000000000E+00   0.1850633351E-02  -0.5184499735E-03   0.6312102947E-04   0.0000000000E+00   0.0000000000E+00   0.0000000000E+00   0.1659803236E+00
   0.1712083453E-01   0.1838637235E+00   0.4895355700E-05  -0.4363409146E-04   0.2447677850E-04  -0.2181704573E-03   0.2001231060E+00   0.2395718868E-01   0.6722408841E-01   0.8898850079E-02   0.0000000000E+00   0.0000000000E+00   0.1727687229E-02  -0.5624696965E-03   0.1156850510E-03   0.0000000000E+00   0.0000000000E+00   0.0000000000E+00   0.1600255919E+00
   0.3345243548E-01   0.1683637366E+00   0.1032078073E-04  -0.4052590440E-04   0.5160390366E-04  -0.2026295220E-03   0.2173733042E+00   0.2482615939E-01   0.7265983909E-01   0.1932436918E-01   0.0000000000E+00   0.0000000000E+00   0.1881275047E-02  -0.6218378360E-03   0.2512167993E-03   0.0000000000E+00   0.0000000000E+00   0.0000000000E+00   0.1764121235E+00
   0.3457296794E-01   0.1840271823E+00   0.9944307253E-05  -0.4200844510E-04   0.4972153627E-04  -0.2100422255E-03   0.2007478511E+00   0.1815741830E-01   0.6567158081E-01   0.1866231983E-01   0.0000000000E+00   0.0000000000E+00   0.1755991513E-02  -0.6176841126E-03   0.2426101578E-03   0.0000000000E+00   0.0000000000E+00   0.0000000000E+00   0.1672330368E+00
   0.1946545925E-01   0.2497022549E+00   0.3502358286E-05  -0.4962417774E-04   0.1751179143E-04  -0.2481208887E-03   0.1196026740E+00  -0.3614547957E-02   0.3479643783E-01   0.6619475779E-03   0.0000000000E+00   0.0000000000E+00   0.1102481071E-02  -0.4993428152E-03   0.8605318513E-05   0.0000000000E+00   0.0000000000E+00   0.0000000000E+00   0.1093786000E+00
   0.3852938633E-01   0.2326651074E+00   0.8595105215E-05  -0.4652877048E-04   0.4297552608E-04  -0.2326438524E-03   0.1545113963E+00   0.3204221560E-02   0.4731468534E-01   0.8773941704E-02   0.0000000000E+00   0.0000000000E+00   0.1393557242E-02  -0.5734360292E-03   0.1140612422E-03   0.0000000000E+00   0.0000000000E+00   0.0000000000E+00   0.1357199735E+00
   0.3893218097E-01   0.2497117467E+00   0.7215112174E-05  -0.4804222306E-04   0.3607556087E-04  -0.2402111153E-03   0.1301717746E+00  -0.3113574052E-02   0.3811746017E-01   0.3335023427E-02   0.0000000000E+00   0.0000000000E+00   0.1196706088E-02  -0.5360034449E-03   0.4335530455E-04   0.0000000000E+00   0.0000000000E+00   0.0000000000E+00   0.1182989728E+00
   0.3297500598E+00   0.0000000000E+00   0.9722979590E-04   0.0000000000E+00   0.4861489795E-03   0.0000000000E+00   0.9963369866E-01   0.2872426720E-01   0.3850738976E-01  -0.2890269159E-03   0.0000000000E+00   0.0000000000E+00   0.7946420158E-03  -0.1271805933E-03  -0.3757349906E-05   0.0000000000E+00   0.0000000000E+00   0.0000000000E+00   0.6655746538E-01
   0.3505999940E+00   0.0000000000E+00   0.1000000000E-03   0.0000000000E+00   0.5000000000E-03   0.0000000000E+00   0.1002165570E+00   0.2889564472E-01   0.3873366052E-01  -0.1780548243E-05   0.0000000000E+00   0.0000000000E+00   0.7992776545E-03  -0.1278942055E-03  -0.2314712716E-07   0.0000000000E+00   0.0000000000E+00   0.0000000000E+00   0.6694632551E-01
   0.3505999940E+00   0.1922825476E-01   0.1000000000E-03  -0.4191893133E-06   0.5000000000E-03  -0.2095946566E-05   0.1013048490E+00   0.2840220946E-01   0.3891211754E-01  -0.1672754281E-04   0.0000000000E+00   0.0000000000E+00   0.8111055091E-03  -0.1366288050E-03  -0.2174580566E-06   0.0000000000E+00   0.0000000000E+00   0.0000000000E+00   0.6825360073E-01
   0.3303464024E+00   0.1871211128E-01   0.9726922721E-04  -0.4056707959E-06   0.4863461360E-03  -0.2028353979E-05   0.1007904214E+00   0.2826798728E-01   0.3871752262E-01  -0.9291088873E-03   0.0000000000E+00   0.0000000000E+00   0.8069476847E-03  -0.1358439594E-03  -0.1207841553E-04   0.0000000000E+00   0.0000000000E+00   0.0000000000E+00   0.6792042464E-01
   0.3505999940E+00   0.3845617485E-01   0.1000000000E-03  -0.8941745386E-06   0.5000000000E-03  -0.4470872693E-05   0.1046146760E+00   0.2697292567E-01   0.3947628051E-01  -0.1990307074E-04   0.0000000000E+00   0.0000000000E+00   0.8467991419E-03  -0.1625436130E-03  -0.2587399197E-06   0.0000000000E+00   0.0000000000E+00   0.0000000000E+00   0.7219429241E-01
   0.3307890981E+00   0.3767780477E-01   0.9721169021E-04  -0.8712883692E-06   0.4860584510E-03  -0.4356441846E-05   0.1042124848E+00   0.2691448580E-01   0.3933809116E-01  -0.1923079760E-02   0.0000000000E+00   0.0000000000E+00   0.8433671166E-03  -0.1615068698E-03  -0.2500003688E-04   0.0000000000E+00   0.0000000000E+00   0.0000000000E+00   0.7195792781E-01
   0.3311409618E+00   0.5675404599E-01   0.9707545881E-04  -0.1446518214E-05   0.4853772940E-03  -0.7232591069E-05   0.1097062384E+00   0.2474382739E-01   0.4033501972E-01  -0.2599640571E-02   0.0000000000E+00   0.0000000000E+00   0.9018258422E-03  -0.2026855003E-03  -0.3379532742E-04   0.0000000000E+00   0.0000000000E+00   0.0000000000E+00   0.7844752122E-01
   0.3314189175E+00   0.7594358303E-01   0.9687509014E-04  -0.2177845691E-05   0.4843754507E-03  -0.1088922846E-04   0.1169590040E+00   0.2194261246E-01   0.4167048493E-01  -0.3087744001E-02   0.0000000000E+00   0.0000000000E+00   0.9787507476E-03  -0.2564623421E-03  -0.4014067201E-04   0.0000000000E+00   0.0000000000E+00   0.0000000000E+00   0.8698710996E-01
   0.3123743283E+00   0.7513254667E-01   0.9379855219E-04  -0.2161022229E-05   0.4689927610E-03  -0.1080511115E-04   0.1159125676E+00   0.2115822454E-01   0.4112123765E-01  -0.6148028651E-02   0.0000000000E+00   0.0000000000E+00   0.9722872896E-03  -0.2595191704E-03  -0.7992437247E-04   0.0000000000E+00   0.0000000000E+00   0.0000000000E+00   0.8714479088E-01
   0.3117100186E+00   0.5604463727E-01   0.9418344150E-04  -0.1426937509E-05   0.4709172075E-03  -0.7134687544E-05   0.1083939062E+00   0.2402427460E-01   0.3972545424E-01  -0.5208204294E-02   0.0000000000E+00   0.0000000000E+00   0.8926898755E-03  -0.2041153353E-03  -0.6770665583E-04   0.0000000000E+00   0.0000000000E+00   0.0000000000E+00   0.7821947192E-01
   0.3315620342E+00   0.9523738871E-01   0.9661286549E-04  -0.3102015565E-05   0.4830643274E-03  -0.1551007782E-04   0.1255658132E+00   0.1869537730E-01   0.4327835714E-01  -0.3343472934E-02   0.0000000000E+00   0.0000000000E+00   0.1069736929E-02  -0.3195787380E-03  -0.4346514814E-04   0.0000000000E+00   0.0000000000E+00   0.0000000000E+00   0.9709008007E-01
   0.3127483882E+00   0.9438205493E-01   0.9328885909E-04  -0.3094511305E-05   0.4664442954E-03  -0.1547255652E-04   0.1248086789E+00   0.1789512210E-01   0.4281114030E-01  -0.6612819625E-02   0.0000000000E+00   0.0000000000E+00   0.1065968002E-02  -0.3239082365E-03  -0.8596665513E-04   0.0000000000E+00   0.0000000000E+00   0.0000000000E+00   0.9753949673E-01
   0.3315465543E+00   0.1146840740E+00   0.9629288459E-04  -0.4248333869E-05   0.4814644229E-03  -0.2124166934E-04   0.1351631608E+00   0.1526716510E-01   0.4512909776E-01  -0.3413008500E-02   0.0000000000E+00   0.0000000000E+00   0.1170442819E-02  -0.3882051246E-03  -0.4436911050E-04   0.0000000000E+00   0.0000000000E+00   0.0000000000E+00   0.1082388380E+00
   0.3314032546E+00   0.1342412588E+00   0.9592859401E-04  -0.5629205086E-05   0.4796429701E-03  -0.2814602543E-04   0.1453025229E+00   0.1187678126E-01   0.4715379124E-01  -0.3280403777E-02   0.0000000000E+00   0.0000000000E+00   0.1275933511E-02  -0.4586011297E-03  -0.4264524911E-04   0.0000000000E+00   0.0000000000E+00   0.0000000000E+00   0.1198607504E+00
   0.3123492011E+00   0.1337595472E+00   0.9189067596E-04  -0.5689135348E-05   0.4594533798E-03  -0.2844567674E-04   0.1452957358E+00   0.1102746061E-01   0.4689695893E-01  -0.6432630138E-02   0.0000000000E+00   0.0000000000E+00   0.1279184100E-02  -0.4663034782E-03  -0.8362419180E-04   0.0000000000E+00   0.0000000000E+00   0.0000000000E+00   0.1209089227E+00
   0.3127419057E+00   0.1139099505E+00   0.9265045444E-04  -0.4262086569E-05   0.4632522722E-03  -0.2131043284E-04   0.1347251271E+00   0.1438711514E-01   0.4473367268E-01  -0.6688117399E-02   0.0000000000E+00   0.0000000000E+00   0.1169888908E-02  -0.3945052480E-03  -0.8694552619E-04   0.0000000000E+00   0.0000000000E+00   0.0000000000E+00   0.1089960017E+00
   0.2895468806E+00   0.1826184184E-01   0.9188609178E-04  -0.3884599257E-06   0.4594304589E-03  -0.1942299628E-05   0.9628057306E-01   0.2652646451E-01   0.3684211127E-01  -0.2888168106E-02   0.0000000000E+00   0.0000000000E+00   0.7727000032E-03  -0.1341034079E-03  -0.3754618538E-04   0.0000000000E+00   0.0000000000E+00   0.0000000000E+00   0.6541545656E-01
   0.2880509042E+00   0.0000000000E+00   0.9181836775E-04   0.0000000000E+00   0.4590918387E-03   0.0000000000E+00   0.9473487040E-01   0.2693802281E-01   0.3650186796E-01  -0.9094255984E-03   0.0000000000E+00   0.0000000000E+00   0.7570290317E-03  -0.1243299870E-03  -0.1182253278E-04   0.0000000000E+00   0.0000000000E+00   0.0000000000E+00   0.6353826988E-01
   0.3089002862E+00   0.0000000000E+00   0.9449153983E-04   0.0000000000E+00   0.4724576992E-03   0.0000000000E+00   0.9783462508E-01   0.2807925032E-01   0.3777416262E-01  -0.5847143990E-03   0.0000000000E+00   0.0000000000E+00   0.7807860120E-03  -0.1260338599E-03  -0.7601287187E-05   0.0000000000E+00   0.0000000000E+00   0.0000000000E+00   0.6544103600E-01
   0.3099549245E+00   0.1840387837E-01   0.9455008192E-04  -0.3958208889E-06   0.4727504096E-03  -0.1979104444E-05   0.9909997606E-01   0.2763669065E-01   0.3802100001E-01  -0.1870564204E-02   0.0000000000E+00   0.0000000000E+00   0.7940266886E-03  -0.1349960217E-03  -0.2431733466E-04   0.0000000000E+00   0.0000000000E+00   0.0000000000E+00   0.6695990269E-01
   0.2126029117E+00   0.1636211160E+00   0.6594978410E-04  -0.1158267187E-04   0.3297489205E-03  -0.5791335937E-04   0.1728510495E+00  -0.6007771502E-02   0.5005298339E-01  -0.1166292939E-01   0.0000000000E+00   0.0000000000E+00   0.1596374859E-02  -0.7287898136E-03  -0.1516180820E-03   0.0000000000E+00   0.0000000000E+00   0.0000000000E+00   0.1597183571E+00
   0.2167227077E+00   0.1467131402E+00   0.6903645009E-04  -0.9352462573E-05   0.3451822504E-03  -0.4676231287E-04   0.1615389857E+00  -0.6284902366E-02   0.4657622500E-01  -0.1583495496E-01   0.0000000000E+00   0.0000000000E+00   0.1494515889E-02  -0.6871946558E-03  -0.2058544144E-03   0.0000000000E+00   0.0000000000E+00   0.0000000000E+00   0.1510836624E+00
   0.2313909114E+00   0.1466840163E+00   0.7265606977E-04  -0.8613612827E-05   0.3632803489E-03  -0.4306806414E-04   0.1600455723E+00  -0.2164055880E-02   0.4736445493E-01  -0.1492394132E-01   0.0000000000E+00   0.0000000000E+00   0.1464854526E-02  -0.6438706405E-03  -0.1940112372E-03   0.0000000000E+00   0.0000000000E+00   0.0000000000E+00   0.1462733433E+00
   0.2325764938E+00   0.1630430294E+00   0.7123079675E-04  -0.1035760553E-04   0.3561539837E-03  -0.5178802765E-04   0.1691329498E+00  -0.1940800098E-02   0.5015764491E-01  -0.1190155639E-01   0.0000000000E+00   0.0000000000E+00   0.1546678964E-02  -0.6772797851E-03  -0.1547202330E-03   0.0000000000E+00   0.0000000000E+00   0.0000000000E+00   0.1532673861E+00
   0.2282727699E+00   0.1845479865E-01   0.8455232205E-04  -0.3822755862E-06   0.4227616103E-03  -0.1911377931E-05   0.7917214069E-01   0.1904116786E-01   0.2946399256E-01  -0.7158006035E-02   0.0000000000E+00   0.0000000000E+00   0.6462059256E-03  -0.1354967212E-03  -0.9305407845E-04   0.0000000000E+00   0.0000000000E+00   0.0000000000E+00   0.5715424810E-01
   0.2311220984E+00   0.3704295690E-01   0.8396922866E-04  -0.8679830320E-06   0.4198461433E-03  -0.4339915160E-05   0.8709486991E-01   0.1710767156E-01   0.3126076244E-01  -0.1435839480E-01   0.0000000000E+00   0.0000000000E+00   0.7258433971E-03  -0.1839901815E-03  -0.1866591325E-03   0.0000000000E+00   0.0000000000E+00   0.0000000000E+00   0.6858000080E-01
   0.1838187628E+00   0.0000000000E+00   0.8090429524E-04   0.0000000000E+00   0.4045214762E-03   0.0000000000E+00   0.5090064364E-01   0.6990886364E-02   0.1736745900E-01  -0.4125448053E-02   0.0000000000E+00   0.0000000000E+00   0.4359314003E-03  -0.1348954443E-03  -0.5363082469E-04   0.0000000000E+00   0.0000000000E+00   0.0000000000E+00   0.3962228347E-01
   0.2046621983E+00   0.0000000000E+00   0.8258871421E-04   0.0000000000E+00   0.4129435711E-03   0.0000000000E+00   0.6480354414E-01   0.1464505546E-01   0.2383457988E-01  -0.3093764115E-02   0.0000000000E+00   0.0000000000E+00   0.5325965354E-03  -0.1194638175E-03  -0.4021893350E-04   0.0000000000E+00   0.0000000000E+00   0.0000000000E+00   0.4607387675E-01
   0.1421390612E+00   0.0000000000E+00   0.7873252785E-04   0.0000000000E+00   0.3936626392E-03   0.0000000000E+00   0.1008181713E-01  -0.2779465373E-01  -0.5313850980E-02  -0.9721669507E-02   0.0000000000E+00   0.0000000000E+00   0.2001436855E-03  -0.2922504358E-03  -0.1263817036E-03   0.0000000000E+00   0.0000000000E+00   0.0000000000E+00   0.3605205083E-01
   0.1461355982E+00   0.2097599420E-01   0.7765236580E-04  -0.9278672853E-06   0.3882618290E-03  -0.4639336426E-05   0.2282388666E-01  -0.2219693411E-01   0.1880857658E-03  -0.1688564084E-01   0.0000000000E+00   0.0000000000E+00   0.2942654116E-03  -0.2910052584E-03  -0.2195133309E-03   0.0000000000E+00   0.0000000000E+00   0.0000000000E+00   0.4980505039E-01
   0.3505999940E+00   0.2498928685E+00   0.1000000000E-03  -0.1785524699E-04   0.5000000000E-03  -0.8927623496E-04   0.1977956248E+00   0.9603361456E-03   0.5962678828E-01   0.5129106959E-03   0.0000000000E+00   0.0000000000E+00   0.1796194874E-02  -0.7626638777E-03   0.6667839046E-05   0.0000000000E+00   0.0000000000E+00   0.0000000000E+00   0.1750401477E+00
   0.3311206018E+00   0.2498924116E+00   0.9417396747E-04  -0.1793140322E-04   0.4708698374E-03  -0.8965701611E-04   0.1983575411E+00   0.9724611691E-03   0.5979900068E-01  -0.3942927629E-03   0.0000000000E+00   0.0000000000E+00   0.1801261025E-02  -0.7647450137E-03  -0.5125805918E-05   0.0000000000E+00   0.0000000000E+00   0.0000000000E+00   0.1755297089E+00
   0.3313551126E+00   0.2309535525E+00   0.9442660748E-04  -0.1553558417E-04   0.4721330374E-03  -0.7767792087E-04   0.1916851140E+00   0.3588546723E-03   0.5761319059E-01  -0.9776743250E-03   0.0000000000E+00   0.0000000000E+00   0.1742935004E-02  -0.7443063670E-03  -0.1270976622E-04   0.0000000000E+00   0.0000000000E+00   0.0000000000E+00   0.1700954262E+00
   0.3505999940E+00   0.2306766340E+00   0.1000000000E-03  -0.1543299741E-04   0.5000000000E-03  -0.7716498706E-04   0.1913085923E+00   0.4340611159E-03   0.5752279601E-01   0.4630078738E-03   0.0000000000E+00   0.0000000000E+00   0.1739215351E-02  -0.7421535536E-03   0.6019102360E-05   0.0000000000E+00   0.0000000000E+00   0.0000000000E+00   0.1696938113E+00
   0.2734841065E+00   0.2315648882E+00   0.7742075583E-04  -0.1677229499E-04   0.3871037792E-03  -0.8386147493E-04   0.1971418225E+00  -0.1065880186E-03   0.5911057036E-01  -0.2677556113E-02   0.0000000000E+00   0.0000000000E+00   0.1794406278E-02  -0.7698230589E-03  -0.3480822947E-04   0.0000000000E+00   0.0000000000E+00   0.0000000000E+00   0.1753764692E+00
   0.2927614260E+00   0.2313925930E+00   0.8314533876E-04  -0.1618249943E-04   0.4157266938E-03  -0.8091249715E-04   0.1947791964E+00   0.1075669259E-03   0.5846602901E-01  -0.2266074705E-02   0.0000000000E+00   0.0000000000E+00   0.1772071176E-02  -0.7586600070E-03  -0.2945897116E-04   0.0000000000E+00   0.0000000000E+00   0.0000000000E+00   0.1730867005E+00
   0.2921610351E+00   0.2498885117E+00   0.8239634191E-04  -0.1858138456E-04   0.4119817096E-03  -0.9290692280E-04   0.2025567508E+00   0.1120348958E-02   0.6110312994E-01  -0.6645077339E-03   0.0000000000E+00   0.0000000000E+00   0.1838897072E-02  -0.7797761528E-03  -0.8638600541E-05   0.0000000000E+00   0.0000000000E+00   0.0000000000E+00   0.1791420523E+00
   0.2726805669E+00   0.2498848127E+00   0.7639098608E-04  -0.1919788099E-04   0.3819549304E-03  -0.9598940495E-04   0.2058712466E+00   0.1250894294E-02   0.6213664227E-01  -0.7736457029E-03   0.0000000000E+00   0.0000000000E+00   0.1868549856E-02  -0.7915147237E-03  -0.1005739414E-04   0.0000000000E+00   0.0000000000E+00   0.0000000000E+00   0.1819841968E+00
   0.3505999940E+00   0.1730230458E+00   0.1000000000E-03  -0.8980370861E-05   0.5000000000E-03  -0.4490185430E-04   0.1654547573E+00   0.6227234705E-02   0.5150459761E-01   0.3431327727E-03   0.0000000000E+00   0.0000000000E+00   0.1481352076E-02  -0.5886057178E-03   0.4460726045E-05   0.0000000000E+00   0.0000000000E+00   0.0000000000E+00   0.1420976727E+00
   0.3313496216E+00   0.1732599908E+00   0.9524993189E-04  -0.9054530451E-05   0.4762496595E-03  -0.4527265226E-04   0.1656408950E+00   0.5962615284E-02   0.5148105308E-01  -0.2666683863E-02   0.0000000000E+00   0.0000000000E+00   0.1484077945E-02  -0.5917396913E-03  -0.3466689022E-04   0.0000000000E+00   0.0000000000E+00   0.0000000000E+00   0.1425428087E+00
   0.3313431469E+00   0.1538039235E+00   0.9557648399E-04  -0.7238081602E-05   0.4778824199E-03  -0.3619040801E-04   0.1555820831E+00   0.8757277461E-02   0.4930180817E-01  -0.3050562499E-02   0.0000000000E+00   0.0000000000E+00   0.1381643574E-02  -0.5270788992E-03  -0.3965731249E-04   0.0000000000E+00   0.0000000000E+00   0.0000000000E+00   0.1314219509E+00
   0.3505999940E+00   0.1538029879E+00   0.1000000000E-03  -0.7195357515E-05   0.5000000000E-03  -0.3597678758E-04   0.1554376712E+00   0.8983653980E-02   0.4932639755E-01   0.3020393156E-03   0.0000000000E+00   0.0000000000E+00   0.1379446557E-02  -0.5244556664E-03   0.3926511103E-05   0.0000000000E+00   0.0000000000E+00   0.0000000000E+00   0.1310126912E+00
   0.3505999940E+00   0.1345816552E+00   0.1000000000E-03  -0.5622636430E-05   0.5000000000E-03  -0.2811318215E-04   0.1452057902E+00   0.1205484455E-01   0.4717819042E-01   0.2195019341E-03   0.0000000000E+00   0.0000000000E+00   0.1274358797E-02  -0.4566034963E-03   0.2853525143E-05   0.0000000000E+00   0.0000000000E+00   0.0000000000E+00   0.1195070065E+00
   0.3505999940E+00   0.1153589971E+00   0.1000000000E-03  -0.4269824529E-05   0.5000000000E-03  -0.2134912264E-04   0.1351255031E+00   0.1532880198E-01   0.4513629152E-01   0.1598433196E-03   0.0000000000E+00   0.0000000000E+00   0.1169859751E-02  -0.3874973641E-03   0.2077963155E-05   0.0000000000E+00   0.0000000000E+00   0.0000000000E+00   0.1079989834E+00
   0.3505999940E+00   0.9613502502E-01   0.1000000000E-03  -0.3137145836E-05   0.5000000000E-03  -0.1568572918E-04   0.1256148786E+00   0.1868376842E-01   0.4328959411E-01   0.8843091016E-04   0.0000000000E+00   0.0000000000E+00   0.1070228699E-02  -0.3198757340E-03   0.1149601832E-05   0.0000000000E+00   0.0000000000E+00   0.0000000000E+00   0.9697160971E-01
   0.3505999940E+00   0.7690979710E-01   0.1000000000E-03  -0.2213783975E-05   0.5000000000E-03  -0.1106891988E-04   0.1170946768E+00   0.2189484264E-01   0.4169685582E-01   0.3491377413E-04   0.0000000000E+00   0.0000000000E+00   0.9801716722E-03  -0.2574261713E-03   0.4538790637E-06   0.0000000000E+00   0.0000000000E+00   0.0000000000E+00   0.8697982769E-01
   0.3505999940E+00   0.5768344291E-01   0.1000000000E-03  -0.1477515094E-05   0.5000000000E-03  -0.7387575471E-05   0.1099725149E+00   0.2473645539E-01   0.4041269109E-01  -0.2619202089E-05   0.0000000000E+00   0.0000000000E+00   0.9042777096E-03  -0.2037910640E-03  -0.3404962716E-07   0.0000000000E+00   0.0000000000E+00   0.0000000000E+00   0.7855871083E-01
   0.0000000000E+00   0.2496989875E+00   0.0000000000E+00  -0.5016874555E-04   0.0000000000E+00  -0.2508437277E-03   0.1158284078E+00  -0.3792041436E-02   0.3361090992E-01   0.3785948252E-02   0.0000000000E+00   0.0000000000E+00   0.1068827473E-02  -0.4862383676E-03   0.4921732727E-04   0.0000000000E+00   0.0000000000E+00   0.0000000000E+00   0.1061910733E+00
   0.3764332457E-01   0.2159489367E+00   0.9380895507E-05  -0.4495721023E-04   0.4690447754E-04  -0.2247860512E-03   0.1711672240E+00   0.5855983926E-02   0.5310696239E-01   0.1506150665E-01   0.0000000000E+00   0.0000000000E+00   0.1534783401E-02  -0.6142627200E-03   0.1957995864E-03   0.0000000000E+00   0.0000000000E+00   0.0000000000E+00   0.1496854539E+00
   0.3625185915E-01   0.1998439815E+00   0.9758608009E-05  -0.4345291551E-04   0.4879304004E-04  -0.2172645776E-03   0.1860797994E+00   0.1158338658E-01   0.5929895580E-01   0.1756144156E-01   0.0000000000E+00   0.0000000000E+00   0.1648150967E-02  -0.6203023999E-03   0.2282987403E-03   0.0000000000E+00   0.0000000000E+00   0.0000000000E+00   0.1590554521E+00
   0.5567451204E-01   0.1983657541E+00   0.1526500664E-04  -0.4054498539E-04   0.7632503320E-04  -0.2027249270E-03   0.1914829572E+00   0.6722601203E-02   0.5946166752E-01   0.2322823587E-01   0.0000000000E+00   0.0000000000E+00   0.1716276766E-02  -0.6856078622E-03   0.3019670663E-03   0.0000000000E+00   0.0000000000E+00   0.0000000000E+00   0.1697575194E+00
   0.5759481726E-01   0.2146728599E+00   0.1467952611E-04  -0.4208152110E-04   0.7339763055E-04  -0.2104076055E-03   0.1787688810E+00   0.2846137554E-02   0.5448450557E-01   0.1946585571E-01   0.0000000000E+00   0.0000000000E+00   0.1615696881E-02  -0.6712987842E-03   0.2530561242E-03   0.0000000000E+00   0.0000000000E+00   0.0000000000E+00   0.1601697391E+00
   0.1783621805E-01   0.2001445177E+00   0.4758325043E-05  -0.4514255757E-04   0.2379162522E-04  -0.2257127878E-03   0.1839207935E+00   0.1561265954E-01   0.5986003590E-01   0.8238312393E-02   0.0000000000E+00   0.0000000000E+00   0.1612789848E-02  -0.5752158927E-03   0.1070980611E-03   0.0000000000E+00   0.0000000000E+00   0.0000000000E+00   0.1520204098E+00
   0.5827839043E-01   0.2320549811E+00   0.1337708885E-04  -0.4385115247E-04   0.6688544426E-04  -0.2192557624E-03   0.1640589895E+00   0.1995864677E-02   0.4981645624E-01   0.1125429615E-01   0.0000000000E+00   0.0000000000E+00   0.1485152932E-02  -0.6216676904E-03   0.1463058499E-03   0.0000000000E+00   0.0000000000E+00   0.0000000000E+00   0.1456869234E+00
   0.1557872020E+00   0.2498237543E+00   0.3860682891E-04  -0.2937427694E-04   0.1930341446E-03  -0.1468713847E-03   0.2137253881E+00   0.1169391371E-02   0.6446843385E-01   0.1327235011E-02   0.0000000000E+00   0.0000000000E+00   0.1940340406E-02  -0.8228875523E-03   0.1725405514E-04   0.0000000000E+00   0.0000000000E+00   0.0000000000E+00   0.1890407290E+00
   0.1363055970E+00   0.2498056216E+00   0.3241450046E-04  -0.3239640165E-04   0.1620725023E-03  -0.1619820082E-03   0.2063184153E+00   0.6430234324E-03   0.6208843163E-01   0.2199826072E-02   0.0000000000E+00   0.0000000000E+00   0.1874989788E-02  -0.7987903065E-03   0.2859773894E-04   0.0000000000E+00   0.0000000000E+00   0.0000000000E+00   0.1828632844E+00
   0.1752697284E+00   0.2498396277E+00   0.4495523747E-04  -0.2672871854E-04   0.2247761874E-03  -0.1336435927E-03   0.2173576362E+00   0.1458987462E-02   0.6564498710E-01   0.5650047946E-03   0.0000000000E+00   0.0000000000E+00   0.1972264438E-02  -0.8344179953E-03   0.7345062330E-05   0.0000000000E+00   0.0000000000E+00   0.0000000000E+00   0.1920433091E+00
   0.1762085166E+00   0.2323509651E+00   0.4739660308E-04  -0.2419130940E-04   0.2369830154E-03  -0.1209565470E-03   0.2061067640E+00  -0.1890856120E-02   0.6126477237E-01   0.1065998186E-02   0.0000000000E+00   0.0000000000E+00   0.1882945892E-02  -0.8210231704E-03   0.1385797642E-04   0.0000000000E+00   0.0000000000E+00   0.0000000000E+00   0.1847273509E+00
   0.2255074699E+00   0.0000000000E+00   0.8457931641E-04   0.0000000000E+00   0.4228965820E-03   0.0000000000E+00   0.7554351397E-01   0.1931734628E-01   0.2845825808E-01  -0.2329309408E-02   0.0000000000E+00   0.0000000000E+00   0.6121083267E-03  -0.1188318534E-03  -0.3028102231E-04   0.0000000000E+00   0.0000000000E+00   0.0000000000E+00   0.5214917377E-01
   0.2463542443E+00   0.0000000000E+00   0.8681788694E-04   0.0000000000E+00   0.4340894347E-03   0.0000000000E+00   0.8390523879E-01   0.2277721320E-01   0.3200473560E-01  -0.1748925896E-02   0.0000000000E+00   0.0000000000E+00   0.6747065416E-03  -0.1199577912E-03  -0.2273603664E-04   0.0000000000E+00   0.0000000000E+00   0.0000000000E+00   0.5700906342E-01
   0.2487674875E+00   0.1834014265E-01   0.8685758056E-04  -0.3808744516E-06   0.4342879028E-03  -0.1904372258E-05   0.8655534398E-01   0.2240271448E-01   0.3268741754E-01  -0.5444115084E-02   0.0000000000E+00   0.0000000000E+00   0.7002830437E-03  -0.1337011398E-03  -0.7077349609E-04   0.0000000000E+00   0.0000000000E+00   0.0000000000E+00   0.6048504333E-01
   0.1968931927E+00   0.1994098420E+00   0.5743778943E-04  -0.1745682971E-04   0.2871889471E-03  -0.8728414855E-04   0.1914829970E+00  -0.5061188312E-02   0.5592654259E-01  -0.3488870484E-02   0.0000000000E+00   0.0000000000E+00   0.1762233907E-02  -0.7928405018E-03  -0.4535531629E-04   0.0000000000E+00   0.0000000000E+00   0.0000000000E+00   0.1743550063E+00
   0.2159376404E+00   0.1982982263E+00   0.6308590182E-04  -0.1567178774E-04   0.3154295091E-03  -0.7835893868E-04   0.1884918322E+00  -0.3040750238E-02   0.5563532458E-01  -0.5814967084E-02   0.0000000000E+00   0.0000000000E+00   0.1727134599E-02  -0.7627889726E-03  -0.7559457209E-04   0.0000000000E+00   0.0000000000E+00   0.0000000000E+00   0.1702664150E+00
   0.2159106171E+00   0.2150310916E+00   0.6142818595E-04  -0.1782606700E-04   0.3071409297E-03  -0.8913033501E-04   0.1962848483E+00  -0.1591531714E-02   0.5840799496E-01  -0.3887239085E-02   0.0000000000E+00   0.0000000000E+00   0.1792399093E-02  -0.7799938468E-03  -0.5053410810E-04   0.0000000000E+00   0.0000000000E+00   0.0000000000E+00   0.1758692587E+00
   0.1965561240E+00   0.2155035887E+00   0.5556932879E-04  -0.1962221448E-04   0.2778466439E-03  -0.9811107240E-04   0.1983392612E+00  -0.2622210660E-02   0.5871511515E-01  -0.1748311342E-02   0.0000000000E+00   0.0000000000E+00   0.1815113898E-02  -0.7973852355E-03  -0.2272804744E-04   0.0000000000E+00   0.0000000000E+00   0.0000000000E+00   0.1784183618E+00
   0.1176947879E+00   0.2322370618E+00   0.2948565159E-04  -0.3332303605E-04   0.1474282580E-03  -0.1666151803E-03   0.1931651982E+00  -0.1905853722E-02   0.5737780334E-01   0.8709390966E-02   0.0000000000E+00   0.0000000000E+00   0.1765236133E-02  -0.7706875418E-03   0.1132220826E-03   0.0000000000E+00   0.0000000000E+00   0.0000000000E+00   0.1739089411E+00
   0.1190734116E+00   0.2150627749E+00   0.3213026755E-04  -0.3082185770E-04   0.1606513377E-03  -0.1541092885E-03   0.1951155634E+00  -0.4734674805E-02   0.5711426659E-01   0.1450712336E-01   0.0000000000E+00   0.0000000000E+00   0.1794016859E-02  -0.8040362381E-03   0.1885926036E-03   0.0000000000E+00   0.0000000000E+00   0.0000000000E+00   0.1789049534E+00
   0.2142353789E+00   0.2498640728E+00   0.5774914268E-04  -0.2265453888E-04   0.2887457134E-03  -0.1132726944E-03   0.2163096485E+00   0.1601240950E-02   0.6537326683E-01  -0.4549532793E-03   0.0000000000E+00   0.0000000000E+00   0.1962172961E-02  -0.8290363364E-03  -0.5914392631E-05   0.0000000000E+00   0.0000000000E+00   0.0000000000E+00   0.1909924434E+00
   0.1947526163E+00   0.2498530569E+00   0.5136137927E-04  -0.2449051154E-04   0.2568068963E-03  -0.1224525577E-03   0.2179559514E+00   0.1593391941E-02   0.6586480299E-01  -0.2922224103E-04   0.0000000000E+00   0.0000000000E+00   0.1977184929E-02  -0.8355283436E-03  -0.3798891335E-06   0.0000000000E+00   0.0000000000E+00   0.0000000000E+00   0.1924663844E+00
   0.1957563241E+00   0.2322873232E+00   0.5353118238E-04  -0.2195596547E-04   0.2676559119E-03  -0.1097798274E-03   0.2061577833E+00  -0.1555227376E-02   0.6138076677E-01  -0.7041012582E-03   0.0000000000E+00   0.0000000000E+00   0.1882101215E-02  -0.8181679239E-03  -0.9153316356E-05   0.0000000000E+00   0.0000000000E+00   0.0000000000E+00   0.1844977413E+00
   0.2152699490E+00   0.2321628823E+00   0.5963383937E-04  -0.2014061769E-04   0.2981691969E-03  -0.1007030885E-03   0.2047363247E+00  -0.1160735386E-02   0.6107267678E-01  -0.1927455063E-02   0.0000000000E+00   0.0000000000E+00   0.1867627422E-02  -0.8090343582E-03  -0.2505691582E-04   0.0000000000E+00   0.0000000000E+00   0.0000000000E+00   0.1829434650E+00
   0.2347282154E+00   0.2318414567E+00   0.6567157012E-04  -0.1868655179E-04   0.3283578506E-03  -0.9343275897E-04   0.2024602077E+00  -0.7696242081E-03   0.6050717503E-01  -0.2617070913E-02   0.0000000000E+00   0.0000000000E+00   0.1845389424E-02  -0.7965983901E-03  -0.3402192186E-04   0.0000000000E+00   0.0000000000E+00   0.0000000000E+00   0.1806331439E+00
   0.2541265705E+00   0.2317185499E+00   0.7159375233E-04  -0.1759168562E-04   0.3579687617E-03  -0.8795842811E-04   0.1997778646E+00  -0.4162241433E-03   0.5980849212E-01  -0.2838722256E-02   0.0000000000E+00   0.0000000000E+00   0.1819601842E-02  -0.7829213115E-03  -0.3690338933E-04   0.0000000000E+00   0.0000000000E+00   0.0000000000E+00   0.1779761351E+00
   0.2531994807E+00   0.2498796811E+00   0.7028262278E-04  -0.2005314519E-04   0.3514131139E-03  -0.1002657259E-03   0.2095900358E+00   0.1393906125E-02   0.6329518257E-01  -0.7946184238E-03   0.0000000000E+00   0.0000000000E+00   0.1901833092E-02  -0.8047165938E-03  -0.1033003951E-04   0.0000000000E+00   0.0000000000E+00   0.0000000000E+00   0.1851763593E+00
   0.2337177270E+00   0.2498728556E+00   0.6406549314E-04  -0.2119073790E-04   0.3203274657E-03  -0.1059536895E-03   0.2132654194E+00   0.1522388270E-02   0.6443634229E-01  -0.7002583942E-03   0.0000000000E+00   0.0000000000E+00   0.1934778002E-02  -0.8178814022E-03  -0.9103359124E-05   0.0000000000E+00   0.0000000000E+00   0.0000000000E+00   0.1883439201E+00
   0.3116410165E+00   0.2498909916E+00   0.8831574196E-04  -0.1816807218E-04   0.4415787098E-03  -0.9084036088E-04   0.1999871733E+00   0.1022224568E-02   0.6030281937E-01  -0.4406952235E-03   0.0000000000E+00   0.0000000000E+00   0.1815896601E-02  -0.7706477324E-03  -0.5729037906E-05   0.0000000000E+00   0.0000000000E+00   0.0000000000E+00   0.1769374019E+00
   0.3120353388E+00   0.2311775519E+00   0.8880379496E-04  -0.1577818986E-04   0.4440189748E-03  -0.7889094929E-04   0.1929248450E+00   0.2823984595E-03   0.5796217305E-01  -0.1586588540E-02   0.0000000000E+00   0.0000000000E+00   0.1754514736E-02  -0.7498370697E-03  -0.2062565103E-04   0.0000000000E+00   0.0000000000E+00   0.0000000000E+00   0.1712762556E+00
   0.5581720339E-01   0.8299273228E-01   0.4336328099E-04  -0.2570453598E-04   0.2168164049E-03  -0.1285226799E-03   0.2438822552E+00   0.8626029907E-01   0.9904276628E-01  -0.1171113683E+00   0.0000000000E+00   0.0000000000E+00   0.1882913356E-02  -0.1661720738E-03  -0.1522447787E-02   0.0000000000E+00   0.0000000000E+00   0.0000000000E+00   0.2435787896E+00
   0.7217512152E-01   0.9400818983E-01   0.4086622030E-04  -0.2215472786E-04   0.2043311015E-03  -0.1107736393E-03   0.1850219083E+00  -0.1020819330E-01   0.5244411452E-01  -0.5059952083E-01   0.0000000000E+00   0.0000000000E+00   0.1723511320E-02  -0.8144800015E-03  -0.6577937708E-03   0.0000000000E+00   0.0000000000E+00   0.0000000000E+00   0.1935283651E+00
   0.6217974606E-01   0.1068278694E+00   0.3193969263E-04  -0.2675643739E-04   0.1596984632E-03  -0.1337821869E-03   0.2265952150E+00  -0.2243333885E-02   0.6730556433E-01  -0.3104637232E-01   0.0000000000E+00   0.0000000000E+00   0.2070765458E-02  -0.9041356768E-03  -0.4036028401E-03   0.0000000000E+00   0.0000000000E+00   0.0000000000E+00   0.2076479539E+00
   0.3844474311E-01   0.9220676727E-01   0.2940008503E-04  -0.3019743840E-04   0.1470004251E-03  -0.1509871920E-03   0.3508636234E+00   0.6490277480E-01   0.1247299195E+00  -0.8851520522E-01   0.0000000000E+00   0.0000000000E+00   0.2939738152E-02  -0.7777528807E-03  -0.1150697668E-02   0.0000000000E+00   0.0000000000E+00   0.0000000000E+00   0.2972443968E+00
   0.0000000000E+00   0.1997260975E+00   0.0000000000E+00  -0.4565091088E-04   0.0000000000E+00  -0.2282545544E-03   0.1829223882E+00   0.1688511414E-01   0.5994225071E-01   0.4120347686E-02   0.0000000000E+00   0.0000000000E+00   0.1598741788E-02  -0.5597427754E-03   0.5356451992E-04   0.0000000000E+00   0.0000000000E+00   0.0000000000E+00   0.1492554105E+00
   0.0000000000E+00   0.1830686559E+00   0.0000000000E+00  -0.4411351065E-04   0.0000000000E+00  -0.2205675533E-03   0.1997822077E+00   0.2624701161E-01   0.6780876578E-01   0.4351591278E-02   0.0000000000E+00   0.0000000000E+00   0.1715654745E-02  -0.5403028043E-03   0.5657068661E-04   0.0000000000E+00   0.0000000000E+00   0.0000000000E+00   0.1569442240E+00
   0.3661198680E-01   0.1166638916E+00   0.1755814919E-04  -0.3392073119E-04   0.8779074593E-04  -0.1696036560E-03   0.3122014494E+00   0.4197479810E-01   0.1062528743E+00  -0.3186682174E-01   0.0000000000E+00   0.0000000000E+00   0.2677331477E-02  -0.8356149901E-03  -0.4142686827E-03   0.0000000000E+00   0.0000000000E+00   0.0000000000E+00   0.2540148592E+00
   0.2672021625E+00   0.0000000000E+00   0.8924692316E-04   0.0000000000E+00   0.4462346158E-03   0.0000000000E+00   0.9016332044E-01   0.2520964319E-01   0.3461188909E-01  -0.1296234683E-02   0.0000000000E+00   0.0000000000E+00   0.7221686076E-03  -0.1222291967E-03  -0.1685105087E-04   0.0000000000E+00   0.0000000000E+00   0.0000000000E+00   0.6076427477E-01
   0.2691618140E+00   0.1828920562E-01   0.8931149300E-04  -0.3841633150E-06   0.4465574650E-03  -0.1920816575E-05   0.9216549986E-01   0.2483078600E-01   0.3509888576E-01  -0.4056741217E-02   0.0000000000E+00   0.0000000000E+00   0.7418659834E-03  -0.1334852969E-03  -0.5273763582E-04   0.0000000000E+00   0.0000000000E+00   0.0000000000E+00   0.6325661584E-01
   0.2370147185E+00   0.7430163159E-01   0.8171924476E-04  -0.2427418756E-05   0.4085962238E-03  -0.1213709378E-04   0.1105896933E+00   0.1076029533E-01   0.3640499659E-01  -0.2042676425E-01   0.0000000000E+00   0.0000000000E+00   0.9644010574E-03  -0.3333811165E-03  -0.2655479352E-03   0.0000000000E+00   0.0000000000E+00   0.0000000000E+00   0.9647077652E-01
   0.2557251035E+00   0.7382425412E-01   0.8475575079E-04  -0.2272847038E-05   0.4237787539E-03  -0.1136423519E-04   0.1117657081E+00   0.1483563146E-01   0.3798040188E-01  -0.1634095178E-01   0.0000000000E+00   0.0000000000E+00   0.9592089814E-03  -0.3008820155E-03  -0.2124323732E-03   0.0000000000E+00   0.0000000000E+00   0.0000000000E+00   0.9209660780E-01
   0.3109021107E+00   0.3712183754E-01   0.9444228720E-04  -0.8540932766E-06   0.4722114360E-03  -0.4270466383E-05   0.1026831359E+00   0.2624927752E-01   0.3867972401E-01  -0.3864971774E-02   0.0000000000E+00   0.0000000000E+00   0.8320443540E-03  -0.1615958044E-03  -0.5024463306E-04   0.0000000000E+00   0.0000000000E+00   0.0000000000E+00   0.7132998121E-01
   0.2909904071E+00   0.3677218572E-01   0.9171585545E-04  -0.8422632047E-06   0.4585792772E-03  -0.4211316023E-05   0.1003329597E+00   0.2509237938E-01   0.3762760172E-01  -0.5945210394E-02   0.0000000000E+00   0.0000000000E+00   0.8151696535E-03  -0.1629578904E-03  -0.7728773512E-04   0.0000000000E+00   0.0000000000E+00   0.0000000000E+00   0.7053777788E-01
   0.3505999940E+00   0.2114597260E+00   0.1000000000E-03  -0.1312300519E-04   0.5000000000E-03  -0.6561502596E-04   0.1837916867E+00   0.2002334670E-02   0.5573820643E-01   0.4249562191E-03   0.0000000000E+00   0.0000000000E+00   0.1664695244E-02  -0.6985663328E-03   0.5524430848E-05   0.0000000000E+00   0.0000000000E+00   0.0000000000E+00   0.1617591257E+00
   0.3314766038E+00   0.2119014414E+00   0.9469763007E-04  -0.1323710540E-04   0.4734881504E-03  -0.6618552699E-04   0.1840862140E+00   0.1849190928E-02   0.5578062148E-01  -0.1723559401E-02   0.0000000000E+00   0.0000000000E+00   0.1667972703E-02  -0.7011085971E-03  -0.2240627222E-04   0.0000000000E+00   0.0000000000E+00   0.0000000000E+00   0.1621664490E+00
   0.3314127793E+00   0.1926352600E+00   0.9495805534E-04  -0.1106299549E-04   0.4747902767E-03  -0.5531497744E-04   0.1752069065E+00   0.3596496132E-02   0.5364102078E-01  -0.2230148960E-02   0.0000000000E+00   0.0000000000E+00   0.1580356514E-02  -0.6505788204E-03  -0.2899193648E-04   0.0000000000E+00   0.0000000000E+00   0.0000000000E+00   0.1529014130E+00
   0.3505999940E+00   0.1922419181E+00   0.1000000000E-03  -0.1096298813E-04   0.5000000000E-03  -0.5481494065E-04   0.1749951933E+00   0.3839295593E-02   0.5365034666E-01   0.3931649093E-03   0.0000000000E+00   0.0000000000E+00   0.1577483006E-02  -0.6475436638E-03   0.5111143821E-05   0.0000000000E+00   0.0000000000E+00   0.0000000000E+00   0.1524756520E+00
   0.2930664289E+00   0.2126008640E+00   0.8394598769E-04  -0.1386432639E-04   0.4197299384E-03  -0.6932163195E-04   0.1867003308E+00   0.1316907940E-02   0.5640517163E-01  -0.4287399159E-02   0.0000000000E+00   0.0000000000E+00   0.1693837070E-02  -0.7161474280E-03  -0.5573618907E-04   0.0000000000E+00   0.0000000000E+00   0.0000000000E+00   0.1650548661E+00
   0.2739750034E+00   0.2130566982E+00   0.7851239308E-04  -0.1444429677E-04   0.3925619654E-03  -0.7222148384E-04   0.1887831650E+00   0.8017800471E-03   0.5687548350E-01  -0.5131556135E-02   0.0000000000E+00   0.0000000000E+00   0.1714799859E-02  -0.7289581449E-03  -0.6671022976E-04   0.0000000000E+00   0.0000000000E+00   0.0000000000E+00   0.1673866357E+00
   0.2738328785E+00   0.1941991772E+00   0.7956075545E-04  -0.1222097110E-04   0.3978037772E-03  -0.6110485549E-04   0.1795720170E+00   0.1591622176E-02   0.5434909175E-01  -0.6877403334E-02   0.0000000000E+00   0.0000000000E+00   0.1627898028E-02  -0.6858471045E-03  -0.8940624334E-04   0.0000000000E+00   0.0000000000E+00   0.0000000000E+00   0.1587847475E+00
   0.2929273716E+00   0.1933769330E+00   0.8474077434E-04  -0.1164200695E-04   0.4237038717E-03  -0.5821003476E-04   0.1776126629E+00   0.2399538777E-02   0.5400366052E-01  -0.5770922002E-02   0.0000000000E+00   0.0000000000E+00   0.1606917032E-02  -0.6708535826E-03  -0.7502198603E-04   0.0000000000E+00   0.0000000000E+00   0.0000000000E+00   0.1562674538E+00
   0.1948702880E+00   0.5815832134E-01   0.7727900391E-04  -0.1966009768E-05   0.3863950195E-03  -0.9830048839E-05   0.9198574506E-01   0.2111387615E-02   0.2822913980E-01  -0.2888719822E-01   0.0000000000E+00   0.0000000000E+00   0.8288358684E-03  -0.3395307785E-03  -0.3755335768E-03   0.0000000000E+00   0.0000000000E+00   0.0000000000E+00   0.9437892580E-01
   0.2145749987E+00   0.5660349504E-01   0.8018661435E-04  -0.1681343961E-05   0.4009330717E-03  -0.8406719806E-05   0.9466295674E-01   0.8684870850E-02   0.3100434828E-01  -0.2319788493E-01   0.0000000000E+00   0.0000000000E+00   0.8275619100E-03  -0.2901532065E-03  -0.3015725040E-03   0.0000000000E+00   0.0000000000E+00   0.0000000000E+00   0.8710819161E-01
   0.7335206539E-01   0.1304265369E+00   0.2884934778E-04  -0.2758768933E-04   0.1442467389E-03  -0.1379384467E-03   0.2345328330E+00  -0.8929068607E-02   0.6768112932E-01   0.4876500120E-02   0.0000000000E+00   0.0000000000E+00   0.2169072148E-02  -0.9959325731E-03   0.6339450157E-04   0.0000000000E+00   0.0000000000E+00   0.0000000000E+00   0.2156704376E+00
   0.5563256273E-01   0.1222917730E+00   0.2415685582E-04  -0.3061449407E-04   0.1207842791E-03  -0.1530724704E-03   0.2729129963E+00   0.2028327518E-01   0.8795888145E-01  -0.8028756828E-02   0.0000000000E+00   0.0000000000E+00   0.2404403493E-02  -0.8797828815E-03  -0.1043738388E-03   0.0000000000E+00   0.0000000000E+00   0.0000000000E+00   0.2263420720E+00
   0.8098736826E-01   0.1171356786E+00   0.3502464357E-04  -0.2340140762E-04   0.1751232179E-03  -0.1170070381E-03   0.2254179896E+00  -0.1488269758E-01   0.6316058759E-01  -0.9642098982E-02   0.0000000000E+00   0.0000000000E+00   0.2109346226E-02  -0.1014562707E-02  -0.1253472868E-03   0.0000000000E+00   0.0000000000E+00   0.0000000000E+00   0.2126341582E+00
   0.5840118906E-01   0.2497264167E+00   0.1130924386E-04  -0.4559721554E-04   0.5654621928E-04  -0.2279860777E-03   0.1455571407E+00  -0.2390168957E-02   0.4295009153E-01   0.3826157545E-02   0.0000000000E+00   0.0000000000E+00   0.1333891640E-02  -0.5894233864E-03   0.4974004809E-04   0.0000000000E+00   0.0000000000E+00   0.0000000000E+00   0.1312954435E+00
   0.7831171305E-01   0.2131907399E+00   0.2050920841E-04  -0.3831501503E-04   0.1025460420E-03  -0.1915750752E-03   0.1845425990E+00  -0.6705509556E-03   0.5516161441E-01   0.2109805111E-01   0.0000000000E+00   0.0000000000E+00   0.1681952799E-02  -0.7258181497E-03   0.2742746645E-03   0.0000000000E+00   0.0000000000E+00   0.0000000000E+00   0.1684711025E+00
   0.7812983114E-01   0.1932192045E+00   0.2222189015E-04  -0.3586141678E-04   0.1111094507E-03  -0.1793070839E-03   0.1974345449E+00  -0.1353768994E-02   0.5882423276E-01   0.2483497970E-01   0.0000000000E+00   0.0000000000E+00   0.1801934057E-02  -0.7823140228E-03   0.3228547360E-03   0.0000000000E+00   0.0000000000E+00   0.0000000000E+00   0.1817190580E+00
   0.1770542529E+00   0.2156686439E+00   0.4963515717E-04  -0.2182601722E-04   0.2481757858E-03  -0.1091300861E-03   0.1994626825E+00  -0.3567371581E-02   0.5876859328E-01   0.1335406776E-02   0.0000000000E+00   0.0000000000E+00   0.1829023160E-02  -0.8103675432E-03   0.1736028809E-04   0.0000000000E+00   0.0000000000E+00   0.0000000000E+00   0.1801591320E+00
   0.3120560270E+00   0.1536855657E+00   0.9113416322E-04  -0.7356876277E-05   0.4556708161E-03  -0.3678438139E-04   0.1560556613E+00   0.7976487045E-02   0.4920964451E-01  -0.5769598540E-02   0.0000000000E+00   0.0000000000E+00   0.1388998219E-02  -0.5360310471E-03  -0.7500478103E-04   0.0000000000E+00   0.0000000000E+00   0.0000000000E+00   0.1327392974E+00
   0.3120394904E+00   0.1733827722E+00   0.9046423970E-04  -0.9224129168E-05   0.4523211985E-03  -0.4612064584E-04   0.1663508606E+00   0.5397104913E-02   0.5152438966E-01  -0.5034656378E-02   0.0000000000E+00   0.0000000000E+00   0.1492744123E-02  -0.5996547017E-03  -0.6545053291E-04   0.0000000000E+00   0.0000000000E+00   0.0000000000E+00   0.1438180748E+00
   0.1168256292E+00   0.2497857395E+00   0.2649370354E-04  -0.3571009118E-04   0.1324685177E-03  -0.1785504559E-03   0.1948747028E+00  -0.1655011217E-04   0.5845744579E-01   0.3107184609E-02   0.0000000000E+00   0.0000000000E+00   0.1773424341E-02  -0.7601619468E-03   0.4039339991E-04   0.0000000000E+00   0.0000000000E+00   0.0000000000E+00   0.1731950934E+00
   0.7104041795E-01   0.7058296487E-01   0.5495609108E-04  -0.2128608886E-04   0.2747804554E-03  -0.1064304443E-03   0.9665397714E-01   0.5020982732E-01   0.4405914134E-01  -0.6102954840E-01   0.0000000000E+00   0.0000000000E+00   0.6837328655E-03   0.7995891776E-04  -0.7933841292E-03   0.0000000000E+00   0.0000000000E+00   0.0000000000E+00   0.1083849425E+00
   0.8420206963E-01   0.7956338208E-01   0.5151887248E-04  -0.1693098727E-04   0.2575943624E-03  -0.8465493635E-04   0.1267877205E+00  -0.6786724683E-02   0.3600029875E-01  -0.5067800711E-01   0.0000000000E+00   0.0000000000E+00   0.1180236483E-02  -0.5562313047E-03  -0.6588140924E-03   0.0000000000E+00   0.0000000000E+00   0.0000000000E+00   0.1479387274E+00
   0.2353419786E+00   0.2142128291E+00   0.6725343610E-04  -0.1636248011E-04   0.3362671805E-03  -0.8181240053E-04   0.1937713795E+00  -0.6614905829E-03   0.5793296667E-01  -0.5035784124E-02   0.0000000000E+00   0.0000000000E+00   0.1765899367E-02  -0.7617279443E-03  -0.6546519361E-04   0.0000000000E+00   0.0000000000E+00   0.0000000000E+00   0.1729779681E+00
   0.1777494662E+00   0.1997959590E+00   0.5172870771E-04  -0.1958800015E-04   0.2586435386E-03  -0.9794000077E-04   0.1940828579E+00  -0.6803397110E-02   0.5618383823E-01   0.3341963785E-04   0.0000000000E+00   0.0000000000E+00   0.1792687255E-02  -0.8188340594E-03   0.4344552920E-06   0.0000000000E+00   0.0000000000E+00   0.0000000000E+00   0.1779532932E+00
   0.1587999455E+00   0.1996549868E+00   0.4605440837E-04  -0.2207520624E-04   0.2302720419E-03  -0.1103760312E-03   0.1959313056E+00  -0.8285316274E-02   0.5629379681E-01   0.4523869036E-02   0.0000000000E+00   0.0000000000E+00   0.1815287615E-02  -0.8395284701E-03   0.5881029746E-04   0.0000000000E+00   0.0000000000E+00   0.0000000000E+00   0.1809509915E+00
   0.1599719687E+00   0.1837930646E+00   0.4841911791E-04  -0.1965773147E-04   0.2420955895E-03  -0.9828865733E-04   0.1929416168E+00  -0.1250114095E-01   0.5413214275E-01   0.2044299478E-02   0.0000000000E+00   0.0000000000E+00   0.1804523162E-02  -0.8662326881E-03   0.2657589321E-04   0.0000000000E+00   0.0000000000E+00   0.0000000000E+00   0.1815473760E+00
   0.1781343949E+00   0.1844826832E+00   0.5372330886E-04  -0.1744363698E-04   0.2686165443E-03  -0.8721818489E-04   0.1895380824E+00  -0.9799189634E-02   0.5392166782E-01  -0.2418165948E-02   0.0000000000E+00   0.0000000000E+00   0.1763013389E-02  -0.8283711469E-03  -0.3143615733E-04   0.0000000000E+00   0.0000000000E+00   0.0000000000E+00   0.1763652115E+00
   0.2547364570E+00   0.2136267826E+00   0.7295166176E-04  -0.1526206976E-04   0.3647583088E-03  -0.7631034881E-04   0.1911277808E+00   0.8237321205E-04   0.5736304619E-01  -0.5415457109E-02   0.0000000000E+00   0.0000000000E+00   0.1738941549E-02  -0.7446487487E-03  -0.7040094242E-04   0.0000000000E+00   0.0000000000E+00   0.0000000000E+00   0.1700676988E+00
   0.3122475178E+00   0.2122516823E+00   0.8933796839E-04  -0.1347495539E-04   0.4466898420E-03  -0.6737477696E-04   0.1851660179E+00   0.1639814331E-02   0.5604174968E-01  -0.3045453992E-02   0.0000000000E+00   0.0000000000E+00   0.1678615487E-02  -0.7072251595E-03  -0.3959090190E-04   0.0000000000E+00   0.0000000000E+00   0.0000000000E+00   0.1633546328E+00
   0.3122046582E+00   0.1929654979E+00   0.8988370687E-04  -0.1127685707E-04   0.4494185343E-03  -0.5638428536E-04   0.1761980806E+00   0.3242933014E-02   0.5383230410E-01  -0.4086806751E-02   0.0000000000E+00   0.0000000000E+00   0.1590755095E-02  -0.6576618241E-03  -0.5312848777E-04   0.0000000000E+00   0.0000000000E+00   0.0000000000E+00   0.1541857742E+00
   0.6723756231E-01   0.1438844258E+00   0.2410865206E-04  -0.3115253338E-04   0.1205432603E-03  -0.1557626669E-03   0.2347493212E+00   0.1727957780E-02   0.7094318368E-01   0.1619555435E-01   0.0000000000E+00   0.0000000000E+00   0.2129479787E-02  -0.8997979367E-03   0.2105422065E-03   0.0000000000E+00   0.0000000000E+00   0.0000000000E+00   0.2091036268E+00
   0.6224174582E-01   0.1544368689E+00   0.2094570302E-04  -0.3376152268E-04   0.1047285151E-03  -0.1688076134E-03   0.2297470591E+00   0.5203230701E-02   0.7048508694E-01   0.2074061282E-01   0.0000000000E+00   0.0000000000E+00   0.2070405638E-02  -0.8486641311E-03   0.2696279666E-03   0.0000000000E+00   0.0000000000E+00   0.0000000000E+00   0.2031312857E+00
   0.1529881819E+00   0.3950537795E-01   0.7538264361E-04  -0.1723475463E-05   0.3769132181E-03  -0.8617377314E-05   0.5581001817E-01  -0.1559668658E-01   0.1206399948E-01  -0.3458041377E-01   0.0000000000E+00   0.0000000000E+00   0.5686982430E-03  -0.3595889188E-03  -0.4495453790E-03   0.0000000000E+00   0.0000000000E+00   0.0000000000E+00   0.8595687449E-01
   0.1357868544E+00   0.4588000759E-01   0.7227689862E-04  -0.3121935649E-05   0.3613844931E-03  -0.1560967825E-04   0.5403738866E-01  -0.3285232346E-01   0.6355519561E-02  -0.4471289045E-01   0.0000000000E+00   0.0000000000E+00   0.6198642983E-03  -0.5097019593E-03  -0.5812675758E-03   0.0000000000E+00   0.0000000000E+00   0.0000000000E+00   0.1057574545E+00
   0.1629775845E+00   0.0000000000E+00   0.7959841504E-04   0.0000000000E+00   0.3979920752E-03   0.0000000000E+00   0.3339846083E-01  -0.3194855022E-02   0.9061081741E-02  -0.5711175410E-02   0.0000000000E+00   0.0000000000E+00   0.3163859281E-03  -0.1593271779E-03  -0.7424528033E-04   0.0000000000E+00   0.0000000000E+00   0.0000000000E+00   0.3267511027E-01
   0.1669041713E+00   0.1949537801E-01   0.7903654284E-04  -0.5630312982E-06   0.3951827142E-03  -0.2815156491E-05   0.4446568005E-01  -0.2923586850E-02   0.1246262796E-01  -0.1458649860E-01   0.0000000000E+00   0.0000000000E+00   0.4160396772E-03  -0.2000207925E-03  -0.1896244819E-03   0.0000000000E+00   0.0000000000E+00   0.0000000000E+00   0.4967595343E-01
   0.2759624474E+00   0.9270513231E-01   0.8683990451E-04  -0.3171181461E-05   0.4341995225E-03  -0.1585590730E-04   0.1233540782E+00   0.1446567623E-01   0.4134592632E-01  -0.1331895472E-01   0.0000000000E+00   0.0000000000E+00   0.1066105974E-02  -0.3494432512E-03  -0.1731464113E-03   0.0000000000E+00   0.0000000000E+00   0.0000000000E+00   0.1008894404E+00
   0.2941677561E+00   0.9347193492E-01   0.9002768717E-04  -0.3112180055E-05   0.4501384358E-03  -0.1556090027E-04   0.1241391651E+00   0.1649684648E-01   0.4219080348E-01  -0.9920842489E-02   0.0000000000E+00   0.0000000000E+00   0.1065328701E-02  -0.3340214409E-03  -0.1289709524E-03   0.0000000000E+00   0.0000000000E+00   0.0000000000E+00   0.9885189906E-01
   0.2943043356E+00   0.1128229975E+00   0.8910309467E-04  -0.4302248918E-05   0.4455154733E-03  -0.2151124459E-04   0.1343338410E+00   0.1318575497E-01   0.4425587880E-01  -0.9938413765E-02   0.0000000000E+00   0.0000000000E+00   0.1171013509E-02  -0.4039116097E-03  -0.1291993789E-03   0.0000000000E+00   0.0000000000E+00   0.0000000000E+00   0.1103137634E+00
   0.2764180339E+00   0.1113483522E+00   0.8569214473E-04  -0.4366294152E-05   0.4284607236E-03  -0.2183147076E-04   0.1341494398E+00   0.1112434430E-01   0.4358213524E-01  -0.1296912200E-01   0.0000000000E+00   0.0000000000E+00   0.1177374960E-02  -0.4219512822E-03  -0.1685985859E-03   0.0000000000E+00   0.0000000000E+00   0.0000000000E+00   0.1126802194E+00
   0.2934196266E+00   0.7442568178E-01   0.9076259478E-04  -0.2163252861E-05   0.4538129739E-03  -0.1081626431E-04   0.1147247470E+00   0.1986770013E-01   0.4037773413E-01  -0.9327469649E-02   0.0000000000E+00   0.0000000000E+00   0.9665111669E-03  -0.2666304420E-03  -0.1212571054E-03   0.0000000000E+00   0.0000000000E+00   0.0000000000E+00   0.8791457264E-01
   0.1715526472E+00   0.3887458370E-01   0.7726819918E-04  -0.1274300084E-05   0.3863409959E-03  -0.6371500421E-05   0.6045404829E-01  -0.4643761142E-02   0.1674308614E-01  -0.2981516703E-01   0.0000000000E+00   0.0000000000E+00   0.5682425079E-03  -0.2780290147E-03  -0.3875971713E-03   0.0000000000E+00   0.0000000000E+00   0.0000000000E+00   0.7686063718E-01
   0.2934920770E+00   0.1327147304E+00   0.8791166033E-04  -0.5772272906E-05   0.4395583017E-03  -0.2886136453E-04   0.1454605616E+00   0.9380475270E-02   0.4645231108E-01  -0.9526759963E-02   0.0000000000E+00   0.0000000000E+00   0.1287107257E-02  -0.4819338655E-03  -0.1238478795E-03   0.0000000000E+00   0.0000000000E+00   0.0000000000E+00   0.1229428409E+00
   0.5200604380E-01   0.1831322882E+00   0.1516198383E-04  -0.3936679635E-04   0.7580991916E-04  -0.1968339818E-03   0.2036594988E+00   0.9715882295E-02   0.6401261433E-01   0.2364905269E-01   0.0000000000E+00   0.0000000000E+00   0.1815409498E-02  -0.7058575165E-03   0.3074376850E-03   0.0000000000E+00   0.0000000000E+00   0.0000000000E+00   0.1781319799E+00
   0.5051469326E-01   0.1683647814E+00   0.1572117688E-04  -0.3787575877E-04   0.7860588440E-04  -0.1893787938E-03   0.2169452069E+00   0.1475564607E-01   0.6951025590E-01   0.2430767274E-01   0.0000000000E+00   0.0000000000E+00   0.1916654364E-02  -0.7118099279E-03   0.3159997457E-03   0.0000000000E+00   0.0000000000E+00   0.0000000000E+00   0.1859839059E+00
   0.2922877627E+00   0.5549731655E-01   0.9132845648E-04  -0.1417792474E-05   0.4566422824E-03  -0.7088962368E-05   0.1066229743E+00   0.2277730235E-01   0.3882008298E-01  -0.7953263599E-02   0.0000000000E+00   0.0000000000E+00   0.8814375867E-03  -0.2085561483E-03  -0.1033924268E-03   0.0000000000E+00   0.0000000000E+00   0.0000000000E+00   0.7828784461E-01
   0.2921845734E+00   0.1532487876E+00   0.8654290687E-04  -0.7562227190E-05   0.4327145343E-03  -0.3781113595E-04   0.1567012730E+00   0.6828190549E-02   0.4905883906E-01  -0.8485807252E-02   0.0000000000E+00   0.0000000000E+00   0.1399351641E-02  -0.5489984307E-03  -0.1103154943E-03   0.0000000000E+00   0.0000000000E+00   0.0000000000E+00   0.1346332879E+00
   0.2711009082E+00   0.3668750260E-01   0.8905419356E-04  -0.8391329373E-06   0.4452709678E-03  -0.4195664686E-05   0.9701283272E-01   0.2329127342E-01   0.3609123184E-01  -0.8284439420E-02   0.0000000000E+00   0.0000000000E+00   0.7919808114E-03  -0.1663994595E-03  -0.1076977125E-03   0.0000000000E+00   0.0000000000E+00   0.0000000000E+00   0.6965344828E-01
   0.2512087581E+00   0.3680916340E-01   0.8647235662E-04  -0.8465331496E-06   0.4323617831E-03  -0.4232665748E-05   0.9260591505E-01   0.2072368142E-01   0.3399887894E-01  -0.1103691049E-01   0.0000000000E+00   0.0000000000E+00   0.7618914694E-03  -0.1725775678E-03  -0.1434798363E-03   0.0000000000E+00   0.0000000000E+00   0.0000000000E+00   0.6884896813E-01
   0.2340328278E+00   0.5569095962E-01   0.8296764064E-04  -0.1536596432E-05   0.4148382032E-03  -0.7682982160E-05   0.9801512595E-01   0.1421158892E-01   0.3366801446E-01  -0.1843538795E-01   0.0000000000E+00   0.0000000000E+00   0.8365124494E-03  -0.2529335321E-03  -0.2396600433E-03   0.0000000000E+00   0.0000000000E+00   0.0000000000E+00   0.8239550609E-01
   0.2535517723E+00   0.5531869727E-01   0.8573987911E-04  -0.1462339098E-05   0.4286993955E-03  -0.7311695492E-05   0.1013245057E+00   0.1803308176E-01   0.3580727624E-01  -0.1437098645E-01   0.0000000000E+00   0.0000000000E+00   0.8517239833E-03  -0.2310645283E-03  -0.1868228239E-03   0.0000000000E+00   0.0000000000E+00   0.0000000000E+00   0.7993693115E-01
   0.2352779737E+00   0.1969692715E+00   0.6871311402E-04  -0.1421307978E-04   0.3435655701E-03  -0.7106539891E-04   0.1853267802E+00  -0.1421768033E-02   0.5517150364E-01  -0.7112548246E-02   0.0000000000E+00   0.0000000000E+00   0.1692018595E-02  -0.7357125318E-03  -0.9246312720E-04   0.0000000000E+00   0.0000000000E+00   0.0000000000E+00   0.1663191675E+00
   0.2546663004E+00   0.1955966896E+00   0.7422789374E-04  -0.1307672857E-04   0.3711394687E-03  -0.6538364284E-04   0.1822454768E+00   0.9255213796E-04   0.5470140869E-01  -0.7494466894E-02   0.0000000000E+00   0.0000000000E+00   0.1658072886E-02  -0.7099151352E-03  -0.9742806962E-04   0.0000000000E+00   0.0000000000E+00   0.0000000000E+00   0.1624329937E+00
   0.1599837946E+00   0.7267097562E-01   0.6923009463E-04  -0.4113663592E-05   0.3461504731E-03  -0.2056831796E-04   0.1054641863E+00  -0.2119479010E-01   0.2528081885E-01  -0.4090811713E-01   0.0000000000E+00   0.0000000000E+00   0.1042383777E-02  -0.6041829164E-03  -0.5318055227E-03   0.0000000000E+00   0.0000000000E+00   0.0000000000E+00   0.1314653686E+00
   0.1741808854E+00   0.6064684631E-01   0.7399256170E-04  -0.2478649132E-05   0.3699628085E-03  -0.1239324566E-04   0.9047433605E-01  -0.9180619112E-02   0.2438811508E-01  -0.3635363714E-01   0.0000000000E+00   0.0000000000E+00   0.8591208726E-03  -0.4363935445E-03  -0.4725972828E-03   0.0000000000E+00   0.0000000000E+00   0.0000000000E+00   0.1080626431E+00
   0.1845494786E+00   0.8231536128E-01   0.7166427245E-04  -0.3991319596E-05   0.3583213622E-03  -0.1995659798E-04   0.1184063714E+00  -0.1036139250E-01   0.3241349366E-01  -0.3427748084E-01   0.0000000000E+00   0.0000000000E+00   0.1117907410E-02  -0.5560735200E-03  -0.4456072509E-03   0.0000000000E+00   0.0000000000E+00   0.0000000000E+00   0.1280317960E+00
   0.1698044029E+00   0.8992168278E-01   0.6731748394E-04  -0.5432769936E-05   0.3365874197E-03  -0.2716384968E-04   0.1283161063E+00  -0.1938878714E-01   0.3267819576E-01  -0.3474626002E-01   0.0000000000E+00   0.0000000000E+00   0.1243292837E-02  -0.6768707776E-03  -0.4517013803E-03   0.0000000000E+00   0.0000000000E+00   0.0000000000E+00   0.1430199303E+00
   0.9899686412E-01   0.2140024398E+00   0.2633057069E-04  -0.3448970646E-04   0.1316528534E-03  -0.1724485323E-03   0.1905748525E+00  -0.3748385396E-02   0.5604794013E-01   0.1896888594E-01   0.0000000000E+00   0.0000000000E+00   0.1748849861E-02  -0.7773522319E-03   0.2465955172E-03   0.0000000000E+00   0.0000000000E+00   0.0000000000E+00   0.1753876687E+00
   0.1399881186E+00   0.1992365266E+00   0.4039859167E-04  -0.2493972595E-04   0.2019929584E-03  -0.1246986298E-03   0.1971187610E+00  -0.9251265187E-02   0.5636024874E-01   0.9718624738E-02   0.0000000000E+00   0.0000000000E+00   0.1829860659E-02  -0.8529496810E-03   0.1263421216E-03   0.0000000000E+00   0.0000000000E+00   0.0000000000E+00   0.1833861692E+00
   0.1210965619E+00   0.1984703346E+00   0.3473015698E-04  -0.2815906534E-04   0.1736507849E-03  -0.1407953267E-03   0.1974359179E+00  -0.9187094217E-02   0.5647464709E-01   0.1514313968E-01   0.0000000000E+00   0.0000000000E+00   0.1832496520E-02  -0.8536026370E-03   0.1968608159E-03   0.0000000000E+00   0.0000000000E+00   0.0000000000E+00   0.1847076409E+00
   0.2186430612E+00   0.7552050852E-01   0.7860969786E-04  -0.2698263677E-05   0.3930484893E-03  -0.1349131839E-04   0.1102649434E+00   0.5441889849E-02   0.3471204998E-01  -0.2498828339E-01   0.0000000000E+00   0.0000000000E+00   0.9821876146E-03  -0.3805120817E-03  -0.3248476841E-03   0.0000000000E+00   0.0000000000E+00   0.0000000000E+00   0.1031266118E+00
   0.8047029095E-01   0.1526179704E+00   0.2736924135E-04  -0.2952260833E-04   0.1368462067E-03  -0.1476130416E-03   0.2203623586E+00  -0.9801590178E-02   0.6316823054E-01   0.1835156403E-01   0.0000000000E+00   0.0000000000E+00   0.2043523665E-02  -0.9486076693E-03   0.2385703324E-03   0.0000000000E+00   0.0000000000E+00   0.0000000000E+00   0.2061006393E+00
   0.6996842996E-01   0.1665376032E+00   0.2213530928E-04  -0.3387695894E-04   0.1106765464E-03  -0.1693847947E-03   0.2153756608E+00   0.1137718067E-02   0.6495401367E-01   0.2411997617E-01   0.0000000000E+00   0.0000000000E+00   0.1955481413E-02  -0.8296118428E-03   0.3135596902E-03   0.0000000000E+00   0.0000000000E+00   0.0000000000E+00   0.1950612813E+00
   0.1417032274E+00   0.1829812346E+00   0.4298139368E-04  -0.2229507171E-04   0.2149069684E-03  -0.1114753585E-03   0.1962457294E+00  -0.1399427622E-01   0.5467543596E-01   0.7365814987E-02   0.0000000000E+00   0.0000000000E+00   0.1840413815E-02  -0.8927062583E-03   0.9575559483E-04   0.0000000000E+00   0.0000000000E+00   0.0000000000E+00   0.1860867621E+00
   0.2729860395E+00   0.1744461242E+00   0.8058292429E-04  -0.1006263584E-04   0.4029146215E-03  -0.5031317919E-04   0.1703021693E+00   0.2774355916E-02   0.5192295758E-01  -0.8969811840E-02   0.0000000000E+00   0.0000000000E+00   0.1538929753E-02  -0.6389318216E-03  -0.1166075539E-03   0.0000000000E+00   0.0000000000E+00   0.0000000000E+00   0.1499523360E+00
   0.2924563955E+00   0.1735719695E+00   0.8556857515E-04  -0.9525078588E-05   0.4278428758E-03  -0.4762539294E-04   0.1675742057E+00   0.4464684805E-02   0.5161166714E-01  -0.7381280053E-02   0.0000000000E+00   0.0000000000E+00   0.1507513001E-02  -0.6129107704E-03  -0.9595664069E-04   0.0000000000E+00   0.0000000000E+00   0.0000000000E+00   0.1459460525E+00
   0.9445106898E-01   0.1608737073E+00   0.3091231260E-04  -0.2776395799E-04   0.1545615630E-03  -0.1388197900E-03   0.2126642769E+00  -0.1456790489E-01   0.5942891161E-01   0.1764315262E-01   0.0000000000E+00   0.0000000000E+00   0.1992059749E-02  -0.9619586145E-03   0.2293609841E-03   0.0000000000E+00   0.0000000000E+00   0.0000000000E+00   0.2029720421E+00
   0.8734051745E-01   0.1752949337E+00   0.2682434210E-04  -0.3148405663E-04   0.1341217105E-03  -0.1574202831E-03   0.2087158534E+00  -0.7615999365E-02   0.6032995622E-01   0.2377115807E-01   0.0000000000E+00   0.0000000000E+00   0.1929016664E-02  -0.8832974226E-03   0.3090250549E-03   0.0000000000E+00   0.0000000000E+00   0.0000000000E+00   0.1959989291E+00
   0.2746074958E+00   0.7396031024E-01   0.8776563083E-04  -0.2195676154E-05   0.4388281541E-03  -0.1097838077E-04   0.1132575061E+00   0.1779033312E-01   0.3931435176E-01  -0.1265553960E-01   0.0000000000E+00   0.0000000000E+00   0.9612610060E-03  -0.2798122422E-03  -0.1645220148E-03   0.0000000000E+00   0.0000000000E+00   0.0000000000E+00   0.8942871109E-01
   0.2266012048E+00   0.1122686567E+00   0.7555246916E-04  -0.5381720451E-05   0.3777623458E-03  -0.2690860226E-04   0.1384116401E+00   0.3631402003E-04   0.4153438625E-01  -0.2138330708E-01   0.0000000000E+00   0.0000000000E+00   0.1259404301E-02  -0.5394749390E-03  -0.2779829921E-03   0.0000000000E+00   0.0000000000E+00   0.0000000000E+00   0.1284119002E+00
   0.2229071077E+00   0.9416089453E-01   0.7705328310E-04  -0.3947161722E-05   0.3852664155E-03  -0.1973580861E-04   0.1253465904E+00   0.2370984745E-02   0.3831527254E-01  -0.2395721241E-01   0.0000000000E+00   0.0000000000E+00   0.1131407132E-02  -0.4672757413E-03  -0.3114437613E-03   0.0000000000E+00   0.0000000000E+00   0.0000000000E+00   0.1170788326E+00
   0.2729169062E+00   0.5525348414E-01   0.8851669780E-04  -0.1427277164E-05   0.4425834890E-03  -0.7136385822E-05   0.1042336268E+00   0.2083671850E-01   0.3752110358E-01  -0.1096408655E-01   0.0000000000E+00   0.0000000000E+00   0.8672628014E-03  -0.2168970060E-03  -0.1425331251E-03   0.0000000000E+00   0.0000000000E+00   0.0000000000E+00   0.7873853888E-01
   0.1573078841E+00   0.5347875800E-01   0.7304402369E-04  -0.2587349601E-05   0.3652201185E-03  -0.1293674800E-04   0.8228339332E-01  -0.1646014856E-01   0.1974697343E-01  -0.3957467874E-01   0.0000000000E+00   0.0000000000E+00   0.8129734586E-03  -0.4706925858E-03  -0.5144708236E-03   0.0000000000E+00   0.0000000000E+00   0.0000000000E+00   0.1104869225E+00
   0.1471738893E+00   0.6073477432E-01   0.6998204912E-04  -0.3683162597E-05   0.3499102456E-03  -0.1841581298E-04   0.8706732018E-01  -0.2376304155E-01   0.1899128359E-01  -0.4155228461E-01   0.0000000000E+00   0.0000000000E+00   0.8849884757E-03  -0.5558062269E-03  -0.5401796999E-03   0.0000000000E+00   0.0000000000E+00   0.0000000000E+00   0.1211844430E+00
   0.1241202665E+00   0.1489855105E+00   0.4250207860E-04  -0.1985741850E-04   0.2125103930E-03  -0.9928709250E-04   0.1998488025E+00  -0.2617355311E-01   0.5210257482E-01   0.1633804507E-02   0.0000000000E+00   0.0000000000E+00   0.1920700960E-02  -0.1017589663E-02   0.2123945859E-04   0.0000000000E+00   0.0000000000E+00   0.0000000000E+00   0.1987200640E+00
   0.1448952571E+00   0.1472618028E+00   0.4927834438E-04  -0.1620420370E-04   0.2463917219E-03  -0.8102101852E-04   0.1889285022E+00  -0.2516470881E-01   0.4912913801E-01  -0.6830453781E-02   0.0000000000E+00   0.0000000000E+00   0.1817391734E-02  -0.9658200086E-03  -0.8879589915E-04   0.0000000000E+00   0.0000000000E+00   0.0000000000E+00   0.1886337418E+00
   0.1434399360E+00   0.1660165237E+00   0.4584132989E-04  -0.1943037697E-04   0.2292066495E-03  -0.9715188487E-04   0.1945511726E+00  -0.2012902492E-01   0.5232664431E-01   0.2235597716E-02   0.0000000000E+00   0.0000000000E+00   0.1848918868E-02  -0.9419236999E-03   0.2906277030E-04   0.0000000000E+00   0.0000000000E+00   0.0000000000E+00   0.1891129028E+00
   0.1257263713E+00   0.1661784999E+00   0.4030754423E-04  -0.2242534689E-04   0.2015377212E-03  -0.1121267344E-03   0.1992212509E+00  -0.2088121838E-01   0.5350200975E-01   0.7746883131E-02   0.0000000000E+00   0.0000000000E+00   0.1894350135E-02  -0.9669819658E-03   0.1007094807E-03   0.0000000000E+00   0.0000000000E+00   0.0000000000E+00   0.1943319298E+00
   0.6680456539E-01   0.1806676963E+00   0.1987689781E-04  -0.3635427527E-04   0.9938448907E-04  -0.1817713764E-03   0.2030812031E+00   0.1400844183E-02   0.6134461420E-01   0.2447931352E-01   0.0000000000E+00   0.0000000000E+00   0.1842575656E-02  -0.7792690102E-03   0.3182310758E-03   0.0000000000E+00   0.0000000000E+00   0.0000000000E+00   0.1842982091E+00
   0.1097551639E+00   0.1659676223E+00   0.3523215481E-04  -0.2541745577E-04   0.1761607740E-03  -0.1270872789E-03   0.2063267364E+00  -0.1858691396E-01   0.5632194674E-01   0.1386866553E-01   0.0000000000E+00   0.0000000000E+00   0.1950062266E-02  -0.9738151891E-03   0.1802926519E-03   0.0000000000E+00   0.0000000000E+00   0.0000000000E+00   0.1998145910E+00
   0.1056238762E+00   0.1804235650E+00   0.3206319219E-04  -0.2849732976E-04   0.1603159610E-03  -0.1424866488E-03   0.2030967585E+00  -0.1172819336E-01   0.5741056954E-01   0.1889895407E-01   0.0000000000E+00   0.0000000000E+00   0.1893920456E-02  -0.8988039178E-03   0.2456864029E-03   0.0000000000E+00   0.0000000000E+00   0.0000000000E+00   0.1926736117E+00
   0.2150897514E+00   0.1816014757E+00   0.6459123705E-04  -0.1363271147E-04   0.3229561852E-03  -0.6816355736E-04   0.1810819176E+00  -0.4707284259E-02   0.5291239001E-01  -0.8442000162E-02   0.0000000000E+00   0.0000000000E+00   0.1666203859E-02  -0.7490557655E-03  -0.1097460021E-03   0.0000000000E+00   0.0000000000E+00   0.0000000000E+00   0.1653669659E+00
   0.2343267367E+00   0.1797472905E+00   0.7004062385E-04  -0.1219292210E-04   0.3502031193E-03  -0.6096461051E-04   0.1770760664E+00  -0.1908453060E-02   0.5255028401E-01  -0.9583789608E-02   0.0000000000E+00   0.0000000000E+00   0.1618835171E-02  -0.7079635819E-03  -0.1245892649E-03   0.0000000000E+00   0.0000000000E+00   0.0000000000E+00   0.1597833937E+00
   0.2757310731E+00   0.1304704324E+00   0.8424885689E-04  -0.5835099803E-05   0.4212442845E-03  -0.2917549902E-04   0.1443363501E+00   0.7688647996E-02   0.4560749942E-01  -0.1251469878E-01   0.0000000000E+00   0.0000000000E+00   0.1283475058E-02  -0.4929450685E-03  -0.1626910842E-03   0.0000000000E+00   0.0000000000E+00   0.0000000000E+00   0.1240661815E+00
   0.2708101287E+00   0.1522391998E+00   0.8159894325E-04  -0.7851038284E-05   0.4079947162E-03  -0.3925519142E-04   0.1578223185E+00   0.4289739174E-02   0.4863361731E-01  -0.1145511110E-01   0.0000000000E+00   0.0000000000E+00   0.1419453116E-02  -0.5764704158E-03  -0.1489164443E-03   0.0000000000E+00   0.0000000000E+00   0.0000000000E+00   0.1382848034E+00
   0.2537459269E+00   0.1774208243E+00   0.7540215082E-04  -0.1102194319E-04   0.3770107541E-03  -0.5510971596E-04   0.1727553763E+00   0.5399434630E-03   0.5198859593E-01  -0.9687607074E-02   0.0000000000E+00   0.0000000000E+00   0.1569968145E-02  -0.6688324821E-03  -0.1259388920E-03   0.0000000000E+00   0.0000000000E+00   0.0000000000E+00   0.1540301183E+00
   0.1224635440E+00   0.5809381618E-01   0.6721500237E-04  -0.5630753255E-05   0.3360750118E-03  -0.2815376628E-04   0.7312124216E-01  -0.4369410160E-01   0.8828142167E-02  -0.4410911197E-01   0.0000000000E+00   0.0000000000E+00   0.8358102999E-03  -0.6827891690E-03  -0.5734184556E-03   0.0000000000E+00   0.0000000000E+00   0.0000000000E+00   0.1277926616E+00
   0.1104001612E+00   0.7304677676E-01   0.5982054015E-04  -0.9464207410E-05   0.2991027008E-03  -0.4732103705E-04   0.1142137177E+00  -0.4242089403E-01   0.2153784711E-01  -0.4639657118E-01   0.0000000000E+00   0.0000000000E+00   0.1204786318E-02  -0.8314636347E-03  -0.6031554253E-03   0.0000000000E+00   0.0000000000E+00   0.0000000000E+00   0.1579655364E+00
   0.1478505399E+00   0.8119993548E-01   0.6486165552E-04  -0.5879936840E-05   0.3243082776E-03  -0.2939968420E-04   0.1229720471E+00  -0.2995024055E-01   0.2790654196E-01  -0.4131057152E-01   0.0000000000E+00   0.0000000000E+00   0.1235851567E-02  -0.7521381727E-03  -0.5370374297E-03   0.0000000000E+00   0.0000000000E+00   0.0000000000E+00   0.1516901190E+00
   0.1356258316E+00   0.7047421893E-01   0.6546694114E-04  -0.5620778391E-05   0.3273347057E-03  -0.2810389196E-04   0.1046698806E+00  -0.3425405839E-01   0.2112474665E-01  -0.4599169215E-01   0.0000000000E+00   0.0000000000E+00   0.1086086741E-02  -0.7199244655E-03  -0.5978919979E-03   0.0000000000E+00   0.0000000000E+00   0.0000000000E+00   0.1446554263E+00
   0.1011549281E+00   0.1967762118E+00   0.2884451696E-04  -0.3174435952E-04   0.1442225848E-03  -0.1587217976E-03   0.1980346651E+00  -0.7323704151E-02   0.5721328828E-01   0.2070901242E-01   0.0000000000E+00   0.0000000000E+00   0.1830677899E-02  -0.8389809016E-03   0.2692171615E-03   0.0000000000E+00   0.0000000000E+00   0.0000000000E+00   0.1853891017E+00
   0.1237561709E+00   0.1822149688E+00   0.3753114979E-04  -0.2528336159E-04   0.1876557489E-03  -0.1264168080E-03   0.1997953072E+00  -0.1425881056E-01   0.5566094899E-01   0.1324320596E-01   0.0000000000E+00   0.0000000000E+00   0.1873746657E-02  -0.9089568742E-03   0.1721616775E-03   0.0000000000E+00   0.0000000000E+00   0.0000000000E+00   0.1903890105E+00
   0.1614172173E+00   0.1678509965E+00   0.5101922171E-04  -0.1713208430E-04   0.2550961085E-03  -0.8566042150E-04   0.1890598466E+00  -0.1647850740E-01   0.5177440175E-01  -0.2777945580E-02   0.0000000000E+00   0.0000000000E+00   0.1784710783E-02  -0.8872878190E-03  -0.3611329254E-04   0.0000000000E+00   0.0000000000E+00   0.0000000000E+00   0.1813552200E+00
   0.1784802055E+00   0.1697568723E+00   0.5573742188E-04  -0.1537094473E-04   0.2786871094E-03  -0.7685472366E-04   0.1844553156E+00  -0.1269353118E-01   0.5152853533E-01  -0.5897005945E-02   0.0000000000E+00   0.0000000000E+00   0.1728048144E-02  -0.8348868646E-03  -0.7666107728E-04   0.0000000000E+00   0.0000000000E+00   0.0000000000E+00   0.1744432428E+00
   0.8825166462E-01   0.1396777268E+00   0.3222987025E-04  -0.2561370782E-04   0.1611493513E-03  -0.1280685391E-03   0.2222080154E+00  -0.1774770908E-01   0.6133809190E-01   0.8533803462E-02   0.0000000000E+00   0.0000000000E+00   0.2091309006E-02  -0.1028115413E-02   0.1109394450E-03   0.0000000000E+00   0.0000000000E+00   0.0000000000E+00   0.2122629118E+00
   0.9969518485E-01   0.8888134250E-01   0.5099947492E-04  -0.1406066699E-04   0.2549973746E-03  -0.7030333494E-04   0.1616745588E+00  -0.3822022826E-01   0.3703629916E-01  -0.3826206931E-01   0.0000000000E+00   0.0000000000E+00   0.1620297375E-02  -0.9783348564E-03  -0.4974069010E-03   0.0000000000E+00   0.0000000000E+00   0.0000000000E+00   0.1853361476E+00
   0.9660275460E-01   0.1275232905E+00   0.3773003375E-04  -0.2157158389E-04   0.1886501688E-03  -0.1078579194E-03   0.2137650155E+00  -0.2796231435E-01   0.5574081035E-01  -0.2293431495E-02   0.0000000000E+00   0.0000000000E+00   0.2054314667E-02  -0.1088140621E-02  -0.2981460943E-04   0.0000000000E+00   0.0000000000E+00   0.0000000000E+00   0.2122762306E+00
   0.2509926311E+00   0.1600405959E+00   0.7617068628E-04  -0.9237352915E-05   0.3808534314E-03  -0.4618676457E-04   0.1635832564E+00   0.8469669641E-04   0.4910038593E-01  -0.1203895315E-01   0.0000000000E+00   0.0000000000E+00   0.1488277316E-02  -0.6372039601E-03  -0.1565063909E-03   0.0000000000E+00   0.0000000000E+00   0.0000000000E+00   0.1468182297E+00
   0.2598395739E+00   0.1274998757E+00   0.8104898170E-04  -0.5881389929E-05   0.4052449085E-03  -0.2940694965E-04   0.1454389655E+00   0.5928234504E-02   0.4541016001E-01  -0.1475820373E-01   0.0000000000E+00   0.0000000000E+00   0.1300374472E-02  -0.5132650316E-03  -0.1918566485E-03   0.0000000000E+00   0.0000000000E+00   0.0000000000E+00   0.1271403239E+00
   0.1965317898E+00   0.1839515147E+00   0.5911329582E-04  -0.1545454236E-04   0.2955664791E-03  -0.7727271181E-04   0.1850924066E+00  -0.7413648203E-02   0.5330362752E-01  -0.5965644610E-02   0.0000000000E+00   0.0000000000E+00   0.1713254128E-02  -0.7893245844E-03  -0.7755337994E-04   0.0000000000E+00   0.0000000000E+00   0.0000000000E+00   0.1707675460E+00
   0.2587622851E+00   0.1414616995E+00   0.7962435686E-04  -0.7167578765E-05   0.3981217843E-03  -0.3583789383E-04   0.1559141027E+00   0.5956304442E-02   0.4856112214E-01  -0.1322536873E-01   0.0000000000E+00   0.0000000000E+00   0.1395588747E-02  -0.5538626300E-03  -0.1719297935E-03   0.0000000000E+00   0.0000000000E+00   0.0000000000E+00   0.1357682220E+00
   0.2464064999E+00   0.1445956576E+00   0.7646348351E-04  -0.7822228633E-05   0.3823174176E-03  -0.3911114316E-04   0.1561486571E+00   0.1605170372E-02   0.4732614825E-01  -0.1432000336E-01   0.0000000000E+00   0.0000000000E+00   0.1414692615E-02  -0.5943727124E-03  -0.1861600436E-03   0.0000000000E+00   0.0000000000E+00   0.0000000000E+00   0.1397150896E+00
   0.1920417124E+00   0.1589140046E+00   0.6100323645E-04  -0.1259322767E-04   0.3050161822E-03  -0.6296613835E-04   0.1757225636E+00  -0.9972125646E-02   0.4972513139E-01  -0.1126202398E-01   0.0000000000E+00   0.0000000000E+00   0.1637966619E-02  -0.7760643415E-03  -0.1464063118E-03   0.0000000000E+00   0.0000000000E+00   0.0000000000E+00   0.1653489340E+00
   0.1948680243E+00   0.1697076886E+00   0.6038872182E-04  -0.1373590286E-04   0.3019436091E-03  -0.6867951428E-04   0.1793048398E+00  -0.9792856766E-02   0.5085359491E-01  -0.8758686972E-02   0.0000000000E+00   0.0000000000E+00   0.1669866184E-02  -0.7884038719E-03  -0.1138629306E-03   0.0000000000E+00   0.0000000000E+00   0.0000000000E+00   0.1679202634E+00
   0.1801213372E+00   0.1552169231E+00   0.5822953609E-04  -0.1319148248E-04   0.2911476804E-03  -0.6595741240E-04   0.1787213536E+00  -0.1402073014E-01   0.4941018704E-01  -0.1024186525E-01   0.0000000000E+00   0.0000000000E+00   0.1681045165E-02  -0.8246019234E-03  -0.1331442483E-03   0.0000000000E+00   0.0000000000E+00   0.0000000000E+00   0.1709968085E+00
   0.1011903915E+00   0.1484219546E+00   0.3507292333E-04  -0.2425723160E-04   0.1753646167E-03  -0.1212861580E-03   0.2111131810E+00  -0.2230443043E-01   0.5664262516E-01   0.9415909044E-02   0.0000000000E+00   0.0000000000E+00   0.2008117226E-02  -0.1026311723E-02   0.1224068176E-03   0.0000000000E+00   0.0000000000E+00   0.0000000000E+00   0.2062459323E+00
   0.2008359861E+00   0.7796150674E-01   0.7530519088E-04  -0.3166109539E-05   0.3765259544E-03  -0.1583054770E-04   0.1121722317E+00  -0.1245606864E-02   0.3327798746E-01  -0.2989830362E-01   0.0000000000E+00   0.0000000000E+00   0.1025625176E-02  -0.4488067262E-03  -0.3886779471E-03   0.0000000000E+00   0.0000000000E+00   0.0000000000E+00   0.1131815320E+00
   0.2117816822E+00   0.1146340914E+00   0.7206719307E-04  -0.6112763399E-05   0.3603359654E-03  -0.3056381699E-04   0.1425867769E+00  -0.4961883213E-02   0.4128746811E-01  -0.2291182802E-01   0.0000000000E+00   0.0000000000E+00   0.1316891015E-02  -0.6012415673E-03  -0.2978537642E-03   0.0000000000E+00   0.0000000000E+00   0.0000000000E+00   0.1365592247E+00
   0.2070193097E+00   0.9686790471E-01   0.7361344777E-04  -0.4581998317E-05   0.3680672389E-03  -0.2290999158E-04   0.1290874996E+00  -0.4225917573E-02   0.3745847460E-01  -0.2697229076E-01   0.0000000000E+00   0.0000000000E+00   0.1191177325E-02  -0.5418970982E-03  -0.3506397799E-03   0.0000000000E+00   0.0000000000E+00   0.0000000000E+00   0.1269560179E+00
   0.9017709354E-01   0.1038854995E+00   0.4247775646E-04  -0.1884291655E-04   0.2123887823E-03  -0.9421458274E-04   0.2066334710E+00  -0.2456019516E-01   0.5462198274E-01  -0.2395646260E-01   0.0000000000E+00   0.0000000000E+00   0.1976149347E-02  -0.1029368313E-02  -0.3114340138E-03   0.0000000000E+00   0.0000000000E+00   0.0000000000E+00   0.2058684488E+00
   0.1248313243E+00   0.8333547412E-01   0.5925404604E-04  -0.8619079452E-05   0.2962702302E-03  -0.4309539726E-04   0.1327861106E+00  -0.4097284914E-01   0.2754397845E-01  -0.4272520334E-01   0.0000000000E+00   0.0000000000E+00   0.1368147719E-02  -0.8907187587E-03  -0.5554276434E-03   0.0000000000E+00   0.0000000000E+00   0.0000000000E+00   0.1684362081E+00
   0.1090242130E+00   0.1150918492E+00   0.4498549426E-04  -0.1663280581E-04   0.2249274713E-03  -0.8316402906E-04   0.1934240659E+00  -0.3552095412E-01   0.4737093354E-01  -0.1834299247E-01   0.0000000000E+00   0.0000000000E+00   0.1898690721E-02  -0.1077594540E-02  -0.2384589021E-03   0.0000000000E+00   0.0000000000E+00   0.0000000000E+00   0.2035745341E+00
   0.2442821416E+00   0.1279518981E+00   0.7761527264E-04  -0.6299315114E-05   0.3880763632E-03  -0.3149657557E-04   0.1462128952E+00   0.2438698618E-02   0.4459547815E-01  -0.1698340587E-01   0.0000000000E+00   0.0000000000E+00   0.1321026422E-02  -0.5480381339E-03  -0.2207842764E-03   0.0000000000E+00   0.0000000000E+00   0.0000000000E+00   0.1313219365E+00
   0.1992685095E+00   0.1516750698E+00   0.6390942272E-04  -0.1108737186E-04   0.3195471136E-03  -0.5543685931E-04   0.1697346365E+00  -0.1056395692E-01   0.4775120388E-01  -0.1369207525E-01   0.0000000000E+00   0.0000000000E+00   0.1585784624E-02  -0.7580970904E-03  -0.1779969783E-03   0.0000000000E+00   0.0000000000E+00   0.0000000000E+00   0.1610816991E+00
   0.2057693346E+00   0.1443773670E+00   0.6657660111E-04  -0.9735160343E-05   0.3328830055E-03  -0.4867580171E-04   0.1639307640E+00  -0.9705546416E-02   0.4626756527E-01  -0.1603787714E-01   0.0000000000E+00   0.0000000000E+00   0.1529621583E-02  -0.7276504519E-03  -0.2084924028E-03   0.0000000000E+00   0.0000000000E+00   0.0000000000E+00   0.1559985849E+00
   0.1928131509E+00   0.1007876632E+00   0.7008648365E-04  -0.5492129963E-05   0.3504324182E-03  -0.2746064981E-04   0.1349954514E+00  -0.1049961289E-01   0.3734875156E-01  -0.2837446230E-01   0.0000000000E+00   0.0000000000E+00   0.1269407098E-02  -0.6220287378E-03  -0.3688680099E-03   0.0000000000E+00   0.0000000000E+00   0.0000000000E+00   0.1374171093E+00
   0.1420095287E+00   0.1241363544E+00   0.5287711363E-04  -0.1287893470E-04   0.2643855682E-03  -0.6439467348E-04   0.1773996828E+00  -0.3143896214E-01   0.4378821621E-01  -0.1864390280E-01   0.0000000000E+00   0.0000000000E+00   0.1736949066E-02  -0.9779533185E-03  -0.2423707365E-03   0.0000000000E+00   0.0000000000E+00   0.0000000000E+00   0.1859861299E+00
   0.1462075230E+00   0.1118268437E+00   0.5680516558E-04  -0.1039737675E-04   0.2840258279E-03  -0.5198688376E-04   0.1645180614E+00  -0.3186806752E-01   0.3979499818E-01  -0.2712151400E-01   0.0000000000E+00   0.0000000000E+00   0.1621399822E-02  -0.9316198541E-03  -0.3525796819E-03   0.0000000000E+00   0.0000000000E+00   0.0000000000E+00   0.1783211877E+00
   0.1589545136E+00   0.1176093263E+00   0.5894609992E-04  -0.9932122033E-05   0.2947304996E-03  -0.4966061016E-04   0.1628978919E+00  -0.2652099405E-01   0.4091306935E-01  -0.2474889014E-01   0.0000000000E+00   0.0000000000E+00   0.1585802693E-02  -0.8766428242E-03  -0.3217355718E-03   0.0000000000E+00   0.0000000000E+00   0.0000000000E+00   0.1717598262E+00
   0.1544244217E+00   0.1313025795E+00   0.5499144681E-04  -0.1247492150E-04   0.2749572340E-03  -0.6237460751E-04   0.1739399268E+00  -0.2779790257E-01   0.4384260726E-01  -0.1782089456E-01   0.0000000000E+00   0.0000000000E+00   0.1691265154E-02  -0.9313266278E-03  -0.2316716293E-03   0.0000000000E+00   0.0000000000E+00   0.0000000000E+00   0.1795450000E+00
   0.1640903516E+00   0.1518929815E+00   0.5418826213E-04  -0.1444307832E-04   0.2709413106E-03  -0.7221539159E-04   0.1824408678E+00  -0.1835368429E-01   0.4922615504E-01  -0.9041680909E-02   0.0000000000E+00   0.0000000000E+00   0.1731791265E-02  -0.8785379112E-03  -0.1175418518E-03   0.0000000000E+00   0.0000000000E+00   0.0000000000E+00   0.1775675049E+00
   0.1116177571E+00   0.1548089301E+00   0.3751218567E-04  -0.2321981897E-04   0.1875609284E-03  -0.1160990949E-03   0.2088067188E+00  -0.1985097847E-01   0.5668672211E-01   0.9879257186E-02   0.0000000000E+00   0.0000000000E+00   0.1977559957E-02  -0.9949901076E-03   0.1284303434E-03   0.0000000000E+00   0.0000000000E+00   0.0000000000E+00   0.2021812103E+00
   0.1375553257E+00   0.1346522740E+00   0.4939144433E-04  -0.1526834020E-04   0.2469572216E-03  -0.7634170101E-04   0.1939325521E+00  -0.2684567976E-01   0.5012606170E-01  -0.1040859808E-01   0.0000000000E+00   0.0000000000E+00   0.1869484375E-02  -0.1000632639E-02  -0.1353117750E-03   0.0000000000E+00   0.0000000000E+00   0.0000000000E+00   0.1947490286E+00
   0.1808916995E+00   0.1056146628E+00   0.6662424212E-04  -0.6643374937E-05   0.3331212106E-03  -0.3321687469E-04   0.1410373277E+00  -0.1801223367E-01   0.3690752821E-01  -0.2952811287E-01   0.0000000000E+00   0.0000000000E+00   0.1353687393E-02  -0.7139569044E-03  -0.3838654673E-03   0.0000000000E+00   0.0000000000E+00   0.0000000000E+00   0.1489220782E+00
   0.1513359872E+00   0.9998796536E-01   0.6090653366E-04  -0.8106772622E-05   0.3045326683E-03  -0.4053386311E-04   0.1462878831E+00  -0.2960183778E-01   0.3500581360E-01  -0.3346459525E-01   0.0000000000E+00   0.0000000000E+00   0.1446666904E-02  -0.8398994679E-03  -0.4350397383E-03   0.0000000000E+00   0.0000000000E+00   0.0000000000E+00   0.1645354436E+00
   0.1384596404E+00   0.9234764687E-01   0.5975906191E-04  -0.8300754298E-05   0.2987953095E-03  -0.4150377149E-04   0.1437114049E+00  -0.3572364172E-01   0.3239632897E-01  -0.3827774357E-01   0.0000000000E+00   0.0000000000E+00   0.1447095988E-02  -0.8855596189E-03  -0.4976106663E-03   0.0000000000E+00   0.0000000000E+00   0.0000000000E+00   0.1701232306E+00
   0.1561463858E+00   0.9050717693E-01   0.6427763313E-04  -0.6465044649E-05   0.3213881656E-03  -0.3232522325E-04   0.1302559169E+00  -0.3044214757E-01   0.2994413079E-01  -0.3954518288E-01   0.0000000000E+00   0.0000000000E+00   0.1304053219E-02  -0.7850216187E-03  -0.5140873774E-03   0.0000000000E+00   0.0000000000E+00   0.0000000000E+00   0.1561933643E+00
   0.1275557630E+00   0.1184861980E+00   0.4989733071E-04  -0.1402033992E-04   0.2494866536E-03  -0.7010169961E-04   0.1863261709E+00  -0.3448834636E-01   0.4555134736E-01  -0.1965009371E-01   0.0000000000E+00   0.0000000000E+00   0.1830072706E-02  -0.1040516018E-02  -0.2554512182E-03   0.0000000000E+00   0.0000000000E+00   0.0000000000E+00   0.1963884536E+00
   0.1262164141E+00   0.1330364387E+00   0.4616668466E-04  -0.1678555818E-04   0.2308334233E-03  -0.8392779089E-04   0.1925007601E+00  -0.3149630623E-01   0.4830133617E-01  -0.9556912792E-02   0.0000000000E+00   0.0000000000E+00   0.1874592511E-02  -0.1037369351E-02  -0.1242398663E-03   0.0000000000E+00   0.0000000000E+00   0.0000000000E+00   0.1973486617E+00
   0.1146977743E+00   0.1296082663E+00   0.4327255450E-04  -0.1823027997E-04   0.2163627725E-03  -0.9115139987E-04   0.1958431148E+00  -0.3656682711E-01   0.4778288631E-01  -0.8192609133E-02   0.0000000000E+00   0.0000000000E+00   0.1924782971E-02  -0.1096546275E-02  -0.1065039187E-03   0.0000000000E+00   0.0000000000E+00   0.0000000000E+00   0.2039078331E+00
   0.2294206765E+00   0.1294491846E+00   0.7412825571E-04  -0.6917238165E-05   0.3706412786E-03  -0.3458619083E-04   0.1495748029E+00  -0.1212645869E-02   0.4450864712E-01  -0.1820317853E-01   0.0000000000E+00   0.0000000000E+00   0.1365860026E-02  -0.5943768089E-03  -0.2366413209E-03   0.0000000000E+00   0.0000000000E+00   0.0000000000E+00   0.1375505794E+00
   0.2015329050E+00   0.1331854655E+00   0.6707083804E-04  -0.8646911476E-05   0.3353541902E-03  -0.4323455738E-04   0.1588599962E+00  -0.9192802587E-02   0.4490015810E-01  -0.1888451269E-01   0.0000000000E+00   0.0000000000E+00   0.1481477896E-02  -0.7032084889E-03  -0.2454986650E-03   0.0000000000E+00   0.0000000000E+00   0.0000000000E+00   0.1521145675E+00
   0.1979278474E+00   0.1180667798E+00   0.6844356555E-04  -0.7115359001E-05   0.3422178278E-03  -0.3557679501E-04   0.1488894196E+00  -0.1033626043E-01   0.4156594775E-01  -0.2341770592E-01   0.0000000000E+00   0.0000000000E+00   0.1395205134E-02  -0.6747287063E-03  -0.3044301770E-03   0.0000000000E+00   0.0000000000E+00   0.0000000000E+00   0.1463512884E+00
   0.2153302274E+00   0.1311124619E+00   0.7066372763E-04  -0.7683186389E-05   0.3533186381E-03  -0.3841593194E-04   0.1528979214E+00  -0.5645042744E-02   0.4417586359E-01  -0.1910776322E-01   0.0000000000E+00   0.0000000000E+00   0.1413386751E-02  -0.6476717823E-03  -0.2484009219E-03   0.0000000000E+00   0.0000000000E+00   0.0000000000E+00   0.1442539093E+00
   0.1088270377E+00   0.1383890064E+00   0.3948411807E-04  -0.2093359380E-04   0.1974205903E-03  -0.1046679690E-03   0.2076089293E+00  -0.2850957975E-01   0.5372980487E-01  -0.1081765675E-03   0.0000000000E+00   0.0000000000E+00   0.2000428618E-02  -0.1069112000E-02  -0.1406295377E-05   0.0000000000E+00   0.0000000000E+00   0.0000000000E+00   0.2074898778E+00
   0.1690898470E+00   0.1364240594E+00   0.5814066663E-04  -0.1163860653E-04   0.2907033331E-03  -0.5819303267E-04   0.1717627776E+00  -0.2196983730E-01   0.4493788209E-01  -0.1658263616E-01   0.0000000000E+00   0.0000000000E+00   0.1648723642E-02  -0.8698003521E-03  -0.2155742701E-03   0.0000000000E+00   0.0000000000E+00   0.0000000000E+00   0.1727773835E+00
   0.1866701359E+00   0.1395630020E+00   0.6234332283E-04  -0.1047667495E-04   0.3117166142E-03  -0.5238337475E-04   0.1667763016E+00  -0.1508227521E-01   0.4550820791E-01  -0.1681170087E-01   0.0000000000E+00   0.0000000000E+00   0.1576485218E-02  -0.7876762806E-03  -0.2185521114E-03   0.0000000000E+00   0.0000000000E+00   0.0000000000E+00   0.1629677038E+00
   0.1630180368E+00   0.1046586704E+00   0.6269980322E-04  -0.7753604266E-05   0.3134990161E-03  -0.3876802133E-04   0.1512465712E+00  -0.2304261822E-01   0.3846118590E-01  -0.2966410781E-01   0.0000000000E+00   0.0000000000E+00   0.1466210009E-02  -0.7995494535E-03  -0.3856334015E-03   0.0000000000E+00   0.0000000000E+00   0.0000000000E+00   0.1612500451E+00
   0.1847693718E+00   0.1214159339E+00   0.6476196547E-04  -0.8315181976E-05   0.3238098273E-03  -0.4157590988E-04   0.1551107254E+00  -0.1541245194E-01   0.4190948205E-01  -0.2287216971E-01   0.0000000000E+00   0.0000000000E+00   0.1471616164E-02  -0.7451851418E-03  -0.2973382062E-03   0.0000000000E+00   0.0000000000E+00   0.0000000000E+00   0.1553372724E+00
   0.1719130201E+00   0.1217573520E+00   0.6150317536E-04  -0.9326672378E-05   0.3075158768E-03  -0.4663336189E-04   0.1592841983E+00  -0.2147220279E-01   0.4134359865E-01  -0.2305909551E-01   0.0000000000E+00   0.0000000000E+00   0.1533227795E-02  -0.8166054187E-03  -0.2997682417E-03   0.0000000000E+00   0.0000000000E+00   0.0000000000E+00   0.1638142178E+00
   0.1159224119E+00   0.9807035603E-01   0.5218848362E-04  -0.1238612799E-04   0.2609424181E-03  -0.6193063996E-04   0.1648365389E+00  -0.4134495468E-01   0.3704747526E-01  -0.3397111183E-01   0.0000000000E+00   0.0000000000E+00   0.1661257827E-02  -0.1019101589E-02  -0.4416244537E-03   0.0000000000E+00   0.0000000000E+00   0.0000000000E+00   0.1894518583E+00
   0.1317464933E+00   0.1052480547E+00   0.5448988158E-04  -0.1114638387E-04   0.2724494079E-03  -0.5573191934E-04   0.1669360988E+00  -0.3715444798E-01   0.3893449525E-01  -0.2979940036E-01   0.0000000000E+00   0.0000000000E+00   0.1664020846E-02  -0.9891562620E-03  -0.3873922047E-03   0.0000000000E+00   0.0000000000E+00   0.0000000000E+00   0.1856540958E+00
   0.1722283787E+00   0.1102953953E+00   0.6374678220E-04  -0.7800280448E-05   0.3187339110E-03  -0.3900140224E-04   0.1455433185E+00  -0.2227438532E-01   0.3698067996E-01  -0.2833303898E-01   0.0000000000E+00   0.0000000000E+00   0.1411314301E-02  -0.7703158487E-03  -0.3683295068E-03   0.0000000000E+00   0.0000000000E+00   0.0000000000E+00   0.1553259246E+00
           1           2           3           4
           5           6           7           8
           9          10          11          12
          13          14          15          16
          17          18          19          20
          21          22          23          24
          25          26          27          28
          29          30          31          32
          33          34           4           3
           2           1          35          36
          37          38          39          40
          41          42          36          35
          43          41          44          45
          46           9          47          48
          41          35          39          44
          49          50          51          52
          52          51          53          54
          55          56          57          58
          56          59          60          57
          61          62          63          64
          65          66          67          68
          69          70          71          72
          73          74          25          28
          27          75          76          28
          77          78          24          23
          79          80          81          82
          83          84          85          86
          87          88          89          90
          90          89          62          91
          61          92          91          62
          92          61          59          93
          56          94          93          59
          95          55          54          53
          46          96          10           9
          97          98          99         100
          12         101          98          97
          97         100         102          47
         103         104          31          30
         105         103          30         106
          73         107         108         109
         110         111         112         113
          32          31         114         115
         116         117         118         119
         120         121         122         123
         121          83          86         122
          80         124         125          81
         126         127         128         129
         130         101          12          11
         131          43         101         130
          34         129         132           4
          42          41          43         131
          35           1          40          39
         101          43          45          98
         133         134         109         108
         135         136          13          16
         137         138          65          68
          94          56          55          95
          58         137          54          55
          49          52          68          67
         139         140         141         142
         140         139          82          81
          88          87         142         141
         143         144         145         146
         147          26          25         148
         149         150         128         151
           5           8         152         102
         132         129         128         150
         153         100          99         154
          48          47         102         152
          59          61          64          60
         106         155         113         118
          62          89         156          63
          88         157         156          89
         123         116         119         120
          66          65         134         133
         144         143          84          83
           9          12          97          47
         104         158         114          31
         159         160         127         126
         119         112         161         120
         117         105         106         118
         162         163         164         165
          83         121         166         144
         167         168         141         140
         167         143         146         168
           6         114         158           7
          38          37         169         170
          40         132         150          37
         160         159          20          19
          78         171         172          24
          18          17          21          24
         173         174          78          77
         132          40           1           4
          28          76         107          73
         175         176         177         178
         176         179          57          60
         137          68          52          54
          60          64         177         176
         163         162         155          29
          75          27         174         173
         180         174          27          26
          64          63         181         177
          98          45         182          99
         183         182          45          44
          38         183          44          39
          58          57         179         184
         185         181          63         156
         134         186         187         109
         188          74         187         189
         138         186         134          65
          88         141         168         157
         166         121         120         161
         190         191         166         161
         155         106          30          29
         192         193         194         195
         118         113         112         119
         125          84         143         167
         124          85          84         125
           6         196         115         114
         196           6           5         153
         197          32         115         198
         111         190         161         112
         199         148         188         135
         170         169         200         201
         202         164         163         197
         203         204         146         145
         205         206         201         200
         187          74          73         109
         176         175         207         179
         208         209          16          15
         210         186         138         184
         184         138         137          58
         179         207         210         184
         211         212         172         171
          78         174         180         171
         125         167         140          81
          37         150         149         169
         213         214         215         216
         217         182         183         201
         170         201         183          38
         218         219         206         205
         111         220         221         190
         157         168         146         204
         177         181         222         178
         222         181         185         223
         186         210         189         187
         224         191         190         221
         100         153           5         102
         185         156         157         204
         113         155         162         110
          26         147         193         180
          29          32         197         163
         225         226          19          18
         144         166         191         145
         212         192         227         228
         198         115         196         229
         206         154         217         201
         153         154         229         196
         172         225          18          24
         148          25          74         188
          14          13         175         178
         207         175          13         136
         189         136         135         188
         230         202         197         198
         210         207         136         189
         165         164         231         232
         169         149         233         200
         234         160          19         226
         217         154          99         182
         203         145         191         224
         151         235         233         149
         236         223         203         224
         185         204         203         223
         178         222         237          14
         110         162         165         238
         239         223         236         240
         238         220         111         110
         219         230         198         229
         241         242         232         243
         242          69         220         238
          72          71         240         236
         244         205         200         233
         215         231         164         202
         211         171         180         193
         228         225         172         212
         194         193         147         245
         245         147         148         199
         135          16         209         199
         209         208         246         247
         127         160         234         248
         193         192         212         211
         226         225         228         249
         151         128         127         248
         248         250         235         151
          72         221         220          69
          14         237         251          15
          70          69         252         253
         206         219         229         154
         238         165         232         242
          72         236         224         221
         216         215         202         230
         245         247         254         194
         255         256         257         258
         230         219         218         216
         214         259         231         215
         216         218         260         213
         261         255         258         214
         239         237         222         223
         194         254         262         195
         263         264         227         265
         250         266         267         268
         199         209         247         245
         240          71         269         251
         270         271         246         272
         260         244         273         213
         237         239         240         251
         218         205         244         260
          70         272         269          71
         232         231         259         243
         274         275         243         259
         257         256         263         276
         277         275         274         278
         234         226         249         279
         271         277         262         254
         271         254         247         246
         246         208         269         272
         244         233         235         273
         251         269         208          15
         275         270         253         252
         234         279         250         248
         279         249         264         280
         259         214         258         274
         262         281         276         195
         195         276         263         265
         257         276         281         278
         278         274         258         257
         266         280         256         255
         261         214         213         267
         267         266         255         261
         266         250         279         280
         228         227         264         249
         256         280         264         263
         265         227         192         195
         281         262         277         278
         235         250         268         273
         273         268         267         213
         277         271         270         275
         253         270         272          70
         252          69         242         241
         243         275         252         241
 VARIABLES = X,Y,DU1,DU2,U1,U2,S11,S22,S33,S12,S13,S23,E11,E22,E12,E33,E13,E23,SMISES
 ZONE, T="0.7000D+01" F=FEPOINT, I=  281 J=  250
   0.1780398246E-01   0.1339659076E+00   0.6995108697E-05  -0.3884119502E-04   0.4197065218E-04  -0.2330471701E-03   0.3320113564E+00   0.6366429478E-01   0.1187026954E+00   0.5079359100E-02   0.0000000000E+00   0.0000000000E+00   0.2773012594E-02  -0.7154992076E-03   0.6603166830E-04   0.0000000000E+00   0.0000000000E+00   0.0000000000E+00   0.2442636583E+00
   0.0000000000E+00   0.1330558183E+00   0.0000000000E+00  -0.3964596163E-04   0.0000000000E+00  -0.2378757698E-03   0.3341053958E+00   0.6636912687E-01   0.1201423568E+00   0.8582333081E-02   0.0000000000E+00   0.0000000000E+00   0.2781519507E-02  -0.6990519892E-03   0.1115703301E-03   0.0000000000E+00   0.0000000000E+00   0.0000000000E+00   0.2458197540E+00
   0.0000000000E+00   0.1164046965E+00   0.0000000000E+00  -0.3742435212E-04   0.0000000000E+00  -0.2245461127E-03   0.4188054469E+00   0.2799789370E-01   0.1340410022E+00   0.6827875716E-02   0.0000000000E+00   0.0000000000E+00   0.3701937782E-02  -0.1378560410E-02   0.8876238430E-04   0.0000000000E+00   0.0000000000E+00   0.0000000000E+00   0.3491569536E+00
   0.1922294408E-01   0.1160362450E+00   0.9829582524E-05  -0.3642042832E-04   0.5897749515E-04  -0.2185225699E-03   0.3826340984E+00   0.2687913620E-01   0.1228539704E+00  -0.3403262345E-01   0.0000000000E+00   0.0000000000E+00   0.3377141664E-02  -0.1247672844E-02  -0.4424241048E-03   0.0000000000E+00   0.0000000000E+00   0.0000000000E+00   0.3257001521E+00
   0.7813099175E-01   0.2315928049E+00   0.1849893641E-04  -0.4051400749E-04   0.1109936184E-03  -0.2430840449E-03   0.2036235257E+00   0.1060047183E-03   0.6111885912E-01   0.1410528991E-01   0.0000000000E+00   0.0000000000E+00   0.1852560665E-02  -0.7931671072E-03   0.1833687688E-03   0.0000000000E+00   0.0000000000E+00   0.0000000000E+00   0.1826245495E+00
   0.9794505644E-01   0.2317968027E+00   0.2386522070E-04  -0.3692275069E-04   0.1431913242E-03  -0.2215365042E-03   0.2152240881E+00  -0.1051880225E-02   0.6425166236E-01   0.1284754664E-01   0.0000000000E+00   0.0000000000E+00   0.1962641535E-02  -0.8489460536E-03   0.1670181063E-03   0.0000000000E+00   0.0000000000E+00   0.0000000000E+00   0.1934902459E+00
   0.9736891741E-01   0.2497258456E+00   0.2095621536E-04  -0.3916492128E-04   0.1257372921E-03  -0.2349895277E-03   0.2099381153E+00  -0.1068362859E-02   0.6266092574E-01   0.4413781117E-02   0.0000000000E+00   0.0000000000E+00   0.1914603465E-02  -0.8284807518E-03   0.5737915452E-04   0.0000000000E+00   0.0000000000E+00   0.0000000000E+00   0.1873951430E+00
   0.7788896167E-01   0.2497021892E+00   0.1588301032E-04  -0.4254439680E-04   0.9529806193E-04  -0.2552663808E-03   0.1899912118E+00  -0.1900599418E-02   0.5642718371E-01   0.4903501936E-02   0.0000000000E+00   0.0000000000E+00   0.1736332365E-02  -0.7582611807E-03   0.6374552517E-04   0.0000000000E+00   0.0000000000E+00   0.0000000000E+00   0.1703607747E+00
   0.1912749895E-01   0.2329853103E+00   0.4186906655E-05  -0.4821695311E-04   0.2512143993E-04  -0.2893017186E-03   0.1725471766E+00   0.4819735040E-02   0.5321007350E-01   0.4067900016E-02   0.0000000000E+00   0.0000000000E+00   0.1551382341E-02  -0.6290743999E-03   0.5288270020E-04   0.0000000000E+00   0.0000000000E+00   0.0000000000E+00   0.1499779263E+00
   0.0000000000E+00   0.2329919013E+00   0.0000000000E+00  -0.4877609362E-04   0.0000000000E+00  -0.2926565617E-03   0.1697591621E+00   0.5118191156E-02   0.5246320597E-01   0.4582546256E-02   0.0000000000E+00   0.0000000000E+00   0.1524847429E-02  -0.6154851926E-03   0.5957310133E-04   0.0000000000E+00   0.0000000000E+00   0.0000000000E+00   0.1469712156E+00
   0.0000000000E+00   0.2163360720E+00   0.0000000000E+00  -0.4722813783E-04   0.0000000000E+00  -0.2833688270E-03   0.1928971312E+00   0.9822223733E-02   0.6081580649E-01   0.4694106037E-02   0.0000000000E+00   0.0000000000E+00   0.1717057222E-02  -0.6629165759E-03   0.6102337848E-04   0.0000000000E+00   0.0000000000E+00   0.0000000000E+00   0.1637254084E+00
   0.1856425221E-01   0.2164478279E+00   0.4565344514E-05  -0.4668358177E-04   0.2739206709E-04  -0.2801014906E-03   0.1948083633E+00   0.9068680749E-02   0.6116311322E-01   0.7976613393E-02   0.0000000000E+00   0.0000000000E+00   0.1737388251E-02  -0.6772276222E-03   0.1036959741E-03   0.0000000000E+00   0.0000000000E+00   0.0000000000E+00   0.1667693816E+00
   0.2577908261E+00   0.9225119793E-01   0.8362000731E-04  -0.3296152572E-05   0.5017200438E-03  -0.1977691543E-04   0.1435279941E+00   0.1349393020E-01   0.4710657729E-01  -0.1957490805E-01   0.0000000000E+00   0.0000000000E+00   0.1253478419E-02  -0.4369644122E-03  -0.2544738046E-03   0.0000000000E+00   0.0000000000E+00   0.0000000000E+00   0.1216946066E+00
   0.2591778403E+00   0.1102543425E+00   0.8236604865E-04  -0.4512505276E-05   0.4941962919E-03  -0.2707503165E-04   0.1567410462E+00   0.9994021359E-02   0.5002052028E-01  -0.1882017272E-01   0.0000000000E+00   0.0000000000E+00   0.1387366838E-02  -0.5203444860E-03  -0.2446622453E-03   0.0000000000E+00   0.0000000000E+00   0.0000000000E+00   0.1353389768E+00
   0.2424083584E+00   0.1106427257E+00   0.7897520231E-04  -0.4849041415E-05   0.4738512139E-03  -0.2909424849E-04   0.1582762634E+00   0.5414184862E-02   0.4910713448E-01  -0.2215192675E-01   0.0000000000E+00   0.0000000000E+00   0.1419198676E-02  -0.5680083450E-03  -0.2879750477E-03   0.0000000000E+00   0.0000000000E+00   0.0000000000E+00   0.1416362177E+00
   0.2399426779E+00   0.9265654011E-01   0.8036313396E-04  -0.3539770277E-05   0.4821788038E-03  -0.2123862166E-04   0.1439515390E+00   0.8685080798E-02   0.4579098594E-01  -0.2381966602E-01   0.0000000000E+00   0.0000000000E+00   0.1276087190E-02  -0.4823767668E-03  -0.3096556582E-03   0.0000000000E+00   0.0000000000E+00   0.0000000000E+00   0.1278533306E+00
   0.9288574021E-01   0.3819356669E-01   0.7111261511E-04  -0.1068227345E-04   0.4266756907E-03  -0.6409364072E-04  -0.2454562200E-01  -0.1260250146E+00  -0.4517119097E-01   0.1755674402E-01   0.0000000000E+00   0.0000000000E+00   0.2681323967E-03  -0.1051099707E-02   0.2282376723E-03   0.0000000000E+00   0.0000000000E+00   0.0000000000E+00   0.9014887387E-01
   0.1085343576E+00   0.4605133378E-01   0.6964251905E-04  -0.6743959537E-05   0.4178551143E-03  -0.4046375722E-04   0.4344354166E-01  -0.5157015617E-01  -0.2437984353E-02  -0.2617384886E-01   0.0000000000E+00   0.0000000000E+00   0.5964598381E-03  -0.6387182336E-03  -0.3402600352E-03   0.0000000000E+00   0.0000000000E+00   0.0000000000E+00   0.8970951261E-01
   0.9654179541E-01   0.6346062727E-01   0.6152843021E-04  -0.1165248961E-04   0.3691705813E-03  -0.6991493766E-04   0.8184177767E-01  -0.3150486449E-01   0.1510107396E-01  -0.3896577083E-01   0.0000000000E+00   0.0000000000E+00   0.8676291483E-03  -0.6058771997E-03  -0.5065550208E-03   0.0000000000E+00   0.0000000000E+00   0.0000000000E+00   0.1200564550E+00
   0.8359714864E-01   0.5544393581E-01   0.6431273462E-04  -0.1615541316E-04   0.3858764077E-03  -0.9693247898E-04   0.2200634440E-01  -0.2815149863E-01  -0.1843546269E-02  -0.1258476291E-01   0.0000000000E+00   0.0000000000E+00   0.3100485787E-03  -0.3420033807E-03  -0.1636019178E-03   0.0000000000E+00   0.0000000000E+00   0.0000000000E+00   0.4889716942E-01
   0.9860359729E-01   0.1947218047E-01   0.7501009803E-04  -0.5264561245E-05   0.4500605882E-03  -0.3158736747E-04  -0.2582879774E-01  -0.1966592645E+00  -0.6674641868E-01   0.2453934038E-01   0.0000000000E+00   0.0000000000E+00   0.5319290722E-03  -0.1688866996E-02   0.3190114250E-03   0.0000000000E+00   0.0000000000E+00   0.0000000000E+00   0.1521967989E+00
   0.1005368358E+00   0.0000000000E+00   0.7669068531E-04   0.0000000000E+00   0.4601441119E-03   0.0000000000E+00  -0.3518037861E-01  -0.2130064598E+00  -0.7445605151E-01  -0.1339800058E-01   0.0000000000E+00   0.0000000000E+00   0.5105837478E-03  -0.1801155307E-02  -0.1741740076E-03   0.0000000000E+00   0.0000000000E+00   0.0000000000E+00   0.1625892484E+00
   0.1213803929E+00   0.0000000000E+00   0.7815183898E-04   0.0000000000E+00   0.4689110339E-03   0.0000000000E+00   0.5268484408E-02  -0.6739492588E-01  -0.1863793244E-01  -0.1437872082E-01   0.0000000000E+00   0.0000000000E+00   0.3107834191E-03  -0.6338409147E-03  -0.1869233707E-03   0.0000000000E+00   0.0000000000E+00   0.0000000000E+00   0.6781424995E-01
   0.1222617049E+00   0.2609528791E-01   0.7583442070E-04  -0.2431542051E-05   0.4550065242E-03  -0.1458925231E-04   0.2064239256E-01  -0.6508997892E-01  -0.1333427591E-01  -0.1725695282E-01   0.0000000000E+00   0.0000000000E+00   0.4416966901E-03  -0.6728241392E-03  -0.2243403867E-03   0.0000000000E+00   0.0000000000E+00   0.0000000000E+00   0.8526174193E-01
   0.2111151285E+00   0.3762674628E-01   0.8156992776E-04  -0.9266450683E-06   0.4894195666E-03  -0.5559870410E-05   0.9348981607E-01   0.1419197591E-01   0.3230453759E-01  -0.2173406959E-01   0.0000000000E+00   0.0000000000E+00   0.7954086201E-03  -0.2354633019E-03  -0.2825429047E-03   0.0000000000E+00   0.0000000000E+00   0.0000000000E+00   0.8095298709E-01
   0.1910129555E+00   0.3837522673E-01   0.7929222066E-04  -0.1039095662E-05   0.4757533240E-03  -0.6234573969E-05   0.8443537066E-01   0.5343600775E-02   0.2693369143E-01  -0.2797191296E-01   0.0000000000E+00   0.0000000000E+00   0.7475218300E-03  -0.2806711785E-03  -0.3636348685E-03   0.0000000000E+00   0.0000000000E+00   0.0000000000E+00   0.8541495525E-01
   0.1872723076E+00   0.1900982533E-01   0.8059366394E-04  -0.4421810457E-06   0.4835619836E-03  -0.2653086274E-05   0.6674464598E-01   0.8677979509E-02   0.2262678765E-01  -0.1380669719E-01   0.0000000000E+00   0.0000000000E+00   0.5735321583E-03  -0.1813345058E-03  -0.1794870634E-03   0.0000000000E+00   0.0000000000E+00   0.0000000000E+00   0.5827925164E-01
   0.2078093843E+00   0.1873524357E-01   0.8244318411E-04  -0.3971898792E-06   0.4946591046E-03  -0.2383139275E-05   0.8122116543E-01   0.1650643294E-01   0.2931827951E-01  -0.1088824948E-01   0.0000000000E+00   0.0000000000E+00   0.6747375170E-03  -0.1665540054E-03  -0.1415472433E-03   0.0000000000E+00   0.0000000000E+00   0.0000000000E+00   0.6257778247E-01
   0.1577293551E+00   0.2157861893E+00   0.4371544168E-04  -0.2446553376E-04   0.2622926501E-03  -0.1467932025E-03   0.2326259436E+00  -0.5079807887E-02   0.6826384070E-01   0.6142080407E-02   0.0000000000E+00   0.0000000000E+00   0.2136707337E-02  -0.9534674316E-03   0.7984704529E-04   0.0000000000E+00   0.0000000000E+00   0.0000000000E+00   0.2110826861E+00
   0.1567417312E+00   0.2324174505E+00   0.4129432021E-04  -0.2686449964E-04   0.2477659213E-03  -0.1611869979E-03   0.2381655438E+00  -0.2438787574E-02   0.7071802686E-01   0.3877586235E-02   0.0000000000E+00   0.0000000000E+00   0.2176817720E-02  -0.9510385876E-03   0.5040862105E-04   0.0000000000E+00   0.0000000000E+00   0.0000000000E+00   0.2137627377E+00
   0.1372264113E+00   0.2324205508E+00   0.3529146640E-04  -0.2994046399E-04   0.2117487984E-03  -0.1796427839E-03   0.2332585791E+00  -0.2445440072E-02   0.6924394170E-01   0.6922430568E-02   0.0000000000E+00   0.0000000000E+00   0.2132190286E-02  -0.9319619631E-03   0.8999159739E-04   0.0000000000E+00   0.0000000000E+00   0.0000000000E+00   0.2096515447E+00
   0.1384803058E+00   0.2156204278E+00   0.3788511910E-04  -0.2747788619E-04   0.2273107146E-03  -0.1648673172E-03   0.2308854239E+00  -0.5664804407E-02   0.6756618583E-01   0.1136507169E-01   0.0000000000E+00   0.0000000000E+00   0.2123150094E-02  -0.9520028731E-03   0.1477459320E-03   0.0000000000E+00   0.0000000000E+00   0.0000000000E+00   0.2106272500E+00
   0.0000000000E+00   0.9976765171E-01   0.0000000000E+00  -0.3319275520E-04   0.0000000000E+00  -0.1991565312E-03   0.6440303072E+00   0.5923084921E-01   0.2109783469E+00   0.7619399372E-02   0.0000000000E+00   0.0000000000E+00   0.5629675483E-02  -0.1972717470E-02   0.9905219184E-04   0.0000000000E+00   0.0000000000E+00   0.0000000000E+00   0.5200807356E+00
   0.1961716402E-01   0.9785313278E-01   0.1544737453E-04  -0.3219911729E-04   0.9268424717E-04  -0.1931947037E-03   0.5915949903E+00   0.5602170284E-01   0.1942850080E+00  -0.8881406705E-01   0.0000000000E+00   0.0000000000E+00   0.5165029771E-02  -0.1797422966E-02  -0.1154582872E-02   0.0000000000E+00   0.0000000000E+00   0.0000000000E+00   0.5008343373E+00
   0.1683900455E-01   0.1510523288E+00   0.5706535176E-05  -0.4062660207E-04   0.3423921106E-04  -0.2437596124E-03   0.2822606672E+00   0.4729859670E-01   0.9886777916E-01   0.8685940024E-02   0.0000000000E+00   0.0000000000E+00   0.2384107544E-02  -0.6703993721E-03   0.1129172203E-03   0.0000000000E+00   0.0000000000E+00   0.0000000000E+00   0.2152998691E+00
   0.0000000000E+00   0.1497116234E+00   0.0000000000E+00  -0.4119750748E-04   0.0000000000E+00  -0.2471850449E-03   0.2852821185E+00   0.5379393240E-01   0.1017228153E+00   0.6644733276E-02   0.0000000000E+00   0.0000000000E+00   0.2386270942E-02  -0.6230754771E-03   0.8638153259E-04   0.0000000000E+00   0.0000000000E+00   0.0000000000E+00   0.2117904068E+00
   0.5118829338E-01   0.1384320048E+00   0.1914046851E-04  -0.3394788473E-04   0.1148428111E-03  -0.2036873084E-03   0.2910352312E+00   0.1785715581E-01   0.9266771610E-01   0.1516277460E-01   0.0000000000E+00   0.0000000000E+00   0.2578777696E-02  -0.9725372838E-03   0.1971160697E-03   0.0000000000E+00   0.0000000000E+00   0.0000000000E+00   0.2457016024E+00
   0.4916243777E-01   0.1538055530E+00   0.1650485225E-04  -0.3634614103E-04   0.9902911350E-04  -0.2180768462E-03   0.2707715352E+00   0.2058969791E-01   0.8740836994E-01   0.2361756034E-01   0.0000000000E+00   0.0000000000E+00   0.2383721149E-02  -0.8686427364E-03   0.3070282844E-03   0.0000000000E+00   0.0000000000E+00   0.0000000000E+00   0.2281827540E+00
   0.3325388364E-01   0.1524642957E+00   0.1120270566E-04  -0.3887989452E-04   0.6721623398E-04  -0.2332793671E-03   0.2780387148E+00   0.3594475356E-01   0.9419504052E-01   0.1809420128E-01   0.0000000000E+00   0.0000000000E+00   0.2389967766E-02  -0.7572537304E-03   0.2352246167E-03   0.0000000000E+00   0.0000000000E+00   0.0000000000E+00   0.2223354191E+00
   0.3446448759E-01   0.1354824800E+00   0.1328728485E-04  -0.3675829144E-04   0.7972370910E-04  -0.2205497486E-03   0.3070584688E+00   0.3786543489E-01   0.1034771711E+00   0.1790624412E-01   0.0000000000E+00   0.0000000000E+00   0.2646556870E-02  -0.8529525709E-03   0.2327811736E-03   0.0000000000E+00   0.0000000000E+00   0.0000000000E+00   0.2407067068E+00
   0.1672068941E-01   0.1675080971E+00   0.5146158594E-05  -0.4214870292E-04   0.3087695156E-04  -0.2528922175E-03   0.2555724509E+00   0.3977654413E-01   0.8860469850E-01   0.1058997016E-01   0.0000000000E+00   0.0000000000E+00   0.2170580781E-02  -0.6347660068E-03   0.1376696120E-03   0.0000000000E+00   0.0000000000E+00   0.0000000000E+00   0.1970440002E+00
   0.0000000000E+00   0.1663681927E+00   0.0000000000E+00  -0.4263990217E-04   0.0000000000E+00  -0.2558394130E-03   0.2557486691E+00   0.4313862715E-01   0.8966618888E-01   0.5664707773E-02   0.0000000000E+00   0.0000000000E+00   0.2159072243E-02  -0.6048583024E-03   0.7364120105E-04   0.0000000000E+00   0.0000000000E+00   0.0000000000E+00   0.1936437109E+00
   0.1712572989E-01   0.1838200894E+00   0.4895355700E-05  -0.4363409146E-04   0.2937213420E-04  -0.2618045488E-03   0.2334769570E+00   0.2795005346E-01   0.7842810315E-01   0.1038199176E-01   0.0000000000E+00   0.0000000000E+00   0.2015635101E-02  -0.6562146460E-03   0.1349658929E-03   0.0000000000E+00   0.0000000000E+00   0.0000000000E+00   0.1866965239E+00
   0.3346275627E-01   0.1683232107E+00   0.1032078073E-04  -0.4052590440E-04   0.6192468439E-04  -0.2431554264E-03   0.2536021883E+00   0.2896385263E-01   0.8476981227E-01   0.2254509737E-01   0.0000000000E+00   0.0000000000E+00   0.2194820888E-02  -0.7254774753E-03   0.2930862658E-03   0.0000000000E+00   0.0000000000E+00   0.0000000000E+00   0.2058141441E+00
   0.3458291225E-01   0.1839851739E+00   0.9944307253E-05  -0.4200844510E-04   0.5966584352E-04  -0.2520506706E-03   0.2342058262E+00   0.2118365468E-01   0.7661684428E-01   0.2177270647E-01   0.0000000000E+00   0.0000000000E+00   0.2048656766E-02  -0.7206314647E-03   0.2830451841E-03   0.0000000000E+00   0.0000000000E+00   0.0000000000E+00   0.1951052096E+00
   0.1946896161E-01   0.2496526308E+00   0.3502358286E-05  -0.4962417774E-04   0.2101414972E-04  -0.2977450664E-03   0.1395364530E+00  -0.4216972617E-02   0.4059584413E-01   0.7722721742E-03   0.0000000000E+00   0.0000000000E+00   0.1286227916E-02  -0.5825666177E-03   0.1003953827E-04   0.0000000000E+00   0.0000000000E+00   0.0000000000E+00   0.1276083667E+00
   0.3853798144E-01   0.2326185786E+00   0.8595105215E-05  -0.4652877048E-04   0.5157063129E-04  -0.2791726229E-03   0.1802632956E+00   0.3738258486E-02   0.5520046623E-01   0.1023626532E-01   0.0000000000E+00   0.0000000000E+00   0.1625816782E-02  -0.6690087007E-03   0.1330714492E-03   0.0000000000E+00   0.0000000000E+00   0.0000000000E+00   0.1583399691E+00
   0.3893939609E-01   0.2496637044E+00   0.7215112174E-05  -0.4804222306E-04   0.4329067304E-04  -0.2882533383E-03   0.1518670704E+00  -0.3632503061E-02   0.4447037020E-01   0.3890860665E-02   0.0000000000E+00   0.0000000000E+00   0.1396157102E-02  -0.6253373524E-03   0.5058118864E-04   0.0000000000E+00   0.0000000000E+00   0.0000000000E+00   0.1380154683E+00
   0.3298472896E+00   0.0000000000E+00   0.9722979590E-04   0.0000000000E+00   0.5833787754E-03   0.0000000000E+00   0.1162393151E+00   0.3351164506E-01   0.4492528805E-01  -0.3371980685E-03   0.0000000000E+00   0.0000000000E+00   0.9270823517E-03  -0.1483773588E-03  -0.4383574891E-05   0.0000000000E+00   0.0000000000E+00   0.0000000000E+00   0.7765037628E-01
   0.3506999940E+00   0.0000000000E+00   0.1000000000E-03   0.0000000000E+00   0.6000000000E-03   0.0000000000E+00   0.1169193165E+00   0.3371158550E-01   0.4518927061E-01  -0.2077306284E-05   0.0000000000E+00   0.0000000000E+00   0.9324905970E-03  -0.1492099064E-03  -0.2700498169E-07   0.0000000000E+00   0.0000000000E+00   0.0000000000E+00   0.7810404643E-01
   0.3506999940E+00   0.1922783557E-01   0.1000000000E-03  -0.4191893133E-06   0.6000000000E-03  -0.2515135880E-05   0.1181889905E+00   0.3313591104E-01   0.4539747046E-01  -0.1951546662E-04   0.0000000000E+00   0.0000000000E+00   0.9462897606E-03  -0.1594002725E-03  -0.2537010660E-06   0.0000000000E+00   0.0000000000E+00   0.0000000000E+00   0.7962920086E-01
   0.3304436716E+00   0.1871170560E-01   0.9726922721E-04  -0.4056707959E-06   0.5836153632E-03  -0.2434024775E-05   0.1175888250E+00   0.3297931849E-01   0.4517044305E-01  -0.1083960368E-02   0.0000000000E+00   0.0000000000E+00   0.9414389655E-03  -0.1584846193E-03  -0.1409148479E-04   0.0000000000E+00   0.0000000000E+00   0.0000000000E+00   0.7924049541E-01
   0.3506999940E+00   0.3845528068E-01   0.1000000000E-03  -0.8941745386E-06   0.6000000000E-03  -0.5365047231E-05   0.1220504554E+00   0.3146841328E-01   0.4605566060E-01  -0.2322024920E-04   0.0000000000E+00   0.0000000000E+00   0.9879323322E-03  -0.1896342152E-03  -0.3018632396E-06   0.0000000000E+00   0.0000000000E+00   0.0000000000E+00   0.8422667448E-01
   0.3308863098E+00   0.3767693348E-01   0.9721169021E-04  -0.8712883692E-06   0.5832701412E-03  -0.5227730215E-05   0.1215812322E+00   0.3140023343E-01   0.4589443969E-01  -0.2243593053E-02   0.0000000000E+00   0.0000000000E+00   0.9839283027E-03  -0.1884246814E-03  -0.2916670969E-04   0.0000000000E+00   0.0000000000E+00   0.0000000000E+00   0.8395091578E-01
   0.3312380372E+00   0.5675259947E-01   0.9707545881E-04  -0.1446518214E-05   0.5824527528E-03  -0.8679109283E-05   0.1279906114E+00   0.2886779862E-01   0.4705752301E-01  -0.3032914000E-02   0.0000000000E+00   0.0000000000E+00   0.1052130149E-02  -0.2364664171E-03  -0.3942788200E-04   0.0000000000E+00   0.0000000000E+00   0.0000000000E+00   0.9152210809E-01
   0.3315157926E+00   0.7594140518E-01   0.9687509014E-04  -0.2177845691E-05   0.5812505409E-03  -0.1306707415E-04   0.1364521713E+00   0.2559971453E-01   0.4861556575E-01  -0.3602368001E-02   0.0000000000E+00   0.0000000000E+00   0.1141875872E-02  -0.2992060658E-03  -0.4683078401E-04   0.0000000000E+00   0.0000000000E+00   0.0000000000E+00   0.1014849616E+00
   0.3124681269E+00   0.7513038564E-01   0.9379855219E-04  -0.2161022229E-05   0.5627913131E-03  -0.1296613338E-04   0.1352313289E+00   0.2468459529E-01   0.4797477725E-01  -0.7172700093E-02   0.0000000000E+00   0.0000000000E+00   0.1134335171E-02  -0.3027723655E-03  -0.9324510121E-04   0.0000000000E+00   0.0000000000E+00   0.0000000000E+00   0.1016689227E+00
   0.3118042021E+00   0.5604321034E-01   0.9418344150E-04  -0.1426937509E-05   0.5651006490E-03  -0.8561625053E-05   0.1264595572E+00   0.2802832037E-01   0.4634636328E-01  -0.6076238343E-02   0.0000000000E+00   0.0000000000E+00   0.1041471521E-02  -0.2381345579E-03  -0.7899109846E-04   0.0000000000E+00   0.0000000000E+00   0.0000000000E+00   0.9125605058E-01
   0.3316586471E+00   0.9523428669E-01   0.9661286549E-04  -0.3102015565E-05   0.5796771929E-03  -0.1861209339E-04   0.1464934487E+00   0.2181127351E-01   0.5049141667E-01  -0.3900718422E-02   0.0000000000E+00   0.0000000000E+00   0.1248026417E-02  -0.3728418610E-03  -0.5070933949E-04   0.0000000000E+00   0.0000000000E+00   0.0000000000E+00   0.1132717601E+00
   0.3128416770E+00   0.9437896042E-01   0.9328885909E-04  -0.3094511305E-05   0.5597331545E-03  -0.1856706783E-04   0.1456101254E+00   0.2087764245E-01   0.4994633035E-01  -0.7714956230E-02   0.0000000000E+00   0.0000000000E+00   0.1243629335E-02  -0.3778929426E-03  -0.1002944310E-03   0.0000000000E+00   0.0000000000E+00   0.0000000000E+00   0.1137960795E+00
   0.3316428472E+00   0.1146798257E+00   0.9629288459E-04  -0.4248333869E-05   0.5777573075E-03  -0.2549000321E-04   0.1576903542E+00   0.1781169262E-01   0.5265061405E-01  -0.3981843250E-02   0.0000000000E+00   0.0000000000E+00   0.1365516622E-02  -0.4529059787E-03  -0.5176396225E-04   0.0000000000E+00   0.0000000000E+00   0.0000000000E+00   0.1262786443E+00
   0.3314991832E+00   0.1342356296E+00   0.9592859401E-04  -0.5629205086E-05   0.5755715641E-03  -0.3377523052E-04   0.1695196100E+00   0.1385624481E-01   0.5501275644E-01  -0.3827137740E-02   0.0000000000E+00   0.0000000000E+00   0.1488589096E-02  -0.5350346513E-03  -0.4975279062E-04   0.0000000000E+00   0.0000000000E+00   0.0000000000E+00   0.1398375421E+00
   0.3124410917E+00   0.1337538581E+00   0.9189067596E-04  -0.5689135348E-05   0.5513440558E-03  -0.3413481209E-04   0.1695116918E+00   0.1286537071E-01   0.5471311875E-01  -0.7504735161E-02   0.0000000000E+00   0.0000000000E+00   0.1492381449E-02  -0.5440207245E-03  -0.9756155710E-04   0.0000000000E+00   0.0000000000E+00   0.0000000000E+00   0.1410604098E+00
   0.3128345562E+00   0.1139056884E+00   0.9265045444E-04  -0.4262086569E-05   0.5559027266E-03  -0.2557251941E-04   0.1571793150E+00   0.1678496766E-01   0.5218928479E-01  -0.7802803633E-02   0.0000000000E+00   0.0000000000E+00   0.1364870392E-02  -0.4602561227E-03  -0.1014364472E-03   0.0000000000E+00   0.0000000000E+00   0.0000000000E+00   0.1271620020E+00
   0.2896387666E+00   0.1826145338E-01   0.9188609178E-04  -0.3884599257E-06   0.5513165507E-03  -0.2330759554E-05   0.1123273352E+00   0.3094754192E-01   0.4298246315E-01  -0.3369529457E-02   0.0000000000E+00   0.0000000000E+00   0.9014833371E-03  -0.1564539759E-03  -0.4380388294E-04   0.0000000000E+00   0.0000000000E+00   0.0000000000E+00   0.7631803265E-01
   0.2881427226E+00   0.0000000000E+00   0.9181836775E-04   0.0000000000E+00   0.5509102065E-03   0.0000000000E+00   0.1105240155E+00   0.3142769328E-01   0.4258551262E-01  -0.1060996531E-02   0.0000000000E+00   0.0000000000E+00   0.8832005370E-03  -0.1450516515E-03  -0.1379295491E-04   0.0000000000E+00   0.0000000000E+00   0.0000000000E+00   0.7412798152E-01
   0.3089947778E+00   0.0000000000E+00   0.9449153983E-04   0.0000000000E+00   0.5669492390E-03   0.0000000000E+00   0.1141403959E+00   0.3275912537E-01   0.4406985639E-01  -0.6821667988E-03   0.0000000000E+00   0.0000000000E+00   0.9109170140E-03  -0.1470395032E-03  -0.8868168385E-05   0.0000000000E+00   0.0000000000E+00   0.0000000000E+00   0.7634787534E-01
   0.3100494746E+00   0.1840348255E-01   0.9455008192E-04  -0.3958208889E-06   0.5673004915E-03  -0.2374925333E-05   0.1156166387E+00   0.3224280576E-01   0.4435783335E-01  -0.2182324905E-02   0.0000000000E+00   0.0000000000E+00   0.9263644700E-03  -0.1574953587E-03  -0.2837022377E-04   0.0000000000E+00   0.0000000000E+00   0.0000000000E+00   0.7811988647E-01
   0.2126688615E+00   0.1636095333E+00   0.6594978410E-04  -0.1158267187E-04   0.3956987046E-03  -0.6949603124E-04   0.2016595577E+00  -0.7009066752E-02   0.5839514729E-01  -0.1360675095E-01   0.0000000000E+00   0.0000000000E+00   0.1862437336E-02  -0.8502547826E-03  -0.1768877624E-03   0.0000000000E+00   0.0000000000E+00   0.0000000000E+00   0.1863380833E+00
   0.2167917442E+00   0.1467037878E+00   0.6903645009E-04  -0.9352462573E-05   0.4142187005E-03  -0.5611477544E-04   0.1884621500E+00  -0.7332386094E-02   0.5433892917E-01  -0.1847411412E-01   0.0000000000E+00   0.0000000000E+00   0.1743601871E-02  -0.8017270984E-03  -0.2401634835E-03   0.0000000000E+00   0.0000000000E+00   0.0000000000E+00   0.1762642728E+00
   0.2314635675E+00   0.1466754027E+00   0.7265606977E-04  -0.8613612827E-05   0.4359364186E-03  -0.5168167696E-04   0.1867198344E+00  -0.2524731860E-02   0.5525853075E-01  -0.1741126487E-01   0.0000000000E+00   0.0000000000E+00   0.1708996947E-02  -0.7511824139E-03  -0.2263464434E-03   0.0000000000E+00   0.0000000000E+00   0.0000000000E+00   0.1706522338E+00
   0.2326477246E+00   0.1630326718E+00   0.7123079675E-04  -0.1035760553E-04   0.4273847805E-03  -0.6214563318E-04   0.1973217748E+00  -0.2264266781E-02   0.5851725240E-01  -0.1388514912E-01   0.0000000000E+00   0.0000000000E+00   0.1804458791E-02  -0.7901597493E-03  -0.1805069385E-03   0.0000000000E+00   0.0000000000E+00   0.0000000000E+00   0.1788119505E+00
   0.2283573223E+00   0.1845441637E-01   0.8455232205E-04  -0.3822755862E-06   0.5073139323E-03  -0.2293653517E-05   0.9236749747E-01   0.2221469583E-01   0.3437465799E-01  -0.8351007040E-02   0.0000000000E+00   0.0000000000E+00   0.7539069132E-03  -0.1580795081E-03  -0.1085630915E-03   0.0000000000E+00   0.0000000000E+00   0.0000000000E+00   0.6667995612E-01
   0.2312060676E+00   0.3704208892E-01   0.8396922866E-04  -0.8679830320E-06   0.5038153720E-03  -0.5207898192E-05   0.1016106816E+00   0.1995895015E-01   0.3647088951E-01  -0.1675146061E-01   0.0000000000E+00   0.0000000000E+00   0.8468172967E-03  -0.2146552118E-03  -0.2177689879E-03   0.0000000000E+00   0.0000000000E+00   0.0000000000E+00   0.8001000094E-01
   0.1838996671E+00   0.0000000000E+00   0.8090429524E-04   0.0000000000E+00   0.4854257714E-03   0.0000000000E+00   0.5938408425E-01   0.8156034091E-02   0.2026203550E-01  -0.4813022729E-02   0.0000000000E+00   0.0000000000E+00   0.5085866337E-03  -0.1573780183E-03  -0.6256929548E-04   0.0000000000E+00   0.0000000000E+00   0.0000000000E+00   0.4622599738E-01
   0.2047447870E+00   0.0000000000E+00   0.8258871421E-04   0.0000000000E+00   0.4955322853E-03   0.0000000000E+00   0.7560413483E-01   0.1708589803E-01   0.2780700986E-01  -0.3609391468E-02   0.0000000000E+00   0.0000000000E+00   0.6213626246E-03  -0.1393744537E-03  -0.4692208908E-04   0.0000000000E+00   0.0000000000E+00   0.0000000000E+00   0.5375285621E-01
   0.1422177937E+00   0.0000000000E+00   0.7873252785E-04   0.0000000000E+00   0.4723951671E-03   0.0000000000E+00   0.1176211999E-01  -0.3242709602E-01  -0.6199492810E-02  -0.1134194776E-01   0.0000000000E+00   0.0000000000E+00   0.2335009664E-03  -0.3409588418E-03  -0.1474453209E-03   0.0000000000E+00   0.0000000000E+00   0.0000000000E+00   0.4206072597E-01
   0.1462132506E+00   0.2097506633E-01   0.7765236580E-04  -0.9278672853E-06   0.4659141948E-03  -0.5567203712E-05   0.2662786777E-01  -0.2589642313E-01   0.2194333934E-03  -0.1969991431E-01   0.0000000000E+00   0.0000000000E+00   0.3433096469E-03  -0.3395061348E-03  -0.2560988860E-03   0.0000000000E+00   0.0000000000E+00   0.0000000000E+00   0.5810589212E-01
   0.3506999940E+00   0.2498750133E+00   0.1000000000E-03  -0.1785524699E-04   0.6000000000E-03  -0.1071314820E-03   0.2307615622E+00   0.1120392170E-02   0.6956458632E-01   0.5983958119E-03   0.0000000000E+00   0.0000000000E+00   0.2095560687E-02  -0.8897745240E-03   0.7779145554E-05   0.0000000000E+00   0.0000000000E+00   0.0000000000E+00   0.2042135057E+00
   0.3312147758E+00   0.2498744802E+00   0.9417396747E-04  -0.1793140322E-04   0.5650438048E-03  -0.1075884193E-03   0.2314171313E+00   0.1134538031E-02   0.6976550079E-01  -0.4600082234E-03   0.0000000000E+00   0.0000000000E+00   0.2101471196E-02  -0.8922025159E-03  -0.5980106904E-05   0.0000000000E+00   0.0000000000E+00   0.0000000000E+00   0.2047846604E+00
   0.3314495393E+00   0.2309380169E+00   0.9442660748E-04  -0.1553558417E-04   0.5665596449E-03  -0.9321350504E-04   0.2236326330E+00   0.4186637844E-03   0.6721538903E-01  -0.1140620046E-02   0.0000000000E+00   0.0000000000E+00   0.2033424171E-02  -0.8683574282E-03  -0.1482806060E-04   0.0000000000E+00   0.0000000000E+00   0.0000000000E+00   0.1984446639E+00
   0.3506999940E+00   0.2306612010E+00   0.1000000000E-03  -0.1543299741E-04   0.6000000000E-03  -0.9259798447E-04   0.2231933576E+00   0.5064046352E-03   0.6710992868E-01   0.5401758528E-03   0.0000000000E+00   0.0000000000E+00   0.2029084576E-02  -0.8658458126E-03   0.7022286086E-05   0.0000000000E+00   0.0000000000E+00   0.0000000000E+00   0.1979761132E+00
   0.2735615273E+00   0.2315481159E+00   0.7742075583E-04  -0.1677229499E-04   0.4645245350E-03  -0.1006337699E-03   0.2299987930E+00  -0.1243526884E-03   0.6896233208E-01  -0.3123815465E-02   0.0000000000E+00   0.0000000000E+00   0.2093473991E-02  -0.8981269020E-03  -0.4060960105E-04   0.0000000000E+00   0.0000000000E+00   0.0000000000E+00   0.2046058808E+00
   0.2928445714E+00   0.2313764105E+00   0.8314533876E-04  -0.1618249943E-04   0.4988720325E-03  -0.9709499658E-04   0.2272423958E+00   0.1254947469E-03   0.6821036717E-01  -0.2643753822E-02   0.0000000000E+00   0.0000000000E+00   0.2067416373E-02  -0.8851033416E-03  -0.3436879969E-04   0.0000000000E+00   0.0000000000E+00   0.0000000000E+00   0.2019344839E+00
   0.2922434314E+00   0.2498699303E+00   0.8239634191E-04  -0.1858138456E-04   0.4943780515E-03  -0.1114883074E-03   0.2363162093E+00   0.1307073784E-02   0.7128698493E-01  -0.7752590229E-03   0.0000000000E+00   0.0000000000E+00   0.2145379917E-02  -0.9097388449E-03  -0.1007836730E-04   0.0000000000E+00   0.0000000000E+00   0.0000000000E+00   0.2089990611E+00
   0.2727569579E+00   0.2498656148E+00   0.7639098608E-04  -0.1919788099E-04   0.4583459165E-03  -0.1151872859E-03   0.2401831210E+00   0.1459376677E-02   0.7249274932E-01  -0.9025866534E-03   0.0000000000E+00   0.0000000000E+00   0.2179974832E-02  -0.9234338443E-03  -0.1173362649E-04   0.0000000000E+00   0.0000000000E+00   0.0000000000E+00   0.2123148963E+00
   0.3506999940E+00   0.1730140654E+00   0.1000000000E-03  -0.8980370861E-05   0.6000000000E-03  -0.5388222516E-04   0.1930305502E+00   0.7265107156E-02   0.6008869721E-01   0.4003215682E-03   0.0000000000E+00   0.0000000000E+00   0.1728244089E-02  -0.6867066707E-03   0.5204180386E-05   0.0000000000E+00   0.0000000000E+00   0.0000000000E+00   0.1657806181E+00
   0.3314448715E+00   0.1732509363E+00   0.9524993189E-04  -0.9054530451E-05   0.5714995914E-03  -0.5432718271E-04   0.1932477108E+00   0.6956384498E-02   0.6006122859E-01  -0.3111131173E-02   0.0000000000E+00   0.0000000000E+00   0.1731424269E-02  -0.6903629732E-03  -0.4044470525E-04   0.0000000000E+00   0.0000000000E+00   0.0000000000E+00   0.1662999434E+00
   0.3314387234E+00   0.1537966854E+00   0.9557648399E-04  -0.7238081602E-05   0.5734589039E-03  -0.4342848961E-04   0.1815124303E+00   0.1021682370E-01   0.5751877620E-01  -0.3558989583E-02   0.0000000000E+00   0.0000000000E+00   0.1611917503E-02  -0.6149253825E-03  -0.4626686458E-04   0.0000000000E+00   0.0000000000E+00   0.0000000000E+00   0.1533256094E+00
   0.3506999940E+00   0.1537957925E+00   0.1000000000E-03  -0.7195357515E-05   0.6000000000E-03  -0.4317214509E-04   0.1813439497E+00   0.1048092964E-01   0.5754746381E-01   0.3523792015E-03   0.0000000000E+00   0.0000000000E+00   0.1609354317E-02  -0.6118649441E-03   0.4580929620E-05   0.0000000000E+00   0.0000000000E+00   0.0000000000E+00   0.1528481397E+00
   0.3506999940E+00   0.1345760325E+00   0.1000000000E-03  -0.5622636430E-05   0.6000000000E-03  -0.3373581858E-04   0.1694067552E+00   0.1406398531E-01   0.5504122215E-01   0.2560855897E-03   0.0000000000E+00   0.0000000000E+00   0.1486751930E-02  -0.5327040790E-03   0.3329112667E-05   0.0000000000E+00   0.0000000000E+00   0.0000000000E+00   0.1394248409E+00
   0.3506999940E+00   0.1153547272E+00   0.1000000000E-03  -0.4269824529E-05   0.6000000000E-03  -0.2561894717E-04   0.1576464203E+00   0.1788360231E-01   0.5265900678E-01   0.1864838729E-03   0.0000000000E+00   0.0000000000E+00   0.1364836376E-02  -0.4520802581E-03   0.2424290347E-05   0.0000000000E+00   0.0000000000E+00   0.0000000000E+00   0.1259988139E+00
   0.3506999940E+00   0.9613188788E-01   0.1000000000E-03  -0.3137145836E-05   0.6000000000E-03  -0.1882287501E-04   0.1465506917E+00   0.2179772982E-01   0.5050452646E-01   0.1031693952E-03   0.0000000000E+00   0.0000000000E+00   0.1248600148E-02  -0.3731883563E-03   0.1341202137E-05   0.0000000000E+00   0.0000000000E+00   0.0000000000E+00   0.1131335447E+00
   0.3506999940E+00   0.7690758331E-01   0.1000000000E-03  -0.2213783975E-05   0.6000000000E-03  -0.1328270385E-04   0.1366104562E+00   0.2554398308E-01   0.4864633179E-01   0.4073273649E-04   0.0000000000E+00   0.0000000000E+00   0.1143533618E-02  -0.3003305332E-03   0.5295255743E-06   0.0000000000E+00   0.0000000000E+00   0.0000000000E+00   0.1014764656E+00
   0.3506999940E+00   0.5768196539E-01   0.1000000000E-03  -0.1477515094E-05   0.6000000000E-03  -0.8865090565E-05   0.1283012674E+00   0.2885919796E-01   0.4714813961E-01  -0.3055735770E-05   0.0000000000E+00   0.0000000000E+00   0.1054990661E-02  -0.2377562414E-03  -0.3972456501E-07   0.0000000000E+00   0.0000000000E+00   0.0000000000E+00   0.9165182930E-01
   0.0000000000E+00   0.2496488188E+00   0.0000000000E+00  -0.5016874555E-04   0.0000000000E+00  -0.3010124733E-03   0.1351331425E+00  -0.4424048342E-02   0.3921272824E-01   0.4416939627E-02   0.0000000000E+00   0.0000000000E+00   0.1246965385E-02  -0.5672780955E-03   0.5742021515E-04   0.0000000000E+00   0.0000000000E+00   0.0000000000E+00   0.1238895855E+00
   0.3765270547E-01   0.2159039795E+00   0.9380895507E-05  -0.4495721023E-04   0.5628537304E-04  -0.2697432614E-03   0.1996950947E+00   0.6831981247E-02   0.6195812279E-01   0.1757175776E-01   0.0000000000E+00   0.0000000000E+00   0.1790580635E-02  -0.7166398401E-03   0.2284328508E-03   0.0000000000E+00   0.0000000000E+00   0.0000000000E+00   0.1746330295E+00
   0.3626161776E-01   0.1998005286E+00   0.9758608009E-05  -0.4345291551E-04   0.5855164805E-04  -0.2607174931E-03   0.2170930993E+00   0.1351395101E-01   0.6918211510E-01   0.2048834849E-01   0.0000000000E+00   0.0000000000E+00   0.1922842795E-02  -0.7236861332E-03   0.2663485304E-03   0.0000000000E+00   0.0000000000E+00   0.0000000000E+00   0.1855646942E+00
   0.5568977705E-01   0.1983252091E+00   0.1526500664E-04  -0.4054498539E-04   0.9159003984E-04  -0.2432699123E-03   0.2233967834E+00   0.7843034736E-02   0.6937194545E-01   0.2709960851E-01   0.0000000000E+00   0.0000000000E+00   0.2002322894E-02  -0.7998758392E-03   0.3522949107E-03   0.0000000000E+00   0.0000000000E+00   0.0000000000E+00   0.1980504393E+00
   0.5760949678E-01   0.2146307784E+00   0.1467952611E-04  -0.4208152110E-04   0.8807715666E-04  -0.2524891266E-03   0.2085636945E+00   0.3320493813E-02   0.6356525650E-01   0.2271016499E-01   0.0000000000E+00   0.0000000000E+00   0.1884979694E-02  -0.7831819149E-03   0.2952321449E-03   0.0000000000E+00   0.0000000000E+00   0.0000000000E+00   0.1868646956E+00
   0.1784097638E-01   0.2000993751E+00   0.4758325043E-05  -0.4514255757E-04   0.2854995026E-04  -0.2708553454E-03   0.2145742590E+00   0.1821476946E-01   0.6983670855E-01   0.9611364458E-02   0.0000000000E+00   0.0000000000E+00   0.1881588156E-02  -0.6710852081E-03   0.1249477380E-03   0.0000000000E+00   0.0000000000E+00   0.0000000000E+00   0.1773571447E+00
   0.5829176752E-01   0.2320111299E+00   0.1337708885E-04  -0.4385115247E-04   0.8026253311E-04  -0.2631069148E-03   0.1914021544E+00   0.2328508790E-02   0.5811919895E-01   0.1313001217E-01   0.0000000000E+00   0.0000000000E+00   0.1732678421E-02  -0.7252789721E-03   0.1706901582E-03   0.0000000000E+00   0.0000000000E+00   0.0000000000E+00   0.1699680773E+00
   0.1558258088E+00   0.2497943801E+00   0.3860682891E-04  -0.2937427694E-04   0.2316409735E-03  -0.1762456617E-03   0.2493462862E+00   0.1364289933E-02   0.7521317283E-01   0.1548440846E-02   0.0000000000E+00   0.0000000000E+00   0.2263730473E-02  -0.9600354777E-03   0.2012973099E-04   0.0000000000E+00   0.0000000000E+00   0.0000000000E+00   0.2205475172E+00
   0.1363380115E+00   0.2497732252E+00   0.3241450046E-04  -0.3239640165E-04   0.1944870028E-03  -0.1943784099E-03   0.2407048179E+00   0.7501940044E-03   0.7243650356E-01   0.2566463751E-02   0.0000000000E+00   0.0000000000E+00   0.2187488086E-02  -0.9319220243E-03   0.3336402876E-04   0.0000000000E+00   0.0000000000E+00   0.0000000000E+00   0.2133404985E+00
   0.1753146837E+00   0.2498128990E+00   0.4495523747E-04  -0.2672871854E-04   0.2697314248E-03  -0.1603723112E-03   0.2535839089E+00   0.1702152039E-02   0.7658581829E-01   0.6591722604E-03   0.0000000000E+00   0.0000000000E+00   0.2300975178E-02  -0.9734876612E-03   0.8569239385E-05   0.0000000000E+00   0.0000000000E+00   0.0000000000E+00   0.2240505272E+00
   0.1762559132E+00   0.2323267738E+00   0.4739660308E-04  -0.2419130940E-04   0.2843796185E-03  -0.1451478564E-03   0.2404578914E+00  -0.2205998807E-02   0.7147556777E-01   0.1243664550E-02   0.0000000000E+00   0.0000000000E+00   0.2196770207E-02  -0.9578603655E-03   0.1616763915E-04   0.0000000000E+00   0.0000000000E+00   0.0000000000E+00   0.2155152427E+00
   0.2255920492E+00   0.0000000000E+00   0.8457931641E-04   0.0000000000E+00   0.5074758984E-03   0.0000000000E+00   0.8813409964E-01   0.2253690399E-01   0.3320130109E-01  -0.2717527643E-02   0.0000000000E+00   0.0000000000E+00   0.7141263811E-03  -0.1386371623E-03  -0.3532785936E-04   0.0000000000E+00   0.0000000000E+00   0.0000000000E+00   0.6084070273E-01
   0.2464410622E+00   0.0000000000E+00   0.8681788694E-04   0.0000000000E+00   0.5209073217E-03   0.0000000000E+00   0.9788944526E-01   0.2657341540E-01   0.3733885820E-01  -0.2040413545E-02   0.0000000000E+00   0.0000000000E+00   0.7871576318E-03  -0.1399507564E-03  -0.2652537608E-04   0.0000000000E+00   0.0000000000E+00   0.0000000000E+00   0.6651057400E-01
   0.2488543451E+00   0.1833976178E-01   0.8685758056E-04  -0.3808744516E-06   0.5211454833E-03  -0.2285246710E-05   0.1009812346E+00   0.2613650022E-01   0.3813532046E-01  -0.6351467598E-02   0.0000000000E+00   0.0000000000E+00   0.8169968844E-03  -0.1559846631E-03  -0.8256907877E-04   0.0000000000E+00   0.0000000000E+00   0.0000000000E+00   0.7056588388E-01
   0.1969506305E+00   0.1993923852E+00   0.5743778943E-04  -0.1745682971E-04   0.3446267366E-03  -0.1047409783E-03   0.2233968298E+00  -0.5904719697E-02   0.6524763303E-01  -0.4070348898E-02   0.0000000000E+00   0.0000000000E+00   0.2055939558E-02  -0.9249805854E-03  -0.5291453567E-04   0.0000000000E+00   0.0000000000E+00   0.0000000000E+00   0.2034141740E+00
   0.2160007263E+00   0.1982825545E+00   0.6308590182E-04  -0.1567178774E-04   0.3785154109E-03  -0.9403072641E-04   0.2199071375E+00  -0.3547541944E-02   0.6490787868E-01  -0.6784128264E-02   0.0000000000E+00   0.0000000000E+00   0.2014990365E-02  -0.8899204681E-03  -0.8819366744E-04   0.0000000000E+00   0.0000000000E+00   0.0000000000E+00   0.1986441509E+00
   0.2159720453E+00   0.2150132655E+00   0.6142818595E-04  -0.1782606700E-04   0.3685691157E-03  -0.1069564020E-03   0.2289989896E+00  -0.1856786999E-02   0.6814266079E-01  -0.4535112266E-02   0.0000000000E+00   0.0000000000E+00   0.2091132275E-02  -0.9099928213E-03  -0.5895645946E-04   0.0000000000E+00   0.0000000000E+00   0.0000000000E+00   0.2051808018E+00
   0.1966116933E+00   0.2154839665E+00   0.5556932879E-04  -0.1962221448E-04   0.3334159727E-03  -0.1177332869E-03   0.2313958047E+00  -0.3059245770E-02   0.6850096768E-01  -0.2039696565E-02   0.0000000000E+00   0.0000000000E+00   0.2117632881E-02  -0.9302827748E-03  -0.2651605535E-04   0.0000000000E+00   0.0000000000E+00   0.0000000000E+00   0.2081547554E+00
   0.1177242736E+00   0.2322037387E+00   0.2948565159E-04  -0.3332303605E-04   0.1769139096E-03  -0.1999382163E-03   0.2253593979E+00  -0.2223496009E-02   0.6694077057E-01   0.1016095613E-01   0.0000000000E+00   0.0000000000E+00   0.2059442155E-02  -0.8991354655E-03   0.1320924296E-03   0.0000000000E+00   0.0000000000E+00   0.0000000000E+00   0.2028937646E+00
   0.1191055419E+00   0.2150319530E+00   0.3213026755E-04  -0.3082185770E-04   0.1927816053E-03  -0.1849311462E-03   0.2276348240E+00  -0.5523787273E-02   0.6663331102E-01   0.1692497725E-01   0.0000000000E+00   0.0000000000E+00   0.2093019669E-02  -0.9380422778E-03   0.2200247042E-03   0.0000000000E+00   0.0000000000E+00   0.0000000000E+00   0.2087224457E+00
   0.2142931280E+00   0.2498414182E+00   0.5774914268E-04  -0.2265453888E-04   0.3464948561E-03  -0.1359272333E-03   0.2523612566E+00   0.1868114442E-02   0.7626881130E-01  -0.5307788258E-03   0.0000000000E+00   0.0000000000E+00   0.2289201788E-02  -0.9672090591E-03  -0.6900124736E-05   0.0000000000E+00   0.0000000000E+00   0.0000000000E+00   0.2228245173E+00
   0.1948039777E+00   0.2498285664E+00   0.5136137927E-04  -0.2449051154E-04   0.3081682756E-03  -0.1469430692E-03   0.2542819433E+00   0.1858957265E-02   0.7684227016E-01  -0.3409261454E-04   0.0000000000E+00   0.0000000000E+00   0.2306715750E-02  -0.9747830676E-03  -0.4432039890E-06   0.0000000000E+00   0.0000000000E+00   0.0000000000E+00   0.2245441152E+00
   0.1958098553E+00   0.2322653672E+00   0.5353118238E-04  -0.2195596547E-04   0.3211870943E-03  -0.1317357928E-03   0.2405174138E+00  -0.1814431939E-02   0.7161089456E-01  -0.8214514679E-03   0.0000000000E+00   0.0000000000E+00   0.2195784750E-02  -0.9545292445E-03  -0.1067886908E-04   0.0000000000E+00   0.0000000000E+00   0.0000000000E+00   0.2152473648E+00
   0.2153295829E+00   0.2321427417E+00   0.5963383937E-04  -0.2014061769E-04   0.3578030362E-03  -0.1208437061E-03   0.2388590454E+00  -0.1354191284E-02   0.7125145625E-01  -0.2248697573E-02   0.0000000000E+00   0.0000000000E+00   0.2178898660E-02  -0.9438734179E-03  -0.2923306846E-04   0.0000000000E+00   0.0000000000E+00   0.0000000000E+00   0.2134340425E+00
   0.2347938870E+00   0.2318227701E+00   0.6567157012E-04  -0.1868655179E-04   0.3940294207E-03  -0.1121193108E-03   0.2362035756E+00  -0.8978949094E-03   0.7059170421E-01  -0.3053249398E-02   0.0000000000E+00   0.0000000000E+00   0.2152954328E-02  -0.9293647885E-03  -0.3969224217E-04   0.0000000000E+00   0.0000000000E+00   0.0000000000E+00   0.2107386679E+00
   0.2541981643E+00   0.2317009582E+00   0.7159375233E-04  -0.1759168562E-04   0.4295625140E-03  -0.1055501137E-03   0.2330741753E+00  -0.4855948339E-03   0.6977657414E-01  -0.3311842632E-02   0.0000000000E+00   0.0000000000E+00   0.2122868815E-02  -0.9134081967E-03  -0.4305395421E-04   0.0000000000E+00   0.0000000000E+00   0.0000000000E+00   0.2076388243E+00
   0.2532697634E+00   0.2498596280E+00   0.7028262278E-04  -0.2005314519E-04   0.4216957367E-03  -0.1203188711E-03   0.2445217084E+00   0.1626223812E-02   0.7384437967E-01  -0.9270548277E-03   0.0000000000E+00   0.0000000000E+00   0.2218805274E-02  -0.9388360261E-03  -0.1205171276E-04   0.0000000000E+00   0.0000000000E+00   0.0000000000E+00   0.2160390859E+00
   0.2337817925E+00   0.2498516648E+00   0.6406549314E-04  -0.2119073790E-04   0.3843929588E-03  -0.1271444274E-03   0.2488096559E+00   0.1776119648E-02   0.7517573267E-01  -0.8169681265E-03   0.0000000000E+00   0.0000000000E+00   0.2257241002E-02  -0.9541949693E-03  -0.1062058564E-04   0.0000000000E+00   0.0000000000E+00   0.0000000000E+00   0.2197345735E+00
   0.3117293322E+00   0.2498728235E+00   0.8831574196E-04  -0.1816807218E-04   0.5298944518E-03  -0.1090084331E-03   0.2333183689E+00   0.1192595329E-02   0.7035328926E-01  -0.5141444275E-03   0.0000000000E+00   0.0000000000E+00   0.2118546035E-02  -0.8990890211E-03  -0.6683877557E-05   0.0000000000E+00   0.0000000000E+00   0.0000000000E+00   0.2064269689E+00
   0.3121241426E+00   0.2311617737E+00   0.8880379496E-04  -0.1577818986E-04   0.5328227698E-03  -0.9466913915E-04   0.2250789859E+00   0.3294648694E-03   0.6762253523E-01  -0.1851019964E-02   0.0000000000E+00   0.0000000000E+00   0.2046933859E-02  -0.8748099146E-03  -0.2406325953E-04   0.0000000000E+00   0.0000000000E+00   0.0000000000E+00   0.1998222982E+00
   0.5586056667E-01   0.8296702775E-01   0.4336328099E-04  -0.2570453598E-04   0.2601796859E-03  -0.1542272159E-03   0.2845292977E+00   0.1006370156E+00   0.1155498940E+00  -0.1366299296E+00   0.0000000000E+00   0.0000000000E+00   0.2196732249E-02  -0.1938674194E-03  -0.1776189085E-02   0.0000000000E+00   0.0000000000E+00   0.0000000000E+00   0.2841752545E+00
   0.7221598774E-01   0.9398603510E-01   0.4086622030E-04  -0.2215472786E-04   0.2451973218E-03  -0.1329283672E-03   0.2158588931E+00  -0.1190955884E-01   0.6118480027E-01  -0.5903277430E-01   0.0000000000E+00   0.0000000000E+00   0.2010763206E-02  -0.9502266685E-03  -0.7674260660E-03   0.0000000000E+00   0.0000000000E+00   0.0000000000E+00   0.2257830926E+00
   0.6221168575E-01   0.1068011129E+00   0.3193969263E-04  -0.2675643739E-04   0.1916381558E-03  -0.1605386243E-03   0.2643610841E+00  -0.2617222866E-02   0.7852315838E-01  -0.3622076770E-01   0.0000000000E+00   0.0000000000E+00   0.2415893035E-02  -0.1054824956E-02  -0.4708699802E-03   0.0000000000E+00   0.0000000000E+00   0.0000000000E+00   0.2422559462E+00
   0.3847414320E-01   0.9217656983E-01   0.2940008503E-04  -0.3019743840E-04   0.1764005102E-03  -0.1811846304E-03   0.4093408940E+00   0.7571990393E-01   0.1455182394E+00  -0.1032677394E+00   0.0000000000E+00   0.0000000000E+00   0.3429694510E-02  -0.9073783609E-03  -0.1342480612E-02   0.0000000000E+00   0.0000000000E+00   0.0000000000E+00   0.3467851296E+00
   0.0000000000E+00   0.1996804466E+00   0.0000000000E+00  -0.4565091088E-04   0.0000000000E+00  -0.2739054653E-03   0.2134094529E+00   0.1969929982E-01   0.6993262583E-01   0.4807072300E-02   0.0000000000E+00   0.0000000000E+00   0.1865198752E-02  -0.6530332380E-03   0.6249193991E-04   0.0000000000E+00   0.0000000000E+00   0.0000000000E+00   0.1741313122E+00
   0.0000000000E+00   0.1830245424E+00   0.0000000000E+00  -0.4411351065E-04   0.0000000000E+00  -0.2646810639E-03   0.2330792423E+00   0.3062151355E-01   0.7911022675E-01   0.5076856491E-02   0.0000000000E+00   0.0000000000E+00   0.2001597202E-02  -0.6303532716E-03   0.6599913438E-04   0.0000000000E+00   0.0000000000E+00   0.0000000000E+00   0.1831015946E+00
   0.3662954494E-01   0.1166299709E+00   0.1755814919E-04  -0.3392073119E-04   0.1053488951E-03  -0.2035243871E-03   0.3642350244E+00   0.4897059778E-01   0.1239616866E+00  -0.3717795870E-01   0.0000000000E+00   0.0000000000E+00   0.3123553390E-02  -0.9748841552E-03  -0.4833134631E-03   0.0000000000E+00   0.0000000000E+00   0.0000000000E+00   0.2963506691E+00
   0.2672914095E+00   0.0000000000E+00   0.8924692316E-04   0.0000000000E+00   0.5354815390E-03   0.0000000000E+00   0.1051905405E+00   0.2941125039E-01   0.4038053727E-01  -0.1512273796E-02   0.0000000000E+00   0.0000000000E+00   0.8425300422E-03  -0.1426007294E-03  -0.1965955935E-04   0.0000000000E+00   0.0000000000E+00   0.0000000000E+00   0.7089165390E-01
   0.2692511255E+00   0.1828882146E-01   0.8931149300E-04  -0.3841633150E-06   0.5358689580E-03  -0.2304979890E-05   0.1075264165E+00   0.2896925033E-01   0.4094870005E-01  -0.4732864753E-02   0.0000000000E+00   0.0000000000E+00   0.8655103139E-03  -0.1557328464E-03  -0.6152724178E-04   0.0000000000E+00   0.0000000000E+00   0.0000000000E+00   0.7379938514E-01
   0.2370964377E+00   0.7429920417E-01   0.8171924476E-04  -0.2427418756E-05   0.4903154686E-03  -0.1456451254E-04   0.1290213089E+00   0.1255367788E-01   0.4247249602E-01  -0.2383122496E-01   0.0000000000E+00   0.0000000000E+00   0.1125134567E-02  -0.3889446359E-03  -0.3098059245E-03   0.0000000000E+00   0.0000000000E+00   0.0000000000E+00   0.1125492393E+00
   0.2558098593E+00   0.7382198127E-01   0.8475575079E-04  -0.2272847038E-05   0.5085345047E-03  -0.1363708223E-04   0.1303933262E+00   0.1730823670E-01   0.4431046886E-01  -0.1906444374E-01   0.0000000000E+00   0.0000000000E+00   0.1119077145E-02  -0.3510290181E-03  -0.2478377687E-03   0.0000000000E+00   0.0000000000E+00   0.0000000000E+00   0.1074460424E+00
   0.3109965530E+00   0.3712098345E-01   0.9444228720E-04  -0.8540932766E-06   0.5666537232E-03  -0.5124559660E-05   0.1197969918E+00   0.3062415711E-01   0.4512634468E-01  -0.4509133736E-02   0.0000000000E+00   0.0000000000E+00   0.9707184130E-03  -0.1885284384E-03  -0.5861873857E-04   0.0000000000E+00   0.0000000000E+00   0.0000000000E+00   0.8321831141E-01
   0.2910821230E+00   0.3677134346E-01   0.9171585545E-04  -0.8422632047E-06   0.5502951327E-03  -0.5053579228E-05   0.1170551196E+00   0.2927444261E-01   0.4389886867E-01  -0.6936078792E-02   0.0000000000E+00   0.0000000000E+00   0.9510312625E-03  -0.1901175388E-03  -0.9016902430E-04   0.0000000000E+00   0.0000000000E+00   0.0000000000E+00   0.8229407419E-01
   0.3506999940E+00   0.2114466030E+00   0.1000000000E-03  -0.1312300519E-04   0.6000000000E-03  -0.7873803115E-04   0.2144236345E+00   0.2336057116E-02   0.6502790750E-01   0.4957822556E-03   0.0000000000E+00   0.0000000000E+00   0.1942144452E-02  -0.8149940549E-03   0.6445169323E-05   0.0000000000E+00   0.0000000000E+00   0.0000000000E+00   0.1887189800E+00
   0.3315713014E+00   0.2118882043E+00   0.9469763007E-04  -0.1323710540E-04   0.5681857804E-03  -0.7942263238E-04   0.2147672497E+00   0.2157389416E-02   0.6507739172E-01  -0.2010819302E-02   0.0000000000E+00   0.0000000000E+00   0.1945968153E-02  -0.8179600300E-03  -0.2614065092E-04   0.0000000000E+00   0.0000000000E+00   0.0000000000E+00   0.1891941905E+00
   0.3315077374E+00   0.1926241970E+00   0.9495805534E-04  -0.1106299549E-04   0.5697483321E-03  -0.6637797293E-04   0.2044080575E+00   0.4195912154E-02   0.6258119091E-01  -0.2601840454E-02   0.0000000000E+00   0.0000000000E+00   0.1843749266E-02  -0.7590086238E-03  -0.3382392590E-04   0.0000000000E+00   0.0000000000E+00   0.0000000000E+00   0.1783849818E+00
   0.3506999940E+00   0.1922309551E+00   0.1000000000E-03  -0.1096298813E-04   0.6000000000E-03  -0.6577792878E-04   0.2041610588E+00   0.4479178192E-02   0.6259207110E-01   0.4586923942E-03   0.0000000000E+00   0.0000000000E+00   0.1840396840E-02  -0.7554676078E-03   0.5963001125E-05   0.0000000000E+00   0.0000000000E+00   0.0000000000E+00   0.1778882607E+00
   0.2931503749E+00   0.2125869997E+00   0.8394598769E-04  -0.1386432639E-04   0.5036759261E-03  -0.8318595834E-04   0.2178170526E+00   0.1536392597E-02   0.6580603357E-01  -0.5001965686E-02   0.0000000000E+00   0.0000000000E+00   0.1976143248E-02  -0.8355053327E-03  -0.6502555391E-04   0.0000000000E+00   0.0000000000E+00   0.0000000000E+00   0.1925640105E+00
   0.2740535158E+00   0.2130422539E+00   0.7851239308E-04  -0.1444429677E-04   0.4710743585E-03  -0.8666578061E-04   0.2202470258E+00   0.9354100549E-03   0.6635473075E-01  -0.5986815491E-02   0.0000000000E+00   0.0000000000E+00   0.2000599835E-02  -0.8504511691E-03  -0.7782860139E-04   0.0000000000E+00   0.0000000000E+00   0.0000000000E+00   0.1952844084E+00
   0.2739124393E+00   0.1941869562E+00   0.7956075545E-04  -0.1222097110E-04   0.4773645327E-03  -0.7332582659E-04   0.2095006865E+00   0.1856892539E-02   0.6340727371E-01  -0.8023637223E-02   0.0000000000E+00   0.0000000000E+00   0.1899214366E-02  -0.8001549552E-03  -0.1043072839E-03   0.0000000000E+00   0.0000000000E+00   0.0000000000E+00   0.1852488721E+00
   0.2930121124E+00   0.1933652910E+00   0.8474077434E-04  -0.1164200695E-04   0.5084446460E-03  -0.6985204171E-04   0.2072147734E+00   0.2799461906E-02   0.6300427060E-01  -0.6732742336E-02   0.0000000000E+00   0.0000000000E+00   0.1874736537E-02  -0.7826625131E-03  -0.8752565037E-04   0.0000000000E+00   0.0000000000E+00   0.0000000000E+00   0.1823120295E+00
   0.1949475670E+00   0.5815635533E-01   0.7727900391E-04  -0.1966009768E-05   0.4636740234E-03  -0.1179605861E-04   0.1073167026E+00   0.2463285551E-02   0.3293399644E-01  -0.3370173125E-01   0.0000000000E+00   0.0000000000E+00   0.9669751798E-03  -0.3961192415E-03  -0.4381225063E-03   0.0000000000E+00   0.0000000000E+00   0.0000000000E+00   0.1101087468E+00
   0.2146551853E+00   0.5660181369E-01   0.8018661435E-04  -0.1681343961E-05   0.4811196861E-03  -0.1008806377E-04   0.1104401162E+00   0.1013234933E-01   0.3617173966E-01  -0.2706419908E-01   0.0000000000E+00   0.0000000000E+00   0.9654888950E-03  -0.3385120743E-03  -0.3518345880E-03   0.0000000000E+00   0.0000000000E+00   0.0000000000E+00   0.1016262235E+00
   0.7338091473E-01   0.1303989492E+00   0.2884934778E-04  -0.2758768933E-04   0.1730960867E-03  -0.1655261360E-03   0.2736216385E+00  -0.1041724671E-01   0.7896131755E-01   0.5689250141E-02   0.0000000000E+00   0.0000000000E+00   0.2530584173E-02  -0.1161921335E-02   0.7396025183E-04   0.0000000000E+00   0.0000000000E+00   0.0000000000E+00   0.2516155106E+00
   0.5565671959E-01   0.1222611585E+00   0.2415685582E-04  -0.3061449407E-04   0.1449411349E-03  -0.1836869644E-03   0.3183984957E+00   0.2366382104E-01   0.1026186950E+00  -0.9366882967E-02   0.0000000000E+00   0.0000000000E+00   0.2805137409E-02  -0.1026413362E-02  -0.1217694786E-03   0.0000000000E+00   0.0000000000E+00   0.0000000000E+00   0.2640657507E+00
   0.8102239291E-01   0.1171122771E+00   0.3502464357E-04  -0.2340140762E-04   0.2101478614E-03  -0.1404084457E-03   0.2629876545E+00  -0.1736314717E-01   0.7368735219E-01  -0.1124911548E-01   0.0000000000E+00   0.0000000000E+00   0.2460903930E-02  -0.1183656492E-02  -0.1462385012E-03   0.0000000000E+00   0.0000000000E+00   0.0000000000E+00   0.2480731845E+00
   0.5841249831E-01   0.2496808195E+00   0.1130924386E-04  -0.4559721554E-04   0.6785546313E-04  -0.2735832933E-03   0.1698166642E+00  -0.2788530449E-02   0.5010844012E-01   0.4463850469E-02   0.0000000000E+00   0.0000000000E+00   0.1556206913E-02  -0.6876606175E-03   0.5803005610E-04   0.0000000000E+00   0.0000000000E+00   0.0000000000E+00   0.1531780174E+00
   0.7833222226E-01   0.2131524249E+00   0.2050920841E-04  -0.3831501503E-04   0.1230552504E-03  -0.2298900902E-03   0.2152996988E+00  -0.7823094482E-03   0.6435521681E-01   0.2461439296E-01   0.0000000000E+00   0.0000000000E+00   0.1962278266E-02  -0.8467878413E-03   0.3199871085E-03   0.0000000000E+00   0.0000000000E+00   0.0000000000E+00   0.1965496196E+00
   0.7815205303E-01   0.1931833431E+00   0.2222189015E-04  -0.3586141678E-04   0.1333313409E-03  -0.2151685007E-03   0.2303403023E+00  -0.1579397160E-02   0.6862827156E-01   0.2897414298E-01   0.0000000000E+00   0.0000000000E+00   0.2102256400E-02  -0.9126996933E-03   0.3766638587E-03   0.0000000000E+00   0.0000000000E+00   0.0000000000E+00   0.2120055677E+00
   0.1771038881E+00   0.2156468179E+00   0.4963515717E-04  -0.2182601722E-04   0.2978109430E-03  -0.1309561033E-03   0.2327064629E+00  -0.4161933512E-02   0.6856335883E-01   0.1557974572E-02   0.0000000000E+00   0.0000000000E+00   0.2133860353E-02  -0.9454288004E-03   0.2025366944E-04   0.0000000000E+00   0.0000000000E+00   0.0000000000E+00   0.2101856540E+00
   0.3121471611E+00   0.1536782089E+00   0.9113416322E-04  -0.7356876277E-05   0.5468049793E-03  -0.4414125766E-04   0.1820649382E+00   0.9305901553E-02   0.5741125193E-01  -0.6731198297E-02   0.0000000000E+00   0.0000000000E+00   0.1620497922E-02  -0.6253695549E-03  -0.8750557786E-04   0.0000000000E+00   0.0000000000E+00   0.0000000000E+00   0.1548625136E+00
   0.3121299547E+00   0.1733735481E+00   0.9046423970E-04  -0.9224129168E-05   0.5427854382E-03  -0.5534477501E-04   0.1940760041E+00   0.6296622398E-02   0.6011178794E-01  -0.5873765774E-02   0.0000000000E+00   0.0000000000E+00   0.1741534810E-02  -0.6995971520E-03  -0.7635895507E-04   0.0000000000E+00   0.0000000000E+00   0.0000000000E+00   0.1677877539E+00
   0.1168521229E+00   0.2497500294E+00   0.2649370354E-04  -0.3571009118E-04   0.1589622212E-03  -0.2142605471E-03   0.2273538199E+00  -0.1930846420E-04   0.6820035342E-01   0.3625048710E-02   0.0000000000E+00   0.0000000000E+00   0.2068995064E-02  -0.8868556046E-03   0.4712563323E-04   0.0000000000E+00   0.0000000000E+00   0.0000000000E+00   0.2020609423E+00
   0.7109537404E-01   0.7056167878E-01   0.5495609108E-04  -0.2128608886E-04   0.3297365465E-03  -0.1277165331E-03   0.1127629733E+00   0.5857813187E-01   0.5140233156E-01  -0.7120113980E-01   0.0000000000E+00   0.0000000000E+00   0.7976883430E-03   0.9328540405E-04  -0.9256148174E-03   0.0000000000E+00   0.0000000000E+00   0.0000000000E+00   0.1264490996E+00
   0.8425358851E-01   0.7954645109E-01   0.5151887248E-04  -0.1693098727E-04   0.3091132349E-03  -0.1015859236E-03   0.1479190073E+00  -0.7917845464E-02   0.4200034855E-01  -0.5912434163E-01   0.0000000000E+00   0.0000000000E+00   0.1376942564E-02  -0.6489365221E-03  -0.7686164412E-03   0.0000000000E+00   0.0000000000E+00   0.0000000000E+00   0.1725951820E+00
   0.2354092321E+00   0.2141964666E+00   0.6725343610E-04  -0.1636248011E-04   0.4035206166E-03  -0.9817488063E-04   0.2260666094E+00  -0.7717390134E-03   0.6758846111E-01  -0.5875081478E-02   0.0000000000E+00   0.0000000000E+00   0.2060215928E-02  -0.8886826016E-03  -0.7637605921E-04   0.0000000000E+00   0.0000000000E+00   0.0000000000E+00   0.2018076294E+00
   0.1778011950E+00   0.1997763710E+00   0.5172870771E-04  -0.1958800015E-04   0.3103722463E-03  -0.1175280009E-03   0.2264300008E+00  -0.7937296628E-02   0.6554781127E-01   0.3898957749E-04   0.0000000000E+00   0.0000000000E+00   0.2091468465E-02  -0.9553064026E-03   0.5068645074E-06   0.0000000000E+00   0.0000000000E+00   0.0000000000E+00   0.2076121754E+00
   0.1588459999E+00   0.1996329116E+00   0.4605440837E-04  -0.2207520624E-04   0.2763264502E-03  -0.1324512375E-03   0.2285865233E+00  -0.9666202320E-02   0.6567609628E-01   0.5277847208E-02   0.0000000000E+00   0.0000000000E+00   0.2117835551E-02  -0.9794498818E-03   0.6861201371E-04   0.0000000000E+00   0.0000000000E+00   0.0000000000E+00   0.2111094900E+00
   0.1600203878E+00   0.1837734069E+00   0.4841911791E-04  -0.1965773147E-04   0.2905147074E-03  -0.1179463888E-03   0.2250985529E+00  -0.1458466444E-01   0.6315416654E-01   0.2385016057E-02   0.0000000000E+00   0.0000000000E+00   0.2105277023E-02  -0.1010604803E-02   0.3100520875E-04   0.0000000000E+00   0.0000000000E+00   0.0000000000E+00   0.2118052719E+00
   0.1781881182E+00   0.1844652395E+00   0.5372330886E-04  -0.1744363698E-04   0.3223398531E-03  -0.1046618219E-03   0.2211277628E+00  -0.1143238791E-01   0.6290861245E-01  -0.2821193606E-02   0.0000000000E+00   0.0000000000E+00   0.2056848954E-02  -0.9664330047E-03  -0.3667551688E-04   0.0000000000E+00   0.0000000000E+00   0.0000000000E+00   0.2057594134E+00
   0.2548094086E+00   0.2136115205E+00   0.7295166176E-04  -0.1526206976E-04   0.4377099706E-03  -0.9157241858E-04   0.2229824109E+00   0.9610208073E-04   0.6692355389E-01  -0.6318033294E-02   0.0000000000E+00   0.0000000000E+00   0.2028765141E-02  -0.8687568735E-03  -0.8213443282E-04   0.0000000000E+00   0.0000000000E+00   0.0000000000E+00   0.1984123152E+00
   0.3123368558E+00   0.2122382073E+00   0.8933796839E-04  -0.1347495539E-04   0.5360278104E-03  -0.8084973236E-04   0.2160270209E+00   0.1913116720E-02   0.6538204129E-01  -0.3553029657E-02   0.0000000000E+00   0.0000000000E+00   0.1958384735E-02  -0.8250960194E-03  -0.4618938555E-04   0.0000000000E+00   0.0000000000E+00   0.0000000000E+00   0.1905804049E+00
   0.3122945419E+00   0.1929542210E+00   0.8988370687E-04  -0.1127685707E-04   0.5393022412E-03  -0.6766114243E-04   0.2055644274E+00   0.3783421850E-02   0.6280435478E-01  -0.4767941210E-02   0.0000000000E+00   0.0000000000E+00   0.1855880944E-02  -0.7672721281E-03  -0.6198323573E-04   0.0000000000E+00   0.0000000000E+00   0.0000000000E+00   0.1798834032E+00
   0.6726167096E-01   0.1438532733E+00   0.2410865206E-04  -0.3115253338E-04   0.1446519124E-03  -0.1869152003E-03   0.2738742080E+00   0.2015950743E-02   0.8276704763E-01   0.1889481340E-01   0.0000000000E+00   0.0000000000E+00   0.2484393085E-02  -0.1049764260E-02   0.2456325743E-03   0.0000000000E+00   0.0000000000E+00   0.0000000000E+00   0.2439542312E+00
   0.6226269152E-01   0.1544031073E+00   0.2094570302E-04  -0.3376152268E-04   0.1256742181E-03  -0.2025691361E-03   0.2680382356E+00   0.6070435817E-02   0.8223260143E-01   0.2419738162E-01   0.0000000000E+00   0.0000000000E+00   0.2415473244E-02  -0.9901081530E-03   0.3145659611E-03   0.0000000000E+00   0.0000000000E+00   0.0000000000E+00   0.2369865000E+00
   0.1530635645E+00   0.3950365447E-01   0.7538264361E-04  -0.1723475463E-05   0.4522958617E-03  -0.1034085278E-04   0.6511168787E-01  -0.1819613434E-01   0.1407466606E-01  -0.4034381606E-01   0.0000000000E+00   0.0000000000E+00   0.6634812835E-03  -0.4195204052E-03  -0.5244696088E-03   0.0000000000E+00   0.0000000000E+00   0.0000000000E+00   0.1002830202E+00
   0.1358591313E+00   0.4587688565E-01   0.7227689862E-04  -0.3121935649E-05   0.4336613917E-03  -0.1873161390E-04   0.6304362011E-01  -0.3832771070E-01   0.7414772821E-02  -0.5216503886E-01   0.0000000000E+00   0.0000000000E+00   0.7231750147E-03  -0.5946522858E-03  -0.6781455052E-03   0.0000000000E+00   0.0000000000E+00   0.0000000000E+00   0.1233836969E+00
   0.1630571829E+00   0.0000000000E+00   0.7959841504E-04   0.0000000000E+00   0.4775904902E-03   0.0000000000E+00   0.3896487096E-01  -0.3727330859E-02   0.1057126203E-01  -0.6663037978E-02   0.0000000000E+00   0.0000000000E+00   0.3691169161E-03  -0.1858817076E-03  -0.8661949372E-04   0.0000000000E+00   0.0000000000E+00   0.0000000000E+00   0.3812096198E-01
   0.1669832078E+00   0.1949481498E-01   0.7903654284E-04  -0.5630312982E-06   0.4742192570E-03  -0.3378187789E-05   0.5187662673E-01  -0.3410851325E-02   0.1453973262E-01  -0.1701758171E-01   0.0000000000E+00   0.0000000000E+00   0.4853796234E-03  -0.2333575913E-03  -0.2212285622E-03   0.0000000000E+00   0.0000000000E+00   0.0000000000E+00   0.5795527900E-01
   0.2760492873E+00   0.9270196113E-01   0.8683990451E-04  -0.3171181461E-05   0.5210394270E-03  -0.1902708876E-04   0.1439130912E+00   0.1687662227E-01   0.4823691404E-01  -0.1553878050E-01   0.0000000000E+00   0.0000000000E+00   0.1243790303E-02  -0.4076837930E-03  -0.2020041465E-03   0.0000000000E+00   0.0000000000E+00   0.0000000000E+00   0.1177043471E+00
   0.2942577838E+00   0.9346882274E-01   0.9002768717E-04  -0.3112180055E-05   0.5401661230E-03  -0.1867308033E-04   0.1448290260E+00   0.1924632090E-01   0.4922260406E-01  -0.1157431624E-01   0.0000000000E+00   0.0000000000E+00   0.1242883485E-02  -0.3896916811E-03  -0.1504661111E-03   0.0000000000E+00   0.0000000000E+00   0.0000000000E+00   0.1153272156E+00
   0.2943934387E+00   0.1128186953E+00   0.8910309467E-04  -0.4302248918E-05   0.5346185680E-03  -0.2581349351E-04   0.1567228145E+00   0.1538338080E-01   0.5163185860E-01  -0.1159481606E-01   0.0000000000E+00   0.0000000000E+00   0.1366182427E-02  -0.4712302113E-03  -0.1507326088E-03   0.0000000000E+00   0.0000000000E+00   0.0000000000E+00   0.1286993906E+00
   0.2765037260E+00   0.1113439859E+00   0.8569214473E-04  -0.4366294152E-05   0.5141528684E-03  -0.2619776491E-04   0.1565076798E+00   0.1297840168E-01   0.5084582444E-01  -0.1513064233E-01   0.0000000000E+00   0.0000000000E+00   0.1373604119E-02  -0.4922764958E-03  -0.1966983503E-03   0.0000000000E+00   0.0000000000E+00   0.0000000000E+00   0.1314602559E+00
   0.2935103892E+00   0.7442351853E-01   0.9076259478E-04  -0.2163252861E-05   0.5445755687E-03  -0.1297951717E-04   0.1338455381E+00   0.2317898349E-01   0.4710735648E-01  -0.1088204792E-01   0.0000000000E+00   0.0000000000E+00   0.1127596361E-02  -0.3110688490E-03  -0.1414666230E-03   0.0000000000E+00   0.0000000000E+00   0.0000000000E+00   0.1025670014E+00
   0.1716299154E+00   0.3887330940E-01   0.7726819918E-04  -0.1274300084E-05   0.4636091951E-03  -0.7645800506E-05   0.7052972300E-01  -0.5417721333E-02   0.1953360050E-01  -0.3478436153E-01   0.0000000000E+00   0.0000000000E+00   0.6629495925E-03  -0.3243671838E-03  -0.4521966999E-03   0.0000000000E+00   0.0000000000E+00   0.0000000000E+00   0.8967074338E-01
   0.2935799886E+00   0.1327089581E+00   0.8791166033E-04  -0.5772272906E-05   0.5274699620E-03  -0.3463363743E-04   0.1697039886E+00   0.1094388781E-01   0.5419436292E-01  -0.1111455329E-01   0.0000000000E+00   0.0000000000E+00   0.1501625134E-02  -0.5622561764E-03  -0.1444891928E-03   0.0000000000E+00   0.0000000000E+00   0.0000000000E+00   0.1434333143E+00
   0.5202120579E-01   0.1830929214E+00   0.1516198383E-04  -0.3936679635E-04   0.9097190299E-04  -0.2362007781E-03   0.2376027486E+00   0.1133519601E-01   0.7468138339E-01   0.2759056148E-01   0.0000000000E+00   0.0000000000E+00   0.2117977748E-02  -0.8235004359E-03   0.3586772992E-03   0.0000000000E+00   0.0000000000E+00   0.0000000000E+00   0.2078206432E+00
   0.5053041444E-01   0.1683269057E+00   0.1572117688E-04  -0.3787575877E-04   0.9432706128E-04  -0.2272545526E-03   0.2531027414E+00   0.1721492041E-01   0.8109529855E-01   0.2835895153E-01   0.0000000000E+00   0.0000000000E+00   0.2236096757E-02  -0.8304449159E-03   0.3686663699E-03   0.0000000000E+00   0.0000000000E+00   0.0000000000E+00   0.2169812236E+00
   0.2923790912E+00   0.5549589875E-01   0.9132845648E-04  -0.1417792474E-05   0.5479707389E-03  -0.8506754842E-05   0.1243934700E+00   0.2657351940E-01   0.4529009682E-01  -0.9278807532E-02   0.0000000000E+00   0.0000000000E+00   0.1028343851E-02  -0.2433155063E-03  -0.1206244979E-03   0.0000000000E+00   0.0000000000E+00   0.0000000000E+00   0.9133581871E-01
   0.2922711163E+00   0.1532412254E+00   0.8654290687E-04  -0.7562227190E-05   0.5192574412E-03  -0.4537336314E-04   0.1828181518E+00   0.7966222307E-02   0.5723531224E-01  -0.9900108461E-02   0.0000000000E+00   0.0000000000E+00   0.1632576915E-02  -0.6404981691E-03  -0.1287014100E-03   0.0000000000E+00   0.0000000000E+00   0.0000000000E+00   0.1570721692E+00
   0.2711899624E+00   0.3668666347E-01   0.8905419356E-04  -0.8391329373E-06   0.5343251613E-03  -0.5034797624E-05   0.1131816382E+00   0.2717315232E-01   0.4210643715E-01  -0.9665179323E-02   0.0000000000E+00   0.0000000000E+00   0.9239776133E-03  -0.1941327027E-03  -0.1256473312E-03   0.0000000000E+00   0.0000000000E+00   0.0000000000E+00   0.8126235633E-01
   0.2512952305E+00   0.3680831687E-01   0.8647235662E-04  -0.8465331496E-06   0.5188341397E-03  -0.5079198897E-05   0.1080402342E+00   0.2417762832E-01   0.3966535876E-01  -0.1287639557E-01   0.0000000000E+00   0.0000000000E+00   0.8888733810E-03  -0.2013404958E-03  -0.1673931424E-03   0.0000000000E+00   0.0000000000E+00   0.0000000000E+00   0.8032379615E-01
   0.2341157955E+00   0.5568942302E-01   0.8296764064E-04  -0.1536596432E-05   0.4978058438E-03  -0.9219578592E-05   0.1143509803E+00   0.1658018707E-01   0.3927935020E-01  -0.2150795260E-01   0.0000000000E+00   0.0000000000E+00   0.9759311909E-03  -0.2950891207E-03  -0.2796033838E-03   0.0000000000E+00   0.0000000000E+00   0.0000000000E+00   0.9612809043E-01
   0.2536375122E+00   0.5531723493E-01   0.8573987911E-04  -0.1462339098E-05   0.5144392746E-03  -0.8774034590E-05   0.1182119233E+00   0.2103859538E-01   0.4177515562E-01  -0.1676615086E-01   0.0000000000E+00   0.0000000000E+00   0.9936779805E-03  -0.2695752831E-03  -0.2179599612E-03   0.0000000000E+00   0.0000000000E+00   0.0000000000E+00   0.9325975300E-01
   0.2353466868E+00   0.1969550584E+00   0.6871311402E-04  -0.1421307978E-04   0.4122786841E-03  -0.8527847870E-04   0.2162145769E+00  -0.1658729371E-02   0.6436675425E-01  -0.8297972953E-02   0.0000000000E+00   0.0000000000E+00   0.1974021694E-02  -0.8583312871E-03  -0.1078736484E-03   0.0000000000E+00   0.0000000000E+00   0.0000000000E+00   0.1940390287E+00
   0.2547405283E+00   0.1955836129E+00   0.7422789374E-04  -0.1307672857E-04   0.4453673624E-03  -0.7846037140E-04   0.2126197230E+00   0.1079774943E-03   0.6381831014E-01  -0.8743544709E-02   0.0000000000E+00   0.0000000000E+00   0.1934418367E-02  -0.8282343244E-03  -0.1136660812E-03   0.0000000000E+00   0.0000000000E+00   0.0000000000E+00   0.1895051593E+00
   0.1600530247E+00   0.7266686195E-01   0.6923009463E-04  -0.4113663592E-05   0.4153805678E-03  -0.2468198155E-04   0.1230415507E+00  -0.2472725512E-01   0.2949428866E-01  -0.4772613665E-01   0.0000000000E+00   0.0000000000E+00   0.1216114406E-02  -0.7048800691E-03  -0.6204397765E-03   0.0000000000E+00   0.0000000000E+00   0.0000000000E+00   0.1533762633E+00
   0.1742548779E+00   0.6064436766E-01   0.7399256170E-04  -0.2478649132E-05   0.4439553702E-03  -0.1487189479E-04   0.1055533921E+00  -0.1071072230E-01   0.2845280093E-01  -0.4241257667E-01   0.0000000000E+00   0.0000000000E+00   0.1002307685E-02  -0.5091258019E-03  -0.5513634967E-03   0.0000000000E+00   0.0000000000E+00   0.0000000000E+00   0.1260730836E+00
   0.1846211429E+00   0.8231136996E-01   0.7166427245E-04  -0.3991319596E-05   0.4299856347E-03  -0.2394791758E-04   0.1381407666E+00  -0.1208829124E-01   0.3781574260E-01  -0.3999039431E-01   0.0000000000E+00   0.0000000000E+00   0.1304225312E-02  -0.6487524400E-03  -0.5198751260E-03   0.0000000000E+00   0.0000000000E+00   0.0000000000E+00   0.1493704286E+00
   0.1698717204E+00   0.8991625001E-01   0.6731748394E-04  -0.5432769936E-05   0.4039049036E-03  -0.3259661962E-04   0.1497021240E+00  -0.2262025166E-01   0.3812456171E-01  -0.4053730336E-01   0.0000000000E+00   0.0000000000E+00   0.1450508310E-02  -0.7896825739E-03  -0.5269849436E-03   0.0000000000E+00   0.0000000000E+00   0.0000000000E+00   0.1668565853E+00
   0.9902319469E-01   0.2139679501E+00   0.2633057069E-04  -0.3448970646E-04   0.1579834241E-03  -0.2069382388E-03   0.2223373279E+00  -0.4373116295E-02   0.6538926349E-01   0.2213036693E-01   0.0000000000E+00   0.0000000000E+00   0.2040324838E-02  -0.9069109372E-03   0.2876947701E-03   0.0000000000E+00   0.0000000000E+00   0.0000000000E+00   0.2046189468E+00
   0.1400285171E+00   0.1992115869E+00   0.4039859167E-04  -0.2493972595E-04   0.2423915500E-03  -0.1496383557E-03   0.2299718878E+00  -0.1079314272E-01   0.6575362353E-01   0.1133839553E-01   0.0000000000E+00   0.0000000000E+00   0.2134837436E-02  -0.9951079612E-03   0.1473991419E-03   0.0000000000E+00   0.0000000000E+00   0.0000000000E+00   0.2139505307E+00
   0.1211312921E+00   0.1984421755E+00   0.3473015698E-04  -0.2815906534E-04   0.2083809419E-03  -0.1689543921E-03   0.2303419042E+00  -0.1071827659E-01   0.6588708827E-01   0.1766699630E-01   0.0000000000E+00   0.0000000000E+00   0.2137912607E-02  -0.9958697432E-03   0.2296709519E-03   0.0000000000E+00   0.0000000000E+00   0.0000000000E+00   0.2154922477E+00
   0.2187216709E+00   0.7551781025E-01   0.7860969786E-04  -0.2698263677E-05   0.4716581872E-03  -0.1618958206E-04   0.1286424340E+00   0.6348871491E-02   0.4049739164E-01  -0.2915299729E-01   0.0000000000E+00   0.0000000000E+00   0.1145885550E-02  -0.4439307619E-03  -0.3789889648E-03   0.0000000000E+00   0.0000000000E+00   0.0000000000E+00   0.1203143804E+00
   0.8049766019E-01   0.1525884477E+00   0.2736924135E-04  -0.2952260833E-04   0.1642154481E-03  -0.1771356500E-03   0.2570894184E+00  -0.1143518854E-01   0.7369626896E-01   0.2141015804E-01   0.0000000000E+00   0.0000000000E+00   0.2384110943E-02  -0.1106708948E-02   0.2783320545E-03   0.0000000000E+00   0.0000000000E+00   0.0000000000E+00   0.2404507458E+00
   0.6999056526E-01   0.1665037263E+00   0.2213530928E-04  -0.3387695894E-04   0.1328118557E-03  -0.2032617536E-03   0.2512716043E+00   0.1327337745E-02   0.7577968262E-01   0.2813997220E-01   0.0000000000E+00   0.0000000000E+00   0.2281394982E-02  -0.9678804833E-03   0.3658196386E-03   0.0000000000E+00   0.0000000000E+00   0.0000000000E+00   0.2275714949E+00
   0.1417462088E+00   0.1829589395E+00   0.4298139368E-04  -0.2229507171E-04   0.2578883621E-03  -0.1337704302E-03   0.2289533510E+00  -0.1632665559E-01   0.6378800862E-01   0.8593450818E-02   0.0000000000E+00   0.0000000000E+00   0.2147149451E-02  -0.1041490635E-02   0.1117148606E-03   0.0000000000E+00   0.0000000000E+00   0.0000000000E+00   0.2171012224E+00
   0.2730666225E+00   0.1744360615E+00   0.8058292429E-04  -0.1006263584E-04   0.4834975457E-03  -0.6037581502E-04   0.1986858642E+00   0.3236748569E-02   0.6057678384E-01  -0.1046478048E-01   0.0000000000E+00   0.0000000000E+00   0.1795418045E-02  -0.7454204585E-03  -0.1360421462E-03   0.0000000000E+00   0.0000000000E+00   0.0000000000E+00   0.1749443920E+00
   0.2925419640E+00   0.1735624444E+00   0.8556857515E-04  -0.9525078588E-05   0.5134114509E-03  -0.5715047153E-04   0.1955032399E+00   0.5208798939E-02   0.6021361166E-01  -0.8611493395E-02   0.0000000000E+00   0.0000000000E+00   0.1758765168E-02  -0.7150625654E-03  -0.1119494141E-03   0.0000000000E+00   0.0000000000E+00   0.0000000000E+00   0.1702703945E+00
   0.9448198129E-01   0.1608459433E+00   0.3091231260E-04  -0.2776395799E-04   0.1854738756E-03  -0.1665837479E-03   0.2481083231E+00  -0.1699588904E-01   0.6933373021E-01   0.2058367806E-01   0.0000000000E+00   0.0000000000E+00   0.2324069707E-02  -0.1122285050E-02   0.2675878148E-03   0.0000000000E+00   0.0000000000E+00   0.0000000000E+00   0.2368007158E+00
   0.8736734179E-01   0.1752634496E+00   0.2682434210E-04  -0.3148405663E-04   0.1609460526E-03  -0.1889043398E-03   0.2435018290E+00  -0.8885332593E-02   0.7038494892E-01   0.2773301775E-01   0.0000000000E+00   0.0000000000E+00   0.2250519441E-02  -0.1030513660E-02   0.3605292307E-03   0.0000000000E+00   0.0000000000E+00   0.0000000000E+00   0.2286654173E+00
   0.2746952614E+00   0.7395811457E-01   0.8776563083E-04  -0.2195676154E-05   0.5265937850E-03  -0.1317405693E-04   0.1321337571E+00   0.2075538864E-01   0.4586674371E-01  -0.1476479620E-01   0.0000000000E+00   0.0000000000E+00   0.1121471174E-02  -0.3264476159E-03  -0.1919423506E-03   0.0000000000E+00   0.0000000000E+00   0.0000000000E+00   0.1043334963E+00
   0.2266767573E+00   0.1122632750E+00   0.7555246916E-04  -0.5381720451E-05   0.4533148150E-03  -0.3229032271E-04   0.1614802468E+00   0.4236635670E-04   0.4845678396E-01  -0.2494719160E-01   0.0000000000E+00   0.0000000000E+00   0.1469305017E-02  -0.6293874288E-03  -0.3243134907E-03   0.0000000000E+00   0.0000000000E+00   0.0000000000E+00   0.1498138836E+00
   0.2229841610E+00   0.9415694737E-01   0.7705328310E-04  -0.3947161722E-05   0.4623196986E-03  -0.2368297033E-04   0.1462376888E+00   0.2766148869E-02   0.4470115130E-01  -0.2795008115E-01   0.0000000000E+00   0.0000000000E+00   0.1319974987E-02  -0.5451550316E-03  -0.3633510549E-03   0.0000000000E+00   0.0000000000E+00   0.0000000000E+00   0.1365919713E+00
   0.2730054229E+00   0.5525205686E-01   0.8851669780E-04  -0.1427277164E-05   0.5311001868E-03  -0.8563662987E-05   0.1216058979E+00   0.2430950491E-01   0.4377462084E-01  -0.1279143430E-01   0.0000000000E+00   0.0000000000E+00   0.1011806602E-02  -0.2530465071E-03  -0.1662886459E-03   0.0000000000E+00   0.0000000000E+00   0.0000000000E+00   0.9186162869E-01
   0.1573809282E+00   0.5347617065E-01   0.7304402369E-04  -0.2587349601E-05   0.4382641422E-03  -0.1552409760E-04   0.9599729221E-01  -0.1920350665E-01   0.2303813567E-01  -0.4617045853E-01   0.0000000000E+00   0.0000000000E+00   0.9484690350E-03  -0.5491413501E-03  -0.6002159609E-03   0.0000000000E+00   0.0000000000E+00   0.0000000000E+00   0.1289014096E+00
   0.1472438713E+00   0.6073109116E-01   0.6998204912E-04  -0.3683162597E-05   0.4198922947E-03  -0.2209897558E-04   0.1015785402E+00  -0.2772354848E-01   0.2215649752E-01  -0.4847766538E-01   0.0000000000E+00   0.0000000000E+00   0.1032486555E-02  -0.6484405980E-03  -0.6302096499E-03   0.0000000000E+00   0.0000000000E+00   0.0000000000E+00   0.1413818501E+00
   0.1241627686E+00   0.1489656531E+00   0.4250207860E-04  -0.1985741850E-04   0.2550124716E-03  -0.1191445110E-03   0.2331569363E+00  -0.3053581196E-01   0.6078633729E-01   0.1906105258E-02   0.0000000000E+00   0.0000000000E+00   0.2240817787E-02  -0.1187187940E-02   0.2477936835E-04   0.0000000000E+00   0.0000000000E+00   0.0000000000E+00   0.2318400747E+00
   0.1449445354E+00   0.1472455986E+00   0.4927834438E-04  -0.1620420370E-04   0.2956700663E-03  -0.9722522223E-04   0.2204165859E+00  -0.2935882694E-01   0.5731732767E-01  -0.7968862745E-02   0.0000000000E+00   0.0000000000E+00   0.2120290356E-02  -0.1126790010E-02  -0.1035952157E-03   0.0000000000E+00   0.0000000000E+00   0.0000000000E+00   0.2200726988E+00
   0.1434857773E+00   0.1659970934E+00   0.4584132989E-04  -0.1943037697E-04   0.2750479794E-03  -0.1165822618E-03   0.2269763680E+00  -0.2348386240E-01   0.6104775169E-01   0.2608197335E-02   0.0000000000E+00   0.0000000000E+00   0.2157072012E-02  -0.1098910983E-02   0.3390656535E-04   0.0000000000E+00   0.0000000000E+00   0.0000000000E+00   0.2206317200E+00
   0.1257666788E+00   0.1661560746E+00   0.4030754423E-04  -0.2242534689E-04   0.2418452654E-03  -0.1345520813E-03   0.2324247927E+00  -0.2436142145E-01   0.6241901138E-01   0.9038030319E-02   0.0000000000E+00   0.0000000000E+00   0.2210075157E-02  -0.1128145627E-02   0.1174943941E-03   0.0000000000E+00   0.0000000000E+00   0.0000000000E+00   0.2267205848E+00
   0.6682444228E-01   0.1806313421E+00   0.1987689781E-04  -0.3635427527E-04   0.1192613869E-03  -0.2181256516E-03   0.2369280703E+00   0.1634318214E-02   0.7156871656E-01   0.2855919911E-01   0.0000000000E+00   0.0000000000E+00   0.2149671599E-02  -0.9091471785E-03   0.3712695884E-03   0.0000000000E+00   0.0000000000E+00   0.0000000000E+00   0.2150145773E+00
   0.1097903961E+00   0.1659422048E+00   0.3523215481E-04  -0.2541745577E-04   0.2113929288E-03  -0.1525047346E-03   0.2407145258E+00  -0.2168473295E-01   0.6570893786E-01   0.1618010978E-01   0.0000000000E+00   0.0000000000E+00   0.2275072643E-02  -0.1136117721E-02   0.2103414272E-03   0.0000000000E+00   0.0000000000E+00   0.0000000000E+00   0.2331170228E+00
   0.1056559393E+00   0.1803950677E+00   0.3206319219E-04  -0.2849732976E-04   0.1923791531E-03  -0.1709839786E-03   0.2369462183E+00  -0.1368289226E-01   0.6697899780E-01   0.2204877975E-01   0.0000000000E+00   0.0000000000E+00   0.2209573866E-02  -0.1048604571E-02   0.2866341367E-03   0.0000000000E+00   0.0000000000E+00   0.0000000000E+00   0.2247858804E+00
   0.2151543427E+00   0.1815878430E+00   0.6459123705E-04  -0.1363271147E-04   0.3875474223E-03  -0.8179626883E-04   0.2112622372E+00  -0.5491831635E-02   0.6173112168E-01  -0.9849000189E-02   0.0000000000E+00   0.0000000000E+00   0.1943904502E-02  -0.8738983931E-03  -0.1280370025E-03   0.0000000000E+00   0.0000000000E+00   0.0000000000E+00   0.1929281269E+00
   0.2343967774E+00   0.1797350975E+00   0.7004062385E-04  -0.1219292210E-04   0.4202437431E-03  -0.7315753262E-04   0.2065887442E+00  -0.2226528570E-02   0.6130866468E-01  -0.1118108788E-01   0.0000000000E+00   0.0000000000E+00   0.1888641033E-02  -0.8259575122E-03  -0.1453541424E-03   0.0000000000E+00   0.0000000000E+00   0.0000000000E+00   0.1864139593E+00
   0.2758153220E+00   0.1304645973E+00   0.8424885689E-04  -0.5835099803E-05   0.5054931414E-03  -0.3501059882E-04   0.1683924084E+00   0.8970089329E-02   0.5320874932E-01  -0.1460048191E-01   0.0000000000E+00   0.0000000000E+00   0.1497387568E-02  -0.5751025799E-03  -0.1898062649E-03   0.0000000000E+00   0.0000000000E+00   0.0000000000E+00   0.1447438784E+00
   0.2708917276E+00   0.1522313487E+00   0.8159894325E-04  -0.7851038284E-05   0.4895936595E-03  -0.4710622971E-04   0.1841260383E+00   0.5004695703E-02   0.5673922020E-01  -0.1336429628E-01   0.0000000000E+00   0.0000000000E+00   0.1656028635E-02  -0.6725488184E-03  -0.1737358517E-03   0.0000000000E+00   0.0000000000E+00   0.0000000000E+00   0.1613322707E+00
   0.2538213291E+00   0.1774098024E+00   0.7540215082E-04  -0.1102194319E-04   0.4524129049E-03  -0.6613165916E-04   0.2015479390E+00   0.6299340401E-03   0.6065336192E-01  -0.1130220825E-01   0.0000000000E+00   0.0000000000E+00   0.1831629503E-02  -0.7803045625E-03  -0.1469287073E-03   0.0000000000E+00   0.0000000000E+00   0.0000000000E+00   0.1797018047E+00
   0.1225307590E+00   0.5808818543E-01   0.6721500237E-04  -0.5630753255E-05   0.4032900142E-03  -0.3378451953E-04   0.8530811585E-01  -0.5097645186E-01   0.1029949920E-01  -0.5146063063E-01   0.0000000000E+00   0.0000000000E+00   0.9751120165E-03  -0.7965873638E-03  -0.6689881982E-03   0.0000000000E+00   0.0000000000E+00   0.0000000000E+00   0.1490914385E+00
   0.1104599818E+00   0.7303731255E-01   0.5982054015E-04  -0.9464207410E-05   0.3589232409E-03  -0.5678524446E-04   0.1332493373E+00  -0.4949104303E-01   0.2512748829E-01  -0.5412933304E-01   0.0000000000E+00   0.0000000000E+00   0.1405584038E-02  -0.9700409072E-03  -0.7036813296E-03   0.0000000000E+00   0.0000000000E+00   0.0000000000E+00   0.1842931258E+00
   0.1479154016E+00   0.8119405554E-01   0.6486165552E-04  -0.5879936840E-05   0.3891699331E-03  -0.3527962104E-04   0.1434673883E+00  -0.3494194731E-01   0.3255763229E-01  -0.4819566677E-01   0.0000000000E+00   0.0000000000E+00   0.1441826828E-02  -0.8774945348E-03  -0.6265436680E-03   0.0000000000E+00   0.0000000000E+00   0.0000000000E+00   0.1769718055E+00
   0.1356912986E+00   0.7046859815E-01   0.6546694114E-04  -0.5620778391E-05   0.3928016469E-03  -0.3372467035E-04   0.1221148606E+00  -0.3996306812E-01   0.2464553776E-01  -0.5365697417E-01   0.0000000000E+00   0.0000000000E+00   0.1267101198E-02  -0.8399118764E-03  -0.6975406643E-03   0.0000000000E+00   0.0000000000E+00   0.0000000000E+00   0.1687646640E+00
   0.1011837726E+00   0.1967444675E+00   0.2884451696E-04  -0.3174435952E-04   0.1730671017E-03  -0.1904661571E-03   0.2310404426E+00  -0.8544321510E-02   0.6674883633E-01   0.2416051449E-01   0.0000000000E+00   0.0000000000E+00   0.2135790882E-02  -0.9788110519E-03   0.3140866884E-03   0.0000000000E+00   0.0000000000E+00   0.0000000000E+00   0.2162872853E+00
   0.1237937020E+00   0.1821896855E+00   0.3753114979E-04  -0.2528336159E-04   0.2251868987E-03  -0.1517001696E-03   0.2330945251E+00  -0.1663527899E-01   0.6493777382E-01   0.1545040695E-01   0.0000000000E+00   0.0000000000E+00   0.2186037766E-02  -0.1060449687E-02   0.2008552904E-03   0.0000000000E+00   0.0000000000E+00   0.0000000000E+00   0.2221205122E+00
   0.1614682366E+00   0.1678338644E+00   0.5101922171E-04  -0.1713208430E-04   0.3061153302E-03  -0.1027925058E-03   0.2205698210E+00  -0.1922492530E-01   0.6040346871E-01  -0.3240936510E-02   0.0000000000E+00   0.0000000000E+00   0.2082162580E-02  -0.1035169122E-02  -0.4213217463E-04   0.0000000000E+00   0.0000000000E+00   0.0000000000E+00   0.2115810900E+00
   0.1785359430E+00   0.1697415014E+00   0.5573742188E-04  -0.1537094473E-04   0.3344245313E-03  -0.9222566840E-04   0.2151978682E+00  -0.1480911971E-01   0.6011662455E-01  -0.6879840269E-02   0.0000000000E+00   0.0000000000E+00   0.2016056168E-02  -0.9740346754E-03  -0.8943792350E-04   0.0000000000E+00   0.0000000000E+00   0.0000000000E+00   0.2035171166E+00
   0.8828389449E-01   0.1396521130E+00   0.3222987025E-04  -0.2561370782E-04   0.1933792215E-03  -0.1536822469E-03   0.2592426846E+00  -0.2070566060E-01   0.7156110721E-01   0.9956104039E-02   0.0000000000E+00   0.0000000000E+00   0.2439860507E-02  -0.1199467981E-02   0.1294293525E-03   0.0000000000E+00   0.0000000000E+00   0.0000000000E+00   0.2476400637E+00
   0.9974618432E-01   0.8886728183E-01   0.5099947492E-04  -0.1406066699E-04   0.3059968495E-03  -0.8436400192E-04   0.1886203186E+00  -0.4459026630E-01   0.4320901568E-01  -0.4463908086E-01   0.0000000000E+00   0.0000000000E+00   0.1890346938E-02  -0.1141390666E-02  -0.5803080512E-03   0.0000000000E+00   0.0000000000E+00   0.0000000000E+00   0.2162255055E+00
   0.9664048464E-01   0.1275017189E+00   0.3773003375E-04  -0.2157158389E-04   0.2263802025E-03  -0.1294295033E-03   0.2493925181E+00  -0.3262270007E-01   0.6503094540E-01  -0.2675670077E-02   0.0000000000E+00   0.0000000000E+00   0.2396700445E-02  -0.1269497391E-02  -0.3478371100E-04   0.0000000000E+00   0.0000000000E+00   0.0000000000E+00   0.2476556024E+00
   0.2510688018E+00   0.1600313585E+00   0.7617068628E-04  -0.9237352915E-05   0.4570241177E-03  -0.5542411749E-04   0.1908471325E+00   0.9881281248E-04   0.5728378359E-01  -0.1404544534E-01   0.0000000000E+00   0.0000000000E+00   0.1736323536E-02  -0.7434046201E-03  -0.1825907894E-03   0.0000000000E+00   0.0000000000E+00   0.0000000000E+00   0.1712879347E+00
   0.2599206229E+00   0.1274939943E+00   0.8104898170E-04  -0.5881389929E-05   0.4862938902E-03  -0.3528833958E-04   0.1696787931E+00   0.6916273587E-02   0.5297852001E-01  -0.1721790435E-01   0.0000000000E+00   0.0000000000E+00   0.1517103550E-02  -0.5988092035E-03  -0.2238327565E-03   0.0000000000E+00   0.0000000000E+00   0.0000000000E+00   0.1483303779E+00
   0.1965909031E+00   0.1839360602E+00   0.5911329582E-04  -0.1545454236E-04   0.3546797749E-03  -0.9272725418E-04   0.2159411410E+00  -0.8649256237E-02   0.6218756544E-01  -0.6959918712E-02   0.0000000000E+00   0.0000000000E+00   0.1998796483E-02  -0.9208786818E-03  -0.9047894326E-04   0.0000000000E+00   0.0000000000E+00   0.0000000000E+00   0.1992288037E+00
   0.2588419095E+00   0.1414545319E+00   0.7962435686E-04  -0.7167578765E-05   0.4777461412E-03  -0.4300547259E-04   0.1818997865E+00   0.6949021849E-02   0.5665464249E-01  -0.1542959685E-01   0.0000000000E+00   0.0000000000E+00   0.1628186872E-02  -0.6461730684E-03  -0.2005847590E-03   0.0000000000E+00   0.0000000000E+00   0.0000000000E+00   0.1583962590E+00
   0.2464829634E+00   0.1445878354E+00   0.7646348351E-04  -0.7822228633E-05   0.4587809011E-03  -0.4693337180E-04   0.1821734333E+00   0.1872698768E-02   0.5521383962E-01  -0.1670667058E-01   0.0000000000E+00   0.0000000000E+00   0.1650474718E-02  -0.6934348311E-03  -0.2171867176E-03   0.0000000000E+00   0.0000000000E+00   0.0000000000E+00   0.1630009378E+00
   0.1921027157E+00   0.1589014114E+00   0.6100323645E-04  -0.1259322767E-04   0.3660194187E-03  -0.7555936602E-04   0.2050096575E+00  -0.1163414659E-01   0.5801265329E-01  -0.1313902798E-01   0.0000000000E+00   0.0000000000E+00   0.1910961055E-02  -0.9054083984E-03  -0.1708073637E-03   0.0000000000E+00   0.0000000000E+00   0.0000000000E+00   0.1929070897E+00
   0.1949284131E+00   0.1696939527E+00   0.6038872182E-04  -0.1373590286E-04   0.3623323309E-03  -0.8241541713E-04   0.2091889798E+00  -0.1142499956E-01   0.5932919407E-01  -0.1021846813E-01   0.0000000000E+00   0.0000000000E+00   0.1948177214E-02  -0.9198045172E-03  -0.1328400857E-03   0.0000000000E+00   0.0000000000E+00   0.0000000000E+00   0.1959069740E+00
   0.1801795668E+00   0.1552037316E+00   0.5822953609E-04  -0.1319148248E-04   0.3493772165E-03  -0.7914889488E-04   0.2085082459E+00  -0.1635751850E-01   0.5764521821E-01  -0.1194884279E-01   0.0000000000E+00   0.0000000000E+00   0.1961219360E-02  -0.9620355773E-03  -0.1553349563E-03   0.0000000000E+00   0.0000000000E+00   0.0000000000E+00   0.1994962765E+00
   0.1012254645E+00   0.1483976974E+00   0.3507292333E-04  -0.2425723160E-04   0.2104375400E-03  -0.1455433896E-03   0.2462987111E+00  -0.2602183550E-01   0.6608306269E-01   0.1098522722E-01   0.0000000000E+00   0.0000000000E+00   0.2342803430E-02  -0.1197363677E-02   0.1428079538E-03   0.0000000000E+00   0.0000000000E+00   0.0000000000E+00   0.2406202544E+00
   0.2009112913E+00   0.7795834063E-01   0.7530519088E-04  -0.3166109539E-05   0.4518311453E-03  -0.1899665724E-04   0.1308676037E+00  -0.1453208008E-02   0.3882431870E-01  -0.3488135423E-01   0.0000000000E+00   0.0000000000E+00   0.1196562705E-02  -0.5236078472E-03  -0.4534576049E-03   0.0000000000E+00   0.0000000000E+00   0.0000000000E+00   0.1320451206E+00
   0.2118537494E+00   0.1146279787E+00   0.7206719307E-04  -0.6112763399E-05   0.4324031584E-03  -0.3667658039E-04   0.1663512397E+00  -0.5788863748E-02   0.4816871280E-01  -0.2673046602E-01   0.0000000000E+00   0.0000000000E+00   0.1536372850E-02  -0.7014484951E-03  -0.3474960582E-03   0.0000000000E+00   0.0000000000E+00   0.0000000000E+00   0.1593190955E+00
   0.2070929231E+00   0.9686332271E-01   0.7361344777E-04  -0.4581998317E-05   0.4416806866E-03  -0.2749198990E-04   0.1506020828E+00  -0.4930237168E-02   0.4370155370E-01  -0.3146767256E-01   0.0000000000E+00   0.0000000000E+00   0.1389706879E-02  -0.6322132813E-03  -0.4090797432E-03   0.0000000000E+00   0.0000000000E+00   0.0000000000E+00   0.1481153542E+00
   0.9021957130E-01   0.1038666566E+00   0.4247775646E-04  -0.1884291655E-04   0.2548665388E-03  -0.1130574993E-03   0.2410723828E+00  -0.2865356102E-01   0.6372564654E-01  -0.2794920637E-01   0.0000000000E+00   0.0000000000E+00   0.2305507571E-02  -0.1200929698E-02  -0.3633396828E-03   0.0000000000E+00   0.0000000000E+00   0.0000000000E+00   0.2401798569E+00
   0.1248905783E+00   0.8332685504E-01   0.5925404604E-04  -0.8619079452E-05   0.3555242762E-03  -0.5171447671E-04   0.1549171291E+00  -0.4780165733E-01   0.3213464153E-01  -0.4984607056E-01   0.0000000000E+00   0.0000000000E+00   0.1596172338E-02  -0.1039171885E-02  -0.6479989173E-03   0.0000000000E+00   0.0000000000E+00   0.0000000000E+00   0.1965089095E+00
   0.1090691985E+00   0.1150752164E+00   0.4498549426E-04  -0.1663280581E-04   0.2699129656E-03  -0.9979683487E-04   0.2256614103E+00  -0.4144111313E-01   0.5526608913E-01  -0.2140015788E-01   0.0000000000E+00   0.0000000000E+00   0.2215139175E-02  -0.1257193630E-02  -0.2782020525E-03   0.0000000000E+00   0.0000000000E+00   0.0000000000E+00   0.2375036231E+00
   0.2443597569E+00   0.1279455988E+00   0.7761527264E-04  -0.6299315114E-05   0.4656916358E-03  -0.3779589068E-04   0.1705817111E+00   0.2845148388E-02   0.5202805784E-01  -0.1981397352E-01   0.0000000000E+00   0.0000000000E+00   0.1541197492E-02  -0.6393778229E-03  -0.2575816558E-03   0.0000000000E+00   0.0000000000E+00   0.0000000000E+00   0.1532089260E+00
   0.1993324190E+00   0.1516639824E+00   0.6390942272E-04  -0.1108737186E-04   0.3834565363E-03  -0.6652423117E-04   0.1980237426E+00  -0.1232461640E-01   0.5570973786E-01  -0.1597408779E-01   0.0000000000E+00   0.0000000000E+00   0.1850082062E-02  -0.8844466054E-03  -0.2076631413E-03   0.0000000000E+00   0.0000000000E+00   0.0000000000E+00   0.1879286489E+00
   0.2058359112E+00   0.1443676319E+00   0.6657660111E-04  -0.9735160343E-05   0.3994596066E-03  -0.5841096206E-04   0.1912525580E+00  -0.1132313749E-01   0.5397882615E-01  -0.1871085666E-01   0.0000000000E+00   0.0000000000E+00   0.1784558514E-02  -0.8489255272E-03  -0.2432411366E-03   0.0000000000E+00   0.0000000000E+00   0.0000000000E+00   0.1819983490E+00
   0.1928832374E+00   0.1007821711E+00   0.7008648365E-04  -0.5492129963E-05   0.4205189019E-03  -0.3295277978E-04   0.1574946933E+00  -0.1224954837E-01   0.4357354348E-01  -0.3310353935E-01   0.0000000000E+00   0.0000000000E+00   0.1480974948E-02  -0.7257001941E-03  -0.4303460115E-03   0.0000000000E+00   0.0000000000E+00   0.0000000000E+00   0.1603199609E+00
   0.1420624058E+00   0.1241234755E+00   0.5287711363E-04  -0.1287893470E-04   0.3172626818E-03  -0.7727360817E-04   0.2069662966E+00  -0.3667878916E-01   0.5108625224E-01  -0.2175121994E-01   0.0000000000E+00   0.0000000000E+00   0.2026440577E-02  -0.1140945538E-02  -0.2827658592E-03   0.0000000000E+00   0.0000000000E+00   0.0000000000E+00   0.2169838182E+00
   0.1462643282E+00   0.1118164464E+00   0.5680516558E-04  -0.1039737675E-04   0.3408309935E-03  -0.6238426051E-04   0.1919377384E+00  -0.3717941211E-01   0.4642749787E-01  -0.3164176633E-01   0.0000000000E+00   0.0000000000E+00   0.1891633126E-02  -0.1086889830E-02  -0.4113429623E-03   0.0000000000E+00   0.0000000000E+00   0.0000000000E+00   0.2080413857E+00
   0.1590134597E+00   0.1175993941E+00   0.5894609992E-04  -0.9932122033E-05   0.3536765995E-03  -0.5959273220E-04   0.1900475405E+00  -0.3094115973E-01   0.4773191424E-01  -0.2887370517E-01   0.0000000000E+00   0.0000000000E+00   0.1850103142E-02  -0.1022749962E-02  -0.3753581671E-03   0.0000000000E+00   0.0000000000E+00   0.0000000000E+00   0.2003864638E+00
   0.1544794131E+00   0.1312901045E+00   0.5499144681E-04  -0.1247492150E-04   0.3299486808E-03  -0.7484952901E-04   0.2029299146E+00  -0.3243088634E-01   0.5114970847E-01  -0.2079104366E-01   0.0000000000E+00   0.0000000000E+00   0.1973142679E-02  -0.1086547732E-02  -0.2702835675E-03   0.0000000000E+00   0.0000000000E+00   0.0000000000E+00   0.2094691667E+00
   0.1641445398E+00   0.1518785385E+00   0.5418826213E-04  -0.1444307832E-04   0.3251295728E-03  -0.8665846990E-04   0.2128476790E+00  -0.2141263167E-01   0.5743051421E-01  -0.1054862773E-01   0.0000000000E+00   0.0000000000E+00   0.2020423143E-02  -0.1024960896E-02  -0.1371321605E-03   0.0000000000E+00   0.0000000000E+00   0.0000000000E+00   0.2071620890E+00
   0.1116552693E+00   0.1547857103E+00   0.3751218567E-04  -0.2321981897E-04   0.2250731140E-03  -0.1393189138E-03   0.2436078386E+00  -0.2315947488E-01   0.6613450913E-01   0.1152580005E-01   0.0000000000E+00   0.0000000000E+00   0.2307153284E-02  -0.1160821792E-02   0.1498354006E-03   0.0000000000E+00   0.0000000000E+00   0.0000000000E+00   0.2358780787E+00
   0.1376047171E+00   0.1346370056E+00   0.4939144433E-04  -0.1526834020E-04   0.2963486660E-03  -0.9161004122E-04   0.2262546441E+00  -0.3131995972E-01   0.5848040532E-01  -0.1214336442E-01   0.0000000000E+00   0.0000000000E+00   0.2181065104E-02  -0.1167404746E-02  -0.1578637375E-03   0.0000000000E+00   0.0000000000E+00   0.0000000000E+00   0.2272072001E+00
   0.1809583237E+00   0.1056080194E+00   0.6662424212E-04  -0.6643374937E-05   0.3997454527E-03  -0.3986024962E-04   0.1645435490E+00  -0.2101427261E-01   0.4305878291E-01  -0.3444946501E-01   0.0000000000E+00   0.0000000000E+00   0.1579301959E-02  -0.8329497218E-03  -0.4478430452E-03   0.0000000000E+00   0.0000000000E+00   0.0000000000E+00   0.1737424246E+00
   0.1513968937E+00   0.9997985859E-01   0.6090653366E-04  -0.8106772622E-05   0.3654392019E-03  -0.4864063573E-04   0.1706691970E+00  -0.3453547740E-01   0.4084011587E-01  -0.3904202780E-01   0.0000000000E+00   0.0000000000E+00   0.1687778054E-02  -0.9798827125E-03  -0.5075463613E-03   0.0000000000E+00   0.0000000000E+00   0.0000000000E+00   0.1919580175E+00
   0.1385193994E+00   0.9233934612E-01   0.5975906191E-04  -0.8300754298E-05   0.3585543715E-03  -0.4980452579E-04   0.1676633058E+00  -0.4167758200E-01   0.3779571713E-01  -0.4465736749E-01   0.0000000000E+00   0.0000000000E+00   0.1688278652E-02  -0.1033152889E-02  -0.5805457774E-03   0.0000000000E+00   0.0000000000E+00   0.0000000000E+00   0.1984771024E+00
   0.1562106634E+00   0.9050071189E-01   0.6427763313E-04  -0.6465044649E-05   0.3856657988E-03  -0.3879026790E-04   0.1519652364E+00  -0.3551583883E-01   0.3493481926E-01  -0.4613604669E-01   0.0000000000E+00   0.0000000000E+00   0.1521395422E-02  -0.9158585551E-03  -0.5997686070E-03   0.0000000000E+00   0.0000000000E+00   0.0000000000E+00   0.1822255917E+00
   0.1276056603E+00   0.1184721776E+00   0.4989733071E-04  -0.1402033992E-04   0.2993839843E-03  -0.8412203954E-04   0.2173805327E+00  -0.4023640409E-01   0.5314323859E-01  -0.2292510932E-01   0.0000000000E+00   0.0000000000E+00   0.2135084824E-02  -0.1213935355E-02  -0.2980264212E-03   0.0000000000E+00   0.0000000000E+00   0.0000000000E+00   0.2291198626E+00
   0.1262625808E+00   0.1330196531E+00   0.4616668466E-04  -0.1678555818E-04   0.2770001080E-03  -0.1007133491E-03   0.2245842201E+00  -0.3674569060E-01   0.5635155886E-01  -0.1114973159E-01   0.0000000000E+00   0.0000000000E+00   0.2187024597E-02  -0.1210264243E-02  -0.1449465107E-03   0.0000000000E+00   0.0000000000E+00   0.0000000000E+00   0.2302401054E+00
   0.1147410469E+00   0.1295900360E+00   0.4327255450E-04  -0.1823027997E-04   0.2596353270E-03  -0.1093816798E-03   0.2284836340E+00  -0.4266129830E-01   0.5574670070E-01  -0.9558043988E-02   0.0000000000E+00   0.0000000000E+00   0.2245580132E-02  -0.1279303987E-02  -0.1242545718E-03   0.0000000000E+00   0.0000000000E+00   0.0000000000E+00   0.2378924719E+00
   0.2294948048E+00   0.1294422673E+00   0.7412825571E-04  -0.6917238165E-05   0.4447695343E-03  -0.4150342899E-04   0.1745039368E+00  -0.1414753514E-02   0.5192675498E-01  -0.2123704162E-01   0.0000000000E+00   0.0000000000E+00   0.1593503363E-02  -0.6934396104E-03  -0.2760815411E-03   0.0000000000E+00   0.0000000000E+00   0.0000000000E+00   0.1604756760E+00
   0.2015999759E+00   0.1331768186E+00   0.6707083804E-04  -0.8646911476E-05   0.4024250282E-03  -0.5188146885E-04   0.1853366623E+00  -0.1072493635E-01   0.5238351778E-01  -0.2203193148E-01   0.0000000000E+00   0.0000000000E+00   0.1728390879E-02  -0.8204099037E-03  -0.2864151092E-03   0.0000000000E+00   0.0000000000E+00   0.0000000000E+00   0.1774669954E+00
   0.1979962910E+00   0.1180596645E+00   0.6844356555E-04  -0.7115359001E-05   0.4106613933E-03  -0.4269215401E-04   0.1737043229E+00  -0.1205897050E-01   0.4849360571E-01  -0.2732065691E-01   0.0000000000E+00   0.0000000000E+00   0.1627739323E-02  -0.7871834907E-03  -0.3551685398E-03   0.0000000000E+00   0.0000000000E+00   0.0000000000E+00   0.1707431698E+00
   0.2154008911E+00   0.1311047787E+00   0.7066372763E-04  -0.7683186389E-05   0.4239823658E-03  -0.4609911833E-04   0.1783809083E+00  -0.6585883201E-02   0.5153850752E-01  -0.2229239043E-01   0.0000000000E+00   0.0000000000E+00   0.1648951210E-02  -0.7556170794E-03  -0.2898010755E-03   0.0000000000E+00   0.0000000000E+00   0.0000000000E+00   0.1682962275E+00
   0.1088665218E+00   0.1383680728E+00   0.3948411807E-04  -0.2093359380E-04   0.2369047084E-03  -0.1256015628E-03   0.2422104175E+00  -0.3326117637E-01   0.6268477234E-01  -0.1262059954E-03   0.0000000000E+00   0.0000000000E+00   0.2333833387E-02  -0.1247297333E-02  -0.1640677940E-05   0.0000000000E+00   0.0000000000E+00   0.0000000000E+00   0.2420715241E+00
   0.1691479877E+00   0.1364124208E+00   0.5814066663E-04  -0.1163860653E-04   0.3488439998E-03  -0.6983163920E-04   0.2003899072E+00  -0.2563147685E-01   0.5242752911E-01  -0.1934640885E-01   0.0000000000E+00   0.0000000000E+00   0.1923510915E-02  -0.1014767077E-02  -0.2515033151E-03   0.0000000000E+00   0.0000000000E+00   0.0000000000E+00   0.2015736141E+00
   0.1867324793E+00   0.1395525253E+00   0.6234332283E-04  -0.1047667495E-04   0.3740599370E-03  -0.6286004970E-04   0.1945723519E+00  -0.1759598775E-01   0.5309290923E-01  -0.1961365102E-01   0.0000000000E+00   0.0000000000E+00   0.1839232754E-02  -0.9189556607E-03  -0.2549774633E-03   0.0000000000E+00   0.0000000000E+00   0.0000000000E+00   0.1901289877E+00
   0.1630807366E+00   0.1046509168E+00   0.6269980322E-04  -0.7753604266E-05   0.3761988193E-03  -0.4652162559E-04   0.1764543331E+00  -0.2688305459E-01   0.4487138355E-01  -0.3460812578E-01   0.0000000000E+00   0.0000000000E+00   0.1710578344E-02  -0.9328076958E-03  -0.4499056351E-03   0.0000000000E+00   0.0000000000E+00   0.0000000000E+00   0.1881250527E+00
   0.1848341338E+00   0.1214076187E+00   0.6476196547E-04  -0.8315181976E-05   0.3885717928E-03  -0.4989109185E-04   0.1809625130E+00  -0.1798119393E-01   0.4889439572E-01  -0.2668419799E-01   0.0000000000E+00   0.0000000000E+00   0.1716885525E-02  -0.8693826655E-03  -0.3468945739E-03   0.0000000000E+00   0.0000000000E+00   0.0000000000E+00   0.1812268178E+00
   0.1719745232E+00   0.1217480253E+00   0.6150317536E-04  -0.9326672378E-05   0.3690190521E-03  -0.5596003427E-04   0.1858315647E+00  -0.2505090325E-01   0.4823419842E-01  -0.2690227810E-01   0.0000000000E+00   0.0000000000E+00   0.1788765761E-02  -0.9527063218E-03  -0.3497296153E-03   0.0000000000E+00   0.0000000000E+00   0.0000000000E+00   0.1911165875E+00
   0.1159746004E+00   0.9805796990E-01   0.5218848362E-04  -0.1238612799E-04   0.3131309017E-03  -0.7431676795E-04   0.1923092954E+00  -0.4823578046E-01   0.4322205447E-01  -0.3963296380E-01   0.0000000000E+00   0.0000000000E+00   0.1938134132E-02  -0.1188951854E-02  -0.5152285294E-03   0.0000000000E+00   0.0000000000E+00   0.0000000000E+00   0.2210271680E+00
   0.1318009832E+00   0.1052369083E+00   0.5448988158E-04  -0.1114638387E-04   0.3269392895E-03  -0.6687830321E-04   0.1947587820E+00  -0.4334685598E-01   0.4542357780E-01  -0.3476596709E-01   0.0000000000E+00   0.0000000000E+00   0.1941357654E-02  -0.1154015639E-02  -0.4519575721E-03   0.0000000000E+00   0.0000000000E+00   0.0000000000E+00   0.2165964452E+00
   0.1722921255E+00   0.1102875950E+00   0.6374678220E-04  -0.7800280448E-05   0.3824806932E-03  -0.4680168269E-04   0.1698005383E+00  -0.2598678288E-01   0.4314412662E-01  -0.3305521214E-01   0.0000000000E+00   0.0000000000E+00   0.1646533352E-02  -0.8987018235E-03  -0.4297177579E-03   0.0000000000E+00   0.0000000000E+00   0.0000000000E+00   0.1812135787E+00
           1           2           3           4
           5           6           7           8
           9          10          11          12
          13          14          15          16
          17          18          19          20
          21          22          23          24
          25          26          27          28
          29          30          31          32
          33          34           4           3
           2           1          35          36
          37          38          39          40
          41          42          36          35
          43          41          44          45
          46           9          47          48
          41          35          39          44
          49          50          51          52
          52          51          53          54
          55          56          57          58
          56          59          60          57
          61          62          63          64
          65          66          67          68
          69          70          71          72
          73          74          25          28
          27          75          76          28
          77          78          24          23
          79          80          81          82
          83          84          85          86
          87          88          89          90
          90          89          62          91
          61          92          91          62
          92          61          59          93
          56          94          93          59
          95          55          54          53
          46          96          10           9
          97          98          99         100
          12         101          98          97
          97         100         102          47
         103         104          31          30
         105         103          30         106
          73         107         108         109
         110         111         112         113
          32          31         114         115
         116         117         118         119
         120         121         122         123
         121          83          86         122
          80         124         125          81
         126         127         128         129
         130         101          12          11
         131          43         101         130
          34         129         132           4
          42          41          43         131
          35           1          40          39
         101          43          45          98
         133         134         109         108
         135         136          13          16
         137         138          65          68
          94          56          55          95
          58         137          54          55
          49          52          68          67
         139         140         141         142
         140         139          82          81
          88          87         142         141
         143         144         145         146
         147          26          25         148
         149         150         128         151
           5           8         152         102
         132         129         128         150
         153         100          99         154
          48          47         102         152
          59          61          64          60
         106         155         113         118
          62          89         156          63
          88         157         156          89
         123         116         119         120
          66          65         134         133
         144         143          84          83
           9          12          97          47
         104         158         114          31
         159         160         127         126
         119         112         161         120
         117         105         106         118
         162         163         164         165
          83         121         166         144
         167         168         141         140
         167         143         146         168
           6         114         158           7
          38          37         169         170
          40         132         150          37
         160         159          20          19
          78         171         172          24
          18          17          21          24
         173         174          78          77
         132          40           1           4
          28          76         107          73
         175         176         177         178
         176         179          57          60
         137          68          52          54
          60          64         177         176
         163         162         155          29
          75          27         174         173
         180         174          27          26
          64          63         181         177
          98          45         182          99
         183         182          45          44
          38         183          44          39
          58          57         179         184
         185         181          63         156
         134         186         187         109
         188          74         187         189
         138         186         134          65
          88         141         168         157
         166         121         120         161
         190         191         166         161
         155         106          30          29
         192         193         194         195
         118         113         112         119
         125          84         143         167
         124          85          84         125
           6         196         115         114
         196           6           5         153
         197          32         115         198
         111         190         161         112
         199         148         188         135
         170         169         200         201
         202         164         163         197
         203         204         146         145
         205         206         201         200
         187          74          73         109
         176         175         207         179
         208         209          16          15
         210         186         138         184
         184         138         137          58
         179         207         210         184
         211         212         172         171
          78         174         180         171
         125         167         140          81
          37         150         149         169
         213         214         215         216
         217         182         183         201
         170         201         183          38
         218         219         206         205
         111         220         221         190
         157         168         146         204
         177         181         222         178
         222         181         185         223
         186         210         189         187
         224         191         190         221
         100         153           5         102
         185         156         157         204
         113         155         162         110
          26         147         193         180
          29          32         197         163
         225         226          19          18
         144         166         191         145
         212         192         227         228
         198         115         196         229
         206         154         217         201
         153         154         229         196
         172         225          18          24
         148          25          74         188
          14          13         175         178
         207         175          13         136
         189         136         135         188
         230         202         197         198
         210         207         136         189
         165         164         231         232
         169         149         233         200
         234         160          19         226
         217         154          99         182
         203         145         191         224
         151         235         233         149
         236         223         203         224
         185         204         203         223
         178         222         237          14
         110         162         165         238
         239         223         236         240
         238         220         111         110
         219         230         198         229
         241         242         232         243
         242          69         220         238
          72          71         240         236
         244         205         200         233
         215         231         164         202
         211         171         180         193
         228         225         172         212
         194         193         147         245
         245         147         148         199
         135          16         209         199
         209         208         246         247
         127         160         234         248
         193         192         212         211
         226         225         228         249
         151         128         127         248
         248         250         235         151
          72         221         220          69
          14         237         251          15
          70          69         252         253
         206         219         229         154
         238         165         232         242
          72         236         224         221
         216         215         202         230
         245         247         254         194
         255         256         257         258
         230         219         218         216
         214         259         231         215
         216         218         260         213
         261         255         258         214
         239         237         222         223
         194         254         262         195
         263         264         227         265
         250         266         267         268
         199         209         247         245
         240          71         269         251
         270         271         246         272
         260         244         273         213
         237         239         240         251
         218         205         244         260
          70         272         269          71
         232         231         259         243
         274         275         243         259
         257         256         263         276
         277         275         274         278
         234         226         249         279
         271         277         262         254
         271         254         247         246
         246         208         269         272
         244         233         235         273
         251         269         208          15
         275         270         253         252
         234         279         250         248
         279         249         264         280
         259         214         258         274
         262         281         276         195
         195         276         263         265
         257         276         281         278
         278         274         258         257
         266         280         256         255
         261         214         213         267
         267         266         255         261
         266         250         279         280
         228         227         264         249
         256         280         264         263
         265         227         192         195
         281         262         277         278
         235         250         268         273
         273         268         267         213
         277         271         270         275
         253         270         272          70
         252          69         242         241
         243         275         252         241
 VARIABLES = X,Y,DU1,DU2,U1,U2,S11,S22,S33,S12,S13,S23,E11,E22,E12,E33,E13,E23,SMISES
 ZONE, T="0.8000D+01" F=FEPOINT, I=  281 J=  250
   0.1781097757E-01   0.1339270664E+00   0.6995108697E-05  -0.3884119502E-04   0.4896576088E-04  -0.2718883651E-03   0.3794415502E+00   0.7275919403E-01   0.1356602233E+00   0.5804981829E-02   0.0000000000E+00   0.0000000000E+00   0.3169157250E-02  -0.8177133801E-03   0.7546476377E-04   0.0000000000E+00   0.0000000000E+00   0.0000000000E+00   0.2791584666E+00
   0.0000000000E+00   0.1330161723E+00   0.0000000000E+00  -0.3964596163E-04   0.0000000000E+00  -0.2775217314E-03   0.3818347381E+00   0.7585043070E-01   0.1373055506E+00   0.9808380664E-02   0.0000000000E+00   0.0000000000E+00   0.3178879437E-02  -0.7989165591E-03   0.1275089486E-03   0.0000000000E+00   0.0000000000E+00   0.0000000000E+00   0.2809368617E+00
   0.0000000000E+00   0.1163672722E+00   0.0000000000E+00  -0.3742435212E-04   0.0000000000E+00  -0.2619704649E-03   0.4786347965E+00   0.3199759280E-01   0.1531897168E+00   0.7803286532E-02   0.0000000000E+00   0.0000000000E+00   0.4230786036E-02  -0.1575497612E-02   0.1014427249E-03   0.0000000000E+00   0.0000000000E+00   0.0000000000E+00   0.3990365184E+00
   0.1923277366E-01   0.1159998246E+00   0.9829582524E-05  -0.3642042832E-04   0.6880707767E-04  -0.2549429983E-03   0.4372961125E+00   0.3071901280E-01   0.1404045376E+00  -0.3889442680E-01   0.0000000000E+00   0.0000000000E+00   0.3859590474E-02  -0.1425911822E-02  -0.5056275483E-03   0.0000000000E+00   0.0000000000E+00   0.0000000000E+00   0.3722287453E+00
   0.7814949069E-01   0.2315522909E+00   0.1849893641E-04  -0.4051400749E-04   0.1294925548E-03  -0.2835980524E-03   0.2327126008E+00   0.1211482495E-03   0.6985012470E-01   0.1612033133E-01   0.0000000000E+00   0.0000000000E+00   0.2117212189E-02  -0.9064766939E-03   0.2095643072E-03   0.0000000000E+00   0.0000000000E+00   0.0000000000E+00   0.2087137708E+00
   0.9796892167E-01   0.2317598800E+00   0.2386522070E-04  -0.3692275069E-04   0.1670565449E-03  -0.2584592549E-03   0.2459703864E+00  -0.1202148829E-02   0.7343047127E-01   0.1468291044E-01   0.0000000000E+00   0.0000000000E+00   0.2243018897E-02  -0.9702240613E-03   0.1908778357E-03   0.0000000000E+00   0.0000000000E+00   0.0000000000E+00   0.2211317096E+00
   0.9738987362E-01   0.2496866806E+00   0.2095621536E-04  -0.3916492128E-04   0.1466935075E-03  -0.2741544489E-03   0.2399292747E+00  -0.1220986124E-02   0.7161248656E-01   0.5044321277E-02   0.0000000000E+00   0.0000000000E+00   0.2188118245E-02  -0.9468351449E-03   0.6557617660E-04   0.0000000000E+00   0.0000000000E+00   0.0000000000E+00   0.2141658778E+00
   0.7790484468E-01   0.2496596448E+00   0.1588301032E-04  -0.4254439680E-04   0.1111810722E-03  -0.2978107776E-03   0.2171328135E+00  -0.2172113620E-02   0.6448820996E-01   0.5604002212E-02   0.0000000000E+00   0.0000000000E+00   0.1984379846E-02  -0.8665842065E-03   0.7285202876E-04   0.0000000000E+00   0.0000000000E+00   0.0000000000E+00   0.1946980283E+00
   0.1913168585E-01   0.2329370934E+00   0.4186906655E-05  -0.4821695311E-04   0.2930834659E-04  -0.3375186718E-03   0.1971967733E+00   0.5508268617E-02   0.6081151257E-01   0.4649028589E-02   0.0000000000E+00   0.0000000000E+00   0.1773008389E-02  -0.7189421713E-03   0.6043737166E-04   0.0000000000E+00   0.0000000000E+00   0.0000000000E+00   0.1714033443E+00
   0.0000000000E+00   0.2329431253E+00   0.0000000000E+00  -0.4877609362E-04   0.0000000000E+00  -0.3414326554E-03   0.1940104710E+00   0.5849361321E-02   0.5995794968E-01   0.5237195722E-02   0.0000000000E+00   0.0000000000E+00   0.1742682777E-02  -0.7034116487E-03   0.6808354438E-04   0.0000000000E+00   0.0000000000E+00   0.0000000000E+00   0.1679671036E+00
   0.0000000000E+00   0.2162888439E+00   0.0000000000E+00  -0.4722813783E-04   0.0000000000E+00  -0.3305969648E-03   0.2204538643E+00   0.1122539855E-01   0.6950377885E-01   0.5364692613E-02   0.0000000000E+00   0.0000000000E+00   0.1962351111E-02  -0.7576189438E-03   0.6974100397E-04   0.0000000000E+00   0.0000000000E+00   0.0000000000E+00   0.1871147525E+00
   0.1856881756E-01   0.2164011443E+00   0.4565344514E-05  -0.4668358177E-04   0.3195741160E-04  -0.3267850724E-03   0.2226381295E+00   0.1036420657E-01   0.6990070083E-01   0.9116129592E-02   0.0000000000E+00   0.0000000000E+00   0.1985586573E-02  -0.7739744254E-03   0.1185096847E-03   0.0000000000E+00   0.0000000000E+00   0.0000000000E+00   0.1905935790E+00
   0.2578744461E+00   0.9224790178E-01   0.8362000731E-04  -0.3296152572E-05   0.5853400511E-03  -0.2307306801E-04   0.1640319933E+00   0.1542163452E-01   0.5383608833E-01  -0.2237132348E-01   0.0000000000E+00   0.0000000000E+00   0.1432546764E-02  -0.4993878996E-03  -0.2908272053E-03   0.0000000000E+00   0.0000000000E+00   0.0000000000E+00   0.1390795504E+00
   0.2592602064E+00   0.1102498300E+00   0.8236604865E-04  -0.4512505276E-05   0.5765623406E-03  -0.3158753693E-04   0.1791326243E+00   0.1142173870E-01   0.5716630889E-01  -0.2150876882E-01   0.0000000000E+00   0.0000000000E+00   0.1585562100E-02  -0.5946794126E-03  -0.2796139947E-03   0.0000000000E+00   0.0000000000E+00   0.0000000000E+00   0.1546731163E+00
   0.2424873336E+00   0.1106378767E+00   0.7897520231E-04  -0.4849041415E-05   0.5528264162E-03  -0.3394328991E-04   0.1808871582E+00   0.6187639843E-02   0.5612243940E-01  -0.2531648771E-01   0.0000000000E+00   0.0000000000E+00   0.1621941344E-02  -0.6491523943E-03  -0.3291143403E-03   0.0000000000E+00   0.0000000000E+00   0.0000000000E+00   0.1618699631E+00
   0.2400230411E+00   0.9265300034E-01   0.8036313396E-04  -0.3539770277E-05   0.5625419377E-03  -0.2477839194E-04   0.1645160446E+00   0.9925806626E-02   0.5233255536E-01  -0.2722247545E-01   0.0000000000E+00   0.0000000000E+00   0.1458385360E-02  -0.5512877335E-03  -0.3538921808E-03   0.0000000000E+00   0.0000000000E+00   0.0000000000E+00   0.1461180921E+00
   0.9295685282E-01   0.3818288441E-01   0.7111261511E-04  -0.1068227345E-04   0.4977883058E-03  -0.7477591417E-04  -0.2805213942E-01  -0.1440285881E+00  -0.5162421826E-01   0.2006485031E-01   0.0000000000E+00   0.0000000000E+00   0.3064370248E-03  -0.1201256808E-02   0.2608430541E-03   0.0000000000E+00   0.0000000000E+00   0.0000000000E+00   0.1030272844E+00
   0.1086040002E+00   0.4604458982E-01   0.6964251905E-04  -0.6743959537E-05   0.4874976333E-03  -0.4720771676E-04   0.4964976189E-01  -0.5893732133E-01  -0.2786267832E-02  -0.2991297013E-01   0.0000000000E+00   0.0000000000E+00   0.6816683864E-03  -0.7299636955E-03  -0.3888686116E-03   0.0000000000E+00   0.0000000000E+00   0.0000000000E+00   0.1025251573E+00
   0.9660332384E-01   0.6344897478E-01   0.6152843021E-04  -0.1165248961E-04   0.4306990115E-03  -0.8156742727E-04   0.9353346019E-01  -0.3600555941E-01   0.1725837023E-01  -0.4453230952E-01   0.0000000000E+00   0.0000000000E+00   0.9915761695E-03  -0.6924310854E-03  -0.5789200237E-03   0.0000000000E+00   0.0000000000E+00   0.0000000000E+00   0.1372073771E+00
   0.8366146138E-01   0.5542778039E-01   0.6431273462E-04  -0.1615541316E-04   0.4501891423E-03  -0.1130878921E-03   0.2515010789E-01  -0.3217314129E-01  -0.2106910021E-02  -0.1438258618E-01   0.0000000000E+00   0.0000000000E+00   0.3543412328E-03  -0.3908610065E-03  -0.1869736204E-03   0.0000000000E+00   0.0000000000E+00   0.0000000000E+00   0.5588247934E-01
   0.9867860738E-01   0.1946691591E-01   0.7501009803E-04  -0.5264561245E-05   0.5250706862E-03  -0.3685192871E-04  -0.2951862598E-01  -0.2247534452E+00  -0.7628162134E-01   0.2804496044E-01   0.0000000000E+00   0.0000000000E+00   0.6079189397E-03  -0.1930133710E-02   0.3645844857E-03   0.0000000000E+00   0.0000000000E+00   0.0000000000E+00   0.1739391987E+00
   0.1006135265E+00   0.0000000000E+00   0.7669068531E-04   0.0000000000E+00   0.5368347972E-03   0.0000000000E+00  -0.4020614698E-01  -0.2434359540E+00  -0.8509263030E-01  -0.1531200066E-01   0.0000000000E+00   0.0000000000E+00   0.5835242832E-03  -0.2058463208E-02  -0.1990560086E-03   0.0000000000E+00   0.0000000000E+00   0.0000000000E+00   0.1858162839E+00
   0.1214585447E+00   0.0000000000E+00   0.7815183898E-04   0.0000000000E+00   0.5470628729E-03   0.0000000000E+00   0.6021125038E-02  -0.7702277244E-01  -0.2130049422E-01  -0.1643282380E-01   0.0000000000E+00   0.0000000000E+00   0.3551810503E-03  -0.7243896168E-03  -0.2136267094E-03   0.0000000000E+00   0.0000000000E+00   0.0000000000E+00   0.7750199995E-01
   0.1223375394E+00   0.2609285636E-01   0.7583442070E-04  -0.2431542051E-05   0.5308409449E-03  -0.1702079436E-04   0.2359130579E-01  -0.7438854734E-01  -0.1523917246E-01  -0.1972223180E-01   0.0000000000E+00   0.0000000000E+00   0.5047962173E-03  -0.7689418733E-03  -0.2563890133E-03   0.0000000000E+00   0.0000000000E+00   0.0000000000E+00   0.9744199078E-01
   0.2111966984E+00   0.3762581964E-01   0.8156992776E-04  -0.9266450683E-06   0.5709894943E-03  -0.6486515478E-05   0.1068455041E+00   0.1621940104E-01   0.3691947153E-01  -0.2483893668E-01   0.0000000000E+00   0.0000000000E+00   0.9090384230E-03  -0.2691009164E-03  -0.3229061768E-03   0.0000000000E+00   0.0000000000E+00   0.0000000000E+00   0.9251769954E-01
   0.1910922478E+00   0.3837418763E-01   0.7929222066E-04  -0.1039095662E-05   0.5550455446E-03  -0.7273669631E-05   0.9649756647E-01   0.6106972314E-02   0.3078136164E-01  -0.3196790053E-01   0.0000000000E+00   0.0000000000E+00   0.8543106629E-03  -0.3207670612E-03  -0.4155827069E-03   0.0000000000E+00   0.0000000000E+00   0.0000000000E+00   0.9761709172E-01
   0.1873529013E+00   0.1900938315E-01   0.8059366394E-04  -0.4421810457E-06   0.5641556476E-03  -0.3095267320E-05   0.7627959541E-01   0.9917690868E-02   0.2585918588E-01  -0.1577908250E-01   0.0000000000E+00   0.0000000000E+00   0.6554653238E-03  -0.2072394352E-03  -0.2051280725E-03   0.0000000000E+00   0.0000000000E+00   0.0000000000E+00   0.6660485901E-01
   0.2078918275E+00   0.1873484638E-01   0.8244318411E-04  -0.3971898792E-06   0.5771022888E-03  -0.2780329155E-05   0.9282418907E-01   0.1886449479E-01   0.3350660516E-01  -0.1244371370E-01   0.0000000000E+00   0.0000000000E+00   0.7711285908E-03  -0.1903474348E-03  -0.1617682780E-03   0.0000000000E+00   0.0000000000E+00   0.0000000000E+00   0.7151746568E-01
   0.1577730705E+00   0.2157617237E+00   0.4371544168E-04  -0.2446553376E-04   0.3060080917E-03  -0.1712587363E-03   0.2658582212E+00  -0.5805494728E-02   0.7801581794E-01   0.7019520465E-02   0.0000000000E+00   0.0000000000E+00   0.2441951242E-02  -0.1089677065E-02   0.9125376605E-04   0.0000000000E+00   0.0000000000E+00   0.0000000000E+00   0.2412373555E+00
   0.1567830256E+00   0.2323905860E+00   0.4129432021E-04  -0.2686449964E-04   0.2890602415E-03  -0.1880514975E-03   0.2721891929E+00  -0.2787185798E-02   0.8082060212E-01   0.4431527125E-02   0.0000000000E+00   0.0000000000E+00   0.2487791680E-02  -0.1086901243E-02   0.5760985263E-04   0.0000000000E+00   0.0000000000E+00   0.0000000000E+00   0.2443002716E+00
   0.1372617027E+00   0.2323906103E+00   0.3529146640E-04  -0.2994046399E-04   0.2470402648E-03  -0.2095832479E-03   0.2665812332E+00  -0.2794788654E-02   0.7913593337E-01   0.7911349221E-02   0.0000000000E+00   0.0000000000E+00   0.2436788898E-02  -0.1065099386E-02   0.1028475399E-03   0.0000000000E+00   0.0000000000E+00   0.0000000000E+00   0.2396017654E+00
   0.1385181910E+00   0.2155929499E+00   0.3788511910E-04  -0.2747788619E-04   0.2651958337E-03  -0.1923452033E-03   0.2638690558E+00  -0.6474062179E-02   0.7721849810E-01   0.1298865336E-01   0.0000000000E+00   0.0000000000E+00   0.2426457251E-02  -0.1088003284E-02   0.1688524937E-03   0.0000000000E+00   0.0000000000E+00   0.0000000000E+00   0.2407168572E+00
   0.0000000000E+00   0.9973445896E-01   0.0000000000E+00  -0.3319275520E-04   0.0000000000E+00  -0.2323492864E-03   0.7360346368E+00   0.6769239910E-01   0.2411181108E+00   0.8707884997E-02   0.0000000000E+00   0.0000000000E+00   0.6433914838E-02  -0.2254534252E-02   0.1132025050E-03   0.0000000000E+00   0.0000000000E+00   0.0000000000E+00   0.5943779836E+00
   0.1963261140E-01   0.9782093366E-01   0.1544737453E-04  -0.3219911729E-04   0.1081316217E-03  -0.2253938210E-03   0.6761085604E+00   0.6402480325E-01   0.2220400091E+00  -0.1015017909E+00   0.0000000000E+00   0.0000000000E+00   0.5902891167E-02  -0.2054197676E-02  -0.1319523282E-02   0.0000000000E+00   0.0000000000E+00   0.0000000000E+00   0.5723820997E+00
   0.1684471108E-01   0.1510117022E+00   0.5706535176E-05  -0.4062660207E-04   0.3994574623E-04  -0.2843862145E-03   0.3225836196E+00   0.5405553908E-01   0.1129917476E+00   0.9926788599E-02   0.0000000000E+00   0.0000000000E+00   0.2724694336E-02  -0.7661707110E-03   0.1290482518E-03   0.0000000000E+00   0.0000000000E+00   0.0000000000E+00   0.2460569932E+00
   0.0000000000E+00   0.1496704259E+00   0.0000000000E+00  -0.4119750748E-04   0.0000000000E+00  -0.2883825523E-03   0.3260367068E+00   0.6147877989E-01   0.1162546460E+00   0.7593980887E-02   0.0000000000E+00   0.0000000000E+00   0.2727166790E-02  -0.7120862596E-03   0.9872175153E-04   0.0000000000E+00   0.0000000000E+00   0.0000000000E+00   0.2420461792E+00
   0.5120743385E-01   0.1383980569E+00   0.1914046851E-04  -0.3394788473E-04   0.1339832796E-03  -0.2376351931E-03   0.3326116928E+00   0.2040817807E-01   0.1059059613E+00   0.1732888525E-01   0.0000000000E+00   0.0000000000E+00   0.2947174510E-02  -0.1111471181E-02   0.2252755083E-03   0.0000000000E+00   0.0000000000E+00   0.0000000000E+00   0.2808018314E+00
   0.4917894262E-01   0.1537692069E+00   0.1650485225E-04  -0.3634614103E-04   0.1155339658E-03  -0.2544229872E-03   0.3094531831E+00   0.2353108332E-01   0.9989527993E-01   0.2699149753E-01   0.0000000000E+00   0.0000000000E+00   0.2724252741E-02  -0.9927345559E-03   0.3508894679E-03   0.0000000000E+00   0.0000000000E+00   0.0000000000E+00   0.2607802903E+00
   0.3326508635E-01   0.1524254158E+00   0.1120270566E-04  -0.3887989452E-04   0.7841893965E-04  -0.2721592616E-03   0.3177585312E+00   0.4107971835E-01   0.1076514749E+00   0.2067908718E-01   0.0000000000E+00   0.0000000000E+00   0.2731391733E-02  -0.8654328348E-03   0.2688281334E-03   0.0000000000E+00   0.0000000000E+00   0.0000000000E+00   0.2540976219E+00
   0.3447777488E-01   0.1354457217E+00   0.1328728485E-04  -0.3675829144E-04   0.9301099395E-04  -0.2573080400E-03   0.3509239644E+00   0.4327478273E-01   0.1182596241E+00   0.2046427899E-01   0.0000000000E+00   0.0000000000E+00   0.3024636423E-02  -0.9748029382E-03   0.2660356269E-03   0.0000000000E+00   0.0000000000E+00   0.0000000000E+00   0.2750933792E+00
   0.1672583557E-01   0.1674659484E+00   0.5146158594E-05  -0.4214870292E-04   0.3602311016E-04  -0.2950409205E-03   0.2920828010E+00   0.4545890757E-01   0.1012625126E+00   0.1210282303E-01   0.0000000000E+00   0.0000000000E+00   0.2480663749E-02  -0.7254468649E-03   0.1573366994E-03   0.0000000000E+00   0.0000000000E+00   0.0000000000E+00   0.2251931431E+00
   0.0000000000E+00   0.1663255528E+00   0.0000000000E+00  -0.4263990217E-04   0.0000000000E+00  -0.2984793152E-03   0.2922841933E+00   0.4930128818E-01   0.1024756444E+00   0.6473951741E-02   0.0000000000E+00   0.0000000000E+00   0.2467511135E-02  -0.6912666313E-03   0.8416137263E-04   0.0000000000E+00   0.0000000000E+00   0.0000000000E+00   0.2213070982E+00
   0.1713062525E-01   0.1837764553E+00   0.4895355700E-05  -0.4363409146E-04   0.3426748990E-04  -0.3054386402E-03   0.2668308080E+00   0.3194291824E-01   0.8963211789E-01   0.1186513344E-01   0.0000000000E+00   0.0000000000E+00   0.2303582972E-02  -0.7499595954E-03   0.1542467347E-03   0.0000000000E+00   0.0000000000E+00   0.0000000000E+00   0.2133674559E+00
   0.3347307705E-01   0.1682826848E+00   0.1032078073E-04  -0.4052590440E-04   0.7224546513E-04  -0.2836813308E-03   0.2898310723E+00   0.3310154586E-01   0.9687978545E-01   0.2576582557E-01   0.0000000000E+00   0.0000000000E+00   0.2508366729E-02  -0.8291171146E-03   0.3349557324E-03   0.0000000000E+00   0.0000000000E+00   0.0000000000E+00   0.2352161647E+00
   0.3459285656E-01   0.1839431654E+00   0.9944307253E-05  -0.4200844510E-04   0.6961015077E-04  -0.2940591157E-03   0.2676638014E+00   0.2420989106E-01   0.8756210774E-01   0.2488309311E-01   0.0000000000E+00   0.0000000000E+00   0.2341322018E-02  -0.8235788168E-03   0.3234802104E-03   0.0000000000E+00   0.0000000000E+00   0.0000000000E+00   0.2229773824E+00
   0.1947246397E-01   0.2496030066E+00   0.3502358286E-05  -0.4962417774E-04   0.2451650800E-04  -0.3473692442E-03   0.1594702321E+00  -0.4819397277E-02   0.4639525043E-01   0.8825967706E-03   0.0000000000E+00   0.0000000000E+00   0.1469974761E-02  -0.6657904202E-03   0.1147375802E-04   0.0000000000E+00   0.0000000000E+00   0.0000000000E+00   0.1458381334E+00
   0.3854657654E-01   0.2325720498E+00   0.8595105215E-05  -0.4652877048E-04   0.6016573651E-04  -0.3257013934E-03   0.2060151950E+00   0.4272295413E-02   0.6308624712E-01   0.1169858894E-01   0.0000000000E+00   0.0000000000E+00   0.1858076322E-02  -0.7645813722E-03   0.1520816562E-03   0.0000000000E+00   0.0000000000E+00   0.0000000000E+00   0.1809599647E+00
   0.3894661120E-01   0.2496156622E+00   0.7215112174E-05  -0.4804222306E-04   0.5050578522E-04  -0.3362955614E-03   0.1735623662E+00  -0.4151432070E-02   0.5082328023E-01   0.4446697903E-02   0.0000000000E+00   0.0000000000E+00   0.1595608117E-02  -0.7146712598E-03   0.5780707274E-04   0.0000000000E+00   0.0000000000E+00   0.0000000000E+00   0.1577319637E+00
   0.3299445194E+00   0.0000000000E+00   0.9722979590E-04   0.0000000000E+00   0.6806085713E-03   0.0000000000E+00   0.1328449315E+00   0.3829902293E-01   0.5134318634E-01  -0.3853692211E-03   0.0000000000E+00   0.0000000000E+00   0.1059522688E-02  -0.1695741244E-03  -0.5009799875E-05   0.0000000000E+00   0.0000000000E+00   0.0000000000E+00   0.8874328718E-01
   0.3507999940E+00   0.0000000000E+00   0.1000000000E-03   0.0000000000E+00   0.7000000000E-03   0.0000000000E+00   0.1336220760E+00   0.3852752629E-01   0.5164488070E-01  -0.2374064324E-05   0.0000000000E+00   0.0000000000E+00   0.1065703539E-02  -0.1705256073E-03  -0.3086283621E-07   0.0000000000E+00   0.0000000000E+00   0.0000000000E+00   0.8926176735E-01
   0.3507999940E+00   0.1922741639E-01   0.1000000000E-03  -0.4191893133E-06   0.7000000000E-03  -0.2934325193E-05   0.1350731320E+00   0.3786961261E-01   0.5188282339E-01  -0.2230339042E-04   0.0000000000E+00   0.0000000000E+00   0.1081474012E-02  -0.1821717401E-03  -0.2899440755E-06   0.0000000000E+00   0.0000000000E+00   0.0000000000E+00   0.9100480098E-01
   0.3305409408E+00   0.1871129993E-01   0.9726922721E-04  -0.4056707959E-06   0.6808845904E-03  -0.2839695571E-05   0.1343872286E+00   0.3769064971E-01   0.5162336349E-01  -0.1238811850E-02   0.0000000000E+00   0.0000000000E+00   0.1075930246E-02  -0.1811252791E-03  -0.1610455405E-04   0.0000000000E+00   0.0000000000E+00   0.0000000000E+00   0.9056056618E-01
   0.3507999940E+00   0.3845438650E-01   0.1000000000E-03  -0.8941745386E-06   0.7000000000E-03  -0.6259221770E-05   0.1394862347E+00   0.3596390089E-01   0.5263504068E-01  -0.2653742766E-04   0.0000000000E+00   0.0000000000E+00   0.1129065523E-02  -0.2167248173E-03  -0.3449865595E-06   0.0000000000E+00   0.0000000000E+00   0.0000000000E+00   0.9625905655E-01
   0.3309835215E+00   0.3767606219E-01   0.9721169021E-04  -0.8712883692E-06   0.6804818314E-03  -0.6099018584E-05   0.1389499797E+00   0.3588598106E-01   0.5245078822E-01  -0.2564106347E-02   0.0000000000E+00   0.0000000000E+00   0.1124489489E-02  -0.2153424930E-03  -0.3333338250E-04   0.0000000000E+00   0.0000000000E+00   0.0000000000E+00   0.9594390375E-01
   0.3313351127E+00   0.5675115295E-01   0.9707545881E-04  -0.1446518214E-05   0.6795282116E-03  -0.1012562750E-04   0.1462749845E+00   0.3299176985E-01   0.5378002629E-01  -0.3466187428E-02   0.0000000000E+00   0.0000000000E+00   0.1202434456E-02  -0.2702473338E-03  -0.4506043657E-04   0.0000000000E+00   0.0000000000E+00   0.0000000000E+00   0.1045966950E+00
   0.3316126677E+00   0.7593922733E-01   0.9687509014E-04  -0.2177845691E-05   0.6781256310E-03  -0.1524491984E-04   0.1559453386E+00   0.2925681661E-01   0.5556064657E-01  -0.4116992001E-02   0.0000000000E+00   0.0000000000E+00   0.1305000997E-02  -0.3419497895E-03  -0.5352089601E-04   0.0000000000E+00   0.0000000000E+00   0.0000000000E+00   0.1159828133E+00
   0.3125619254E+00   0.7512822462E-01   0.9379855219E-04  -0.2161022229E-05   0.6565898653E-03  -0.1512715561E-04   0.1545500902E+00   0.2821096605E-01   0.5482831686E-01  -0.8197371535E-02   0.0000000000E+00   0.0000000000E+00   0.1296383053E-02  -0.3460255605E-03  -0.1065658300E-03   0.0000000000E+00   0.0000000000E+00   0.0000000000E+00   0.1161930545E+00
   0.3118983855E+00   0.5604178340E-01   0.9418344150E-04  -0.1426937509E-05   0.6592840905E-03  -0.9988562562E-05   0.1445252083E+00   0.3203236613E-01   0.5296727232E-01  -0.6944272392E-02   0.0000000000E+00   0.0000000000E+00   0.1190253167E-02  -0.2721537804E-03  -0.9027554110E-04   0.0000000000E+00   0.0000000000E+00   0.0000000000E+00   0.1042926292E+00
   0.3317552599E+00   0.9523118468E-01   0.9661286549E-04  -0.3102015565E-05   0.6762900584E-03  -0.2171410895E-04   0.1674210842E+00   0.2492716973E-01   0.5770447619E-01  -0.4457963911E-02   0.0000000000E+00   0.0000000000E+00   0.1426315905E-02  -0.4261049840E-03  -0.5795353085E-04   0.0000000000E+00   0.0000000000E+00   0.0000000000E+00   0.1294534401E+00
   0.3129349659E+00   0.9437586591E-01   0.9328885909E-04  -0.3094511305E-05   0.6530220136E-03  -0.2166157913E-04   0.1664115718E+00   0.2386016280E-01   0.5708152040E-01  -0.8817092834E-02   0.0000000000E+00   0.0000000000E+00   0.1421290669E-02  -0.4318776487E-03  -0.1146222068E-03   0.0000000000E+00   0.0000000000E+00   0.0000000000E+00   0.1300526623E+00
   0.3317391401E+00   0.1146755773E+00   0.9629288459E-04  -0.4248333869E-05   0.6740501921E-03  -0.2973833708E-04   0.1802175477E+00   0.2035622013E-01   0.6017213035E-01  -0.4550678000E-02   0.0000000000E+00   0.0000000000E+00   0.1560590426E-02  -0.5176068328E-03  -0.5915881400E-04   0.0000000000E+00   0.0000000000E+00   0.0000000000E+00   0.1443184507E+00
   0.3315951118E+00   0.1342300004E+00   0.9592859401E-04  -0.5629205086E-05   0.6715001581E-03  -0.3940443560E-04   0.1937366971E+00   0.1583570835E-01   0.6287172165E-01  -0.4373871703E-02   0.0000000000E+00   0.0000000000E+00   0.1701244681E-02  -0.6114681729E-03  -0.5686033214E-04   0.0000000000E+00   0.0000000000E+00   0.0000000000E+00   0.1598143338E+00
   0.3125329824E+00   0.1337481689E+00   0.9189067596E-04  -0.5689135348E-05   0.6432347318E-03  -0.3982394744E-04   0.1937276477E+00   0.1470328081E-01   0.6252927857E-01  -0.8576840185E-02   0.0000000000E+00   0.0000000000E+00   0.1705578799E-02  -0.6217379709E-03  -0.1114989224E-03   0.0000000000E+00   0.0000000000E+00   0.0000000000E+00   0.1612118970E+00
   0.3129272066E+00   0.1139014263E+00   0.9265045444E-04  -0.4262086569E-05   0.6485531811E-03  -0.2983460598E-04   0.1796335028E+00   0.1918282018E-01   0.5964489690E-01  -0.8917489866E-02   0.0000000000E+00   0.0000000000E+00   0.1559851877E-02  -0.5260069974E-03  -0.1159273683E-03   0.0000000000E+00   0.0000000000E+00   0.0000000000E+00   0.1453280023E+00
   0.2897306527E+00   0.1826106492E-01   0.9188609178E-04  -0.3884599257E-06   0.6432026424E-03  -0.2719219480E-05   0.1283740974E+00   0.3536861934E-01   0.4912281502E-01  -0.3850890808E-02   0.0000000000E+00   0.0000000000E+00   0.1030266671E-02  -0.1788045439E-03  -0.5006158050E-04   0.0000000000E+00   0.0000000000E+00   0.0000000000E+00   0.8722060875E-01
   0.2882345409E+00   0.0000000000E+00   0.9181836775E-04   0.0000000000E+00   0.6427285742E-03   0.0000000000E+00   0.1263131605E+00   0.3591736374E-01   0.4866915728E-01  -0.1212567465E-02   0.0000000000E+00   0.0000000000E+00   0.1009372042E-02  -0.1657733160E-03  -0.1576337704E-04   0.0000000000E+00   0.0000000000E+00   0.0000000000E+00   0.8471769317E-01
   0.3090892693E+00   0.0000000000E+00   0.9449153983E-04   0.0000000000E+00   0.6614407788E-03   0.0000000000E+00   0.1304461668E+00   0.3743900042E-01   0.5036555016E-01  -0.7796191986E-03   0.0000000000E+00   0.0000000000E+00   0.1041048016E-02  -0.1680451466E-03  -0.1013504958E-04   0.0000000000E+00   0.0000000000E+00   0.0000000000E+00   0.8725471467E-01
   0.3101440247E+00   0.1840308673E-01   0.9455008192E-04  -0.3958208889E-06   0.6618505735E-03  -0.2770746222E-05   0.1321333014E+00   0.3684892086E-01   0.5069466668E-01  -0.2494085606E-02   0.0000000000E+00   0.0000000000E+00   0.1058702251E-02  -0.1799946956E-03  -0.3242311288E-04   0.0000000000E+00   0.0000000000E+00   0.0000000000E+00   0.8927987025E-01
   0.2127348113E+00   0.1635979506E+00   0.6594978410E-04  -0.1158267187E-04   0.4616484887E-03  -0.8107870312E-04   0.2304680660E+00  -0.8010362002E-02   0.6673731119E-01  -0.1555057252E-01   0.0000000000E+00   0.0000000000E+00   0.2128499812E-02  -0.9717197515E-03  -0.2021574427E-03   0.0000000000E+00   0.0000000000E+00   0.0000000000E+00   0.2129578095E+00
   0.2168607806E+00   0.1466944353E+00   0.6903645009E-04  -0.9352462573E-05   0.4832551506E-03  -0.6546723801E-04   0.2153853143E+00  -0.8379869822E-02   0.6210163333E-01  -0.2111327327E-01   0.0000000000E+00   0.0000000000E+00   0.1992687852E-02  -0.9162595410E-03  -0.2744725526E-03   0.0000000000E+00   0.0000000000E+00   0.0000000000E+00   0.2014448832E+00
   0.2315362236E+00   0.1466667891E+00   0.7265606977E-04  -0.8613612827E-05   0.5085924884E-03  -0.6029528979E-04   0.2133940964E+00  -0.2885407840E-02   0.6315260657E-01  -0.1989858843E-01   0.0000000000E+00   0.0000000000E+00   0.1953139368E-02  -0.8584941873E-03  -0.2586816496E-03   0.0000000000E+00   0.0000000000E+00   0.0000000000E+00   0.1950311244E+00
   0.2327189554E+00   0.1630223142E+00   0.7123079675E-04  -0.1035760553E-04   0.4986155772E-03  -0.7250323871E-04   0.2255105997E+00  -0.2587733464E-02   0.6687685988E-01  -0.1586874185E-01   0.0000000000E+00   0.0000000000E+00   0.2062238618E-02  -0.9030397135E-03  -0.2062936440E-03   0.0000000000E+00   0.0000000000E+00   0.0000000000E+00   0.2043565148E+00
   0.2284418746E+00   0.1845403410E-01   0.8455232205E-04  -0.3822755862E-06   0.5918662544E-03  -0.2675929103E-05   0.1055628543E+00   0.2538822381E-01   0.3928532342E-01  -0.9544008046E-02   0.0000000000E+00   0.0000000000E+00   0.8616079008E-03  -0.1806622949E-03  -0.1240721046E-03   0.0000000000E+00   0.0000000000E+00   0.0000000000E+00   0.7620566413E-01
   0.2312900368E+00   0.3704122094E-01   0.8396922866E-04  -0.8679830320E-06   0.5877846006E-03  -0.6075881224E-05   0.1161264932E+00   0.2281022874E-01   0.4168101659E-01  -0.1914452641E-01   0.0000000000E+00   0.0000000000E+00   0.9677911962E-03  -0.2453202420E-03  -0.2488788433E-03   0.0000000000E+00   0.0000000000E+00   0.0000000000E+00   0.9144000107E-01
   0.1839805714E+00   0.0000000000E+00   0.8090429524E-04   0.0000000000E+00   0.5663300667E-03   0.0000000000E+00   0.6786752485E-01   0.9321181819E-02   0.2315661200E-01  -0.5500597405E-02   0.0000000000E+00   0.0000000000E+00   0.5812418671E-03  -0.1798605924E-03  -0.7150776626E-04   0.0000000000E+00   0.0000000000E+00   0.0000000000E+00   0.5282971130E-01
   0.2048273757E+00   0.0000000000E+00   0.8258871421E-04   0.0000000000E+00   0.5781209995E-03   0.0000000000E+00   0.8640472552E-01   0.1952674061E-01   0.3177943984E-01  -0.4125018821E-02   0.0000000000E+00   0.0000000000E+00   0.7101287138E-03  -0.1592850900E-03  -0.5362524467E-04   0.0000000000E+00   0.0000000000E+00   0.0000000000E+00   0.6143183567E-01
   0.1422965262E+00   0.0000000000E+00   0.7873252785E-04   0.0000000000E+00   0.5511276949E-03   0.0000000000E+00   0.1344242285E-01  -0.3705953831E-01  -0.7085134640E-02  -0.1296222601E-01   0.0000000000E+00   0.0000000000E+00   0.2668582473E-03  -0.3896672477E-03  -0.1685089381E-03   0.0000000000E+00   0.0000000000E+00   0.0000000000E+00   0.4806940111E-01
   0.1462909029E+00   0.2097413846E-01   0.7765236580E-04  -0.9278672853E-06   0.5435665606E-03  -0.6495070997E-05   0.3043184888E-01  -0.2959591214E-01   0.2507810210E-03  -0.2251418778E-01   0.0000000000E+00   0.0000000000E+00   0.3923538822E-03  -0.3880070111E-03  -0.2926844412E-03   0.0000000000E+00   0.0000000000E+00   0.0000000000E+00   0.6640673385E-01
   0.3507999940E+00   0.2498571580E+00   0.1000000000E-03  -0.1785524699E-04   0.7000000000E-03  -0.1249867289E-03   0.2637274997E+00   0.1280448194E-02   0.7950238437E-01   0.6838809278E-03   0.0000000000E+00   0.0000000000E+00   0.2394926499E-02  -0.1016885170E-02   0.8890452062E-05   0.0000000000E+00   0.0000000000E+00   0.0000000000E+00   0.2333868636E+00
   0.3313089497E+00   0.2498565488E+00   0.9417396747E-04  -0.1793140322E-04   0.6592177723E-03  -0.1255198226E-03   0.2644767215E+00   0.1296614892E-02   0.7973200091E-01  -0.5257236839E-03   0.0000000000E+00   0.0000000000E+00   0.2401681367E-02  -0.1019660018E-02  -0.6834407891E-05   0.0000000000E+00   0.0000000000E+00   0.0000000000E+00   0.2340396118E+00
   0.3315439659E+00   0.2309224813E+00   0.9442660748E-04  -0.1553558417E-04   0.6609862523E-03  -0.1087490892E-03   0.2555801520E+00   0.4784728965E-03   0.7681758746E-01  -0.1303565767E-02   0.0000000000E+00   0.0000000000E+00   0.2323913339E-02  -0.9924084893E-03  -0.1694635497E-04   0.0000000000E+00   0.0000000000E+00   0.0000000000E+00   0.2267939016E+00
   0.3507999940E+00   0.2306457680E+00   0.1000000000E-03  -0.1543299741E-04   0.7000000000E-03  -0.1080309819E-03   0.2550781230E+00   0.5787481545E-03   0.7669706135E-01   0.6173438317E-03   0.0000000000E+00   0.0000000000E+00   0.2318953802E-02  -0.9895380715E-03   0.8025469813E-05   0.0000000000E+00   0.0000000000E+00   0.0000000000E+00   0.2262584151E+00
   0.2736389480E+00   0.2315313436E+00   0.7742075583E-04  -0.1677229499E-04   0.5419452908E-03  -0.1174060649E-03   0.2628557634E+00  -0.1421173581E-03   0.7881409381E-01  -0.3570074817E-02   0.0000000000E+00   0.0000000000E+00   0.2392541704E-02  -0.1026430745E-02  -0.4641097263E-04   0.0000000000E+00   0.0000000000E+00   0.0000000000E+00   0.2338352923E+00
   0.2929277167E+00   0.2313602280E+00   0.8314533876E-04  -0.1618249943E-04   0.5820173713E-03  -0.1132774960E-03   0.2597055952E+00   0.1434225679E-03   0.7795470534E-01  -0.3021432940E-02   0.0000000000E+00   0.0000000000E+00   0.2362761569E-02  -0.1011546676E-02  -0.3927862821E-04   0.0000000000E+00   0.0000000000E+00   0.0000000000E+00   0.2307822673E+00
   0.2923258277E+00   0.2498513489E+00   0.8239634191E-04  -0.1858138456E-04   0.5767743934E-03  -0.1300696919E-03   0.2700756678E+00   0.1493798611E-02   0.8147083992E-01  -0.8860103119E-03   0.0000000000E+00   0.0000000000E+00   0.2451862762E-02  -0.1039701537E-02  -0.1151813405E-04   0.0000000000E+00   0.0000000000E+00   0.0000000000E+00   0.2388560698E+00
   0.2728333489E+00   0.2498464170E+00   0.7639098608E-04  -0.1919788099E-04   0.5347369026E-03  -0.1343851669E-03   0.2744949955E+00   0.1667859059E-02   0.8284885636E-01  -0.1031527604E-02   0.0000000000E+00   0.0000000000E+00   0.2491399809E-02  -0.1055352965E-02  -0.1340985885E-04   0.0000000000E+00   0.0000000000E+00   0.0000000000E+00   0.2426455957E+00
   0.3507999940E+00   0.1730050850E+00   0.1000000000E-03  -0.8980370861E-05   0.7000000000E-03  -0.6286259602E-04   0.2206063431E+00   0.8302979606E-02   0.6867279681E-01   0.4575103636E-03   0.0000000000E+00   0.0000000000E+00   0.1975136102E-02  -0.7848076237E-03   0.5947634727E-05   0.0000000000E+00   0.0000000000E+00   0.0000000000E+00   0.1894635636E+00
   0.3315401215E+00   0.1732418818E+00   0.9524993189E-04  -0.9054530451E-05   0.6667495233E-03  -0.6338171316E-04   0.2208545266E+00   0.7950153712E-02   0.6864140410E-01  -0.3555578484E-02   0.0000000000E+00   0.0000000000E+00   0.1978770593E-02  -0.7889862550E-03  -0.4622252029E-04   0.0000000000E+00   0.0000000000E+00   0.0000000000E+00   0.1900570782E+00
   0.3315342999E+00   0.1537894473E+00   0.9557648399E-04  -0.7238081602E-05   0.6690353879E-03  -0.5066657122E-04   0.2074427775E+00   0.1167636995E-01   0.6573574423E-01  -0.4067416666E-02   0.0000000000E+00   0.0000000000E+00   0.1842191432E-02  -0.7027718657E-03  -0.5287641666E-04   0.0000000000E+00   0.0000000000E+00   0.0000000000E+00   0.1752292679E+00
   0.3507999940E+00   0.1537885971E+00   0.1000000000E-03  -0.7195357515E-05   0.7000000000E-03  -0.5036750261E-04   0.2072502282E+00   0.1197820531E-01   0.6576853007E-01   0.4027190875E-03   0.0000000000E+00   0.0000000000E+00   0.1839262076E-02  -0.6992742219E-03   0.5235348137E-05   0.0000000000E+00   0.0000000000E+00   0.0000000000E+00   0.1746835882E+00
   0.3507999940E+00   0.1345704099E+00   0.1000000000E-03  -0.5622636430E-05   0.7000000000E-03  -0.3935845501E-04   0.1936077202E+00   0.1607312606E-01   0.6290425389E-01   0.2926692454E-03   0.0000000000E+00   0.0000000000E+00   0.1699145062E-02  -0.6088046617E-03   0.3804700190E-05   0.0000000000E+00   0.0000000000E+00   0.0000000000E+00   0.1593426754E+00
   0.3507999940E+00   0.1153504574E+00   0.1000000000E-03  -0.4269824529E-05   0.7000000000E-03  -0.2988877170E-04   0.1801673375E+00   0.2043840263E-01   0.6018172203E-01   0.2131244261E-03   0.0000000000E+00   0.0000000000E+00   0.1559813001E-02  -0.5166631522E-03   0.2770617540E-05   0.0000000000E+00   0.0000000000E+00   0.0000000000E+00   0.1439986445E+00
   0.3507999940E+00   0.9612875073E-01   0.1000000000E-03  -0.3137145836E-05   0.7000000000E-03  -0.2196002085E-04   0.1674865048E+00   0.2491169122E-01   0.5771945881E-01   0.1179078802E-03   0.0000000000E+00   0.0000000000E+00   0.1426971598E-02  -0.4265009787E-03   0.1532802443E-05   0.0000000000E+00   0.0000000000E+00   0.0000000000E+00   0.1292954796E+00
   0.3507999940E+00   0.7690536953E-01   0.1000000000E-03  -0.2213783975E-05   0.7000000000E-03  -0.1549648783E-04   0.1561262357E+00   0.2919312352E-01   0.5559580776E-01   0.4655169884E-04   0.0000000000E+00   0.0000000000E+00   0.1306895563E-02  -0.3432348951E-03   0.6051720849E-06   0.0000000000E+00   0.0000000000E+00   0.0000000000E+00   0.1159731036E+00
   0.3507999940E+00   0.5768048788E-01   0.1000000000E-03  -0.1477515094E-05   0.7000000000E-03  -0.1034260566E-04   0.1466300199E+00   0.3298194053E-01   0.5388358812E-01  -0.3492269452E-05   0.0000000000E+00   0.0000000000E+00   0.1205703613E-02  -0.2717214187E-03  -0.4539950288E-07   0.0000000000E+00   0.0000000000E+00   0.0000000000E+00   0.1047449478E+00
   0.0000000000E+00   0.2495986500E+00   0.0000000000E+00  -0.5016874555E-04   0.0000000000E+00  -0.3511812188E-03   0.1544378771E+00  -0.5056055248E-02   0.4481454656E-01   0.5047931003E-02   0.0000000000E+00   0.0000000000E+00   0.1425103297E-02  -0.6483178235E-03   0.6562310303E-04   0.0000000000E+00   0.0000000000E+00   0.0000000000E+00   0.1415880977E+00
   0.3766208636E-01   0.2158590223E+00   0.9380895507E-05  -0.4495721023E-04   0.6566626855E-04  -0.3147004716E-03   0.2282229654E+00   0.7807978568E-02   0.7080928319E-01   0.2008200887E-01   0.0000000000E+00   0.0000000000E+00   0.2046377869E-02  -0.8190169601E-03   0.2610661152E-03   0.0000000000E+00   0.0000000000E+00   0.0000000000E+00   0.1995806052E+00
   0.3627137636E-01   0.1997570757E+00   0.9758608009E-05  -0.4345291551E-04   0.6831025606E-04  -0.3041704086E-03   0.2481063992E+00   0.1544451544E-01   0.7906527440E-01   0.2341525542E-01   0.0000000000E+00   0.0000000000E+00   0.2197534623E-02  -0.8270698665E-03   0.3043983204E-03   0.0000000000E+00   0.0000000000E+00   0.0000000000E+00   0.2120739362E+00
   0.5570504205E-01   0.1982846641E+00   0.1526500664E-04  -0.4054498539E-04   0.1068550465E-03  -0.2838148977E-03   0.2553106096E+00   0.8963468270E-02   0.7928222337E-01   0.3097098116E-01   0.0000000000E+00   0.0000000000E+00   0.2288369021E-02  -0.9141438163E-03   0.4026227551E-03   0.0000000000E+00   0.0000000000E+00   0.0000000000E+00   0.2263433592E+00
   0.5762417631E-01   0.2145886968E+00   0.1467952611E-04  -0.4208152110E-04   0.1027566828E-03  -0.2945706477E-03   0.2383585080E+00   0.3794850072E-02   0.7264600743E-01   0.2595447427E-01   0.0000000000E+00   0.0000000000E+00   0.2154262508E-02  -0.8950650456E-03   0.3374081656E-03   0.0000000000E+00   0.0000000000E+00   0.0000000000E+00   0.2135596521E+00
   0.1784573470E-01   0.2000542325E+00   0.4758325043E-05  -0.4514255757E-04   0.3330827530E-04  -0.3159979030E-03   0.2452277246E+00   0.2081687938E-01   0.7981338120E-01   0.1098441652E-01   0.0000000000E+00   0.0000000000E+00   0.2150386464E-02  -0.7669545236E-03   0.1427974148E-03   0.0000000000E+00   0.0000000000E+00   0.0000000000E+00   0.2026938797E+00
   0.5830514461E-01   0.2319672788E+00   0.1337708885E-04  -0.4385115247E-04   0.9363962196E-04  -0.3069580673E-03   0.2187453193E+00   0.2661152902E-02   0.6642194166E-01   0.1500572819E-01   0.0000000000E+00   0.0000000000E+00   0.1980203909E-02  -0.8288902538E-03   0.1950744665E-03   0.0000000000E+00   0.0000000000E+00   0.0000000000E+00   0.1942492312E+00
   0.1558644156E+00   0.2497650058E+00   0.3860682891E-04  -0.2937427694E-04   0.2702478024E-03  -0.2056199386E-03   0.2849671842E+00   0.1559188494E-02   0.8595791181E-01   0.1769646681E-02   0.0000000000E+00   0.0000000000E+00   0.2587120541E-02  -0.1097183403E-02   0.2300540685E-04   0.0000000000E+00   0.0000000000E+00   0.0000000000E+00   0.2520543053E+00
   0.1363704260E+00   0.2497408288E+00   0.3241450046E-04  -0.3239640165E-04   0.2269015032E-03  -0.2267748115E-03   0.2750912204E+00   0.8573645765E-03   0.8278457550E-01   0.2933101430E-02   0.0000000000E+00   0.0000000000E+00   0.2499986384E-02  -0.1065053742E-02   0.3813031859E-04   0.0000000000E+00   0.0000000000E+00   0.0000000000E+00   0.2438177125E+00
   0.1753596389E+00   0.2497861703E+00   0.4495523747E-04  -0.2672871854E-04   0.3146866623E-03  -0.1871010298E-03   0.2898101816E+00   0.1945316616E-02   0.8752664947E-01   0.7533397262E-03   0.0000000000E+00   0.0000000000E+00   0.2629685918E-02  -0.1112557327E-02   0.9793416440E-05   0.0000000000E+00   0.0000000000E+00   0.0000000000E+00   0.2560577454E+00
   0.1763033098E+00   0.2323025825E+00   0.4739660308E-04  -0.2419130940E-04   0.3317762216E-03  -0.1693391658E-03   0.2748090187E+00  -0.2521141493E-02   0.8168636316E-01   0.1421330915E-02   0.0000000000E+00   0.0000000000E+00   0.2510594522E-02  -0.1094697561E-02   0.1847730189E-04   0.0000000000E+00   0.0000000000E+00   0.0000000000E+00   0.2463031345E+00
   0.2256766285E+00   0.0000000000E+00   0.8457931641E-04   0.0000000000E+00   0.5920552149E-03   0.0000000000E+00   0.1007246853E+00   0.2575646170E-01   0.3794434410E-01  -0.3105745878E-02   0.0000000000E+00   0.0000000000E+00   0.8161444356E-03  -0.1584424712E-03  -0.4037469641E-04   0.0000000000E+00   0.0000000000E+00   0.0000000000E+00   0.6953223169E-01
   0.2465278801E+00   0.0000000000E+00   0.8681788694E-04   0.0000000000E+00   0.6077252086E-03   0.0000000000E+00   0.1118736517E+00   0.3036961760E-01   0.4267298080E-01  -0.2331901194E-02   0.0000000000E+00   0.0000000000E+00   0.8996087221E-03  -0.1599437216E-03  -0.3031471553E-04   0.0000000000E+00   0.0000000000E+00   0.0000000000E+00   0.7601208457E-01
   0.2489412026E+00   0.1833938090E-01   0.8685758056E-04  -0.3808744516E-06   0.6080030639E-03  -0.2666121161E-05   0.1154071253E+00   0.2987028597E-01   0.4358322338E-01  -0.7258820111E-02   0.0000000000E+00   0.0000000000E+00   0.9337107250E-03  -0.1782681864E-03  -0.9436466145E-04   0.0000000000E+00   0.0000000000E+00   0.0000000000E+00   0.8064672443E-01
   0.1970080683E+00   0.1993749284E+00   0.5743778943E-04  -0.1745682971E-04   0.4020645260E-03  -0.1221978080E-03   0.2553106626E+00  -0.6748251083E-02   0.7456872346E-01  -0.4651827312E-02   0.0000000000E+00   0.0000000000E+00   0.2349645209E-02  -0.1057120669E-02  -0.6047375505E-04   0.0000000000E+00   0.0000000000E+00   0.0000000000E+00   0.2324733417E+00
   0.2160638122E+00   0.1982668827E+00   0.6308590182E-04  -0.1567178774E-04   0.4416013127E-03  -0.1097025141E-03   0.2513224429E+00  -0.4054333650E-02   0.7418043277E-01  -0.7753289445E-02   0.0000000000E+00   0.0000000000E+00   0.2302846132E-02  -0.1017051963E-02  -0.1007927628E-03   0.0000000000E+00   0.0000000000E+00   0.0000000000E+00   0.2270218867E+00
   0.2160334735E+00   0.2149954395E+00   0.6142818595E-04  -0.1782606700E-04   0.4299973016E-03  -0.1247824690E-03   0.2617131310E+00  -0.2122042285E-02   0.7787732662E-01  -0.5182985447E-02   0.0000000000E+00   0.0000000000E+00   0.2389865457E-02  -0.1039991796E-02  -0.6737881081E-04   0.0000000000E+00   0.0000000000E+00   0.0000000000E+00   0.2344923450E+00
   0.1966672626E+00   0.2154643443E+00   0.5556932879E-04  -0.1962221448E-04   0.3889853015E-03  -0.1373555014E-03   0.2644523482E+00  -0.3496280880E-02   0.7828682020E-01  -0.2331081789E-02   0.0000000000E+00   0.0000000000E+00   0.2420151864E-02  -0.1063180314E-02  -0.3030406326E-04   0.0000000000E+00   0.0000000000E+00   0.0000000000E+00   0.2378911491E+00
   0.1177537592E+00   0.2321704157E+00   0.2948565159E-04  -0.3332303605E-04   0.2063995611E-03  -0.2332612524E-03   0.2575535976E+00  -0.2541138296E-02   0.7650373779E-01   0.1161252129E-01   0.0000000000E+00   0.0000000000E+00   0.2353648177E-02  -0.1027583389E-02   0.1509627767E-03   0.0000000000E+00   0.0000000000E+00   0.0000000000E+00   0.2318785882E+00
   0.1191376721E+00   0.2150011311E+00   0.3213026755E-04  -0.3082185770E-04   0.2249118728E-03  -0.2157530039E-03   0.2601540846E+00  -0.6312899741E-02   0.7615235545E-01   0.1934283114E-01   0.0000000000E+00   0.0000000000E+00   0.2392022479E-02  -0.1072048318E-02   0.2514568049E-03   0.0000000000E+00   0.0000000000E+00   0.0000000000E+00   0.2385399379E+00
   0.2143508771E+00   0.2498187637E+00   0.5774914268E-04  -0.2265453888E-04   0.4042439987E-03  -0.1585817721E-03   0.2884128646E+00   0.2134987934E-02   0.8716435577E-01  -0.6066043724E-03   0.0000000000E+00   0.0000000000E+00   0.2616230615E-02  -0.1105381782E-02  -0.7885856841E-05   0.0000000000E+00   0.0000000000E+00   0.0000000000E+00   0.2546565912E+00
   0.1948553390E+00   0.2498040759E+00   0.5136137927E-04  -0.2449051154E-04   0.3595296549E-03  -0.1714335808E-03   0.2906079351E+00   0.2124522588E-02   0.8781973732E-01  -0.3896298805E-04   0.0000000000E+00   0.0000000000E+00   0.2636246572E-02  -0.1114037792E-02  -0.5065188446E-06   0.0000000000E+00   0.0000000000E+00   0.0000000000E+00   0.2566218459E+00
   0.1958633865E+00   0.2322434113E+00   0.5353118238E-04  -0.2195596547E-04   0.3747182767E-03  -0.1536917583E-03   0.2748770444E+00  -0.2073636502E-02   0.8184102236E-01  -0.9388016776E-03   0.0000000000E+00   0.0000000000E+00   0.2509468286E-02  -0.1090890565E-02  -0.1220442181E-04   0.0000000000E+00   0.0000000000E+00   0.0000000000E+00   0.2459969884E+00
   0.2153892167E+00   0.2321226011E+00   0.5963383937E-04  -0.2014061769E-04   0.4174368756E-03  -0.1409843238E-03   0.2729817662E+00  -0.1547647182E-02   0.8143023571E-01  -0.2569940084E-02   0.0000000000E+00   0.0000000000E+00   0.2490169897E-02  -0.1078712478E-02  -0.3340922109E-04   0.0000000000E+00   0.0000000000E+00   0.0000000000E+00   0.2439246201E+00
   0.2348595586E+00   0.2318040836E+00   0.6567157012E-04  -0.1868655179E-04   0.4597009908E-03  -0.1308058626E-03   0.2699469435E+00  -0.1026165611E-02   0.8067623338E-01  -0.3489427883E-02   0.0000000000E+00   0.0000000000E+00   0.2460519232E-02  -0.1062131187E-02  -0.4536256248E-04   0.0000000000E+00   0.0000000000E+00   0.0000000000E+00   0.2408441919E+00
   0.2542697580E+00   0.2316833665E+00   0.7159375233E-04  -0.1759168562E-04   0.5011562663E-03  -0.1231417994E-03   0.2663704861E+00  -0.5549655244E-03   0.7974465617E-01  -0.3784963008E-02   0.0000000000E+00   0.0000000000E+00   0.2426135789E-02  -0.1043895082E-02  -0.4920451910E-04   0.0000000000E+00   0.0000000000E+00   0.0000000000E+00   0.2373015135E+00
   0.2533400460E+00   0.2498395748E+00   0.7028262278E-04  -0.2005314519E-04   0.4919783594E-03  -0.1403720163E-03   0.2794533810E+00   0.1858541500E-02   0.8439357676E-01  -0.1059491232E-02   0.0000000000E+00   0.0000000000E+00   0.2535777456E-02  -0.1072955458E-02  -0.1377338601E-04   0.0000000000E+00   0.0000000000E+00   0.0000000000E+00   0.2469018124E+00
   0.2338458579E+00   0.2498304741E+00   0.6406549314E-04  -0.2119073790E-04   0.4484584520E-03  -0.1483351653E-03   0.2843538925E+00   0.2029851026E-02   0.8591512305E-01  -0.9336778589E-03   0.0000000000E+00   0.0000000000E+00   0.2579704003E-02  -0.1090508536E-02  -0.1213781217E-04   0.0000000000E+00   0.0000000000E+00   0.0000000000E+00   0.2511252268E+00
   0.3118176479E+00   0.2498546554E+00   0.8831574196E-04  -0.1816807218E-04   0.6182101938E-03  -0.1271765052E-03   0.2666495644E+00   0.1362966091E-02   0.8040375916E-01  -0.5875936314E-03   0.0000000000E+00   0.0000000000E+00   0.2421195469E-02  -0.1027530310E-02  -0.7638717208E-05   0.0000000000E+00   0.0000000000E+00   0.0000000000E+00   0.2359165359E+00
   0.3122129464E+00   0.2311459955E+00   0.8880379496E-04  -0.1577818986E-04   0.6216265647E-03  -0.1104473290E-03   0.2572331267E+00   0.3765312793E-03   0.7728289740E-01  -0.2115451387E-02   0.0000000000E+00   0.0000000000E+00   0.2339352981E-02  -0.9997827596E-03  -0.2750086803E-04   0.0000000000E+00   0.0000000000E+00   0.0000000000E+00   0.2283683408E+00
   0.5590392995E-01   0.8294132321E-01   0.4336328099E-04  -0.2570453598E-04   0.3035429669E-03  -0.1799317518E-03   0.3251763403E+00   0.1150137321E+00   0.1320570217E+00  -0.1561484910E+00   0.0000000000E+00   0.0000000000E+00   0.2510551141E-02  -0.2215627650E-03  -0.2029930383E-02   0.0000000000E+00   0.0000000000E+00   0.0000000000E+00   0.3247717195E+00
   0.7225685396E-01   0.9396388038E-01   0.4086622030E-04  -0.2215472786E-04   0.2860635421E-03  -0.1550830950E-03   0.2466958778E+00  -0.1361092439E-01   0.6992548602E-01  -0.6746602778E-01   0.0000000000E+00   0.0000000000E+00   0.2298015093E-02  -0.1085973335E-02  -0.8770583611E-03   0.0000000000E+00   0.0000000000E+00   0.0000000000E+00   0.2580378202E+00
   0.6224362544E-01   0.1067743565E+00   0.3193969263E-04  -0.2675643739E-04   0.2235778484E-03  -0.1872950617E-03   0.3021269533E+00  -0.2991111846E-02   0.8974075244E-01  -0.4139516309E-01   0.0000000000E+00   0.0000000000E+00   0.2761020611E-02  -0.1205514236E-02  -0.5381371202E-03   0.0000000000E+00   0.0000000000E+00   0.0000000000E+00   0.2768639385E+00
   0.3850354328E-01   0.9214637239E-01   0.2940008503E-04  -0.3019743840E-04   0.2058005952E-03  -0.2113820688E-03   0.4678181646E+00   0.8653703307E-01   0.1663065593E+00  -0.1180202736E+00   0.0000000000E+00   0.0000000000E+00   0.3919650869E-02  -0.1037003841E-02  -0.1534263557E-02   0.0000000000E+00   0.0000000000E+00   0.0000000000E+00   0.3963258624E+00
   0.0000000000E+00   0.1996347957E+00   0.0000000000E+00  -0.4565091088E-04   0.0000000000E+00  -0.3195563762E-03   0.2438965176E+00   0.2251348551E-01   0.7992300094E-01   0.5493796915E-02   0.0000000000E+00   0.0000000000E+00   0.2131655717E-02  -0.7463237006E-03   0.7141935989E-04   0.0000000000E+00   0.0000000000E+00   0.0000000000E+00   0.1990072140E+00
   0.0000000000E+00   0.1829804289E+00   0.0000000000E+00  -0.4411351065E-04   0.0000000000E+00  -0.3087945746E-03   0.2663762769E+00   0.3499601548E-01   0.9041168771E-01   0.5802121703E-02   0.0000000000E+00   0.0000000000E+00   0.2287539659E-02  -0.7204037390E-03   0.7542758214E-04   0.0000000000E+00   0.0000000000E+00   0.0000000000E+00   0.2092589653E+00
   0.3664710309E-01   0.1165960502E+00   0.1755814919E-04  -0.3392073119E-04   0.1229070443E-03  -0.2374451183E-03   0.4162685993E+00   0.5596639746E-01   0.1416704990E+00  -0.4248909566E-01   0.0000000000E+00   0.0000000000E+00   0.3569775303E-02  -0.1114153320E-02  -0.5523582435E-03   0.0000000000E+00   0.0000000000E+00   0.0000000000E+00   0.3386864790E+00
   0.2673806564E+00   0.0000000000E+00   0.8924692316E-04   0.0000000000E+00   0.6247284621E-03   0.0000000000E+00   0.1202177606E+00   0.3361285759E-01   0.4614918545E-01  -0.1728312910E-02   0.0000000000E+00   0.0000000000E+00   0.9628914767E-03  -0.1629722622E-03  -0.2246806783E-04   0.0000000000E+00   0.0000000000E+00   0.0000000000E+00   0.8101903303E-01
   0.2693404369E+00   0.1828843729E-01   0.8931149300E-04  -0.3841633150E-06   0.6251804510E-03  -0.2689143205E-05   0.1228873331E+00   0.3310771466E-01   0.4679851434E-01  -0.5408988289E-02   0.0000000000E+00   0.0000000000E+00   0.9891546445E-03  -0.1779803959E-03  -0.7031684775E-04   0.0000000000E+00   0.0000000000E+00   0.0000000000E+00   0.8434215445E-01
   0.2371781570E+00   0.7429677675E-01   0.8171924476E-04  -0.2427418756E-05   0.5720347133E-03  -0.1699193129E-04   0.1474529244E+00   0.1434706043E-01   0.4853999546E-01  -0.2723568567E-01   0.0000000000E+00   0.0000000000E+00   0.1285868077E-02  -0.4445081553E-03  -0.3540639137E-03   0.0000000000E+00   0.0000000000E+00   0.0000000000E+00   0.1286277020E+00
   0.2558946150E+00   0.7381970842E-01   0.8475575079E-04  -0.2272847038E-05   0.5932902555E-03  -0.1590992927E-04   0.1490209442E+00   0.1978084194E-01   0.5064053584E-01  -0.2178793571E-01   0.0000000000E+00   0.0000000000E+00   0.1278945309E-02  -0.4011760207E-03  -0.2832431642E-03   0.0000000000E+00   0.0000000000E+00   0.0000000000E+00   0.1227954771E+00
   0.3110909953E+00   0.3712012935E-01   0.9444228720E-04  -0.8540932766E-06   0.6610960104E-03  -0.5978652936E-05   0.1369108478E+00   0.3499903670E-01   0.5157296535E-01  -0.5153295698E-02   0.0000000000E+00   0.0000000000E+00   0.1109392472E-02  -0.2154610725E-03  -0.6699284408E-04   0.0000000000E+00   0.0000000000E+00   0.0000000000E+00   0.9510664161E-01
   0.2911738388E+00   0.3677050119E-01   0.9171585545E-04  -0.8422632047E-06   0.6420109881E-03  -0.5895842433E-05   0.1337772796E+00   0.3345650583E-01   0.5017013562E-01  -0.7926947191E-02   0.0000000000E+00   0.0000000000E+00   0.1086892871E-02  -0.2172771873E-03  -0.1030503135E-03   0.0000000000E+00   0.0000000000E+00   0.0000000000E+00   0.9405037050E-01
   0.3507999940E+00   0.2114334800E+00   0.1000000000E-03  -0.1312300519E-04   0.7000000000E-03  -0.9186103634E-04   0.2450555823E+00   0.2669779561E-02   0.7431760857E-01   0.5666082921E-03   0.0000000000E+00   0.0000000000E+00   0.2219593659E-02  -0.9314217771E-03   0.7365907798E-05   0.0000000000E+00   0.0000000000E+00   0.0000000000E+00   0.2156788343E+00
   0.3316659990E+00   0.2118749672E+00   0.9469763007E-04  -0.1323710540E-04   0.6628834105E-03  -0.9265973778E-04   0.2454482853E+00   0.2465587904E-02   0.7437416197E-01  -0.2298079202E-02   0.0000000000E+00   0.0000000000E+00   0.2223963604E-02  -0.9348114628E-03  -0.2987502962E-04   0.0000000000E+00   0.0000000000E+00   0.0000000000E+00   0.2162219320E+00
   0.3316026954E+00   0.1926131340E+00   0.9495805534E-04  -0.1106299549E-04   0.6647063874E-03  -0.7744096841E-04   0.2336092086E+00   0.4795328176E-02   0.7152136104E-01  -0.2973531947E-02   0.0000000000E+00   0.0000000000E+00   0.2107142019E-02  -0.8674384272E-03  -0.3865591531E-04   0.0000000000E+00   0.0000000000E+00   0.0000000000E+00   0.2038685507E+00
   0.3507999940E+00   0.1922199921E+00   0.1000000000E-03  -0.1096298813E-04   0.7000000000E-03  -0.7674091691E-04   0.2333269244E+00   0.5119060791E-02   0.7153379554E-01   0.5242198791E-03   0.0000000000E+00   0.0000000000E+00   0.2103310675E-02  -0.8633915518E-03   0.6814858428E-05   0.0000000000E+00   0.0000000000E+00   0.0000000000E+00   0.2033008693E+00
   0.2932343209E+00   0.2125731354E+00   0.8394598769E-04  -0.1386432639E-04   0.5876219138E-03  -0.9705028472E-04   0.2489337745E+00   0.1755877254E-02   0.7520689551E-01  -0.5716532212E-02   0.0000000000E+00   0.0000000000E+00   0.2258449426E-02  -0.9548632374E-03  -0.7431491876E-04   0.0000000000E+00   0.0000000000E+00   0.0000000000E+00   0.2200731548E+00
   0.2741320281E+00   0.2130278096E+00   0.7851239308E-04  -0.1444429677E-04   0.5495867516E-03  -0.1011100774E-03   0.2517108866E+00   0.1069040063E-02   0.7583397800E-01  -0.6842074847E-02   0.0000000000E+00   0.0000000000E+00   0.2286399812E-02  -0.9719441932E-03  -0.8894697301E-04   0.0000000000E+00   0.0000000000E+00   0.0000000000E+00   0.2231821810E+00
   0.2739920000E+00   0.1941747352E+00   0.7956075545E-04  -0.1222097110E-04   0.5569252881E-03  -0.8554679769E-04   0.2394293560E+00   0.2122162902E-02   0.7246545567E-01  -0.9169871112E-02   0.0000000000E+00   0.0000000000E+00   0.2170530704E-02  -0.9144628060E-03  -0.1192083245E-03   0.0000000000E+00   0.0000000000E+00   0.0000000000E+00   0.2117129967E+00
   0.2930968532E+00   0.1933536489E+00   0.8474077434E-04  -0.1164200695E-04   0.5931854204E-03  -0.8149404866E-04   0.2368168839E+00   0.3199385036E-02   0.7200488069E-01  -0.7694562670E-02   0.0000000000E+00   0.0000000000E+00   0.2142556042E-02  -0.8944714435E-03  -0.1000293147E-03   0.0000000000E+00   0.0000000000E+00   0.0000000000E+00   0.2083566051E+00
   0.1950248460E+00   0.5815438932E-01   0.7727900391E-04  -0.1966009768E-05   0.5409530273E-03  -0.1376206837E-04   0.1226476601E+00   0.2815183486E-02   0.3763885307E-01  -0.3851626429E-01   0.0000000000E+00   0.0000000000E+00   0.1105114491E-02  -0.4527077046E-03  -0.5007114358E-03   0.0000000000E+00   0.0000000000E+00   0.0000000000E+00   0.1258385677E+00
   0.2147353719E+00   0.5660013235E-01   0.8018661435E-04  -0.1681343961E-05   0.5613063004E-03  -0.1176940773E-04   0.1262172757E+00   0.1157982780E-01   0.4133913104E-01  -0.3093051323E-01   0.0000000000E+00   0.0000000000E+00   0.1103415880E-02  -0.3868709421E-03  -0.4020966720E-03   0.0000000000E+00   0.0000000000E+00   0.0000000000E+00   0.1161442555E+00
   0.7340976408E-01   0.1303713615E+00   0.2884934778E-04  -0.2758768933E-04   0.2019454344E-03  -0.1931138253E-03   0.3127104440E+00  -0.1190542481E-01   0.9024150577E-01   0.6502000161E-02   0.0000000000E+00   0.0000000000E+00   0.2892096197E-02  -0.1327910097E-02   0.8452600209E-04   0.0000000000E+00   0.0000000000E+00   0.0000000000E+00   0.2875605835E+00
   0.5568087645E-01   0.1222305440E+00   0.2415685582E-04  -0.3061449407E-04   0.1690979907E-03  -0.2143014585E-03   0.3638839951E+00   0.2704436691E-01   0.1172785086E+00  -0.1070500910E-01   0.0000000000E+00   0.0000000000E+00   0.3205871324E-02  -0.1173043842E-02  -0.1391651184E-03   0.0000000000E+00   0.0000000000E+00   0.0000000000E+00   0.3017894294E+00
   0.8105741755E-01   0.1170888757E+00   0.3502464357E-04  -0.2340140762E-04   0.2451725050E-03  -0.1638098534E-03   0.3005573194E+00  -0.1984359677E-01   0.8421411679E-01  -0.1285613198E-01   0.0000000000E+00   0.0000000000E+00   0.2812461634E-02  -0.1352750276E-02  -0.1671297157E-03   0.0000000000E+00   0.0000000000E+00   0.0000000000E+00   0.2835122109E+00
   0.5842380755E-01   0.2496352223E+00   0.1130924386E-04  -0.4559721554E-04   0.7916470699E-04  -0.3191805088E-03   0.1940761877E+00  -0.3186891942E-02   0.5726678871E-01   0.5101543393E-02   0.0000000000E+00   0.0000000000E+00   0.1778522186E-02  -0.7858978485E-03   0.6632006411E-04   0.0000000000E+00   0.0000000000E+00   0.0000000000E+00   0.1750605913E+00
   0.7835273147E-01   0.2131141099E+00   0.2050920841E-04  -0.3831501503E-04   0.1435644589E-03  -0.2682051052E-03   0.2460567986E+00  -0.8940679408E-03   0.7354881921E-01   0.2813073482E-01   0.0000000000E+00   0.0000000000E+00   0.2242603733E-02  -0.9677575329E-03   0.3656995526E-03   0.0000000000E+00   0.0000000000E+00   0.0000000000E+00   0.2246281366E+00
   0.7817427492E-01   0.1931474817E+00   0.2222189015E-04  -0.3586141678E-04   0.1555532310E-03  -0.2510299175E-03   0.2632460598E+00  -0.1805025325E-02   0.7843231035E-01   0.3311330626E-01   0.0000000000E+00   0.0000000000E+00   0.2402578743E-02  -0.1043085364E-02   0.4304729814E-03   0.0000000000E+00   0.0000000000E+00   0.0000000000E+00   0.2422920774E+00
   0.1771535233E+00   0.2156249919E+00   0.4963515717E-04  -0.2182601722E-04   0.3474461002E-03  -0.1527821206E-03   0.2659502434E+00  -0.4756495442E-02   0.7835812437E-01   0.1780542369E-02   0.0000000000E+00   0.0000000000E+00   0.2438697547E-02  -0.1080490058E-02   0.2314705079E-04   0.0000000000E+00   0.0000000000E+00   0.0000000000E+00   0.2402121760E+00
   0.3122382953E+00   0.1536708520E+00   0.9113416322E-04  -0.7356876277E-05   0.6379391426E-03  -0.5149813394E-04   0.2080742151E+00   0.1063531606E-01   0.6561285935E-01  -0.7692798054E-02   0.0000000000E+00   0.0000000000E+00   0.1851997625E-02  -0.7147080627E-03  -0.1000063747E-03   0.0000000000E+00   0.0000000000E+00   0.0000000000E+00   0.1769857299E+00
   0.3122204189E+00   0.1733643240E+00   0.9046423970E-04  -0.9224129168E-05   0.6332496779E-03  -0.6456890418E-04   0.2218011475E+00   0.7196139884E-02   0.6869918621E-01  -0.6712875171E-02   0.0000000000E+00   0.0000000000E+00   0.1990325497E-02  -0.7995396023E-03  -0.8726737722E-04   0.0000000000E+00   0.0000000000E+00   0.0000000000E+00   0.1917574330E+00
   0.1168786166E+00   0.2497143193E+00   0.2649370354E-04  -0.3571009118E-04   0.1854559248E-03  -0.2499706382E-03   0.2598329370E+00  -0.2206681623E-04   0.7794326106E-01   0.4142912812E-02   0.0000000000E+00   0.0000000000E+00   0.2364565787E-02  -0.1013549262E-02   0.5385786655E-04   0.0000000000E+00   0.0000000000E+00   0.0000000000E+00   0.2309267912E+00
   0.7115033013E-01   0.7054039269E-01   0.5495609108E-04  -0.2128608886E-04   0.3846926376E-03  -0.1490026220E-03   0.1288719695E+00   0.6694643643E-01   0.5874552179E-01  -0.8137273120E-01   0.0000000000E+00   0.0000000000E+00   0.9116438206E-03   0.1066118903E-03  -0.1057845506E-02   0.0000000000E+00   0.0000000000E+00   0.0000000000E+00   0.1445132567E+00
   0.8430510738E-01   0.7952952010E-01   0.5151887248E-04  -0.1693098727E-04   0.3606321073E-03  -0.1185169109E-03   0.1690502940E+00  -0.9048966244E-02   0.4800039834E-01  -0.6757067615E-01   0.0000000000E+00   0.0000000000E+00   0.1573648644E-02  -0.7416417396E-03  -0.8784187899E-03   0.0000000000E+00   0.0000000000E+00   0.0000000000E+00   0.1972516366E+00
   0.2354764855E+00   0.2141801042E+00   0.6725343610E-04  -0.1636248011E-04   0.4707740527E-03  -0.1145373607E-03   0.2583618393E+00  -0.8819874439E-03   0.7724395556E-01  -0.6714378832E-02   0.0000000000E+00   0.0000000000E+00   0.2354532489E-02  -0.1015637259E-02  -0.8728692482E-04   0.0000000000E+00   0.0000000000E+00   0.0000000000E+00   0.2306372908E+00
   0.1778529237E+00   0.1997567830E+00   0.5172870771E-04  -0.1958800015E-04   0.3621009540E-03  -0.1371160011E-03   0.2587771438E+00  -0.9071196146E-02   0.7491178430E-01   0.4455951713E-04   0.0000000000E+00   0.0000000000E+00   0.2390249674E-02  -0.1091778746E-02   0.5792737227E-06   0.0000000000E+00   0.0000000000E+00   0.0000000000E+00   0.2372710576E+00
   0.1588920543E+00   0.1996108364E+00   0.4605440837E-04  -0.2207520624E-04   0.3223808586E-03  -0.1545264437E-03   0.2612417409E+00  -0.1104708837E-01   0.7505839575E-01   0.6031825381E-02   0.0000000000E+00   0.0000000000E+00   0.2420383487E-02  -0.1119371294E-02   0.7841372995E-04   0.0000000000E+00   0.0000000000E+00   0.0000000000E+00   0.2412679886E+00
   0.1600688069E+00   0.1837537491E+00   0.4841911791E-04  -0.1965773147E-04   0.3389338254E-03  -0.1376041203E-03   0.2572554890E+00  -0.1666818793E-01   0.7217619033E-01   0.2725732637E-02   0.0000000000E+00   0.0000000000E+00   0.2406030883E-02  -0.1154976917E-02   0.3543452428E-04   0.0000000000E+00   0.0000000000E+00   0.0000000000E+00   0.2420631679E+00
   0.1782418415E+00   0.1844477959E+00   0.5372330886E-04  -0.1744363698E-04   0.3760631620E-03  -0.1221054588E-03   0.2527174431E+00  -0.1306558618E-01   0.7189555709E-01  -0.3224221264E-02   0.0000000000E+00   0.0000000000E+00   0.2350684519E-02  -0.1104494863E-02  -0.4191487644E-04   0.0000000000E+00   0.0000000000E+00   0.0000000000E+00   0.2351536153E+00
   0.2548823603E+00   0.2135962584E+00   0.7295166176E-04  -0.1526206976E-04   0.5106616323E-03  -0.1068344883E-03   0.2548370410E+00   0.1098309494E-03   0.7648406159E-01  -0.7220609479E-02   0.0000000000E+00   0.0000000000E+00   0.2318588732E-02  -0.9928649983E-03  -0.9386792323E-04   0.0000000000E+00   0.0000000000E+00   0.0000000000E+00   0.2267569317E+00
   0.3124261937E+00   0.2122247324E+00   0.8933796839E-04  -0.1347495539E-04   0.6253657788E-03  -0.9432468775E-04   0.2468880239E+00   0.2186419108E-02   0.7472233290E-01  -0.4060605323E-02   0.0000000000E+00   0.0000000000E+00   0.2238153983E-02  -0.9429668793E-03  -0.5278786920E-04   0.0000000000E+00   0.0000000000E+00   0.0000000000E+00   0.2178061770E+00
   0.3123844257E+00   0.1929429441E+00   0.8988370687E-04  -0.1127685707E-04   0.6291859481E-03  -0.7893799951E-04   0.2349307742E+00   0.4323910686E-02   0.7177640546E-01  -0.5449075669E-02   0.0000000000E+00   0.0000000000E+00   0.2121006794E-02  -0.8768824321E-03  -0.7083798369E-04   0.0000000000E+00   0.0000000000E+00   0.0000000000E+00   0.2055810323E+00
   0.6728577962E-01   0.1438221207E+00   0.2410865206E-04  -0.3115253338E-04   0.1687605644E-03  -0.2180677336E-03   0.3129990949E+00   0.2303943706E-02   0.9459091158E-01   0.2159407246E-01   0.0000000000E+00   0.0000000000E+00   0.2839306383E-02  -0.1199730582E-02   0.2807229420E-03   0.0000000000E+00   0.0000000000E+00   0.0000000000E+00   0.2788048357E+00
   0.6228363722E-01   0.1543693458E+00   0.2094570302E-04  -0.3376152268E-04   0.1466199211E-03  -0.2363306588E-03   0.3063294121E+00   0.6937640934E-02   0.9398011592E-01   0.2765415042E-01   0.0000000000E+00   0.0000000000E+00   0.2760540851E-02  -0.1131552175E-02   0.3595039555E-03   0.0000000000E+00   0.0000000000E+00   0.0000000000E+00   0.2708417143E+00
   0.1531389471E+00   0.3950193100E-01   0.7538264361E-04  -0.1723475463E-05   0.5276785053E-03  -0.1206432824E-04   0.7441335756E-01  -0.2079558211E-01   0.1608533264E-01  -0.4610721836E-01   0.0000000000E+00   0.0000000000E+00   0.7582643241E-03  -0.4794518917E-03  -0.5993938386E-03   0.0000000000E+00   0.0000000000E+00   0.0000000000E+00   0.1146091660E+00
   0.1359314082E+00   0.4587376371E-01   0.7227689862E-04  -0.3121935649E-05   0.5059382903E-03  -0.2185354954E-04   0.7204985155E-01  -0.4380309795E-01   0.8474026081E-02  -0.5961718727E-01   0.0000000000E+00   0.0000000000E+00   0.8264857311E-03  -0.6796026123E-03  -0.7750234345E-03   0.0000000000E+00   0.0000000000E+00   0.0000000000E+00   0.1410099394E+00
   0.1631367813E+00   0.0000000000E+00   0.7959841504E-04   0.0000000000E+00   0.5571889053E-03   0.0000000000E+00   0.4453128110E-01  -0.4259806696E-02   0.1208144232E-01  -0.7614900547E-02   0.0000000000E+00   0.0000000000E+00   0.4218479041E-03  -0.2124362372E-03  -0.9899370711E-04   0.0000000000E+00   0.0000000000E+00   0.0000000000E+00   0.4356681369E-01
   0.1670622443E+00   0.1949425195E-01   0.7903654284E-04  -0.5630312982E-06   0.5532557999E-03  -0.3941219088E-05   0.5928757340E-01  -0.3898115800E-02   0.1661683728E-01  -0.1944866481E-01   0.0000000000E+00   0.0000000000E+00   0.5547195696E-03  -0.2666943901E-03  -0.2528326425E-03   0.0000000000E+00   0.0000000000E+00   0.0000000000E+00   0.6623460457E-01
   0.2761361272E+00   0.9269878995E-01   0.8683990451E-04  -0.3171181461E-05   0.6078793315E-03  -0.2219827023E-04   0.1644721042E+00   0.1928756831E-01   0.5512790176E-01  -0.1775860629E-01   0.0000000000E+00   0.0000000000E+00   0.1421474632E-02  -0.4659243349E-03  -0.2308618818E-03   0.0000000000E+00   0.0000000000E+00   0.0000000000E+00   0.1345192538E+00
   0.2943478115E+00   0.9346571056E-01   0.9002768717E-04  -0.3112180055E-05   0.6301938102E-03  -0.2178526038E-04   0.1655188868E+00   0.2199579531E-01   0.5625440464E-01  -0.1322778999E-01   0.0000000000E+00   0.0000000000E+00   0.1420438268E-02  -0.4453619212E-03  -0.1719612698E-03   0.0000000000E+00   0.0000000000E+00   0.0000000000E+00   0.1318025321E+00
   0.2944825418E+00   0.1128143930E+00   0.8910309467E-04  -0.4302248918E-05   0.6237216627E-03  -0.3011574243E-04   0.1791117880E+00   0.1758100663E-01   0.5900783840E-01  -0.1325121835E-01   0.0000000000E+00   0.0000000000E+00   0.1561351345E-02  -0.5385488130E-03  -0.1722658386E-03   0.0000000000E+00   0.0000000000E+00   0.0000000000E+00   0.1470850178E+00
   0.2765894182E+00   0.1113396196E+00   0.8569214473E-04  -0.4366294152E-05   0.5998450131E-03  -0.3056405906E-04   0.1788659198E+00   0.1483245907E-01   0.5810951365E-01  -0.1729216266E-01   0.0000000000E+00   0.0000000000E+00   0.1569833279E-02  -0.5626017095E-03  -0.2247981146E-03   0.0000000000E+00   0.0000000000E+00   0.0000000000E+00   0.1502402925E+00
   0.2936011518E+00   0.7442135528E-01   0.9076259478E-04  -0.2163252861E-05   0.6353381634E-03  -0.1514277003E-04   0.1529663293E+00   0.2649026684E-01   0.5383697884E-01  -0.1243662620E-01   0.0000000000E+00   0.0000000000E+00   0.1288681556E-02  -0.3555072560E-03  -0.1616761406E-03   0.0000000000E+00   0.0000000000E+00   0.0000000000E+00   0.1172194302E+00
   0.1717071836E+00   0.3887203510E-01   0.7726819918E-04  -0.1274300084E-05   0.5408773942E-03  -0.8920100590E-05   0.8060539772E-01  -0.6191681523E-02   0.2232411486E-01  -0.3975355603E-01   0.0000000000E+00   0.0000000000E+00   0.7576566772E-03  -0.3707053530E-03  -0.5167962284E-03   0.0000000000E+00   0.0000000000E+00   0.0000000000E+00   0.1024808496E+00
   0.2936679003E+00   0.1327031858E+00   0.8791166033E-04  -0.5772272906E-05   0.6153816223E-03  -0.4040591034E-04   0.1939474155E+00   0.1250730036E-01   0.6193641477E-01  -0.1270234662E-01   0.0000000000E+00   0.0000000000E+00   0.1716143010E-02  -0.6425784873E-03  -0.1651305060E-03   0.0000000000E+00   0.0000000000E+00   0.0000000000E+00   0.1639237878E+00
   0.5203636777E-01   0.1830535546E+00   0.1516198383E-04  -0.3936679635E-04   0.1061338868E-03  -0.2755675745E-03   0.2715459984E+00   0.1295450973E-01   0.8535015244E-01   0.3153207026E-01   0.0000000000E+00   0.0000000000E+00   0.2420545998E-02  -0.9411433553E-03   0.4099169134E-03   0.0000000000E+00   0.0000000000E+00   0.0000000000E+00   0.2375093065E+00
   0.5054613562E-01   0.1682890299E+00   0.1572117688E-04  -0.3787575877E-04   0.1100482382E-03  -0.2651303114E-03   0.2892602759E+00   0.1967419475E-01   0.9268034120E-01   0.3241023032E-01   0.0000000000E+00   0.0000000000E+00   0.2555539151E-02  -0.9490799038E-03   0.4213329942E-03   0.0000000000E+00   0.0000000000E+00   0.0000000000E+00   0.2479785412E+00
   0.2924704197E+00   0.5549448096E-01   0.9132845648E-04  -0.1417792474E-05   0.6392991953E-03  -0.9924547315E-05   0.1421639657E+00   0.3036973646E-01   0.5176011065E-01  -0.1060435147E-01   0.0000000000E+00   0.0000000000E+00   0.1175250116E-02  -0.2780748644E-03  -0.1378565691E-03   0.0000000000E+00   0.0000000000E+00   0.0000000000E+00   0.1043837928E+00
   0.2923576593E+00   0.1532336632E+00   0.8654290687E-04  -0.7562227190E-05   0.6058003481E-03  -0.5293559033E-04   0.2089350307E+00   0.9104254065E-02   0.6541178541E-01  -0.1131440967E-01   0.0000000000E+00   0.0000000000E+00   0.1865802188E-02  -0.7319979075E-03  -0.1470873257E-03   0.0000000000E+00   0.0000000000E+00   0.0000000000E+00   0.1795110505E+00
   0.2712790165E+00   0.3668582434E-01   0.8905419356E-04  -0.8391329373E-06   0.6233793549E-03  -0.5873930561E-05   0.1293504436E+00   0.3105503123E-01   0.4812164245E-01  -0.1104591923E-01   0.0000000000E+00   0.0000000000E+00   0.1055974415E-02  -0.2218659460E-03  -0.1435969499E-03   0.0000000000E+00   0.0000000000E+00   0.0000000000E+00   0.9287126437E-01
   0.2513817029E+00   0.3680747033E-01   0.8647235662E-04  -0.8465331496E-06   0.6053064963E-03  -0.5925732047E-05   0.1234745534E+00   0.2763157522E-01   0.4533183859E-01  -0.1471588065E-01   0.0000000000E+00   0.0000000000E+00   0.1015855293E-02  -0.2301034237E-03  -0.1913064484E-03   0.0000000000E+00   0.0000000000E+00   0.0000000000E+00   0.9179862417E-01
   0.2341987631E+00   0.5568788643E-01   0.8296764064E-04  -0.1536596432E-05   0.5807734845E-03  -0.1075617502E-04   0.1306868346E+00   0.1894878522E-01   0.4489068595E-01  -0.2458051726E-01   0.0000000000E+00   0.0000000000E+00   0.1115349932E-02  -0.3372447094E-03  -0.3195467244E-03   0.0000000000E+00   0.0000000000E+00   0.0000000000E+00   0.1098606748E+00
   0.2537232520E+00   0.5531577259E-01   0.8573987911E-04  -0.1462339098E-05   0.6001791538E-03  -0.1023637369E-04   0.1350993410E+00   0.2404410901E-01   0.4774303499E-01  -0.1916131527E-01   0.0000000000E+00   0.0000000000E+00   0.1135631978E-02  -0.3080860378E-03  -0.2490970985E-03   0.0000000000E+00   0.0000000000E+00   0.0000000000E+00   0.1065825749E+00
   0.2354153999E+00   0.1969408454E+00   0.6871311402E-04  -0.1421307978E-04   0.4809917982E-03  -0.9949155848E-04   0.2471023736E+00  -0.1895690710E-02   0.7356200486E-01  -0.9483397661E-02   0.0000000000E+00   0.0000000000E+00   0.2256024793E-02  -0.9809500424E-03  -0.1232841696E-03   0.0000000000E+00   0.0000000000E+00   0.0000000000E+00   0.2217588900E+00
   0.2548147561E+00   0.1955705362E+00   0.7422789374E-04  -0.1307672857E-04   0.5195952562E-03  -0.9153709997E-04   0.2429939691E+00   0.1234028506E-03   0.7293521159E-01  -0.9992622525E-02   0.0000000000E+00   0.0000000000E+00   0.2210763848E-02  -0.9465535136E-03  -0.1299040928E-03   0.0000000000E+00   0.0000000000E+00   0.0000000000E+00   0.2165773249E+00
   0.1601222548E+00   0.7266274829E-01   0.6923009463E-04  -0.4113663592E-05   0.4846106624E-03  -0.2879564515E-04   0.1406189150E+00  -0.2825972013E-01   0.3370775847E-01  -0.5454415617E-01   0.0000000000E+00   0.0000000000E+00   0.1389845035E-02  -0.8055772219E-03  -0.7090740302E-03   0.0000000000E+00   0.0000000000E+00   0.0000000000E+00   0.1752871581E+00
   0.1743288705E+00   0.6064188901E-01   0.7399256170E-04  -0.2478649132E-05   0.5179479319E-03  -0.1735054392E-04   0.1206324481E+00  -0.1224082548E-01   0.3251748678E-01  -0.4847151619E-01   0.0000000000E+00   0.0000000000E+00   0.1145494497E-02  -0.5818580594E-03  -0.6301297105E-03   0.0000000000E+00   0.0000000000E+00   0.0000000000E+00   0.1440835242E+00
   0.1846928072E+00   0.8230737864E-01   0.7166427245E-04  -0.3991319596E-05   0.5016499071E-03  -0.2793923717E-04   0.1578751618E+00  -0.1381518999E-01   0.4321799154E-01  -0.4570330778E-01   0.0000000000E+00   0.0000000000E+00   0.1490543213E-02  -0.7414313600E-03  -0.5941430012E-03   0.0000000000E+00   0.0000000000E+00   0.0000000000E+00   0.1707090613E+00
   0.1699390379E+00   0.8991081724E-01   0.6731748394E-04  -0.5432769936E-05   0.4712223876E-03  -0.3802938955E-04   0.1710881418E+00  -0.2585171618E-01   0.4357092767E-01  -0.4632834669E-01   0.0000000000E+00   0.0000000000E+00   0.1657723783E-02  -0.9024943701E-03  -0.6022685070E-03   0.0000000000E+00   0.0000000000E+00   0.0000000000E+00   0.1906932403E+00
   0.9904952527E-01   0.2139334603E+00   0.2633057069E-04  -0.3448970646E-04   0.1843139948E-03  -0.2414279452E-03   0.2540998033E+00  -0.4997847194E-02   0.7473058684E-01   0.2529184792E-01   0.0000000000E+00   0.0000000000E+00   0.2331799814E-02  -0.1036469642E-02   0.3287940230E-03   0.0000000000E+00   0.0000000000E+00   0.0000000000E+00   0.2338502249E+00
   0.1400689157E+00   0.1991866472E+00   0.4039859167E-04  -0.2493972595E-04   0.2827901417E-03  -0.1745780817E-03   0.2628250146E+00  -0.1233502025E-01   0.7514699831E-01   0.1295816632E-01   0.0000000000E+00   0.0000000000E+00   0.2439814212E-02  -0.1137266241E-02   0.1684561621E-03   0.0000000000E+00   0.0000000000E+00   0.0000000000E+00   0.2445148922E+00
   0.1211660223E+00   0.1984140165E+00   0.3473015698E-04  -0.2815906534E-04   0.2431110988E-03  -0.1971134574E-03   0.2632478905E+00  -0.1224945896E-01   0.7529952946E-01   0.2019085291E-01   0.0000000000E+00   0.0000000000E+00   0.2443328693E-02  -0.1138136849E-02   0.2624810879E-03   0.0000000000E+00   0.0000000000E+00   0.0000000000E+00   0.2462768546E+00
   0.2188002806E+00   0.7551511199E-01   0.7860969786E-04  -0.2698263677E-05   0.5502678850E-03  -0.1888784574E-04   0.1470199245E+00   0.7255853133E-02   0.4628273330E-01  -0.3331771119E-01   0.0000000000E+00   0.0000000000E+00   0.1309583486E-02  -0.5073494422E-03  -0.4331302455E-03   0.0000000000E+00   0.0000000000E+00   0.0000000000E+00   0.1375021491E+00
   0.8052502943E-01   0.1525589251E+00   0.2736924135E-04  -0.2952260833E-04   0.1915846894E-03  -0.2066582583E-03   0.2938164782E+00  -0.1306878690E-01   0.8422430738E-01   0.2446875205E-01   0.0000000000E+00   0.0000000000E+00   0.2724698220E-02  -0.1264810226E-02   0.3180937766E-03   0.0000000000E+00   0.0000000000E+00   0.0000000000E+00   0.2748008524E+00
   0.7001270057E-01   0.1664698493E+00   0.2213530928E-04  -0.3387695894E-04   0.1549471650E-03  -0.2371387126E-03   0.2871675478E+00   0.1516957423E-02   0.8660535156E-01   0.3215996823E-01   0.0000000000E+00   0.0000000000E+00   0.2607308551E-02  -0.1106149124E-02   0.4180795870E-03   0.0000000000E+00   0.0000000000E+00   0.0000000000E+00   0.2600817084E+00
   0.1417891901E+00   0.1829366444E+00   0.4298139368E-04  -0.2229507171E-04   0.3008697558E-03  -0.1560655019E-03   0.2616609726E+00  -0.1865903496E-01   0.7290058128E-01   0.9821086649E-02   0.0000000000E+00   0.0000000000E+00   0.2453885087E-02  -0.1190275011E-02   0.1276741264E-03   0.0000000000E+00   0.0000000000E+00   0.0000000000E+00   0.2481156828E+00
   0.2731472054E+00   0.1744259989E+00   0.8058292429E-04  -0.1006263584E-04   0.5640804700E-03  -0.7043845086E-04   0.2270695591E+00   0.3699141221E-02   0.6923061010E-01  -0.1195974912E-01   0.0000000000E+00   0.0000000000E+00   0.2051906337E-02  -0.8519090954E-03  -0.1554767386E-03   0.0000000000E+00   0.0000000000E+00   0.0000000000E+00   0.1999364480E+00
   0.2926275326E+00   0.1735529194E+00   0.8556857515E-04  -0.9525078588E-05   0.5989800261E-03  -0.6667555011E-04   0.2234322742E+00   0.5952913073E-02   0.6881555619E-01  -0.9841706737E-02   0.0000000000E+00   0.0000000000E+00   0.2010017334E-02  -0.8172143605E-03  -0.1279421876E-03   0.0000000000E+00   0.0000000000E+00   0.0000000000E+00   0.1945947366E+00
   0.9451289360E-01   0.1608181793E+00   0.3091231260E-04  -0.2776395799E-04   0.2163861882E-03  -0.1943477059E-03   0.2835523692E+00  -0.1942387318E-01   0.7923854881E-01   0.2352420350E-01   0.0000000000E+00   0.0000000000E+00   0.2656079665E-02  -0.1282611486E-02   0.3058146455E-03   0.0000000000E+00   0.0000000000E+00   0.0000000000E+00   0.2706293895E+00
   0.8739416614E-01   0.1752319655E+00   0.2682434210E-04  -0.3148405663E-04   0.1877703947E-03  -0.2203883964E-03   0.2782878046E+00  -0.1015466582E-01   0.8043994162E-01   0.3169487743E-01   0.0000000000E+00   0.0000000000E+00   0.2572022218E-02  -0.1177729897E-02   0.4120334066E-03   0.0000000000E+00   0.0000000000E+00   0.0000000000E+00   0.2613319055E+00
   0.2747830270E+00   0.7395591889E-01   0.8776563083E-04  -0.2195676154E-05   0.6143594158E-03  -0.1536973308E-04   0.1510100081E+00   0.2372044416E-01   0.5241913567E-01  -0.1687405280E-01   0.0000000000E+00   0.0000000000E+00   0.1281681341E-02  -0.3730829896E-03  -0.2193626864E-03   0.0000000000E+00   0.0000000000E+00   0.0000000000E+00   0.1192382815E+00
   0.2267523098E+00   0.1122578932E+00   0.7555246916E-04  -0.5381720451E-05   0.5288672842E-03  -0.3767204316E-04   0.1845488535E+00   0.4841869337E-04   0.5537918167E-01  -0.2851107611E-01   0.0000000000E+00   0.0000000000E+00   0.1679205734E-02  -0.7192999186E-03  -0.3706439894E-03   0.0000000000E+00   0.0000000000E+00   0.0000000000E+00   0.1712158669E+00
   0.2230612143E+00   0.9415300021E-01   0.7705328310E-04  -0.3947161722E-05   0.5393729817E-03  -0.2763013205E-04   0.1671287872E+00   0.3161312993E-02   0.5108703005E-01  -0.3194294988E-01   0.0000000000E+00   0.0000000000E+00   0.1508542843E-02  -0.6230343218E-03  -0.4152583485E-03   0.0000000000E+00   0.0000000000E+00   0.0000000000E+00   0.1561051101E+00
   0.2730939396E+00   0.5525062958E-01   0.8851669780E-04  -0.1427277164E-05   0.6196168846E-03  -0.9990940151E-05   0.1389781690E+00   0.2778229133E-01   0.5002813810E-01  -0.1461878206E-01   0.0000000000E+00   0.0000000000E+00   0.1156350402E-02  -0.2891960081E-03  -0.1900441668E-03   0.0000000000E+00   0.0000000000E+00   0.0000000000E+00   0.1049847185E+00
   0.1574539722E+00   0.5347358330E-01   0.7304402369E-04  -0.2587349601E-05   0.5113081659E-03  -0.1811144720E-04   0.1097111911E+00  -0.2194686474E-01   0.2632929791E-01  -0.5276623832E-01   0.0000000000E+00   0.0000000000E+00   0.1083964611E-02  -0.6275901144E-03  -0.6859610981E-03   0.0000000000E+00   0.0000000000E+00   0.0000000000E+00   0.1473158967E+00
   0.1473138534E+00   0.6072740800E-01   0.6998204912E-04  -0.3683162597E-05   0.4898743438E-03  -0.2578213818E-04   0.1160897602E+00  -0.3168405541E-01   0.2532171145E-01  -0.5540304614E-01   0.0000000000E+00   0.0000000000E+00   0.1179984634E-02  -0.7410749691E-03  -0.7202395999E-03   0.0000000000E+00   0.0000000000E+00   0.0000000000E+00   0.1615792573E+00
   0.1242052706E+00   0.1489457957E+00   0.4250207860E-04  -0.1985741850E-04   0.2975145502E-03  -0.1390019295E-03   0.2664650700E+00  -0.3489807081E-01   0.6947009976E-01   0.2178406009E-02   0.0000000000E+00   0.0000000000E+00   0.2560934613E-02  -0.1356786217E-02   0.2831927812E-04   0.0000000000E+00   0.0000000000E+00   0.0000000000E+00   0.2649600854E+00
   0.1449938138E+00   0.1472293944E+00   0.4927834438E-04  -0.1620420370E-04   0.3449484107E-03  -0.1134294259E-03   0.2519046695E+00  -0.3355294507E-01   0.6550551734E-01  -0.9107271708E-02   0.0000000000E+00   0.0000000000E+00   0.2423188979E-02  -0.1287760011E-02  -0.1183945322E-03   0.0000000000E+00   0.0000000000E+00   0.0000000000E+00   0.2515116557E+00
   0.1435316186E+00   0.1659776630E+00   0.4584132989E-04  -0.1943037697E-04   0.3208893092E-03  -0.1360126388E-03   0.2594015635E+00  -0.2683869989E-01   0.6976885907E-01   0.2980796954E-02   0.0000000000E+00   0.0000000000E+00   0.2465225157E-02  -0.1255898266E-02   0.3875036040E-04   0.0000000000E+00   0.0000000000E+00   0.0000000000E+00   0.2521505371E+00
   0.1258069864E+00   0.1661336492E+00   0.4030754423E-04  -0.2242534689E-04   0.2821528096E-03  -0.1569774282E-03   0.2656283345E+00  -0.2784162451E-01   0.7133601301E-01   0.1032917751E-01   0.0000000000E+00   0.0000000000E+00   0.2525800180E-02  -0.1289309288E-02   0.1342793076E-03   0.0000000000E+00   0.0000000000E+00   0.0000000000E+00   0.2591092397E+00
   0.6684431918E-01   0.1805949878E+00   0.1987689781E-04  -0.3635427527E-04   0.1391382847E-03  -0.2544799269E-03   0.2707749375E+00   0.1867792244E-02   0.8179281893E-01   0.3263908470E-01   0.0000000000E+00   0.0000000000E+00   0.2456767542E-02  -0.1039025347E-02   0.4243081011E-03   0.0000000000E+00   0.0000000000E+00   0.0000000000E+00   0.2457309455E+00
   0.1098256282E+00   0.1659167874E+00   0.3523215481E-04  -0.2541745577E-04   0.2466250836E-03  -0.1779221904E-03   0.2751023152E+00  -0.2478255195E-01   0.7509592898E-01   0.1849155404E-01   0.0000000000E+00   0.0000000000E+00   0.2600083021E-02  -0.1298420252E-02   0.2403902025E-03   0.0000000000E+00   0.0000000000E+00   0.0000000000E+00   0.2664194546E+00
   0.1056880025E+00   0.1803665704E+00   0.3206319219E-04  -0.2849732976E-04   0.2244423453E-03  -0.1994813083E-03   0.2707956780E+00  -0.1563759115E-01   0.7654742606E-01   0.2519860543E-01   0.0000000000E+00   0.0000000000E+00   0.2525227275E-02  -0.1198405224E-02   0.3275818706E-03   0.0000000000E+00   0.0000000000E+00   0.0000000000E+00   0.2568981490E+00
   0.2152189339E+00   0.1815742103E+00   0.6459123705E-04  -0.1363271147E-04   0.4521386593E-03  -0.9542898030E-04   0.2414425568E+00  -0.6276379012E-02   0.7054985335E-01  -0.1125600022E-01   0.0000000000E+00   0.0000000000E+00   0.2221605145E-02  -0.9987410207E-03  -0.1463280028E-03   0.0000000000E+00   0.0000000000E+00   0.0000000000E+00   0.2204892879E+00
   0.2344668180E+00   0.1797229046E+00   0.7004062385E-04  -0.1219292210E-04   0.4902843670E-03  -0.8535045472E-04   0.2361014219E+00  -0.2544604080E-02   0.7006704535E-01  -0.1277838614E-01   0.0000000000E+00   0.0000000000E+00   0.2158446895E-02  -0.9439514425E-03  -0.1661190199E-03   0.0000000000E+00   0.0000000000E+00   0.0000000000E+00   0.2130445249E+00
   0.2758995709E+00   0.1304587622E+00   0.8424885689E-04  -0.5835099803E-05   0.5897419983E-03  -0.4084569862E-04   0.1924484667E+00   0.1025153066E-01   0.6080999922E-01  -0.1668626504E-01   0.0000000000E+00   0.0000000000E+00   0.1711300078E-02  -0.6572600913E-03  -0.2169214456E-03   0.0000000000E+00   0.0000000000E+00   0.0000000000E+00   0.1654215754E+00
   0.2709733265E+00   0.1522234977E+00   0.8159894325E-04  -0.7851038284E-05   0.5711926027E-03  -0.5495726799E-04   0.2104297580E+00   0.5719652232E-02   0.6484482308E-01  -0.1527348147E-01   0.0000000000E+00   0.0000000000E+00   0.1892604154E-02  -0.7686272210E-03  -0.1985552591E-03   0.0000000000E+00   0.0000000000E+00   0.0000000000E+00   0.1843797379E+00
   0.2538967312E+00   0.1773987805E+00   0.7540215082E-04  -0.1102194319E-04   0.5278150557E-03  -0.7715360235E-04   0.2303405018E+00   0.7199246173E-03   0.6931812791E-01  -0.1291680943E-01   0.0000000000E+00   0.0000000000E+00   0.2093290860E-02  -0.8917766428E-03  -0.1679185226E-03   0.0000000000E+00   0.0000000000E+00   0.0000000000E+00   0.2053734911E+00
   0.1225979740E+00   0.5808255467E-01   0.6721500237E-04  -0.5630753255E-05   0.4705050166E-03  -0.3941527279E-04   0.9749498954E-01  -0.5825880213E-01   0.1177085622E-01  -0.5881214929E-01   0.0000000000E+00   0.0000000000E+00   0.1114413733E-02  -0.9103855586E-03  -0.7645579408E-03   0.0000000000E+00   0.0000000000E+00   0.0000000000E+00   0.1703902154E+00
   0.1105198023E+00   0.7302784834E-01   0.5982054015E-04  -0.9464207410E-05   0.4187437811E-03  -0.6624945187E-04   0.1522849570E+00  -0.5656119204E-01   0.2871712947E-01  -0.6186209491E-01   0.0000000000E+00   0.0000000000E+00   0.1606381757E-02  -0.1108618180E-02  -0.8042072338E-03   0.0000000000E+00   0.0000000000E+00   0.0000000000E+00   0.2106207152E+00
   0.1479802632E+00   0.8118817561E-01   0.6486165552E-04  -0.5879936840E-05   0.4540315886E-03  -0.4115955788E-04   0.1639627295E+00  -0.3993365407E-01   0.3720872262E-01  -0.5508076202E-01   0.0000000000E+00   0.0000000000E+00   0.1647802089E-02  -0.1002850897E-02  -0.7160499063E-03   0.0000000000E+00   0.0000000000E+00   0.0000000000E+00   0.2022534920E+00
   0.1357567655E+00   0.7046297737E-01   0.6546694114E-04  -0.5620778391E-05   0.4582685880E-03  -0.3934544874E-04   0.1395598407E+00  -0.4567207785E-01   0.2816632887E-01  -0.6132225620E-01   0.0000000000E+00   0.0000000000E+00   0.1448115654E-02  -0.9598992873E-03  -0.7971893306E-03   0.0000000000E+00   0.0000000000E+00   0.0000000000E+00   0.1928739017E+00
   0.1012126171E+00   0.1967127231E+00   0.2884451696E-04  -0.3174435952E-04   0.2019116187E-03  -0.2222105167E-03   0.2640462201E+00  -0.9764938869E-02   0.7628438438E-01   0.2761201656E-01   0.0000000000E+00   0.0000000000E+00   0.2440903865E-02  -0.1118641202E-02   0.3589562153E-03   0.0000000000E+00   0.0000000000E+00   0.0000000000E+00   0.2471854689E+00
   0.1238312332E+00   0.1821644021E+00   0.3753114979E-04  -0.2528336159E-04   0.2627180485E-03  -0.1769835312E-03   0.2663937429E+00  -0.1901174742E-01   0.7421459866E-01   0.1765760795E-01   0.0000000000E+00   0.0000000000E+00   0.2498328876E-02  -0.1211942499E-02   0.2295489033E-03   0.0000000000E+00   0.0000000000E+00   0.0000000000E+00   0.2538520140E+00
   0.1615192558E+00   0.1678167323E+00   0.5101922171E-04  -0.1713208430E-04   0.3571345519E-03  -0.1199245901E-03   0.2520797954E+00  -0.2197134320E-01   0.6903253567E-01  -0.3703927440E-02   0.0000000000E+00   0.0000000000E+00   0.2379614377E-02  -0.1183050425E-02  -0.4815105672E-04   0.0000000000E+00   0.0000000000E+00   0.0000000000E+00   0.2418069600E+00
   0.1785916804E+00   0.1697261304E+00   0.5573742188E-04  -0.1537094473E-04   0.3901619532E-03  -0.1075966131E-03   0.2459404208E+00  -0.1692470824E-01   0.6870471377E-01  -0.7862674593E-02   0.0000000000E+00   0.0000000000E+00   0.2304064192E-02  -0.1113182486E-02  -0.1022147697E-03   0.0000000000E+00   0.0000000000E+00   0.0000000000E+00   0.2325909904E+00
   0.8831612436E-01   0.1396264993E+00   0.3222987025E-04  -0.2561370782E-04   0.2256090918E-03  -0.1792959548E-03   0.2962773539E+00  -0.2366361211E-01   0.8178412253E-01   0.1137840462E-01   0.0000000000E+00   0.0000000000E+00   0.2788412007E-02  -0.1370820550E-02   0.1479192600E-03   0.0000000000E+00   0.0000000000E+00   0.0000000000E+00   0.2830172157E+00
   0.9979718380E-01   0.8885322116E-01   0.5099947492E-04  -0.1406066699E-04   0.3569963244E-03  -0.9842466891E-04   0.2155660784E+00  -0.5096030435E-01   0.4938173221E-01  -0.5101609241E-01   0.0000000000E+00   0.0000000000E+00   0.2160396500E-02  -0.1304446475E-02  -0.6632092014E-03   0.0000000000E+00   0.0000000000E+00   0.0000000000E+00   0.2471148634E+00
   0.9667821467E-01   0.1274801473E+00   0.3773003375E-04  -0.2157158389E-04   0.2641102363E-03  -0.1510010872E-03   0.2850200207E+00  -0.3728308580E-01   0.7432108046E-01  -0.3057908660E-02   0.0000000000E+00   0.0000000000E+00   0.2739086223E-02  -0.1450854161E-02  -0.3975281258E-04   0.0000000000E+00   0.0000000000E+00   0.0000000000E+00   0.2830349742E+00
   0.2511449725E+00   0.1600221212E+00   0.7617068628E-04  -0.9237352915E-05   0.5331948040E-03  -0.6466147040E-04   0.2181110086E+00   0.1129289285E-03   0.6546718125E-01  -0.1605193753E-01   0.0000000000E+00   0.0000000000E+00   0.1984369755E-02  -0.8496052801E-03  -0.2086751879E-03   0.0000000000E+00   0.0000000000E+00   0.0000000000E+00   0.1957576397E+00
   0.2600016719E+00   0.1274881129E+00   0.8104898170E-04  -0.5881389929E-05   0.5673428719E-03  -0.4116972950E-04   0.1939186207E+00   0.7904312671E-02   0.6054688001E-01  -0.1967760497E-01   0.0000000000E+00   0.0000000000E+00   0.1733832629E-02  -0.6843533754E-03  -0.2558088646E-03   0.0000000000E+00   0.0000000000E+00   0.0000000000E+00   0.1695204319E+00
   0.1966500164E+00   0.1839206057E+00   0.5911329582E-04  -0.1545454236E-04   0.4137930707E-03  -0.1081817965E-03   0.2467898755E+00  -0.9884864270E-02   0.7107150336E-01  -0.7954192814E-02   0.0000000000E+00   0.0000000000E+00   0.2284338837E-02  -0.1052432779E-02  -0.1034045066E-03   0.0000000000E+00   0.0000000000E+00   0.0000000000E+00   0.2276900614E+00
   0.2589215339E+00   0.1414473644E+00   0.7962435686E-04  -0.7167578765E-05   0.5573704980E-03  -0.5017305136E-04   0.2078854702E+00   0.7941739256E-02   0.6474816285E-01  -0.1763382497E-01   0.0000000000E+00   0.0000000000E+00   0.1860784996E-02  -0.7384835067E-03  -0.2292397246E-03   0.0000000000E+00   0.0000000000E+00   0.0000000000E+00   0.1810242960E+00
   0.2465594269E+00   0.1445800132E+00   0.7646348351E-04  -0.7822228633E-05   0.5352443846E-03  -0.5475560043E-04   0.2081982095E+00   0.2140227163E-02   0.6310153100E-01  -0.1909333781E-01   0.0000000000E+00   0.0000000000E+00   0.1886256820E-02  -0.7924969499E-03  -0.2482133915E-03   0.0000000000E+00   0.0000000000E+00   0.0000000000E+00   0.1862867861E+00
   0.1921637189E+00   0.1588888182E+00   0.6100323645E-04  -0.1259322767E-04   0.4270226551E-03  -0.8815259369E-04   0.2342967515E+00  -0.1329616753E-01   0.6630017519E-01  -0.1501603198E-01   0.0000000000E+00   0.0000000000E+00   0.2183955492E-02  -0.1034752455E-02  -0.1952084157E-03   0.0000000000E+00   0.0000000000E+00   0.0000000000E+00   0.2204652453E+00
   0.1949888018E+00   0.1696802168E+00   0.6038872182E-04  -0.1373590286E-04   0.4227210527E-03  -0.9615131999E-04   0.2390731198E+00  -0.1305714235E-01   0.6780479322E-01  -0.1167824930E-01   0.0000000000E+00   0.0000000000E+00   0.2226488245E-02  -0.1051205162E-02  -0.1518172408E-03   0.0000000000E+00   0.0000000000E+00   0.0000000000E+00   0.2238936845E+00
   0.1802377963E+00   0.1551905401E+00   0.5822953609E-04  -0.1319148248E-04   0.4076067526E-03  -0.9234037736E-04   0.2382951381E+00  -0.1869430686E-01   0.6588024939E-01  -0.1365582034E-01   0.0000000000E+00   0.0000000000E+00   0.2241393554E-02  -0.1099469231E-02  -0.1775256644E-03   0.0000000000E+00   0.0000000000E+00   0.0000000000E+00   0.2279957446E+00
   0.1012605374E+00   0.1483734401E+00   0.3507292333E-04  -0.2425723160E-04   0.2455104633E-03  -0.1698006212E-03   0.2814842413E+00  -0.2973924058E-01   0.7552350022E-01   0.1255454539E-01   0.0000000000E+00   0.0000000000E+00   0.2677489634E-02  -0.1368415630E-02   0.1632090901E-03   0.0000000000E+00   0.0000000000E+00   0.0000000000E+00   0.2749945764E+00
   0.2009865965E+00   0.7795517452E-01   0.7530519088E-04  -0.3166109539E-05   0.5271363362E-03  -0.2216276678E-04   0.1495629756E+00  -0.1660809152E-02   0.4437064995E-01  -0.3986440483E-01   0.0000000000E+00   0.0000000000E+00   0.1367500234E-02  -0.5984089683E-03  -0.5182372628E-03   0.0000000000E+00   0.0000000000E+00   0.0000000000E+00   0.1509087093E+00
   0.2119258165E+00   0.1146218659E+00   0.7206719307E-04  -0.6112763399E-05   0.5044703515E-03  -0.4278934379E-04   0.1901157026E+00  -0.6615844284E-02   0.5504995749E-01  -0.3054910402E-01   0.0000000000E+00   0.0000000000E+00   0.1755854686E-02  -0.8016554230E-03  -0.3971383523E-03   0.0000000000E+00   0.0000000000E+00   0.0000000000E+00   0.1820789663E+00
   0.2071665366E+00   0.9685874071E-01   0.7361344777E-04  -0.4581998317E-05   0.5152941344E-03  -0.3207398822E-04   0.1721166661E+00  -0.5634556764E-02   0.4994463280E-01  -0.3596305435E-01   0.0000000000E+00   0.0000000000E+00   0.1588236433E-02  -0.7225294643E-03  -0.4675197066E-03   0.0000000000E+00   0.0000000000E+00   0.0000000000E+00   0.1692746905E+00
   0.9026204905E-01   0.1038478137E+00   0.4247775646E-04  -0.1884291655E-04   0.2973442952E-03  -0.1319004158E-03   0.2755112946E+00  -0.3274692688E-01   0.7282931033E-01  -0.3194195014E-01   0.0000000000E+00   0.0000000000E+00   0.2634865796E-02  -0.1372491084E-02  -0.4152453518E-03   0.0000000000E+00   0.0000000000E+00   0.0000000000E+00   0.2744912650E+00
   0.1249498324E+00   0.8331823596E-01   0.5925404604E-04  -0.8619079452E-05   0.4147783223E-03  -0.6033355617E-04   0.1770481475E+00  -0.5463046552E-01   0.3672530460E-01  -0.5696693778E-01   0.0000000000E+00   0.0000000000E+00   0.1824196958E-02  -0.1187625012E-02  -0.7405701912E-03   0.0000000000E+00   0.0000000000E+00   0.0000000000E+00   0.2245816108E+00
   0.1091141840E+00   0.1150585836E+00   0.4498549426E-04  -0.1663280581E-04   0.3148984598E-03  -0.1164296407E-03   0.2578987546E+00  -0.4736127215E-01   0.6316124473E-01  -0.2445732330E-01   0.0000000000E+00   0.0000000000E+00   0.2531587628E-02  -0.1436792719E-02  -0.3179452029E-03   0.0000000000E+00   0.0000000000E+00   0.0000000000E+00   0.2714327121E+00
   0.2444373722E+00   0.1279392995E+00   0.7761527264E-04  -0.6299315114E-05   0.5433069084E-03  -0.4409520580E-04   0.1949505270E+00   0.3251598158E-02   0.5946063754E-01  -0.2264454117E-01   0.0000000000E+00   0.0000000000E+00   0.1761368563E-02  -0.7307175119E-03  -0.2943790351E-03   0.0000000000E+00   0.0000000000E+00   0.0000000000E+00   0.1750959154E+00
   0.1993963284E+00   0.1516528950E+00   0.6390942272E-04  -0.1108737186E-04   0.4473659590E-03  -0.7761160303E-04   0.2263128487E+00  -0.1408527589E-01   0.6366827184E-01  -0.1825610033E-01   0.0000000000E+00   0.0000000000E+00   0.2114379499E-02  -0.1010796120E-02  -0.2373293043E-03   0.0000000000E+00   0.0000000000E+00   0.0000000000E+00   0.2147755988E+00
   0.2059024878E+00   0.1443578967E+00   0.6657660111E-04  -0.9735160343E-05   0.4660362077E-03  -0.6814612240E-04   0.2185743520E+00  -0.1294072855E-01   0.6169008703E-01  -0.2138383618E-01   0.0000000000E+00   0.0000000000E+00   0.2039495444E-02  -0.9702006026E-03  -0.2779898704E-03   0.0000000000E+00   0.0000000000E+00   0.0000000000E+00   0.2079981132E+00
   0.1929533239E+00   0.1007766790E+00   0.7008648365E-04  -0.5492129963E-05   0.4906053855E-03  -0.3844490974E-04   0.1799939352E+00  -0.1399948385E-01   0.4979833541E-01  -0.3783261640E-01   0.0000000000E+00   0.0000000000E+00   0.1692542798E-02  -0.8293716504E-03  -0.4918240132E-03   0.0000000000E+00   0.0000000000E+00   0.0000000000E+00   0.1832228124E+00
   0.1421152829E+00   0.1241105965E+00   0.5287711363E-04  -0.1287893470E-04   0.3701397954E-03  -0.9015254287E-04   0.2365329104E+00  -0.4191861619E-01   0.5838428828E-01  -0.2485853707E-01   0.0000000000E+00   0.0000000000E+00   0.2315932088E-02  -0.1303937758E-02  -0.3231609819E-03   0.0000000000E+00   0.0000000000E+00   0.0000000000E+00   0.2479815065E+00
   0.1463211333E+00   0.1118060490E+00   0.5680516558E-04  -0.1039737675E-04   0.3976361590E-03  -0.7278163726E-04   0.2193574153E+00  -0.4249075669E-01   0.5305999757E-01  -0.3616201866E-01   0.0000000000E+00   0.0000000000E+00   0.2161866430E-02  -0.1242159805E-02  -0.4701062426E-03   0.0000000000E+00   0.0000000000E+00   0.0000000000E+00   0.2377615836E+00
   0.1590724058E+00   0.1175894620E+00   0.5894609992E-04  -0.9932122033E-05   0.4126226994E-03  -0.6952485423E-04   0.2171971892E+00  -0.3536132540E-01   0.5455075913E-01  -0.3299852019E-01   0.0000000000E+00   0.0000000000E+00   0.2114403590E-02  -0.1168857099E-02  -0.4289807625E-03   0.0000000000E+00   0.0000000000E+00   0.0000000000E+00   0.2290131015E+00
   0.1545344046E+00   0.1312776296E+00   0.5499144681E-04  -0.1247492150E-04   0.3849401277E-03  -0.8732445051E-04   0.2319199024E+00  -0.3706387010E-01   0.5845680968E-01  -0.2376119275E-01   0.0000000000E+00   0.0000000000E+00   0.2255020205E-02  -0.1241768837E-02  -0.3088955057E-03   0.0000000000E+00   0.0000000000E+00   0.0000000000E+00   0.2393933334E+00
   0.1641987281E+00   0.1518640954E+00   0.5418826213E-04  -0.1444307832E-04   0.3793178349E-03  -0.1011015482E-03   0.2432544903E+00  -0.2447157905E-01   0.6563487339E-01  -0.1205557455E-01   0.0000000000E+00   0.0000000000E+00   0.2309055020E-02  -0.1171383882E-02  -0.1567224691E-03   0.0000000000E+00   0.0000000000E+00   0.0000000000E+00   0.2367566731E+00
   0.1116927815E+00   0.1547624904E+00   0.3751218567E-04  -0.2321981897E-04   0.2625852997E-03  -0.1625387328E-03   0.2784089585E+00  -0.2646797129E-01   0.7558229615E-01   0.1317234291E-01   0.0000000000E+00   0.0000000000E+00   0.2636746610E-02  -0.1326653477E-02   0.1712404579E-03   0.0000000000E+00   0.0000000000E+00   0.0000000000E+00   0.2695749471E+00
   0.1376541086E+00   0.1346217373E+00   0.4939144433E-04  -0.1526834020E-04   0.3457401103E-03  -0.1068783814E-03   0.2585767361E+00  -0.3579423968E-01   0.6683474894E-01  -0.1387813077E-01   0.0000000000E+00   0.0000000000E+00   0.2492645834E-02  -0.1334176852E-02  -0.1804157000E-03   0.0000000000E+00   0.0000000000E+00   0.0000000000E+00   0.2596653715E+00
   0.1810249479E+00   0.1056013760E+00   0.6662424212E-04  -0.6643374937E-05   0.4663696948E-03  -0.4650362456E-04   0.1880497703E+00  -0.2401631155E-01   0.4921003762E-01  -0.3937081716E-01   0.0000000000E+00   0.0000000000E+00   0.1804916525E-02  -0.9519425392E-03  -0.5118206230E-03   0.0000000000E+00   0.0000000000E+00   0.0000000000E+00   0.1985627710E+00
   0.1514578003E+00   0.9997175182E-01   0.6090653366E-04  -0.8106772622E-05   0.4263457356E-03  -0.5674740835E-04   0.1950505108E+00  -0.3946911703E-01   0.4667441813E-01  -0.4461946034E-01   0.0000000000E+00   0.0000000000E+00   0.1928889205E-02  -0.1119865957E-02  -0.5800529844E-03   0.0000000000E+00   0.0000000000E+00   0.0000000000E+00   0.2193805914E+00
   0.1385791585E+00   0.9233104537E-01   0.5975906191E-04  -0.8300754298E-05   0.4183134334E-03  -0.5810528009E-04   0.1916152066E+00  -0.4763152229E-01   0.4319510529E-01  -0.5103699142E-01   0.0000000000E+00   0.0000000000E+00   0.1929461317E-02  -0.1180746159E-02  -0.6634808885E-03   0.0000000000E+00   0.0000000000E+00   0.0000000000E+00   0.2268309742E+00
   0.1562749411E+00   0.9049424684E-01   0.6427763313E-04  -0.6465044649E-05   0.4499434319E-03  -0.4525531254E-04   0.1736745558E+00  -0.4058953009E-01   0.3992550772E-01  -0.5272691050E-01   0.0000000000E+00   0.0000000000E+00   0.1738737625E-02  -0.1046695492E-02  -0.6854498366E-03   0.0000000000E+00   0.0000000000E+00   0.0000000000E+00   0.2082578191E+00
   0.1276555576E+00   0.1184581573E+00   0.4989733071E-04  -0.1402033992E-04   0.3492813150E-03  -0.9814237946E-04   0.2484348945E+00  -0.4598446182E-01   0.6073512981E-01  -0.2620012494E-01   0.0000000000E+00   0.0000000000E+00   0.2440096941E-02  -0.1387354691E-02  -0.3406016243E-03   0.0000000000E+00   0.0000000000E+00   0.0000000000E+00   0.2618512715E+00
   0.1263087475E+00   0.1330028675E+00   0.4616668466E-04  -0.1678555818E-04   0.3231667927E-03  -0.1174989072E-03   0.2566676802E+00  -0.4199507498E-01   0.6440178156E-01  -0.1274255039E-01   0.0000000000E+00   0.0000000000E+00   0.2499456682E-02  -0.1383159135E-02  -0.1656531551E-03   0.0000000000E+00   0.0000000000E+00   0.0000000000E+00   0.2631315490E+00
   0.1147843194E+00   0.1295718058E+00   0.4327255450E-04  -0.1823027997E-04   0.3029078815E-03  -0.1276119598E-03   0.2611241531E+00  -0.4875576949E-01   0.6371051508E-01  -0.1092347884E-01   0.0000000000E+00   0.0000000000E+00   0.2566377294E-02  -0.1462061699E-02  -0.1420052250E-03   0.0000000000E+00   0.0000000000E+00   0.0000000000E+00   0.2718771108E+00
   0.2295689330E+00   0.1294353501E+00   0.7412825571E-04  -0.6917238165E-05   0.5188977900E-03  -0.4842066716E-04   0.1994330706E+00  -0.1616861159E-02   0.5934486283E-01  -0.2427090471E-01   0.0000000000E+00   0.0000000000E+00   0.1821146701E-02  -0.7925024119E-03  -0.3155217612E-03   0.0000000000E+00   0.0000000000E+00   0.0000000000E+00   0.1834007725E+00
   0.2016670467E+00   0.1331681717E+00   0.6707083804E-04  -0.8646911476E-05   0.4694958663E-03  -0.6052838033E-04   0.2118133283E+00  -0.1225707012E-01   0.5986687746E-01  -0.2517935026E-01   0.0000000000E+00   0.0000000000E+00   0.1975303861E-02  -0.9376113185E-03  -0.3273315534E-03   0.0000000000E+00   0.0000000000E+00   0.0000000000E+00   0.2028194233E+00
   0.1980647345E+00   0.1180525491E+00   0.6844356555E-04  -0.7115359001E-05   0.4791049589E-03  -0.4980751301E-04   0.1985192261E+00  -0.1378168058E-01   0.5542126366E-01  -0.3122360790E-01   0.0000000000E+00   0.0000000000E+00   0.1860273512E-02  -0.8996382751E-03  -0.4059069027E-03   0.0000000000E+00   0.0000000000E+00   0.0000000000E+00   0.1951350512E+00
   0.2154715548E+00   0.1310970955E+00   0.7066372763E-04  -0.7683186389E-05   0.4946460934E-03  -0.5378230472E-04   0.2038638952E+00  -0.7526723659E-02   0.5890115145E-01  -0.2547701763E-01   0.0000000000E+00   0.0000000000E+00   0.1884515668E-02  -0.8635623764E-03  -0.3312012292E-03   0.0000000000E+00   0.0000000000E+00   0.0000000000E+00   0.1923385457E+00
   0.1089060059E+00   0.1383471392E+00   0.3948411807E-04  -0.2093359380E-04   0.2763888265E-03  -0.1465351566E-03   0.2768119057E+00  -0.3801277300E-01   0.7163973982E-01  -0.1442354233E-03   0.0000000000E+00   0.0000000000E+00   0.2667238157E-02  -0.1425482667E-02  -0.1875060503E-05   0.0000000000E+00   0.0000000000E+00   0.0000000000E+00   0.2766531704E+00
   0.1692061283E+00   0.1364007821E+00   0.5814066663E-04  -0.1163860653E-04   0.4069846664E-03  -0.8147024573E-04   0.2290170368E+00  -0.2929311640E-01   0.5991717612E-01  -0.2211018155E-01   0.0000000000E+00   0.0000000000E+00   0.2198298189E-02  -0.1159733803E-02  -0.2874323601E-03   0.0000000000E+00   0.0000000000E+00   0.0000000000E+00   0.2303698447E+00
   0.1867948226E+00   0.1395420486E+00   0.6234332283E-04  -0.1047667495E-04   0.4364032598E-03  -0.7333672465E-04   0.2223684021E+00  -0.2010970028E-01   0.6067761055E-01  -0.2241560117E-01   0.0000000000E+00   0.0000000000E+00   0.2101980290E-02  -0.1050235041E-02  -0.2914028151E-03   0.0000000000E+00   0.0000000000E+00   0.0000000000E+00   0.2172902717E+00
   0.1631434364E+00   0.1046431632E+00   0.6269980322E-04  -0.7753604266E-05   0.4388986226E-03  -0.5427522986E-04   0.2016620949E+00  -0.3072349096E-01   0.5128158120E-01  -0.3955214375E-01   0.0000000000E+00   0.0000000000E+00   0.1954946679E-02  -0.1066065938E-02  -0.5141778687E-03   0.0000000000E+00   0.0000000000E+00   0.0000000000E+00   0.2150000602E+00
   0.1848988957E+00   0.1213993035E+00   0.6476196547E-04  -0.8315181976E-05   0.4533337583E-03  -0.5820627383E-04   0.2068143006E+00  -0.2054993592E-01   0.5587930940E-01  -0.3049622628E-01   0.0000000000E+00   0.0000000000E+00   0.1962154885E-02  -0.9935801891E-03  -0.3964509416E-03   0.0000000000E+00   0.0000000000E+00   0.0000000000E+00   0.2071163632E+00
   0.1720360264E+00   0.1217386986E+00   0.6150317536E-04  -0.9326672378E-05   0.4305222275E-03  -0.6528670665E-04   0.2123789310E+00  -0.2862960372E-01   0.5512479820E-01  -0.3074546068E-01   0.0000000000E+00   0.0000000000E+00   0.2044303727E-02  -0.1088807225E-02  -0.3996909889E-03   0.0000000000E+00   0.0000000000E+00   0.0000000000E+00   0.2184189571E+00
   0.1160267889E+00   0.9804558378E-01   0.5218848362E-04  -0.1238612799E-04   0.3653193853E-03  -0.8670289595E-04   0.2197820518E+00  -0.5512660624E-01   0.4939663368E-01  -0.4529481577E-01   0.0000000000E+00   0.0000000000E+00   0.2215010436E-02  -0.1358802119E-02  -0.5888326050E-03   0.0000000000E+00   0.0000000000E+00   0.0000000000E+00   0.2526024777E+00
   0.1318554731E+00   0.1052257619E+00   0.5448988158E-04  -0.1114638387E-04   0.3814291711E-03  -0.7802468708E-04   0.2225814651E+00  -0.4953926397E-01   0.5191266034E-01  -0.3973253381E-01   0.0000000000E+00   0.0000000000E+00   0.2218694462E-02  -0.1318875016E-02  -0.5165229396E-03   0.0000000000E+00   0.0000000000E+00   0.0000000000E+00   0.2475387945E+00
   0.1723558723E+00   0.1102797948E+00   0.6374678220E-04  -0.7800280448E-05   0.4462274754E-03  -0.5460196314E-04   0.1940577580E+00  -0.2969918043E-01   0.4930757328E-01  -0.3777738531E-01   0.0000000000E+00   0.0000000000E+00   0.1881752402E-02  -0.1027087798E-02  -0.4911060090E-03   0.0000000000E+00   0.0000000000E+00   0.0000000000E+00   0.2071012328E+00
           1           2           3           4
           5           6           7           8
           9          10          11          12
          13          14          15          16
          17          18          19          20
          21          22          23          24
          25          26          27          28
          29          30          31          32
          33          34           4           3
           2           1          35          36
          37          38          39          40
          41          42          36          35
          43          41          44          45
          46           9          47          48
          41          35          39          44
          49          50          51          52
          52          51          53          54
          55          56          57          58
          56          59          60          57
          61          62          63          64
          65          66          67          68
          69          70          71          72
          73          74          25          28
          27          75          76          28
          77          78          24          23
          79          80          81          82
          83          84          85          86
          87          88          89          90
          90          89          62          91
          61          92          91          62
          92          61          59          93
          56          94          93          59
          95          55          54          53
          46          96          10           9
          97          98          99         100
          12         101          98          97
          97         100         102          47
         103         104          31          30
         105         103          30         106
          73         107         108         109
         110         111         112         113
          32          31         114         115
         116         117         118         119
         120         121         122         123
         121          83          86         122
          80         124         125          81
         126         127         128         129
         130         101          12          11
         131          43         101         130
          34         129         132           4
          42          41          43         131
          35           1          40          39
         101          43          45          98
         133         134         109         108
         135         136          13          16
         137         138          65          68
          94          56          55          95
          58         137          54          55
          49          52          68          67
         139         140         141         142
         140         139          82          81
          88          87         142         141
         143         144         145         146
         147          26          25         148
         149         150         128         151
           5           8         152         102
         132         129         128         150
         153         100          99         154
          48          47         102         152
          59          61          64          60
         106         155         113         118
          62          89         156          63
          88         157         156          89
         123         116         119         120
          66          65         134         133
         144         143          84          83
           9          12          97          47
         104         158         114          31
         159         160         127         126
         119         112         161         120
         117         105         106         118
         162         163         164         165
          83         121         166         144
         167         168         141         140
         167         143         146         168
           6         114         158           7
          38          37         169         170
          40         132         150          37
         160         159          20          19
          78         171         172          24
          18          17          21          24
         173         174          78          77
         132          40           1           4
          28          76         107          73
         175         176         177         178
         176         179          57          60
         137          68          52          54
          60          64         177         176
         163         162         155          29
          75          27         174         173
         180         174          27          26
          64          63         181         177
          98          45         182          99
         183         182          45          44
          38         183          44          39
          58          57         179         184
         185         181          63         156
         134         186         187         109
         188          74         187         189
         138         186         134          65
          88         141         168         157
         166         121         120         161
         190         191         166         161
         155         106          30          29
         192         193         194         195
         118         113         112         119
         125          84         143         167
         124          85          84         125
           6         196         115         114
         196           6           5         153
         197          32         115         198
         111         190         161         112
         199         148         188         135
         170         169         200         201
         202         164         163         197
         203         204         146         145
         205         206         201         200
         187          74          73         109
         176         175         207         179
         208         209          16          15
         210         186         138         184
         184         138         137          58
         179         207         210         184
         211         212         172         171
          78         174         180         171
         125         167         140          81
          37         150         149         169
         213         214         215         216
         217         182         183         201
         170         201         183          38
         218         219         206         205
         111         220         221         190
         157         168         146         204
         177         181         222         178
         222         181         185         223
         186         210         189         187
         224         191         190         221
         100         153           5         102
         185         156         157         204
         113         155         162         110
          26         147         193         180
          29          32         197         163
         225         226          19          18
         144         166         191         145
         212         192         227         228
         198         115         196         229
         206         154         217         201
         153         154         229         196
         172         225          18          24
         148          25          74         188
          14          13         175         178
         207         175          13         136
         189         136         135         188
         230         202         197         198
         210         207         136         189
         165         164         231         232
         169         149         233         200
         234         160          19         226
         217         154          99         182
         203         145         191         224
         151         235         233         149
         236         223         203         224
         185         204         203         223
         178         222         237          14
         110         162         165         238
         239         223         236         240
         238         220         111         110
         219         230         198         229
         241         242         232         243
         242          69         220         238
          72          71         240         236
         244         205         200         233
         215         231         164         202
         211         171         180         193
         228         225         172         212
         194         193         147         245
         245         147         148         199
         135          16         209         199
         209         208         246         247
         127         160         234         248
         193         192         212         211
         226         225         228         249
         151         128         127         248
         248         250         235         151
          72         221         220          69
          14         237         251          15
          70          69         252         253
         206         219         229         154
         238         165         232         242
          72         236         224         221
         216         215         202         230
         245         247         254         194
         255         256         257         258
         230         219         218         216
         214         259         231         215
         216         218         260         213
         261         255         258         214
         239         237         222         223
         194         254         262         195
         263         264         227         265
         250         266         267         268
         199         209         247         245
         240          71         269         251
         270         271         246         272
         260         244         273         213
         237         239         240         251
         218         205         244         260
          70         272         269          71
         232         231         259         243
         274         275         243         259
         257         256         263         276
         277         275         274         278
         234         226         249         279
         271         277         262         254
         271         254         247         246
         246         208         269         272
         244         233         235         273
         251         269         208          15
         275         270         253         252
         234         279         250         248
         279         249         264         280
         259         214         258         274
         262         281         276         195
         195         276         263         265
         257         276         281         278
         278         274         258         257
         266         280         256         255
         261         214         213         267
         267         266         255         261
         266         250         279         280
         228         227         264         249
         256         280         264         263
         265         227         192         195
         281         262         277         278
         235         250         268         273
         273         268         267         213
         277         271         270         275
         253         270         272          70
         252          69         242         241
         243         275         252         241
 VARIABLES = X,Y,DU1,DU2,U1,U2,S11,S22,S33,S12,S13,S23,E11,E22,E12,E33,E13,E23,SMISES
 ZONE, T="0.9000D+01" F=FEPOINT, I=  281 J=  250
   0.1781797268E-01   0.1338882252E+00   0.6995108697E-05  -0.3884119502E-04   0.5596086958E-04  -0.3107295602E-03   0.4268717440E+00   0.8185409329E-01   0.1526177512E+00   0.6530604557E-02   0.0000000000E+00   0.0000000000E+00   0.3565301906E-02  -0.9199275526E-03   0.8489785924E-04   0.0000000000E+00   0.0000000000E+00   0.0000000000E+00   0.3140532750E+00
   0.0000000000E+00   0.1329765263E+00   0.0000000000E+00  -0.3964596163E-04   0.0000000000E+00  -0.3171676931E-03   0.4295640803E+00   0.8533173454E-01   0.1544687445E+00   0.1103442825E-01   0.0000000000E+00   0.0000000000E+00   0.3576239366E-02  -0.8987811290E-03   0.1434475672E-03   0.0000000000E+00   0.0000000000E+00   0.0000000000E+00   0.3160539694E+00
   0.0000000000E+00   0.1163298478E+00   0.0000000000E+00  -0.3742435212E-04   0.0000000000E+00  -0.2993948170E-03   0.5384641461E+00   0.3599729190E-01   0.1723384314E+00   0.8778697349E-02   0.0000000000E+00   0.0000000000E+00   0.4759634291E-02  -0.1772434813E-02   0.1141230655E-03   0.0000000000E+00   0.0000000000E+00   0.0000000000E+00   0.4489160832E+00
   0.1924260324E-01   0.1159634041E+00   0.9829582524E-05  -0.3642042832E-04   0.7863666019E-04  -0.2913634266E-03   0.4919581265E+00   0.3455888940E-01   0.1579551048E+00  -0.4375623014E-01   0.0000000000E+00   0.0000000000E+00   0.4342039283E-02  -0.1604150800E-02  -0.5688309919E-03   0.0000000000E+00   0.0000000000E+00   0.0000000000E+00   0.4187573385E+00
   0.7816798963E-01   0.2315117769E+00   0.1849893641E-04  -0.4051400749E-04   0.1479914912E-03  -0.3241120599E-03   0.2618016759E+00   0.1362917807E-03   0.7858139029E-01   0.1813537274E-01   0.0000000000E+00   0.0000000000E+00   0.2381863712E-02  -0.1019786281E-02   0.2357598456E-03   0.0000000000E+00   0.0000000000E+00   0.0000000000E+00   0.2348029922E+00
   0.9799278689E-01   0.2317229572E+00   0.2386522070E-04  -0.3692275069E-04   0.1909217656E-03  -0.2953820056E-03   0.2767166847E+00  -0.1352417433E-02   0.8260928018E-01   0.1651827425E-01   0.0000000000E+00   0.0000000000E+00   0.2523396259E-02  -0.1091502069E-02   0.2147375652E-03   0.0000000000E+00   0.0000000000E+00   0.0000000000E+00   0.2487731733E+00
   0.9741082984E-01   0.2496475157E+00   0.2095621536E-04  -0.3916492128E-04   0.1676497229E-03  -0.3133193702E-03   0.2699204340E+00  -0.1373609390E-02   0.8056404738E-01   0.5674861436E-02   0.0000000000E+00   0.0000000000E+00   0.2461633026E-02  -0.1065189538E-02   0.7377319867E-04   0.0000000000E+00   0.0000000000E+00   0.0000000000E+00   0.2409366125E+00
   0.7792072769E-01   0.2496171004E+00   0.1588301032E-04  -0.4254439680E-04   0.1270640826E-03  -0.3403551744E-03   0.2442744152E+00  -0.2443627823E-02   0.7254923620E-01   0.6304502489E-02   0.0000000000E+00   0.0000000000E+00   0.2232427326E-02  -0.9749072323E-03   0.8195853236E-04   0.0000000000E+00   0.0000000000E+00   0.0000000000E+00   0.2190352818E+00
   0.1913587276E-01   0.2328888764E+00   0.4186906655E-05  -0.4821695311E-04   0.3349525324E-04  -0.3857356249E-03   0.2218463699E+00   0.6196802195E-02   0.6841295164E-01   0.5230157163E-02   0.0000000000E+00   0.0000000000E+00   0.1994634438E-02  -0.8088099428E-03   0.6799204312E-04   0.0000000000E+00   0.0000000000E+00   0.0000000000E+00   0.1928287624E+00
   0.0000000000E+00   0.2328943492E+00   0.0000000000E+00  -0.4877609362E-04   0.0000000000E+00  -0.3902087490E-03   0.2182617798E+00   0.6580531487E-02   0.6745269339E-01   0.5891845187E-02   0.0000000000E+00   0.0000000000E+00   0.1960518124E-02  -0.7913381048E-03   0.7659398743E-04   0.0000000000E+00   0.0000000000E+00   0.0000000000E+00   0.1889629915E+00
   0.0000000000E+00   0.2162416158E+00   0.0000000000E+00  -0.4722813783E-04   0.0000000000E+00  -0.3778251026E-03   0.2480105973E+00   0.1262857337E-01   0.7819175120E-01   0.6035279190E-02   0.0000000000E+00   0.0000000000E+00   0.2207644999E-02  -0.8523213118E-03   0.7845862947E-04   0.0000000000E+00   0.0000000000E+00   0.0000000000E+00   0.2105040965E+00
   0.1857338290E-01   0.2163544608E+00   0.4565344514E-05  -0.4668358177E-04   0.3652275611E-04  -0.3734686541E-03   0.2504678957E+00   0.1165973239E-01   0.7863828843E-01   0.1025564579E-01   0.0000000000E+00   0.0000000000E+00   0.2233784895E-02  -0.8707212285E-03   0.1333233953E-03   0.0000000000E+00   0.0000000000E+00   0.0000000000E+00   0.2144177764E+00
   0.2579580661E+00   0.9224460563E-01   0.8362000731E-04  -0.3296152572E-05   0.6689600584E-03  -0.2636922058E-04   0.1845359924E+00   0.1734933883E-01   0.6056559938E-01  -0.2516773892E-01   0.0000000000E+00   0.0000000000E+00   0.1611615110E-02  -0.5618113871E-03  -0.3271806059E-03   0.0000000000E+00   0.0000000000E+00   0.0000000000E+00   0.1564644942E+00
   0.2593425724E+00   0.1102453175E+00   0.8236604865E-04  -0.4512505276E-05   0.6589283892E-03  -0.3610004221E-04   0.2015242023E+00   0.1284945603E-01   0.6431209751E-01  -0.2419736492E-01   0.0000000000E+00   0.0000000000E+00   0.1783757363E-02  -0.6690143391E-03  -0.3145657440E-03   0.0000000000E+00   0.0000000000E+00   0.0000000000E+00   0.1740072559E+00
   0.2425663088E+00   0.1106330276E+00   0.7897520231E-04  -0.4849041415E-05   0.6318016185E-03  -0.3879233132E-04   0.2034980529E+00   0.6961094823E-02   0.6313774433E-01  -0.2848104868E-01   0.0000000000E+00   0.0000000000E+00   0.1824684012E-02  -0.7302964436E-03  -0.3702536328E-03   0.0000000000E+00   0.0000000000E+00   0.0000000000E+00   0.1821037085E+00
   0.2401034042E+00   0.9264946057E-01   0.8036313396E-04  -0.3539770277E-05   0.6429050717E-03  -0.2831816221E-04   0.1850805501E+00   0.1116653245E-01   0.5887412478E-01  -0.3062528488E-01   0.0000000000E+00   0.0000000000E+00   0.1640683530E-02  -0.6201987002E-03  -0.3981287034E-03   0.0000000000E+00   0.0000000000E+00   0.0000000000E+00   0.1643828536E+00
   0.9302796544E-01   0.3817220214E-01   0.7111261511E-04  -0.1068227345E-04   0.5689009209E-03  -0.8545818763E-04  -0.3155865685E-01  -0.1620321616E+00  -0.5807724554E-01   0.2257295660E-01   0.0000000000E+00   0.0000000000E+00   0.3447416529E-03  -0.1351413909E-02   0.2934484358E-03   0.0000000000E+00   0.0000000000E+00   0.0000000000E+00   0.1159056950E+00
   0.1086736427E+00   0.4603784586E-01   0.6964251905E-04  -0.6743959537E-05   0.5571401524E-03  -0.5395167630E-04   0.5585598213E-01  -0.6630448650E-01  -0.3134551311E-02  -0.3365209139E-01   0.0000000000E+00   0.0000000000E+00   0.7668769347E-03  -0.8212091574E-03  -0.4374771881E-03   0.0000000000E+00   0.0000000000E+00   0.0000000000E+00   0.1153408019E+00
   0.9666485227E-01   0.6343732229E-01   0.6152843021E-04  -0.1165248961E-04   0.4922274417E-03  -0.9321991688E-04   0.1052251427E+00  -0.4050625434E-01   0.1941566651E-01  -0.5009884821E-01   0.0000000000E+00   0.0000000000E+00   0.1115523191E-02  -0.7789849711E-03  -0.6512850267E-03   0.0000000000E+00   0.0000000000E+00   0.0000000000E+00   0.1543582993E+00
   0.8372577411E-01   0.5541162498E-01   0.6431273462E-04  -0.1615541316E-04   0.5145018769E-03  -0.1292433053E-03   0.2829387137E-01  -0.3619478395E-01  -0.2370273774E-02  -0.1618040946E-01   0.0000000000E+00   0.0000000000E+00   0.3986338869E-03  -0.4397186323E-03  -0.2103453229E-03   0.0000000000E+00   0.0000000000E+00   0.0000000000E+00   0.6286778925E-01
   0.9875361748E-01   0.1946165135E-01   0.7501009803E-04  -0.5264561245E-05   0.6000807843E-03  -0.4211648996E-04  -0.3320845423E-01  -0.2528476258E+00  -0.8581682401E-01   0.3155058049E-01   0.0000000000E+00   0.0000000000E+00   0.6839088071E-03  -0.2171400423E-02   0.4101575464E-03   0.0000000000E+00   0.0000000000E+00   0.0000000000E+00   0.1956815986E+00
   0.1006902172E+00   0.0000000000E+00   0.7669068531E-04   0.0000000000E+00   0.6135254825E-03   0.0000000000E+00  -0.4523191535E-01  -0.2738654483E+00  -0.9572920909E-01  -0.1722600075E-01   0.0000000000E+00   0.0000000000E+00   0.6564648186E-03  -0.2315771109E-02  -0.2239380097E-03   0.0000000000E+00   0.0000000000E+00   0.0000000000E+00   0.2090433194E+00
   0.1215366966E+00   0.0000000000E+00   0.7815183898E-04   0.0000000000E+00   0.6252147118E-03   0.0000000000E+00   0.6773765668E-02  -0.8665061899E-01  -0.2396305600E-01  -0.1848692677E-01   0.0000000000E+00   0.0000000000E+00   0.3995786816E-03  -0.8149383189E-03  -0.2403300480E-03   0.0000000000E+00   0.0000000000E+00   0.0000000000E+00   0.8718974994E-01
   0.1224133738E+00   0.2609042482E-01   0.7583442070E-04  -0.2431542051E-05   0.6066753656E-03  -0.1945233641E-04   0.2654021901E-01  -0.8368711575E-01  -0.1714406902E-01  -0.2218751077E-01   0.0000000000E+00   0.0000000000E+00   0.5678957444E-03  -0.8650596075E-03  -0.2884376400E-03   0.0000000000E+00   0.0000000000E+00   0.0000000000E+00   0.1096222396E+00
   0.2112782683E+00   0.3762489299E-01   0.8156992776E-04  -0.9266450683E-06   0.6525594221E-03  -0.7413160546E-05   0.1202011921E+00   0.1824682617E-01   0.4153440548E-01  -0.2794380376E-01   0.0000000000E+00   0.0000000000E+00   0.1022668226E-02  -0.3027385310E-03  -0.3632694489E-03   0.0000000000E+00   0.0000000000E+00   0.0000000000E+00   0.1040824120E+00
   0.1911715400E+00   0.3837314854E-01   0.7929222066E-04  -0.1039095662E-05   0.6343377653E-03  -0.8312765292E-05   0.1085597623E+00   0.6870343853E-02   0.3462903184E-01  -0.3596388809E-01   0.0000000000E+00   0.0000000000E+00   0.9610994957E-03  -0.3608629438E-03  -0.4675305452E-03   0.0000000000E+00   0.0000000000E+00   0.0000000000E+00   0.1098192282E+00
   0.1874334950E+00   0.1900894097E-01   0.8059366394E-04  -0.4421810457E-06   0.6447493115E-03  -0.3537448365E-05   0.8581454483E-01   0.1115740223E-01   0.2909158412E-01  -0.1775146781E-01   0.0000000000E+00   0.0000000000E+00   0.7373984893E-03  -0.2331443646E-03  -0.2307690815E-03   0.0000000000E+00   0.0000000000E+00   0.0000000000E+00   0.7493046639E-01
   0.2079742707E+00   0.1873444919E-01   0.8244318411E-04  -0.3971898792E-06   0.6595454729E-03  -0.3177519034E-05   0.1044272127E+00   0.2122255664E-01   0.3769493080E-01  -0.1399917791E-01   0.0000000000E+00   0.0000000000E+00   0.8675196647E-03  -0.2141408641E-03  -0.1819893128E-03   0.0000000000E+00   0.0000000000E+00   0.0000000000E+00   0.8045714889E-01
   0.1578167860E+00   0.2157372582E+00   0.4371544168E-04  -0.2446553376E-04   0.3497235334E-03  -0.1957242701E-03   0.2990904989E+00  -0.6531181568E-02   0.8776779519E-01   0.7896960523E-02   0.0000000000E+00   0.0000000000E+00   0.2747195148E-02  -0.1225886698E-02   0.1026604868E-03   0.0000000000E+00   0.0000000000E+00   0.0000000000E+00   0.2713920249E+00
   0.1568243199E+00   0.2323637215E+00   0.4129432021E-04  -0.2686449964E-04   0.3303545617E-03  -0.2149159971E-03   0.3062128420E+00  -0.3135584023E-02   0.9092317739E-01   0.4985468016E-02   0.0000000000E+00   0.0000000000E+00   0.2798765640E-02  -0.1222763898E-02   0.6481108421E-04   0.0000000000E+00   0.0000000000E+00   0.0000000000E+00   0.2748378056E+00
   0.1372969942E+00   0.2323606698E+00   0.3529146640E-04  -0.2994046399E-04   0.2823317312E-03  -0.2395237119E-03   0.2999038874E+00  -0.3144137235E-02   0.8902792504E-01   0.8900267873E-02   0.0000000000E+00   0.0000000000E+00   0.2741387510E-02  -0.1198236810E-02   0.1157034824E-03   0.0000000000E+00   0.0000000000E+00   0.0000000000E+00   0.2695519861E+00
   0.1385560761E+00   0.2155654720E+00   0.3788511910E-04  -0.2747788619E-04   0.3030809528E-03  -0.2198230895E-03   0.2968526878E+00  -0.7283319952E-02   0.8687081036E-01   0.1461223503E-01   0.0000000000E+00   0.0000000000E+00   0.2729764407E-02  -0.1224003694E-02   0.1899590554E-03   0.0000000000E+00   0.0000000000E+00   0.0000000000E+00   0.2708064643E+00
   0.0000000000E+00   0.9970126620E-01   0.0000000000E+00  -0.3319275520E-04   0.0000000000E+00  -0.2655420416E-03   0.8280389664E+00   0.7615394899E-01   0.2712578746E+00   0.9796370621E-02   0.0000000000E+00   0.0000000000E+00   0.7238154193E-02  -0.2536351033E-02   0.1273528181E-03   0.0000000000E+00   0.0000000000E+00   0.0000000000E+00   0.6686752315E+00
   0.1964805877E-01   0.9778873454E-01   0.1544737453E-04  -0.3219911729E-04   0.1235789962E-03  -0.2575929383E-03   0.7606221304E+00   0.7202790365E-01   0.2497950102E+00  -0.1141895148E+00   0.0000000000E+00   0.0000000000E+00   0.6640752563E-02  -0.2310972385E-02  -0.1484463692E-02   0.0000000000E+00   0.0000000000E+00   0.0000000000E+00   0.6439298622E+00
   0.1685041762E-01   0.1509710756E+00   0.5706535176E-05  -0.4062660207E-04   0.4565228141E-04  -0.3250128166E-03   0.3629065721E+00   0.6081248147E-01   0.1271157161E+00   0.1116763717E-01   0.0000000000E+00   0.0000000000E+00   0.3065281128E-02  -0.8619420498E-03   0.1451792833E-03   0.0000000000E+00   0.0000000000E+00   0.0000000000E+00   0.2768141174E+00
   0.0000000000E+00   0.1496292284E+00   0.0000000000E+00  -0.4119750748E-04   0.0000000000E+00  -0.3295800598E-03   0.3667912952E+00   0.6916362737E-01   0.1307864768E+00   0.8543228498E-02   0.0000000000E+00   0.0000000000E+00   0.3068062639E-02  -0.8010970420E-03   0.1110619705E-03   0.0000000000E+00   0.0000000000E+00   0.0000000000E+00   0.2723019515E+00
   0.5122657432E-01   0.1383641090E+00   0.1914046851E-04  -0.3394788473E-04   0.1531237481E-03  -0.2715830778E-03   0.3741881544E+00   0.2295920033E-01   0.1191442064E+00   0.1949499591E-01   0.0000000000E+00   0.0000000000E+00   0.3315571324E-02  -0.1250405079E-02   0.2534349468E-03   0.0000000000E+00   0.0000000000E+00   0.0000000000E+00   0.3159020603E+00
   0.4919544747E-01   0.1537328607E+00   0.1650485225E-04  -0.3634614103E-04   0.1320388180E-03  -0.2907691283E-03   0.3481348310E+00   0.2647246874E-01   0.1123821899E+00   0.3036543473E-01   0.0000000000E+00   0.0000000000E+00   0.3064784334E-02  -0.1116826375E-02   0.3947506514E-03   0.0000000000E+00   0.0000000000E+00   0.0000000000E+00   0.2933778266E+00
   0.3327628905E-01   0.1523865359E+00   0.1120270566E-04  -0.3887989452E-04   0.8962164531E-04  -0.3110391561E-03   0.3574783476E+00   0.4621468315E-01   0.1211079092E+00   0.2326397308E-01   0.0000000000E+00   0.0000000000E+00   0.3072815699E-02  -0.9736119391E-03   0.3024316500E-03   0.0000000000E+00   0.0000000000E+00   0.0000000000E+00   0.2858598246E+00
   0.3449106216E-01   0.1354089634E+00   0.1328728485E-04  -0.3675829144E-04   0.1062982788E-03  -0.2940663315E-03   0.3947894599E+00   0.4868413057E-01   0.1330420771E+00   0.2302231387E-01   0.0000000000E+00   0.0000000000E+00   0.3402715976E-02  -0.1096653305E-02   0.2992900803E-03   0.0000000000E+00   0.0000000000E+00   0.0000000000E+00   0.3094800516E+00
   0.1673098173E-01   0.1674237997E+00   0.5146158594E-05  -0.4214870292E-04   0.4116926875E-04  -0.3371896234E-03   0.3285931511E+00   0.5114127102E-01   0.1139203266E+00   0.1361567591E-01   0.0000000000E+00   0.0000000000E+00   0.2790746718E-02  -0.8161277231E-03   0.1770037869E-03   0.0000000000E+00   0.0000000000E+00   0.0000000000E+00   0.2533422859E+00
   0.0000000000E+00   0.1662829129E+00   0.0000000000E+00  -0.4263990217E-04   0.0000000000E+00  -0.3411192173E-03   0.3288197174E+00   0.5546394920E-01   0.1152851000E+00   0.7283195708E-02   0.0000000000E+00   0.0000000000E+00   0.2775950027E-02  -0.7776749602E-03   0.9468154421E-04   0.0000000000E+00   0.0000000000E+00   0.0000000000E+00   0.2489704854E+00
   0.1713552060E-01   0.1837328212E+00   0.4895355700E-05  -0.4363409146E-04   0.3916284560E-04  -0.3490727317E-03   0.3001846591E+00   0.3593578302E-01   0.1008361326E+00   0.1334827512E-01   0.0000000000E+00   0.0000000000E+00   0.2591530844E-02  -0.8437045448E-03   0.1735275765E-03   0.0000000000E+00   0.0000000000E+00   0.0000000000E+00   0.2400383879E+00
   0.3348339783E-01   0.1682421589E+00   0.1032078073E-04  -0.4052590440E-04   0.8256624586E-04  -0.3242072352E-03   0.3260599563E+00   0.3723923909E-01   0.1089897586E+00   0.2898655376E-01   0.0000000000E+00   0.0000000000E+00   0.2821912570E-02  -0.9327567540E-03   0.3768251989E-03   0.0000000000E+00   0.0000000000E+00   0.0000000000E+00   0.2646181853E+00
   0.3460280087E-01   0.1839011570E+00   0.9944307253E-05  -0.4200844510E-04   0.7955445803E-04  -0.3360675608E-03   0.3011217766E+00   0.2723612745E-01   0.9850737121E-01   0.2799347975E-01   0.0000000000E+00   0.0000000000E+00   0.2633987270E-02  -0.9265261689E-03   0.3639152367E-03   0.0000000000E+00   0.0000000000E+00   0.0000000000E+00   0.2508495552E+00
   0.1947596632E-01   0.2495533824E+00   0.3502358286E-05  -0.4962417774E-04   0.2801886629E-04  -0.3969934219E-03   0.1794040111E+00  -0.5421821936E-02   0.5219465674E-01   0.9929213669E-03   0.0000000000E+00   0.0000000000E+00   0.1653721606E-02  -0.7490142228E-03   0.1290797777E-04   0.0000000000E+00   0.0000000000E+00   0.0000000000E+00   0.1640679000E+00
   0.3855517165E-01   0.2325255211E+00   0.8595105215E-05  -0.4652877048E-04   0.6876084172E-04  -0.3722301639E-03   0.2317670944E+00   0.4806332339E-02   0.7097202801E-01   0.1316091256E-01   0.0000000000E+00   0.0000000000E+00   0.2090335863E-02  -0.8601540438E-03   0.1710918632E-03   0.0000000000E+00   0.0000000000E+00   0.0000000000E+00   0.2035799603E+00
   0.3895382631E-01   0.2495676200E+00   0.7215112174E-05  -0.4804222306E-04   0.5772089739E-04  -0.3843377844E-03   0.1952576619E+00  -0.4670361078E-02   0.5717619025E-01   0.5002535141E-02   0.0000000000E+00   0.0000000000E+00   0.1795059132E-02  -0.8040051673E-03   0.6503295683E-04   0.0000000000E+00   0.0000000000E+00   0.0000000000E+00   0.1774484592E+00
   0.3300417492E+00   0.0000000000E+00   0.9722979590E-04   0.0000000000E+00   0.7778383672E-03   0.0000000000E+00   0.1494505480E+00   0.4308640080E-01   0.5776108464E-01  -0.4335403738E-03   0.0000000000E+00   0.0000000000E+00   0.1191963024E-02  -0.1907708899E-03  -0.5636024859E-05   0.0000000000E+00   0.0000000000E+00   0.0000000000E+00   0.9983619807E-01
   0.3508999940E+00   0.0000000000E+00   0.1000000000E-03   0.0000000000E+00   0.8000000000E-03   0.0000000000E+00   0.1503248355E+00   0.4334346708E-01   0.5810049078E-01  -0.2670822365E-05   0.0000000000E+00   0.0000000000E+00   0.1198916482E-02  -0.1918413082E-03  -0.3472069074E-07   0.0000000000E+00   0.0000000000E+00   0.0000000000E+00   0.1004194883E+00
   0.3508999940E+00   0.1922699720E-01   0.1000000000E-03  -0.4191893133E-06   0.8000000000E-03  -0.3353514506E-05   0.1519572735E+00   0.4260331419E-01   0.5836817631E-01  -0.2509131422E-04   0.0000000000E+00   0.0000000000E+00   0.1216658264E-02  -0.2049432076E-03  -0.3261870849E-06   0.0000000000E+00   0.0000000000E+00   0.0000000000E+00   0.1023804011E+00
   0.3306382100E+00   0.1871089426E-01   0.9726922721E-04  -0.4056707959E-06   0.7781538176E-03  -0.3245366367E-05   0.1511856322E+00   0.4240198092E-01   0.5807628392E-01  -0.1393663331E-02   0.0000000000E+00   0.0000000000E+00   0.1210421527E-02  -0.2037659390E-03  -0.1811762330E-04   0.0000000000E+00   0.0000000000E+00   0.0000000000E+00   0.1018806370E+00
   0.3508999940E+00   0.3845349233E-01   0.1000000000E-03  -0.8941745386E-06   0.8000000000E-03  -0.7153396308E-05   0.1569220141E+00   0.4045938850E-01   0.5921442077E-01  -0.2985460611E-04   0.0000000000E+00   0.0000000000E+00   0.1270198713E-02  -0.2438154195E-03  -0.3881098795E-06   0.0000000000E+00   0.0000000000E+00   0.0000000000E+00   0.1082914386E+00
   0.3310807332E+00   0.3767519090E-01   0.9721169021E-04  -0.8712883692E-06   0.7776935216E-03  -0.6970306953E-05   0.1563187271E+00   0.4037172870E-01   0.5900713675E-01  -0.2884619640E-02   0.0000000000E+00   0.0000000000E+00   0.1265050675E-02  -0.2422603047E-03  -0.3750005532E-04   0.0000000000E+00   0.0000000000E+00   0.0000000000E+00   0.1079368917E+00
   0.3314321881E+00   0.5674970644E-01   0.9707545881E-04  -0.1446518214E-05   0.7766036705E-03  -0.1157214571E-04   0.1645593575E+00   0.3711574108E-01   0.6050252958E-01  -0.3899460857E-02   0.0000000000E+00   0.0000000000E+00   0.1352738763E-02  -0.3040282505E-03  -0.5069299114E-04   0.0000000000E+00   0.0000000000E+00   0.0000000000E+00   0.1176712818E+00
   0.3317095428E+00   0.7593704949E-01   0.9687509014E-04  -0.2177845691E-05   0.7750007211E-03  -0.1742276553E-04   0.1754385060E+00   0.3291391869E-01   0.6250572739E-01  -0.4631616001E-02   0.0000000000E+00   0.0000000000E+00   0.1468126121E-02  -0.3846935132E-03  -0.6021100802E-04   0.0000000000E+00   0.0000000000E+00   0.0000000000E+00   0.1304806649E+00
   0.3126557240E+00   0.7512606360E-01   0.9379855219E-04  -0.2161022229E-05   0.7503884175E-03  -0.1728817784E-04   0.1738688514E+00   0.3173733681E-01   0.6168185647E-01  -0.9222042977E-02   0.0000000000E+00   0.0000000000E+00   0.1458430934E-02  -0.3892787556E-03  -0.1198865587E-03   0.0000000000E+00   0.0000000000E+00   0.0000000000E+00   0.1307171863E+00
   0.3119925690E+00   0.5604035646E-01   0.9418344150E-04  -0.1426937509E-05   0.7534675320E-03  -0.1141550007E-04   0.1625908593E+00   0.3603641190E-01   0.5958818136E-01  -0.7812306441E-02   0.0000000000E+00   0.0000000000E+00   0.1339034813E-02  -0.3061730030E-03  -0.1015599837E-03   0.0000000000E+00   0.0000000000E+00   0.0000000000E+00   0.1173292079E+00
   0.3318518728E+00   0.9522808266E-01   0.9661286549E-04  -0.3102015565E-05   0.7729029239E-03  -0.2481612452E-04   0.1883487198E+00   0.2804306595E-01   0.6491753572E-01  -0.5015209400E-02   0.0000000000E+00   0.0000000000E+00   0.1604605393E-02  -0.4793681070E-03  -0.6519772220E-04   0.0000000000E+00   0.0000000000E+00   0.0000000000E+00   0.1456351201E+00
   0.3130282547E+00   0.9437277140E-01   0.9328885909E-04  -0.3094511305E-05   0.7463108727E-03  -0.2475609044E-04   0.1872130183E+00   0.2684268315E-01   0.6421671045E-01  -0.9919229438E-02   0.0000000000E+00   0.0000000000E+00   0.1598952003E-02  -0.4858623548E-03  -0.1289499827E-03   0.0000000000E+00   0.0000000000E+00   0.0000000000E+00   0.1463092451E+00
   0.3318354330E+00   0.1146713290E+00   0.9629288459E-04  -0.4248333869E-05   0.7703430767E-03  -0.3398667095E-04   0.2027447412E+00   0.2290074765E-01   0.6769364664E-01  -0.5119512750E-02   0.0000000000E+00   0.0000000000E+00   0.1755664229E-02  -0.5823076869E-03  -0.6655366575E-04   0.0000000000E+00   0.0000000000E+00   0.0000000000E+00   0.1623582570E+00
   0.3316910403E+00   0.1342243712E+00   0.9592859401E-04  -0.5629205086E-05   0.7674287521E-03  -0.4503364069E-04   0.2179537843E+00   0.1781517189E-01   0.7073068686E-01  -0.4920605666E-02   0.0000000000E+00   0.0000000000E+00   0.1913900267E-02  -0.6879016945E-03  -0.6396787366E-04   0.0000000000E+00   0.0000000000E+00   0.0000000000E+00   0.1797911256E+00
   0.3126248731E+00   0.1337424798E+00   0.9189067596E-04  -0.5689135348E-05   0.7351254077E-03  -0.4551308279E-04   0.2179436037E+00   0.1654119091E-01   0.7034543839E-01  -0.9648945208E-02   0.0000000000E+00   0.0000000000E+00   0.1918776149E-02  -0.6994552172E-03  -0.1254362877E-03   0.0000000000E+00   0.0000000000E+00   0.0000000000E+00   0.1813633841E+00
   0.3130198571E+00   0.1138971642E+00   0.9265045444E-04  -0.4262086569E-05   0.7412036355E-03  -0.3409669255E-04   0.2020876907E+00   0.2158067270E-01   0.6710050901E-01  -0.1003217610E-01   0.0000000000E+00   0.0000000000E+00   0.1754833362E-02  -0.5917578721E-03  -0.1304182893E-03   0.0000000000E+00   0.0000000000E+00   0.0000000000E+00   0.1634940026E+00
   0.2898225388E+00   0.1826067646E-01   0.9188609178E-04  -0.3884599257E-06   0.7350887342E-03  -0.3107679405E-05   0.1444208596E+00   0.3978969676E-01   0.5526316690E-01  -0.4332252159E-02   0.0000000000E+00   0.0000000000E+00   0.1159050005E-02  -0.2011551119E-03  -0.5631927806E-04   0.0000000000E+00   0.0000000000E+00   0.0000000000E+00   0.9812318484E-01
   0.2883263593E+00   0.0000000000E+00   0.9181836775E-04   0.0000000000E+00   0.7345469420E-03   0.0000000000E+00   0.1421023056E+00   0.4040703421E-01   0.5475280194E-01  -0.1364138398E-02   0.0000000000E+00   0.0000000000E+00   0.1135543548E-02  -0.1864949805E-03  -0.1773379917E-04   0.0000000000E+00   0.0000000000E+00   0.0000000000E+00   0.9530740481E-01
   0.3091837609E+00   0.0000000000E+00   0.9449153983E-04   0.0000000000E+00   0.7559323186E-03   0.0000000000E+00   0.1467519376E+00   0.4211887548E-01   0.5666124393E-01  -0.8770715985E-03   0.0000000000E+00   0.0000000000E+00   0.1171179018E-02  -0.1890507899E-03  -0.1140193078E-04   0.0000000000E+00   0.0000000000E+00   0.0000000000E+00   0.9816155400E-01
   0.3102385747E+00   0.1840269091E-01   0.9455008192E-04  -0.3958208889E-06   0.7564006554E-03  -0.3166567111E-05   0.1486499641E+00   0.4145503597E-01   0.5703150002E-01  -0.2805846307E-02   0.0000000000E+00   0.0000000000E+00   0.1191040033E-02  -0.2024940326E-03  -0.3647600199E-04   0.0000000000E+00   0.0000000000E+00   0.0000000000E+00   0.1004398540E+00
   0.2128007611E+00   0.1635863680E+00   0.6594978410E-04  -0.1158267187E-04   0.5275982728E-03  -0.9266137499E-04   0.2592765742E+00  -0.9011657252E-02   0.7507947509E-01  -0.1749439408E-01   0.0000000000E+00   0.0000000000E+00   0.2394562289E-02  -0.1093184720E-02  -0.2274271230E-03   0.0000000000E+00   0.0000000000E+00   0.0000000000E+00   0.2395775357E+00
   0.2169298171E+00   0.1466850828E+00   0.6903645009E-04  -0.9352462573E-05   0.5522916007E-03  -0.7481970059E-04   0.2423084786E+00  -0.9427353549E-02   0.6986433750E-01  -0.2375243243E-01   0.0000000000E+00   0.0000000000E+00   0.2241773834E-02  -0.1030791984E-02  -0.3087816216E-03   0.0000000000E+00   0.0000000000E+00   0.0000000000E+00   0.2266254936E+00
   0.2316088796E+00   0.1466581755E+00   0.7265606977E-04  -0.8613612827E-05   0.5812485582E-03  -0.6890890262E-04   0.2400683585E+00  -0.3246083819E-02   0.7104668239E-01  -0.2238591198E-01   0.0000000000E+00   0.0000000000E+00   0.2197281789E-02  -0.9658059607E-03  -0.2910168558E-03   0.0000000000E+00   0.0000000000E+00   0.0000000000E+00   0.2194100149E+00
   0.2327901862E+00   0.1630119566E+00   0.7123079675E-04  -0.1035760553E-04   0.5698463740E-03  -0.8286084424E-04   0.2536994247E+00  -0.2911200147E-02   0.7523646737E-01  -0.1785233458E-01   0.0000000000E+00   0.0000000000E+00   0.2320018445E-02  -0.1015919678E-02  -0.2320803496E-03   0.0000000000E+00   0.0000000000E+00   0.0000000000E+00   0.2299010792E+00
   0.2285264269E+00   0.1845365182E-01   0.8455232205E-04  -0.3822755862E-06   0.6764185764E-03  -0.3058204690E-05   0.1187582110E+00   0.2856175179E-01   0.4419598885E-01  -0.1073700905E-01   0.0000000000E+00   0.0000000000E+00   0.9693088884E-03  -0.2032450818E-03  -0.1395811177E-03   0.0000000000E+00   0.0000000000E+00   0.0000000000E+00   0.8573137215E-01
   0.2313740061E+00   0.3704035295E-01   0.8396922866E-04  -0.8679830320E-06   0.6717538293E-03  -0.6943864256E-05   0.1306423049E+00   0.2566150733E-01   0.4689114366E-01  -0.2153759221E-01   0.0000000000E+00   0.0000000000E+00   0.1088765096E-02  -0.2759852723E-03  -0.2799886987E-03   0.0000000000E+00   0.0000000000E+00   0.0000000000E+00   0.1028700012E+00
   0.1840614757E+00   0.0000000000E+00   0.8090429524E-04   0.0000000000E+00   0.6472343619E-03   0.0000000000E+00   0.7635096546E-01   0.1048632955E-01   0.2605118850E-01  -0.6188172080E-02   0.0000000000E+00   0.0000000000E+00   0.6538971004E-03  -0.2023431664E-03  -0.8044623704E-04   0.0000000000E+00   0.0000000000E+00   0.0000000000E+00   0.5943342521E-01
   0.2049099644E+00   0.0000000000E+00   0.8258871421E-04   0.0000000000E+00   0.6607097137E-03   0.0000000000E+00   0.9720531621E-01   0.2196758319E-01   0.3575186982E-01  -0.4640646173E-02   0.0000000000E+00   0.0000000000E+00   0.7988948031E-03  -0.1791957262E-03  -0.6032840025E-04   0.0000000000E+00   0.0000000000E+00   0.0000000000E+00   0.6911081513E-01
   0.1423752588E+00   0.0000000000E+00   0.7873252785E-04   0.0000000000E+00   0.6298602228E-03   0.0000000000E+00   0.1512272570E-01  -0.4169198060E-01  -0.7970776470E-02  -0.1458250426E-01   0.0000000000E+00   0.0000000000E+00   0.3002155282E-03  -0.4383756537E-03  -0.1895725554E-03   0.0000000000E+00   0.0000000000E+00   0.0000000000E+00   0.5407807624E-01
   0.1463685553E+00   0.2097321059E-01   0.7765236580E-04  -0.9278672853E-06   0.6212189264E-03  -0.7422938282E-05   0.3423582999E-01  -0.3329540116E-01   0.2821286487E-03  -0.2532846125E-01   0.0000000000E+00   0.0000000000E+00   0.4413981174E-03  -0.4365078875E-03  -0.3292699963E-03   0.0000000000E+00   0.0000000000E+00   0.0000000000E+00   0.7470757559E-01
   0.3508999940E+00   0.2498393028E+00   0.1000000000E-03  -0.1785524699E-04   0.8000000000E-03  -0.1428419759E-03   0.2966934372E+00   0.1440504218E-02   0.8944018241E-01   0.7693660438E-03   0.0000000000E+00   0.0000000000E+00   0.2694292312E-02  -0.1143995817E-02   0.1000175857E-04   0.0000000000E+00   0.0000000000E+00   0.0000000000E+00   0.2625602216E+00
   0.3314031237E+00   0.2498386174E+00   0.9417396747E-04  -0.1793140322E-04   0.7533917398E-03  -0.1434512258E-03   0.2975363117E+00   0.1458691754E-02   0.8969850102E-01  -0.5914391444E-03   0.0000000000E+00   0.0000000000E+00   0.2701891538E-02  -0.1147117520E-02  -0.7688708877E-05   0.0000000000E+00   0.0000000000E+00   0.0000000000E+00   0.2632945633E+00
   0.3316383925E+00   0.2309069457E+00   0.9442660748E-04  -0.1553558417E-04   0.7554128598E-03  -0.1242846734E-03   0.2875276710E+00   0.5382820085E-03   0.8641978589E-01  -0.1466511487E-02   0.0000000000E+00   0.0000000000E+00   0.2614402506E-02  -0.1116459550E-02  -0.1906464934E-04   0.0000000000E+00   0.0000000000E+00   0.0000000000E+00   0.2551431393E+00
   0.3508999940E+00   0.2306303350E+00   0.1000000000E-03  -0.1543299741E-04   0.8000000000E-03  -0.1234639793E-03   0.2869628884E+00   0.6510916738E-03   0.8628419402E-01   0.6945118107E-03   0.0000000000E+00   0.0000000000E+00   0.2608823027E-02  -0.1113230330E-02   0.9028653539E-05   0.0000000000E+00   0.0000000000E+00   0.0000000000E+00   0.2545407169E+00
   0.2737163688E+00   0.2315145713E+00   0.7742075583E-04  -0.1677229499E-04   0.6193660467E-03  -0.1341783599E-03   0.2957127338E+00  -0.1598820279E-03   0.8866585553E-01  -0.4016334170E-02   0.0000000000E+00   0.0000000000E+00   0.2691609418E-02  -0.1154734588E-02  -0.5221234421E-04   0.0000000000E+00   0.0000000000E+00   0.0000000000E+00   0.2630647039E+00
   0.2930108620E+00   0.2313440455E+00   0.8314533876E-04  -0.1618249943E-04   0.6651627101E-03  -0.1294599954E-03   0.2921687946E+00   0.1613503888E-03   0.8769904351E-01  -0.3399112057E-02   0.0000000000E+00   0.0000000000E+00   0.2658106765E-02  -0.1137990011E-02  -0.4418845674E-04   0.0000000000E+00   0.0000000000E+00   0.0000000000E+00   0.2596300507E+00
   0.2924082241E+00   0.2498327675E+00   0.8239634191E-04  -0.1858138456E-04   0.6591707353E-03  -0.1486510765E-03   0.3038351263E+00   0.1680523437E-02   0.9165469491E-01  -0.9967616009E-03   0.0000000000E+00   0.0000000000E+00   0.2758345608E-02  -0.1169664229E-02  -0.1295790081E-04   0.0000000000E+00   0.0000000000E+00   0.0000000000E+00   0.2687130785E+00
   0.2729097399E+00   0.2498272191E+00   0.7639098608E-04  -0.1919788099E-04   0.6111278886E-03  -0.1535830479E-03   0.3088068699E+00   0.1876341441E-02   0.9320496341E-01  -0.1160468554E-02   0.0000000000E+00   0.0000000000E+00   0.2802824785E-02  -0.1187272086E-02  -0.1508609121E-04   0.0000000000E+00   0.0000000000E+00   0.0000000000E+00   0.2729762952E+00
   0.3508999940E+00   0.1729961047E+00   0.1000000000E-03  -0.8980370861E-05   0.8000000000E-03  -0.7184296688E-04   0.2481821360E+00   0.9340852057E-02   0.7725689641E-01   0.5146991591E-03   0.0000000000E+00   0.0000000000E+00   0.2222028114E-02  -0.8829085766E-03   0.6691089068E-05   0.0000000000E+00   0.0000000000E+00   0.0000000000E+00   0.2131465090E+00
   0.3316353714E+00   0.1732328272E+00   0.9524993189E-04  -0.9054530451E-05   0.7619994552E-03  -0.7243624361E-04   0.2484613424E+00   0.8943922926E-02   0.7722157961E-01  -0.4000025794E-02   0.0000000000E+00   0.0000000000E+00   0.2226116917E-02  -0.8876095369E-03  -0.5200033533E-04   0.0000000000E+00   0.0000000000E+00   0.0000000000E+00   0.2138142130E+00
   0.3316298764E+00   0.1537822093E+00   0.9557648399E-04  -0.7238081602E-05   0.7646118719E-03  -0.5790465282E-04   0.2333731247E+00   0.1313591619E-01   0.7395271226E-01  -0.4575843749E-02   0.0000000000E+00   0.0000000000E+00   0.2072465361E-02  -0.7906183489E-03  -0.5948596874E-04   0.0000000000E+00   0.0000000000E+00   0.0000000000E+00   0.1971329264E+00
   0.3508999940E+00   0.1537814018E+00   0.1000000000E-03  -0.7195357515E-05   0.8000000000E-03  -0.5756286012E-04   0.2331565068E+00   0.1347548097E-01   0.7398959632E-01   0.4530589734E-03   0.0000000000E+00   0.0000000000E+00   0.2069169836E-02  -0.7866834996E-03   0.5889766654E-05   0.0000000000E+00   0.0000000000E+00   0.0000000000E+00   0.1965190368E+00
   0.3508999940E+00   0.1345647873E+00   0.1000000000E-03  -0.5622636430E-05   0.8000000000E-03  -0.4498109144E-04   0.2178086853E+00   0.1808226682E-01   0.7076728563E-01   0.3292529011E-03   0.0000000000E+00   0.0000000000E+00   0.1911538195E-02  -0.6849052445E-03   0.4280287714E-05   0.0000000000E+00   0.0000000000E+00   0.0000000000E+00   0.1792605098E+00
   0.3508999940E+00   0.1153461876E+00   0.1000000000E-03  -0.4269824529E-05   0.8000000000E-03  -0.3415859623E-04   0.2026882547E+00   0.2299320296E-01   0.6770443729E-01   0.2397649794E-03   0.0000000000E+00   0.0000000000E+00   0.1754789626E-02  -0.5812460462E-03   0.3116944732E-05   0.0000000000E+00   0.0000000000E+00   0.0000000000E+00   0.1619984750E+00
   0.3508999940E+00   0.9612561359E-01   0.1000000000E-03  -0.3137145836E-05   0.8000000000E-03  -0.2509716669E-04   0.1884223179E+00   0.2802565263E-01   0.6493439117E-01   0.1326463652E-03   0.0000000000E+00   0.0000000000E+00   0.1605343048E-02  -0.4798136010E-03   0.1724402748E-05   0.0000000000E+00   0.0000000000E+00   0.0000000000E+00   0.1454574146E+00
   0.3508999940E+00   0.7690315574E-01   0.1000000000E-03  -0.2213783975E-05   0.8000000000E-03  -0.1771027180E-04   0.1756420151E+00   0.3284226396E-01   0.6254528373E-01   0.5237066120E-04   0.0000000000E+00   0.0000000000E+00   0.1470257508E-02  -0.3861392570E-03   0.6808185956E-06   0.0000000000E+00   0.0000000000E+00   0.0000000000E+00   0.1304697415E+00
   0.3508999940E+00   0.5767901036E-01   0.1000000000E-03  -0.1477515094E-05   0.8000000000E-03  -0.1182012075E-04   0.1649587724E+00   0.3710468309E-01   0.6061903664E-01  -0.3928803133E-05   0.0000000000E+00   0.0000000000E+00   0.1356416564E-02  -0.3056865961E-03  -0.5107444073E-07   0.0000000000E+00   0.0000000000E+00   0.0000000000E+00   0.1178380662E+00
   0.0000000000E+00   0.2495484813E+00   0.0000000000E+00  -0.5016874555E-04   0.0000000000E+00  -0.4013499644E-03   0.1737426117E+00  -0.5688062154E-02   0.5041636488E-01   0.5678922378E-02   0.0000000000E+00   0.0000000000E+00   0.1603241209E-02  -0.7293575514E-03   0.7382599091E-04   0.0000000000E+00   0.0000000000E+00   0.0000000000E+00   0.1592866100E+00
   0.3767146726E-01   0.2158140651E+00   0.9380895507E-05  -0.4495721023E-04   0.7504716406E-04  -0.3596576819E-03   0.2567508361E+00   0.8783975889E-02   0.7966044359E-01   0.2259225997E-01   0.0000000000E+00   0.0000000000E+00   0.2302175102E-02  -0.9213940801E-03   0.2936993797E-03   0.0000000000E+00   0.0000000000E+00   0.0000000000E+00   0.2245281808E+00
   0.3628113497E-01   0.1997136228E+00   0.9758608009E-05  -0.4345291551E-04   0.7806886407E-04  -0.3476233241E-03   0.2791196991E+00   0.1737507986E-01   0.8894843370E-01   0.2634216235E-01   0.0000000000E+00   0.0000000000E+00   0.2472226451E-02  -0.9304535998E-03   0.3424481105E-03   0.0000000000E+00   0.0000000000E+00   0.0000000000E+00   0.2385831782E+00
   0.5572030706E-01   0.1982441191E+00   0.1526500664E-04  -0.4054498539E-04   0.1221200531E-03  -0.3243598831E-03   0.2872244358E+00   0.1008390180E-01   0.8919250129E-01   0.3484235380E-01   0.0000000000E+00   0.0000000000E+00   0.2574415149E-02  -0.1028411793E-02   0.4529505995E-03   0.0000000000E+00   0.0000000000E+00   0.0000000000E+00   0.2546362791E+00
   0.5763885583E-01   0.2145466153E+00   0.1467952611E-04  -0.4208152110E-04   0.1174362089E-03  -0.3366521688E-03   0.2681533215E+00   0.4269206331E-02   0.8172675836E-01   0.2919878356E-01   0.0000000000E+00   0.0000000000E+00   0.2423545321E-02  -0.1006948176E-02   0.3795841863E-03   0.0000000000E+00   0.0000000000E+00   0.0000000000E+00   0.2402546086E+00
   0.1785049303E-01   0.2000090900E+00   0.4758325043E-05  -0.4514255757E-04   0.3806660034E-04  -0.3611404606E-03   0.2758811902E+00   0.2341898931E-01   0.8979005385E-01   0.1235746859E-01   0.0000000000E+00   0.0000000000E+00   0.2419184772E-02  -0.8628238390E-03   0.1606470917E-03   0.0000000000E+00   0.0000000000E+00   0.0000000000E+00   0.2280306147E+00
   0.5831852170E-01   0.2319234276E+00   0.1337708885E-04  -0.4385115247E-04   0.1070167108E-03  -0.3508092198E-03   0.2460884842E+00   0.2993797015E-02   0.7472468437E-01   0.1688144422E-01   0.0000000000E+00   0.0000000000E+00   0.2227729398E-02  -0.9325015356E-03   0.2194587748E-03   0.0000000000E+00   0.0000000000E+00   0.0000000000E+00   0.2185303851E+00
   0.1559030225E+00   0.2497356315E+00   0.3860682891E-04  -0.2937427694E-04   0.3088546313E-03  -0.2349942155E-03   0.3205880822E+00   0.1754087056E-02   0.9670265078E-01   0.1990852516E-02   0.0000000000E+00   0.0000000000E+00   0.2910510609E-02  -0.1234331328E-02   0.2588108271E-04   0.0000000000E+00   0.0000000000E+00   0.0000000000E+00   0.2835610935E+00
   0.1364028405E+00   0.2497084324E+00   0.3241450046E-04  -0.3239640165E-04   0.2593160037E-03  -0.2591712132E-03   0.3094776230E+00   0.9645351485E-03   0.9313264744E-01   0.3299739109E-02   0.0000000000E+00   0.0000000000E+00   0.2812484682E-02  -0.1198185460E-02   0.4289660841E-04   0.0000000000E+00   0.0000000000E+00   0.0000000000E+00   0.2742949266E+00
   0.1754045941E+00   0.2497594415E+00   0.4495523747E-04  -0.2672871854E-04   0.3596418998E-03  -0.2138297483E-03   0.3260364543E+00   0.2188481194E-02   0.9846748066E-01   0.8475071920E-03   0.0000000000E+00   0.0000000000E+00   0.2958396658E-02  -0.1251626993E-02   0.1101759350E-04   0.0000000000E+00   0.0000000000E+00   0.0000000000E+00   0.2880649636E+00
   0.1763507064E+00   0.2322783912E+00   0.4739660308E-04  -0.2419130940E-04   0.3791728247E-03  -0.1935304752E-03   0.3091601460E+00  -0.2836284180E-02   0.9189715856E-01   0.1598997279E-02   0.0000000000E+00   0.0000000000E+00   0.2824418837E-02  -0.1231534756E-02   0.2078696463E-04   0.0000000000E+00   0.0000000000E+00   0.0000000000E+00   0.2770910263E+00
   0.2257612078E+00   0.0000000000E+00   0.8457931641E-04   0.0000000000E+00   0.6766345313E-03   0.0000000000E+00   0.1133152710E+00   0.2897601942E-01   0.4268738711E-01  -0.3493964113E-02   0.0000000000E+00   0.0000000000E+00   0.9181624900E-03  -0.1782477801E-03  -0.4542153347E-04   0.0000000000E+00   0.0000000000E+00   0.0000000000E+00   0.7822376065E-01
   0.2466146980E+00   0.0000000000E+00   0.8681788694E-04   0.0000000000E+00   0.6945430955E-03   0.0000000000E+00   0.1258578582E+00   0.3416581980E-01   0.4800710340E-01  -0.2623388844E-02   0.0000000000E+00   0.0000000000E+00   0.1012059812E-02  -0.1799366868E-03  -0.3410405497E-04   0.0000000000E+00   0.0000000000E+00   0.0000000000E+00   0.8551359514E-01
   0.2490280602E+00   0.1833900003E-01   0.8685758056E-04  -0.3808744516E-06   0.6948606445E-03  -0.3046995613E-05   0.1298330160E+00   0.3360407171E-01   0.4903112630E-01  -0.8166172625E-02   0.0000000000E+00   0.0000000000E+00   0.1050424566E-02  -0.2005517097E-03  -0.1061602441E-03   0.0000000000E+00   0.0000000000E+00   0.0000000000E+00   0.9072756499E-01
   0.1970655061E+00   0.1993574715E+00   0.5743778943E-04  -0.1745682971E-04   0.4595023154E-03  -0.1396546377E-03   0.2872244954E+00  -0.7591782468E-02   0.8388981389E-01  -0.5233305726E-02   0.0000000000E+00   0.0000000000E+00   0.2643350860E-02  -0.1189260753E-02  -0.6803297443E-04   0.0000000000E+00   0.0000000000E+00   0.0000000000E+00   0.2615325094E+00
   0.2161268981E+00   0.1982512109E+00   0.6308590182E-04  -0.1567178774E-04   0.5046872146E-03  -0.1253743019E-03   0.2827377483E+00  -0.4561125356E-02   0.8345298687E-01  -0.8722450626E-02   0.0000000000E+00   0.0000000000E+00   0.2590701898E-02  -0.1144183459E-02  -0.1133918581E-03   0.0000000000E+00   0.0000000000E+00   0.0000000000E+00   0.2553996226E+00
   0.2160949017E+00   0.2149776134E+00   0.6142818595E-04  -0.1782606700E-04   0.4914254876E-03  -0.1426085360E-03   0.2944272724E+00  -0.2387297571E-02   0.8761199245E-01  -0.5830858627E-02   0.0000000000E+00   0.0000000000E+00   0.2688598639E-02  -0.1169990770E-02  -0.7580116216E-04   0.0000000000E+00   0.0000000000E+00   0.0000000000E+00   0.2638038881E+00
   0.1967228320E+00   0.2154447221E+00   0.5556932879E-04  -0.1962221448E-04   0.4445546303E-03  -0.1569777158E-03   0.2975088917E+00  -0.3933315991E-02   0.8807267273E-01  -0.2622467013E-02   0.0000000000E+00   0.0000000000E+00   0.2722670847E-02  -0.1196077853E-02  -0.3409207116E-04   0.0000000000E+00   0.0000000000E+00   0.0000000000E+00   0.2676275427E+00
   0.1177832449E+00   0.2321370927E+00   0.2948565159E-04  -0.3332303605E-04   0.2358852127E-03  -0.2665842884E-03   0.2897477973E+00  -0.2858780583E-02   0.8606670501E-01   0.1306408645E-01   0.0000000000E+00   0.0000000000E+00   0.2647854200E-02  -0.1156031313E-02   0.1698331238E-03   0.0000000000E+00   0.0000000000E+00   0.0000000000E+00   0.2608634117E+00
   0.1191698024E+00   0.2149703093E+00   0.3213026755E-04  -0.3082185770E-04   0.2570421404E-03  -0.2465748616E-03   0.2926733452E+00  -0.7102012208E-02   0.8567139988E-01   0.2176068504E-01   0.0000000000E+00   0.0000000000E+00   0.2691025289E-02  -0.1206054357E-02   0.2828889055E-03   0.0000000000E+00   0.0000000000E+00   0.0000000000E+00   0.2683574301E+00
   0.2144086263E+00   0.2497961092E+00   0.5774914268E-04  -0.2265453888E-04   0.4619931414E-03  -0.1812363110E-03   0.3244644727E+00   0.2401861426E-02   0.9805990024E-01  -0.6824299189E-03   0.0000000000E+00   0.0000000000E+00   0.2943259442E-02  -0.1243554505E-02  -0.8871588946E-05   0.0000000000E+00   0.0000000000E+00   0.0000000000E+00   0.2864886651E+00
   0.1949067004E+00   0.2497795854E+00   0.5136137927E-04  -0.2449051154E-04   0.4108910341E-03  -0.1959240923E-03   0.3269339270E+00   0.2390087912E-02   0.9879720449E-01  -0.4383336155E-04   0.0000000000E+00   0.0000000000E+00   0.2965777393E-02  -0.1253292515E-02  -0.5698337002E-06   0.0000000000E+00   0.0000000000E+00   0.0000000000E+00   0.2886995767E+00
   0.1959169176E+00   0.2322214553E+00   0.5353118238E-04  -0.2195596547E-04   0.4282494590E-03  -0.1756477238E-03   0.3092366749E+00  -0.2332841064E-02   0.9207115015E-01  -0.1056151887E-02   0.0000000000E+00   0.0000000000E+00   0.2823151822E-02  -0.1227251886E-02  -0.1372997453E-04   0.0000000000E+00   0.0000000000E+00   0.0000000000E+00   0.2767466119E+00
   0.2154488506E+00   0.2321024604E+00   0.5963383937E-04  -0.2014061769E-04   0.4770707150E-03  -0.1611249415E-03   0.3071044870E+00  -0.1741103080E-02   0.9160901518E-01  -0.2891182594E-02   0.0000000000E+00   0.0000000000E+00   0.2801441134E-02  -0.1213551537E-02  -0.3758537373E-04   0.0000000000E+00   0.0000000000E+00   0.0000000000E+00   0.2744151976E+00
   0.2349252301E+00   0.2317853970E+00   0.6567157012E-04  -0.1868655179E-04   0.5253725610E-03  -0.1494924144E-03   0.3036903115E+00  -0.1154436312E-02   0.9076076255E-01  -0.3925606369E-02   0.0000000000E+00   0.0000000000E+00   0.2768084136E-02  -0.1194897585E-02  -0.5103288279E-04   0.0000000000E+00   0.0000000000E+00   0.0000000000E+00   0.2709497159E+00
   0.2543413518E+00   0.2316657748E+00   0.7159375233E-04  -0.1759168562E-04   0.5727500186E-03  -0.1407334850E-03   0.2996667968E+00  -0.6243362150E-03   0.8971273819E-01  -0.4258083384E-02   0.0000000000E+00   0.0000000000E+00   0.2729402762E-02  -0.1174381967E-02  -0.5535508399E-04   0.0000000000E+00   0.0000000000E+00   0.0000000000E+00   0.2669642027E+00
   0.2534103286E+00   0.2498195217E+00   0.7028262278E-04  -0.2005314519E-04   0.5622609822E-03  -0.1604251615E-03   0.3143850537E+00   0.2090859187E-02   0.9494277386E-01  -0.1191927636E-02   0.0000000000E+00   0.0000000000E+00   0.2852749638E-02  -0.1207074891E-02  -0.1549505926E-04   0.0000000000E+00   0.0000000000E+00   0.0000000000E+00   0.2777645390E+00
   0.2339099234E+00   0.2498092834E+00   0.6406549314E-04  -0.2119073790E-04   0.5125239451E-03  -0.1695259032E-03   0.3198981290E+00   0.2283582405E-02   0.9665451343E-01  -0.1050387591E-02   0.0000000000E+00   0.0000000000E+00   0.2902167003E-02  -0.1226822103E-02  -0.1365503869E-04   0.0000000000E+00   0.0000000000E+00   0.0000000000E+00   0.2825158802E+00
   0.3119059637E+00   0.2498364874E+00   0.8831574196E-04  -0.1816807218E-04   0.7065259357E-03  -0.1453445774E-03   0.2999807600E+00   0.1533336852E-02   0.9045422905E-01  -0.6610428353E-03   0.0000000000E+00   0.0000000000E+00   0.2723844902E-02  -0.1155971599E-02  -0.8593556859E-05   0.0000000000E+00   0.0000000000E+00   0.0000000000E+00   0.2654061029E+00
   0.3123017502E+00   0.2311302173E+00   0.8880379496E-04  -0.1577818986E-04   0.7104303597E-03  -0.1262255189E-03   0.2893872676E+00   0.4235976893E-03   0.8694325958E-01  -0.2379882811E-02   0.0000000000E+00   0.0000000000E+00   0.2631772104E-02  -0.1124755605E-02  -0.3093847654E-04   0.0000000000E+00   0.0000000000E+00   0.0000000000E+00   0.2569143834E+00
   0.5594729323E-01   0.8291561868E-01   0.4336328099E-04  -0.2570453598E-04   0.3469062479E-03  -0.2056362878E-03   0.3658233828E+00   0.1293904486E+00   0.1485641494E+00  -0.1756670524E+00   0.0000000000E+00   0.0000000000E+00   0.2824370034E-02  -0.2492581106E-03  -0.2283671681E-02   0.0000000000E+00   0.0000000000E+00   0.0000000000E+00   0.3653681844E+00
   0.7229772018E-01   0.9394172565E-01   0.4086622030E-04  -0.2215472786E-04   0.3269297624E-03  -0.1772378229E-03   0.2775328625E+00  -0.1531228994E-01   0.7866617177E-01  -0.7589928125E-01   0.0000000000E+00   0.0000000000E+00   0.2585266980E-02  -0.1221720002E-02  -0.9866906562E-03   0.0000000000E+00   0.0000000000E+00   0.0000000000E+00   0.2902925477E+00
   0.6227556513E-01   0.1067476001E+00   0.3193969263E-04  -0.2675643739E-04   0.2555175411E-03  -0.2140514991E-03   0.3398928225E+00  -0.3365000827E-02   0.1009583465E+00  -0.4656955848E-01   0.0000000000E+00   0.0000000000E+00   0.3106148188E-02  -0.1356203515E-02  -0.6054042602E-03   0.0000000000E+00   0.0000000000E+00   0.0000000000E+00   0.3114719308E+00
   0.3853294337E-01   0.9211617495E-01   0.2940008503E-04  -0.3019743840E-04   0.2352006802E-03  -0.2415795072E-03   0.5262954352E+00   0.9735416220E-01   0.1870948792E+00  -0.1327728078E+00   0.0000000000E+00   0.0000000000E+00   0.4409607227E-02  -0.1166629321E-02  -0.1726046502E-02   0.0000000000E+00   0.0000000000E+00   0.0000000000E+00   0.4458665952E+00
   0.0000000000E+00   0.1995891448E+00   0.0000000000E+00  -0.4565091088E-04   0.0000000000E+00  -0.3652072871E-03   0.2743835823E+00   0.2532767120E-01   0.8991337606E-01   0.6180521529E-02   0.0000000000E+00   0.0000000000E+00   0.2398112682E-02  -0.8396141632E-03   0.8034677988E-04   0.0000000000E+00   0.0000000000E+00   0.0000000000E+00   0.2238831157E+00
   0.0000000000E+00   0.1829363154E+00   0.0000000000E+00  -0.4411351065E-04   0.0000000000E+00  -0.3529080852E-03   0.2996733115E+00   0.3937051742E-01   0.1017131487E+00   0.6527386916E-02   0.0000000000E+00   0.0000000000E+00   0.2573482117E-02  -0.8104542064E-03   0.8485602991E-04   0.0000000000E+00   0.0000000000E+00   0.0000000000E+00   0.2354163359E+00
   0.3666466124E-01   0.1165621294E+00   0.1755814919E-04  -0.3392073119E-04   0.1404651935E-03  -0.2713658495E-03   0.4683021742E+00   0.6296219715E-01   0.1593793114E+00  -0.4780023261E-01   0.0000000000E+00   0.0000000000E+00   0.4015997216E-02  -0.1253422485E-02  -0.6214030240E-03   0.0000000000E+00   0.0000000000E+00   0.0000000000E+00   0.3810222889E+00
   0.2674699033E+00   0.0000000000E+00   0.8924692316E-04   0.0000000000E+00   0.7139753853E-03   0.0000000000E+00   0.1352449807E+00   0.3781446479E-01   0.5191783364E-01  -0.1944352024E-02   0.0000000000E+00   0.0000000000E+00   0.1083252911E-02  -0.1833437950E-03  -0.2527657631E-04   0.0000000000E+00   0.0000000000E+00   0.0000000000E+00   0.9114641215E-01
   0.2694297484E+00   0.1828805313E-01   0.8931149300E-04  -0.3841633150E-06   0.7144919440E-03  -0.3073306520E-05   0.1382482498E+00   0.3724617899E-01   0.5264832864E-01  -0.6085111825E-02   0.0000000000E+00   0.0000000000E+00   0.1112798975E-02  -0.2002279453E-03  -0.7910645372E-04   0.0000000000E+00   0.0000000000E+00   0.0000000000E+00   0.9488492375E-01
   0.2372598762E+00   0.7429434933E-01   0.8171924476E-04  -0.2427418756E-05   0.6537539581E-03  -0.1941935005E-04   0.1658845400E+00   0.1614044299E-01   0.5460749489E-01  -0.3064014637E-01   0.0000000000E+00   0.0000000000E+00   0.1446601586E-02  -0.5000716747E-03  -0.3983219029E-03   0.0000000000E+00   0.0000000000E+00   0.0000000000E+00   0.1447061648E+00
   0.2559793708E+00   0.7381743558E-01   0.8475575079E-04  -0.2272847038E-05   0.6780460063E-03  -0.1818277631E-04   0.1676485622E+00   0.2225344719E-01   0.5697060282E-01  -0.2451142767E-01   0.0000000000E+00   0.0000000000E+00   0.1438813472E-02  -0.4513230233E-03  -0.3186485597E-03   0.0000000000E+00   0.0000000000E+00   0.0000000000E+00   0.1381449117E+00
   0.3111854376E+00   0.3711927526E-01   0.9444228720E-04  -0.8540932766E-06   0.7555382976E-03  -0.6832746213E-05   0.1540247038E+00   0.3937391629E-01   0.5801958602E-01  -0.5797457661E-02   0.0000000000E+00   0.0000000000E+00   0.1248066531E-02  -0.2423937066E-03  -0.7536694959E-04   0.0000000000E+00   0.0000000000E+00   0.0000000000E+00   0.1069949718E+00
   0.2912655547E+00   0.3676965893E-01   0.9171585545E-04  -0.8422632047E-06   0.7337268436E-03  -0.6738105637E-05   0.1504994395E+00   0.3763856906E-01   0.5644140258E-01  -0.8917815590E-02   0.0000000000E+00   0.0000000000E+00   0.1222754480E-02  -0.2444368357E-03  -0.1159316027E-03   0.0000000000E+00   0.0000000000E+00   0.0000000000E+00   0.1058066668E+00
   0.3508999940E+00   0.2114203570E+00   0.1000000000E-03  -0.1312300519E-04   0.8000000000E-03  -0.1049840415E-03   0.2756875301E+00   0.3003502006E-02   0.8360730964E-01   0.6374343287E-03   0.0000000000E+00   0.0000000000E+00   0.2497042866E-02  -0.1047849499E-02   0.8286646273E-05   0.0000000000E+00   0.0000000000E+00   0.0000000000E+00   0.2426386886E+00
   0.3317606967E+00   0.2118617301E+00   0.9469763007E-04  -0.1323710540E-04   0.7575810406E-03  -0.1058968432E-03   0.2761293210E+00   0.2773786392E-02   0.8367093221E-01  -0.2585339102E-02   0.0000000000E+00   0.0000000000E+00   0.2501959054E-02  -0.1051662896E-02  -0.3360940833E-04   0.0000000000E+00   0.0000000000E+00   0.0000000000E+00   0.2432496735E+00
   0.3316976535E+00   0.1926020710E+00   0.9495805534E-04  -0.1106299549E-04   0.7596644428E-03  -0.8850396390E-04   0.2628103597E+00   0.5394744198E-02   0.8046153117E-01  -0.3345223440E-02   0.0000000000E+00   0.0000000000E+00   0.2370534771E-02  -0.9758682306E-03  -0.4348790473E-04   0.0000000000E+00   0.0000000000E+00   0.0000000000E+00   0.2293521195E+00
   0.3508999940E+00   0.1922090291E+00   0.1000000000E-03  -0.1096298813E-04   0.8000000000E-03  -0.8770390504E-04   0.2624927899E+00   0.5758943390E-02   0.8047551999E-01   0.5897473640E-03   0.0000000000E+00   0.0000000000E+00   0.2366224509E-02  -0.9713154958E-03   0.7666715732E-05   0.0000000000E+00   0.0000000000E+00   0.0000000000E+00   0.2287134780E+00
   0.2933182669E+00   0.2125592711E+00   0.8394598769E-04  -0.1386432639E-04   0.6715679015E-03  -0.1109146111E-03   0.2800504963E+00   0.1975361911E-02   0.8460775745E-01  -0.6431098739E-02   0.0000000000E+00   0.0000000000E+00   0.2540755605E-02  -0.1074221142E-02  -0.8360428360E-04   0.0000000000E+00   0.0000000000E+00   0.0000000000E+00   0.2475822992E+00
   0.2742105405E+00   0.2130133653E+00   0.7851239308E-04  -0.1444429677E-04   0.6280991447E-03  -0.1155543741E-03   0.2831747474E+00   0.1202670071E-02   0.8531322525E-01  -0.7697334203E-02   0.0000000000E+00   0.0000000000E+00   0.2572199788E-02  -0.1093437217E-02  -0.1000653446E-03   0.0000000000E+00   0.0000000000E+00   0.0000000000E+00   0.2510799536E+00
   0.2740715608E+00   0.1941625143E+00   0.7956075545E-04  -0.1222097110E-04   0.6364860436E-03  -0.9776776879E-04   0.2693580255E+00   0.2387433265E-02   0.8152363763E-01  -0.1031610500E-01   0.0000000000E+00   0.0000000000E+00   0.2441847042E-02  -0.1028770657E-02  -0.1341093650E-03   0.0000000000E+00   0.0000000000E+00   0.0000000000E+00   0.2381771212E+00
   0.2931815940E+00   0.1933420069E+00   0.8474077434E-04  -0.1164200695E-04   0.6779261947E-03  -0.9313605561E-04   0.2664189944E+00   0.3599308165E-02   0.8100549077E-01  -0.8656383003E-02   0.0000000000E+00   0.0000000000E+00   0.2410375547E-02  -0.1006280374E-02  -0.1125329790E-03   0.0000000000E+00   0.0000000000E+00   0.0000000000E+00   0.2344011808E+00
   0.1951021250E+00   0.5815242331E-01   0.7727900391E-04  -0.1966009768E-05   0.6182320312E-03  -0.1572807814E-04   0.1379786176E+00   0.3167081422E-02   0.4234370971E-01  -0.4333079733E-01   0.0000000000E+00   0.0000000000E+00   0.1243253803E-02  -0.5092961677E-03  -0.5633003652E-03   0.0000000000E+00   0.0000000000E+00   0.0000000000E+00   0.1415683887E+00
   0.2148155585E+00   0.5659845100E-01   0.8018661435E-04  -0.1681343961E-05   0.6414929148E-03  -0.1345075169E-04   0.1419944351E+00   0.1302730628E-01   0.4650652241E-01  -0.3479682739E-01   0.0000000000E+00   0.0000000000E+00   0.1241342865E-02  -0.4352298098E-03  -0.4523587561E-03   0.0000000000E+00   0.0000000000E+00   0.0000000000E+00   0.1306622874E+00
   0.7343861343E-01   0.1303437738E+00   0.2884934778E-04  -0.2758768933E-04   0.2307947822E-03  -0.2207015147E-03   0.3517992495E+00  -0.1339360291E-01   0.1015216940E+00   0.7314750181E-02   0.0000000000E+00   0.0000000000E+00   0.3253608222E-02  -0.1493898860E-02   0.9509175235E-04   0.0000000000E+00   0.0000000000E+00   0.0000000000E+00   0.3235056564E+00
   0.5570503330E-01   0.1221999296E+00   0.2415685582E-04  -0.3061449407E-04   0.1932548466E-03  -0.2449159526E-03   0.4093694945E+00   0.3042491277E-01   0.1319383222E+00  -0.1204313524E-01   0.0000000000E+00   0.0000000000E+00   0.3606605240E-02  -0.1319674322E-02  -0.1565607582E-03   0.0000000000E+00   0.0000000000E+00   0.0000000000E+00   0.3395131080E+00
   0.8109244219E-01   0.1170654743E+00   0.3502464357E-04  -0.2340140762E-04   0.2801971486E-03  -0.1872112610E-03   0.3381269843E+00  -0.2232404637E-01   0.9474088139E-01  -0.1446314847E-01   0.0000000000E+00   0.0000000000E+00   0.3164019338E-02  -0.1521844061E-02  -0.1880209302E-03   0.0000000000E+00   0.0000000000E+00   0.0000000000E+00   0.3189512372E+00
   0.5843511679E-01   0.2495896251E+00   0.1130924386E-04  -0.4559721554E-04   0.9047395084E-04  -0.3647777244E-03   0.2183357111E+00  -0.3585253435E-02   0.6442513730E-01   0.5739236318E-02   0.0000000000E+00   0.0000000000E+00   0.2000837459E-02  -0.8841350796E-03   0.7461007213E-04   0.0000000000E+00   0.0000000000E+00   0.0000000000E+00   0.1969431652E+00
   0.7837324068E-01   0.2130757949E+00   0.2050920841E-04  -0.3831501503E-04   0.1640736673E-03  -0.3065201203E-03   0.2768138985E+00  -0.1005826433E-02   0.8274242161E-01   0.3164707667E-01   0.0000000000E+00   0.0000000000E+00   0.2522929199E-02  -0.1088727225E-02   0.4114119967E-03   0.0000000000E+00   0.0000000000E+00   0.0000000000E+00   0.2527066537E+00
   0.7819649681E-01   0.1931116202E+00   0.2222189015E-04  -0.3586141678E-04   0.1777751212E-03  -0.2868913343E-03   0.2961518173E+00  -0.2030653491E-02   0.8823634914E-01   0.3725246954E-01   0.0000000000E+00   0.0000000000E+00   0.2702901086E-02  -0.1173471034E-02   0.4842821041E-03   0.0000000000E+00   0.0000000000E+00   0.0000000000E+00   0.2725785870E+00
   0.1772031584E+00   0.2156031658E+00   0.4963515717E-04  -0.2182601722E-04   0.3970812573E-03  -0.1746081378E-03   0.2991940238E+00  -0.5351057372E-02   0.8815288992E-01   0.2003110165E-02   0.0000000000E+00   0.0000000000E+00   0.2743534740E-02  -0.1215551315E-02   0.2604043214E-04   0.0000000000E+00   0.0000000000E+00   0.0000000000E+00   0.2702386980E+00
   0.3123294295E+00   0.1536634951E+00   0.9113416322E-04  -0.7356876277E-05   0.7290733058E-03  -0.5885501022E-04   0.2340834920E+00   0.1196473057E-01   0.7381446677E-01  -0.8654397811E-02   0.0000000000E+00   0.0000000000E+00   0.2083497328E-02  -0.8040465706E-03  -0.1125071715E-03   0.0000000000E+00   0.0000000000E+00   0.0000000000E+00   0.1991089461E+00
   0.3123108832E+00   0.1733550998E+00   0.9046423970E-04  -0.9224129168E-05   0.7237139176E-03  -0.7379303335E-04   0.2495262909E+00   0.8095657369E-02   0.7728658449E-01  -0.7551984567E-02   0.0000000000E+00   0.0000000000E+00   0.2239116184E-02  -0.8994820526E-03  -0.9817579937E-04   0.0000000000E+00   0.0000000000E+00   0.0000000000E+00   0.2157271121E+00
   0.1169051103E+00   0.2496786092E+00   0.2649370354E-04  -0.3571009118E-04   0.2119496283E-03  -0.2856807294E-03   0.2923120541E+00  -0.2482516826E-04   0.8768616869E-01   0.4660776913E-02   0.0000000000E+00   0.0000000000E+00   0.2660136511E-02  -0.1140242920E-02   0.6059009987E-04   0.0000000000E+00   0.0000000000E+00   0.0000000000E+00   0.2597926401E+00
   0.7120528622E-01   0.7051910660E-01   0.5495609108E-04  -0.2128608886E-04   0.4396487287E-03  -0.1702887109E-03   0.1449809657E+00   0.7531474098E-01   0.6608871201E-01  -0.9154432260E-01   0.0000000000E+00   0.0000000000E+00   0.1025599298E-02   0.1199383766E-03  -0.1190076194E-02   0.0000000000E+00   0.0000000000E+00   0.0000000000E+00   0.1625774138E+00
   0.8435662625E-01   0.7951258911E-01   0.5151887248E-04  -0.1693098727E-04   0.4121509798E-03  -0.1354478982E-03   0.1901815808E+00  -0.1018008702E-01   0.5400044813E-01  -0.7601701067E-01   0.0000000000E+00   0.0000000000E+00   0.1770354725E-02  -0.8343469570E-03  -0.9882211387E-03   0.0000000000E+00   0.0000000000E+00   0.0000000000E+00   0.2219080912E+00
   0.2355437389E+00   0.2141637417E+00   0.6725343610E-04  -0.1636248011E-04   0.5380274888E-03  -0.1308998408E-03   0.2906570692E+00  -0.9922358744E-03   0.8689945000E-01  -0.7553676186E-02   0.0000000000E+00   0.0000000000E+00   0.2648849050E-02  -0.1142591916E-02  -0.9819779042E-04   0.0000000000E+00   0.0000000000E+00   0.0000000000E+00   0.2594669521E+00
   0.1779046524E+00   0.1997371950E+00   0.5172870771E-04  -0.1958800015E-04   0.4138296617E-03  -0.1567040012E-03   0.2911242868E+00  -0.1020509566E-01   0.8427575734E-01   0.5012945677E-04   0.0000000000E+00   0.0000000000E+00   0.2689030883E-02  -0.1228251089E-02   0.6516829380E-06   0.0000000000E+00   0.0000000000E+00   0.0000000000E+00   0.2669299398E+00
   0.1589381087E+00   0.1995887611E+00   0.4605440837E-04  -0.2207520624E-04   0.3684352670E-03  -0.1766016499E-03   0.2938969585E+00  -0.1242797441E-01   0.8444069522E-01   0.6785803553E-02   0.0000000000E+00   0.0000000000E+00   0.2722931422E-02  -0.1259292705E-02   0.8821544619E-04   0.0000000000E+00   0.0000000000E+00   0.0000000000E+00   0.2714264872E+00
   0.1601172261E+00   0.1837340914E+00   0.4841911791E-04  -0.1965773147E-04   0.3873529433E-03  -0.1572618517E-03   0.2894124252E+00  -0.1875171142E-01   0.8119821413E-01   0.3066449217E-02   0.0000000000E+00   0.0000000000E+00   0.2706784744E-02  -0.1299349032E-02   0.3986383982E-04   0.0000000000E+00   0.0000000000E+00   0.0000000000E+00   0.2723210639E+00
   0.1782955648E+00   0.1844303523E+00   0.5372330886E-04  -0.1744363698E-04   0.4297864708E-03  -0.1395490958E-03   0.2843071235E+00  -0.1469878445E-01   0.8088250173E-01  -0.3627248922E-02   0.0000000000E+00   0.0000000000E+00   0.2644520084E-02  -0.1242556720E-02  -0.4715423599E-04   0.0000000000E+00   0.0000000000E+00   0.0000000000E+00   0.2645478173E+00
   0.2549553120E+00   0.2135809964E+00   0.7295166176E-04  -0.1526206976E-04   0.5836132941E-03  -0.1220965581E-03   0.2866916711E+00   0.1235598181E-03   0.8604456929E-01  -0.8123185664E-02   0.0000000000E+00   0.0000000000E+00   0.2608412324E-02  -0.1116973123E-02  -0.1056014136E-03   0.0000000000E+00   0.0000000000E+00   0.0000000000E+00   0.2551015481E+00
   0.3125155317E+00   0.2122112574E+00   0.8933796839E-04  -0.1347495539E-04   0.7147037472E-03  -0.1077996431E-03   0.2777490269E+00   0.2459721497E-02   0.8406262452E-01  -0.4568180988E-02   0.0000000000E+00   0.0000000000E+00   0.2517923231E-02  -0.1060837739E-02  -0.5938635285E-04   0.0000000000E+00   0.0000000000E+00   0.0000000000E+00   0.2450319491E+00
   0.3124743094E+00   0.1929316673E+00   0.8988370687E-04  -0.1127685707E-04   0.7190696549E-03  -0.9021485658E-04   0.2642971210E+00   0.4864399521E-02   0.8074845615E-01  -0.6130210127E-02   0.0000000000E+00   0.0000000000E+00   0.2386132643E-02  -0.9864927361E-03  -0.7969273165E-04   0.0000000000E+00   0.0000000000E+00   0.0000000000E+00   0.2312786613E+00
   0.6730988827E-01   0.1437909682E+00   0.2410865206E-04  -0.3115253338E-04   0.1928692165E-03  -0.2492202670E-03   0.3521239817E+00   0.2591936669E-02   0.1064147755E+00   0.2429333152E-01   0.0000000000E+00   0.0000000000E+00   0.3194219681E-02  -0.1349696905E-02   0.3158133098E-03   0.0000000000E+00   0.0000000000E+00   0.0000000000E+00   0.3136554402E+00
   0.6230458293E-01   0.1543355843E+00   0.2094570302E-04  -0.3376152268E-04   0.1675656241E-03  -0.2700921814E-03   0.3446205886E+00   0.7804846051E-02   0.1057276304E+00   0.3111091923E-01   0.0000000000E+00   0.0000000000E+00   0.3105608457E-02  -0.1272996197E-02   0.4044419500E-03   0.0000000000E+00   0.0000000000E+00   0.0000000000E+00   0.3046969286E+00
   0.1532143298E+00   0.3950020752E-01   0.7538264361E-04  -0.1723475463E-05   0.6030611489E-03  -0.1378780370E-04   0.8371502726E-01  -0.2339502987E-01   0.1809599922E-01  -0.5187062065E-01   0.0000000000E+00   0.0000000000E+00   0.8530473646E-03  -0.5393833781E-03  -0.6743180685E-03   0.0000000000E+00   0.0000000000E+00   0.0000000000E+00   0.1289353117E+00
   0.1360036851E+00   0.4587064178E-01   0.7227689862E-04  -0.3121935649E-05   0.5782151889E-03  -0.2497548519E-04   0.8105608299E-01  -0.4927848519E-01   0.9533279341E-02  -0.6706933567E-01   0.0000000000E+00   0.0000000000E+00   0.9297964475E-03  -0.7645529389E-03  -0.8719013638E-03   0.0000000000E+00   0.0000000000E+00   0.0000000000E+00   0.1586361818E+00
   0.1632163797E+00   0.0000000000E+00   0.7959841504E-04   0.0000000000E+00   0.6367873203E-03   0.0000000000E+00   0.5009769124E-01  -0.4792282533E-02   0.1359162261E-01  -0.8566763115E-02   0.0000000000E+00   0.0000000000E+00   0.4745788922E-03  -0.2389907669E-03  -0.1113679205E-03   0.0000000000E+00   0.0000000000E+00   0.0000000000E+00   0.4901266540E-01
   0.1671412809E+00   0.1949368892E-01   0.7903654284E-04  -0.5630312982E-06   0.6322923427E-03  -0.4504250386E-05   0.6669852008E-01  -0.4385380275E-02   0.1869394194E-01  -0.2187974791E-01   0.0000000000E+00   0.0000000000E+00   0.6240595158E-03  -0.3000311888E-03  -0.2844367228E-03   0.0000000000E+00   0.0000000000E+00   0.0000000000E+00   0.7451393014E-01
   0.2762229671E+00   0.9269561877E-01   0.8683990451E-04  -0.3171181461E-05   0.6947192360E-03  -0.2536945169E-04   0.1850311173E+00   0.2169851435E-01   0.6201888948E-01  -0.1997843207E-01   0.0000000000E+00   0.0000000000E+00   0.1599158961E-02  -0.5241648767E-03  -0.2597196170E-03   0.0000000000E+00   0.0000000000E+00   0.0000000000E+00   0.1513341606E+00
   0.2944378392E+00   0.9346259838E-01   0.9002768717E-04  -0.3112180055E-05   0.7202214973E-03  -0.2489744044E-04   0.1862087477E+00   0.2474526973E-01   0.6328620522E-01  -0.1488126373E-01   0.0000000000E+00   0.0000000000E+00   0.1597993052E-02  -0.5010321614E-03  -0.1934564285E-03   0.0000000000E+00   0.0000000000E+00   0.0000000000E+00   0.1482778486E+00
   0.2945716449E+00   0.1128100908E+00   0.8910309467E-04  -0.4302248918E-05   0.7128247573E-03  -0.3441799134E-04   0.2015007615E+00   0.1977863246E-01   0.6638381820E-01  -0.1490762065E-01   0.0000000000E+00   0.0000000000E+00   0.1756520263E-02  -0.6058674146E-03  -0.1937990684E-03   0.0000000000E+00   0.0000000000E+00   0.0000000000E+00   0.1654706451E+00
   0.2766751103E+00   0.1113352534E+00   0.8569214473E-04  -0.4366294152E-05   0.6855371578E-03  -0.3493035321E-04   0.2012241597E+00   0.1668651645E-01   0.6537320285E-01  -0.1945368299E-01   0.0000000000E+00   0.0000000000E+00   0.1766062439E-02  -0.6329269232E-03  -0.2528978789E-03   0.0000000000E+00   0.0000000000E+00   0.0000000000E+00   0.1690203290E+00
   0.2936919144E+00   0.7441919202E-01   0.9076259478E-04  -0.2163252861E-05   0.7261007582E-03  -0.1730602289E-04   0.1720871205E+00   0.2980155020E-01   0.6056660119E-01  -0.1399120447E-01   0.0000000000E+00   0.0000000000E+00   0.1449766750E-02  -0.3999456630E-03  -0.1818856582E-03   0.0000000000E+00   0.0000000000E+00   0.0000000000E+00   0.1318718590E+00
   0.1717844518E+00   0.3887076080E-01   0.7726819918E-04  -0.1274300084E-05   0.6181455934E-03  -0.1019440067E-04   0.9068107243E-01  -0.6965641714E-02   0.2511462922E-01  -0.4472275054E-01   0.0000000000E+00   0.0000000000E+00   0.8523637618E-03  -0.4170435221E-03  -0.5813957570E-03   0.0000000000E+00   0.0000000000E+00   0.0000000000E+00   0.1152909558E+00
   0.2937558119E+00   0.1326974135E+00   0.8791166033E-04  -0.5772272906E-05   0.7032932826E-03  -0.4617818324E-04   0.2181908425E+00   0.1407071290E-01   0.6967846661E-01  -0.1429013994E-01   0.0000000000E+00   0.0000000000E+00   0.1930660886E-02  -0.7229007982E-03  -0.1857718193E-03   0.0000000000E+00   0.0000000000E+00   0.0000000000E+00   0.1844142613E+00
   0.5205152975E-01   0.1830141878E+00   0.1516198383E-04  -0.3936679635E-04   0.1212958707E-03  -0.3149343708E-03   0.3054892482E+00   0.1457382344E-01   0.9601892150E-01   0.3547357904E-01   0.0000000000E+00   0.0000000000E+00   0.2723114247E-02  -0.1058786275E-02   0.4611565275E-03   0.0000000000E+00   0.0000000000E+00   0.0000000000E+00   0.2671979698E+00
   0.5056185679E-01   0.1682511542E+00   0.1572117688E-04  -0.3787575877E-04   0.1257694150E-03  -0.3030060701E-03   0.3254178104E+00   0.2213346910E-01   0.1042653839E+00   0.3646150911E-01   0.0000000000E+00   0.0000000000E+00   0.2874981545E-02  -0.1067714892E-02   0.4739996185E-03   0.0000000000E+00   0.0000000000E+00   0.0000000000E+00   0.2789758589E+00
   0.2925617481E+00   0.5549306317E-01   0.9132845648E-04  -0.1417792474E-05   0.7306276518E-03  -0.1134233979E-04   0.1599344614E+00   0.3416595352E-01   0.5823012448E-01  -0.1192989540E-01   0.0000000000E+00   0.0000000000E+00   0.1322156380E-02  -0.3128342224E-03  -0.1550886402E-03   0.0000000000E+00   0.0000000000E+00   0.0000000000E+00   0.1174317669E+00
   0.2924442022E+00   0.1532261010E+00   0.8654290687E-04  -0.7562227190E-05   0.6923432549E-03  -0.6049781752E-04   0.2350519095E+00   0.1024228582E-01   0.7358825859E-01  -0.1272871088E-01   0.0000000000E+00   0.0000000000E+00   0.2099027462E-02  -0.8234976460E-03  -0.1654732414E-03   0.0000000000E+00   0.0000000000E+00   0.0000000000E+00   0.2019499319E+00
   0.2713680707E+00   0.3668498520E-01   0.8905419356E-04  -0.8391329373E-06   0.7124335485E-03  -0.6713063498E-05   0.1455192491E+00   0.3493691013E-01   0.5413684776E-01  -0.1242665913E-01   0.0000000000E+00   0.0000000000E+00   0.1187971217E-02  -0.2495991892E-03  -0.1615465687E-03   0.0000000000E+00   0.0000000000E+00   0.0000000000E+00   0.1044801724E+00
   0.2514681752E+00   0.3680662380E-01   0.8647235662E-04  -0.8465331496E-06   0.6917788529E-03  -0.6772265196E-05   0.1389088726E+00   0.3108552212E-01   0.5099831841E-01  -0.1655536573E-01   0.0000000000E+00   0.0000000000E+00   0.1142837204E-02  -0.2588663517E-03  -0.2152197545E-03   0.0000000000E+00   0.0000000000E+00   0.0000000000E+00   0.1032734522E+00
   0.2342817308E+00   0.5568634983E-01   0.8296764064E-04  -0.1536596432E-05   0.6637411251E-03  -0.1229277146E-04   0.1470226889E+00   0.2131738338E-01   0.5050202169E-01  -0.2765308192E-01   0.0000000000E+00   0.0000000000E+00   0.1254768674E-02  -0.3794002981E-03  -0.3594900649E-03   0.0000000000E+00   0.0000000000E+00   0.0000000000E+00   0.1235932591E+00
   0.2538089919E+00   0.5531431025E-01   0.8573987911E-04  -0.1462339098E-05   0.6859190329E-03  -0.1169871279E-04   0.1519867586E+00   0.2704962263E-01   0.5371091437E-01  -0.2155647968E-01   0.0000000000E+00   0.0000000000E+00   0.1277585975E-02  -0.3465967925E-03  -0.2802342358E-03   0.0000000000E+00   0.0000000000E+00   0.0000000000E+00   0.1199053967E+00
   0.2354841130E+00   0.1969266323E+00   0.6871311402E-04  -0.1421307978E-04   0.5497049122E-03  -0.1137046383E-03   0.2779901703E+00  -0.2132652049E-02   0.8275725547E-01  -0.1066882237E-01   0.0000000000E+00   0.0000000000E+00   0.2538027892E-02  -0.1103568798E-02  -0.1386946908E-03   0.0000000000E+00   0.0000000000E+00   0.0000000000E+00   0.2494787512E+00
   0.2548889840E+00   0.1955574594E+00   0.7422789374E-04  -0.1307672857E-04   0.5938231499E-03  -0.1046138285E-03   0.2733682153E+00   0.1388282069E-03   0.8205211304E-01  -0.1124170034E-01   0.0000000000E+00   0.0000000000E+00   0.2487109329E-02  -0.1064872703E-02  -0.1461421044E-03   0.0000000000E+00   0.0000000000E+00   0.0000000000E+00   0.2436494905E+00
   0.1601914849E+00   0.7265863463E-01   0.6923009463E-04  -0.4113663592E-05   0.5538407570E-03  -0.3290930874E-04   0.1581962794E+00  -0.3179218515E-01   0.3792122828E-01  -0.6136217569E-01   0.0000000000E+00   0.0000000000E+00   0.1563575665E-02  -0.9062743746E-03  -0.7977082840E-03   0.0000000000E+00   0.0000000000E+00   0.0000000000E+00   0.1971980528E+00
   0.1744028631E+00   0.6063941036E-01   0.7399256170E-04  -0.2478649132E-05   0.5919404936E-03  -0.1982919305E-04   0.1357115041E+00  -0.1377092867E-01   0.3658217262E-01  -0.5453045571E-01   0.0000000000E+00   0.0000000000E+00   0.1288681309E-02  -0.6545903168E-03  -0.7088959243E-03   0.0000000000E+00   0.0000000000E+00   0.0000000000E+00   0.1620939647E+00
   0.1847644715E+00   0.8230338732E-01   0.7166427245E-04  -0.3991319596E-05   0.5733141796E-03  -0.3193055677E-04   0.1776095570E+00  -0.1554208874E-01   0.4862024048E-01  -0.5141622125E-01   0.0000000000E+00   0.0000000000E+00   0.1676861115E-02  -0.8341102800E-03  -0.6684108763E-03   0.0000000000E+00   0.0000000000E+00   0.0000000000E+00   0.1920476939E+00
   0.1700063554E+00   0.8990538447E-01   0.6731748394E-04  -0.5432769936E-05   0.5385398715E-03  -0.4346215949E-04   0.1924741595E+00  -0.2908318071E-01   0.4901729363E-01  -0.5211939003E-01   0.0000000000E+00   0.0000000000E+00   0.1864939256E-02  -0.1015306166E-02  -0.6775520704E-03   0.0000000000E+00   0.0000000000E+00   0.0000000000E+00   0.2145298954E+00
   0.9907585584E-01   0.2138989706E+00   0.2633057069E-04  -0.3448970646E-04   0.2106445655E-03  -0.2759176517E-03   0.2858622788E+00  -0.5622578093E-02   0.8407191020E-01   0.2845332891E-01   0.0000000000E+00   0.0000000000E+00   0.2623274791E-02  -0.1166028348E-02   0.3698932759E-03   0.0000000000E+00   0.0000000000E+00   0.0000000000E+00   0.2630815031E+00
   0.1401093143E+00   0.1991617075E+00   0.4039859167E-04  -0.2493972595E-04   0.3231887334E-03  -0.1995178076E-03   0.2956781415E+00  -0.1387689778E-01   0.8454037310E-01   0.1457793711E-01   0.0000000000E+00   0.0000000000E+00   0.2744790989E-02  -0.1279424522E-02   0.1895131824E-03   0.0000000000E+00   0.0000000000E+00   0.0000000000E+00   0.2750792538E+00
   0.1212007524E+00   0.1983858574E+00   0.3473015698E-04  -0.2815906534E-04   0.2778412558E-03  -0.2252725227E-03   0.2961538768E+00  -0.1378064132E-01   0.8471197064E-01   0.2271470953E-01   0.0000000000E+00   0.0000000000E+00   0.2748744780E-02  -0.1280403956E-02   0.2952912238E-03   0.0000000000E+00   0.0000000000E+00   0.0000000000E+00   0.2770614614E+00
   0.2188788903E+00   0.7551241373E-01   0.7860969786E-04  -0.2698263677E-05   0.6288775829E-03  -0.2158610942E-04   0.1653974151E+00   0.8162834774E-02   0.5206807497E-01  -0.3748242509E-01   0.0000000000E+00   0.0000000000E+00   0.1473281422E-02  -0.5707681225E-03  -0.4872715262E-03   0.0000000000E+00   0.0000000000E+00   0.0000000000E+00   0.1546899177E+00
   0.8055239867E-01   0.1525294025E+00   0.2736924135E-04  -0.2952260833E-04   0.2189539308E-03  -0.2361808666E-03   0.3305435380E+00  -0.1470238527E-01   0.9475234580E-01   0.2752734605E-01   0.0000000000E+00   0.0000000000E+00   0.3065285498E-02  -0.1422911504E-02   0.3578554987E-03   0.0000000000E+00   0.0000000000E+00   0.0000000000E+00   0.3091509589E+00
   0.7003483588E-01   0.1664359724E+00   0.2213530928E-04  -0.3387695894E-04   0.1770824742E-03  -0.2710156715E-03   0.3230634913E+00   0.1706577101E-02   0.9743102051E-01   0.3617996426E-01   0.0000000000E+00   0.0000000000E+00   0.2933222120E-02  -0.1244417764E-02   0.4703395354E-03   0.0000000000E+00   0.0000000000E+00   0.0000000000E+00   0.2925919220E+00
   0.1418321715E+00   0.1829143494E+00   0.4298139368E-04  -0.2229507171E-04   0.3438511495E-03  -0.1783605737E-03   0.2943685941E+00  -0.2099141433E-01   0.8201315394E-01   0.1104872248E-01   0.0000000000E+00   0.0000000000E+00   0.2760620723E-02  -0.1339059388E-02   0.1436333922E-03   0.0000000000E+00   0.0000000000E+00   0.0000000000E+00   0.2791301431E+00
   0.2732277883E+00   0.1744159363E+00   0.8058292429E-04  -0.1006263584E-04   0.6446633943E-03  -0.8050108670E-04   0.2554532540E+00   0.4161533874E-02   0.7788443636E-01  -0.1345471776E-01   0.0000000000E+00   0.0000000000E+00   0.2308394629E-02  -0.9583977324E-03  -0.1749113309E-03   0.0000000000E+00   0.0000000000E+00   0.0000000000E+00   0.2249285040E+00
   0.2927131012E+00   0.1735433943E+00   0.8556857515E-04  -0.9525078588E-05   0.6845486012E-03  -0.7620062870E-04   0.2513613085E+00   0.6697027207E-02   0.7741750071E-01  -0.1107192008E-01   0.0000000000E+00   0.0000000000E+00   0.2261269501E-02  -0.9193661555E-03  -0.1439349610E-03   0.0000000000E+00   0.0000000000E+00   0.0000000000E+00   0.2189190787E+00
   0.9454380591E-01   0.1607904154E+00   0.3091231260E-04  -0.2776395799E-04   0.2472985008E-03  -0.2221116639E-03   0.3189964154E+00  -0.2185185733E-01   0.8914336742E-01   0.2646472893E-01   0.0000000000E+00   0.0000000000E+00   0.2988089624E-02  -0.1442937922E-02   0.3440414761E-03   0.0000000000E+00   0.0000000000E+00   0.0000000000E+00   0.3044580632E+00
   0.8742099048E-01   0.1752004815E+00   0.2682434210E-04  -0.3148405663E-04   0.2145947368E-03  -0.2518724530E-03   0.3130737801E+00  -0.1142399905E-01   0.9049493432E-01   0.3565673711E-01   0.0000000000E+00   0.0000000000E+00   0.2893524995E-02  -0.1324946134E-02   0.4635375824E-03   0.0000000000E+00   0.0000000000E+00   0.0000000000E+00   0.2939983937E+00
   0.2748707927E+00   0.7395372321E-01   0.8776563083E-04  -0.2195676154E-05   0.7021250466E-03  -0.1756540923E-04   0.1698862591E+00   0.2668549968E-01   0.5897152763E-01  -0.1898330940E-01   0.0000000000E+00   0.0000000000E+00   0.1441891509E-02  -0.4197183633E-03  -0.2467830223E-03   0.0000000000E+00   0.0000000000E+00   0.0000000000E+00   0.1341430666E+00
   0.2268278622E+00   0.1122525115E+00   0.7555246916E-04  -0.5381720451E-05   0.6044197533E-03  -0.4305376361E-04   0.2076174602E+00   0.5447103004E-04   0.6230157937E-01  -0.3207496062E-01   0.0000000000E+00   0.0000000000E+00   0.1889106451E-02  -0.8092124085E-03  -0.4169744881E-03   0.0000000000E+00   0.0000000000E+00   0.0000000000E+00   0.1926178503E+00
   0.2231382675E+00   0.9414905304E-01   0.7705328310E-04  -0.3947161722E-05   0.6164262648E-03  -0.3157729377E-04   0.1880198856E+00   0.3556477117E-02   0.5747290881E-01  -0.3593581862E-01   0.0000000000E+00   0.0000000000E+00   0.1697110698E-02  -0.7009136120E-03  -0.4671656420E-03   0.0000000000E+00   0.0000000000E+00   0.0000000000E+00   0.1756182489E+00
   0.2731824563E+00   0.5524920231E-01   0.8851669780E-04  -0.1427277164E-05   0.7081335824E-03  -0.1141821732E-04   0.1563504401E+00   0.3125507775E-01   0.5628165537E-01  -0.1644612982E-01   0.0000000000E+00   0.0000000000E+00   0.1300894202E-02  -0.3253455091E-03  -0.2137996876E-03   0.0000000000E+00   0.0000000000E+00   0.0000000000E+00   0.1181078083E+00
   0.1575270162E+00   0.5347099595E-01   0.7304402369E-04  -0.2587349601E-05   0.5843521895E-03  -0.2069879680E-04   0.1234250900E+00  -0.2469022284E-01   0.2962046014E-01  -0.5936201811E-01   0.0000000000E+00   0.0000000000E+00   0.1219460188E-02  -0.7060388787E-03  -0.7717062354E-03   0.0000000000E+00   0.0000000000E+00   0.0000000000E+00   0.1657303838E+00
   0.1473838354E+00   0.6072372484E-01   0.6998204912E-04  -0.3683162597E-05   0.5598563930E-03  -0.2946530077E-04   0.1306009803E+00  -0.3564456233E-01   0.2848692538E-01  -0.6232842691E-01   0.0000000000E+00   0.0000000000E+00   0.1327482714E-02  -0.8337093403E-03  -0.8102695498E-03   0.0000000000E+00   0.0000000000E+00   0.0000000000E+00   0.1817766644E+00
   0.1242477727E+00   0.1489259382E+00   0.4250207860E-04  -0.1985741850E-04   0.3400166288E-03  -0.1588593480E-03   0.2997732038E+00  -0.3926032966E-01   0.7815386223E-01   0.2450706760E-02   0.0000000000E+00   0.0000000000E+00   0.2881051440E-02  -0.1526384495E-02   0.3185918788E-04   0.0000000000E+00   0.0000000000E+00   0.0000000000E+00   0.2980800961E+00
   0.1450430921E+00   0.1472131902E+00   0.4927834438E-04  -0.1620420370E-04   0.3942267551E-03  -0.1296336296E-03   0.2833927532E+00  -0.3774706321E-01   0.7369370701E-01  -0.1024568067E-01   0.0000000000E+00   0.0000000000E+00   0.2726087601E-02  -0.1448730013E-02  -0.1331938487E-03   0.0000000000E+00   0.0000000000E+00   0.0000000000E+00   0.2829506127E+00
   0.1435774600E+00   0.1659582326E+00   0.4584132989E-04  -0.1943037697E-04   0.3667306391E-03  -0.1554430158E-03   0.2918267589E+00  -0.3019353737E-01   0.7848996646E-01   0.3353396573E-02   0.0000000000E+00   0.0000000000E+00   0.2773378302E-02  -0.1412885550E-02   0.4359415545E-04   0.0000000000E+00   0.0000000000E+00   0.0000000000E+00   0.2836693542E+00
   0.1258472939E+00   0.1661112239E+00   0.4030754423E-04  -0.2242534689E-04   0.3224603539E-03  -0.1794027751E-03   0.2988318763E+00  -0.3132182758E-01   0.8025301463E-01   0.1162032470E-01   0.0000000000E+00   0.0000000000E+00   0.2841525202E-02  -0.1450472949E-02   0.1510642210E-03   0.0000000000E+00   0.0000000000E+00   0.0000000000E+00   0.2914978947E+00
   0.6686419608E-01   0.1805586335E+00   0.1987689781E-04  -0.3635427527E-04   0.1590151825E-03  -0.2908342022E-03   0.3046218047E+00   0.2101266275E-02   0.9201692130E-01   0.3671897028E-01   0.0000000000E+00   0.0000000000E+00   0.2763863484E-02  -0.1168903515E-02   0.4773466137E-03   0.0000000000E+00   0.0000000000E+00   0.0000000000E+00   0.2764473137E+00
   0.1098608604E+00   0.1658913699E+00   0.3523215481E-04  -0.2541745577E-04   0.2818572385E-03  -0.2033396462E-03   0.3094901046E+00  -0.2788037094E-01   0.8448292011E-01   0.2080299829E-01   0.0000000000E+00   0.0000000000E+00   0.2925093399E-02  -0.1460722784E-02   0.2704389778E-03   0.0000000000E+00   0.0000000000E+00   0.0000000000E+00   0.2997218864E+00
   0.1057200657E+00   0.1803380730E+00   0.3206319219E-04  -0.2849732976E-04   0.2565055375E-03  -0.2279786381E-03   0.3046451378E+00  -0.1759229005E-01   0.8611585431E-01   0.2834843111E-01   0.0000000000E+00   0.0000000000E+00   0.2840880685E-02  -0.1348205877E-02   0.3685296044E-03   0.0000000000E+00   0.0000000000E+00   0.0000000000E+00   0.2890104176E+00
   0.2152835251E+00   0.1815605776E+00   0.6459123705E-04  -0.1363271147E-04   0.5167298964E-03  -0.1090616918E-03   0.2716228764E+00  -0.7060926388E-02   0.7936858502E-01  -0.1266300024E-01   0.0000000000E+00   0.0000000000E+00   0.2499305789E-02  -0.1123583648E-02  -0.1646190032E-03   0.0000000000E+00   0.0000000000E+00   0.0000000000E+00   0.2480504489E+00
   0.2345368586E+00   0.1797107117E+00   0.7004062385E-04  -0.1219292210E-04   0.5603249908E-03  -0.9754337682E-04   0.2656140996E+00  -0.2862679590E-02   0.7882542601E-01  -0.1437568441E-01   0.0000000000E+00   0.0000000000E+00   0.2428252757E-02  -0.1061945373E-02  -0.1868838973E-03   0.0000000000E+00   0.0000000000E+00   0.0000000000E+00   0.2396750906E+00
   0.2759838197E+00   0.1304529271E+00   0.8424885689E-04  -0.5835099803E-05   0.6739908552E-03  -0.4668079843E-04   0.2165045251E+00   0.1153297199E-01   0.6841124913E-01  -0.1877204817E-01   0.0000000000E+00   0.0000000000E+00   0.1925212588E-02  -0.7394176027E-03  -0.2440366262E-03   0.0000000000E+00   0.0000000000E+00   0.0000000000E+00   0.1860992723E+00
   0.2710549255E+00   0.1522156467E+00   0.8159894325E-04  -0.7851038284E-05   0.6527915460E-03  -0.6280830627E-04   0.2367334778E+00   0.6434608761E-02   0.7295042597E-01  -0.1718266665E-01   0.0000000000E+00   0.0000000000E+00   0.2129179674E-02  -0.8647056237E-03  -0.2233746665E-03   0.0000000000E+00   0.0000000000E+00   0.0000000000E+00   0.2074272052E+00
   0.2539721334E+00   0.1773877585E+00   0.7540215082E-04  -0.1102194319E-04   0.6032172066E-03  -0.8817554554E-04   0.2591330645E+00   0.8099151945E-03   0.7798289390E-01  -0.1453141061E-01   0.0000000000E+00   0.0000000000E+00   0.2354952218E-02  -0.1003248723E-02  -0.1889083379E-03   0.0000000000E+00   0.0000000000E+00   0.0000000000E+00   0.2310451775E+00
   0.1226651890E+00   0.5807692392E-01   0.6721500237E-04  -0.5630753255E-05   0.5377200190E-03  -0.4504602604E-04   0.1096818632E+00  -0.6554115240E-01   0.1324221325E-01  -0.6616366795E-01   0.0000000000E+00   0.0000000000E+00   0.1253715450E-02  -0.1024183753E-02  -0.8601276834E-03   0.0000000000E+00   0.0000000000E+00   0.0000000000E+00   0.1916889923E+00
   0.1105796229E+00   0.7301838413E-01   0.5982054015E-04  -0.9464207410E-05   0.4785643212E-03  -0.7571365928E-04   0.1713205766E+00  -0.6363134104E-01   0.3230677066E-01  -0.6959485677E-01   0.0000000000E+00   0.0000000000E+00   0.1807179477E-02  -0.1247195452E-02  -0.9047331380E-03   0.0000000000E+00   0.0000000000E+00   0.0000000000E+00   0.2369483046E+00
   0.1480451249E+00   0.8118229567E-01   0.6486165552E-04  -0.5879936840E-05   0.5188932441E-03  -0.4703949472E-04   0.1844580706E+00  -0.4492536083E-01   0.4185981294E-01  -0.6196585728E-01   0.0000000000E+00   0.0000000000E+00   0.1853777350E-02  -0.1128207259E-02  -0.8055561446E-03   0.0000000000E+00   0.0000000000E+00   0.0000000000E+00   0.2275351785E+00
   0.1358222325E+00   0.7045735659E-01   0.6546694114E-04  -0.5620778391E-05   0.5237355292E-03  -0.4496622713E-04   0.1570048208E+00  -0.5138108758E-01   0.3168711997E-01  -0.6898753822E-01   0.0000000000E+00   0.0000000000E+00   0.1629130111E-02  -0.1079886698E-02  -0.8968379969E-03   0.0000000000E+00   0.0000000000E+00   0.0000000000E+00   0.2169831394E+00
   0.1012414617E+00   0.1966809788E+00   0.2884451696E-04  -0.3174435952E-04   0.2307561357E-03  -0.2539548762E-03   0.2970519976E+00  -0.1098555623E-01   0.8581993242E-01   0.3106351863E-01   0.0000000000E+00   0.0000000000E+00   0.2746016848E-02  -0.1258471352E-02   0.4038257422E-03   0.0000000000E+00   0.0000000000E+00   0.0000000000E+00   0.2780836525E+00
   0.1238687643E+00   0.1821391187E+00   0.3753114979E-04  -0.2528336159E-04   0.3002491983E-03  -0.2022668927E-03   0.2996929608E+00  -0.2138821585E-01   0.8349142349E-01   0.1986480894E-01   0.0000000000E+00   0.0000000000E+00   0.2810619985E-02  -0.1363435311E-02   0.2582425162E-03   0.0000000000E+00   0.0000000000E+00   0.0000000000E+00   0.2855835157E+00
   0.1615702750E+00   0.1677996002E+00   0.5101922171E-04  -0.1713208430E-04   0.4081537737E-03  -0.1370566744E-03   0.2835897699E+00  -0.2471776110E-01   0.7766160263E-01  -0.4166918370E-02   0.0000000000E+00   0.0000000000E+00   0.2677066174E-02  -0.1330931728E-02  -0.5416993881E-04   0.0000000000E+00   0.0000000000E+00   0.0000000000E+00   0.2720328300E+00
   0.1786474178E+00   0.1697107595E+00   0.5573742188E-04  -0.1537094473E-04   0.4458993750E-03  -0.1229675579E-03   0.2766829734E+00  -0.1904029677E-01   0.7729280300E-01  -0.8845508917E-02   0.0000000000E+00   0.0000000000E+00   0.2592072216E-02  -0.1252330297E-02  -0.1149916159E-03   0.0000000000E+00   0.0000000000E+00   0.0000000000E+00   0.2616648642E+00
   0.8834835423E-01   0.1396008856E+00   0.3222987025E-04  -0.2561370782E-04   0.2578389620E-03  -0.2049096626E-03   0.3333120231E+00  -0.2662156362E-01   0.9200713784E-01   0.1280070519E-01   0.0000000000E+00   0.0000000000E+00   0.3136963508E-02  -0.1542173119E-02   0.1664091675E-03   0.0000000000E+00   0.0000000000E+00   0.0000000000E+00   0.3183943676E+00
   0.9984818327E-01   0.8883916050E-01   0.5099947492E-04  -0.1406066699E-04   0.4079957994E-03  -0.1124853359E-03   0.2425118382E+00  -0.5733034239E-01   0.5555444873E-01  -0.5739310396E-01   0.0000000000E+00   0.0000000000E+00   0.2430446063E-02  -0.1467502285E-02  -0.7461103515E-03   0.0000000000E+00   0.0000000000E+00   0.0000000000E+00   0.2780042214E+00
   0.9671594470E-01   0.1274585757E+00   0.3773003375E-04  -0.2157158389E-04   0.3018402700E-03  -0.1725726711E-03   0.3206475232E+00  -0.4194347152E-01   0.8361121552E-01  -0.3440147242E-02   0.0000000000E+00   0.0000000000E+00   0.3081472001E-02  -0.1632210932E-02  -0.4472191415E-04   0.0000000000E+00   0.0000000000E+00   0.0000000000E+00   0.3184143459E+00
   0.2512211432E+00   0.1600128838E+00   0.7617068628E-04  -0.9237352915E-05   0.6093654903E-03  -0.7389882332E-04   0.2453748846E+00   0.1270450446E-03   0.7365057890E-01  -0.1805842972E-01   0.0000000000E+00   0.0000000000E+00   0.2232415974E-02  -0.9558059401E-03  -0.2347595864E-03   0.0000000000E+00   0.0000000000E+00   0.0000000000E+00   0.2202273446E+00
   0.2600827208E+00   0.1274822315E+00   0.8104898170E-04  -0.5881389929E-05   0.6483918536E-03  -0.4705111943E-04   0.2181584483E+00   0.8892351755E-02   0.6811524001E-01  -0.2213730559E-01   0.0000000000E+00   0.0000000000E+00   0.1950561708E-02  -0.7698975474E-03  -0.2877849727E-03   0.0000000000E+00   0.0000000000E+00   0.0000000000E+00   0.1907104859E+00
   0.1967091297E+00   0.1839051511E+00   0.5911329582E-04  -0.1545454236E-04   0.4729063665E-03  -0.1236363389E-03   0.2776386099E+00  -0.1112047230E-01   0.7995544128E-01  -0.8948466916E-02   0.0000000000E+00   0.0000000000E+00   0.2569881192E-02  -0.1183986877E-02  -0.1163300699E-03   0.0000000000E+00   0.0000000000E+00   0.0000000000E+00   0.2561513190E+00
   0.2590011582E+00   0.1414401968E+00   0.7962435686E-04  -0.7167578765E-05   0.6369948549E-03  -0.5734063012E-04   0.2338711540E+00   0.8934456663E-02   0.7284168321E-01  -0.1983805309E-01   0.0000000000E+00   0.0000000000E+00   0.2093383121E-02  -0.8307939451E-03  -0.2578946902E-03   0.0000000000E+00   0.0000000000E+00   0.0000000000E+00   0.2036523331E+00
   0.2466358904E+00   0.1445721909E+00   0.7646348351E-04  -0.7822228633E-05   0.6117078681E-03  -0.6257782906E-04   0.2342229857E+00   0.2407755558E-02   0.7098922237E-01  -0.2148000503E-01   0.0000000000E+00   0.0000000000E+00   0.2122038923E-02  -0.8915590686E-03  -0.2792400655E-03   0.0000000000E+00   0.0000000000E+00   0.0000000000E+00   0.2095726344E+00
   0.1922247221E+00   0.1588762250E+00   0.6100323645E-04  -0.1259322767E-04   0.4880258916E-03  -0.1007458214E-03   0.2635838454E+00  -0.1495818847E-01   0.7458769708E-01  -0.1689303598E-01   0.0000000000E+00   0.0000000000E+00   0.2456949928E-02  -0.1164096512E-02  -0.2196094677E-03   0.0000000000E+00   0.0000000000E+00   0.0000000000E+00   0.2480234010E+00
   0.1950491905E+00   0.1696664809E+00   0.6038872182E-04  -0.1373590286E-04   0.4831097745E-03  -0.1098872228E-03   0.2689572597E+00  -0.1468928515E-01   0.7628039237E-01  -0.1313803046E-01   0.0000000000E+00   0.0000000000E+00   0.2504799276E-02  -0.1182605808E-02  -0.1707943960E-03   0.0000000000E+00   0.0000000000E+00   0.0000000000E+00   0.2518803951E+00
   0.1802960258E+00   0.1551773487E+00   0.5822953609E-04  -0.1319148248E-04   0.4658362887E-03  -0.1055318598E-03   0.2680820304E+00  -0.2103109521E-01   0.7411528056E-01  -0.1536279788E-01   0.0000000000E+00   0.0000000000E+00   0.2521567748E-02  -0.1236902885E-02  -0.1997163724E-03   0.0000000000E+00   0.0000000000E+00   0.0000000000E+00   0.2564952127E+00
   0.1012956103E+00   0.1483491829E+00   0.3507292333E-04  -0.2425723160E-04   0.2805833866E-03  -0.1940578528E-03   0.3166697715E+00  -0.3345664565E-01   0.8496393775E-01   0.1412386357E-01   0.0000000000E+00   0.0000000000E+00   0.3012175838E-02  -0.1539467584E-02   0.1836102264E-03   0.0000000000E+00   0.0000000000E+00   0.0000000000E+00   0.3093688985E+00
   0.2010619017E+00   0.7795200841E-01   0.7530519088E-04  -0.3166109539E-05   0.6024415271E-03  -0.2532887631E-04   0.1682583476E+00  -0.1868410296E-02   0.4991698119E-01  -0.4484745543E-01   0.0000000000E+00   0.0000000000E+00   0.1538437763E-02  -0.6732100893E-03  -0.5830169206E-03   0.0000000000E+00   0.0000000000E+00   0.0000000000E+00   0.1697722979E+00
   0.2119978837E+00   0.1146157531E+00   0.7206719307E-04  -0.6112763399E-05   0.5765375446E-03  -0.4890210719E-04   0.2138801654E+00  -0.7442824819E-02   0.6193120217E-01  -0.3436774202E-01   0.0000000000E+00   0.0000000000E+00   0.1975336522E-02  -0.9018623509E-03  -0.4467806463E-03   0.0000000000E+00   0.0000000000E+00   0.0000000000E+00   0.2048388371E+00
   0.2072401500E+00   0.9685415872E-01   0.7361344777E-04  -0.4581998317E-05   0.5889075822E-03  -0.3665598653E-04   0.1936312494E+00  -0.6338876359E-02   0.5618771190E-01  -0.4045843614E-01   0.0000000000E+00   0.0000000000E+00   0.1786765987E-02  -0.8128456474E-03  -0.5259596699E-03   0.0000000000E+00   0.0000000000E+00   0.0000000000E+00   0.1904340269E+00
   0.9030452681E-01   0.1038289708E+00   0.4247775646E-04  -0.1884291655E-04   0.3398220517E-03  -0.1507433324E-03   0.3099502065E+00  -0.3684029274E-01   0.8193297412E-01  -0.3593469390E-01   0.0000000000E+00   0.0000000000E+00   0.2964224020E-02  -0.1544052469E-02  -0.4671510207E-03   0.0000000000E+00   0.0000000000E+00   0.0000000000E+00   0.3088026732E+00
   0.1250090864E+00   0.8330961688E-01   0.5925404604E-04  -0.8619079452E-05   0.4740323683E-03  -0.6895263562E-04   0.1991791660E+00  -0.6145927371E-01   0.4131596768E-01  -0.6408780500E-01   0.0000000000E+00   0.0000000000E+00   0.2052221578E-02  -0.1336078138E-02  -0.8331414651E-03   0.0000000000E+00   0.0000000000E+00   0.0000000000E+00   0.2526543122E+00
   0.1091591694E+00   0.1150419507E+00   0.4498549426E-04  -0.1663280581E-04   0.3598839541E-03  -0.1330624465E-03   0.2901360989E+00  -0.5328143117E-01   0.7105640032E-01  -0.2751448871E-01   0.0000000000E+00   0.0000000000E+00   0.2848036082E-02  -0.1616391809E-02  -0.3576883532E-03   0.0000000000E+00   0.0000000000E+00   0.0000000000E+00   0.3053618011E+00
   0.2445149875E+00   0.1279330002E+00   0.7761527264E-04  -0.6299315114E-05   0.6209221811E-03  -0.5039452091E-04   0.2193193428E+00   0.3658047928E-02   0.6689321723E-01  -0.2547510881E-01   0.0000000000E+00   0.0000000000E+00   0.1981539633E-02  -0.8220572009E-03  -0.3311764145E-03   0.0000000000E+00   0.0000000000E+00   0.0000000000E+00   0.1969829048E+00
   0.1994602378E+00   0.1516418077E+00   0.6390942272E-04  -0.1108737186E-04   0.5112753818E-03  -0.8869897489E-04   0.2546019548E+00  -0.1584593538E-01   0.7162680582E-01  -0.2053811288E-01   0.0000000000E+00   0.0000000000E+00   0.2378676936E-02  -0.1137145636E-02  -0.2669954674E-03   0.0000000000E+00   0.0000000000E+00   0.0000000000E+00   0.2416225486E+00
   0.2059690644E+00   0.1443481616E+00   0.6657660111E-04  -0.9735160343E-05   0.5326128089E-03  -0.7788128274E-04   0.2458961460E+00  -0.1455831962E-01   0.6940134791E-01  -0.2405681571E-01   0.0000000000E+00   0.0000000000E+00   0.2294432375E-02  -0.1091475678E-02  -0.3127386042E-03   0.0000000000E+00   0.0000000000E+00   0.0000000000E+00   0.2339978773E+00
   0.1930234104E+00   0.1007711868E+00   0.7008648365E-04  -0.5492129963E-05   0.5606918692E-03  -0.4393703970E-04   0.2024931771E+00  -0.1574941933E-01   0.5602312734E-01  -0.4256169345E-01   0.0000000000E+00   0.0000000000E+00   0.1904110647E-02  -0.9330431067E-03  -0.5533020148E-03   0.0000000000E+00   0.0000000000E+00   0.0000000000E+00   0.2061256640E+00
   0.1421681600E+00   0.1240977176E+00   0.5287711363E-04  -0.1287893470E-04   0.4230169091E-03  -0.1030314776E-03   0.2660995243E+00  -0.4715844321E-01   0.6568232431E-01  -0.2796585421E-01   0.0000000000E+00   0.0000000000E+00   0.2605423599E-02  -0.1466929978E-02  -0.3635561047E-03   0.0000000000E+00   0.0000000000E+00   0.0000000000E+00   0.2789791948E+00
   0.1463779385E+00   0.1117956516E+00   0.5680516558E-04  -0.1039737675E-04   0.4544413246E-03  -0.8317901402E-04   0.2467770922E+00  -0.4780210128E-01   0.5969249727E-01  -0.4068227099E-01   0.0000000000E+00   0.0000000000E+00   0.2432099734E-02  -0.1397429781E-02  -0.5288695229E-03   0.0000000000E+00   0.0000000000E+00   0.0000000000E+00   0.2674817816E+00
   0.1591313519E+00   0.1175795299E+00   0.5894609992E-04  -0.9932122033E-05   0.4715687993E-03  -0.7945697626E-04   0.2443468378E+00  -0.3978149108E-01   0.6136960402E-01  -0.3712333521E-01   0.0000000000E+00   0.0000000000E+00   0.2378704039E-02  -0.1314964236E-02  -0.4826033578E-03   0.0000000000E+00   0.0000000000E+00   0.0000000000E+00   0.2576397392E+00
   0.1545893960E+00   0.1312651547E+00   0.5499144681E-04  -0.1247492150E-04   0.4399315745E-03  -0.9979937201E-04   0.2609098902E+00  -0.4169685386E-01   0.6576391089E-01  -0.2673134184E-01   0.0000000000E+00   0.0000000000E+00   0.2536897730E-02  -0.1396989942E-02  -0.3475074439E-03   0.0000000000E+00   0.0000000000E+00   0.0000000000E+00   0.2693175000E+00
   0.1642529164E+00   0.1518496523E+00   0.5418826213E-04  -0.1444307832E-04   0.4335060970E-03  -0.1155446265E-03   0.2736613016E+00  -0.2753052643E-01   0.7383923256E-01  -0.1356252136E-01   0.0000000000E+00   0.0000000000E+00   0.2597686898E-02  -0.1317806867E-02  -0.1763127777E-03   0.0000000000E+00   0.0000000000E+00   0.0000000000E+00   0.2663512573E+00
   0.1117302937E+00   0.1547392706E+00   0.3751218567E-04  -0.2321981897E-04   0.3000974854E-03  -0.1857585518E-03   0.3132100783E+00  -0.2977646771E-01   0.8503008317E-01   0.1481888578E-01   0.0000000000E+00   0.0000000000E+00   0.2966339936E-02  -0.1492485161E-02   0.1926455151E-03   0.0000000000E+00   0.0000000000E+00   0.0000000000E+00   0.3032718155E+00
   0.1377035000E+00   0.1346064689E+00   0.4939144433E-04  -0.1526834020E-04   0.3951315546E-03  -0.1221467216E-03   0.2908988282E+00  -0.4026851964E-01   0.7518909255E-01  -0.1561289712E-01   0.0000000000E+00   0.0000000000E+00   0.2804226563E-02  -0.1500948959E-02  -0.2029676625E-03   0.0000000000E+00   0.0000000000E+00   0.0000000000E+00   0.2921235430E+00
   0.1810915722E+00   0.1055947326E+00   0.6662424212E-04  -0.6643374937E-05   0.5329939369E-03  -0.5314699950E-04   0.2115559916E+00  -0.2701835050E-01   0.5536129232E-01  -0.4429216930E-01   0.0000000000E+00   0.0000000000E+00   0.2030531090E-02  -0.1070935357E-02  -0.5757982009E-03   0.0000000000E+00   0.0000000000E+00   0.0000000000E+00   0.2233831173E+00
   0.1515187068E+00   0.9996364505E-01   0.6090653366E-04  -0.8106772622E-05   0.4872522692E-03  -0.6485418098E-04   0.2194318247E+00  -0.4440275666E-01   0.5250872040E-01  -0.5019689288E-01   0.0000000000E+00   0.0000000000E+00   0.2170000355E-02  -0.1259849202E-02  -0.6525596074E-03   0.0000000000E+00   0.0000000000E+00   0.0000000000E+00   0.2468031654E+00
   0.1386389176E+00   0.9232274461E-01   0.5975906191E-04  -0.8300754298E-05   0.4780724953E-03  -0.6640603439E-04   0.2155671074E+00  -0.5358546258E-01   0.4859449345E-01  -0.5741661535E-01   0.0000000000E+00   0.0000000000E+00   0.2170643982E-02  -0.1328339428E-02  -0.7464159995E-03   0.0000000000E+00   0.0000000000E+00   0.0000000000E+00   0.2551848459E+00
   0.1563392187E+00   0.9048778180E-01   0.6427763313E-04  -0.6465044649E-05   0.5142210650E-03  -0.5172035719E-04   0.1953838753E+00  -0.4566322135E-01   0.4491619619E-01  -0.5931777432E-01   0.0000000000E+00   0.0000000000E+00   0.1956079829E-02  -0.1177532428E-02  -0.7711310661E-03   0.0000000000E+00   0.0000000000E+00   0.0000000000E+00   0.2342900465E+00
   0.1277054550E+00   0.1184441369E+00   0.4989733071E-04  -0.1402033992E-04   0.3991786457E-03  -0.1121627194E-03   0.2794892563E+00  -0.5173251955E-01   0.6832702104E-01  -0.2947514056E-01   0.0000000000E+00   0.0000000000E+00   0.2745109059E-02  -0.1560774028E-02  -0.3831768273E-03   0.0000000000E+00   0.0000000000E+00   0.0000000000E+00   0.2945826805E+00
   0.1263549142E+00   0.1329860820E+00   0.4616668466E-04  -0.1678555818E-04   0.3693334773E-03  -0.1342844654E-03   0.2887511402E+00  -0.4724445935E-01   0.7245200425E-01  -0.1433536919E-01   0.0000000000E+00   0.0000000000E+00   0.2811888767E-02  -0.1556054027E-02  -0.1863597995E-03   0.0000000000E+00   0.0000000000E+00   0.0000000000E+00   0.2960229926E+00
   0.1148275920E+00   0.1295535755E+00   0.4327255450E-04  -0.1823027997E-04   0.3461804360E-03  -0.1458422398E-03   0.2937646722E+00  -0.5485024067E-01   0.7167432947E-01  -0.1228891370E-01   0.0000000000E+00   0.0000000000E+00   0.2887174456E-02  -0.1644819412E-02  -0.1597558781E-03   0.0000000000E+00   0.0000000000E+00   0.0000000000E+00   0.3058617496E+00
   0.2296430613E+00   0.1294284329E+00   0.7412825571E-04  -0.6917238165E-05   0.5930260457E-03  -0.5533790532E-04   0.2243622044E+00  -0.1818968804E-02   0.6676297068E-01  -0.2730476780E-01   0.0000000000E+00   0.0000000000E+00   0.2048790039E-02  -0.8915652134E-03  -0.3549619814E-03   0.0000000000E+00   0.0000000000E+00   0.0000000000E+00   0.2063258691E+00
   0.2017341175E+00   0.1331595248E+00   0.6707083804E-04  -0.8646911476E-05   0.5365667043E-03  -0.6917529180E-04   0.2382899944E+00  -0.1378920388E-01   0.6735023714E-01  -0.2832676904E-01   0.0000000000E+00   0.0000000000E+00   0.2222216844E-02  -0.1054812733E-02  -0.3682479975E-03   0.0000000000E+00   0.0000000000E+00   0.0000000000E+00   0.2281718513E+00
   0.1981331781E+00   0.1180454338E+00   0.6844356555E-04  -0.7115359001E-05   0.5475485244E-03  -0.5692287201E-04   0.2233341294E+00  -0.1550439065E-01   0.6234892162E-01  -0.3512655889E-01   0.0000000000E+00   0.0000000000E+00   0.2092807701E-02  -0.1012093059E-02  -0.4566452655E-03   0.0000000000E+00   0.0000000000E+00   0.0000000000E+00   0.2195269327E+00
   0.2155422185E+00   0.1310894123E+00   0.7066372763E-04  -0.7683186389E-05   0.5653098210E-03  -0.6146549111E-04   0.2293468821E+00  -0.8467564116E-02   0.6626379538E-01  -0.2866164483E-01   0.0000000000E+00   0.0000000000E+00   0.2120080127E-02  -0.9715076735E-03  -0.3726013828E-03   0.0000000000E+00   0.0000000000E+00   0.0000000000E+00   0.2163808639E+00
   0.1089454901E+00   0.1383262057E+00   0.3948411807E-04  -0.2093359380E-04   0.3158729445E-03  -0.1674687504E-03   0.3114133940E+00  -0.4276436962E-01   0.8059470730E-01  -0.1622648512E-03   0.0000000000E+00   0.0000000000E+00   0.3000642926E-02  -0.1603668000E-02  -0.2109443065E-05   0.0000000000E+00   0.0000000000E+00   0.0000000000E+00   0.3112348167E+00
   0.1692642690E+00   0.1363891435E+00   0.5814066663E-04  -0.1163860653E-04   0.4651253330E-03  -0.9310885227E-04   0.2576441664E+00  -0.3295475594E-01   0.6740682314E-01  -0.2487395424E-01   0.0000000000E+00   0.0000000000E+00   0.2473085463E-02  -0.1304700528E-02  -0.3233614051E-03   0.0000000000E+00   0.0000000000E+00   0.0000000000E+00   0.2591660753E+00
   0.1868571659E+00   0.1395315719E+00   0.6234332283E-04  -0.1047667495E-04   0.4987465826E-03  -0.8381339960E-04   0.2501644524E+00  -0.2262341282E-01   0.6826231187E-01  -0.2521755131E-01   0.0000000000E+00   0.0000000000E+00   0.2364727827E-02  -0.1181514421E-02  -0.3278281670E-03   0.0000000000E+00   0.0000000000E+00   0.0000000000E+00   0.2444515557E+00
   0.1632061362E+00   0.1046354096E+00   0.6269980322E-04  -0.7753604266E-05   0.5015984258E-03  -0.6202883413E-04   0.2268698568E+00  -0.3456392733E-01   0.5769177885E-01  -0.4449616172E-01   0.0000000000E+00   0.0000000000E+00   0.2199315014E-02  -0.1199324180E-02  -0.5784501023E-03   0.0000000000E+00   0.0000000000E+00   0.0000000000E+00   0.2418750677E+00
   0.1849636577E+00   0.1213909884E+00   0.6476196547E-04  -0.8315181976E-05   0.5180957237E-03  -0.6652145581E-04   0.2326660882E+00  -0.2311867791E-01   0.6286422307E-01  -0.3430825456E-01   0.0000000000E+00   0.0000000000E+00   0.2207424246E-02  -0.1117777713E-02  -0.4460073093E-03   0.0000000000E+00   0.0000000000E+00   0.0000000000E+00   0.2330059086E+00
   0.1720975296E+00   0.1217293719E+00   0.6150317536E-04  -0.9326672378E-05   0.4920254029E-03  -0.7461337902E-04   0.2389262974E+00  -0.3220830418E-01   0.6201539797E-01  -0.3458864327E-01   0.0000000000E+00   0.0000000000E+00   0.2299841693E-02  -0.1224908128E-02  -0.4496523625E-03   0.0000000000E+00   0.0000000000E+00   0.0000000000E+00   0.2457213268E+00
   0.1160789774E+00   0.9803319765E-01   0.5218848362E-04  -0.1238612799E-04   0.4175078689E-03  -0.9908902394E-04   0.2472548083E+00  -0.6201743202E-01   0.5557121289E-01  -0.5095666774E-01   0.0000000000E+00   0.0000000000E+00   0.2491886741E-02  -0.1528652384E-02  -0.6624366806E-03   0.0000000000E+00   0.0000000000E+00   0.0000000000E+00   0.2841777874E+00
   0.1319099629E+00   0.1052146155E+00   0.5448988158E-04  -0.1114638387E-04   0.4359190526E-03  -0.8917107095E-04   0.2504041482E+00  -0.5573167197E-01   0.5840174288E-01  -0.4469910054E-01   0.0000000000E+00   0.0000000000E+00   0.2496031270E-02  -0.1483734393E-02  -0.5810883070E-03   0.0000000000E+00   0.0000000000E+00   0.0000000000E+00   0.2784811438E+00
   0.1724196190E+00   0.1102719945E+00   0.6374678220E-04  -0.7800280448E-05   0.5099742576E-03  -0.6240224359E-04   0.2183149778E+00  -0.3341157799E-01   0.5547101994E-01  -0.4249955847E-01   0.0000000000E+00   0.0000000000E+00   0.2116971452E-02  -0.1155473773E-02  -0.5524942601E-03   0.0000000000E+00   0.0000000000E+00   0.0000000000E+00   0.2329888869E+00
           1           2           3           4
           5           6           7           8
           9          10          11          12
          13          14          15          16
          17          18          19          20
          21          22          23          24
          25          26          27          28
          29          30          31          32
          33          34           4           3
           2           1          35          36
          37          38          39          40
          41          42          36          35
          43          41          44          45
          46           9          47          48
          41          35          39          44
          49          50          51          52
          52          51          53          54
          55          56          57          58
          56          59          60          57
          61          62          63          64
          65          66          67          68
          69          70          71          72
          73          74          25          28
          27          75          76          28
          77          78          24          23
          79          80          81          82
          83          84          85          86
          87          88          89          90
          90          89          62          91
          61          92          91          62
          92          61          59          93
          56          94          93          59
          95          55          54          53
          46          96          10           9
          97          98          99         100
          12         101          98          97
          97         100         102          47
         103         104          31          30
         105         103          30         106
          73         107         108         109
         110         111         112         113
          32          31         114         115
         116         117         118         119
         120         121         122         123
         121          83          86         122
          80         124         125          81
         126         127         128         129
         130         101          12          11
         131          43         101         130
          34         129         132           4
          42          41          43         131
          35           1          40          39
         101          43          45          98
         133         134         109         108
         135         136          13          16
         137         138          65          68
          94          56          55          95
          58         137          54          55
          49          52          68          67
         139         140         141         142
         140         139          82          81
          88          87         142         141
         143         144         145         146
         147          26          25         148
         149         150         128         151
           5           8         152         102
         132         129         128         150
         153         100          99         154
          48          47         102         152
          59          61          64          60
         106         155         113         118
          62          89         156          63
          88         157         156          89
         123         116         119         120
          66          65         134         133
         144         143          84          83
           9          12          97          47
         104         158         114          31
         159         160         127         126
         119         112         161         120
         117         105         106         118
         162         163         164         165
          83         121         166         144
         167         168         141         140
         167         143         146         168
           6         114         158           7
          38          37         169         170
          40         132         150          37
         160         159          20          19
          78         171         172          24
          18          17          21          24
         173         174          78          77
         132          40           1           4
          28          76         107          73
         175         176         177         178
         176         179          57          60
         137          68          52          54
          60          64         177         176
         163         162         155          29
          75          27         174         173
         180         174          27          26
          64          63         181         177
          98          45         182          99
         183         182          45          44
          38         183          44          39
          58          57         179         184
         185         181          63         156
         134         186         187         109
         188          74         187         189
         138         186         134          65
          88         141         168         157
         166         121         120         161
         190         191         166         161
         155         106          30          29
         192         193         194         195
         118         113         112         119
         125          84         143         167
         124          85          84         125
           6         196         115         114
         196           6           5         153
         197          32         115         198
         111         190         161         112
         199         148         188         135
         170         169         200         201
         202         164         163         197
         203         204         146         145
         205         206         201         200
         187          74          73         109
         176         175         207         179
         208         209          16          15
         210         186         138         184
         184         138         137          58
         179         207         210         184
         211         212         172         171
          78         174         180         171
         125         167         140          81
          37         150         149         169
         213         214         215         216
         217         182         183         201
         170         201         183          38
         218         219         206         205
         111         220         221         190
         157         168         146         204
         177         181         222         178
         222         181         185         223
         186         210         189         187
         224         191         190         221
         100         153           5         102
         185         156         157         204
         113         155         162         110
          26         147         193         180
          29          32         197         163
         225         226          19          18
         144         166         191         145
         212         192         227         228
         198         115         196         229
         206         154         217         201
         153         154         229         196
         172         225          18          24
         148          25          74         188
          14          13         175         178
         207         175          13         136
         189         136         135         188
         230         202         197         198
         210         207         136         189
         165         164         231         232
         169         149         233         200
         234         160          19         226
         217         154          99         182
         203         145         191         224
         151         235         233         149
         236         223         203         224
         185         204         203         223
         178         222         237          14
         110         162         165         238
         239         223         236         240
         238         220         111         110
         219         230         198         229
         241         242         232         243
         242          69         220         238
          72          71         240         236
         244         205         200         233
         215         231         164         202
         211         171         180         193
         228         225         172         212
         194         193         147         245
         245         147         148         199
         135          16         209         199
         209         208         246         247
         127         160         234         248
         193         192         212         211
         226         225         228         249
         151         128         127         248
         248         250         235         151
          72         221         220          69
          14         237         251          15
          70          69         252         253
         206         219         229         154
         238         165         232         242
          72         236         224         221
         216         215         202         230
         245         247         254         194
         255         256         257         258
         230         219         218         216
         214         259         231         215
         216         218         260         213
         261         255         258         214
         239         237         222         223
         194         254         262         195
         263         264         227         265
         250         266         267         268
         199         209         247         245
         240          71         269         251
         270         271         246         272
         260         244         273         213
         237         239         240         251
         218         205         244         260
          70         272         269          71
         232         231         259         243
         274         275         243         259
         257         256         263         276
         277         275         274         278
         234         226         249         279
         271         277         262         254
         271         254         247         246
         246         208         269         272
         244         233         235         273
         251         269         208          15
         275         270         253         252
         234         279         250         248
         279         249         264         280
         259         214         258         274
         262         281         276         195
         195         276         263         265
         257         276         281         278
         278         274         258         257
         266         280         256         255
         261         214         213         267
         267         266         255         261
         266         250         279         280
         228         227         264         249
         256         280         264         263
         265         227         192         195
         281         262         277         278
         235         250         268         273
         273         268         267         213
         277         271         270         275
         253         270         272          70
         252          69         242         241
         243         275         252         241
 VARIABLES = X,Y,DU1,DU2,U1,U2,S11,S22,S33,S12,S13,S23,E11,E22,E12,E33,E13,E23,SMISES
 ZONE, T="0.1000D+02" F=FEPOINT, I=  281 J=  250
   0.1782496779E-01   0.1338493840E+00   0.6995108697E-05  -0.3884119502E-04   0.6295597828E-04  -0.3495707552E-03   0.4743019377E+00   0.9094899254E-01   0.1695752791E+00   0.7256227286E-02   0.0000000000E+00   0.0000000000E+00   0.3961446563E-02  -0.1022141725E-02   0.9433095472E-04   0.0000000000E+00   0.0000000000E+00   0.0000000000E+00   0.3489480833E+00
   0.0000000000E+00   0.1329368804E+00   0.0000000000E+00  -0.3964596163E-04   0.0000000000E+00  -0.3568136547E-03   0.4772934226E+00   0.9481303838E-01   0.1716319383E+00   0.1226047583E-01   0.0000000000E+00   0.0000000000E+00   0.3973599296E-02  -0.9986456989E-03   0.1593861858E-03   0.0000000000E+00   0.0000000000E+00   0.0000000000E+00   0.3511710771E+00
   0.0000000000E+00   0.1162924235E+00   0.0000000000E+00  -0.3742435212E-04   0.0000000000E+00  -0.3368191691E-03   0.5982934956E+00   0.3999699100E-01   0.1914871460E+00   0.9754108165E-02   0.0000000000E+00   0.0000000000E+00   0.5288482545E-02  -0.1969372015E-02   0.1268034061E-03   0.0000000000E+00   0.0000000000E+00   0.0000000000E+00   0.4987956480E+00
   0.1925243283E-01   0.1159269837E+00   0.9829582524E-05  -0.3642042832E-04   0.8846624272E-04  -0.3277838549E-03   0.5466201406E+00   0.3839876600E-01   0.1755056720E+00  -0.4861803349E-01   0.0000000000E+00   0.0000000000E+00   0.4824488092E-02  -0.1782389778E-02  -0.6320344354E-03   0.0000000000E+00   0.0000000000E+00   0.0000000000E+00   0.4652859316E+00
   0.7818648856E-01   0.2314712629E+00   0.1849893641E-04  -0.4051400749E-04   0.1664904277E-03  -0.3646260674E-03   0.2908907510E+00   0.1514353118E-03   0.8731265588E-01   0.2015041416E-01   0.0000000000E+00   0.0000000000E+00   0.2646515236E-02  -0.1133095867E-02   0.2619553840E-03   0.0000000000E+00   0.0000000000E+00   0.0000000000E+00   0.2608922135E+00
   0.9801665211E-01   0.2316860345E+00   0.2386522070E-04  -0.3692275069E-04   0.2147869863E-03  -0.3323047562E-03   0.3074629830E+00  -0.1502686036E-02   0.9178808909E-01   0.1835363805E-01   0.0000000000E+00   0.0000000000E+00   0.2803773621E-02  -0.1212780077E-02   0.2385972947E-03   0.0000000000E+00   0.0000000000E+00   0.0000000000E+00   0.2764146370E+00
   0.9743178605E-01   0.2496083508E+00   0.2095621536E-04  -0.3916492128E-04   0.1886059382E-03  -0.3524842915E-03   0.2999115933E+00  -0.1526232655E-02   0.8951560820E-01   0.6305401596E-02   0.0000000000E+00   0.0000000000E+00   0.2735147807E-02  -0.1183543931E-02   0.8197022075E-04   0.0000000000E+00   0.0000000000E+00   0.0000000000E+00   0.2677073472E+00
   0.7793661070E-01   0.2495745560E+00   0.1588301032E-04  -0.4254439680E-04   0.1429470929E-03  -0.3828995712E-03   0.2714160168E+00  -0.2715142025E-02   0.8061026244E-01   0.7005002766E-02   0.0000000000E+00   0.0000000000E+00   0.2480474807E-02  -0.1083230258E-02   0.9106503595E-04   0.0000000000E+00   0.0000000000E+00   0.0000000000E+00   0.2433725353E+00
   0.1914005967E-01   0.2328406595E+00   0.4186906655E-05  -0.4821695311E-04   0.3768215990E-04  -0.4339525780E-03   0.2464959666E+00   0.6885335772E-02   0.7601439071E-01   0.5811285737E-02   0.0000000000E+00   0.0000000000E+00   0.2216260486E-02  -0.8986777142E-03   0.7554671458E-04   0.0000000000E+00   0.0000000000E+00   0.0000000000E+00   0.2142541804E+00
   0.0000000000E+00   0.2328455731E+00   0.0000000000E+00  -0.4877609362E-04   0.0000000000E+00  -0.4389848426E-03   0.2425130887E+00   0.7311701652E-02   0.7494743710E-01   0.6546494652E-02   0.0000000000E+00   0.0000000000E+00   0.2178353471E-02  -0.8792645609E-03   0.8510443048E-04   0.0000000000E+00   0.0000000000E+00   0.0000000000E+00   0.2099588794E+00
   0.0000000000E+00   0.2161943876E+00   0.0000000000E+00  -0.4722813783E-04   0.0000000000E+00  -0.4250532404E-03   0.2755673303E+00   0.1403174819E-01   0.8687972356E-01   0.6705865767E-02   0.0000000000E+00   0.0000000000E+00   0.2452938888E-02  -0.9470236798E-03   0.8717625497E-04   0.0000000000E+00   0.0000000000E+00   0.0000000000E+00   0.2338934406E+00
   0.1857794825E-01   0.2163077772E+00   0.4565344514E-05  -0.4668358177E-04   0.4108810063E-04  -0.4201522359E-03   0.2782976619E+00   0.1295525821E-01   0.8737587604E-01   0.1139516199E-01   0.0000000000E+00   0.0000000000E+00   0.2481983216E-02  -0.9674680317E-03   0.1481371059E-03   0.0000000000E+00   0.0000000000E+00   0.0000000000E+00   0.2382419738E+00
   0.2580416861E+00   0.9224130947E-01   0.8362000731E-04  -0.3296152572E-05   0.7525800658E-03  -0.2966537315E-04   0.2050399916E+00   0.1927704314E-01   0.6729511042E-01  -0.2796415435E-01   0.0000000000E+00   0.0000000000E+00   0.1790683455E-02  -0.6242348745E-03  -0.3635340066E-03   0.0000000000E+00   0.0000000000E+00   0.0000000000E+00   0.1738494380E+00
   0.2594249385E+00   0.1102408049E+00   0.8236604865E-04  -0.4512505276E-05   0.7412944379E-03  -0.4061254748E-04   0.2239157804E+00   0.1427717337E-01   0.7145788612E-01  -0.2688596103E-01   0.0000000000E+00   0.0000000000E+00   0.1981952625E-02  -0.7433492657E-03  -0.3495174934E-03   0.0000000000E+00   0.0000000000E+00   0.0000000000E+00   0.1933413954E+00
   0.2426452840E+00   0.1106281786E+00   0.7897520231E-04  -0.4849041415E-05   0.7107768208E-03  -0.4364137274E-04   0.2261089477E+00   0.7734549803E-02   0.7015304925E-01  -0.3164560964E-01   0.0000000000E+00   0.0000000000E+00   0.2027426680E-02  -0.8114404928E-03  -0.4113929253E-03   0.0000000000E+00   0.0000000000E+00   0.0000000000E+00   0.2023374538E+00
   0.2401837673E+00   0.9264592080E-01   0.8036313396E-04  -0.3539770277E-05   0.7232682057E-03  -0.3185793249E-04   0.2056450557E+00   0.1240725828E-01   0.6541569420E-01  -0.3402809431E-01   0.0000000000E+00   0.0000000000E+00   0.1822981700E-02  -0.6891096669E-03  -0.4423652261E-03   0.0000000000E+00   0.0000000000E+00   0.0000000000E+00   0.1826476151E+00
   0.9309907805E-01   0.3816151987E-01   0.7111261511E-04  -0.1068227345E-04   0.6400135360E-03  -0.9614046108E-04  -0.3506517428E-01  -0.1800357351E+00  -0.6453027282E-01   0.2508106289E-01   0.0000000000E+00   0.0000000000E+00   0.3830462810E-03  -0.1501571010E-02   0.3260538176E-03   0.0000000000E+00   0.0000000000E+00   0.0000000000E+00   0.1287841055E+00
   0.1087432852E+00   0.4603110190E-01   0.6964251905E-04  -0.6743959537E-05   0.6267826714E-03  -0.6069563584E-04   0.6206220236E-01  -0.7367165167E-01  -0.3482834790E-02  -0.3739121266E-01   0.0000000000E+00   0.0000000000E+00   0.8520854830E-03  -0.9124546194E-03  -0.4860857646E-03   0.0000000000E+00   0.0000000000E+00   0.0000000000E+00   0.1281564466E+00
   0.9672638070E-01   0.6342566980E-01   0.6152843021E-04  -0.1165248961E-04   0.5537558719E-03  -0.1048724065E-03   0.1169168252E+00  -0.4500694926E-01   0.2157296279E-01  -0.5566538690E-01   0.0000000000E+00   0.0000000000E+00   0.1239470212E-02  -0.8655388568E-03  -0.7236500297E-03   0.0000000000E+00   0.0000000000E+00   0.0000000000E+00   0.1715092214E+00
   0.8379008685E-01   0.5539546957E-01   0.6431273462E-04  -0.1615541316E-04   0.5788146115E-03  -0.1453987185E-03   0.3143763486E-01  -0.4021642662E-01  -0.2633637527E-02  -0.1797823273E-01   0.0000000000E+00   0.0000000000E+00   0.4429265410E-03  -0.4885762582E-03  -0.2337170255E-03   0.0000000000E+00   0.0000000000E+00   0.0000000000E+00   0.6985309917E-01
   0.9882862758E-01   0.1945638679E-01   0.7501009803E-04  -0.5264561245E-05   0.6750908823E-03  -0.4738105120E-04  -0.3689828248E-01  -0.2809418065E+00  -0.9535202668E-01   0.3505620055E-01   0.0000000000E+00   0.0000000000E+00   0.7598986746E-03  -0.2412667137E-02   0.4557306071E-03   0.0000000000E+00   0.0000000000E+00   0.0000000000E+00   0.2174239984E+00
   0.1007669079E+00   0.0000000000E+00   0.7669068531E-04   0.0000000000E+00   0.6902161678E-03   0.0000000000E+00  -0.5025768372E-01  -0.3042949425E+00  -0.1063657879E+00  -0.1914000083E-01   0.0000000000E+00   0.0000000000E+00   0.7294053540E-03  -0.2573079011E-02  -0.2488200108E-03   0.0000000000E+00   0.0000000000E+00   0.0000000000E+00   0.2322703549E+00
   0.1216148484E+00   0.0000000000E+00   0.7815183898E-04   0.0000000000E+00   0.7033665508E-03   0.0000000000E+00   0.7526406297E-02  -0.9627846555E-01  -0.2662561777E-01  -0.2054102975E-01   0.0000000000E+00   0.0000000000E+00   0.4439763129E-03  -0.9054870210E-03  -0.2670333867E-03   0.0000000000E+00   0.0000000000E+00   0.0000000000E+00   0.9687749993E-01
   0.1224892082E+00   0.2608799328E-01   0.7583442070E-04  -0.2431542051E-05   0.6825097863E-03  -0.2188387846E-04   0.2948913224E-01  -0.9298568417E-01  -0.1904896558E-01  -0.2465278974E-01   0.0000000000E+00   0.0000000000E+00   0.6309952716E-03  -0.9611773417E-03  -0.3204862667E-03   0.0000000000E+00   0.0000000000E+00   0.0000000000E+00   0.1218024885E+00
   0.2113598383E+00   0.3762396635E-01   0.8156992776E-04  -0.9266450683E-06   0.7341293499E-03  -0.8339805615E-05   0.1335568801E+00   0.2027425130E-01   0.4614933942E-01  -0.3104867084E-01   0.0000000000E+00   0.0000000000E+00   0.1136298029E-02  -0.3363761455E-03  -0.4036327210E-03   0.0000000000E+00   0.0000000000E+00   0.0000000000E+00   0.1156471244E+00
   0.1912508322E+00   0.3837210944E-01   0.7929222066E-04  -0.1039095662E-05   0.7136299860E-03  -0.9351860954E-05   0.1206219581E+00   0.7633715393E-02   0.3847670204E-01  -0.3995987566E-01   0.0000000000E+00   0.0000000000E+00   0.1067888329E-02  -0.4009588265E-03  -0.5194783836E-03   0.0000000000E+00   0.0000000000E+00   0.0000000000E+00   0.1220213646E+00
   0.1875140886E+00   0.1900849879E-01   0.8059366394E-04  -0.4421810457E-06   0.7253429755E-03  -0.3979629411E-05   0.9534949426E-01   0.1239711358E-01   0.3232398235E-01  -0.1972385312E-01   0.0000000000E+00   0.0000000000E+00   0.8193316548E-03  -0.2590492940E-03  -0.2564100906E-03   0.0000000000E+00   0.0000000000E+00   0.0000000000E+00   0.8325607377E-01
   0.2080567138E+00   0.1873405200E-01   0.8244318411E-04  -0.3971898792E-06   0.7419886570E-03  -0.3574708913E-05   0.1160302363E+00   0.2358061849E-01   0.4188325645E-01  -0.1555464212E-01   0.0000000000E+00   0.0000000000E+00   0.9639107385E-03  -0.2379342935E-03  -0.2022103475E-03   0.0000000000E+00   0.0000000000E+00   0.0000000000E+00   0.8939683210E-01
   0.1578605014E+00   0.2157127927E+00   0.4371544168E-04  -0.2446553376E-04   0.3934389751E-03  -0.2201898038E-03   0.3323227765E+00  -0.7256868409E-02   0.9751977243E-01   0.8774400581E-02   0.0000000000E+00   0.0000000000E+00   0.3052439053E-02  -0.1362096331E-02   0.1140672076E-03   0.0000000000E+00   0.0000000000E+00   0.0000000000E+00   0.3015466944E+00
   0.1568656142E+00   0.2323368570E+00   0.4129432021E-04  -0.2686449964E-04   0.3716488819E-03  -0.2417804968E-03   0.3402364911E+00  -0.3483982248E-02   0.1010257527E+00   0.5539408906E-02   0.0000000000E+00   0.0000000000E+00   0.3109739600E-02  -0.1358626554E-02   0.7201231578E-04   0.0000000000E+00   0.0000000000E+00   0.0000000000E+00   0.3053753396E+00
   0.1373322857E+00   0.2323307294E+00   0.3529146640E-04  -0.2994046399E-04   0.3176231976E-03  -0.2694641759E-03   0.3332265415E+00  -0.3493485817E-02   0.9891991672E-01   0.9889186526E-02   0.0000000000E+00   0.0000000000E+00   0.3045986123E-02  -0.1331374233E-02   0.1285594248E-03   0.0000000000E+00   0.0000000000E+00   0.0000000000E+00   0.2995022067E+00
   0.1385939612E+00   0.2155379941E+00   0.3788511910E-04  -0.2747788619E-04   0.3409660719E-03  -0.2473009757E-03   0.3298363198E+00  -0.8092577724E-02   0.9652312262E-01   0.1623581670E-01   0.0000000000E+00   0.0000000000E+00   0.3033071563E-02  -0.1360004104E-02   0.2110656171E-03   0.0000000000E+00   0.0000000000E+00   0.0000000000E+00   0.3008960714E+00
   0.0000000000E+00   0.9966807345E-01   0.0000000000E+00  -0.3319275520E-04   0.0000000000E+00  -0.2987347968E-03   0.9200432960E+00   0.8461549888E-01   0.3013976385E+00   0.1088485625E-01   0.0000000000E+00   0.0000000000E+00   0.8042393548E-02  -0.2818167815E-02   0.1415031312E-03   0.0000000000E+00   0.0000000000E+00   0.0000000000E+00   0.7429724795E+00
   0.1966350615E-01   0.9775653543E-01   0.1544737453E-04  -0.3219911729E-04   0.1390263708E-03  -0.2897920556E-03   0.8451357005E+00   0.8003100406E-01   0.2775500114E+00  -0.1268772386E+00   0.0000000000E+00   0.0000000000E+00   0.7378613958E-02  -0.2567747095E-02  -0.1649404102E-02   0.0000000000E+00   0.0000000000E+00   0.0000000000E+00   0.7154776247E+00
   0.1685612415E-01   0.1509304490E+00   0.5706535176E-05  -0.4062660207E-04   0.5135881659E-04  -0.3656394186E-03   0.4032295246E+00   0.6756942385E-01   0.1412396845E+00   0.1240848575E-01   0.0000000000E+00   0.0000000000E+00   0.3405867920E-02  -0.9577133887E-03   0.1613103147E-03   0.0000000000E+00   0.0000000000E+00   0.0000000000E+00   0.3075712415E+00
   0.0000000000E+00   0.1495880309E+00   0.0000000000E+00  -0.4119750748E-04   0.0000000000E+00  -0.3707775673E-03   0.4075458835E+00   0.7684847486E-01   0.1453183075E+00   0.9492476109E-02   0.0000000000E+00   0.0000000000E+00   0.3408958488E-02  -0.8901078245E-03   0.1234021894E-03   0.0000000000E+00   0.0000000000E+00   0.0000000000E+00   0.3025577239E+00
   0.5124571479E-01   0.1383301612E+00   0.1914046851E-04  -0.3394788473E-04   0.1722642166E-03  -0.3055309625E-03   0.4157646160E+00   0.2551022258E-01   0.1323824516E+00   0.2166110657E-01   0.0000000000E+00   0.0000000000E+00   0.3683968137E-02  -0.1389338977E-02   0.2815943854E-03   0.0000000000E+00   0.0000000000E+00   0.0000000000E+00   0.3510022892E+00
   0.4921195232E-01   0.1536965146E+00   0.1650485225E-04  -0.3634614103E-04   0.1485436703E-03  -0.3271152693E-03   0.3868164789E+00   0.2941385415E-01   0.1248690999E+00   0.3373937192E-01   0.0000000000E+00   0.0000000000E+00   0.3405315927E-02  -0.1240918195E-02   0.4386118349E-03   0.0000000000E+00   0.0000000000E+00   0.0000000000E+00   0.3259753629E+00
   0.3328749176E-01   0.1523476561E+00   0.1120270566E-04  -0.3887989452E-04   0.1008243510E-03  -0.3499190506E-03   0.3971981640E+00   0.5134964794E-01   0.1345643436E+00   0.2584885898E-01   0.0000000000E+00   0.0000000000E+00   0.3414239666E-02  -0.1081791043E-02   0.3360351667E-03   0.0000000000E+00   0.0000000000E+00   0.0000000000E+00   0.3176220273E+00
   0.3450434945E-01   0.1353722051E+00   0.1328728485E-04  -0.3675829144E-04   0.1195855637E-03  -0.3308246229E-03   0.4386549554E+00   0.5409347841E-01   0.1478245302E+00   0.2558034874E-01   0.0000000000E+00   0.0000000000E+00   0.3780795529E-02  -0.1218503673E-02   0.3325445336E-03   0.0000000000E+00   0.0000000000E+00   0.0000000000E+00   0.3438667240E+00
   0.1673612789E-01   0.1673816510E+00   0.5146158594E-05  -0.4214870292E-04   0.4631542735E-04  -0.3793383263E-03   0.3651035012E+00   0.5682363447E-01   0.1265781407E+00   0.1512852879E-01   0.0000000000E+00   0.0000000000E+00   0.3100829687E-02  -0.9068085812E-03   0.1966708743E-03   0.0000000000E+00   0.0000000000E+00   0.0000000000E+00   0.2814914288E+00
   0.0000000000E+00   0.1662402730E+00   0.0000000000E+00  -0.4263990217E-04   0.0000000000E+00  -0.3837591195E-03   0.3653552416E+00   0.6162661022E-01   0.1280945555E+00   0.8092439676E-02   0.0000000000E+00   0.0000000000E+00   0.3084388918E-02  -0.8640832891E-03   0.1052017158E-03   0.0000000000E+00   0.0000000000E+00   0.0000000000E+00   0.2766338727E+00
   0.1714041596E-01   0.1836891871E+00   0.4895355700E-05  -0.4363409146E-04   0.4405820130E-04  -0.3927068232E-03   0.3335385101E+00   0.3992864780E-01   0.1120401474E+00   0.1483141680E-01   0.0000000000E+00   0.0000000000E+00   0.2879478715E-02  -0.9374494942E-03   0.1928084184E-03   0.0000000000E+00   0.0000000000E+00   0.0000000000E+00   0.2667093198E+00
   0.3349371861E-01   0.1682016330E+00   0.1032078073E-04  -0.4052590440E-04   0.9288702659E-04  -0.3647331396E-03   0.3622888404E+00   0.4137693232E-01   0.1210997318E+00   0.3220728196E-01   0.0000000000E+00   0.0000000000E+00   0.3135458411E-02  -0.1036396393E-02   0.4186946655E-03   0.0000000000E+00   0.0000000000E+00   0.0000000000E+00   0.2940202058E+00
   0.3461274517E-01   0.1838591485E+00   0.9944307253E-05  -0.4200844510E-04   0.8949876528E-04  -0.3780760059E-03   0.3345797518E+00   0.3026236383E-01   0.1094526347E+00   0.3110386639E-01   0.0000000000E+00   0.0000000000E+00   0.2926652522E-02  -0.1029473521E-02   0.4043502630E-03   0.0000000000E+00   0.0000000000E+00   0.0000000000E+00   0.2787217280E+00
   0.1947946868E-01   0.2495037582E+00   0.3502358286E-05  -0.4962417774E-04   0.3152122457E-04  -0.4466175997E-03   0.1993377901E+00  -0.6024246596E-02   0.5799406304E-01   0.1103245963E-02   0.0000000000E+00   0.0000000000E+00   0.1837468451E-02  -0.8322380253E-03   0.1434219752E-04   0.0000000000E+00   0.0000000000E+00   0.0000000000E+00   0.1822976667E+00
   0.3856376675E-01   0.2324789923E+00   0.8595105215E-05  -0.4652877048E-04   0.7735594694E-04  -0.4187589344E-03   0.2575189938E+00   0.5340369266E-02   0.7885780891E-01   0.1462323617E-01   0.0000000000E+00   0.0000000000E+00   0.2322595403E-02  -0.9557267153E-03   0.1901020703E-03   0.0000000000E+00   0.0000000000E+00   0.0000000000E+00   0.2261999558E+00
   0.3896104142E-01   0.2495195778E+00   0.7215112174E-05  -0.4804222306E-04   0.6493600957E-04  -0.4323800075E-03   0.2169529577E+00  -0.5189290087E-02   0.6352910028E-01   0.5558372378E-02   0.0000000000E+00   0.0000000000E+00   0.1994510146E-02  -0.8933390748E-03   0.7225884092E-04   0.0000000000E+00   0.0000000000E+00   0.0000000000E+00   0.1971649547E+00
   0.3301389790E+00   0.0000000000E+00   0.9722979590E-04   0.0000000000E+00   0.8750681631E-03   0.0000000000E+00   0.1660561644E+00   0.4787377866E-01   0.6417898293E-01  -0.4817115264E-03   0.0000000000E+00   0.0000000000E+00   0.1324403360E-02  -0.2119676555E-03  -0.6262249844E-05   0.0000000000E+00   0.0000000000E+00   0.0000000000E+00   0.1109291090E+00
   0.3509999940E+00   0.0000000000E+00   0.1000000000E-03   0.0000000000E+00   0.9000000000E-03   0.0000000000E+00   0.1670275950E+00   0.4815940786E-01   0.6455610087E-01  -0.2967580405E-05   0.0000000000E+00   0.0000000000E+00   0.1332129424E-02  -0.2131570091E-03  -0.3857854526E-07   0.0000000000E+00   0.0000000000E+00   0.0000000000E+00   0.1115772092E+00
   0.3509999940E+00   0.1922657801E-01   0.1000000000E-03  -0.4191893133E-06   0.9000000000E-03  -0.3772703819E-05   0.1688414150E+00   0.4733701577E-01   0.6485352923E-01  -0.2787923802E-04   0.0000000000E+00   0.0000000000E+00   0.1351842515E-02  -0.2277146751E-03  -0.3624300943E-06   0.0000000000E+00   0.0000000000E+00   0.0000000000E+00   0.1137560012E+00
   0.3307354793E+00   0.1871048859E-01   0.9726922721E-04  -0.4056707959E-06   0.8754230449E-03  -0.3651037163E-05   0.1679840357E+00   0.4711331213E-01   0.6452920436E-01  -0.1548514812E-02   0.0000000000E+00   0.0000000000E+00   0.1344912808E-02  -0.2264065989E-03  -0.2013069256E-04   0.0000000000E+00   0.0000000000E+00   0.0000000000E+00   0.1132007077E+00
   0.3509999940E+00   0.3845259815E-01   0.1000000000E-03  -0.8941745386E-06   0.9000000000E-03  -0.8047570847E-05   0.1743577934E+00   0.4495487611E-01   0.6579380086E-01  -0.3317178457E-04   0.0000000000E+00   0.0000000000E+00   0.1411331903E-02  -0.2709060217E-03  -0.4312331994E-06   0.0000000000E+00   0.0000000000E+00   0.0000000000E+00   0.1203238207E+00
   0.3311779449E+00   0.3767431962E-01   0.9721169021E-04  -0.8712883692E-06   0.8749052119E-03  -0.7841595322E-05   0.1736874746E+00   0.4485747633E-01   0.6556348527E-01  -0.3205132933E-02   0.0000000000E+00   0.0000000000E+00   0.1405611861E-02  -0.2691781163E-03  -0.4166672813E-04   0.0000000000E+00   0.0000000000E+00   0.0000000000E+00   0.1199298797E+00
   0.3315292636E+00   0.5674825992E-01   0.9707545881E-04  -0.1446518214E-05   0.8736791293E-03  -0.1301866392E-04   0.1828437306E+00   0.4123971231E-01   0.6722503287E-01  -0.4332734285E-02   0.0000000000E+00   0.0000000000E+00   0.1503043070E-02  -0.3378091672E-03  -0.5632554571E-04   0.0000000000E+00   0.0000000000E+00   0.0000000000E+00   0.1307458687E+00
   0.3318064179E+00   0.7593487164E-01   0.9687509014E-04  -0.2177845691E-05   0.8718758113E-03  -0.1960061122E-04   0.1949316733E+00   0.3657102076E-01   0.6945080822E-01  -0.5146240001E-02   0.0000000000E+00   0.0000000000E+00   0.1631251246E-02  -0.4274372369E-03  -0.6690112002E-04   0.0000000000E+00   0.0000000000E+00   0.0000000000E+00   0.1449785166E+00
   0.3127495225E+00   0.7512390258E-01   0.9379855219E-04  -0.2161022229E-05   0.8441869697E-03  -0.1944920006E-04   0.1931876127E+00   0.3526370756E-01   0.6853539608E-01  -0.1024671442E-01   0.0000000000E+00   0.0000000000E+00   0.1620478816E-02  -0.4325319507E-03  -0.1332072874E-03   0.0000000000E+00   0.0000000000E+00   0.0000000000E+00   0.1452413181E+00
   0.3120867524E+00   0.5603892952E-01   0.9418344150E-04  -0.1426937509E-05   0.8476509735E-03  -0.1284243758E-04   0.1806565103E+00   0.4004045767E-01   0.6620909040E-01  -0.8680340490E-02   0.0000000000E+00   0.0000000000E+00   0.1487816459E-02  -0.3401922256E-03  -0.1128444264E-03   0.0000000000E+00   0.0000000000E+00   0.0000000000E+00   0.1303657865E+00
   0.3319484857E+00   0.9522498064E-01   0.9661286549E-04  -0.3102015565E-05   0.8695157894E-03  -0.2791814008E-04   0.2092763553E+00   0.3115896216E-01   0.7213059524E-01  -0.5572454889E-02   0.0000000000E+00   0.0000000000E+00   0.1782894881E-02  -0.5326312300E-03  -0.7244191356E-04   0.0000000000E+00   0.0000000000E+00   0.0000000000E+00   0.1618168001E+00
   0.3131215436E+00   0.9436967689E-01   0.9328885909E-04  -0.3094511305E-05   0.8395997318E-03  -0.2785060174E-04   0.2080144648E+00   0.2982520350E-01   0.7135190049E-01  -0.1102136604E-01   0.0000000000E+00   0.0000000000E+00   0.1776613336E-02  -0.5398470609E-03  -0.1432777585E-03   0.0000000000E+00   0.0000000000E+00   0.0000000000E+00   0.1625658279E+00
   0.3319317258E+00   0.1146670807E+00   0.9629288459E-04  -0.4248333869E-05   0.8666359613E-03  -0.3823500482E-04   0.2252719346E+00   0.2544527517E-01   0.7521516294E-01  -0.5688347500E-02   0.0000000000E+00   0.0000000000E+00   0.1950738032E-02  -0.6470085410E-03  -0.7394851750E-04   0.0000000000E+00   0.0000000000E+00   0.0000000000E+00   0.1803980633E+00
   0.3317869689E+00   0.1342187419E+00   0.9592859401E-04  -0.5629205086E-05   0.8633573461E-03  -0.5066284577E-04   0.2421708714E+00   0.1979463544E-01   0.7858965206E-01  -0.5467339629E-02   0.0000000000E+00   0.0000000000E+00   0.2126555852E-02  -0.7643352161E-03  -0.7107541518E-04   0.0000000000E+00   0.0000000000E+00   0.0000000000E+00   0.1997679173E+00
   0.3127167638E+00   0.1337367906E+00   0.9189067596E-04  -0.5689135348E-05   0.8270160837E-03  -0.5120221813E-04   0.2421595597E+00   0.1837910101E-01   0.7816159821E-01  -0.1072105023E-01   0.0000000000E+00   0.0000000000E+00   0.2131973499E-02  -0.7771724636E-03  -0.1393736530E-03   0.0000000000E+00   0.0000000000E+00   0.0000000000E+00   0.2015148712E+00
   0.3131125075E+00   0.1138929021E+00   0.9265045444E-04  -0.4262086569E-05   0.8338540899E-03  -0.3835877912E-04   0.2245418785E+00   0.2397852523E-01   0.7455612113E-01  -0.1114686233E-01   0.0000000000E+00   0.0000000000E+00   0.1949814846E-02  -0.6575087467E-03  -0.1449092103E-03   0.0000000000E+00   0.0000000000E+00   0.0000000000E+00   0.1816600029E+00
   0.2899144249E+00   0.1826028800E-01   0.9188609178E-04  -0.3884599257E-06   0.8269748260E-03  -0.3496139331E-05   0.1604676218E+00   0.4421077418E-01   0.6140351878E-01  -0.4813613510E-02   0.0000000000E+00   0.0000000000E+00   0.1287833339E-02  -0.2235056799E-03  -0.6257697563E-04   0.0000000000E+00   0.0000000000E+00   0.0000000000E+00   0.1090257609E+00
   0.2884181777E+00   0.0000000000E+00   0.9181836775E-04   0.0000000000E+00   0.8263653097E-03   0.0000000000E+00   0.1578914507E+00   0.4489670468E-01   0.6083644661E-01  -0.1515709331E-02   0.0000000000E+00   0.0000000000E+00   0.1261715053E-02  -0.2072166450E-03  -0.1970422130E-04   0.0000000000E+00   0.0000000000E+00   0.0000000000E+00   0.1058971165E+00
   0.3092782524E+00   0.0000000000E+00   0.9449153983E-04   0.0000000000E+00   0.8504238585E-03   0.0000000000E+00   0.1630577085E+00   0.4679875053E-01   0.6295693770E-01  -0.9745239983E-03   0.0000000000E+00   0.0000000000E+00   0.1301310020E-02  -0.2100564332E-03  -0.1266881198E-04   0.0000000000E+00   0.0000000000E+00   0.0000000000E+00   0.1090683933E+00
   0.3103331248E+00   0.1840229509E-01   0.9455008192E-04  -0.3958208889E-06   0.8509507373E-03  -0.3562388000E-05   0.1651666268E+00   0.4606115108E-01   0.6336833335E-01  -0.3117607007E-02   0.0000000000E+00   0.0000000000E+00   0.1323377814E-02  -0.2249933695E-03  -0.4052889110E-04   0.0000000000E+00   0.0000000000E+00   0.0000000000E+00   0.1115998378E+00
   0.2128667108E+00   0.1635747853E+00   0.6594978410E-04  -0.1158267187E-04   0.5935480569E-03  -0.1042440469E-03   0.2880850825E+00  -0.1001295250E-01   0.8342163899E-01  -0.1943821565E-01   0.0000000000E+00   0.0000000000E+00   0.2660624765E-02  -0.1214649689E-02  -0.2526968034E-03   0.0000000000E+00   0.0000000000E+00   0.0000000000E+00   0.2661972619E+00
   0.2169988535E+00   0.1466757304E+00   0.6903645009E-04  -0.9352462573E-05   0.6213280508E-03  -0.8417216316E-04   0.2692316428E+00  -0.1047483728E-01   0.7762704167E-01  -0.2639159159E-01   0.0000000000E+00   0.0000000000E+00   0.2490859815E-02  -0.1145324426E-02  -0.3430906907E-03   0.0000000000E+00   0.0000000000E+00   0.0000000000E+00   0.2518061040E+00
   0.2316815357E+00   0.1466495619E+00   0.7265606977E-04  -0.8613612827E-05   0.6539046279E-03  -0.7752251545E-04   0.2667426205E+00  -0.3606759799E-02   0.7894075821E-01  -0.2487323553E-01   0.0000000000E+00   0.0000000000E+00   0.2441424210E-02  -0.1073117734E-02  -0.3233520620E-03   0.0000000000E+00   0.0000000000E+00   0.0000000000E+00   0.2437889055E+00
   0.2328614170E+00   0.1630015989E+00   0.7123079675E-04  -0.1035760553E-04   0.6410771707E-03  -0.9321844977E-04   0.2818882497E+00  -0.3234666830E-02   0.8359607485E-01  -0.1983592731E-01   0.0000000000E+00   0.0000000000E+00   0.2577798273E-02  -0.1128799642E-02  -0.2578670551E-03   0.0000000000E+00   0.0000000000E+00   0.0000000000E+00   0.2554456435E+00
   0.2286109792E+00   0.1845326954E-01   0.8455232205E-04  -0.3822755862E-06   0.7609708985E-03  -0.3440480276E-05   0.1319535678E+00   0.3173527976E-01   0.4910665427E-01  -0.1193001006E-01   0.0000000000E+00   0.0000000000E+00   0.1077009876E-02  -0.2258278687E-03  -0.1550901307E-03   0.0000000000E+00   0.0000000000E+00   0.0000000000E+00   0.9525708017E-01
   0.2314579753E+00   0.3703948497E-01   0.8396922866E-04  -0.8679830320E-06   0.7557230579E-03  -0.7811847288E-05   0.1451581165E+00   0.2851278593E-01   0.5210127074E-01  -0.2393065801E-01   0.0000000000E+00   0.0000000000E+00   0.1209738995E-02  -0.3066503025E-03  -0.3110985541E-03   0.0000000000E+00   0.0000000000E+00   0.0000000000E+00   0.1143000013E+00
   0.1841423800E+00   0.0000000000E+00   0.8090429524E-04   0.0000000000E+00   0.7281386571E-03   0.0000000000E+00   0.8483440606E-01   0.1165147727E-01   0.2894576500E-01  -0.6875746756E-02   0.0000000000E+00   0.0000000000E+00   0.7265523338E-03  -0.2248257405E-03  -0.8938470782E-04   0.0000000000E+00   0.0000000000E+00   0.0000000000E+00   0.6603713912E-01
   0.2049925531E+00   0.0000000000E+00   0.8258871421E-04   0.0000000000E+00   0.7432984279E-03   0.0000000000E+00   0.1080059069E+00   0.2440842576E-01   0.3972429980E-01  -0.5156273526E-02   0.0000000000E+00   0.0000000000E+00   0.8876608923E-03  -0.1991063625E-03  -0.6703155583E-04   0.0000000000E+00   0.0000000000E+00   0.0000000000E+00   0.7678979459E-01
   0.1424539913E+00   0.0000000000E+00   0.7873252785E-04   0.0000000000E+00   0.7085927506E-03   0.0000000000E+00   0.1680302856E-01  -0.4632442289E-01  -0.8856418300E-02  -0.1620278251E-01   0.0000000000E+00   0.0000000000E+00   0.3335728091E-03  -0.4870840597E-03  -0.2106361726E-03   0.0000000000E+00   0.0000000000E+00   0.0000000000E+00   0.6008675138E-01
   0.1464462077E+00   0.2097228273E-01   0.7765236580E-04  -0.9278672853E-06   0.6988712922E-03  -0.8350805567E-05   0.3803981110E-01  -0.3699489018E-01   0.3134762763E-03  -0.2814273473E-01   0.0000000000E+00   0.0000000000E+00   0.4904423527E-03  -0.4850087639E-03  -0.3658555514E-03   0.0000000000E+00   0.0000000000E+00   0.0000000000E+00   0.8300841732E-01
   0.3509999940E+00   0.2498214475E+00   0.1000000000E-03  -0.1785524699E-04   0.9000000000E-03  -0.1606972229E-03   0.3296593746E+00   0.1600560243E-02   0.9937798046E-01   0.8548511598E-03   0.0000000000E+00   0.0000000000E+00   0.2993658124E-02  -0.1271106463E-02   0.1111306508E-04   0.0000000000E+00   0.0000000000E+00   0.0000000000E+00   0.2917335795E+00
   0.3314972977E+00   0.2498206860E+00   0.9417396747E-04  -0.1793140322E-04   0.8475657073E-03  -0.1613826290E-03   0.3305959018E+00   0.1620768615E-02   0.9966500114E-01  -0.6571546049E-03   0.0000000000E+00   0.0000000000E+00   0.3002101709E-02  -0.1274575023E-02  -0.8543009864E-05   0.0000000000E+00   0.0000000000E+00   0.0000000000E+00   0.2925495148E+00
   0.3317328191E+00   0.2308914102E+00   0.9442660748E-04  -0.1553558417E-04   0.8498394673E-03  -0.1398202576E-03   0.3194751900E+00   0.5980911206E-03   0.9602198432E-01  -0.1629457208E-02   0.0000000000E+00   0.0000000000E+00   0.2904891673E-02  -0.1240510612E-02  -0.2118294371E-04   0.0000000000E+00   0.0000000000E+00   0.0000000000E+00   0.2834923770E+00
   0.3509999940E+00   0.2306149020E+00   0.1000000000E-03  -0.1543299741E-04   0.9000000000E-03  -0.1388969767E-03   0.3188476538E+00   0.7234351931E-03   0.9587132668E-01   0.7716797897E-03   0.0000000000E+00   0.0000000000E+00   0.2898692252E-02  -0.1236922589E-02   0.1003183727E-04   0.0000000000E+00   0.0000000000E+00   0.0000000000E+00   0.2828230188E+00
   0.2737937896E+00   0.2314977991E+00   0.7742075583E-04  -0.1677229499E-04   0.6967868025E-03  -0.1509506549E-03   0.3285697042E+00  -0.1776466977E-03   0.9851761726E-01  -0.4462593522E-02   0.0000000000E+00   0.0000000000E+00   0.2990677131E-02  -0.1283038431E-02  -0.5801371578E-04   0.0000000000E+00   0.0000000000E+00   0.0000000000E+00   0.2922941154E+00
   0.2930940074E+00   0.2313278630E+00   0.8314533876E-04  -0.1618249943E-04   0.7483080488E-03  -0.1456424949E-03   0.3246319940E+00   0.1792782098E-03   0.9744338168E-01  -0.3776791174E-02   0.0000000000E+00   0.0000000000E+00   0.2953451961E-02  -0.1264433345E-02  -0.4909828527E-04   0.0000000000E+00   0.0000000000E+00   0.0000000000E+00   0.2884778342E+00
   0.2924906204E+00   0.2498141862E+00   0.8239634191E-04  -0.1858138456E-04   0.7415670772E-03  -0.1672324610E-03   0.3375945847E+00   0.1867248264E-02   0.1018385499E+00  -0.1107512890E-02   0.0000000000E+00   0.0000000000E+00   0.3064828453E-02  -0.1299626921E-02  -0.1439766757E-04   0.0000000000E+00   0.0000000000E+00   0.0000000000E+00   0.2985700872E+00
   0.2729861309E+00   0.2498080212E+00   0.7639098608E-04  -0.1919788099E-04   0.6875188747E-03  -0.1727809289E-03   0.3431187444E+00   0.2084823824E-02   0.1035610705E+00  -0.1289409505E-02   0.0000000000E+00   0.0000000000E+00   0.3114249761E-02  -0.1319191206E-02  -0.1676232356E-04   0.0000000000E+00   0.0000000000E+00   0.0000000000E+00   0.3033069947E+00
   0.3509999940E+00   0.1729871243E+00   0.1000000000E-03  -0.8980370861E-05   0.9000000000E-03  -0.8082333775E-04   0.2757579289E+00   0.1037872451E-01   0.8584099602E-01   0.5718879545E-03   0.0000000000E+00   0.0000000000E+00   0.2468920127E-02  -0.9810095296E-03   0.7434543409E-05   0.0000000000E+00   0.0000000000E+00   0.0000000000E+00   0.2368294545E+00
   0.3317306213E+00   0.1732237727E+00   0.9524993189E-04  -0.9054530451E-05   0.8572493870E-03  -0.8149077406E-04   0.2760681583E+00   0.9937692141E-02   0.8580175513E-01  -0.4444473105E-02   0.0000000000E+00   0.0000000000E+00   0.2473463241E-02  -0.9862328188E-03  -0.5777815036E-04   0.0000000000E+00   0.0000000000E+00   0.0000000000E+00   0.2375713478E+00
   0.3317254528E+00   0.1537749712E+00   0.9557648399E-04  -0.7238081602E-05   0.8601883559E-03  -0.6514273442E-04   0.2593034719E+00   0.1459546243E-01   0.8216968029E-01  -0.5084270832E-02   0.0000000000E+00   0.0000000000E+00   0.2302739290E-02  -0.8784648321E-03  -0.6609552082E-04   0.0000000000E+00   0.0000000000E+00   0.0000000000E+00   0.2190365849E+00
   0.3509999940E+00   0.1537742064E+00   0.1000000000E-03  -0.7195357515E-05   0.9000000000E-03  -0.6475821764E-04   0.2590627853E+00   0.1497275663E-01   0.8221066258E-01   0.5033988593E-03   0.0000000000E+00   0.0000000000E+00   0.2299077595E-02  -0.8740927774E-03   0.6544185172E-05   0.0000000000E+00   0.0000000000E+00   0.0000000000E+00   0.2183544853E+00
   0.3509999940E+00   0.1345591646E+00   0.1000000000E-03  -0.5622636430E-05   0.9000000000E-03  -0.5060372787E-04   0.2420096503E+00   0.2009140758E-01   0.7863031736E-01   0.3658365568E-03   0.0000000000E+00   0.0000000000E+00   0.2123931328E-02  -0.7610058272E-03   0.4755875238E-05   0.0000000000E+00   0.0000000000E+00   0.0000000000E+00   0.1991783442E+00
   0.3509999940E+00   0.1153419178E+00   0.1000000000E-03  -0.4269824529E-05   0.9000000000E-03  -0.3842842076E-04   0.2252091718E+00   0.2554800329E-01   0.7522715254E-01   0.2664055326E-03   0.0000000000E+00   0.0000000000E+00   0.1949766251E-02  -0.6458289402E-03   0.3463271924E-05   0.0000000000E+00   0.0000000000E+00   0.0000000000E+00   0.1799983056E+00
   0.3509999940E+00   0.9612247644E-01   0.1000000000E-03  -0.3137145836E-05   0.9000000000E-03  -0.2823431252E-04   0.2093581310E+00   0.3113961403E-01   0.7214932352E-01   0.1473848503E-03   0.0000000000E+00   0.0000000000E+00   0.1783714498E-02  -0.5331262233E-03   0.1916003053E-05   0.0000000000E+00   0.0000000000E+00   0.0000000000E+00   0.1616193495E+00
   0.3509999940E+00   0.7690094196E-01   0.1000000000E-03  -0.2213783975E-05   0.9000000000E-03  -0.1992405578E-04   0.1951577946E+00   0.3649140440E-01   0.6949475970E-01   0.5818962355E-04   0.0000000000E+00   0.0000000000E+00   0.1633619454E-02  -0.4290436189E-03   0.7564651062E-06   0.0000000000E+00   0.0000000000E+00   0.0000000000E+00   0.1449663795E+00
   0.3509999940E+00   0.5767753285E-01   0.1000000000E-03  -0.1477515094E-05   0.9000000000E-03  -0.1329763585E-04   0.1832875248E+00   0.4122742566E-01   0.6735448515E-01  -0.4365336815E-05   0.0000000000E+00   0.0000000000E+00   0.1507129516E-02  -0.3396517734E-03  -0.5674937859E-07   0.0000000000E+00   0.0000000000E+00   0.0000000000E+00   0.1309311847E+00
   0.0000000000E+00   0.2494983125E+00   0.0000000000E+00  -0.5016874555E-04   0.0000000000E+00  -0.4515187099E-03   0.1930473464E+00  -0.6320069060E-02   0.5601818320E-01   0.6309913753E-02   0.0000000000E+00   0.0000000000E+00   0.1781379121E-02  -0.8103972793E-03   0.8202887879E-04   0.0000000000E+00   0.0000000000E+00   0.0000000000E+00   0.1769851222E+00
   0.3768084816E-01   0.2157691079E+00   0.9380895507E-05  -0.4495721023E-04   0.8442805956E-04  -0.4046148921E-03   0.2852787067E+00   0.9759973210E-02   0.8851160399E-01   0.2510251108E-01   0.0000000000E+00   0.0000000000E+00   0.2557972336E-02  -0.1023771200E-02   0.3263326441E-03   0.0000000000E+00   0.0000000000E+00   0.0000000000E+00   0.2494757564E+00
   0.3629089358E-01   0.1996701698E+00   0.9758608009E-05  -0.4345291551E-04   0.8782747208E-04  -0.3910762396E-03   0.3101329990E+00   0.1930564429E-01   0.9883159300E-01   0.2926906927E-01   0.0000000000E+00   0.0000000000E+00   0.2746918278E-02  -0.1033837333E-02   0.3804979006E-03   0.0000000000E+00   0.0000000000E+00   0.0000000000E+00   0.2650924202E+00
   0.5573557207E-01   0.1982035741E+00   0.1526500664E-04  -0.4054498539E-04   0.1373850598E-03  -0.3649048685E-03   0.3191382620E+00   0.1120433534E-01   0.9910277921E-01   0.3871372645E-01   0.0000000000E+00   0.0000000000E+00   0.2860461277E-02  -0.1142679770E-02   0.5032784438E-03   0.0000000000E+00   0.0000000000E+00   0.0000000000E+00   0.2829291990E+00
   0.5765353536E-01   0.2145045338E+00   0.1467952611E-04  -0.4208152110E-04   0.1321157350E-03  -0.3787336899E-03   0.2979481350E+00   0.4743562590E-02   0.9080750929E-01   0.3244309284E-01   0.0000000000E+00   0.0000000000E+00   0.2692828135E-02  -0.1118831307E-02   0.4217602070E-03   0.0000000000E+00   0.0000000000E+00   0.0000000000E+00   0.2669495651E+00
   0.1785525135E-01   0.1999639474E+00   0.4758325043E-05  -0.4514255757E-04   0.4282492539E-04  -0.4062830181E-03   0.3065346558E+00   0.2602109923E-01   0.9976672649E-01   0.1373052065E-01   0.0000000000E+00   0.0000000000E+00   0.2687983080E-02  -0.9586931545E-03   0.1784967685E-03   0.0000000000E+00   0.0000000000E+00   0.0000000000E+00   0.2533673496E+00
   0.5833189879E-01   0.2318795765E+00   0.1337708885E-04  -0.4385115247E-04   0.1203937997E-03  -0.3946603723E-03   0.2734316491E+00   0.3326441128E-02   0.8302742707E-01   0.1875716024E-01   0.0000000000E+00   0.0000000000E+00   0.2475254887E-02  -0.1036112817E-02   0.2438430832E-03   0.0000000000E+00   0.0000000000E+00   0.0000000000E+00   0.2428115390E+00
   0.1559416293E+00   0.2497062572E+00   0.3860682891E-04  -0.2937427694E-04   0.3474614602E-03  -0.2643684925E-03   0.3562089802E+00   0.1948985618E-02   0.1074473898E+00   0.2212058351E-02   0.0000000000E+00   0.0000000000E+00   0.3233900676E-02  -0.1371479254E-02   0.2875675856E-04   0.0000000000E+00   0.0000000000E+00   0.0000000000E+00   0.3150678817E+00
   0.1364352550E+00   0.2496760360E+00   0.3241450046E-04  -0.3239640165E-04   0.2917305042E-03  -0.2915676148E-03   0.3438640255E+00   0.1071705721E-02   0.1034807194E+00   0.3666376787E-02   0.0000000000E+00   0.0000000000E+00   0.3124982980E-02  -0.1331317178E-02   0.4766289824E-04   0.0000000000E+00   0.0000000000E+00   0.0000000000E+00   0.3047721406E+00
   0.1754495494E+00   0.2497327128E+00   0.4495523747E-04  -0.2672871854E-04   0.4045971372E-03  -0.2405584668E-03   0.3622627270E+00   0.2431645771E-02   0.1094083118E+00   0.9416746577E-03   0.0000000000E+00   0.0000000000E+00   0.3287107397E-02  -0.1390696659E-02   0.1224177055E-04   0.0000000000E+00   0.0000000000E+00   0.0000000000E+00   0.3200721818E+00
   0.1763981030E+00   0.2322541999E+00   0.4739660308E-04  -0.2419130940E-04   0.4265694278E-03  -0.2177217846E-03   0.3435112734E+00  -0.3151426867E-02   0.1021079540E+00   0.1776663643E-02   0.0000000000E+00   0.0000000000E+00   0.3138243153E-02  -0.1368371951E-02   0.2309662736E-04   0.0000000000E+00   0.0000000000E+00   0.0000000000E+00   0.3078789182E+00
   0.2258457872E+00   0.0000000000E+00   0.8457931641E-04   0.0000000000E+00   0.7612138477E-03   0.0000000000E+00   0.1259058566E+00   0.3219557713E-01   0.4743043013E-01  -0.3882182347E-02   0.0000000000E+00   0.0000000000E+00   0.1020180544E-02  -0.1980530889E-03  -0.5046837052E-04   0.0000000000E+00   0.0000000000E+00   0.0000000000E+00   0.8691528961E-01
   0.2467015159E+00   0.0000000000E+00   0.8681788694E-04   0.0000000000E+00   0.7813609825E-03   0.0000000000E+00   0.1398420647E+00   0.3796202200E-01   0.5334122600E-01  -0.2914876493E-02   0.0000000000E+00   0.0000000000E+00   0.1124510903E-02  -0.1999296520E-03  -0.3789339441E-04   0.0000000000E+00   0.0000000000E+00   0.0000000000E+00   0.9501510571E-01
   0.2491149178E+00   0.1833861916E-01   0.8685758056E-04  -0.3808744516E-06   0.7817182250E-03  -0.3427870064E-05   0.1442589066E+00   0.3733785746E-01   0.5447902923E-01  -0.9073525139E-02   0.0000000000E+00   0.0000000000E+00   0.1167138406E-02  -0.2228352330E-03  -0.1179558268E-03   0.0000000000E+00   0.0000000000E+00   0.0000000000E+00   0.1008084055E+00
   0.1971229439E+00   0.1993400147E+00   0.5743778943E-04  -0.1745682971E-04   0.5169401049E-03  -0.1571114674E-03   0.3191383283E+00  -0.8435313853E-02   0.9321090432E-01  -0.5814784140E-02   0.0000000000E+00   0.0000000000E+00   0.2937056511E-02  -0.1321400836E-02  -0.7559219382E-04   0.0000000000E+00   0.0000000000E+00   0.0000000000E+00   0.2905916771E+00
   0.2161899840E+00   0.1982355391E+00   0.6308590182E-04  -0.1567178774E-04   0.5677731164E-03  -0.1410460896E-03   0.3141530536E+00  -0.5067917063E-02   0.9272554097E-01  -0.9691611806E-02   0.0000000000E+00   0.0000000000E+00   0.2878557664E-02  -0.1271314954E-02  -0.1259909535E-03   0.0000000000E+00   0.0000000000E+00   0.0000000000E+00   0.2837773584E+00
   0.2161563299E+00   0.2149597873E+00   0.6142818595E-04  -0.1782606700E-04   0.5528536735E-03  -0.1604346030E-03   0.3271414138E+00  -0.2652552856E-02   0.9734665827E-01  -0.6478731808E-02   0.0000000000E+00   0.0000000000E+00   0.2987331821E-02  -0.1299989745E-02  -0.8422351351E-04   0.0000000000E+00   0.0000000000E+00   0.0000000000E+00   0.2931154312E+00
   0.1967784013E+00   0.2154250999E+00   0.5556932879E-04  -0.1962221448E-04   0.5001239591E-03  -0.1765999303E-03   0.3305654353E+00  -0.4370351101E-02   0.9785852525E-01  -0.2913852236E-02   0.0000000000E+00   0.0000000000E+00   0.3025189830E-02  -0.1328975393E-02  -0.3788007907E-04   0.0000000000E+00   0.0000000000E+00   0.0000000000E+00   0.2973639363E+00
   0.1178127305E+00   0.2321037696E+00   0.2948565159E-04  -0.3332303605E-04   0.2653708643E-03  -0.2999073245E-03   0.3219419970E+00  -0.3176422870E-02   0.9562967224E-01   0.1451565161E-01   0.0000000000E+00   0.0000000000E+00   0.2942060222E-02  -0.1284479236E-02   0.1887034709E-03   0.0000000000E+00   0.0000000000E+00   0.0000000000E+00   0.2898482352E+00
   0.1192019327E+00   0.2149394874E+00   0.3213026755E-04  -0.3082185770E-04   0.2891724079E-03  -0.2773967193E-03   0.3251926057E+00  -0.7891124676E-02   0.9519044432E-01   0.2417853893E-01   0.0000000000E+00   0.0000000000E+00   0.2990028098E-02  -0.1340060397E-02   0.3143210061E-03   0.0000000000E+00   0.0000000000E+00   0.0000000000E+00   0.2981749224E+00
   0.2144663754E+00   0.2497734546E+00   0.5774914268E-04  -0.2265453888E-04   0.5197422841E-03  -0.2038908499E-03   0.3605160808E+00   0.2668734917E-02   0.1089554447E+00  -0.7582554655E-03   0.0000000000E+00   0.0000000000E+00   0.3270288269E-02  -0.1381727227E-02  -0.9857321051E-05   0.0000000000E+00   0.0000000000E+00   0.0000000000E+00   0.3183207390E+00
   0.1949580618E+00   0.2497550949E+00   0.5136137927E-04  -0.2449051154E-04   0.4622524134E-03  -0.2204146039E-03   0.3632599189E+00   0.2655653235E-02   0.1097746717E+00  -0.4870373506E-04   0.0000000000E+00   0.0000000000E+00   0.3295308215E-02  -0.1392547239E-02  -0.6331485557E-06   0.0000000000E+00   0.0000000000E+00   0.0000000000E+00   0.3207773074E+00
   0.1959704488E+00   0.2321994993E+00   0.5353118238E-04  -0.2195596547E-04   0.4817806414E-03  -0.1976036892E-03   0.3435963055E+00  -0.2592045627E-02   0.1023012779E+00  -0.1173502097E-02   0.0000000000E+00   0.0000000000E+00   0.3136835358E-02  -0.1363613206E-02  -0.1525552726E-04   0.0000000000E+00   0.0000000000E+00   0.0000000000E+00   0.3074962354E+00
   0.2155084844E+00   0.2320823198E+00   0.5963383937E-04  -0.2014061769E-04   0.5367045544E-03  -0.1812655592E-03   0.3412272078E+00  -0.1934558977E-02   0.1017877946E+00  -0.3212425105E-02   0.0000000000E+00   0.0000000000E+00   0.3112712371E-02  -0.1348390597E-02  -0.4176152636E-04   0.0000000000E+00   0.0000000000E+00   0.0000000000E+00   0.3049057751E+00
   0.2349909017E+00   0.2317667105E+00   0.6567157012E-04  -0.1868655179E-04   0.5910441311E-03  -0.1681789661E-03   0.3374336794E+00  -0.1282707013E-02   0.1008452917E+00  -0.4361784854E-02   0.0000000000E+00   0.0000000000E+00   0.3075649040E-02  -0.1327663984E-02  -0.5670320310E-04   0.0000000000E+00   0.0000000000E+00   0.0000000000E+00   0.3010552399E+00
   0.2544129455E+00   0.2316481831E+00   0.7159375233E-04  -0.1759168562E-04   0.6443437710E-03  -0.1583251706E-03   0.3329631076E+00  -0.6937069055E-03   0.9968082021E-01  -0.4731203760E-02   0.0000000000E+00   0.0000000000E+00   0.3032669736E-02  -0.1304868852E-02  -0.6150564888E-04   0.0000000000E+00   0.0000000000E+00   0.0000000000E+00   0.2966268919E+00
   0.2534806112E+00   0.2497994685E+00   0.7028262278E-04  -0.2005314519E-04   0.6325436050E-03  -0.1804783067E-03   0.3493167263E+00   0.2323176875E-02   0.1054919710E+00  -0.1324364040E-02   0.0000000000E+00   0.0000000000E+00   0.3169721820E-02  -0.1341194323E-02  -0.1721673251E-04   0.0000000000E+00   0.0000000000E+00   0.0000000000E+00   0.3086272656E+00
   0.2339739889E+00   0.2497880926E+00   0.6406549314E-04  -0.2119073790E-04   0.5765894383E-03  -0.1907166411E-03   0.3554423656E+00   0.2537313783E-02   0.1073939038E+00  -0.1167097324E-02   0.0000000000E+00   0.0000000000E+00   0.3224630003E-02  -0.1363135670E-02  -0.1517226521E-04   0.0000000000E+00   0.0000000000E+00   0.0000000000E+00   0.3139065335E+00
   0.3119942794E+00   0.2498183193E+00   0.8831574196E-04  -0.1816807218E-04   0.7948416777E-03  -0.1635126496E-03   0.3333119555E+00   0.1703707614E-02   0.1005046989E+00  -0.7344920392E-03   0.0000000000E+00   0.0000000000E+00   0.3026494336E-02  -0.1284412887E-02  -0.9548396510E-05   0.0000000000E+00   0.0000000000E+00   0.0000000000E+00   0.2948956699E+00
   0.3123905539E+00   0.2311144391E+00   0.8880379496E-04  -0.1577818986E-04   0.7992341546E-03  -0.1420037087E-03   0.3215414084E+00   0.4706640992E-03   0.9660362175E-01  -0.2644314234E-02   0.0000000000E+00   0.0000000000E+00   0.2924191226E-02  -0.1249728449E-02  -0.3437608504E-04   0.0000000000E+00   0.0000000000E+00   0.0000000000E+00   0.2854604260E+00
   0.5599065651E-01   0.8288991414E-01   0.4336328099E-04  -0.2570453598E-04   0.3902695289E-03  -0.2313408238E-03   0.4064704253E+00   0.1437671651E+00   0.1650712771E+00  -0.1951856138E+00   0.0000000000E+00   0.0000000000E+00   0.3138188927E-02  -0.2769534563E-03  -0.2537412979E-02   0.0000000000E+00   0.0000000000E+00   0.0000000000E+00   0.4059646493E+00
   0.7233858640E-01   0.9391957092E-01   0.4086622030E-04  -0.2215472786E-04   0.3677959827E-03  -0.1993925507E-03   0.3083698472E+00  -0.1701365549E-01   0.8740685753E-01  -0.8433253472E-01   0.0000000000E+00   0.0000000000E+00   0.2872518866E-02  -0.1357466669E-02  -0.1096322951E-02   0.0000000000E+00   0.0000000000E+00   0.0000000000E+00   0.3225472752E+00
   0.6230750483E-01   0.1067208436E+00   0.3193969263E-04  -0.2675643739E-04   0.2874572337E-03  -0.2408079365E-03   0.3776586916E+00  -0.3738889808E-02   0.1121759405E+00  -0.5174395386E-01   0.0000000000E+00   0.0000000000E+00   0.3451275764E-02  -0.1506892795E-02  -0.6726714002E-03   0.0000000000E+00   0.0000000000E+00   0.0000000000E+00   0.3460799232E+00
   0.3856234345E-01   0.9208597752E-01   0.2940008503E-04  -0.3019743840E-04   0.2646007652E-03  -0.2717769456E-03   0.5847727057E+00   0.1081712913E+00   0.2078831991E+00  -0.1475253420E+00   0.0000000000E+00   0.0000000000E+00   0.4899563586E-02  -0.1296254801E-02  -0.1917829446E-02   0.0000000000E+00   0.0000000000E+00   0.0000000000E+00   0.4954073280E+00
   0.0000000000E+00   0.1995434939E+00   0.0000000000E+00  -0.4565091088E-04   0.0000000000E+00  -0.4108581980E-03   0.3048706470E+00   0.2814185689E-01   0.9990375118E-01   0.6867246143E-02   0.0000000000E+00   0.0000000000E+00   0.2664569646E-02  -0.9329046257E-03   0.8927419987E-04   0.0000000000E+00   0.0000000000E+00   0.0000000000E+00   0.2487590175E+00
   0.0000000000E+00   0.1828922019E+00   0.0000000000E+00  -0.4411351065E-04   0.0000000000E+00  -0.3970215959E-03   0.3329703461E+00   0.4374501935E-01   0.1130146096E+00   0.7252652129E-02   0.0000000000E+00   0.0000000000E+00   0.2859424574E-02  -0.9005046738E-03   0.9428447768E-04   0.0000000000E+00   0.0000000000E+00   0.0000000000E+00   0.2615737066E+00
   0.3668221939E-01   0.1165282087E+00   0.1755814919E-04  -0.3392073119E-04   0.1580233427E-03  -0.3052865807E-03   0.5203357491E+00   0.6995799683E-01   0.1770881238E+00  -0.5311136957E-01   0.0000000000E+00   0.0000000000E+00   0.4462219129E-02  -0.1392691650E-02  -0.6904478044E-03   0.0000000000E+00   0.0000000000E+00   0.0000000000E+00   0.4233580987E+00
   0.2675591502E+00   0.0000000000E+00   0.8924692316E-04   0.0000000000E+00   0.8032223084E-03   0.0000000000E+00   0.1502722007E+00   0.4201607199E-01   0.5768648182E-01  -0.2160391138E-02   0.0000000000E+00   0.0000000000E+00   0.1203614346E-02  -0.2037153278E-03  -0.2808508479E-04   0.0000000000E+00   0.0000000000E+00   0.0000000000E+00   0.1012737913E+00
   0.2695190599E+00   0.1828766897E-01   0.8931149300E-04  -0.3841633150E-06   0.8038034370E-03  -0.3457469835E-05   0.1536091664E+00   0.4138464333E-01   0.5849814293E-01  -0.6761235361E-02   0.0000000000E+00   0.0000000000E+00   0.1236443306E-02  -0.2224754948E-03  -0.8789605969E-04   0.0000000000E+00   0.0000000000E+00   0.0000000000E+00   0.1054276931E+00
   0.2373415954E+00   0.7429192191E-01   0.8171924476E-04  -0.2427418756E-05   0.7354732028E-03  -0.2184676881E-04   0.1843161555E+00   0.1793382554E-01   0.6067499432E-01  -0.3404460708E-01   0.0000000000E+00   0.0000000000E+00   0.1607335096E-02  -0.5556351941E-03  -0.4425798921E-03   0.0000000000E+00   0.0000000000E+00   0.0000000000E+00   0.1607846275E+00
   0.2560641265E+00   0.7381516273E-01   0.8475575079E-04  -0.2272847038E-05   0.7628017571E-03  -0.2045562334E-04   0.1862761802E+00   0.2472605243E-01   0.6330066980E-01  -0.2723491963E-01   0.0000000000E+00   0.0000000000E+00   0.1598681636E-02  -0.5014700258E-03  -0.3540539553E-03   0.0000000000E+00   0.0000000000E+00   0.0000000000E+00   0.1534943463E+00
   0.3112798799E+00   0.3711842117E-01   0.9444228720E-04  -0.8540932766E-06   0.8499805848E-03  -0.7686839490E-05   0.1711385598E+00   0.4374879587E-01   0.6446620669E-01  -0.6441619623E-02   0.0000000000E+00   0.0000000000E+00   0.1386740590E-02  -0.2693263406E-03  -0.8374105510E-04   0.0000000000E+00   0.0000000000E+00   0.0000000000E+00   0.1188833020E+00
   0.2913572706E+00   0.3676881667E-01   0.9171585545E-04  -0.8422632047E-06   0.8254426990E-03  -0.7580368842E-05   0.1672215995E+00   0.4182063229E-01   0.6271266953E-01  -0.9908683989E-02   0.0000000000E+00   0.0000000000E+00   0.1358616089E-02  -0.2715964841E-03  -0.1288128919E-03   0.0000000000E+00   0.0000000000E+00   0.0000000000E+00   0.1175629631E+00
   0.3509999940E+00   0.2114072339E+00   0.1000000000E-03  -0.1312300519E-04   0.9000000000E-03  -0.1181070467E-03   0.3063194779E+00   0.3337224451E-02   0.9289701071E-01   0.7082603652E-03   0.0000000000E+00   0.0000000000E+00   0.2774492074E-02  -0.1164277221E-02   0.9207384747E-05   0.0000000000E+00   0.0000000000E+00   0.0000000000E+00   0.2695985429E+00
   0.3318553943E+00   0.2118484929E+00   0.9469763007E-04  -0.1323710540E-04   0.8522786707E-03  -0.1191339486E-03   0.3068103567E+00   0.3081984880E-02   0.9296770246E-01  -0.2872599002E-02   0.0000000000E+00   0.0000000000E+00   0.2779954504E-02  -0.1168514329E-02  -0.3734378703E-04   0.0000000000E+00   0.0000000000E+00   0.0000000000E+00   0.2702774150E+00
   0.3317926116E+00   0.1925910080E+00   0.9495805534E-04  -0.1106299549E-04   0.8546224981E-03  -0.9956695939E-04   0.2920115108E+00   0.5994160220E-02   0.8940170130E-01  -0.3716914934E-02   0.0000000000E+00   0.0000000000E+00   0.2633927523E-02  -0.1084298034E-02  -0.4831989414E-04   0.0000000000E+00   0.0000000000E+00   0.0000000000E+00   0.2548356883E+00
   0.3509999940E+00   0.1921980661E+00   0.1000000000E-03  -0.1096298813E-04   0.9000000000E-03  -0.9866689317E-04   0.2916586554E+00   0.6398825988E-02   0.8941724443E-01   0.6552748489E-03   0.0000000000E+00   0.0000000000E+00   0.2629138343E-02  -0.1079239440E-02   0.8518573035E-05   0.0000000000E+00   0.0000000000E+00   0.0000000000E+00   0.2541260867E+00
   0.2934022129E+00   0.2125454067E+00   0.8394598769E-04  -0.1386432639E-04   0.7555138892E-03  -0.1247789375E-03   0.3111672181E+00   0.2194846567E-02   0.9400861939E-01  -0.7145665265E-02   0.0000000000E+00   0.0000000000E+00   0.2823061783E-02  -0.1193579047E-02  -0.9289364845E-04   0.0000000000E+00   0.0000000000E+00   0.0000000000E+00   0.2750914435E+00
   0.2742890529E+00   0.2129989210E+00   0.7851239308E-04  -0.1444429677E-04   0.7066115378E-03  -0.1299986709E-03   0.3146386083E+00   0.1336300078E-02   0.9479247250E-01  -0.8552593559E-02   0.0000000000E+00   0.0000000000E+00   0.2857999765E-02  -0.1214930242E-02  -0.1111837163E-03   0.0000000000E+00   0.0000000000E+00   0.0000000000E+00   0.2789777262E+00
   0.2741511216E+00   0.1941502933E+00   0.7956075545E-04  -0.1222097110E-04   0.7160467990E-03  -0.1099887399E-03   0.2992866950E+00   0.2652703627E-02   0.9058181959E-01  -0.1146233889E-01   0.0000000000E+00   0.0000000000E+00   0.2713163380E-02  -0.1143078507E-02  -0.1490104056E-03   0.0000000000E+00   0.0000000000E+00   0.0000000000E+00   0.2646412458E+00
   0.2932663347E+00   0.1933303649E+00   0.8474077434E-04  -0.1164200695E-04   0.7626669690E-03  -0.1047780626E-03   0.2960211049E+00   0.3999231294E-02   0.9000610086E-01  -0.9618203337E-02   0.0000000000E+00   0.0000000000E+00   0.2678195053E-02  -0.1118089304E-02  -0.1250366434E-03   0.0000000000E+00   0.0000000000E+00   0.0000000000E+00   0.2604457564E+00
   0.1951794040E+00   0.5815045730E-01   0.7727900391E-04  -0.1966009768E-05   0.6955110352E-03  -0.1769408791E-04   0.1533095751E+00   0.3518979358E-02   0.4704856634E-01  -0.4814533036E-01   0.0000000000E+00   0.0000000000E+00   0.1381393114E-02  -0.5658846308E-03  -0.6258892947E-03   0.0000000000E+00   0.0000000000E+00   0.0000000000E+00   0.1572982097E+00
   0.2148957451E+00   0.5659676966E-01   0.8018661435E-04  -0.1681343961E-05   0.7216795291E-03  -0.1513209565E-04   0.1577715946E+00   0.1447478475E-01   0.5167391379E-01  -0.3866314154E-01   0.0000000000E+00   0.0000000000E+00   0.1379269850E-02  -0.4835886776E-03  -0.5026208401E-03   0.0000000000E+00   0.0000000000E+00   0.0000000000E+00   0.1451803193E+00
   0.7346746278E-01   0.1303161861E+00   0.2884934778E-04  -0.2758768933E-04   0.2596441300E-03  -0.2482892040E-03   0.3908880550E+00  -0.1488178101E-01   0.1128018822E+00   0.8127500201E-02   0.0000000000E+00   0.0000000000E+00   0.3615120247E-02  -0.1659887622E-02   0.1056575026E-03   0.0000000000E+00   0.0000000000E+00   0.0000000000E+00   0.3594507294E+00
   0.5572919016E-01   0.1221693151E+00   0.2415685582E-04  -0.3061449407E-04   0.2174117024E-03  -0.2755304467E-03   0.4548549939E+00   0.3380545864E-01   0.1465981358E+00  -0.1338126138E-01   0.0000000000E+00   0.0000000000E+00   0.4007339156E-02  -0.1466304803E-02  -0.1739563979E-03   0.0000000000E+00   0.0000000000E+00   0.0000000000E+00   0.3772367867E+00
   0.8112746684E-01   0.1170420729E+00   0.3502464357E-04  -0.2340140762E-04   0.3152217921E-03  -0.2106126686E-03   0.3756966493E+00  -0.2480449596E-01   0.1052676460E+00  -0.1607016497E-01   0.0000000000E+00   0.0000000000E+00   0.3515577043E-02  -0.1690937845E-02  -0.2089121446E-03   0.0000000000E+00   0.0000000000E+00   0.0000000000E+00   0.3543902636E+00
   0.5844642604E-01   0.2495440278E+00   0.1130924386E-04  -0.4559721554E-04   0.1017831947E-03  -0.4103749399E-03   0.2425952346E+00  -0.3983614928E-02   0.7158348589E-01   0.6376929242E-02   0.0000000000E+00   0.0000000000E+00   0.2223152733E-02  -0.9823723106E-03   0.8290008014E-04   0.0000000000E+00   0.0000000000E+00   0.0000000000E+00   0.2188257391E+00
   0.7839374988E-01   0.2130374798E+00   0.2050920841E-04  -0.3831501503E-04   0.1845828757E-03  -0.3448351353E-03   0.3075709983E+00  -0.1117584926E-02   0.9193602401E-01   0.3516341852E-01   0.0000000000E+00   0.0000000000E+00   0.2803254666E-02  -0.1209696916E-02   0.4571244408E-03   0.0000000000E+00   0.0000000000E+00   0.0000000000E+00   0.2807851708E+00
   0.7821871870E-01   0.1930757588E+00   0.2222189015E-04  -0.3586141678E-04   0.1999970113E-03  -0.3227527510E-03   0.3290575748E+00  -0.2256281657E-02   0.9804038794E-01   0.4139163283E-01   0.0000000000E+00   0.0000000000E+00   0.3003223429E-02  -0.1303856705E-02   0.5380912267E-03   0.0000000000E+00   0.0000000000E+00   0.0000000000E+00   0.3028650967E+00
   0.1772527936E+00   0.2155813398E+00   0.4963515717E-04  -0.2182601722E-04   0.4467164145E-03  -0.1964341550E-03   0.3324378042E+00  -0.5945619302E-02   0.9794765547E-01   0.2225677961E-02   0.0000000000E+00   0.0000000000E+00   0.3048371933E-02  -0.1350612572E-02   0.2893381349E-04   0.0000000000E+00   0.0000000000E+00   0.0000000000E+00   0.3002652200E+00
   0.3124205636E+00   0.1536561382E+00   0.9113416322E-04  -0.7356876277E-05   0.8202074690E-03  -0.6621188650E-04   0.2600927689E+00   0.1329414508E-01   0.8201607418E-01  -0.9615997567E-02   0.0000000000E+00   0.0000000000E+00   0.2314997031E-02  -0.8933850784E-03  -0.1250079684E-03   0.0000000000E+00   0.0000000000E+00   0.0000000000E+00   0.2212321623E+00
   0.3124013474E+00   0.1733458757E+00   0.9046423970E-04  -0.9224129168E-05   0.8141781573E-03  -0.8301716252E-04   0.2772514344E+00   0.8995174855E-02   0.8587398277E-01  -0.8391093963E-02   0.0000000000E+00   0.0000000000E+00   0.2487906871E-02  -0.9994245029E-03  -0.1090842215E-03   0.0000000000E+00   0.0000000000E+00   0.0000000000E+00   0.2396967913E+00
   0.1169316040E+00   0.2496428991E+00   0.2649370354E-04  -0.3571009118E-04   0.2384433319E-03  -0.3213908206E-03   0.3247911713E+00  -0.2758352029E-04   0.9742907632E-01   0.5178641015E-02   0.0000000000E+00   0.0000000000E+00   0.2955707234E-02  -0.1266936578E-02   0.6732233319E-04   0.0000000000E+00   0.0000000000E+00   0.0000000000E+00   0.2886584891E+00
   0.7126024231E-01   0.7049782051E-01   0.5495609108E-04  -0.2128608886E-04   0.4946048198E-03  -0.1915747997E-03   0.1610899619E+00   0.8368304553E-01   0.7343190223E-01  -0.1017159140E+00   0.0000000000E+00   0.0000000000E+00   0.1139554776E-02   0.1332648629E-03  -0.1322306882E-02   0.0000000000E+00   0.0000000000E+00   0.0000000000E+00   0.1806415709E+00
   0.8440814512E-01   0.7949565813E-01   0.5151887248E-04  -0.1693098727E-04   0.4636698523E-03  -0.1523788854E-03   0.2113128676E+00  -0.1131120781E-01   0.6000049792E-01  -0.8446334519E-01   0.0000000000E+00   0.0000000000E+00   0.1967060805E-02  -0.9270521745E-03  -0.1098023487E-02   0.0000000000E+00   0.0000000000E+00   0.0000000000E+00   0.2465645457E+00
   0.2356109924E+00   0.2141473792E+00   0.6725343610E-04  -0.1636248011E-04   0.6052809249E-03  -0.1472623209E-03   0.3229522991E+00  -0.1102484305E-02   0.9655494445E-01  -0.8392973540E-02   0.0000000000E+00   0.0000000000E+00   0.2943165611E-02  -0.1269546574E-02  -0.1091086560E-03   0.0000000000E+00   0.0000000000E+00   0.0000000000E+00   0.2882966135E+00
   0.1779563811E+00   0.1997176070E+00   0.5172870771E-04  -0.1958800015E-04   0.4655583694E-03  -0.1762920014E-03   0.3234714298E+00  -0.1133899518E-01   0.9363973038E-01   0.5569939641E-04   0.0000000000E+00   0.0000000000E+00   0.2987812092E-02  -0.1364723432E-02   0.7240921534E-06   0.0000000000E+00   0.0000000000E+00   0.0000000000E+00   0.2965888220E+00
   0.1589841631E+00   0.1995666859E+00   0.4605440837E-04  -0.2207520624E-04   0.4144896754E-03  -0.1986768562E-03   0.3265521761E+00  -0.1380886046E-01   0.9382299469E-01   0.7539781726E-02   0.0000000000E+00   0.0000000000E+00   0.3025479358E-02  -0.1399214117E-02   0.9801716244E-04   0.0000000000E+00   0.0000000000E+00   0.0000000000E+00   0.3015849858E+00
   0.1601656452E+00   0.1837144337E+00   0.4841911791E-04  -0.1965773147E-04   0.4357720612E-03  -0.1769195832E-03   0.3215693613E+00  -0.2083523491E-01   0.9022023792E-01   0.3407165796E-02   0.0000000000E+00   0.0000000000E+00   0.3007538604E-02  -0.1443721147E-02   0.4429315535E-04   0.0000000000E+00   0.0000000000E+00   0.0000000000E+00   0.3025789599E+00
   0.1783492881E+00   0.1844129086E+00   0.5372330886E-04  -0.1744363698E-04   0.4835097797E-03  -0.1569927328E-03   0.3158968039E+00  -0.1633198272E-01   0.8986944636E-01  -0.4030276580E-02   0.0000000000E+00   0.0000000000E+00   0.2938355648E-02  -0.1380618578E-02  -0.5239359554E-04   0.0000000000E+00   0.0000000000E+00   0.0000000000E+00   0.2939420192E+00
   0.2550282636E+00   0.2135657343E+00   0.7295166176E-04  -0.1526206976E-04   0.6565649559E-03  -0.1373586279E-03   0.3185463013E+00   0.1372886868E-03   0.9560507698E-01  -0.9025761849E-02   0.0000000000E+00   0.0000000000E+00   0.2898235916E-02  -0.1241081248E-02  -0.1173349040E-03   0.0000000000E+00   0.0000000000E+00   0.0000000000E+00   0.2834461646E+00
   0.3126048697E+00   0.2121977824E+00   0.8933796839E-04  -0.1347495539E-04   0.8040417155E-03  -0.1212745985E-03   0.3086100299E+00   0.2733023885E-02   0.9340291613E-01  -0.5075756653E-02   0.0000000000E+00   0.0000000000E+00   0.2797692479E-02  -0.1178708599E-02  -0.6598483649E-04   0.0000000000E+00   0.0000000000E+00   0.0000000000E+00   0.2722577213E+00
   0.3125641931E+00   0.1929203904E+00   0.8988370687E-04  -0.1127685707E-04   0.8089533618E-03  -0.1014917137E-03   0.2936634677E+00   0.5404888357E-02   0.8972050683E-01  -0.6811344586E-02   0.0000000000E+00   0.0000000000E+00   0.2651258492E-02  -0.1096103040E-02  -0.8854747961E-04   0.0000000000E+00   0.0000000000E+00   0.0000000000E+00   0.2569762903E+00
   0.6733399692E-01   0.1437598157E+00   0.2410865206E-04  -0.3115253338E-04   0.2169778685E-03  -0.2803728004E-03   0.3912488686E+00   0.2879929633E-02   0.1182386395E+00   0.2699259058E-01   0.0000000000E+00   0.0000000000E+00   0.3549132979E-02  -0.1499663228E-02   0.3509036775E-03   0.0000000000E+00   0.0000000000E+00   0.0000000000E+00   0.3485060446E+00
   0.6232552863E-01   0.1543018228E+00   0.2094570302E-04  -0.3376152268E-04   0.1885113271E-03  -0.3038537041E-03   0.3829117652E+00   0.8672051168E-02   0.1174751449E+00   0.3456768803E-01   0.0000000000E+00   0.0000000000E+00   0.3450676063E-02  -0.1414440219E-02   0.4493799444E-03   0.0000000000E+00   0.0000000000E+00   0.0000000000E+00   0.3385521429E+00
   0.1532897124E+00   0.3949848405E-01   0.7538264361E-04  -0.1723475463E-05   0.6784437925E-03  -0.1551127916E-04   0.9301669696E-01  -0.2599447763E-01   0.2010666580E-01  -0.5763402295E-01   0.0000000000E+00   0.0000000000E+00   0.9478304051E-03  -0.5993148646E-03  -0.7492422983E-03   0.0000000000E+00   0.0000000000E+00   0.0000000000E+00   0.1432614575E+00
   0.1360759620E+00   0.4586751984E-01   0.7227689862E-04  -0.3121935649E-05   0.6504920875E-03  -0.2809742084E-04   0.9006231444E-01  -0.5475387243E-01   0.1059253260E-01  -0.7452148408E-01   0.0000000000E+00   0.0000000000E+00   0.1033107164E-02  -0.8495032654E-03  -0.9687792931E-03   0.0000000000E+00   0.0000000000E+00   0.0000000000E+00   0.1762624242E+00
   0.1632959782E+00   0.0000000000E+00   0.7959841504E-04   0.0000000000E+00   0.7163857353E-03   0.0000000000E+00   0.5566410138E-01  -0.5324758370E-02   0.1510180290E-01  -0.9518625683E-02   0.0000000000E+00   0.0000000000E+00   0.5273098802E-03  -0.2655452965E-03  -0.1237421339E-03   0.0000000000E+00   0.0000000000E+00   0.0000000000E+00   0.5445851711E-01
   0.1672203174E+00   0.1949312589E-01   0.7903654284E-04  -0.5630312982E-06   0.7113288856E-03  -0.5067281684E-05   0.7410946675E-01  -0.4872644750E-02   0.2077104660E-01  -0.2431083101E-01   0.0000000000E+00   0.0000000000E+00   0.6933994620E-03  -0.3333679876E-03  -0.3160408031E-03   0.0000000000E+00   0.0000000000E+00   0.0000000000E+00   0.8279325571E-01
   0.2763098070E+00   0.9269244759E-01   0.8683990451E-04  -0.3171181461E-05   0.7815591405E-03  -0.2854063315E-04   0.2055901303E+00   0.2410946039E-01   0.6890987720E-01  -0.2219825786E-01   0.0000000000E+00   0.0000000000E+00   0.1776843290E-02  -0.5824054186E-03  -0.2885773522E-03   0.0000000000E+00   0.0000000000E+00   0.0000000000E+00   0.1681490673E+00
   0.2945278669E+00   0.9345948620E-01   0.9002768717E-04  -0.3112180055E-05   0.8102491845E-03  -0.2800962049E-04   0.2068986085E+00   0.2749474414E-01   0.7031800580E-01  -0.1653473748E-01   0.0000000000E+00   0.0000000000E+00   0.1775547835E-02  -0.5567024015E-03  -0.2149515873E-03   0.0000000000E+00   0.0000000000E+00   0.0000000000E+00   0.1647531651E+00
   0.2946607479E+00   0.1128057885E+00   0.8910309467E-04  -0.4302248918E-05   0.8019278520E-03  -0.3872024026E-04   0.2238897350E+00   0.2197625829E-01   0.7375979800E-01  -0.1656402294E-01   0.0000000000E+00   0.0000000000E+00   0.1951689181E-02  -0.6731860162E-03  -0.2153322982E-03   0.0000000000E+00   0.0000000000E+00   0.0000000000E+00   0.1838562723E+00
   0.2767608024E+00   0.1113308871E+00   0.8569214473E-04  -0.4366294152E-05   0.7712293026E-03  -0.3929664737E-04   0.2235823997E+00   0.1854057383E-01   0.7263689206E-01  -0.2161520333E-01   0.0000000000E+00   0.0000000000E+00   0.1962291599E-02  -0.7032521369E-03  -0.2809976432E-03   0.0000000000E+00   0.0000000000E+00   0.0000000000E+00   0.1878003656E+00
   0.2937826769E+00   0.7441702877E-01   0.9076259478E-04  -0.2163252861E-05   0.8168633530E-03  -0.1946927575E-04   0.1912079116E+00   0.3311283355E-01   0.6729622355E-01  -0.1554578275E-01   0.0000000000E+00   0.0000000000E+00   0.1610851945E-02  -0.4443840700E-03  -0.2020951757E-03   0.0000000000E+00   0.0000000000E+00   0.0000000000E+00   0.1465242877E+00
   0.1718617200E+00   0.3886948650E-01   0.7726819918E-04  -0.1274300084E-05   0.6954137926E-03  -0.1146870076E-04   0.1007567471E+00  -0.7739601904E-02   0.2790514357E-01  -0.4969194504E-01   0.0000000000E+00   0.0000000000E+00   0.9470708465E-03  -0.4633816912E-03  -0.6459952855E-03   0.0000000000E+00   0.0000000000E+00   0.0000000000E+00   0.1281010620E+00
   0.2938437236E+00   0.1326916413E+00   0.8791166033E-04  -0.5772272906E-05   0.7912049430E-03  -0.5195045615E-04   0.2424342694E+00   0.1563412545E-01   0.7742051846E-01  -0.1587793327E-01   0.0000000000E+00   0.0000000000E+00   0.2145178762E-02  -0.8032231091E-03  -0.2064131325E-03   0.0000000000E+00   0.0000000000E+00   0.0000000000E+00   0.2049047348E+00
   0.5206669174E-01   0.1829748210E+00   0.1516198383E-04  -0.3936679635E-04   0.1364578545E-03  -0.3543011672E-03   0.3394324980E+00   0.1619313716E-01   0.1066876906E+00   0.3941508782E-01   0.0000000000E+00   0.0000000000E+00   0.3025682497E-02  -0.1176429194E-02   0.5123961417E-03   0.0000000000E+00   0.0000000000E+00   0.0000000000E+00   0.2968866332E+00
   0.5057757797E-01   0.1682132784E+00   0.1572117688E-04  -0.3787575877E-04   0.1414905919E-03  -0.3408818289E-03   0.3615753449E+00   0.2459274344E-01   0.1158504265E+00   0.4051278790E-01   0.0000000000E+00   0.0000000000E+00   0.3194423939E-02  -0.1186349880E-02   0.5266662428E-03   0.0000000000E+00   0.0000000000E+00   0.0000000000E+00   0.3099731765E+00
   0.2926530766E+00   0.5549164538E-01   0.9132845648E-04  -0.1417792474E-05   0.8219561083E-03  -0.1276013226E-04   0.1777049571E+00   0.3796217058E-01   0.6470013831E-01  -0.1325543933E-01   0.0000000000E+00   0.0000000000E+00   0.1469062644E-02  -0.3475935805E-03  -0.1723207113E-03   0.0000000000E+00   0.0000000000E+00   0.0000000000E+00   0.1304797410E+00
   0.2925307451E+00   0.1532185387E+00   0.8654290687E-04  -0.7562227190E-05   0.7788861618E-03  -0.6806004471E-04   0.2611687883E+00   0.1138031758E-01   0.8176473177E-01  -0.1414301209E-01   0.0000000000E+00   0.0000000000E+00   0.2332252735E-02  -0.9149973844E-03  -0.1838591571E-03   0.0000000000E+00   0.0000000000E+00   0.0000000000E+00   0.2243888132E+00
   0.2714571249E+00   0.3668414607E-01   0.8905419356E-04  -0.8391329373E-06   0.8014877420E-03  -0.7552196435E-05   0.1616880545E+00   0.3881878903E-01   0.6015205307E-01  -0.1380739903E-01   0.0000000000E+00   0.0000000000E+00   0.1319968019E-02  -0.2773324325E-03  -0.1794961874E-03   0.0000000000E+00   0.0000000000E+00   0.0000000000E+00   0.1160890805E+00
   0.2515546476E+00   0.3680577727E-01   0.8647235662E-04  -0.8465331496E-06   0.7782512095E-03  -0.7618798346E-05   0.1543431917E+00   0.3453946903E-01   0.5666479823E-01  -0.1839485081E-01   0.0000000000E+00   0.0000000000E+00   0.1269819116E-02  -0.2876292797E-03  -0.2391330605E-03   0.0000000000E+00   0.0000000000E+00   0.0000000000E+00   0.1147482802E+00
   0.2343646984E+00   0.5568481324E-01   0.8296764064E-04  -0.1536596432E-05   0.7467087657E-03  -0.1382936789E-04   0.1633585432E+00   0.2368598153E-01   0.5611335743E-01  -0.3072564658E-01   0.0000000000E+00   0.0000000000E+00   0.1394187416E-02  -0.4215558868E-03  -0.3994334055E-03   0.0000000000E+00   0.0000000000E+00   0.0000000000E+00   0.1373258435E+00
   0.2538947318E+00   0.5531284791E-01   0.8573987911E-04  -0.1462339098E-05   0.7716589120E-03  -0.1316105188E-04   0.1688741762E+00   0.3005513626E-01   0.5967879374E-01  -0.2395164409E-01   0.0000000000E+00   0.0000000000E+00   0.1419539972E-02  -0.3851075472E-03  -0.3113713731E-03   0.0000000000E+00   0.0000000000E+00   0.0000000000E+00   0.1332282186E+00
   0.2355528261E+00   0.1969124192E+00   0.6871311402E-04  -0.1421307978E-04   0.6184180262E-03  -0.1279177180E-03   0.3088779670E+00  -0.2369613388E-02   0.9195250607E-01  -0.1185424708E-01   0.0000000000E+00   0.0000000000E+00   0.2820030992E-02  -0.1226187553E-02  -0.1541052120E-03   0.0000000000E+00   0.0000000000E+00   0.0000000000E+00   0.2771986125E+00
   0.2549632119E+00   0.1955443827E+00   0.7422789374E-04  -0.1307672857E-04   0.6680510437E-03  -0.1176905571E-03   0.3037424614E+00   0.1542535633E-03   0.9116901449E-01  -0.1249077816E-01   0.0000000000E+00   0.0000000000E+00   0.2763454810E-02  -0.1183191892E-02  -0.1623801160E-03   0.0000000000E+00   0.0000000000E+00   0.0000000000E+00   0.2707216561E+00
   0.1602607149E+00   0.7265452096E-01   0.6923009463E-04  -0.4113663592E-05   0.6230708517E-03  -0.3702297233E-04   0.1757736438E+00  -0.3532465017E-01   0.4213469809E-01  -0.6818019521E-01   0.0000000000E+00   0.0000000000E+00   0.1737306294E-02  -0.1006971527E-02  -0.8863425378E-03   0.0000000000E+00   0.0000000000E+00   0.0000000000E+00   0.2191089476E+00
   0.1744768556E+00   0.6063693171E-01   0.7399256170E-04  -0.2478649132E-05   0.6659330553E-03  -0.2230784219E-04   0.1507905601E+00  -0.1530103185E-01   0.4064685847E-01  -0.6058939524E-01   0.0000000000E+00   0.0000000000E+00   0.1431868121E-02  -0.7273225742E-03  -0.7876621381E-03   0.0000000000E+00   0.0000000000E+00   0.0000000000E+00   0.1801044052E+00
   0.1848361357E+00   0.8229939600E-01   0.7166427245E-04  -0.3991319596E-05   0.6449784520E-03  -0.3592187637E-04   0.1973439523E+00  -0.1726898749E-01   0.5402248943E-01  -0.5712913473E-01   0.0000000000E+00   0.0000000000E+00   0.1863179017E-02  -0.9267892000E-03  -0.7426787514E-03   0.0000000000E+00   0.0000000000E+00   0.0000000000E+00   0.2133863266E+00
   0.1700736728E+00   0.8989995170E-01   0.6731748394E-04  -0.5432769936E-05   0.6058573555E-03  -0.4889492942E-04   0.2138601772E+00  -0.3231464523E-01   0.5446365959E-01  -0.5791043337E-01   0.0000000000E+00   0.0000000000E+00   0.2072154729E-02  -0.1128117963E-02  -0.7528356338E-03   0.0000000000E+00   0.0000000000E+00   0.0000000000E+00   0.2383665504E+00
   0.9910218641E-01   0.2138644809E+00   0.2633057069E-04  -0.3448970646E-04   0.2369751362E-03  -0.3104073582E-03   0.3176247542E+00  -0.6247308993E-02   0.9341323355E-01   0.3161480990E-01   0.0000000000E+00   0.0000000000E+00   0.2914749768E-02  -0.1295587053E-02   0.4109925287E-03   0.0000000000E+00   0.0000000000E+00   0.0000000000E+00   0.2923127812E+00
   0.1401497129E+00   0.1991367677E+00   0.4039859167E-04  -0.2493972595E-04   0.3635873250E-03  -0.2244575336E-03   0.3285312683E+00  -0.1541877531E-01   0.9393374789E-01   0.1619770790E-01   0.0000000000E+00   0.0000000000E+00   0.3049767765E-02  -0.1421582802E-02   0.2105702027E-03   0.0000000000E+00   0.0000000000E+00   0.0000000000E+00   0.3056436153E+00
   0.1212354826E+00   0.1983576983E+00   0.3473015698E-04  -0.2815906534E-04   0.3125714128E-03  -0.2534315881E-03   0.3290598631E+00  -0.1531182369E-01   0.9412441182E-01   0.2523856614E-01   0.0000000000E+00   0.0000000000E+00   0.3054160867E-02  -0.1422671062E-02   0.3281013598E-03   0.0000000000E+00   0.0000000000E+00   0.0000000000E+00   0.3078460682E+00
   0.2189575000E+00   0.7550971546E-01   0.7860969786E-04  -0.2698263677E-05   0.7074872807E-03  -0.2428437309E-04   0.1837749057E+00   0.9069816416E-02   0.5785341663E-01  -0.4164713899E-01   0.0000000000E+00   0.0000000000E+00   0.1636979358E-02  -0.6341868028E-03  -0.5414128069E-03   0.0000000000E+00   0.0000000000E+00   0.0000000000E+00   0.1718776863E+00
   0.8057976791E-01   0.1524998799E+00   0.2736924135E-04  -0.2952260833E-04   0.2463231721E-03  -0.2657034750E-03   0.3672705977E+00  -0.1633598363E-01   0.1052803842E+00   0.3058594006E-01   0.0000000000E+00   0.0000000000E+00   0.3405872775E-02  -0.1581012782E-02   0.3976172207E-03   0.0000000000E+00   0.0000000000E+00   0.0000000000E+00   0.3435010655E+00
   0.7005697119E-01   0.1664020954E+00   0.2213530928E-04  -0.3387695894E-04   0.1992177835E-03  -0.3048926305E-03   0.3589594347E+00   0.1896196779E-02   0.1082566895E+00   0.4019996029E-01   0.0000000000E+00   0.0000000000E+00   0.3259135689E-02  -0.1382686405E-02   0.5225994837E-03   0.0000000000E+00   0.0000000000E+00   0.0000000000E+00   0.3251021356E+00
   0.1418751529E+00   0.1828920543E+00   0.4298139368E-04  -0.2229507171E-04   0.3868325431E-03  -0.2006556454E-03   0.3270762157E+00  -0.2332379370E-01   0.9112572660E-01   0.1227635831E-01   0.0000000000E+00   0.0000000000E+00   0.3067356358E-02  -0.1487843764E-02   0.1595926581E-03   0.0000000000E+00   0.0000000000E+00   0.0000000000E+00   0.3101446035E+00
   0.2733083712E+00   0.1744058736E+00   0.8058292429E-04  -0.1006263584E-04   0.7252463186E-03  -0.9056372254E-04   0.2838369489E+00   0.4623926526E-02   0.8653826263E-01  -0.1494968640E-01   0.0000000000E+00   0.0000000000E+00   0.2564882921E-02  -0.1064886369E-02  -0.1943459232E-03   0.0000000000E+00   0.0000000000E+00   0.0000000000E+00   0.2499205600E+00
   0.2927986698E+00   0.1735338692E+00   0.8556857515E-04  -0.9525078588E-05   0.7701171764E-03  -0.8572570729E-04   0.2792903428E+00   0.7441141341E-02   0.8601944523E-01  -0.1230213342E-01   0.0000000000E+00   0.0000000000E+00   0.2512521668E-02  -0.1021517951E-02  -0.1599277345E-03   0.0000000000E+00   0.0000000000E+00   0.0000000000E+00   0.2432434208E+00
   0.9457471823E-01   0.1607626514E+00   0.3091231260E-04  -0.2776395799E-04   0.2782108134E-03  -0.2498756219E-03   0.3544404615E+00  -0.2427984148E-01   0.9904818602E-01   0.2940525437E-01   0.0000000000E+00   0.0000000000E+00   0.3320099582E-02  -0.1603264357E-02   0.3822683068E-03   0.0000000000E+00   0.0000000000E+00   0.0000000000E+00   0.3382867369E+00
   0.8744781482E-01   0.1751689974E+00   0.2682434210E-04  -0.3148405663E-04   0.2414190789E-03  -0.2833565096E-03   0.3478597557E+00  -0.1269333228E-01   0.1005499270E+00   0.3961859678E-01   0.0000000000E+00   0.0000000000E+00   0.3215027773E-02  -0.1472162371E-02   0.5150417582E-03   0.0000000000E+00   0.0000000000E+00   0.0000000000E+00   0.3266648819E+00
   0.2749585583E+00   0.7395152754E-01   0.8776563083E-04  -0.2195676154E-05   0.7898906775E-03  -0.1976108539E-04   0.1887625101E+00   0.2965055520E-01   0.6552391959E-01  -0.2109256600E-01   0.0000000000E+00   0.0000000000E+00   0.1602101677E-02  -0.4663537370E-03  -0.2742033581E-03   0.0000000000E+00   0.0000000000E+00   0.0000000000E+00   0.1490478518E+00
   0.2269034147E+00   0.1122471298E+00   0.7555246916E-04  -0.5381720451E-05   0.6799722225E-03  -0.4843548406E-04   0.2306860669E+00   0.6052336672E-04   0.6922397708E-01  -0.3563884514E-01   0.0000000000E+00   0.0000000000E+00   0.2099007168E-02  -0.8991248983E-03  -0.4633049868E-03   0.0000000000E+00   0.0000000000E+00   0.0000000000E+00   0.2140198337E+00
   0.2232153208E+00   0.9414510588E-01   0.7705328310E-04  -0.3947161722E-05   0.6934795479E-03  -0.3552445549E-04   0.2089109840E+00   0.3951641241E-02   0.6385878757E-01  -0.3992868735E-01   0.0000000000E+00   0.0000000000E+00   0.1885678553E-02  -0.7787929022E-03  -0.5190729356E-03   0.0000000000E+00   0.0000000000E+00   0.0000000000E+00   0.1951313876E+00
   0.2732709730E+00   0.5524777503E-01   0.8851669780E-04  -0.1427277164E-05   0.7966502802E-03  -0.1284549448E-04   0.1737227113E+00   0.3472786416E-01   0.6253517263E-01  -0.1827347758E-01   0.0000000000E+00   0.0000000000E+00   0.1445438002E-02  -0.3614950101E-03  -0.2375552085E-03   0.0000000000E+00   0.0000000000E+00   0.0000000000E+00   0.1312308981E+00
   0.1576000602E+00   0.5346840860E-01   0.7304402369E-04  -0.2587349601E-05   0.6573962132E-03  -0.2328614640E-04   0.1371389889E+00  -0.2743358093E-01   0.3291162238E-01  -0.6595779790E-01   0.0000000000E+00   0.0000000000E+00   0.1354955764E-02  -0.7844876430E-03  -0.8574513727E-03   0.0000000000E+00   0.0000000000E+00   0.0000000000E+00   0.1841448709E+00
   0.1474538175E+00   0.6072004167E-01   0.6998204912E-04  -0.3683162597E-05   0.6298384421E-03  -0.3314846337E-04   0.1451122003E+00  -0.3960506926E-01   0.3165213931E-01  -0.6925380768E-01   0.0000000000E+00   0.0000000000E+00   0.1474980793E-02  -0.9263437114E-03  -0.9002994998E-03   0.0000000000E+00   0.0000000000E+00   0.0000000000E+00   0.2019740716E+00
   0.1242902748E+00   0.1489060808E+00   0.4250207860E-04  -0.1985741850E-04   0.3825187074E-03  -0.1787167665E-03   0.3330813375E+00  -0.4362258851E-01   0.8683762470E-01   0.2723007511E-02   0.0000000000E+00   0.0000000000E+00   0.3201168267E-02  -0.1695982772E-02   0.3539909765E-04   0.0000000000E+00   0.0000000000E+00   0.0000000000E+00   0.3312001067E+00
   0.1450923704E+00   0.1471969860E+00   0.4927834438E-04  -0.1620420370E-04   0.4435050994E-03  -0.1458378333E-03   0.3148808369E+00  -0.4194118134E-01   0.8188189668E-01  -0.1138408964E-01   0.0000000000E+00   0.0000000000E+00   0.3028986223E-02  -0.1609700014E-02  -0.1479931653E-03   0.0000000000E+00   0.0000000000E+00   0.0000000000E+00   0.3143895697E+00
   0.1436233013E+00   0.1659388022E+00   0.4584132989E-04  -0.1943037697E-04   0.4125719690E-03  -0.1748733928E-03   0.3242519543E+00  -0.3354837486E-01   0.8721107384E-01   0.3725996193E-02   0.0000000000E+00   0.0000000000E+00   0.3081531446E-02  -0.1569872833E-02   0.4843795050E-04   0.0000000000E+00   0.0000000000E+00   0.0000000000E+00   0.3151881714E+00
   0.1258876014E+00   0.1660887985E+00   0.4030754423E-04  -0.2242534689E-04   0.3627678981E-03  -0.2018281220E-03   0.3320354182E+00  -0.3480203064E-01   0.8917001626E-01   0.1291147188E-01   0.0000000000E+00   0.0000000000E+00   0.3157250225E-02  -0.1611636610E-02   0.1678491345E-03   0.0000000000E+00   0.0000000000E+00   0.0000000000E+00   0.3238865497E+00
   0.6688407298E-01   0.1805222792E+00   0.1987689781E-04  -0.3635427527E-04   0.1788920803E-03  -0.3271884774E-03   0.3384686719E+00   0.2334740305E-02   0.1022410237E+00   0.4079885587E-01   0.0000000000E+00   0.0000000000E+00   0.3070959427E-02  -0.1298781684E-02   0.5303851263E-03   0.0000000000E+00   0.0000000000E+00   0.0000000000E+00   0.3071636819E+00
   0.1098960925E+00   0.1658659524E+00   0.3523215481E-04  -0.2541745577E-04   0.3170893933E-03  -0.2287571019E-03   0.3438778940E+00  -0.3097818993E-01   0.9386991123E-01   0.2311444255E-01   0.0000000000E+00   0.0000000000E+00   0.3250103776E-02  -0.1623025315E-02   0.3004877531E-03   0.0000000000E+00   0.0000000000E+00   0.0000000000E+00   0.3330243183E+00
   0.1057521289E+00   0.1803095757E+00   0.3206319219E-04  -0.2849732976E-04   0.2885687297E-03  -0.2564759678E-03   0.3384945975E+00  -0.1954698894E-01   0.9568428257E-01   0.3149825678E-01   0.0000000000E+00   0.0000000000E+00   0.3156534094E-02  -0.1498006530E-02   0.4094773382E-03   0.0000000000E+00   0.0000000000E+00   0.0000000000E+00   0.3211226862E+00
   0.2153481164E+00   0.1815469449E+00   0.6459123705E-04  -0.1363271147E-04   0.5813211334E-03  -0.1226944032E-03   0.3018031960E+00  -0.7845473765E-02   0.8818731668E-01  -0.1407000027E-01   0.0000000000E+00   0.0000000000E+00   0.2777006432E-02  -0.1248426276E-02  -0.1829100035E-03   0.0000000000E+00   0.0000000000E+00   0.0000000000E+00   0.2756116098E+00
   0.2346068992E+00   0.1796985188E+00   0.7004062385E-04  -0.1219292210E-04   0.6303656147E-03  -0.1097362989E-03   0.2951267774E+00  -0.3180755100E-02   0.8758380668E-01  -0.1597298268E-01   0.0000000000E+00   0.0000000000E+00   0.2698058619E-02  -0.1179939303E-02  -0.2076487748E-03   0.0000000000E+00   0.0000000000E+00   0.0000000000E+00   0.2663056562E+00
   0.2760680686E+00   0.1304470920E+00   0.8424885689E-04  -0.5835099803E-05   0.7582397120E-03  -0.5251589823E-04   0.2405605834E+00   0.1281441333E-01   0.7601249903E-01  -0.2085783130E-01   0.0000000000E+00   0.0000000000E+00   0.2139125097E-02  -0.8215751141E-03  -0.2711518069E-03   0.0000000000E+00   0.0000000000E+00   0.0000000000E+00   0.2067769692E+00
   0.2711365244E+00   0.1522077956E+00   0.8159894325E-04  -0.7851038284E-05   0.7343904892E-03  -0.7065934456E-04   0.2630371975E+00   0.7149565290E-02   0.8105602885E-01  -0.1909185183E-01   0.0000000000E+00   0.0000000000E+00   0.2365755193E-02  -0.9607840263E-03  -0.2481940738E-03   0.0000000000E+00   0.0000000000E+00   0.0000000000E+00   0.2304746724E+00
   0.2540475355E+00   0.1773767366E+00   0.7540215082E-04  -0.1102194319E-04   0.6786193574E-03  -0.9919748874E-04   0.2879256272E+00   0.8999057716E-03   0.8664765989E-01  -0.1614601179E-01   0.0000000000E+00   0.0000000000E+00   0.2616613575E-02  -0.1114720804E-02  -0.2098981533E-03   0.0000000000E+00   0.0000000000E+00   0.0000000000E+00   0.2567168639E+00
   0.1227324040E+00   0.5807129317E-01   0.6721500237E-04  -0.5630753255E-05   0.6049350213E-03  -0.5067677930E-04   0.1218687369E+00  -0.7282350266E-01   0.1471357028E-01  -0.7351518661E-01   0.0000000000E+00   0.0000000000E+00   0.1393017166E-02  -0.1137981948E-02  -0.9556974260E-03   0.0000000000E+00   0.0000000000E+00   0.0000000000E+00   0.2129877693E+00
   0.1106394434E+00   0.7300891993E-01   0.5982054015E-04  -0.9464207410E-05   0.5383848614E-03  -0.8517786669E-04   0.1903561962E+00  -0.7070149005E-01   0.3589641184E-01  -0.7732761863E-01   0.0000000000E+00   0.0000000000E+00   0.2007977196E-02  -0.1385772725E-02  -0.1005259042E-02   0.0000000000E+00   0.0000000000E+00   0.0000000000E+00   0.2632758940E+00
   0.1481099866E+00   0.8117641573E-01   0.6486165552E-04  -0.5879936840E-05   0.5837548997E-03  -0.5291943156E-04   0.2049534118E+00  -0.4991706758E-01   0.4651090327E-01  -0.6885095253E-01   0.0000000000E+00   0.0000000000E+00   0.2059752611E-02  -0.1253563621E-02  -0.8950623829E-03   0.0000000000E+00   0.0000000000E+00   0.0000000000E+00   0.2528168650E+00
   0.1358876994E+00   0.7045173582E-01   0.6546694114E-04  -0.5620778391E-05   0.5892024703E-03  -0.5058700552E-04   0.1744498009E+00  -0.5709009731E-01   0.3520791108E-01  -0.7665282025E-01   0.0000000000E+00   0.0000000000E+00   0.1810144568E-02  -0.1199874109E-02  -0.9964866632E-03   0.0000000000E+00   0.0000000000E+00   0.0000000000E+00   0.2410923771E+00
   0.1012703062E+00   0.1966492344E+00   0.2884451696E-04  -0.3174435952E-04   0.2596006526E-03  -0.2856992357E-03   0.3300577752E+00  -0.1220617359E-01   0.9535548047E-01   0.3451502070E-01   0.0000000000E+00   0.0000000000E+00   0.3051129831E-02  -0.1398301503E-02   0.4486952691E-03   0.0000000000E+00   0.0000000000E+00   0.0000000000E+00   0.3089818361E+00
   0.1239062955E+00   0.1821138354E+00   0.3753114979E-04  -0.2528336159E-04   0.3377803481E-03  -0.2275502543E-03   0.3329921787E+00  -0.2376468427E-01   0.9276824832E-01   0.2207200993E-01   0.0000000000E+00   0.0000000000E+00   0.3122911095E-02  -0.1514928124E-02   0.2869361292E-03   0.0000000000E+00   0.0000000000E+00   0.0000000000E+00   0.3173150174E+00
   0.1616212942E+00   0.1677824682E+00   0.5101922171E-04  -0.1713208430E-04   0.4591729954E-03  -0.1541887587E-03   0.3150997443E+00  -0.2746417900E-01   0.8629066959E-01  -0.4629909300E-02   0.0000000000E+00   0.0000000000E+00   0.2974517971E-02  -0.1478813032E-02  -0.6018882090E-04   0.0000000000E+00   0.0000000000E+00   0.0000000000E+00   0.3022587000E+00
   0.1787031552E+00   0.1696953886E+00   0.5573742188E-04  -0.1537094473E-04   0.5016367969E-03  -0.1383385026E-03   0.3074255260E+00  -0.2115588530E-01   0.8588089222E-01  -0.9828343241E-02   0.0000000000E+00   0.0000000000E+00   0.2880080240E-02  -0.1391478108E-02  -0.1277684621E-03   0.0000000000E+00   0.0000000000E+00   0.0000000000E+00   0.2907387380E+00
   0.8838058410E-01   0.1395752719E+00   0.3222987025E-04  -0.2561370782E-04   0.2900688323E-03  -0.2305233704E-03   0.3703466923E+00  -0.2957951514E-01   0.1022301532E+00   0.1422300577E-01   0.0000000000E+00   0.0000000000E+00   0.3485515009E-02  -0.1713525688E-02   0.1848990750E-03   0.0000000000E+00   0.0000000000E+00   0.0000000000E+00   0.3537715196E+00
   0.9989918275E-01   0.8882509983E-01   0.5099947492E-04  -0.1406066699E-04   0.4589952743E-03  -0.1265460029E-03   0.2694575980E+00  -0.6370038043E-01   0.6172716526E-01  -0.6377011551E-01   0.0000000000E+00   0.0000000000E+00   0.2700495625E-02  -0.1630558094E-02  -0.8290115017E-03   0.0000000000E+00   0.0000000000E+00   0.0000000000E+00   0.3088935793E+00
   0.9675367474E-01   0.1274370042E+00   0.3773003375E-04  -0.2157158389E-04   0.3395703038E-03  -0.1941442550E-03   0.3562750258E+00  -0.4660385725E-01   0.9290135058E-01  -0.3822385825E-02   0.0000000000E+00   0.0000000000E+00   0.3423857778E-02  -0.1813567702E-02  -0.4969101572E-04   0.0000000000E+00   0.0000000000E+00   0.0000000000E+00   0.3537937177E+00
   0.2512973139E+00   0.1600036465E+00   0.7617068628E-04  -0.9237352915E-05   0.6855361765E-03  -0.8313617623E-04   0.2726387607E+00   0.1411611607E-03   0.8183397656E-01  -0.2006492191E-01   0.0000000000E+00   0.0000000000E+00   0.2480462194E-02  -0.1062006600E-02  -0.2608439849E-03   0.0000000000E+00   0.0000000000E+00   0.0000000000E+00   0.2446970496E+00
   0.2601637698E+00   0.1274763501E+00   0.8104898170E-04  -0.5881389929E-05   0.7294408353E-03  -0.5293250936E-04   0.2423982759E+00   0.9880390839E-02   0.7568360002E-01  -0.2459700621E-01   0.0000000000E+00   0.0000000000E+00   0.2167290786E-02  -0.8554417193E-03  -0.3197610808E-03   0.0000000000E+00   0.0000000000E+00   0.0000000000E+00   0.2119005399E+00
   0.1967682430E+00   0.1838896966E+00   0.5911329582E-04  -0.1545454236E-04   0.5320196624E-03  -0.1390908813E-03   0.3084873443E+00  -0.1235608034E-01   0.8883937920E-01  -0.9942741017E-02   0.0000000000E+00   0.0000000000E+00   0.2855423547E-02  -0.1315540974E-02  -0.1292556332E-03   0.0000000000E+00   0.0000000000E+00   0.0000000000E+00   0.2846125767E+00
   0.2590807826E+00   0.1414330292E+00   0.7962435686E-04  -0.7167578765E-05   0.7166192118E-03  -0.6450820889E-04   0.2598568378E+00   0.9927174070E-02   0.8093520356E-01  -0.2204228121E-01   0.0000000000E+00   0.0000000000E+00   0.2325981245E-02  -0.9231043834E-03  -0.2865496558E-03   0.0000000000E+00   0.0000000000E+00   0.0000000000E+00   0.2262803701E+00
   0.2467123538E+00   0.1445643687E+00   0.7646348351E-04  -0.7822228633E-05   0.6881713516E-03  -0.7040005770E-04   0.2602477619E+00   0.2675283954E-02   0.7887691375E-01  -0.2386667226E-01   0.0000000000E+00   0.0000000000E+00   0.2357821026E-02  -0.9906211873E-03  -0.3102667394E-03   0.0000000000E+00   0.0000000000E+00   0.0000000000E+00   0.2328584826E+00
   0.1922857254E+00   0.1588636317E+00   0.6100323645E-04  -0.1259322767E-04   0.5490291280E-03  -0.1133390490E-03   0.2928709393E+00  -0.1662020941E-01   0.8287521898E-01  -0.1877003997E-01   0.0000000000E+00   0.0000000000E+00   0.2729944365E-02  -0.1293440569E-02  -0.2440105196E-03   0.0000000000E+00   0.0000000000E+00   0.0000000000E+00   0.2755815566E+00
   0.1951095792E+00   0.1696527450E+00   0.6038872182E-04  -0.1373590286E-04   0.5434984963E-03  -0.1236231257E-03   0.2988413997E+00  -0.1632142794E-01   0.8475599152E-01  -0.1459781162E-01   0.0000000000E+00   0.0000000000E+00   0.2783110306E-02  -0.1314006453E-02  -0.1897715511E-03   0.0000000000E+00   0.0000000000E+00   0.0000000000E+00   0.2798671057E+00
   0.1803542554E+00   0.1551641572E+00   0.5822953609E-04  -0.1319148248E-04   0.5240658248E-03  -0.1187233423E-03   0.2978689227E+00  -0.2336788357E-01   0.8235031174E-01  -0.1706977542E-01   0.0000000000E+00   0.0000000000E+00   0.2801741942E-02  -0.1374336539E-02  -0.2219070805E-03   0.0000000000E+00   0.0000000000E+00   0.0000000000E+00   0.2849946808E+00
   0.1013306832E+00   0.1483249257E+00   0.3507292333E-04  -0.2425723160E-04   0.3156563100E-03  -0.2183150844E-03   0.3518553016E+00  -0.3717405072E-01   0.9440437527E-01   0.1569318174E-01   0.0000000000E+00   0.0000000000E+00   0.3346862043E-02  -0.1710519538E-02   0.2040113626E-03   0.0000000000E+00   0.0000000000E+00   0.0000000000E+00   0.3437432205E+00
   0.2011372069E+00   0.7794884230E-01   0.7530519088E-04  -0.3166109539E-05   0.6777467179E-03  -0.2849498585E-04   0.1869537196E+00  -0.2076011440E-02   0.5546331243E-01  -0.4983050604E-01   0.0000000000E+00   0.0000000000E+00   0.1709375293E-02  -0.7480112104E-03  -0.6477965785E-03   0.0000000000E+00   0.0000000000E+00   0.0000000000E+00   0.1886358866E+00
   0.2120699509E+00   0.1146096404E+00   0.7206719307E-04  -0.6112763399E-05   0.6486047376E-03  -0.5501487059E-04   0.2376446282E+00  -0.8269805355E-02   0.6881244686E-01  -0.3818638003E-01   0.0000000000E+00   0.0000000000E+00   0.2194818358E-02  -0.1002069279E-02  -0.4964229403E-03   0.0000000000E+00   0.0000000000E+00   0.0000000000E+00   0.2275987079E+00
   0.2073137635E+00   0.9684957672E-01   0.7361344777E-04  -0.4581998317E-05   0.6625210299E-03  -0.4123798485E-04   0.2151458326E+00  -0.7043195955E-02   0.6243079100E-01  -0.4495381794E-01   0.0000000000E+00   0.0000000000E+00   0.1985295541E-02  -0.9031618304E-03  -0.5843996332E-03   0.0000000000E+00   0.0000000000E+00   0.0000000000E+00   0.2115933632E+00
   0.9034700456E-01   0.1038101278E+00   0.4247775646E-04  -0.1884291655E-04   0.3822998081E-03  -0.1695862489E-03   0.3443891183E+00  -0.4093365860E-01   0.9103663791E-01  -0.3992743767E-01   0.0000000000E+00   0.0000000000E+00   0.3293582245E-02  -0.1715613855E-02  -0.5190566897E-03   0.0000000000E+00   0.0000000000E+00   0.0000000000E+00   0.3431140813E+00
   0.1250683405E+00   0.8330099781E-01   0.5925404604E-04  -0.8619079452E-05   0.5332864143E-03  -0.7757171507E-04   0.2213101844E+00  -0.6828808190E-01   0.4590663076E-01  -0.7120867223E-01   0.0000000000E+00   0.0000000000E+00   0.2280246198E-02  -0.1484531264E-02  -0.9257127390E-03   0.0000000000E+00   0.0000000000E+00   0.0000000000E+00   0.2807270135E+00
   0.1092041549E+00   0.1150253179E+00   0.4498549426E-04  -0.1663280581E-04   0.4048694483E-03  -0.1496952523E-03   0.3223734432E+00  -0.5920159019E-01   0.7895155591E-01  -0.3057165412E-01   0.0000000000E+00   0.0000000000E+00   0.3164484535E-02  -0.1795990899E-02  -0.3974315036E-03   0.0000000000E+00   0.0000000000E+00   0.0000000000E+00   0.3392908901E+00
   0.2445926027E+00   0.1279267008E+00   0.7761527264E-04  -0.6299315114E-05   0.6985374537E-03  -0.5669383602E-04   0.2436881587E+00   0.4064497697E-02   0.7432579692E-01  -0.2830567646E-01   0.0000000000E+00   0.0000000000E+00   0.2201710703E-02  -0.9133968899E-03  -0.3679737939E-03   0.0000000000E+00   0.0000000000E+00   0.0000000000E+00   0.2188698942E+00
   0.1995241472E+00   0.1516307203E+00   0.6390942272E-04  -0.1108737186E-04   0.5751848045E-03  -0.9978634676E-04   0.2828910609E+00  -0.1760659486E-01   0.7958533980E-01  -0.2282012542E-01   0.0000000000E+00   0.0000000000E+00   0.2642974374E-02  -0.1263495151E-02  -0.2966616304E-03   0.0000000000E+00   0.0000000000E+00   0.0000000000E+00   0.2684694985E+00
   0.2060356410E+00   0.1443384264E+00   0.6657660111E-04  -0.9735160343E-05   0.5991894100E-03  -0.8761644309E-04   0.2732179400E+00  -0.1617591069E-01   0.7711260878E-01  -0.2672979523E-01   0.0000000000E+00   0.0000000000E+00   0.2549369305E-02  -0.1212750753E-02  -0.3474873380E-03   0.0000000000E+00   0.0000000000E+00   0.0000000000E+00   0.2599976415E+00
   0.1930934968E+00   0.1007656947E+00   0.7008648365E-04  -0.5492129963E-05   0.6307783528E-03  -0.4942916967E-04   0.2249924190E+00  -0.1749935482E-01   0.6224791926E-01  -0.4729077050E-01   0.0000000000E+00   0.0000000000E+00   0.2115678497E-02  -0.1036714563E-02  -0.6147800165E-03   0.0000000000E+00   0.0000000000E+00   0.0000000000E+00   0.2290285155E+00
   0.1422210371E+00   0.1240848387E+00   0.5287711363E-04  -0.1287893470E-04   0.4758940227E-03  -0.1159104123E-03   0.2956661381E+00  -0.5239827023E-01   0.7298036035E-01  -0.3107317134E-01   0.0000000000E+00   0.0000000000E+00   0.2894915110E-02  -0.1629922198E-02  -0.4039512274E-03   0.0000000000E+00   0.0000000000E+00   0.0000000000E+00   0.3099768831E+00
   0.1464347437E+00   0.1117852542E+00   0.5680516558E-04  -0.1039737675E-04   0.5112464902E-03  -0.9357639077E-04   0.2741967691E+00  -0.5311344587E-01   0.6632499696E-01  -0.4520252333E-01   0.0000000000E+00   0.0000000000E+00   0.2702333037E-02  -0.1552699757E-02  -0.5876328032E-03   0.0000000000E+00   0.0000000000E+00   0.0000000000E+00   0.2972019795E+00
   0.1591902980E+00   0.1175695978E+00   0.5894609992E-04  -0.9932122033E-05   0.5305148992E-03  -0.8938909830E-04   0.2714964865E+00  -0.4420165676E-01   0.6818844891E-01  -0.4124815024E-01   0.0000000000E+00   0.0000000000E+00   0.2643004488E-02  -0.1461071374E-02  -0.5362259531E-03   0.0000000000E+00   0.0000000000E+00   0.0000000000E+00   0.2862663769E+00
   0.1546443875E+00   0.1312526798E+00   0.5499144681E-04  -0.1247492150E-04   0.4949230213E-03  -0.1122742935E-03   0.2898998779E+00  -0.4632983762E-01   0.7307101210E-01  -0.2970149094E-01   0.0000000000E+00   0.0000000000E+00   0.2818775256E-02  -0.1552211046E-02  -0.3861193822E-03   0.0000000000E+00   0.0000000000E+00   0.0000000000E+00   0.2992416667E+00
   0.1643071046E+00   0.1518352092E+00   0.5418826213E-04  -0.1444307832E-04   0.4876943591E-03  -0.1299877049E-03   0.3040681129E+00  -0.3058947381E-01   0.8204359173E-01  -0.1506946818E-01   0.0000000000E+00   0.0000000000E+00   0.2886318775E-02  -0.1464229852E-02  -0.1959030864E-03   0.0000000000E+00   0.0000000000E+00   0.0000000000E+00   0.2959458414E+00
   0.1117678059E+00   0.1547160508E+00   0.3751218567E-04  -0.2321981897E-04   0.3376096710E-03  -0.2089783708E-03   0.3480111981E+00  -0.3308496412E-01   0.9447787018E-01   0.1646542864E-01   0.0000000000E+00   0.0000000000E+00   0.3295933262E-02  -0.1658316846E-02   0.2140505724E-03   0.0000000000E+00   0.0000000000E+00   0.0000000000E+00   0.3369686839E+00
   0.1377528914E+00   0.1345912006E+00   0.4939144433E-04  -0.1526834020E-04   0.4445229989E-03  -0.1374150618E-03   0.3232209202E+00  -0.4474279960E-01   0.8354343617E-01  -0.1734766346E-01   0.0000000000E+00   0.0000000000E+00   0.3115807292E-02  -0.1667721065E-02  -0.2255196250E-03   0.0000000000E+00   0.0000000000E+00   0.0000000000E+00   0.3245817144E+00
   0.1811581964E+00   0.1055880893E+00   0.6662424212E-04  -0.6643374937E-05   0.5996181790E-03  -0.5979037443E-04   0.2350622128E+00  -0.3002038944E-01   0.6151254702E-01  -0.4921352145E-01   0.0000000000E+00   0.0000000000E+00   0.2256145656E-02  -0.1189928174E-02  -0.6397757788E-03   0.0000000000E+00   0.0000000000E+00   0.0000000000E+00   0.2482034637E+00
   0.1515796133E+00   0.9995553827E-01   0.6090653366E-04  -0.8106772622E-05   0.5481588029E-03  -0.7296095360E-04   0.2438131385E+00  -0.4933639629E-01   0.5834302267E-01  -0.5577432542E-01   0.0000000000E+00   0.0000000000E+00   0.2411111506E-02  -0.1399832446E-02  -0.7250662305E-03   0.0000000000E+00   0.0000000000E+00   0.0000000000E+00   0.2742257393E+00
   0.1386986766E+00   0.9231444386E-01   0.5975906191E-04  -0.8300754298E-05   0.5378315572E-03  -0.7470678868E-04   0.2395190082E+00  -0.5953940286E-01   0.5399388161E-01  -0.6379623928E-01   0.0000000000E+00   0.0000000000E+00   0.2411826646E-02  -0.1475932698E-02  -0.8293511106E-03   0.0000000000E+00   0.0000000000E+00   0.0000000000E+00   0.2835387177E+00
   0.1564034963E+00   0.9048131675E-01   0.6427763313E-04  -0.6465044649E-05   0.5784986981E-03  -0.5818540184E-04   0.2170931948E+00  -0.5073691262E-01   0.4990688465E-01  -0.6590863813E-01   0.0000000000E+00   0.0000000000E+00   0.2173422032E-02  -0.1308369364E-02  -0.8568122957E-03   0.0000000000E+00   0.0000000000E+00   0.0000000000E+00   0.2603222738E+00
   0.1277553523E+00   0.1184301166E+00   0.4989733071E-04  -0.1402033992E-04   0.4490759764E-03  -0.1261830593E-03   0.3105436182E+00  -0.5748057727E-01   0.7591891227E-01  -0.3275015618E-01   0.0000000000E+00   0.0000000000E+00   0.3050121177E-02  -0.1734193364E-02  -0.4257520303E-03   0.0000000000E+00   0.0000000000E+00   0.0000000000E+00   0.3273140894E+00
   0.1264010808E+00   0.1329692964E+00   0.4616668466E-04  -0.1678555818E-04   0.4155001620E-03  -0.1510700236E-03   0.3208346002E+00  -0.5249384372E-01   0.8050222695E-01  -0.1592818799E-01   0.0000000000E+00   0.0000000000E+00   0.3124320852E-02  -0.1728948919E-02  -0.2070664438E-03   0.0000000000E+00   0.0000000000E+00   0.0000000000E+00   0.3289144362E+00
   0.1148708645E+00   0.1295353452E+00   0.4327255450E-04  -0.1823027997E-04   0.3894529905E-03  -0.1640725198E-03   0.3264051914E+00  -0.6094471186E-01   0.7963814385E-01  -0.1365434855E-01   0.0000000000E+00   0.0000000000E+00   0.3207971618E-02  -0.1827577124E-02  -0.1775065312E-03   0.0000000000E+00   0.0000000000E+00   0.0000000000E+00   0.3398463885E+00
   0.2297171896E+00   0.1294215156E+00   0.7412825571E-04  -0.6917238165E-05   0.6671543014E-03  -0.6225514349E-04   0.2492913382E+00  -0.2021076449E-02   0.7418107854E-01  -0.3033863089E-01   0.0000000000E+00   0.0000000000E+00   0.2276433376E-02  -0.9906280148E-03  -0.3944022015E-03   0.0000000000E+00   0.0000000000E+00   0.0000000000E+00   0.2292509657E+00
   0.2018011884E+00   0.1331508779E+00   0.6707083804E-04  -0.8646911476E-05   0.6036375423E-03  -0.7782220328E-04   0.2647666604E+00  -0.1532133764E-01   0.7483359683E-01  -0.3147418782E-01   0.0000000000E+00   0.0000000000E+00   0.2469129826E-02  -0.1172014148E-02  -0.4091644417E-03   0.0000000000E+00   0.0000000000E+00   0.0000000000E+00   0.2535242792E+00
   0.1982016217E+00   0.1180383184E+00   0.6844356555E-04  -0.7115359001E-05   0.6159920900E-03  -0.6403823101E-04   0.2481490327E+00  -0.1722710072E-01   0.6927657958E-01  -0.3902950987E-01   0.0000000000E+00   0.0000000000E+00   0.2325341890E-02  -0.1124547844E-02  -0.5073836284E-03   0.0000000000E+00   0.0000000000E+00   0.0000000000E+00   0.2439188141E+00
   0.2156128823E+00   0.1310817291E+00   0.7066372763E-04  -0.7683186389E-05   0.6359735486E-03  -0.6914867750E-04   0.2548298689E+00  -0.9408404573E-02   0.7362643931E-01  -0.3184627204E-01   0.0000000000E+00   0.0000000000E+00   0.2355644585E-02  -0.1079452971E-02  -0.4140015365E-03   0.0000000000E+00   0.0000000000E+00   0.0000000000E+00   0.2404231822E+00
   0.1089849742E+00   0.1383052721E+00   0.3948411807E-04  -0.2093359380E-04   0.3553570626E-03  -0.1884023442E-03   0.3460148822E+00  -0.4751596625E-01   0.8954967478E-01  -0.1802942791E-03   0.0000000000E+00   0.0000000000E+00   0.3334047696E-02  -0.1781853333E-02  -0.2343825628E-05   0.0000000000E+00   0.0000000000E+00   0.0000000000E+00   0.3458164630E+00
   0.1693224097E+00   0.1363775049E+00   0.5814066663E-04  -0.1163860653E-04   0.5232659997E-03  -0.1047474588E-03   0.2862712960E+00  -0.3661639549E-01   0.7489647016E-01  -0.2763772693E-01   0.0000000000E+00   0.0000000000E+00   0.2747872736E-02  -0.1449667253E-02  -0.3592904501E-03   0.0000000000E+00   0.0000000000E+00   0.0000000000E+00   0.2879623059E+00
   0.1869195092E+00   0.1395210953E+00   0.6234332283E-04  -0.1047667495E-04   0.5610899055E-03  -0.9429007455E-04   0.2779605026E+00  -0.2513712535E-01   0.7584701319E-01  -0.2801950146E-01   0.0000000000E+00   0.0000000000E+00   0.2627475363E-02  -0.1312793801E-02  -0.3642535189E-03   0.0000000000E+00   0.0000000000E+00   0.0000000000E+00   0.2716128396E+00
   0.1632688360E+00   0.1046276560E+00   0.6269980322E-04  -0.7753604266E-05   0.5642982290E-03  -0.6978243839E-04   0.2520776187E+00  -0.3840436370E-01   0.6410197650E-01  -0.4944017968E-01   0.0000000000E+00   0.0000000000E+00   0.2443683348E-02  -0.1332582423E-02  -0.6427223359E-03   0.0000000000E+00   0.0000000000E+00   0.0000000000E+00   0.2687500752E+00
   0.1850284197E+00   0.1213826732E+00   0.6476196547E-04  -0.8315181976E-05   0.5828576892E-03  -0.7483663778E-04   0.2585178757E+00  -0.2568741990E-01   0.6984913675E-01  -0.3812028285E-01   0.0000000000E+00   0.0000000000E+00   0.2452693607E-02  -0.1241975236E-02  -0.4955636770E-03   0.0000000000E+00   0.0000000000E+00   0.0000000000E+00   0.2588954540E+00
   0.1721590328E+00   0.1217200453E+00   0.6150317536E-04  -0.9326672378E-05   0.5535285782E-03  -0.8394005140E-04   0.2654736638E+00  -0.3578700465E-01   0.6890599775E-01  -0.3843182585E-01   0.0000000000E+00   0.0000000000E+00   0.2555379659E-02  -0.1361009031E-02  -0.4996137361E-03   0.0000000000E+00   0.0000000000E+00   0.0000000000E+00   0.2730236964E+00
   0.1161311658E+00   0.9802081152E-01   0.5218848362E-04  -0.1238612799E-04   0.4696963526E-03  -0.1114751519E-03   0.2747275648E+00  -0.6890825780E-01   0.6174579210E-01  -0.5661851971E-01   0.0000000000E+00   0.0000000000E+00   0.2768763045E-02  -0.1698502649E-02  -0.7360407562E-03   0.0000000000E+00   0.0000000000E+00   0.0000000000E+00   0.3157530971E+00
   0.1319644528E+00   0.1052034692E+00   0.5448988158E-04  -0.1114638387E-04   0.4904089342E-03  -0.1003174548E-03   0.2782268314E+00  -0.6192407997E-01   0.6489082542E-01  -0.4966566726E-01   0.0000000000E+00   0.0000000000E+00   0.2773368077E-02  -0.1648593770E-02  -0.6456536744E-03   0.0000000000E+00   0.0000000000E+00   0.0000000000E+00   0.3094234931E+00
   0.1724833658E+00   0.1102641942E+00   0.6374678220E-04  -0.7800280448E-05   0.5737210398E-03  -0.7020252403E-04   0.2425721975E+00  -0.3712397554E-01   0.6163446660E-01  -0.4722173163E-01   0.0000000000E+00   0.0000000000E+00   0.2352190502E-02  -0.1283859748E-02  -0.6138825113E-03   0.0000000000E+00   0.0000000000E+00   0.0000000000E+00   0.2588765410E+00
           1           2           3           4
           5           6           7           8
           9          10          11          12
          13          14          15          16
          17          18          19          20
          21          22          23          24
          25          26          27          28
          29          30          31          32
          33          34           4           3
           2           1          35          36
          37          38          39          40
          41          42          36          35
          43          41          44          45
          46           9          47          48
          41          35          39          44
          49          50          51          52
          52          51          53          54
          55          56          57          58
          56          59          60          57
          61          62          63          64
          65          66          67          68
          69          70          71          72
          73          74          25          28
          27          75          76          28
          77          78          24          23
          79          80          81          82
          83          84          85          86
          87          88          89          90
          90          89          62          91
          61          92          91          62
          92          61          59          93
          56          94          93          59
          95          55          54          53
          46          96          10           9
          97          98          99         100
          12         101          98          97
          97         100         102          47
         103         104          31          30
         105         103          30         106
          73         107         108         109
         110         111         112         113
          32          31         114         115
         116         117         118         119
         120         121         122         123
         121          83          86         122
          80         124         125          81
         126         127         128         129
         130         101          12          11
         131          43         101         130
          34         129         132           4
          42          41          43         131
          35           1          40          39
         101          43          45          98
         133         134         109         108
         135         136          13          16
         137         138          65          68
          94          56          55          95
          58         137          54          55
          49          52          68          67
         139         140         141         142
         140         139          82          81
          88          87         142         141
         143         144         145         146
         147          26          25         148
         149         150         128         151
           5           8         152         102
         132         129         128         150
         153         100          99         154
          48          47         102         152
          59          61          64          60
         106         155         113         118
          62          89         156          63
          88         157         156          89
         123         116         119         120
          66          65         134         133
         144         143          84          83
           9          12          97          47
         104         158         114          31
         159         160         127         126
         119         112         161         120
         117         105         106         118
         162         163         164         165
          83         121         166         144
         167         168         141         140
         167         143         146         168
           6         114         158           7
          38          37         169         170
          40         132         150          37
         160         159          20          19
          78         171         172          24
          18          17          21          24
         173         174          78          77
         132          40           1           4
          28          76         107          73
         175         176         177         178
         176         179          57          60
         137          68          52          54
          60          64         177         176
         163         162         155          29
          75          27         174         173
         180         174          27          26
          64          63         181         177
          98          45         182          99
         183         182          45          44
          38         183          44          39
          58          57         179         184
         185         181          63         156
         134         186         187         109
         188          74         187         189
         138         186         134          65
          88         141         168         157
         166         121         120         161
         190         191         166         161
         155         106          30          29
         192         193         194         195
         118         113         112         119
         125          84         143         167
         124          85          84         125
           6         196         115         114
         196           6           5         153
         197          32         115         198
         111         190         161         112
         199         148         188         135
         170         169         200         201
         202         164         163         197
         203         204         146         145
         205         206         201         200
         187          74          73         109
         176         175         207         179
         208         209          16          15
         210         186         138         184
         184         138         137          58
         179         207         210         184
         211         212         172         171
          78         174         180         171
         125         167         140          81
          37         150         149         169
         213         214         215         216
         217         182         183         201
         170         201         183          38
         218         219         206         205
         111         220         221         190
         157         168         146         204
         177         181         222         178
         222         181         185         223
         186         210         189         187
         224         191         190         221
         100         153           5         102
         185         156         157         204
         113         155         162         110
          26         147         193         180
          29          32         197         163
         225         226          19          18
         144         166         191         145
         212         192         227         228
         198         115         196         229
         206         154         217         201
         153         154         229         196
         172         225          18          24
         148          25          74         188
          14          13         175         178
         207         175          13         136
         189         136         135         188
         230         202         197         198
         210         207         136         189
         165         164         231         232
         169         149         233         200
         234         160          19         226
         217         154          99         182
         203         145         191         224
         151         235         233         149
         236         223         203         224
         185         204         203         223
         178         222         237          14
         110         162         165         238
         239         223         236         240
         238         220         111         110
         219         230         198         229
         241         242         232         243
         242          69         220         238
          72          71         240         236
         244         205         200         233
         215         231         164         202
         211         171         180         193
         228         225         172         212
         194         193         147         245
         245         147         148         199
         135          16         209         199
         209         208         246         247
         127         160         234         248
         193         192         212         211
         226         225         228         249
         151         128         127         248
         248         250         235         151
          72         221         220          69
          14         237         251          15
          70          69         252         253
         206         219         229         154
         238         165         232         242
          72         236         224         221
         216         215         202         230
         245         247         254         194
         255         256         257         258
         230         219         218         216
         214         259         231         215
         216         218         260         213
         261         255         258         214
         239         237         222         223
         194         254         262         195
         263         264         227         265
         250         266         267         268
         199         209         247         245
         240          71         269         251
         270         271         246         272
         260         244         273         213
         237         239         240         251
         218         205         244         260
          70         272         269          71
         232         231         259         243
         274         275         243         259
         257         256         263         276
         277         275         274         278
         234         226         249         279
         271         277         262         254
         271         254         247         246
         246         208         269         272
         244         233         235         273
         251         269         208          15
         275         270         253         252
         234         279         250         248
         279         249         264         280
         259         214         258         274
         262         281         276         195
         195         276         263         265
         257         276         281         278
         278         274         258         257
         266         280         256         255
         261         214         213         267
         267         266         255         261
         266         250         279         280
         228         227         264         249
         256         280         264         263
         265         227         192         195
         281         262         277         278
         235         250         268         273
         273         268         267         213
         277         271         270         275
         253         270         272          70
         252          69         242         241
         243         275         252         241
