 VARIABLES = X,Y,DU1,DU2,U1,U2,S11,S22,S33,S12,S13,S23,E11,E22,E12,E33,E13,E23,SMISES
 ZONE, T="0.1000D+01" F=FEPOINT, I=  281 J=  250
   0.1776219040E-01   0.1342015212E+00   0.7173700808E-05  -0.3627480944E-04   0.0000000000E+00   0.0000000000E+00   0.4298113056E-01   0.8091668001E-02   0.0000000000E+00   0.6414525988E-03   0.0000000000E+00   0.0000000000E+00   0.4055363016E-03  -0.4802671166E-04   0.1667776757E-04  -0.1532183957E-03   0.0000000000E+00   0.0000000000E+00   0.3936106343E-01
   0.0000000000E+00   0.1332962157E+00   0.0000000000E+00  -0.3712433844E-04   0.0000000000E+00   0.0000000000E+00   0.4336435997E-01   0.8629370251E-02   0.0000000000E+00   0.1215743930E-02   0.0000000000E+00   0.0000000000E+00   0.4077554889E-03  -0.4379937739E-04   0.3160934218E-04  -0.1559811907E-03   0.0000000000E+00   0.0000000000E+00   0.3975873831E-01
   0.0000000000E+00   0.1166306905E+00   0.0000000000E+00  -0.3597650796E-04   0.0000000000E+00   0.0000000000E+00   0.5515689421E-01   0.4534239481E-02   0.0000000000E+00   0.1046502822E-02   0.0000000000E+00   0.0000000000E+00   0.5379662237E-03  -0.1201282878E-03   0.2720907338E-04  -0.1790734011E-03   0.0000000000E+00   0.0000000000E+00   0.5302451788E-01
   0.1916414406E-01   0.1162562403E+00   0.1000706109E-04  -0.3494770620E-04   0.0000000000E+00   0.0000000000E+00   0.5054499995E-01   0.4474806890E-02   0.0000000000E+00  -0.4502547359E-02   0.0000000000E+00   0.0000000000E+00   0.4920255788E-03  -0.1068869309E-03  -0.1170662313E-03  -0.1650594205E-03   0.0000000000E+00   0.0000000000E+00   0.4936972143E-01
   0.7802001526E-01   0.2318422409E+00   0.1851606492E-04  -0.3416214462E-04   0.0000000000E+00   0.0000000000E+00   0.2645003495E-01  -0.8420543003E-05   0.0000000000E+00   0.1821795984E-02   0.0000000000E+00   0.0000000000E+00   0.2645256111E-03  -0.7943431027E-04   0.4736669559E-04  -0.7932484321E-04   0.0000000000E+00   0.0000000000E+00   0.2665435598E-01
   0.9780187799E-01   0.2320246511E+00   0.2387809382E-04  -0.3061086520E-04   0.0000000000E+00   0.0000000000E+00   0.2797315444E-01  -0.1387037986E-03   0.0000000000E+00   0.1659666511E-02   0.0000000000E+00   0.0000000000E+00   0.2801476557E-03  -0.8530650129E-04   0.4315132929E-04  -0.8350335191E-04   0.0000000000E+00   0.0000000000E+00   0.2819935751E-01
   0.9724316290E-01   0.2499677865E+00   0.2093899991E-04  -0.3221346831E-04   0.0000000000E+00   0.0000000000E+00   0.2731044673E-01  -0.9915065997E-04   0.0000000000E+00   0.5855126702E-03   0.0000000000E+00   0.0000000000E+00   0.2734019193E-03  -0.8292284680E-04   0.1522332943E-04  -0.8163388822E-04   0.0000000000E+00   0.0000000000E+00   0.2735479898E-01
   0.7779364916E-01   0.2499644057E+00   0.1586856091E-04  -0.3559431363E-04   0.0000000000E+00   0.0000000000E+00   0.2474155673E-01  -0.1536946896E-03   0.0000000000E+00   0.6478984011E-03   0.0000000000E+00   0.0000000000E+00   0.2478766514E-03  -0.7576161710E-04   0.1684535843E-04  -0.7376358614E-04   0.0000000000E+00   0.0000000000E+00   0.2481689820E-01
   0.1910238492E-01   0.2332811256E+00   0.4194324500E-05  -0.4170336085E-04   0.0000000000E+00   0.0000000000E+00   0.2235752641E-01   0.5340376471E-03   0.0000000000E+00   0.5101693962E-03   0.0000000000E+00   0.0000000000E+00   0.2219731511E-03  -0.6173220275E-04   0.1326440430E-04  -0.6867469217E-04   0.0000000000E+00   0.0000000000E+00   0.2214921845E-01
   0.0000000000E+00   0.2332910807E+00   0.0000000000E+00  -0.4225327452E-04   0.0000000000E+00   0.0000000000E+00   0.2199515558E-01   0.5708677966E-03   0.0000000000E+00   0.6447966377E-03   0.0000000000E+00   0.0000000000E+00   0.2182389524E-03  -0.6027678878E-04   0.1676471258E-04  -0.6769807014E-04   0.0000000000E+00   0.0000000000E+00   0.2173603539E-01
   0.0000000000E+00   0.2166254594E+00   0.0000000000E+00  -0.4120955512E-04   0.0000000000E+00   0.0000000000E+00   0.2507606047E-01   0.1286201231E-02   0.0000000000E+00   0.6537352829E-03   0.0000000000E+00   0.0000000000E+00   0.2469020010E-03  -0.6236616911E-04   0.1699711736E-04  -0.7908678512E-04   0.0000000000E+00   0.0000000000E+00   0.2446951682E-01
   0.1853688910E-01   0.2167339371E+00   0.4594296533E-05  -0.4067589180E-04   0.0000000000E+00   0.0000000000E+00   0.2531966658E-01   0.1181546340E-02   0.0000000000E+00   0.1023844522E-02   0.0000000000E+00   0.0000000000E+00   0.2496520268E-03  -0.6414353634E-04   0.2661995757E-04  -0.7950363876E-04   0.0000000000E+00   0.0000000000E+00   0.2484578911E-01
   0.2572888131E+00   0.9227279027E-01   0.8332712020E-04  -0.1480726220E-05   0.0000000000E+00   0.0000000000E+00   0.1863962946E-01   0.1748904019E-02   0.0000000000E+00  -0.2548239298E-02   0.0000000000E+00   0.0000000000E+00   0.1811495825E-03  -0.3842984818E-04  -0.6625422174E-04  -0.6116560042E-04   0.0000000000E+00   0.0000000000E+00   0.1836320023E-01
   0.2586834097E+00   0.1102836891E+00   0.8213167433E-04  -0.2240886236E-05   0.0000000000E+00   0.0000000000E+00   0.2035720993E-01   0.1290074377E-02   0.0000000000E+00  -0.2448721304E-02   0.0000000000E+00   0.0000000000E+00   0.1997018761E-03  -0.4817088601E-04  -0.6366675391E-04  -0.6494185291E-04   0.0000000000E+00   0.0000000000E+00   0.2019001326E-01
   0.2419342545E+00   0.1106740435E+00   0.7872254551E-04  -0.2625452180E-05   0.0000000000E+00   0.0000000000E+00   0.2056351884E-01   0.6903282207E-03   0.0000000000E+00  -0.2883859442E-02   0.0000000000E+00   0.0000000000E+00   0.2035642037E-03  -0.5478727431E-04  -0.7498034548E-04  -0.6376154118E-04   0.0000000000E+00   0.0000000000E+00   0.2083069977E-01
   0.2394601773E+00   0.9267953908E-01   0.8004134111E-04  -0.1779416926E-05   0.0000000000E+00   0.0000000000E+00   0.1869635381E-01   0.1120968037E-02   0.0000000000E+00  -0.3101872257E-02   0.0000000000E+00   0.0000000000E+00   0.1836006340E-03  -0.4487938106E-04  -0.8064867867E-04  -0.5945196554E-04   0.0000000000E+00   0.0000000000E+00   0.1893381626E-01
   0.9245912452E-01   0.3825758948E-01   0.7117262020E-04  -0.1075312325E-04   0.0000000000E+00   0.0000000000E+00  -0.2335783728E-02  -0.1568528479E-01   0.0000000000E+00   0.2428165100E-02   0.0000000000E+00   0.0000000000E+00   0.2369801708E-04  -0.1498454967E-03   0.6313229261E-04   0.5406320554E-04   0.0000000000E+00   0.0000000000E+00   0.1399606186E-01
   0.1081163276E+00   0.4609181454E-01   0.6946764023E-04  -0.6726961335E-05   0.0000000000E+00   0.0000000000E+00   0.5040675797E-02  -0.6981167314E-02   0.0000000000E+00  -0.3360238182E-02   0.0000000000E+00   0.0000000000E+00   0.7135025991E-04  -0.8493370053E-04  -0.8736619272E-04   0.5821474551E-05   0.0000000000E+00   0.0000000000E+00   0.1105917362E-01
   0.9617264920E-01   0.6353063836E-01   0.6155280127E-04  -0.1155633551E-04   0.0000000000E+00   0.0000000000E+00   0.1043862381E-01  -0.4106354286E-02   0.0000000000E+00  -0.5036284467E-02   0.0000000000E+00   0.0000000000E+00   0.1167053010E-03  -0.7237941429E-04  -0.1309433961E-03  -0.1899680857E-04   0.0000000000E+00   0.0000000000E+00   0.1565175752E-01
   0.8321135234E-01   0.5554079021E-01   0.6439283980E-04  -0.1623348976E-04   0.0000000000E+00   0.0000000000E+00   0.3028716456E-02  -0.3454667077E-02   0.0000000000E+00  -0.1549105701E-02   0.0000000000E+00   0.0000000000E+00   0.4065116579E-04  -0.4363282013E-04  -0.4027674823E-04   0.1277851863E-05   0.0000000000E+00   0.0000000000E+00   0.6612720475E-02
   0.9815356891E-01   0.1950372225E-01   0.7504231292E-04  -0.5310154320E-05   0.0000000000E+00   0.0000000000E+00  -0.2321827724E-02  -0.2504457822E-01   0.0000000000E+00   0.3388808751E-02   0.0000000000E+00   0.0000000000E+00   0.5191545743E-04  -0.2434802991E-03   0.8810902754E-04   0.8209921785E-04   0.0000000000E+00   0.0000000000E+00   0.2382030126E-01
   0.1000766902E+00   0.0000000000E+00   0.7668918340E-04   0.0000000000E+00   0.0000000000E+00   0.0000000000E+00  -0.3262738724E-02  -0.2690911054E-01   0.0000000000E+00  -0.1845922648E-02   0.0000000000E+00   0.0000000000E+00   0.4809994438E-04  -0.2593028892E-03  -0.4799398886E-04   0.9051554779E-04   0.0000000000E+00   0.0000000000E+00   0.2550657825E-01
   0.1209110226E+00   0.0000000000E+00   0.7769259034E-04   0.0000000000E+00   0.0000000000E+00   0.0000000000E+00  -0.1710857757E-04  -0.9251262731E-02   0.0000000000E+00  -0.2068689335E-02   0.0000000000E+00   0.0000000000E+00   0.2758270242E-04  -0.9246130158E-04  -0.5378592272E-04   0.2780511393E-04   0.0000000000E+00   0.0000000000E+00   0.9681086688E-02
   0.1218062454E+00   0.2610986502E-01   0.7538143686E-04  -0.2443679755E-05   0.0000000000E+00   0.0000000000E+00   0.2355796656E-02  -0.8711274379E-02   0.0000000000E+00  -0.2195919469E-02   0.0000000000E+00   0.0000000000E+00   0.4969178970E-04  -0.9418013376E-04  -0.5709390620E-04   0.1906643317E-04   0.0000000000E+00   0.0000000000E+00   0.1128009113E-01
   0.2106251114E+00   0.3763284513E-01   0.8097243763E-04  -0.3876730188E-06   0.0000000000E+00   0.0000000000E+00   0.1213787771E-01   0.1859101657E-02   0.0000000000E+00  -0.2824219113E-02   0.0000000000E+00   0.0000000000E+00   0.1158014722E-03  -0.1782261657E-04  -0.7342969693E-04  -0.4199093811E-04   0.0000000000E+00   0.0000000000E+00   0.1229793168E-01
   0.1905365786E+00   0.3838192812E-01   0.7866855081E-04  -0.5722780739E-06   0.0000000000E+00   0.0000000000E+00   0.1095244746E-01   0.7127708287E-03   0.0000000000E+00  -0.3635508235E-02   0.0000000000E+00   0.0000000000E+00   0.1073861621E-03  -0.2572963409E-04  -0.9452321410E-04  -0.3499565486E-04   0.0000000000E+00   0.0000000000E+00   0.1228591024E-01
   0.1867880458E+00   0.1901268563E-01   0.7989382484E-04  -0.2349657289E-06   0.0000000000E+00   0.0000000000E+00   0.8661316795E-02   0.1137337666E-02   0.0000000000E+00  -0.1774933520E-02   0.0000000000E+00   0.0000000000E+00   0.8320115495E-04  -0.1461057372E-04  -0.4614827151E-04  -0.2939596338E-04   0.0000000000E+00   0.0000000000E+00   0.8788859207E-02
   0.2073140652E+00   0.1873787757E-01   0.8178322220E-04  -0.1463252366E-06   0.0000000000E+00   0.0000000000E+00   0.1054831605E-01   0.2162032589E-02   0.0000000000E+00  -0.1407398091E-02   0.0000000000E+00   0.0000000000E+00   0.9899706274E-04  -0.1002462226E-04  -0.3659235036E-04  -0.3813104592E-04   0.0000000000E+00   0.0000000000E+00   0.9986421465E-02
   0.1574670800E+00   0.2159385856E+00   0.4373295765E-04  -0.1886243751E-04   0.0000000000E+00   0.0000000000E+00   0.3024194348E-01  -0.6646188425E-03   0.0000000000E+00   0.7983564662E-03   0.0000000000E+00   0.0000000000E+00   0.3044132913E-03  -0.9737201885E-04   0.2075726812E-04  -0.8873197390E-04   0.0000000000E+00   0.0000000000E+00   0.3060919825E-01
   0.1564939630E+00   0.2325848963E+00   0.4129203372E-04  -0.2060565788E-04   0.0000000000E+00   0.0000000000E+00   0.3099303410E-01  -0.2802237474E-03   0.0000000000E+00   0.4990252770E-03   0.0000000000E+00   0.0000000000E+00   0.3107710122E-03  -0.9578133976E-04   0.1297465720E-04  -0.9213843104E-04   0.0000000000E+00   0.0000000000E+00   0.3114868322E-01
   0.1370146645E+00   0.2326064667E+00   0.3529354858E-04  -0.2366734658E-04   0.0000000000E+00   0.0000000000E+00   0.3034806143E-01  -0.2899803247E-03   0.0000000000E+00   0.8933159737E-03   0.0000000000E+00   0.0000000000E+00   0.3043505552E-03  -0.9394398753E-04   0.2322621532E-04  -0.9017424330E-04   0.0000000000E+00   0.0000000000E+00   0.3053694272E-01
   0.1382530298E+00   0.2157909144E+00   0.3791982871E-04  -0.2185864502E-04   0.0000000000E+00   0.0000000000E+00   0.3001772596E-01  -0.7394214135E-03   0.0000000000E+00   0.1477779681E-02   0.0000000000E+00   0.0000000000E+00   0.3023955238E-03  -0.9744739201E-04   0.3842227170E-04  -0.8783491363E-04   0.0000000000E+00   0.0000000000E+00   0.3049613094E-01
   0.0000000000E+00   0.9996680020E-01   0.0000000000E+00  -0.3320080307E-04   0.0000000000E+00   0.0000000000E+00   0.8210764044E-01   0.5706868121E-02   0.0000000000E+00   0.1152803953E-02   0.0000000000E+00   0.0000000000E+00   0.8039558000E-03  -0.1892542401E-03   0.2997290277E-04  -0.2634435257E-03   0.0000000000E+00   0.0000000000E+00   0.7882332716E-01
   0.1952450480E-01   0.9804632225E-01   0.1547240370E-04  -0.3220434981E-04   0.0000000000E+00   0.0000000000E+00   0.7602026516E-01   0.5718136681E-02   0.0000000000E+00  -0.1141142076E-01   0.0000000000E+00   0.0000000000E+00   0.7430482415E-03  -0.1708794287E-03  -0.2966969397E-03  -0.2452152055E-03   0.0000000000E+00   0.0000000000E+00   0.7530658984E-01
   0.1680491119E-01   0.1512995275E+00   0.5852394331E-05  -0.3718747266E-04   0.0000000000E+00   0.0000000000E+00   0.3675171764E-01   0.6222643242E-02   0.0000000000E+00   0.1106229289E-02   0.0000000000E+00   0.0000000000E+00   0.3488492467E-03  -0.4802872051E-04   0.2876196152E-04  -0.1289230826E-03   0.0000000000E+00   0.0000000000E+00   0.3423683844E-01
   0.0000000000E+00   0.1499621999E+00   0.0000000000E+00  -0.3780606723E-04   0.0000000000E+00   0.0000000000E+00   0.3711268542E-01   0.7081500214E-02   0.0000000000E+00   0.9289379163E-03   0.0000000000E+00   0.0000000000E+00   0.3498823535E-03  -0.4052305411E-04   0.2415238582E-04  -0.1325825569E-03   0.0000000000E+00   0.0000000000E+00   0.3416530204E-01
   0.5107385144E-01   0.1386384203E+00   0.1954134279E-04  -0.3121966648E-04   0.0000000000E+00   0.0000000000E+00   0.3798490579E-01   0.2416036489E-02   0.0000000000E+00   0.1912229159E-02   0.0000000000E+00   0.0000000000E+00   0.3726009484E-03  -0.8979435247E-04   0.4971795814E-04  -0.1212028268E-03   0.0000000000E+00   0.0000000000E+00   0.3696052281E-01
   0.4906374087E-01   0.1540270873E+00   0.1683707346E-04  -0.3288874068E-04   0.0000000000E+00   0.0000000000E+00   0.3519226791E-01   0.2659599131E-02   0.0000000000E+00   0.3063745769E-02   0.0000000000E+00   0.0000000000E+00   0.3439438817E-03  -0.7898081242E-04   0.7965738998E-04  -0.1135556011E-03   0.0000000000E+00   0.0000000000E+00   0.3436028218E-01
   0.3318692857E-01   0.1527010332E+00   0.1146386679E-04  -0.3542183320E-04   0.0000000000E+00   0.0000000000E+00   0.3616540173E-01   0.4711770955E-02   0.0000000000E+00   0.2333483478E-02   0.0000000000E+00   0.0000000000E+00   0.3475187044E-03  -0.6137849564E-04   0.6067057042E-04  -0.1226315181E-03   0.0000000000E+00   0.0000000000E+00   0.3443468869E-01
   0.3438507916E-01   0.1357056517E+00   0.1360255597E-04  -0.3413630513E-04   0.0000000000E+00   0.0000000000E+00   0.3999968171E-01   0.4895033073E-02   0.0000000000E+00   0.2369035105E-02   0.0000000000E+00   0.0000000000E+00   0.3853117179E-03  -0.7104871442E-04   0.6159491272E-04  -0.1346841444E-03   0.0000000000E+00   0.0000000000E+00   0.3749580159E-01
   0.1668992605E-01   0.1677651682E+00   0.5259745871E-05  -0.3796982941E-04   0.0000000000E+00   0.0000000000E+00   0.3319899499E-01   0.5147438382E-02   0.0000000000E+00   0.1361687679E-02   0.0000000000E+00   0.0000000000E+00   0.3165476348E-03  -0.4812260115E-04   0.3540387964E-04  -0.1150393001E-03   0.0000000000E+00   0.0000000000E+00   0.3105543684E-01
   0.0000000000E+00   0.1666281804E+00   0.0000000000E+00  -0.3849155194E-04   0.0000000000E+00   0.0000000000E+00   0.3323183073E-01   0.5614048711E-02   0.0000000000E+00   0.7842628378E-03   0.0000000000E+00   0.0000000000E+00   0.3154761611E-03  -0.4355500508E-04   0.2039083378E-04  -0.1165376383E-03   0.0000000000E+00   0.0000000000E+00   0.3081505129E-01
   0.1709644152E-01   0.1840867370E+00   0.4979124603E-05  -0.3879096543E-04   0.0000000000E+00   0.0000000000E+00   0.3034978134E-01   0.3629443515E-02   0.0000000000E+00   0.1334805736E-02   0.0000000000E+00   0.0000000000E+00   0.2926094828E-03  -0.5475490886E-04   0.3470494915E-04  -0.1019376746E-03   0.0000000000E+00   0.0000000000E+00   0.2883792357E-01
   0.3340103855E-01   0.1685705281E+00   0.1052775111E-04  -0.3636385582E-04   0.0000000000E+00   0.0000000000E+00   0.3297279123E-01   0.3766170882E-02   0.0000000000E+00   0.2929458268E-02   0.0000000000E+00   0.0000000000E+00   0.3184293996E-03  -0.6125666486E-04   0.7616591498E-04  -0.1102168863E-03   0.0000000000E+00   0.0000000000E+00   0.3160859342E-01
   0.3452340210E-01   0.1842420216E+00   0.1009999946E-04  -0.3721135049E-04   0.0000000000E+00   0.0000000000E+00   0.3045143373E-01   0.2764387829E-02   0.0000000000E+00   0.2826650696E-02   0.0000000000E+00   0.0000000000E+00   0.2962211738E-03  -0.6371042290E-04   0.7349291809E-04  -0.9964746468E-04   0.0000000000E+00   0.0000000000E+00   0.2957367394E-01
   0.1944794406E-01   0.2499573260E+00   0.3498958293E-05  -0.4267398575E-04   0.0000000000E+00   0.0000000000E+00   0.1825981713E-01  -0.3228496915E-03   0.0000000000E+00   0.9250161054E-04   0.0000000000E+00   0.0000000000E+00   0.1835667204E-03  -0.5800794831E-04   0.2405041874E-05  -0.5381090232E-04   0.0000000000E+00   0.0000000000E+00   0.1845199392E-01
   0.3848642411E-01   0.2329042271E+00   0.8608407358E-05  -0.4005294358E-04   0.0000000000E+00   0.0000000000E+00   0.2336927357E-01   0.4119392998E-03   0.0000000000E+00   0.1323809446E-02   0.0000000000E+00   0.0000000000E+00   0.2324569178E-03  -0.6598842770E-04   0.3441904558E-04  -0.7134363860E-04   0.0000000000E+00   0.0000000000E+00   0.2329342837E-01
   0.3889609838E-01   0.2499589086E+00   0.7208076002E-05  -0.4109136650E-04   0.0000000000E+00   0.0000000000E+00   0.1984345817E-01  -0.2781059535E-03   0.0000000000E+00   0.5218526687E-03   0.0000000000E+00   0.0000000000E+00   0.1992688995E-03  -0.6231143404E-04   0.1356816939E-04  -0.5869605665E-04   0.0000000000E+00   0.0000000000E+00   0.2000216256E-01
   0.3292637960E+00   0.0000000000E+00   0.9711503874E-04   0.0000000000E+00   0.0000000000E+00   0.0000000000E+00   0.1510290186E-01   0.4367044303E-02   0.0000000000E+00  -0.4585638481E-04   0.0000000000E+00   0.0000000000E+00   0.1379278857E-03  -0.1638262541E-05  -0.1192266005E-05  -0.5840983848E-04   0.0000000000E+00   0.0000000000E+00   0.1346133098E-01
   0.3500999940E+00   0.0000000000E+00   0.1000000000E-03   0.0000000000E+00   0.0000000000E+00   0.0000000000E+00   0.1519153081E-01   0.4394259243E-02   0.0000000000E+00  -0.2758615538E-06   0.0000000000E+00   0.0000000000E+00   0.1387325304E-03  -0.1632000017E-05  -0.7172400398E-08  -0.5875737017E-04   0.0000000000E+00   0.0000000000E+00   0.1354015503E-01
   0.3500999940E+00   0.1923073063E-01   0.1000000000E-03  -0.3927361594E-07   0.0000000000E+00   0.0000000000E+00   0.1535726878E-01   0.4320328993E-02   0.0000000000E+00  -0.5594989224E-07   0.0000000000E+00   0.0000000000E+00   0.1406117008E-03  -0.2868516398E-05  -0.1454697198E-08  -0.5903279331E-04   0.0000000000E+00   0.0000000000E+00   0.1371663859E-01
   0.3298599466E+00   0.1871450705E-01   0.9715960959E-04  -0.3825040932E-07   0.0000000000E+00   0.0000000000E+00   0.1527753253E-01   0.4297118700E-02   0.0000000000E+00  -0.1405635098E-03   0.0000000000E+00   0.0000000000E+00   0.1398839692E-03  -0.2861410598E-05  -0.3654651256E-05  -0.5872395369E-04   0.0000000000E+00   0.0000000000E+00   0.1364798004E-01
   0.3500999940E+00   0.3846141397E-01   0.1000000000E-03  -0.1259314826E-06   0.0000000000E+00   0.0000000000E+00   0.1586031905E-01   0.4104698232E-02   0.0000000000E+00   0.1575613225E-05   0.0000000000E+00   0.0000000000E+00   0.1462890958E-03  -0.6533974825E-05   0.4096594384E-07  -0.5989505184E-04   0.0000000000E+00   0.0000000000E+00   0.1425631747E-01
   0.3303029378E+00   0.3768290948E-01   0.9710983635E-04  -0.1230206226E-06   0.0000000000E+00   0.0000000000E+00   0.1579465389E-01   0.4090290117E-02   0.0000000000E+00  -0.2924881546E-03   0.0000000000E+00   0.0000000000E+00   0.1456756686E-03  -0.6481060502E-05  -0.7604692020E-05  -0.5965483202E-04   0.0000000000E+00   0.0000000000E+00   0.1420524510E-01
   0.3306554928E+00   0.5676242638E-01   0.9698375451E-04  -0.2987199771E-06   0.0000000000E+00   0.0000000000E+00   0.1662596992E-01   0.3759088937E-02   0.0000000000E+00  -0.3954741851E-03   0.0000000000E+00   0.0000000000E+00   0.1549824324E-03  -0.1228702039E-04  -0.1028232881E-04  -0.6115517657E-04   0.0000000000E+00   0.0000000000E+00   0.1511375216E-01
   0.3309344622E+00   0.7595604564E-01   0.9679521264E-04  -0.6044565700E-06   0.0000000000E+00   0.0000000000E+00   0.1772443102E-01   0.3332092393E-02   0.0000000000E+00  -0.4703190948E-03   0.0000000000E+00   0.0000000000E+00   0.1672480331E-03  -0.1985236914E-04  -0.1222829646E-04  -0.6316957025E-04   0.0000000000E+00   0.0000000000E+00   0.1633183200E-01
   0.3119051777E+00   0.7514488943E-01   0.9364067592E-04  -0.6233693490E-06   0.0000000000E+00   0.0000000000E+00   0.1756799013E-01   0.3216446954E-02   0.0000000000E+00  -0.9322018800E-03   0.0000000000E+00   0.0000000000E+00   0.1660305604E-03  -0.2053950084E-04  -0.2423724888E-04  -0.6235331125E-04   0.0000000000E+00   0.0000000000E+00   0.1627752521E-01
   0.3112389195E+00   0.5605288966E-01   0.9400147928E-04  -0.3092443953E-06   0.0000000000E+00   0.0000000000E+00   0.1642870125E-01   0.3652553112E-02   0.0000000000E+00  -0.7891390296E-03   0.0000000000E+00   0.0000000000E+00   0.1533293532E-03  -0.1276057263E-04  -0.2051761477E-04  -0.6024376309E-04   0.0000000000E+00   0.0000000000E+00   0.1500040398E-01
   0.3310789024E+00   0.9525492975E-01   0.9654537556E-04  -0.1071050767E-05   0.0000000000E+00   0.0000000000E+00   0.1903068944E-01   0.2839016242E-02   0.0000000000E+00  -0.5100550448E-03   0.0000000000E+00   0.0000000000E+00   0.1817898457E-03  -0.2870190590E-04  -0.1326143117E-04  -0.6560911705E-04   0.0000000000E+00   0.0000000000E+00   0.1779977433E-01
   0.3122818110E+00   0.9439951913E-01   0.9315601985E-04  -0.1102871346E-05   0.0000000000E+00   0.0000000000E+00   0.1891690243E-01   0.2719995459E-02   0.0000000000E+00  -0.1003065893E-02   0.0000000000E+00   0.0000000000E+00   0.1810090380E-03  -0.2955075271E-04  -0.2607971321E-04  -0.6491069368E-04   0.0000000000E+00   0.0000000000E+00   0.1779578242E-01
   0.3310650346E+00   0.1147078422E+00   0.9623759778E-04  -0.1721778702E-05   0.0000000000E+00   0.0000000000E+00   0.2048785532E-01   0.2317752850E-02   0.0000000000E+00  -0.5215246074E-03   0.0000000000E+00   0.0000000000E+00   0.1979252946E-03  -0.3828603746E-04  -0.1355963979E-04  -0.6841682451E-04   0.0000000000E+00   0.0000000000E+00   0.1945017602E-01
   0.3309235681E+00   0.1342724671E+00   0.9588511024E-04  -0.2566868807E-05   0.0000000000E+00   0.0000000000E+00   0.2202996234E-01   0.1803137118E-02   0.0000000000E+00  -0.5015649241E-03   0.0000000000E+00   0.0000000000E+00   0.2148902121E-03  -0.4805851585E-04  -0.1304068803E-04  -0.7149929838E-04   0.0000000000E+00   0.0000000000E+00   0.2120068221E-01
   0.3118896625E+00   0.1337910236E+00   0.9180551823E-04  -0.2658444113E-05   0.0000000000E+00   0.0000000000E+00   0.2202958440E-01   0.1676744750E-02   0.0000000000E+00  -0.9757692275E-03   0.0000000000E+00   0.0000000000E+00   0.2152656097E-03  -0.4932130570E-04  -0.2536999992E-04  -0.7111898745E-04   0.0000000000E+00   0.0000000000E+00   0.2130628633E-01
   0.3122785452E+00   0.1139337483E+00   0.9254222017E-04  -0.1774655076E-05   0.0000000000E+00   0.0000000000E+00   0.2042433080E-01   0.2188956584E-02   0.0000000000E+00  -0.1015512527E-02   0.0000000000E+00   0.0000000000E+00   0.1976764382E-03  -0.3938342656E-04  -0.2640332571E-04  -0.6783986215E-04   0.0000000000E+00   0.0000000000E+00   0.1949952822E-01
   0.2890871259E+00   0.1826412635E-01   0.9156189856E-04  -0.4625408251E-07   0.0000000000E+00   0.0000000000E+00   0.1459428744E-01   0.4032814787E-02   0.0000000000E+00  -0.4354605611E-03   0.0000000000E+00   0.0000000000E+00   0.1338444300E-03  -0.3454714446E-05  -0.1132197459E-04  -0.5588130667E-04   0.0000000000E+00   0.0000000000E+00   0.1307703311E-01
   0.2875914746E+00   0.0000000000E+00   0.9148055335E-04   0.0000000000E+00   0.0000000000E+00   0.0000000000E+00   0.1436240250E-01   0.4099883063E-02   0.0000000000E+00  -0.1440457461E-03   0.0000000000E+00   0.0000000000E+00   0.1313243758E-03  -0.2088376876E-05  -0.3745189398E-05  -0.5538685669E-04   0.0000000000E+00   0.0000000000E+00   0.1281212602E-01
   0.3084276005E+00   0.0000000000E+00   0.9426351416E-04   0.0000000000E+00   0.0000000000E+00   0.0000000000E+00   0.1483135326E-01   0.4270444129E-02   0.0000000000E+00  -0.9266826326E-04   0.0000000000E+00   0.0000000000E+00   0.1355022002E-03  -0.1789618479E-05  -0.2409374845E-05  -0.5730539216E-04   0.0000000000E+00   0.0000000000E+00   0.1322299211E-01
   0.3094819555E+00   0.1840621272E-01   0.9433151943E-04  -0.4058067522E-07   0.0000000000E+00   0.0000000000E+00   0.1502202893E-01   0.4201653420E-02   0.0000000000E+00  -0.2819237112E-03   0.0000000000E+00   0.0000000000E+00   0.1376153290E-03  -0.3049552585E-05  -0.7330016492E-05  -0.5767104704E-04   0.0000000000E+00   0.0000000000E+00   0.1343292624E-01
   0.2122730836E+00   0.1636827504E+00   0.6587058204E-04  -0.7861648467E-05   0.0000000000E+00   0.0000000000E+00   0.2621716253E-01  -0.9103207551E-03   0.0000000000E+00  -0.1761377944E-02   0.0000000000E+00   0.0000000000E+00   0.2649025875E-03  -0.8775469513E-04  -0.4579582654E-04  -0.7592052531E-04   0.0000000000E+00   0.0000000000E+00   0.2685531595E-01
   0.2163773995E+00   0.1467630826E+00   0.6891048186E-04  -0.6172413349E-05   0.0000000000E+00   0.0000000000E+00   0.2452549926E-01  -0.9219231428E-03   0.0000000000E+00  -0.2410665107E-02   0.0000000000E+00   0.0000000000E+00   0.2480207621E-03  -0.8279572921E-04  -0.6267729279E-04  -0.7081072836E-04   0.0000000000E+00   0.0000000000E+00   0.2533837521E-01
   0.2310274931E+00   0.1467303073E+00   0.7251813074E-04  -0.5390745667E-05   0.0000000000E+00   0.0000000000E+00   0.2426596424E-01  -0.3294973117E-03   0.0000000000E+00  -0.2261285789E-02   0.0000000000E+00   0.0000000000E+00   0.2436481343E-03  -0.7609286583E-04  -0.5879343051E-04  -0.7180940078E-04   0.0000000000E+00   0.0000000000E+00   0.2474269302E-01
   0.2322202436E+00   0.1630985700E+00   0.7113459479E-04  -0.6605018358E-05   0.0000000000E+00   0.0000000000E+00   0.2564643425E-01  -0.3036379194E-03   0.0000000000E+00  -0.1800352873E-02   0.0000000000E+00   0.0000000000E+00   0.2573752563E-03  -0.7997568196E-04  -0.4680917470E-04  -0.7602838900E-04   0.0000000000E+00   0.0000000000E+00   0.2598662175E-01
   0.2278494120E+00   0.1845699293E-01   0.8395598345E-04  -0.9936692280E-07   0.0000000000E+00   0.0000000000E+00   0.1199752156E-01   0.2899009289E-02   0.0000000000E+00  -0.1078974285E-02   0.0000000000E+00   0.0000000000E+00   0.1112781878E-03  -0.7002471794E-05  -0.2805333142E-04  -0.4468959255E-04   0.0000000000E+00   0.0000000000E+00   0.1101981630E-01
   0.2307017071E+00   0.3704788895E-01   0.8342411208E-04  -0.2758542324E-06   0.0000000000E+00   0.0000000000E+00   0.1319673784E-01   0.2605163821E-02   0.0000000000E+00  -0.2178030096E-02   0.0000000000E+00   0.0000000000E+00   0.1241518870E-03  -0.1353857532E-04  -0.5662878251E-04  -0.4740570500E-04   0.0000000000E+00   0.0000000000E+00   0.1265640463E-01
   0.1834135099E+00   0.0000000000E+00   0.8017289214E-04   0.0000000000E+00   0.0000000000E+00   0.0000000000E+00   0.7740173413E-02   0.1118628192E-02   0.0000000000E+00  -0.6528480885E-03   0.0000000000E+00   0.0000000000E+00   0.7404584956E-04  -0.1203423832E-04  -0.1697405030E-04  -0.2657640481E-04   0.0000000000E+00   0.0000000000E+00   0.7258887467E-02
   0.2042485665E+00   0.0000000000E+00   0.8190049282E-04   0.0000000000E+00   0.0000000000E+00   0.0000000000E+00   0.9824089968E-02   0.2259401325E-02   0.0000000000E+00  -0.4902374759E-03   0.0000000000E+00   0.0000000000E+00   0.9146269571E-04  -0.6878256651E-05  -0.1274617437E-04  -0.3625047388E-04   0.0000000000E+00   0.0000000000E+00   0.8878733963E-02
   0.1417447287E+00   0.0000000000E+00   0.7806273548E-04   0.0000000000E+00   0.0000000000E+00   0.0000000000E+00   0.1576097772E-02  -0.3998529374E-02   0.0000000000E+00  -0.1568197995E-02   0.0000000000E+00   0.0000000000E+00   0.2775656584E-04  -0.4471358705E-04  -0.4077314786E-04   0.7267294804E-05   0.0000000000E+00   0.0000000000E+00   0.5538728932E-02
   0.1457466892E+00   0.2098073405E-01   0.7700522855E-04  -0.8273498823E-06   0.0000000000E+00   0.0000000000E+00   0.3551448407E-02  -0.3285594145E-02   0.0000000000E+00  -0.2468575229E-02   0.0000000000E+00   0.0000000000E+00   0.4537126651E-04  -0.4351028667E-04  -0.6418295596E-04  -0.7975627876E-06   0.0000000000E+00   0.0000000000E+00   0.7446768554E-02
   0.3500999940E+00   0.2499891313E+00   0.1000000000E-03  -0.1086868525E-04   0.0000000000E+00   0.0000000000E+00   0.2997103130E-01   0.9551967435E-04   0.0000000000E+00   0.8633634722E-04   0.0000000000E+00   0.0000000000E+00   0.2994237540E-03  -0.8895789717E-04   0.2244745028E-05  -0.9019965294E-04   0.0000000000E+00   0.0000000000E+00   0.2992374321E-01
   0.3306497309E+00   0.2499890547E+00   0.9417288591E-04  -0.1094527924E-04   0.0000000000E+00   0.0000000000E+00   0.3005495032E-01   0.9635711401E-04   0.0000000000E+00  -0.6285078100E-04   0.0000000000E+00   0.0000000000E+00   0.3002604318E-03  -0.8920127982E-04  -0.1634120306E-05  -0.9045392230E-04   0.0000000000E+00   0.0000000000E+00   0.3000723091E-01
   0.3308829771E+00   0.2310374966E+00   0.9442411028E-04  -0.9269372719E-05   0.0000000000E+00   0.0000000000E+00   0.2908083334E-01   0.6304752171E-04   0.0000000000E+00  -0.1500040872E-03   0.0000000000E+00   0.0000000000E+00   0.2906191909E-03  -0.8661202481E-04  -0.3900106266E-05  -0.8743164259E-04   0.0000000000E+00   0.0000000000E+00   0.2905072577E-01
   0.3500999940E+00   0.2307600570E+00   0.1000000000E-03  -0.9174980948E-05   0.0000000000E+00   0.0000000000E+00   0.2902148507E-01   0.7169460131E-04   0.0000000000E+00   0.8002931388E-04   0.0000000000E+00   0.0000000000E+00   0.2899997669E-03  -0.8634750920E-04   0.2080762161E-05  -0.8727953901E-04   0.0000000000E+00   0.0000000000E+00   0.2898614158E-01
   0.2730969941E+00   0.2316550138E+00   0.7741206039E-04  -0.1050816389E-04   0.0000000000E+00   0.0000000000E+00   0.2991484462E-01   0.9536240550E-06   0.0000000000E+00  -0.4044853655E-03   0.0000000000E+00   0.0000000000E+00   0.2991455853E-03  -0.8973499762E-04  -0.1051661950E-04  -0.8974739473E-04   0.0000000000E+00   0.0000000000E+00   0.2992382603E-01
   0.2923456923E+00   0.2314797739E+00   0.8313833859E-04  -0.9914081685E-05   0.0000000000E+00   0.0000000000E+00   0.2955364458E-01   0.2926889788E-04   0.0000000000E+00  -0.3424669014E-03   0.0000000000E+00   0.0000000000E+00   0.2954486391E-03  -0.8836824476E-04  -0.8904139437E-05  -0.8874874043E-04   0.0000000000E+00   0.0000000000E+00   0.2954588183E-01
   0.2917490505E+00   0.2499884031E+00   0.8239353590E-04  -0.1159691782E-04   0.0000000000E+00   0.0000000000E+00   0.3068530802E-01   0.1089099882E-03   0.0000000000E+00  -0.1031295856E-03   0.0000000000E+00   0.0000000000E+00   0.3065263502E-03  -0.9096682417E-04  -0.2681369225E-05  -0.9238265402E-04   0.0000000000E+00   0.0000000000E+00   0.3063116834E-01
   0.2722986083E+00   0.2499877855E+00   0.7638726341E-04  -0.1221453869E-04   0.0000000000E+00   0.0000000000E+00   0.3118360877E-01   0.1202379709E-03   0.0000000000E+00  -0.1194735324E-03   0.0000000000E+00   0.0000000000E+00   0.3114753738E-03  -0.9234844659E-04  -0.3106311842E-05  -0.9391154022E-04   0.0000000000E+00   0.0000000000E+00   0.3112392788E-01
   0.3500999940E+00   0.1730721923E+00   0.1000000000E-03  -0.4735727678E-05   0.0000000000E+00   0.0000000000E+00   0.2508626508E-01   0.9422216533E-03   0.0000000000E+00   0.6269346370E-04   0.0000000000E+00   0.0000000000E+00   0.2480359859E-03  -0.6583657872E-04   0.1630030056E-05  -0.7808546021E-04   0.0000000000E+00   0.0000000000E+00   0.2462791384E-01
   0.3308733503E+00   0.1733095110E+00   0.9522826733E-04  -0.4807041504E-05   0.0000000000E+00   0.0000000000E+00   0.2511591907E-01   0.9042848576E-03   0.0000000000E+00  -0.4082457129E-03   0.0000000000E+00   0.0000000000E+00   0.2484463361E-03  -0.6630490863E-04  -0.1061438854E-04  -0.7806061178E-04   0.0000000000E+00   0.0000000000E+00   0.2468481687E-01
   0.3308652326E+00   0.1538437511E+00   0.9554456449E-04  -0.3600865664E-05   0.0000000000E+00   0.0000000000E+00   0.2358909766E-01   0.1328653272E-02   0.0000000000E+00  -0.4653634801E-03   0.0000000000E+00   0.0000000000E+00   0.2319050168E-03  -0.5748076027E-04  -0.1209945048E-04  -0.7475325280E-04   0.0000000000E+00   0.0000000000E+00   0.2296549114E-01
   0.3500999940E+00   0.1538426072E+00   0.1000000000E-03  -0.3552845045E-05   0.0000000000E+00   0.0000000000E+00   0.2356730908E-01   0.1363688327E-02   0.0000000000E+00   0.5549430157E-04   0.0000000000E+00   0.0000000000E+00   0.2315820258E-03  -0.5706504395E-04   0.1442851841E-05  -0.7479299221E-04   0.0000000000E+00   0.0000000000E+00   0.2291443420E-01
   0.3500999940E+00   0.1346128462E+00   0.1000000000E-03  -0.2544832685E-05   0.0000000000E+00   0.0000000000E+00   0.2201734347E-01   0.1833966976E-02   0.0000000000E+00   0.4302226034E-04   0.0000000000E+00   0.0000000000E+00   0.2146715338E-03  -0.4771236064E-04   0.1118578769E-05  -0.7155393133E-04   0.0000000000E+00   0.0000000000E+00   0.2115788151E-01
   0.3500999940E+00   0.1153828966E+00   0.1000000000E-03  -0.1719395775E-05   0.0000000000E+00   0.0000000000E+00   0.2049026498E-01   0.2335407111E-02   0.0000000000E+00   0.3310999716E-04   0.0000000000E+00   0.0000000000E+00   0.1978964285E-03  -0.3811672384E-04   0.8608599262E-06  -0.6847701628E-04   0.0000000000E+00   0.0000000000E+00   0.1942500688E-01
   0.3500999940E+00   0.9615276997E-01   0.1000000000E-03  -0.1077928826E-05   0.0000000000E+00   0.0000000000E+00   0.1904719398E-01   0.2847245705E-02   0.0000000000E+00   0.2177951482E-04   0.0000000000E+00   0.0000000000E+00   0.1819302027E-03  -0.2866912489E-04   0.5662673853E-06  -0.6568331906E-04   0.0000000000E+00   0.0000000000E+00   0.1779155700E-01
   0.3500999940E+00   0.7692246749E-01   0.1000000000E-03  -0.6123112952E-06   0.0000000000E+00   0.0000000000E+00   0.1775473794E-01   0.3335796781E-02   0.0000000000E+00   0.1276999789E-04   0.0000000000E+00   0.0000000000E+00   0.1675399891E-03  -0.1990624601E-04   0.3320199452E-06  -0.6327160416E-04   0.0000000000E+00   0.0000000000E+00   0.1634041722E-01
   0.3500999940E+00   0.5769200355E-01   0.1000000000E-03  -0.3044504355E-06   0.0000000000E+00   0.0000000000E+00   0.1667390775E-01   0.3766567200E-02   0.0000000000E+00   0.5843268379E-05   0.0000000000E+00   0.0000000000E+00   0.1554393759E-03  -0.1235605124E-04   0.1519249778E-06  -0.6132142484E-04   0.0000000000E+00   0.0000000000E+00   0.1514291013E-01
   0.0000000000E+00   0.2499567808E+00   0.0000000000E+00  -0.4321922400E-04   0.0000000000E+00   0.0000000000E+00   0.1769523701E-01  -0.3373894304E-03   0.0000000000E+00   0.6324252106E-03   0.0000000000E+00   0.0000000000E+00   0.1779645384E-03  -0.5645960535E-04   0.1644305548E-04  -0.5207354275E-04   0.0000000000E+00   0.0000000000E+00   0.1789872287E-01
   0.3759647458E-01   0.2161796698E+00   0.9435383102E-05  -0.3901022444E-04   0.0000000000E+00   0.0000000000E+00   0.2595706283E-01   0.8973727370E-03   0.0000000000E+00   0.2286076652E-02   0.0000000000E+00   0.0000000000E+00   0.2568785101E-03  -0.6889746113E-04   0.5943799296E-04  -0.8056330671E-04   0.0000000000E+00   0.0000000000E+00   0.2581496260E-01
   0.3620316981E-01   0.2000666352E+00   0.9862313201E-05  -0.3806382529E-04   0.0000000000E+00   0.0000000000E+00   0.2820885288E-01   0.1756096342E-02   0.0000000000E+00   0.2659655749E-02   0.0000000000E+00   0.0000000000E+00   0.2768202398E-03  -0.6706559523E-04   0.6915104946E-04  -0.8989484768E-04   0.0000000000E+00   0.0000000000E+00   0.2774637378E-01
   0.5559832815E-01   0.1985737352E+00   0.1540615401E-04  -0.3528882907E-04   0.0000000000E+00   0.0000000000E+00   0.2900814827E-01   0.9875021474E-03   0.0000000000E+00   0.3526969874E-02   0.0000000000E+00   0.0000000000E+00   0.2871189762E-03  -0.7714942332E-04   0.9170121673E-04  -0.8998695124E-04   0.0000000000E+00   0.0000000000E+00   0.2918241348E-01
   0.5752149416E-01   0.2148891045E+00   0.1475406468E-04  -0.3624449171E-04   0.0000000000E+00   0.0000000000E+00   0.2710048836E-01   0.4362305534E-03   0.0000000000E+00   0.2950206362E-02   0.0000000000E+00   0.0000000000E+00   0.2696961919E-03  -0.7693915954E-04   0.7670536542E-04  -0.8261015674E-04   0.0000000000E+00   0.0000000000E+00   0.2736106003E-01
   0.1781248191E-01   0.2003756806E+00   0.4813806206E-05  -0.3969240577E-04   0.0000000000E+00   0.0000000000E+00   0.2787803564E-01   0.2347203328E-02   0.0000000000E+00   0.1236240470E-02   0.0000000000E+00   0.0000000000E+00   0.2717387464E-03  -0.6016207364E-04   0.3214225222E-04  -0.9067571690E-04   0.0000000000E+00   0.0000000000E+00   0.2689830016E-01
   0.5821152181E-01   0.2322806527E+00   0.1339390857E-04  -0.3743534535E-04   0.0000000000E+00   0.0000000000E+00   0.2483186609E-01   0.2516719870E-03   0.0000000000E+00   0.1692132973E-02   0.0000000000E+00   0.0000000000E+00   0.2475636449E-03  -0.7197887840E-04   0.4399545731E-04  -0.7525061423E-04   0.0000000000E+00   0.0000000000E+00   0.2490319316E-01
   0.1555941522E+00   0.2499775924E+00   0.3859122364E-04  -0.2240760423E-04   0.0000000000E+00   0.0000000000E+00   0.3238204678E-01   0.1000861976E-03   0.0000000000E+00   0.2067822795E-03   0.0000000000E+00   0.0000000000E+00   0.3235202093E-03  -0.9614527838E-04   0.5376339266E-05  -0.9744639895E-04   0.0000000000E+00   0.0000000000E+00   0.3233395191E-01
   0.1361435068E+00   0.2499745645E+00   0.3239678858E-04  -0.2543549050E-04   0.0000000000E+00   0.0000000000E+00   0.3127192027E-01   0.4736354199E-04   0.0000000000E+00   0.3424643918E-03   0.0000000000E+00   0.0000000000E+00   0.3125771121E-03  -0.9334212539E-04   0.8904074186E-05  -0.9395785143E-04   0.0000000000E+00   0.0000000000E+00   0.3124824969E-01
   0.1750449393E+00   0.2499802428E+00   0.4494232407E-04  -0.1975719873E-04   0.0000000000E+00   0.0000000000E+00   0.3292423925E-01   0.1300294665E-03   0.0000000000E+00   0.8837705637E-04   0.0000000000E+00   0.0000000000E+00   0.3288523041E-03  -0.9747242309E-04   0.2297803466E-05  -0.9916280615E-04   0.0000000000E+00   0.0000000000E+00   0.3286197702E-01
   0.1759715279E+00   0.2324781717E+00   0.4739093448E-04  -0.1794125539E-04   0.0000000000E+00   0.0000000000E+00   0.3129299686E-01  -0.2477177278E-03   0.0000000000E+00   0.1578232361E-03   0.0000000000E+00   0.0000000000E+00   0.3136731218E-03  -0.9635616786E-04   0.4103404137E-05  -0.9313583740E-04   0.0000000000E+00   0.0000000000E+00   0.3142092707E-01
   0.2250839521E+00   0.0000000000E+00   0.8395808191E-04   0.0000000000E+00   0.0000000000E+00   0.0000000000E+00   0.1145748025E-01   0.2965084045E-02   0.0000000000E+00  -0.3696525468E-03   0.0000000000E+00   0.0000000000E+00   0.1056795504E-03  -0.4721600300E-05  -0.9610966217E-05  -0.4326769289E-04   0.0000000000E+00   0.0000000000E+00   0.1029064905E-01
   0.2459196173E+00   0.0000000000E+00   0.8628030067E-04   0.0000000000E+00   0.0000000000E+00   0.0000000000E+00   0.1272239298E-01   0.3479634149E-02   0.0000000000E+00  -0.2771607162E-03   0.0000000000E+00   0.0000000000E+00   0.1167850273E-03  -0.3370837442E-05  -0.7206178621E-05  -0.4860608138E-04   0.0000000000E+00   0.0000000000E+00   0.1138031829E-01
   0.2483326837E+00   0.1834235522E-01   0.8634173279E-04  -0.7267901072E-07   0.0000000000E+00   0.0000000000E+00   0.1311954157E-01   0.3408990198E-02   0.0000000000E+00  -0.8211034077E-03   0.0000000000E+00   0.0000000000E+00   0.1209684451E-03  -0.5268722725E-05  -0.2134868860E-04  -0.4958559530E-04   0.0000000000E+00   0.0000000000E+00   0.1188428042E-01
   0.1966059907E+00   0.1995021011E+00   0.5742472998E-04  -0.1248186585E-04   0.0000000000E+00   0.0000000000E+00   0.2904435267E-01  -0.7626689001E-03   0.0000000000E+00  -0.5330483970E-03   0.0000000000E+00   0.0000000000E+00   0.2927315334E-03  -0.9475974702E-04  -0.1385925832E-04  -0.8484505132E-04   0.0000000000E+00   0.0000000000E+00   0.2944789546E-01
   0.2156221818E+00   0.1983815382E+00   0.6305677502E-04  -0.1071878350E-04   0.0000000000E+00   0.0000000000E+00   0.2858704507E-01  -0.4543341002E-03   0.0000000000E+00  -0.8848884034E-03   0.0000000000E+00   0.0000000000E+00   0.2872334530E-03  -0.9030447620E-04  -0.2300709849E-04  -0.8439813290E-04   0.0000000000E+00   0.0000000000E+00   0.2885760084E-01
   0.2156034598E+00   0.2151258036E+00   0.6141176059E-04  -0.1224439457E-04   0.0000000000E+00   0.0000000000E+00   0.2976906811E-01  -0.2439001588E-03   0.0000000000E+00  -0.5924291728E-03   0.0000000000E+00   0.0000000000E+00   0.2984223816E-03  -0.9174620593E-04  -0.1540315849E-04  -0.8857550386E-04   0.0000000000E+00   0.0000000000E+00   0.2991057462E-01
   0.1962782689E+00   0.2156072869E+00   0.5556089056E-04  -0.1403508641E-04   0.0000000000E+00   0.0000000000E+00   0.3008148362E-01  -0.4005451792E-03   0.0000000000E+00  -0.2685251239E-03   0.0000000000E+00   0.0000000000E+00   0.3020164718E-03  -0.9424990267E-04  -0.6981653222E-05  -0.8904281534E-04   0.0000000000E+00   0.0000000000E+00   0.3028860063E-01
   0.1175473670E+00   0.2324099666E+00   0.2949303427E-04  -0.2703336411E-04   0.0000000000E+00   0.0000000000E+00   0.2931461525E-01  -0.2696496718E-03   0.0000000000E+00   0.1312646816E-02   0.0000000000E+00   0.0000000000E+00   0.2939551015E-03  -0.9064034247E-04   0.3412881722E-04  -0.8713489674E-04   0.0000000000E+00   0.0000000000E+00   0.2954444920E-01
   0.1189128139E+00   0.2152225204E+00   0.3218391309E-04  -0.2518562119E-04   0.0000000000E+00   0.0000000000E+00   0.2959510453E-01  -0.7249503677E-03   0.0000000000E+00   0.2201784760E-02   0.0000000000E+00   0.0000000000E+00   0.2981258964E-03  -0.9603481726E-04   0.5724640375E-04  -0.8661046248E-04   0.0000000000E+00   0.0000000000E+00   0.3019421994E-01
   0.2139466251E+00   0.2499843235E+00   0.5774107983E-04  -0.1567647582E-04   0.0000000000E+00   0.0000000000E+00   0.3275769917E-01   0.1486507012E-03   0.0000000000E+00  -0.6983908584E-04   0.0000000000E+00   0.0000000000E+00   0.3271310396E-03  -0.9678659049E-04  -0.1815816232E-05  -0.9871904960E-04   0.0000000000E+00   0.0000000000E+00   0.3268540818E-01
   0.1944957991E+00   0.2499824847E+00   0.5135110218E-04  -0.1751527602E-04   0.0000000000E+00   0.0000000000E+00   0.3300925457E-01   0.1453536845E-03   0.0000000000E+00  -0.4023709811E-05   0.0000000000E+00   0.0000000000E+00   0.3296564846E-03  -0.9757422686E-04  -0.1046164551E-06  -0.9946382476E-04   0.0000000000E+00   0.0000000000E+00   0.3293919844E-01
   0.1954886601E+00   0.2324033527E+00   0.5352310967E-04  -0.1570632122E-04   0.0000000000E+00   0.0000000000E+00   0.3129934990E-01  -0.1974400756E-03   0.0000000000E+00  -0.1092246436E-03   0.0000000000E+00   0.0000000000E+00   0.3135858192E-03  -0.9587245045E-04  -0.2839840734E-05  -0.9330572947E-04   0.0000000000E+00   0.0000000000E+00   0.3140116829E-01
   0.2149717703E+00   0.2322698375E+00   0.5962434494E-04  -0.1388846513E-04   0.0000000000E+00   0.0000000000E+00   0.3108009314E-01  -0.1406680127E-03   0.0000000000E+00  -0.2933359654E-03   0.0000000000E+00   0.0000000000E+00   0.3112229354E-03  -0.9464695954E-04  -0.7626735100E-05  -0.9281827537E-04   0.0000000000E+00   0.0000000000E+00   0.3115670832E-01
   0.2343998475E+00   0.2319411397E+00   0.6566150025E-04  -0.1243630294E-04   0.0000000000E+00   0.0000000000E+00   0.3072978061E-01  -0.8785473948E-04   0.0000000000E+00  -0.3967357145E-03   0.0000000000E+00   0.0000000000E+00   0.3075613703E-03  -0.9306788922E-04  -0.1031512858E-04  -0.9192577760E-04   0.0000000000E+00   0.0000000000E+00   0.3078330552E-01
   0.2537685920E+00   0.2318127661E+00   0.7158397292E-04  -0.1133393363E-04   0.0000000000E+00   0.0000000000E+00   0.3031864717E-01  -0.3998569789E-04   0.0000000000E+00  -0.4292765981E-03   0.0000000000E+00   0.0000000000E+00   0.3033064288E-03  -0.9135579850E-04  -0.1116119155E-04  -0.9083598443E-04   0.0000000000E+00   0.0000000000E+00   0.3034939121E-01
   0.2528480628E+00   0.2499869288E+00   0.7027778630E-04  -0.1307121758E-04   0.0000000000E+00   0.0000000000E+00   0.3174345917E-01   0.1328509494E-03   0.0000000000E+00  -0.1227668240E-03   0.0000000000E+00   0.0000000000E+00   0.3170360388E-03  -0.9390186800E-04  -0.3191937425E-05  -0.9562893035E-04   0.0000000000E+00   0.0000000000E+00   0.3167771366E-01
   0.2333973932E+00   0.2499857896E+00   0.6405923486E-04  -0.1421043871E-04   0.0000000000E+00   0.0000000000E+00   0.3229744729E-01   0.1431393710E-03   0.0000000000E+00  -0.1080262810E-03   0.0000000000E+00   0.0000000000E+00   0.3225450548E-03  -0.9546094817E-04  -0.2808683305E-05  -0.9732175999E-04   0.0000000000E+00   0.0000000000E+00   0.3222708535E-01
   0.3111994358E+00   0.2499888173E+00   0.8831377352E-04  -0.1118267779E-04   0.0000000000E+00   0.0000000000E+00   0.3029922409E-01   0.1002634509E-03   0.0000000000E+00  -0.6794190326E-04   0.0000000000E+00   0.0000000000E+00   0.3026914506E-03  -0.8989503777E-04  -0.1766489485E-05  -0.9119846264E-04   0.0000000000E+00   0.0000000000E+00   0.3024945022E-01
   0.3115913149E+00   0.2312627117E+00   0.8879889990E-04  -0.9509266283E-05   0.0000000000E+00   0.0000000000E+00   0.2926966945E-01   0.5211617868E-04   0.0000000000E+00  -0.2388456383E-03   0.0000000000E+00   0.0000000000E+00   0.2925403460E-03  -0.8728784656E-04  -0.6209986595E-05  -0.8796535688E-04   0.0000000000E+00   0.0000000000E+00   0.2924744841E-01
   0.5560046572E-01   0.8312111598E-01   0.4344202196E-04  -0.2584352481E-04   0.0000000000E+00   0.0000000000E+00   0.3581497521E-01   0.1219091115E-01   0.0000000000E+00  -0.1814119190E-01   0.0000000000E+00   0.0000000000E+00   0.3215770186E-03   0.1446418589E-04  -0.4716709893E-03  -0.1440176591E-03   0.0000000000E+00   0.0000000000E+00   0.4321541909E-01
   0.7197108962E-01   0.9411963740E-01   0.4116541761E-04  -0.2148080201E-04   0.0000000000E+00   0.0000000000E+00   0.2874247617E-01  -0.6338050592E-03   0.0000000000E+00  -0.7568589295E-02   0.0000000000E+00   0.0000000000E+00   0.2893261769E-03  -0.9256547909E-04  -0.1967833217E-03  -0.8432601333E-04   0.0000000000E+00   0.0000000000E+00   0.3178625557E-01
   0.6202042983E-01   0.1069628273E+00   0.3232192675E-04  -0.2558068784E-04   0.0000000000E+00   0.0000000000E+00   0.3492048393E-01   0.3842335451E-03   0.0000000000E+00  -0.4567222972E-02   0.0000000000E+00   0.0000000000E+00   0.3480521387E-03  -0.1009191164E-03  -0.1187477973E-03  -0.1059141524E-03   0.0000000000E+00   0.0000000000E+00   0.3522299948E-01
   0.3829785037E-01   0.9235783538E-01   0.2950777079E-04  -0.3011651786E-04   0.0000000000E+00   0.0000000000E+00   0.5234903504E-01   0.8994188796E-02   0.0000000000E+00  -0.1363350750E-01   0.0000000000E+00   0.0000000000E+00   0.4965077840E-03  -0.6710521716E-04  -0.3544711951E-03  -0.1840296715E-03   0.0000000000E+00   0.0000000000E+00   0.5315089522E-01
   0.0000000000E+00   0.1999598045E+00   0.0000000000E+00  -0.4019847649E-04   0.0000000000E+00   0.0000000000E+00   0.2773178793E-01   0.2551939825E-02   0.0000000000E+00   0.6653051470E-03   0.0000000000E+00   0.0000000000E+00   0.2696620598E-03  -0.5767596554E-04   0.1729793382E-04  -0.9085118326E-04   0.0000000000E+00   0.0000000000E+00   0.2654999062E-01
   0.0000000000E+00   0.1832940536E+00   0.0000000000E+00  -0.3928337785E-04   0.0000000000E+00   0.0000000000E+00   0.3029578544E-01   0.3988844821E-02   0.0000000000E+00   0.7024958859E-03   0.0000000000E+00   0.0000000000E+00   0.2909913199E-03  -0.5099890811E-04   0.1826489303E-04  -0.1028538908E-03   0.0000000000E+00   0.0000000000E+00   0.2851425488E-01
   0.3652453246E-01   0.1168350924E+00   0.1789455522E-04  -0.3232355351E-04   0.0000000000E+00   0.0000000000E+00   0.4723580323E-01   0.6237927778E-02   0.0000000000E+00  -0.4976224904E-02   0.0000000000E+00   0.0000000000E+00   0.4536442490E-03  -0.7932813191E-04  -0.1293818475E-03  -0.1604211930E-03   0.0000000000E+00   0.0000000000E+00   0.4576274241E-01
   0.2667554860E+00   0.0000000000E+00   0.8880500343E-04   0.0000000000E+00   0.0000000000E+00   0.0000000000E+00   0.1367086295E-01   0.3842485856E-02   0.0000000000E+00  -0.2053629691E-03   0.0000000000E+00   0.0000000000E+00   0.1251811720E-03  -0.2587730299E-05  -0.5339437198E-05  -0.5254004643E-04   0.0000000000E+00   0.0000000000E+00   0.1220810726E-01
   0.2687148324E+00   0.1829145418E-01   0.8888740044E-04  -0.5641924454E-07   0.0000000000E+00   0.0000000000E+00   0.1397015578E-01   0.3775862585E-02   0.0000000000E+00  -0.6115420907E-03   0.0000000000E+00   0.0000000000E+00   0.1283739700E-03  -0.4151841478E-05  -0.1590009436E-04  -0.5323805509E-04   0.0000000000E+00   0.0000000000E+00   0.1256556947E-01
   0.2366057245E+00   0.7431509867E-01   0.8132145904E-04  -0.1097434428E-05   0.0000000000E+00   0.0000000000E+00   0.1674746079E-01   0.1626657382E-02   0.0000000000E+00  -0.3101558843E-02   0.0000000000E+00   0.0000000000E+00   0.1625946358E-03  -0.3397580855E-04  -0.8064052991E-04  -0.5512235452E-04   0.0000000000E+00   0.0000000000E+00   0.1686640158E-01
   0.2553009684E+00   0.7383700472E-01   0.8439942041E-04  -0.8864840720E-06   0.0000000000E+00   0.0000000000E+00   0.1693287258E-01   0.2251219740E-02   0.0000000000E+00  -0.2479820914E-02   0.0000000000E+00   0.0000000000E+00   0.1625750666E-03  -0.2828642033E-04  -0.6447534376E-04  -0.5755227695E-04   0.0000000000E+00   0.0000000000E+00   0.1648956533E-01
   0.3104296965E+00   0.3712683377E-01   0.9423954925E-04  -0.1283310338E-06   0.0000000000E+00   0.0000000000E+00   0.1556407238E-01   0.3991139912E-02   0.0000000000E+00  -0.5857478628E-03   0.0000000000E+00   0.0000000000E+00   0.1436673041E-03  -0.6780818025E-05  -0.1522944443E-04  -0.5866563688E-04   0.0000000000E+00   0.0000000000E+00   0.1403527429E-01
   0.2905315276E+00   0.3677709698E-01   0.9141560164E-04  -0.1423234057E-06   0.0000000000E+00   0.0000000000E+00   0.1520685123E-01   0.3815150015E-02   0.0000000000E+00  -0.9014319384E-03   0.0000000000E+00   0.0000000000E+00   0.1406230623E-03  -0.7469053552E-05  -0.2343723040E-04  -0.5706600374E-04   0.0000000000E+00   0.0000000000E+00   0.1378681464E-01
   0.3500999940E+00   0.2115308962E+00   0.1000000000E-03  -0.7567848025E-05   0.0000000000E+00   0.0000000000E+00   0.2786887455E-01   0.2945634832E-03   0.0000000000E+00   0.7482784627E-04   0.0000000000E+00   0.0000000000E+00   0.2778050551E-03  -0.8066098883E-04   0.1945524003E-05  -0.8449031411E-04   0.0000000000E+00   0.0000000000E+00   0.2772289249E-01
   0.3310031089E+00   0.2119731946E+00   0.9469092110E-04  -0.7669373064E-05   0.0000000000E+00   0.0000000000E+00   0.2791682543E-01   0.2746463673E-03   0.0000000000E+00  -0.2644404635E-03   0.0000000000E+00   0.0000000000E+00   0.2783443152E-03  -0.8100401261E-04  -0.6875452051E-05  -0.8457441538E-04   0.0000000000E+00   0.0000000000E+00   0.2778381168E-01
   0.3309379759E+00   0.1926954673E+00   0.9494488858E-04  -0.6170726622E-05   0.0000000000E+00   0.0000000000E+00   0.2657120009E-01   0.5459588363E-03   0.0000000000E+00  -0.3417315813E-03   0.0000000000E+00   0.0000000000E+00   0.2640741244E-03  -0.7425401192E-04  -0.8885021114E-05  -0.8135147679E-04   0.0000000000E+00   0.0000000000E+00   0.2630827054E-01
   0.3500999940E+00   0.1923016159E+00   0.1000000000E-03  -0.6080064966E-05   0.0000000000E+00   0.0000000000E+00   0.2653431100E-01   0.5781709853E-03   0.0000000000E+00   0.7018580907E-04   0.0000000000E+00   0.0000000000E+00   0.2636085971E-03  -0.7382122316E-04   0.1824831036E-05  -0.8133744597E-04   0.0000000000E+00   0.0000000000E+00   0.2624980883E-01
   0.2926466807E+00   0.2126757549E+00   0.8392773261E-04  -0.8295115917E-05   0.0000000000E+00   0.0000000000E+00   0.2831364726E-01   0.1927712302E-03   0.0000000000E+00  -0.6515277217E-03   0.0000000000E+00   0.0000000000E+00   0.2825581589E-03  -0.8301322948E-04  -0.1693972076E-04  -0.8551925547E-04   0.0000000000E+00   0.0000000000E+00   0.2824007715E-01
   0.2735824196E+00   0.2131344873E+00   0.7849061712E-04  -0.8876686335E-05   0.0000000000E+00   0.0000000000E+00   0.2862935739E-01   0.1145101458E-03   0.0000000000E+00  -0.7793789809E-03   0.0000000000E+00   0.0000000000E+00   0.2859500434E-03  -0.8474297071E-04  -0.2026385350E-04  -0.8623160260E-04   0.0000000000E+00   0.0000000000E+00   0.2860393807E-01
   0.2734350327E+00   0.1942651718E+00   0.7951868220E-04  -0.7331209604E-05   0.0000000000E+00   0.0000000000E+00   0.2723328417E-01   0.2413119167E-03   0.0000000000E+00  -0.1044123656E-02   0.0000000000E+00   0.0000000000E+00   0.2716089059E-03  -0.7928673333E-04  -0.2714721506E-04  -0.8242378825E-04   0.0000000000E+00   0.0000000000E+00   0.2717418511E-01
   0.2925036323E+00   0.1934400289E+00   0.8470531593E-04  -0.6756086725E-05   0.0000000000E+00   0.0000000000E+00   0.2693898990E-01   0.3646473795E-03   0.0000000000E+00  -0.8768751182E-03   0.0000000000E+00   0.0000000000E+00   0.2682959569E-03  -0.7717049592E-04  -0.2279875307E-04  -0.8191091185E-04   0.0000000000E+00   0.0000000000E+00   0.2680126272E-01
   0.1944833749E+00   0.5816896004E-01   0.7676090656E-04  -0.1157358415E-05   0.0000000000E+00   0.0000000000E+00   0.1390839461E-01   0.2917871975E-03   0.0000000000E+00  -0.4374896211E-02   0.0000000000E+00   0.0000000000E+00   0.1382085845E-03  -0.3880731186E-04  -0.1137473015E-03  -0.4260054543E-04   0.0000000000E+00   0.0000000000E+00   0.1569570392E-01
   0.2141735541E+00   0.5661277960E-01   0.7967510152E-04  -0.8035031991E-06   0.0000000000E+00   0.0000000000E+00   0.1433059337E-01   0.1317891555E-02   0.0000000000E+00  -0.3522436364E-02   0.0000000000E+00   0.0000000000E+00   0.1393522591E-03  -0.2981286457E-04  -0.9158334546E-04  -0.4694545478E-04   0.0000000000E+00   0.0000000000E+00   0.1501551138E-01
   0.7320826794E-01   0.1305667891E+00   0.2929863793E-04  -0.2527386271E-04   0.0000000000E+00   0.0000000000E+00   0.3555951442E-01  -0.1309143898E-02   0.0000000000E+00   0.7761444414E-03   0.0000000000E+00   0.0000000000E+00   0.3595225759E-03  -0.1197699822E-03   0.2017975548E-04  -0.1027511116E-03   0.0000000000E+00   0.0000000000E+00   0.3622551490E-01
   0.5551222900E-01   0.1224467551E+00   0.2460739718E-04  -0.2870491898E-04   0.0000000000E+00   0.0000000000E+00   0.4114051286E-01   0.2733220357E-02   0.0000000000E+00  -0.1263686979E-02   0.0000000000E+00   0.0000000000E+00   0.4032054675E-03  -0.9608933501E-04  -0.3285586146E-04  -0.1316211996E-03   0.0000000000E+00   0.0000000000E+00   0.3981124775E-01
   0.8081266059E-01   0.1172544000E+00   0.3544018882E-04  -0.2168703484E-04   0.0000000000E+00   0.0000000000E+00   0.3408811370E-01  -0.2366131388E-02   0.0000000000E+00  -0.1424745760E-02   0.0000000000E+00   0.0000000000E+00   0.3479795312E-03  -0.1259256550E-03  -0.3704338976E-04  -0.9516594694E-04   0.0000000000E+00   0.0000000000E+00   0.3538634283E-01
   0.5834463208E-01   0.2499613537E+00   0.1129848072E-04  -0.3864632041E-04   0.0000000000E+00   0.0000000000E+00   0.2214768338E-01  -0.2187457806E-03   0.0000000000E+00   0.5916477020E-03   0.0000000000E+00   0.0000000000E+00   0.2221330712E-03  -0.6863050796E-04   0.1538284025E-04  -0.6578681281E-04   0.0000000000E+00   0.0000000000E+00   0.2226189619E-01
   0.7820924867E-01   0.2133880186E+00   0.2059087172E-04  -0.3261142629E-04   0.0000000000E+00   0.0000000000E+00   0.2799501853E-01  -0.7466246893E-04   0.0000000000E+00   0.3198897811E-02   0.0000000000E+00   0.0000000000E+00   0.2801741727E-03  -0.8473168028E-04   0.8317134308E-04  -0.8376106818E-04   0.0000000000E+00   0.0000000000E+00   0.2855953648E-01
   0.7801889900E-01   0.1934034700E+00   0.2239920479E-04  -0.3090295616E-04   0.0000000000E+00   0.0000000000E+00   0.2995772494E-01  -0.1982156855E-03   0.0000000000E+00   0.3770528624E-02   0.0000000000E+00   0.0000000000E+00   0.3001718965E-03  -0.9185533168E-04   0.9803374421E-04  -0.8927852777E-04   0.0000000000E+00   0.0000000000E+00   0.3075795506E-01
   0.1768060802E+00   0.2157833637E+00   0.4963819535E-04  -0.1623629999E-04   0.0000000000E+00   0.0000000000E+00   0.3025208239E-01  -0.5466963951E-03   0.0000000000E+00   0.2003961927E-03   0.0000000000E+00   0.0000000000E+00   0.3041609131E-03  -0.9622321112E-04   0.5210301011E-05  -0.8911615798E-04   0.0000000000E+00   0.0000000000E+00   0.3053169734E-01
   0.3116002939E+00   0.1537259670E+00   0.9107189544E-04  -0.3740042275E-05   0.0000000000E+00   0.0000000000E+00   0.2366229311E-01   0.1210156942E-02   0.0000000000E+00  -0.8765127423E-03   0.0000000000E+00   0.0000000000E+00   0.2329924602E-03  -0.5888530990E-04  -0.2278933130E-04  -0.7461735015E-04   0.0000000000E+00   0.0000000000E+00   0.2313041606E-01
   0.3115871274E+00   0.1734331298E+00   0.9042240577E-04  -0.4987196300E-05   0.0000000000E+00   0.0000000000E+00   0.2522444237E-01   0.8172762971E-03   0.0000000000E+00  -0.7635516301E-03   0.0000000000E+00   0.0000000000E+00   0.2497925948E-03  -0.6750056412E-04  -0.1985234238E-04  -0.7812515599E-04   0.0000000000E+00   0.0000000000E+00   0.2486061047E-01
   0.1166931423E+00   0.2499712450E+00   0.2647527911E-04  -0.2875496312E-04   0.0000000000E+00   0.0000000000E+00   0.2955111221E-01  -0.1445298978E-04   0.0000000000E+00   0.4821977548E-03   0.0000000000E+00   0.0000000000E+00   0.2955544810E-03  -0.8879786652E-04   0.1253714163E-04  -0.8860997765E-04   0.0000000000E+00   0.0000000000E+00   0.2955519157E-01
   0.7076572709E-01   0.7068930060E-01   0.5504569043E-04  -0.2138079808E-04   0.0000000000E+00   0.0000000000E+00   0.1413334712E-01   0.7121047068E-02   0.0000000000E+00  -0.9158903547E-02   0.0000000000E+00   0.0000000000E+00   0.1199703300E-03   0.2881042933E-04  -0.2381314922E-03  -0.6376318255E-04   0.0000000000E+00   0.0000000000E+00   0.1860346321E-01
   0.8394465617E-01   0.7964834797E-01   0.5169976838E-04  -0.1662003463E-04   0.0000000000E+00   0.0000000000E+00   0.1929599564E-01  -0.6963263110E-03   0.0000000000E+00  -0.7709441885E-02   0.0000000000E+00   0.0000000000E+00   0.1950489353E-03  -0.6485125002E-04  -0.2004454890E-03  -0.5579900798E-04   0.0000000000E+00   0.0000000000E+00   0.2389783816E-01
   0.2350056901E+00   0.2143002104E+00   0.6723214812E-04  -0.1079358833E-04   0.0000000000E+00   0.0000000000E+00   0.2938638706E-01  -0.1048183692E-03   0.0000000000E+00  -0.7662168602E-03   0.0000000000E+00   0.0000000000E+00   0.2941783257E-03  -0.8920734487E-04  -0.1992163837E-04  -0.8784470607E-04   0.0000000000E+00   0.0000000000E+00   0.2946937510E-01
   0.1774908315E+00   0.1998988798E+00   0.5173751222E-04  -0.1460722932E-04   0.0000000000E+00   0.0000000000E+00   0.2943798609E-01  -0.1031634267E-02   0.0000000000E+00   0.2490168799E-05   0.0000000000E+00   0.0000000000E+00   0.2974747637E-03  -0.9863030093E-04   0.6474438876E-07  -0.8521905545E-04   0.0000000000E+00   0.0000000000E+00   0.2996632566E-01
   0.1585697101E+00   0.1997703423E+00   0.4609107313E-04  -0.1709570653E-04   0.0000000000E+00   0.0000000000E+00   0.2971670736E-01  -0.1256918347E-02   0.0000000000E+00   0.6861667414E-03   0.0000000000E+00   0.0000000000E+00   0.3009378286E-03  -0.1017193056E-03   0.1784033528E-04  -0.8537936704E-04   0.0000000000E+00   0.0000000000E+00   0.3038593625E-01
   0.1597299223E+00   0.1838957312E+00   0.4846833163E-04  -0.1527984993E-04   0.0000000000E+00   0.0000000000E+00   0.2926191179E-01  -0.1903499162E-02   0.0000000000E+00   0.3120537221E-03   0.0000000000E+00   0.0000000000E+00   0.2983296154E-03  -0.1068207270E-03   0.8113396775E-05  -0.8207523788E-04   0.0000000000E+00   0.0000000000E+00   0.3025916116E-01
   0.1778657870E+00   0.1845743100E+00   0.5373199084E-04  -0.1303502965E-04   0.0000000000E+00   0.0000000000E+00   0.2873372527E-01  -0.1498325017E-02   0.0000000000E+00  -0.3696128794E-03   0.0000000000E+00   0.0000000000E+00   0.2918322278E-03  -0.1011844260E-03  -0.9609934866E-05  -0.8170620076E-04   0.0000000000E+00   0.0000000000E+00   0.2951557192E-01
   0.2543716757E+00   0.2137086608E+00   0.7292869793E-04  -0.9694212198E-05   0.0000000000E+00   0.0000000000E+00   0.2898676296E-01   0.9857923429E-05   0.0000000000E+00  -0.8232149231E-03   0.0000000000E+00   0.0000000000E+00   0.2898380559E-03  -0.8686170966E-04  -0.2140358800E-04  -0.8698986266E-04   0.0000000000E+00   0.0000000000E+00   0.2901676641E-01
   0.3118008150E+00   0.2123246281E+00   0.8932498464E-04  -0.7903893900E-05   0.0000000000E+00   0.0000000000E+00   0.2808101763E-01   0.2417137497E-03   0.0000000000E+00  -0.4616876392E-03   0.0000000000E+00   0.0000000000E+00   0.2800850350E-03  -0.8182591538E-04  -0.1200387862E-04  -0.8496819412E-04   0.0000000000E+00   0.0000000000E+00   0.2797251197E-01
   0.3117552143E+00   0.1930267735E+00   0.8985828391E-04  -0.6385507111E-05   0.0000000000E+00   0.0000000000E+00   0.2671922383E-01   0.4877878425E-03   0.0000000000E+00  -0.6200836037E-03   0.0000000000E+00   0.0000000000E+00   0.2657288748E-03  -0.7527979306E-04  -0.1612217370E-04  -0.8162103501E-04   0.0000000000E+00   0.0000000000E+00   0.2650093210E-01
   0.6711743396E-01   0.1440431254E+00   0.2452356068E-04  -0.2821564280E-04   0.0000000000E+00   0.0000000000E+00   0.3559973471E-01   0.2101669044E-03   0.0000000000E+00   0.2450636954E-02   0.0000000000E+00   0.0000000000E+00   0.3553668464E-03  -0.1046975351E-03   0.6371656079E-04  -0.1074297048E-03   0.0000000000E+00   0.0000000000E+00   0.3573890270E-01
   0.6213737772E-01   0.1546091047E+00   0.2130611710E-04  -0.3033326792E-04   0.0000000000E+00   0.0000000000E+00   0.3491520876E-01   0.7697255314E-03   0.0000000000E+00   0.3110016482E-02   0.0000000000E+00   0.0000000000E+00   0.3468429110E-03  -0.9704837097E-04   0.8086042852E-04  -0.1070548029E-03   0.0000000000E+00   0.0000000000E+00   0.3493073736E-01
   0.1526107024E+00   0.3951426483E-01   0.7481638904E-04  -0.1453971864E-05   0.0000000000E+00   0.0000000000E+00   0.8310567859E-02  -0.2552750000E-02   0.0000000000E+00  -0.5244431470E-02   0.0000000000E+00   0.0000000000E+00   0.9076392859E-04  -0.5045920357E-04  -0.1363552182E-03  -0.1727345358E-04   0.0000000000E+00   0.0000000000E+00   0.1327729529E-01
   0.1354250314E+00   0.4589581172E-01   0.7183838343E-04  -0.2927479599E-05   0.0000000000E+00   0.0000000000E+00   0.8293239942E-02  -0.4996900723E-02   0.0000000000E+00  -0.6864766005E-02   0.0000000000E+00   0.0000000000E+00   0.9792310159E-04  -0.7484872706E-04  -0.1784839161E-03  -0.9889017655E-05   0.0000000000E+00   0.0000000000E+00   0.1617116046E-01
   0.1625788548E+00   0.0000000000E+00   0.7886084245E-04   0.0000000000E+00   0.0000000000E+00   0.0000000000E+00   0.5028888306E-02  -0.4108661716E-03   0.0000000000E+00  -0.9027164419E-03   0.0000000000E+00   0.0000000000E+00   0.5152148158E-04  -0.1919532663E-04  -0.2347062749E-04  -0.1385406640E-04   0.0000000000E+00   0.0000000000E+00   0.5160877037E-02
   0.1665082856E+00   0.1949834874E-01   0.7833362562E-04  -0.4074617144E-06   0.0000000000E+00   0.0000000000E+00   0.6689374101E-02  -0.4543387645E-03   0.0000000000E+00  -0.2210290786E-02   0.0000000000E+00   0.0000000000E+00   0.6825675730E-04  -0.2461150995E-04  -0.5746756044E-04  -0.1870510601E-04   0.0000000000E+00   0.0000000000E+00   0.7985806409E-02
   0.2755279999E+00   0.9272286804E-01   0.8659185802E-04  -0.1291364420E-05   0.0000000000E+00   0.0000000000E+00   0.1869452632E-01   0.2196745148E-02   0.0000000000E+00  -0.2022385730E-02   0.0000000000E+00   0.0000000000E+00   0.1803550277E-03  -0.3411612746E-04  -0.5258202899E-04  -0.6267381439E-04   0.0000000000E+00   0.0000000000E+00   0.1803772810E-01
   0.2937174237E+00   0.9348943525E-01   0.8983371345E-04  -0.1172753729E-05   0.0000000000E+00   0.0000000000E+00   0.1881441345E-01   0.2506189880E-02   0.0000000000E+00  -0.1506498784E-02   0.0000000000E+00   0.0000000000E+00   0.1806255649E-03  -0.3138134155E-04  -0.3916896837E-04  -0.6396180999E-04   0.0000000000E+00   0.0000000000E+00   0.1788281138E-01
   0.2938586628E+00   0.1128469374E+00   0.8894580493E-04  -0.1873616552E-05   0.0000000000E+00   0.0000000000E+00   0.2035981186E-01   0.1999386458E-02   0.0000000000E+00  -0.1510722344E-02   0.0000000000E+00   0.0000000000E+00   0.1975999592E-03  -0.4108557100E-04  -0.3927878095E-04  -0.6707759495E-04   0.0000000000E+00   0.0000000000E+00   0.1960903728E-01
   0.2759893728E+00   0.1113725338E+00   0.8549177317E-04  -0.2016228971E-05   0.0000000000E+00   0.0000000000E+00   0.2033161702E-01   0.1686455160E-02   0.0000000000E+00  -0.1969113843E-02   0.0000000000E+00   0.0000000000E+00   0.1982568047E-03  -0.4413029944E-04  -0.5119695991E-04  -0.6605421653E-04   0.0000000000E+00   0.0000000000E+00   0.1983637616E-01
   0.2929655816E+00   0.7443799118E-01   0.9053062404E-04  -0.6701214141E-06   0.0000000000E+00   0.0000000000E+00   0.1738542163E-01   0.3018056533E-02   0.0000000000E+00  -0.1415460899E-02   0.0000000000E+00   0.0000000000E+00   0.1648000467E-03  -0.2197569956E-04  -0.3680198338E-04  -0.6121043449E-04   0.0000000000E+00   0.0000000000E+00   0.1627129672E-01
   0.1711656910E+00   0.3888133123E-01   0.7665298276E-04  -0.8982681176E-06   0.0000000000E+00   0.0000000000E+00   0.9164720854E-02  -0.6522206984E-03   0.0000000000E+00  -0.4542034942E-02   0.0000000000E+00   0.0000000000E+00   0.9360387064E-04  -0.3401636955E-04  -0.1180929085E-03  -0.2553750047E-04   0.0000000000E+00   0.0000000000E+00   0.1227417644E-01
   0.2930523956E+00   0.1327465621E+00   0.8778860259E-04  -0.2801853295E-05   0.0000000000E+00   0.0000000000E+00   0.2205953700E-01   0.1433979957E-02   0.0000000000E+00  -0.1447613906E-02   0.0000000000E+00   0.0000000000E+00   0.2162934301E-03  -0.5183881142E-04  -0.3763796155E-04  -0.7048055086E-04   0.0000000000E+00   0.0000000000E+00   0.2152323310E-01
   0.5193044196E-01   0.1833338100E+00   0.1537006482E-04  -0.3467904239E-04   0.0000000000E+00   0.0000000000E+00   0.3088692157E-01   0.1475522636E-02   0.0000000000E+00   0.3581303122E-02   0.0000000000E+00   0.0000000000E+00   0.3044426478E-03  -0.7790553836E-04   0.9311388118E-04  -0.9708733263E-04   0.0000000000E+00   0.0000000000E+00   0.3081507911E-01
   0.5043636074E-01   0.1685582463E+00   0.1599453814E-04  -0.3378969771E-04   0.0000000000E+00   0.0000000000E+00   0.3291056761E-01   0.2256549657E-02   0.0000000000E+00   0.3697340163E-02   0.0000000000E+00   0.0000000000E+00   0.3223360271E-03  -0.7616620625E-04   0.9613084423E-04  -0.1055013518E-03   0.0000000000E+00   0.0000000000E+00   0.3247701854E-01
   0.2918308519E+00   0.5550548668E-01   0.9105985715E-04  -0.3366178336E-06   0.0000000000E+00   0.0000000000E+00   0.1615853635E-01   0.3462299492E-02   0.0000000000E+00  -0.1205982633E-02   0.0000000000E+00   0.0000000000E+00   0.1511984650E-03  -0.1385261412E-04  -0.3135554845E-04  -0.5886250752E-04   0.0000000000E+00   0.0000000000E+00   0.1487975146E-01
   0.2917517687E+00   0.1532901752E+00   0.8645272272E-04  -0.3985792490E-05   0.0000000000E+00   0.0000000000E+00   0.2375609740E-01   0.1033282918E-02   0.0000000000E+00  -0.1284077332E-02   0.0000000000E+00   0.0000000000E+00   0.2344611253E-03  -0.6093546303E-04  -0.3338601064E-04  -0.7436814096E-04   0.0000000000E+00   0.0000000000E+00   0.2335971993E-01
   0.2706552455E+00   0.3669236941E-01   0.8866253081E-04  -0.1679935044E-06   0.0000000000E+00   0.0000000000E+00   0.1470311490E-01   0.3542290180E-02   0.0000000000E+00  -0.1256128685E-02   0.0000000000E+00   0.0000000000E+00   0.1364042784E-03  -0.8686442891E-05  -0.3265934582E-04  -0.5473621523E-04   0.0000000000E+00   0.0000000000E+00   0.1345871510E-01
   0.2507759221E+00   0.3681403276E-01   0.8599810729E-04  -0.2098423046E-06   0.0000000000E+00   0.0000000000E+00   0.1403428226E-01   0.3153868662E-02   0.0000000000E+00  -0.1673313300E-02   0.0000000000E+00   0.0000000000E+00   0.1308812166E-03  -0.1056416016E-04  -0.4350614579E-04  -0.5156445277E-04   0.0000000000E+00   0.0000000000E+00   0.1306394697E-01
   0.2336175141E+00   0.5569958203E-01   0.8249214562E-04  -0.5971718062E-06   0.0000000000E+00   0.0000000000E+00   0.1484584764E-01   0.2156171734E-02   0.0000000000E+00  -0.2793856680E-02   0.0000000000E+00   0.0000000000E+00   0.1419899612E-03  -0.2297582559E-04  -0.7264027369E-04  -0.5100605813E-04   0.0000000000E+00   0.0000000000E+00   0.1470728750E-01
   0.2531226541E+00   0.5532700302E-01   0.8532105636E-04  -0.4682784131E-06   0.0000000000E+00   0.0000000000E+00   0.1535149656E-01   0.2740802964E-02   0.0000000000E+00  -0.2179494989E-02   0.0000000000E+00   0.0000000000E+00   0.1452925567E-03  -0.1864646004E-04  -0.5666686970E-04  -0.5427689857E-04   0.0000000000E+00   0.0000000000E+00   0.1467164920E-01
   0.2349343690E+00   0.1970452677E+00   0.6867395333E-04  -0.9282253084E-05   0.0000000000E+00   0.0000000000E+00   0.2810930719E-01  -0.2113360001E-03   0.0000000000E+00  -0.1080544931E-02   0.0000000000E+00   0.0000000000E+00   0.2817270799E-03  -0.8644128157E-04  -0.2809416821E-04  -0.8369391357E-04   0.0000000000E+00   0.0000000000E+00   0.2827832452E-01
   0.2542951176E+00   0.1956669837E+00   0.7418461132E-04  -0.8166250899E-05   0.0000000000E+00   0.0000000000E+00   0.2764212989E-01   0.1655284255E-04   0.0000000000E+00  -0.1137483701E-02   0.0000000000E+00   0.0000000000E+00   0.2763716404E-03  -0.8276086126E-04  -0.2957457623E-04  -0.8297604821E-04   0.0000000000E+00   0.0000000000E+00   0.2770472417E-01
   0.1596372877E+00   0.7269237672E-01   0.6887367324E-04  -0.3280879045E-05   0.0000000000E+00   0.0000000000E+00   0.1602561816E-01  -0.3155059720E-02   0.0000000000E+00  -0.6207738047E-02   0.0000000000E+00   0.0000000000E+00   0.1697213608E-03  -0.7962745169E-04  -0.1614011892E-03  -0.3861167533E-04   0.0000000000E+00   0.0000000000E+00   0.2077266477E-01
   0.1738104356E+00   0.6065994973E-01   0.7350556963E-04  -0.1768468923E-05   0.0000000000E+00   0.0000000000E+00   0.1370876979E-01  -0.1415701855E-02   0.0000000000E+00  -0.5519765476E-02   0.0000000000E+00   0.0000000000E+00   0.1413348034E-03  -0.5528332791E-04  -0.1435139024E-03  -0.3687920380E-04   0.0000000000E+00   0.0000000000E+00   0.1733954798E-01
   0.1841907950E+00   0.8233653975E-01   0.7130200213E-04  -0.2769450119E-05   0.0000000000E+00   0.0000000000E+00   0.1796375949E-01  -0.1617991110E-02   0.0000000000E+00  -0.5221976018E-02   0.0000000000E+00   0.0000000000E+00   0.1844915682E-03  -0.7007118956E-04  -0.1357713765E-03  -0.4903730513E-04   0.0000000000E+00   0.0000000000E+00   0.2086088618E-01
   0.1694675384E+00   0.8995015116E-01   0.6704043776E-04  -0.4128244575E-05   0.0000000000E+00   0.0000000000E+00   0.1946639695E-01  -0.2947992631E-02   0.0000000000E+00  -0.5288384124E-02   0.0000000000E+00   0.0000000000E+00   0.2035079474E-03  -0.8787911714E-04  -0.1374979872E-03  -0.4955521295E-04   0.0000000000E+00   0.0000000000E+00   0.2299459120E-01
   0.9886528345E-01   0.2141805440E+00   0.2640274942E-04  -0.2883397683E-04   0.0000000000E+00   0.0000000000E+00   0.2892779503E-01  -0.5529768041E-03   0.0000000000E+00   0.2877411380E-02   0.0000000000E+00   0.0000000000E+00   0.2909368807E-03  -0.9231315314E-04   0.7481269588E-04  -0.8512445468E-04   0.0000000000E+00   0.0000000000E+00   0.2961650098E-01
   0.1397861951E+00   0.1993662099E+00   0.4046811105E-04  -0.1995512545E-04   0.0000000000E+00   0.0000000000E+00   0.2989856088E-01  -0.1405104556E-02   0.0000000000E+00   0.1473137334E-02   0.0000000000E+00   0.0000000000E+00   0.3032009225E-03  -0.1037467282E-03   0.3830157069E-04  -0.8548036897E-04   0.0000000000E+00   0.0000000000E+00   0.3072903964E-01
   0.1209230165E+00   0.1986161265E+00   0.3483547830E-04  -0.2316246916E-04   0.0000000000E+00   0.0000000000E+00   0.2994525906E-01  -0.1396677960E-02   0.0000000000E+00   0.2295624681E-02   0.0000000000E+00   0.0000000000E+00   0.3036426245E-03  -0.1038025568E-03   0.5968624171E-04  -0.8564574330E-04   0.0000000000E+00   0.0000000000E+00   0.3092164428E-01
   0.2182495954E+00   0.7553527507E-01   0.7819242233E-04  -0.1423034445E-05   0.0000000000E+00   0.0000000000E+00   0.1669782621E-01   0.8108568956E-03   0.0000000000E+00  -0.3795352253E-02   0.0000000000E+00   0.0000000000E+00   0.1645456914E-03  -0.4198490967E-04  -0.9867915859E-04  -0.5252604931E-04   0.0000000000E+00   0.0000000000E+00   0.1756952880E-01
   0.8033381438E-01   0.1527688703E+00   0.2773887510E-04  -0.2623568214E-04   0.0000000000E+00   0.0000000000E+00   0.3343878748E-01  -0.1462999436E-02   0.0000000000E+00   0.2795564198E-02   0.0000000000E+00   0.0000000000E+00   0.3387768731E-03  -0.1149463568E-03   0.7268466916E-04  -0.9592736415E-04   0.0000000000E+00   0.0000000000E+00   0.3451722815E-01
   0.6985806912E-01   0.1667109075E+00   0.2245101705E-04  -0.2995746485E-04   0.0000000000E+00   0.0000000000E+00   0.3267890823E-01   0.1722672177E-03   0.0000000000E+00   0.3672077883E-02   0.0000000000E+00   0.0000000000E+00   0.3262722806E-03  -0.9631405251E-04   0.9547402496E-04  -0.9855352634E-04   0.0000000000E+00   0.0000000000E+00   0.3320914941E-01
   0.1414884181E+00   0.1830970685E+00   0.4307914021E-04  -0.1793650052E-04   0.0000000000E+00   0.0000000000E+00   0.2975914246E-01  -0.2125958820E-02   0.0000000000E+00   0.1118521314E-02   0.0000000000E+00   0.0000000000E+00   0.3039693011E-03  -0.1105370156E-03   0.2908155415E-04  -0.8289955093E-04   0.0000000000E+00   0.0000000000E+00   0.3093194847E-01
   0.2725830550E+00   0.1745006520E+00   0.8051295416E-04  -0.5847976629E-05   0.0000000000E+00   0.0000000000E+00   0.2581736087E-01   0.4060784205E-03   0.0000000000E+00  -0.1363283393E-02   0.0000000000E+00   0.0000000000E+00   0.2569553735E-03  -0.7339129842E-04  -0.3544536821E-04  -0.7867031789E-04   0.0000000000E+00   0.0000000000E+00   0.2572387057E-01
   0.2920284932E+00   0.1736238131E+00   0.8550917265E-04  -0.5306873992E-05   0.0000000000E+00   0.0000000000E+00   0.2540331062E-01   0.6659725182E-03   0.0000000000E+00  -0.1120337444E-02   0.0000000000E+00   0.0000000000E+00   0.2520351886E-03  -0.6955020667E-04  -0.2912877354E-04  -0.7820784941E-04   0.0000000000E+00   0.0000000000E+00   0.2515217247E-01
   0.9429681405E-01   0.1610161190E+00   0.3121894712E-04  -0.2417196605E-04   0.0000000000E+00   0.0000000000E+00   0.3227014857E-01  -0.2211785617E-02   0.0000000000E+00   0.2684198227E-02   0.0000000000E+00   0.0000000000E+00   0.3293368426E-03  -0.1189283019E-03   0.6978915391E-04  -0.9017508887E-04   0.0000000000E+00   0.0000000000E+00   0.3374146241E-01
   0.8720665717E-01   0.1754565623E+00   0.2708576978E-04  -0.2727567140E-04   0.0000000000E+00   0.0000000000E+00   0.3164302305E-01  -0.1189422557E-02   0.0000000000E+00   0.3627744891E-02   0.0000000000E+00   0.0000000000E+00   0.3199984981E-03  -0.1068232947E-03   0.9432136717E-04  -0.9136080147E-04   0.0000000000E+00   0.0000000000E+00   0.3286019633E-01
   0.2741683686E+00   0.7397273120E-01   0.8746657741E-04  -0.7531043247E-06   0.0000000000E+00   0.0000000000E+00   0.1716151076E-01   0.2702565165E-02   0.0000000000E+00  -0.1920109751E-02   0.0000000000E+00   0.0000000000E+00   0.1635074121E-03  -0.2445888063E-04  -0.4992285354E-04  -0.5959222778E-04   0.0000000000E+00   0.0000000000E+00   0.1631998638E-01
   0.2262231896E+00   0.1122977685E+00   0.7529955190E-04  -0.3178485994E-05   0.0000000000E+00   0.0000000000E+00   0.2098452291E-01  -0.8631339426E-05   0.0000000000E+00  -0.3246737059E-02   0.0000000000E+00   0.0000000000E+00   0.2098711231E-03  -0.6303988212E-04  -0.8441516355E-04  -0.6292767471E-04   0.0000000000E+00   0.0000000000E+00   0.2172313087E-01
   0.2225215116E+00   0.9418235257E-01   0.7672361058E-04  -0.2224933280E-05   0.0000000000E+00   0.0000000000E+00   0.1899251453E-01   0.3382152084E-03   0.0000000000E+00  -0.3640502163E-02   0.0000000000E+00   0.0000000000E+00   0.1889104997E-03  -0.5359539152E-04  -0.9465305623E-04  -0.5799218923E-04   0.0000000000E+00   0.0000000000E+00   0.1984648934E-01
   0.2724739741E+00   0.5526166096E-01   0.8816813139E-04  -0.3868401912E-06   0.0000000000E+00   0.0000000000E+00   0.1579525953E-01   0.3167307326E-02   0.0000000000E+00  -0.1662132703E-02   0.0000000000E+00   0.0000000000E+00   0.1484506734E-03  -0.1571270534E-04  -0.4321545028E-04  -0.5688770058E-04   0.0000000000E+00   0.0000000000E+00   0.1475391222E-01
   0.1569421742E+00   0.5349217086E-01   0.7255420742E-04  -0.2111239807E-05   0.0000000000E+00   0.0000000000E+00   0.1239252710E-01  -0.2734725715E-02   0.0000000000E+00  -0.6017752106E-02   0.0000000000E+00   0.0000000000E+00   0.1321294481E-03  -0.6452483845E-04  -0.1564615548E-03  -0.2897340415E-04   0.0000000000E+00   0.0000000000E+00   0.1744197560E-01
   0.1468235860E+00   0.6075369098E-01   0.6958897962E-04  -0.3182321472E-05   0.0000000000E+00   0.0000000000E+00   0.1313064812E-01  -0.3630600622E-02   0.0000000000E+00  -0.6302048859E-02   0.0000000000E+00   0.0000000000E+00   0.1421982831E-03  -0.7569795059E-04  -0.1638532703E-03  -0.2850014251E-04   0.0000000000E+00   0.0000000000E+00   0.1886359820E-01
   0.1239079626E+00   0.1490878593E+00   0.4270859155E-04  -0.1679565105E-04   0.0000000000E+00   0.0000000000E+00   0.3031670475E-01  -0.3960080517E-02   0.0000000000E+00   0.2541826586E-03   0.0000000000E+00   0.0000000000E+00   0.3150472891E-03  -0.1305509194E-03   0.6608749124E-05  -0.7906987271E-04   0.0000000000E+00   0.0000000000E+00   0.3246635722E-01
   0.1446489664E+00   0.1473458343E+00   0.4937935311E-04  -0.1319372648E-04   0.0000000000E+00   0.0000000000E+00   0.2865303106E-01  -0.3837659685E-02   0.0000000000E+00  -0.1023592810E-02   0.0000000000E+00   0.0000000000E+00   0.2980432896E-03  -0.1243356900E-03  -0.2661341306E-04  -0.7444611411E-04   0.0000000000E+00   0.0000000000E+00   0.3080097015E-01
   0.1432108425E+00   0.1661173865E+00   0.4595446466E-04  -0.1571954883E-04   0.0000000000E+00   0.0000000000E+00   0.2952347061E-01  -0.3058360372E-02   0.0000000000E+00   0.3417586400E-03   0.0000000000E+00   0.0000000000E+00   0.3044097872E-03  -0.1191540156E-03   0.8885724639E-05  -0.7939533072E-04   0.0000000000E+00   0.0000000000E+00   0.3115917070E-01
   0.1255250130E+00   0.1662943586E+00   0.4048703891E-04  -0.1869336493E-04   0.0000000000E+00   0.0000000000E+00   0.3024199975E-01  -0.3148030772E-02   0.0000000000E+00   0.1168530333E-02   0.0000000000E+00   0.0000000000E+00   0.3118640898E-03  -0.1222063070E-03   0.3038178866E-04  -0.8128190694E-04   0.0000000000E+00   0.0000000000E+00   0.3198949430E-01
   0.6670541854E-01   0.1808539825E+00   0.2011454390E-04  -0.3183953944E-04   0.0000000000E+00   0.0000000000E+00   0.3088404878E-01   0.3201926142E-03   0.0000000000E+00   0.3667524575E-02   0.0000000000E+00   0.0000000000E+00   0.3078799100E-03  -0.8945022021E-04   0.9535563894E-04  -0.9361272419E-04   0.0000000000E+00   0.0000000000E+00   0.3136688525E-01
   0.1095792442E+00   0.1660984668E+00   0.3547321319E-04  -0.2166019710E-04   0.0000000000E+00   0.0000000000E+00   0.3128577520E-01  -0.2835948212E-02   0.0000000000E+00   0.2105981616E-02   0.0000000000E+00   0.0000000000E+00   0.3213655967E-03  -0.1222168077E-03   0.5475552203E-04  -0.8534948097E-04   0.0000000000E+00   0.0000000000E+00   0.3299797916E-01
   0.1054637627E+00   0.1805703959E+00   0.3226574442E-04  -0.2415312805E-04   0.0000000000E+00   0.0000000000E+00   0.3078994417E-01  -0.1813738789E-02   0.0000000000E+00   0.2865642546E-02   0.0000000000E+00   0.0000000000E+00   0.3133406580E-03  -0.1105072204E-03   0.7450670621E-04  -0.8692861613E-04   0.0000000000E+00   0.0000000000E+00   0.3211252874E-01
   0.2147667474E+00   0.1816739878E+00   0.6454336076E-04  -0.9284216794E-05   0.0000000000E+00   0.0000000000E+00   0.2746494577E-01  -0.7081697383E-03   0.0000000000E+00  -0.1284820202E-02   0.0000000000E+00   0.0000000000E+00   0.2767739669E-03  -0.8947653469E-04  -0.3340532526E-04  -0.8027032809E-04   0.0000000000E+00   0.0000000000E+00   0.2791476358E-01
   0.2339764694E+00   0.1798125748E+00   0.6997636434E-04  -0.7873235266E-05   0.0000000000E+00   0.0000000000E+00   0.2684845015E-01  -0.2909603748E-03   0.0000000000E+00  -0.1455113773E-02   0.0000000000E+00   0.0000000000E+00   0.2693573827E-03  -0.8345495421E-04  -0.3783295811E-04  -0.7967246934E-04   0.0000000000E+00   0.0000000000E+00   0.2711315667E-01
   0.2753096720E+00   0.1305024771E+00   0.8409204709E-04  -0.2965918183E-05   0.0000000000E+00   0.0000000000E+00   0.2189802643E-01   0.1180830975E-02   0.0000000000E+00  -0.1906837674E-02   0.0000000000E+00   0.0000000000E+00   0.2154377714E-03  -0.5388576955E-04  -0.4957777952E-04  -0.6923657222E-04   0.0000000000E+00   0.0000000000E+00   0.2158286632E-01
   0.2704020196E+00   0.1522819533E+00   0.8148455507E-04  -0.4352748803E-05   0.0000000000E+00   0.0000000000E+00   0.2393589707E-01   0.6552338735E-03   0.0000000000E+00  -0.1732715945E-02   0.0000000000E+00   0.0000000000E+00   0.2373932691E-03  -0.6525535247E-04  -0.4505061456E-04  -0.7377339283E-04   0.0000000000E+00   0.0000000000E+00   0.2380509881E-01
   0.2533688445E+00   0.1774802126E+00   0.7533052124E-04  -0.6743409946E-05   0.0000000000E+00   0.0000000000E+00   0.2620184459E-01   0.8644505028E-04   0.0000000000E+00  -0.1473140766E-02   0.0000000000E+00   0.0000000000E+00   0.2617591107E-03  -0.7774108326E-04  -0.3830165990E-04  -0.7886486891E-04   0.0000000000E+00   0.0000000000E+00   0.2628279450E-01
   0.1221272222E+00   0.5812221485E-01   0.6696815045E-04  -0.5385848395E-05   0.0000000000E+00   0.0000000000E+00   0.1110908044E-01  -0.6606156308E-02   0.0000000000E+00  -0.6751340728E-02   0.0000000000E+00   0.0000000000E+00   0.1309092733E-03  -0.9938880440E-04  -0.1755348589E-03  -0.1350877240E-04   0.0000000000E+00   0.0000000000E+00   0.1965373168E-01
   0.1101010322E+00   0.7309450963E-01   0.5979421043E-04  -0.9052372307E-05   0.0000000000E+00   0.0000000000E+00   0.1729971110E-01  -0.6437129281E-02   0.0000000000E+00  -0.7067087539E-02   0.0000000000E+00   0.0000000000E+00   0.1923084988E-03  -0.1162704261E-03  -0.1837442760E-03  -0.3258774545E-04   0.0000000000E+00   0.0000000000E+00   0.2445717620E-01
   0.1475259960E+00   0.8123026215E-01   0.6462602476E-04  -0.4952948205E-05   0.0000000000E+00   0.0000000000E+00   0.1870839007E-01  -0.4501431745E-02   0.0000000000E+00  -0.6280390286E-02   0.0000000000E+00   0.0000000000E+00   0.2005881959E-03  -0.1011394876E-03  -0.1632901474E-03  -0.4262087497E-04   0.0000000000E+00   0.0000000000E+00   0.2395194463E-01
   0.1352982494E+00   0.7050290353E-01   0.6521940604E-04  -0.5040068168E-05   0.0000000000E+00   0.0000000000E+00   0.1586961399E-01  -0.5174321649E-02   0.0000000000E+00  -0.7017046788E-02   0.0000000000E+00   0.0000000000E+00   0.1742191049E-03  -0.9935205848E-04  -0.1824432165E-03  -0.3208587703E-04   0.0000000000E+00   0.0000000000E+00   0.2245414696E-01
   0.1010108490E+00   0.1969399287E+00   0.2898800097E-04  -0.2674931905E-04   0.0000000000E+00   0.0000000000E+00   0.3004390871E-01  -0.1138336447E-02   0.0000000000E+00   0.3140374230E-02   0.0000000000E+00   0.0000000000E+00   0.3038540964E-03  -0.1015150906E-03   0.8164972998E-04  -0.8671671679E-04   0.0000000000E+00   0.0000000000E+00   0.3110703309E-01
   0.1235686652E+00   0.1823457464E+00   0.3768124749E-04  -0.2092260133E-04   0.0000000000E+00   0.0000000000E+00   0.3029896040E-01  -0.2175474511E-02   0.0000000000E+00   0.2010819549E-02   0.0000000000E+00   0.0000000000E+00   0.3095160276E-03  -0.1126516263E-03   0.5228130827E-04  -0.8437045768E-04   0.0000000000E+00   0.0000000000E+00   0.3162760931E-01
   0.1611621691E+00   0.1679404426E+00   0.5106712370E-04  -0.1334639187E-04   0.0000000000E+00   0.0000000000E+00   0.2865733165E-01  -0.2524577428E-02   0.0000000000E+00  -0.4185488388E-03   0.0000000000E+00   0.0000000000E+00   0.2941470488E-03  -0.1112177692E-03  -0.1088226981E-04  -0.7839826266E-04   0.0000000000E+00   0.0000000000E+00   0.3000497846E-01
   0.1782015182E+00   0.1698376002E+00   0.5573716759E-04  -0.1149777937E-04   0.0000000000E+00   0.0000000000E+00   0.2797044328E-01  -0.1937566220E-02   0.0000000000E+00  -0.8975333679E-03   0.0000000000E+00   0.0000000000E+00   0.2855171315E-03  -0.1032869920E-03  -0.2333586757E-04  -0.7809863119E-04   0.0000000000E+00   0.0000000000E+00   0.2902751825E-01
   0.8809090367E-01   0.1398085053E+00   0.3261826940E-04  -0.2290367640E-04   0.0000000000E+00   0.0000000000E+00   0.3365856855E-01  -0.2725724643E-02   0.0000000000E+00   0.1291091221E-02   0.0000000000E+00   0.0000000000E+00   0.3447628594E-03  -0.1282329521E-03   0.3356837175E-04  -0.9279853171E-04   0.0000000000E+00   0.0000000000E+00   0.3516769152E-01
   0.9944036040E-01   0.8895238486E-01   0.5117240260E-04  -0.1332163962E-04   0.0000000000E+00   0.0000000000E+00   0.2459253698E-01  -0.5781625475E-02   0.0000000000E+00  -0.5791762388E-02   0.0000000000E+00   0.0000000000E+00   0.2632702462E-03  -0.1315938657E-03  -0.1505858221E-03  -0.5643273452E-04   0.0000000000E+00   0.0000000000E+00   0.2938497179E-01
   0.9641446076E-01   0.1276333378E+00   0.3808635514E-04  -0.1938222648E-04   0.0000000000E+00   0.0000000000E+00   0.3242741379E-01  -0.4182603815E-02   0.0000000000E+00  -0.3014030467E-03   0.0000000000E+00   0.0000000000E+00   0.3368219494E-03  -0.1391082795E-03  -0.7836479215E-05  -0.8473442994E-04   0.0000000000E+00   0.0000000000E+00   0.3464343658E-01
   0.2506116729E+00   0.1600904819E+00   0.7606587216E-04  -0.5538131684E-05   0.0000000000E+00   0.0000000000E+00   0.2483537177E-01   0.5953878564E-04   0.0000000000E+00  -0.1826857725E-02   0.0000000000E+00   0.0000000000E+00   0.2481751013E-03  -0.7391072744E-04  -0.4749830086E-04  -0.7468473166E-04   0.0000000000E+00   0.0000000000E+00   0.2500608114E-01
   0.2594341451E+00   0.1275320262E+00   0.8086514634E-04  -0.3137843849E-05   0.0000000000E+00   0.0000000000E+00   0.2204102894E-01   0.8828203326E-03   0.0000000000E+00  -0.2244386584E-02   0.0000000000E+00   0.0000000000E+00   0.2177618284E-03  -0.5729488348E-04  -0.5835405119E-04  -0.6877154781E-04   0.0000000000E+00   0.0000000000E+00   0.2195883005E-01
   0.1962361997E+00   0.1840331936E+00   0.5908974905E-04  -0.1104835360E-04   0.0000000000E+00   0.0000000000E+00   0.2807196440E-01  -0.1119704759E-02   0.0000000000E+00  -0.9104922285E-03   0.0000000000E+00   0.0000000000E+00   0.2840787583E-03  -0.9541294080E-04  -0.2367279794E-04  -0.8085677893E-04   0.0000000000E+00   0.0000000000E+00   0.2869081935E-01
   0.2583640129E+00   0.1415006823E+00   0.7947391394E-04  -0.4022652311E-05   0.0000000000E+00   0.0000000000E+00   0.2355796342E-01   0.7743682870E-03   0.0000000000E+00  -0.1996374369E-02   0.0000000000E+00   0.0000000000E+00   0.2332565293E-03  -0.6293020739E-04  -0.5190573360E-04  -0.7299699512E-04   0.0000000000E+00   0.0000000000E+00   0.2343421693E-01
   0.2460240362E+00   0.1446379724E+00   0.7631718782E-04  -0.4618627031E-05   0.0000000000E+00   0.0000000000E+00   0.2366361032E-01   0.2351232225E-03   0.0000000000E+00  -0.2168426656E-02   0.0000000000E+00   0.0000000000E+00   0.2359307336E-03  -0.6863959874E-04  -0.5637909305E-04  -0.7169620064E-04   0.0000000000E+00   0.0000000000E+00   0.2384276914E-01
   0.1917366442E+00   0.1589804874E+00   0.6095122556E-04  -0.9076585807E-05   0.0000000000E+00   0.0000000000E+00   0.2656761022E-01  -0.1543367560E-02   0.0000000000E+00  -0.1692766673E-02   0.0000000000E+00   0.0000000000E+00   0.2703062048E-03  -0.9513650625E-04  -0.4401193351E-04  -0.7507272797E-04   0.0000000000E+00   0.0000000000E+00   0.2752820725E-01
   0.1945660431E+00   0.1697802636E+00   0.6035111570E-04  -0.9840353973E-05   0.0000000000E+00   0.0000000000E+00   0.2718967485E-01  -0.1460799788E-02   0.0000000000E+00  -0.1333202928E-02   0.0000000000E+00   0.0000000000E+00   0.2762791478E-03  -0.9617702241E-04  -0.3466327612E-04  -0.7718662517E-04   0.0000000000E+00   0.0000000000E+00   0.2804381952E-01
   0.1798301628E+00   0.1552862427E+00   0.5820280580E-04  -0.9829255749E-05   0.0000000000E+00   0.0000000000E+00   0.2705802428E-01  -0.2159644313E-02   0.0000000000E+00  -0.1548053778E-02   0.0000000000E+00   0.0000000000E+00   0.2770591757E-03  -0.1027705160E-03  -0.4024939822E-04  -0.7469513989E-04   0.0000000000E+00   0.0000000000E+00   0.2831763604E-01
   0.1010153444E+00   0.1485463008E+00   0.3539036379E-04  -0.2119724464E-04   0.0000000000E+00   0.0000000000E+00   0.3201945363E-01  -0.3383339552E-02   0.0000000000E+00   0.1444194153E-02   0.0000000000E+00   0.0000000000E+00   0.3303445550E-03  -0.1298917564E-03   0.3754904799E-04  -0.8590834223E-04   0.0000000000E+00   0.0000000000E+00   0.3392358061E-01
   0.2004590516E+00   0.7797856773E-01   0.7489662991E-04  -0.1935669970E-05   0.0000000000E+00   0.0000000000E+00   0.1696689120E-01  -0.2451311926E-03   0.0000000000E+00  -0.4542396977E-02   0.0000000000E+00   0.0000000000E+00   0.1704043056E-03  -0.5335198554E-04  -0.1181023214E-03  -0.5016528004E-04   0.0000000000E+00   0.0000000000E+00   0.1880509237E-01
   0.2114211104E+00   0.1146668572E+00   0.7183140705E-04  -0.3910799307E-05   0.0000000000E+00   0.0000000000E+00   0.2162581438E-01  -0.7604331016E-03   0.0000000000E+00  -0.3474977687E-02   0.0000000000E+00   0.0000000000E+00   0.2185394431E-03  -0.7248177416E-04  -0.9034941986E-04  -0.6259614384E-04   0.0000000000E+00   0.0000000000E+00   0.2281667875E-01
   0.2066509286E+00   0.9689252272E-01   0.7329955840E-04  -0.2873977121E-05   0.0000000000E+00   0.0000000000E+00   0.1958566160E-01  -0.6484038728E-03   0.0000000000E+00  -0.4099238702E-02   0.0000000000E+00   0.0000000000E+00   0.1978018276E-03  -0.6524102352E-04  -0.1065802062E-03  -0.5681177317E-04   0.0000000000E+00   0.0000000000E+00   0.2113406509E-01
   0.8996502681E-01   0.1039809228E+00   0.4279981241E-04  -0.1763415735E-04   0.0000000000E+00   0.0000000000E+00   0.3122930007E-01  -0.3982921456E-02   0.0000000000E+00  -0.3599967376E-02   0.0000000000E+00   0.0000000000E+00   0.3242417650E-03  -0.1335171148E-03  -0.9359915178E-04  -0.8173913583E-04   0.0000000000E+00   0.0000000000E+00   0.3373354305E-01
   0.1245349909E+00   0.8337936050E-01   0.5919088245E-04  -0.7828097979E-05   0.0000000000E+00   0.0000000000E+00   0.2017097636E-01  -0.6166479662E-02   0.0000000000E+00  -0.6509346874E-02   0.0000000000E+00   0.0000000000E+00   0.2202092026E-03  -0.1221777257E-03  -0.1692430187E-03  -0.4201349011E-04   0.0000000000E+00   0.0000000000E+00   0.2634677981E-01
   0.1087995457E+00   0.1151767338E+00   0.4524565173E-04  -0.1491224784E-04   0.0000000000E+00   0.0000000000E+00   0.2936645236E-01  -0.5379628987E-02   0.0000000000E+00  -0.2756792644E-02   0.0000000000E+00   0.0000000000E+00   0.3098034105E-03  -0.1418956469E-03  -0.7167660874E-04  -0.7196047011E-04   0.0000000000E+00   0.0000000000E+00   0.3277290559E-01
   0.2438938710E+00   0.1279861006E+00   0.7742095390E-04  -0.3593412316E-05   0.0000000000E+00   0.0000000000E+00   0.2217019278E-01   0.3665833047E-03   0.0000000000E+00  -0.2580933857E-02   0.0000000000E+00   0.0000000000E+00   0.2206021779E-03  -0.6284474530E-04  -0.6710428028E-04  -0.6761032826E-04   0.0000000000E+00   0.0000000000E+00   0.2243459697E-01
   0.1989488724E+00   0.1517337960E+00   0.6381939550E-04  -0.7797992278E-05   0.0000000000E+00   0.0000000000E+00   0.2575094358E-01  -0.1589335665E-02   0.0000000000E+00  -0.2072905239E-02   0.0000000000E+00   0.0000000000E+00   0.2622774428E-03  -0.9314618739E-04  -0.5389553622E-04  -0.7248482374E-04   0.0000000000E+00   0.0000000000E+00   0.2681975424E-01
   0.2054363335E+00   0.1444291148E+00   0.6645845401E-04  -0.6663239211E-05   0.0000000000E+00   0.0000000000E+00   0.2491723864E-01  -0.1444319176E-02   0.0000000000E+00  -0.2446705815E-02   0.0000000000E+00   0.0000000000E+00   0.2535053439E-03  -0.8919490767E-04  -0.6361435118E-04  -0.7041875838E-04   0.0000000000E+00   0.0000000000E+00   0.2601772440E-01
   0.1924624432E+00   0.1008168528E+00   0.6981123402E-04  -0.3763169639E-05   0.0000000000E+00   0.0000000000E+00   0.2048278969E-01  -0.1594478757E-02   0.0000000000E+00  -0.4302772642E-02   0.0000000000E+00   0.0000000000E+00   0.2096113332E-03  -0.7739315664E-04  -0.1118720887E-03  -0.5666493280E-04   0.0000000000E+00   0.0000000000E+00   0.2257284975E-01
   0.1417452063E+00   0.1242029296E+00   0.5294025939E-04  -0.1069839679E-04   0.0000000000E+00   0.0000000000E+00   0.2690125841E-01  -0.4758840434E-02   0.0000000000E+00  -0.2844023542E-02   0.0000000000E+00   0.0000000000E+00   0.2832891054E-03  -0.1282921796E-03  -0.7394461208E-04  -0.6642725392E-04   0.0000000000E+00   0.0000000000E+00   0.2996833249E-01
   0.1459234788E+00   0.1118806178E+00   0.5678682019E-04  -0.8610229288E-05   0.0000000000E+00   0.0000000000E+00   0.2494248644E-01  -0.4822115464E-02   0.0000000000E+00  -0.4098178817E-02   0.0000000000E+00   0.0000000000E+00   0.2638912108E-03  -0.1230486140E-03  -0.1065526492E-03  -0.6036111293E-04   0.0000000000E+00   0.0000000000E+00   0.2855318357E-01
   0.1586597214E+00   0.1176610252E+00   0.5888443231E-04  -0.7893810055E-05   0.0000000000E+00   0.0000000000E+00   0.2470554533E-01  -0.4016903120E-02   0.0000000000E+00  -0.3757229975E-02   0.0000000000E+00   0.0000000000E+00   0.2591061627E-03  -0.1142856672E-03  -0.9768797936E-04  -0.6206592663E-04   0.0000000000E+00   0.0000000000E+00   0.2771994256E-01
   0.1541494805E+00   0.1313674257E+00   0.5500750060E-04  -0.1000329274E-04   0.0000000000E+00   0.0000000000E+00   0.2642838095E-01  -0.4176984326E-02   0.0000000000E+00  -0.2711819855E-02   0.0000000000E+00   0.0000000000E+00   0.2768147625E-03  -0.1210549861E-03  -0.7050731622E-04  -0.6675418989E-04   0.0000000000E+00   0.0000000000E+00   0.2908746604E-01
   0.1638194328E+00   0.1519684116E+00   0.5421078151E-04  -0.1122844072E-04   0.0000000000E+00   0.0000000000E+00   0.2761838021E-01  -0.2829378173E-02   0.0000000000E+00  -0.1362087625E-02   0.0000000000E+00   0.0000000000E+00   0.2846719367E-03  -0.1111489224E-03  -0.3541427825E-04  -0.7436700612E-04   0.0000000000E+00   0.0000000000E+00   0.2921768939E-01
   0.1114304534E+00   0.1549283340E+00   0.3776936647E-04  -0.1991498946E-04   0.0000000000E+00   0.0000000000E+00   0.3157485105E-01  -0.3089578703E-02   0.0000000000E+00   0.1517623043E-02   0.0000000000E+00   0.0000000000E+00   0.3250172466E-03  -0.1256203402E-03   0.3945819911E-04  -0.8545581703E-04   0.0000000000E+00   0.0000000000E+00   0.3331108052E-01
   0.1373084826E+00   0.1347311552E+00   0.4950559298E-04  -0.1272879222E-04   0.0000000000E+00   0.0000000000E+00   0.2927029552E-01  -0.4297327652E-02   0.0000000000E+00  -0.1552424900E-02   0.0000000000E+00   0.0000000000E+00   0.3055949382E-03  -0.1307841631E-03  -0.4036304740E-04  -0.7491890360E-04   0.0000000000E+00   0.0000000000E+00   0.3172645004E-01
   0.1805583590E+00   0.1056496703E+00   0.6640497960E-04  -0.4852702834E-05   0.0000000000E+00   0.0000000000E+00   0.2145542997E-01  -0.2663348051E-02   0.0000000000E+00  -0.4488257764E-02   0.0000000000E+00   0.0000000000E+00   0.2225443438E-03  -0.9099977041E-04  -0.1166947019E-03  -0.5637624574E-04   0.0000000000E+00   0.0000000000E+00   0.2417966022E-01
   0.1510313316E+00   0.1000299540E+00   0.6078356384E-04  -0.6651988134E-05   0.0000000000E+00   0.0000000000E+00   0.2220805488E-01  -0.4462240417E-02   0.0000000000E+00  -0.5068217434E-02   0.0000000000E+00   0.0000000000E+00   0.2354672700E-03  -0.1112465688E-03  -0.1317736533E-03  -0.5323744337E-04   0.0000000000E+00   0.0000000000E+00   0.2623621403E-01
   0.1381607502E+00   0.9239029628E-01   0.5966424814E-04  -0.7155116440E-05   0.0000000000E+00   0.0000000000E+00   0.2181437702E-01  -0.5391612770E-02   0.0000000000E+00  -0.5816739843E-02   0.0000000000E+00   0.0000000000E+00   0.2343186085E-03  -0.1193592588E-03  -0.1512352359E-03  -0.4926829275E-04   0.0000000000E+00   0.0000000000E+00   0.2687726448E-01
   0.1558247873E+00   0.9054073460E-01   0.6406733224E-04  -0.5232603893E-05   0.0000000000E+00   0.0000000000E+00   0.1988567704E-01  -0.4473759374E-02   0.0000000000E+00  -0.6052298669E-02   0.0000000000E+00   0.0000000000E+00   0.2122780485E-03  -0.1043946248E-03  -0.1573597654E-03  -0.4623575298E-04   0.0000000000E+00   0.0000000000E+00   0.2474598201E-01
   0.1273064175E+00   0.1185582271E+00   0.5003848720E-04  -0.1209293461E-04   0.0000000000E+00   0.0000000000E+00   0.2816727149E-01  -0.5381885051E-02   0.0000000000E+00  -0.2963244815E-02   0.0000000000E+00   0.0000000000E+00   0.2978183701E-03  -0.1383206650E-03  -0.7704436519E-04  -0.6835615933E-04   0.0000000000E+00   0.0000000000E+00   0.3160206879E-01
   0.1259857628E+00   0.1331228181E+00   0.4634883648E-04  -0.1433385244E-04   0.0000000000E+00   0.0000000000E+00   0.2921505704E-01  -0.4774677342E-02   0.0000000000E+00  -0.1439340321E-02   0.0000000000E+00   0.0000000000E+00   0.3064746024E-03  -0.1353919445E-03  -0.3742284833E-04  -0.7332113909E-04   0.0000000000E+00   0.0000000000E+00   0.3197178492E-01
   0.1144816557E+00   0.1297017154E+00   0.4351673439E-04  -0.1593264869E-04   0.0000000000E+00   0.0000000000E+00   0.2986670637E-01  -0.5352262573E-02   0.0000000000E+00  -0.1306488873E-02   0.0000000000E+00   0.0000000000E+00   0.3147238514E-03  -0.1431227448E-03  -0.3396871069E-04  -0.7354333139E-04   0.0000000000E+00   0.0000000000E+00   0.3290613613E-01
   0.2290498449E+00   0.1294864668E+00   0.7393788436E-04  -0.4221227291E-05   0.0000000000E+00   0.0000000000E+00   0.2267431096E-01  -0.1921204749E-03   0.0000000000E+00  -0.2765176224E-02   0.0000000000E+00   0.0000000000E+00   0.2273194710E-03  -0.6994413763E-04  -0.7189458183E-04  -0.6744657146E-04   0.0000000000E+00   0.0000000000E+00   0.2326527103E-01
   0.2011974049E+00   0.1332314030E+00   0.6692488986E-04  -0.5943996719E-05   0.0000000000E+00   0.0000000000E+00   0.2408011628E-01  -0.1423219647E-02   0.0000000000E+00  -0.2860749359E-02   0.0000000000E+00   0.0000000000E+00   0.2450708217E-03  -0.8647254531E-04  -0.7437948334E-04  -0.6797068989E-04   0.0000000000E+00   0.0000000000E+00   0.2530803768E-01
   0.1975854293E+00   0.1181045910E+00   0.6824325849E-04  -0.4880998103E-05   0.0000000000E+00   0.0000000000E+00   0.2257651204E-01  -0.1576943094E-02   0.0000000000E+00  -0.3546519070E-02   0.0000000000E+00   0.0000000000E+00   0.2304959497E-03  -0.8349896706E-04  -0.9220949583E-04  -0.6299870683E-04   0.0000000000E+00   0.0000000000E+00   0.2419271459E-01
   0.2149767345E+00   0.1311535715E+00   0.7048954508E-04  -0.4989522399E-05   0.0000000000E+00   0.0000000000E+00   0.2318446666E-01  -0.8458322755E-03   0.0000000000E+00  -0.2897384198E-02   0.0000000000E+00   0.0000000000E+00   0.2343821634E-03  -0.7801172273E-04  -0.7533198914E-04  -0.6701590315E-04   0.0000000000E+00   0.0000000000E+00   0.2414319474E-01
   0.1086299049E+00   0.1384963228E+00   0.3977187697E-04  -0.1828517711E-04   0.0000000000E+00   0.0000000000E+00   0.3145516443E-01  -0.4362734604E-02   0.0000000000E+00  -0.7546276274E-05   0.0000000000E+00   0.0000000000E+00   0.3276398481E-03  -0.1379928393E-03  -0.1962031831E-06  -0.8127728946E-04   0.0000000000E+00   0.0000000000E+00   0.3383085581E-01
   0.1687991076E+00   0.1364849446E+00   0.5810460941E-04  -0.8946446447E-05   0.0000000000E+00   0.0000000000E+00   0.2606570689E-01  -0.3313059970E-02   0.0000000000E+00  -0.2524494575E-02   0.0000000000E+00   0.0000000000E+00   0.2705962488E-03  -0.1113277204E-03  -0.6563685894E-04  -0.6825794075E-04   0.0000000000E+00   0.0000000000E+00   0.2820211620E-01
   0.1863583295E+00   0.1396182353E+00   0.6225350949E-04  -0.7626728085E-05   0.0000000000E+00   0.0000000000E+00   0.2528273981E-01  -0.2283927669E-02   0.0000000000E+00  -0.2559754879E-02   0.0000000000E+00   0.0000000000E+00   0.2596791811E-03  -0.9868749614E-04  -0.6655362685E-04  -0.6899643643E-04   0.0000000000E+00   0.0000000000E+00   0.2686059712E-01
   0.1627043839E+00   0.1046991027E+00   0.6254585496E-04  -0.6089298274E-05   0.0000000000E+00   0.0000000000E+00   0.2288727164E-01  -0.3549395066E-02   0.0000000000E+00  -0.4475540112E-02   0.0000000000E+00   0.0000000000E+00   0.2395209016E-03  -0.1041557656E-03  -0.1163640429E-03  -0.5801362972E-04   0.0000000000E+00   0.0000000000E+00   0.2599778635E-01
   0.1844454122E+00   0.1214597819E+00   0.6461223077E-04  -0.6043136972E-05   0.0000000000E+00   0.0000000000E+00   0.2350747976E-01  -0.2335167996E-02   0.0000000000E+00  -0.3461138620E-02   0.0000000000E+00   0.0000000000E+00   0.2420803016E-03  -0.9387411923E-04  -0.8998960412E-04  -0.6351693529E-04   0.0000000000E+00   0.0000000000E+00   0.2545739277E-01
   0.1716054014E+00   0.1218062115E+00   0.6140044005E-04  -0.7100531978E-05   0.0000000000E+00   0.0000000000E+00   0.2417700890E-01  -0.3230958095E-02   0.0000000000E+00  -0.3509770562E-02   0.0000000000E+00   0.0000000000E+00   0.2514629633E-03  -0.1048406077E-03  -0.9125403461E-04  -0.6283815242E-04   0.0000000000E+00   0.0000000000E+00   0.2663526442E-01
   0.1156615845E+00   0.9813344593E-01   0.5230348274E-04  -0.1122687084E-04   0.0000000000E+00   0.0000000000E+00   0.2505361926E-01  -0.6205000517E-02   0.0000000000E+00  -0.5130539019E-02   0.0000000000E+00   0.0000000000E+00   0.2691511942E-03  -0.1372108629E-03  -0.1333940145E-03  -0.5654585623E-04   0.0000000000E+00   0.0000000000E+00   0.2998850794E-01
   0.1314740847E+00   0.1053052811E+00   0.5453072436E-04  -0.9651905363E-05   0.0000000000E+00   0.0000000000E+00   0.2531550848E-01  -0.5632592266E-02   0.0000000000E+00  -0.4503660244E-02   0.0000000000E+00   0.0000000000E+00   0.2700528616E-03  -0.1322724481E-03  -0.1170951663E-03  -0.5904874864E-04   0.0000000000E+00   0.0000000000E+00   0.2955038416E-01
   0.1719094843E+00   0.1103362786E+00   0.6358627006E-04  -0.5918427881E-05   0.0000000000E+00   0.0000000000E+00   0.2213404561E-01  -0.3264885770E-02   0.0000000000E+00  -0.4312843503E-02   0.0000000000E+00   0.0000000000E+00   0.2311351135E-03  -0.9905099454E-04  -0.1121339311E-03  -0.5660747953E-04   0.0000000000E+00   0.0000000000E+00   0.2506816540E-01
           1           2           3           4
           5           6           7           8
           9          10          11          12
          13          14          15          16
          17          18          19          20
          21          22          23          24
          25          26          27          28
          29          30          31          32
          33          34           4           3
           2           1          35          36
          37          38          39          40
          41          42          36          35
          43          41          44          45
          46           9          47          48
          41          35          39          44
          49          50          51          52
          52          51          53          54
          55          56          57          58
          56          59          60          57
          61          62          63          64
          65          66          67          68
          69          70          71          72
          73          74          25          28
          27          75          76          28
          77          78          24          23
          79          80          81          82
          83          84          85          86
          87          88          89          90
          90          89          62          91
          61          92          91          62
          92          61          59          93
          56          94          93          59
          95          55          54          53
          46          96          10           9
          97          98          99         100
          12         101          98          97
          97         100         102          47
         103         104          31          30
         105         103          30         106
          73         107         108         109
         110         111         112         113
          32          31         114         115
         116         117         118         119
         120         121         122         123
         121          83          86         122
          80         124         125          81
         126         127         128         129
         130         101          12          11
         131          43         101         130
          34         129         132           4
          42          41          43         131
          35           1          40          39
         101          43          45          98
         133         134         109         108
         135         136          13          16
         137         138          65          68
          94          56          55          95
          58         137          54          55
          49          52          68          67
         139         140         141         142
         140         139          82          81
          88          87         142         141
         143         144         145         146
         147          26          25         148
         149         150         128         151
           5           8         152         102
         132         129         128         150
         153         100          99         154
          48          47         102         152
          59          61          64          60
         106         155         113         118
          62          89         156          63
          88         157         156          89
         123         116         119         120
          66          65         134         133
         144         143          84          83
           9          12          97          47
         104         158         114          31
         159         160         127         126
         119         112         161         120
         117         105         106         118
         162         163         164         165
          83         121         166         144
         167         168         141         140
         167         143         146         168
           6         114         158           7
          38          37         169         170
          40         132         150          37
         160         159          20          19
          78         171         172          24
          18          17          21          24
         173         174          78          77
         132          40           1           4
          28          76         107          73
         175         176         177         178
         176         179          57          60
         137          68          52          54
          60          64         177         176
         163         162         155          29
          75          27         174         173
         180         174          27          26
          64          63         181         177
          98          45         182          99
         183         182          45          44
          38         183          44          39
          58          57         179         184
         185         181          63         156
         134         186         187         109
         188          74         187         189
         138         186         134          65
          88         141         168         157
         166         121         120         161
         190         191         166         161
         155         106          30          29
         192         193         194         195
         118         113         112         119
         125          84         143         167
         124          85          84         125
           6         196         115         114
         196           6           5         153
         197          32         115         198
         111         190         161         112
         199         148         188         135
         170         169         200         201
         202         164         163         197
         203         204         146         145
         205         206         201         200
         187          74          73         109
         176         175         207         179
         208         209          16          15
         210         186         138         184
         184         138         137          58
         179         207         210         184
         211         212         172         171
          78         174         180         171
         125         167         140          81
          37         150         149         169
         213         214         215         216
         217         182         183         201
         170         201         183          38
         218         219         206         205
         111         220         221         190
         157         168         146         204
         177         181         222         178
         222         181         185         223
         186         210         189         187
         224         191         190         221
         100         153           5         102
         185         156         157         204
         113         155         162         110
          26         147         193         180
          29          32         197         163
         225         226          19          18
         144         166         191         145
         212         192         227         228
         198         115         196         229
         206         154         217         201
         153         154         229         196
         172         225          18          24
         148          25          74         188
          14          13         175         178
         207         175          13         136
         189         136         135         188
         230         202         197         198
         210         207         136         189
         165         164         231         232
         169         149         233         200
         234         160          19         226
         217         154          99         182
         203         145         191         224
         151         235         233         149
         236         223         203         224
         185         204         203         223
         178         222         237          14
         110         162         165         238
         239         223         236         240
         238         220         111         110
         219         230         198         229
         241         242         232         243
         242          69         220         238
          72          71         240         236
         244         205         200         233
         215         231         164         202
         211         171         180         193
         228         225         172         212
         194         193         147         245
         245         147         148         199
         135          16         209         199
         209         208         246         247
         127         160         234         248
         193         192         212         211
         226         225         228         249
         151         128         127         248
         248         250         235         151
          72         221         220          69
          14         237         251          15
          70          69         252         253
         206         219         229         154
         238         165         232         242
          72         236         224         221
         216         215         202         230
         245         247         254         194
         255         256         257         258
         230         219         218         216
         214         259         231         215
         216         218         260         213
         261         255         258         214
         239         237         222         223
         194         254         262         195
         263         264         227         265
         250         266         267         268
         199         209         247         245
         240          71         269         251
         270         271         246         272
         260         244         273         213
         237         239         240         251
         218         205         244         260
          70         272         269          71
         232         231         259         243
         274         275         243         259
         257         256         263         276
         277         275         274         278
         234         226         249         279
         271         277         262         254
         271         254         247         246
         246         208         269         272
         244         233         235         273
         251         269         208          15
         275         270         253         252
         234         279         250         248
         279         249         264         280
         259         214         258         274
         262         281         276         195
         195         276         263         265
         257         276         281         278
         278         274         258         257
         266         280         256         255
         261         214         213         267
         267         266         255         261
         266         250         279         280
         228         227         264         249
         256         280         264         263
         265         227         192         195
         281         262         277         278
         235         250         268         273
         273         268         267         213
         277         271         270         275
         253         270         272          70
         252          69         242         241
         243         275         252         241
 VARIABLES = X,Y,DU1,DU2,U1,U2,S11,S22,S33,S12,S13,S23,E11,E22,E12,E33,E13,E23,SMISES
 ZONE, T="0.2000D+01" F=FEPOINT, I=  281 J=  250
   0.1776936410E-01   0.1341652464E+00   0.7173700808E-05  -0.3627480944E-04   0.7173700808E-05  -0.3627480944E-04   0.8596226111E-01   0.1618333600E-01   0.0000000000E+00   0.1282905198E-02   0.0000000000E+00   0.0000000000E+00   0.8110726031E-03  -0.9605342332E-04   0.3335553514E-04  -0.3064367913E-03   0.0000000000E+00   0.0000000000E+00   0.7872212686E-01
   0.0000000000E+00   0.1332590913E+00   0.0000000000E+00  -0.3712433844E-04   0.0000000000E+00  -0.3712433844E-04   0.8672871994E-01   0.1725874050E-01   0.0000000000E+00   0.2431487860E-02   0.0000000000E+00   0.0000000000E+00   0.8155109779E-03  -0.8759875479E-04   0.6321868436E-04  -0.3119623813E-03   0.0000000000E+00   0.0000000000E+00   0.7951747662E-01
   0.0000000000E+00   0.1165947140E+00   0.0000000000E+00  -0.3597650796E-04   0.0000000000E+00  -0.3597650796E-04   0.1103137884E+00   0.9068478962E-02   0.0000000000E+00   0.2093005645E-02   0.0000000000E+00   0.0000000000E+00   0.1075932447E-02  -0.2402565756E-03   0.5441814677E-04  -0.3581468021E-03   0.0000000000E+00   0.0000000000E+00   0.1060490358E+00
   0.1917415112E-01   0.1162212926E+00   0.1000706109E-04  -0.3494770620E-04   0.1000706109E-04  -0.3494770620E-04   0.1010899999E+00   0.8949613780E-02   0.0000000000E+00  -0.9005094719E-02   0.0000000000E+00   0.0000000000E+00   0.9840511576E-03  -0.2137738619E-03  -0.2341324627E-03  -0.3301188410E-03   0.0000000000E+00   0.0000000000E+00   0.9873944285E-01
   0.7803853133E-01   0.2318080787E+00   0.1851606492E-04  -0.3416214462E-04   0.1851606492E-04  -0.3416214462E-04   0.5290006989E-01  -0.1684108601E-04   0.0000000000E+00   0.3643591968E-02   0.0000000000E+00   0.0000000000E+00   0.5290512222E-03  -0.1588686205E-03   0.9473339118E-04  -0.1586496864E-03   0.0000000000E+00   0.0000000000E+00   0.5330871197E-01
   0.9782575609E-01   0.2319940403E+00   0.2387809382E-04  -0.3061086520E-04   0.2387809382E-04  -0.3061086520E-04   0.5594630887E-01  -0.2774075973E-03   0.0000000000E+00   0.3319333023E-02   0.0000000000E+00   0.0000000000E+00   0.5602953115E-03  -0.1706130026E-03   0.8630265859E-04  -0.1670067038E-03   0.0000000000E+00   0.0000000000E+00   0.5639871502E-01
   0.9726410190E-01   0.2499355731E+00   0.2093899991E-04  -0.3221346831E-04   0.2093899991E-04  -0.3221346831E-04   0.5462089347E-01  -0.1983013199E-03   0.0000000000E+00   0.1171025340E-02   0.0000000000E+00   0.0000000000E+00   0.5468038386E-03  -0.1658456936E-03   0.3044665885E-04  -0.1632677764E-03   0.0000000000E+00   0.0000000000E+00   0.5470959796E-01
   0.7780951772E-01   0.2499288114E+00   0.1586856091E-04  -0.3559431363E-04   0.1586856091E-04  -0.3559431363E-04   0.4948311347E-01  -0.3073893793E-03   0.0000000000E+00   0.1295796802E-02   0.0000000000E+00   0.0000000000E+00   0.4957533028E-03  -0.1515232342E-03   0.3369071685E-04  -0.1475271723E-03   0.0000000000E+00   0.0000000000E+00   0.4963379640E-01
   0.1910657925E-01   0.2332394223E+00   0.4194324500E-05  -0.4170336085E-04   0.4194324500E-05  -0.4170336085E-04   0.4471505282E-01   0.1068075294E-02   0.0000000000E+00   0.1020338792E-02   0.0000000000E+00   0.0000000000E+00   0.4439463023E-03  -0.1234644055E-03   0.2652880860E-04  -0.1373493843E-03   0.0000000000E+00   0.0000000000E+00   0.4429843691E-01
   0.0000000000E+00   0.2332488275E+00   0.0000000000E+00  -0.4225327452E-04   0.0000000000E+00  -0.4225327452E-04   0.4399031116E-01   0.1141735593E-02   0.0000000000E+00   0.1289593275E-02   0.0000000000E+00   0.0000000000E+00   0.4364779049E-03  -0.1205535776E-03   0.3352942516E-04  -0.1353961403E-03   0.0000000000E+00   0.0000000000E+00   0.4347207078E-01
   0.0000000000E+00   0.2165842499E+00   0.0000000000E+00  -0.4120955512E-04   0.0000000000E+00  -0.4120955512E-04   0.5015212095E-01   0.2572402462E-02   0.0000000000E+00   0.1307470566E-02   0.0000000000E+00   0.0000000000E+00   0.4938040021E-03  -0.1247323382E-03   0.3399423471E-04  -0.1581735702E-03   0.0000000000E+00   0.0000000000E+00   0.4893903364E-01
   0.1854148339E-01   0.2166932612E+00   0.4594296533E-05  -0.4067589180E-04   0.4594296533E-05  -0.4067589180E-04   0.5063933316E-01   0.2363092680E-02   0.0000000000E+00   0.2047689044E-02   0.0000000000E+00   0.0000000000E+00   0.4993040536E-03  -0.1282870727E-03   0.5323991515E-04  -0.1590072775E-03   0.0000000000E+00   0.0000000000E+00   0.4969157822E-01
   0.2573721402E+00   0.9227130955E-01   0.8332712020E-04  -0.1480726220E-05   0.8332712020E-04  -0.1480726220E-05   0.3727925891E-01   0.3497808038E-02   0.0000000000E+00  -0.5096478596E-02   0.0000000000E+00   0.0000000000E+00   0.3622991650E-03  -0.7685969636E-04  -0.1325084435E-03  -0.1223312008E-03   0.0000000000E+00   0.0000000000E+00   0.3672640047E-01
   0.2587655413E+00   0.1102814482E+00   0.8213167433E-04  -0.2240886236E-05   0.8213167433E-04  -0.2240886236E-05   0.4071441985E-01   0.2580148754E-02   0.0000000000E+00  -0.4897442608E-02   0.0000000000E+00   0.0000000000E+00   0.3994037523E-03  -0.9634177201E-04  -0.1273335078E-03  -0.1298837058E-03   0.0000000000E+00   0.0000000000E+00   0.4038002651E-01
   0.2420129771E+00   0.1106714181E+00   0.7872254551E-04  -0.2625452180E-05   0.7872254551E-04  -0.2625452180E-05   0.4112703768E-01   0.1380656441E-02   0.0000000000E+00  -0.5767718883E-02   0.0000000000E+00   0.0000000000E+00   0.4071284075E-03  -0.1095745486E-03  -0.1499606910E-03  -0.1275230824E-03   0.0000000000E+00   0.0000000000E+00   0.4166139955E-01
   0.2395402187E+00   0.9267775967E-01   0.8004134111E-04  -0.1779416926E-05   0.8004134111E-04  -0.1779416926E-05   0.3739270762E-01   0.2241936074E-02   0.0000000000E+00  -0.6203744513E-02   0.0000000000E+00   0.0000000000E+00   0.3672012679E-03  -0.8975876211E-04  -0.1612973573E-03  -0.1189039311E-03   0.0000000000E+00   0.0000000000E+00   0.3786763252E-01
   0.9253029714E-01   0.3824683635E-01   0.7117262020E-04  -0.1075312325E-04   0.7117262020E-04  -0.1075312325E-04  -0.4671567456E-02  -0.3137056957E-01   0.0000000000E+00   0.4856330201E-02   0.0000000000E+00   0.0000000000E+00   0.4739603416E-04  -0.2996909934E-03   0.1262645852E-03   0.1081264111E-03   0.0000000000E+00   0.0000000000E+00   0.2799212372E-01
   0.1081857953E+00   0.4608508758E-01   0.6946764023E-04  -0.6726961335E-05   0.6946764023E-04  -0.6726961335E-05   0.1008135159E-01  -0.1396233463E-01   0.0000000000E+00  -0.6720476363E-02   0.0000000000E+00   0.0000000000E+00   0.1427005198E-03  -0.1698674011E-03  -0.1747323854E-03   0.1164294910E-04   0.0000000000E+00   0.0000000000E+00   0.2211834724E-01
   0.9623420200E-01   0.6351908203E-01   0.6155280127E-04  -0.1155633551E-04   0.6155280127E-04  -0.1155633551E-04   0.2087724762E-01  -0.8212708573E-02   0.0000000000E+00  -0.1007256893E-01   0.0000000000E+00   0.0000000000E+00   0.2334106019E-03  -0.1447588286E-03  -0.2618867923E-03  -0.3799361714E-04   0.0000000000E+00   0.0000000000E+00   0.3130351505E-01
   0.8327574518E-01   0.5552455672E-01   0.6439283980E-04  -0.1623348976E-04   0.6439283980E-04  -0.1623348976E-04   0.6057432912E-02  -0.6909334153E-02   0.0000000000E+00  -0.3098211402E-02   0.0000000000E+00   0.0000000000E+00   0.8130233158E-04  -0.8726564027E-04  -0.8055349646E-04   0.2555703725E-05   0.0000000000E+00   0.0000000000E+00   0.1322544095E-01
   0.9822861123E-01   0.1949841209E-01   0.7504231292E-04  -0.5310154320E-05   0.7504231292E-04  -0.5310154320E-05  -0.4643655449E-02  -0.5008915645E-01   0.0000000000E+00   0.6777617503E-02   0.0000000000E+00   0.0000000000E+00   0.1038309149E-03  -0.4869605982E-03   0.1762180551E-03   0.1641984357E-03   0.0000000000E+00   0.0000000000E+00   0.4764060251E-01
   0.1001533794E+00   0.0000000000E+00   0.7668918340E-04   0.0000000000E+00   0.7668918340E-04   0.0000000000E+00  -0.6525477448E-02  -0.5381822108E-01   0.0000000000E+00  -0.3691845297E-02   0.0000000000E+00   0.0000000000E+00   0.9619988875E-04  -0.5186057784E-03  -0.9598797772E-04   0.1810310956E-03   0.0000000000E+00   0.0000000000E+00   0.5101315650E-01
   0.1209887152E+00   0.0000000000E+00   0.7769259034E-04   0.0000000000E+00   0.7769259034E-04   0.0000000000E+00  -0.3421715514E-04  -0.1850252546E-01   0.0000000000E+00  -0.4137378671E-02   0.0000000000E+00   0.0000000000E+00   0.5516540484E-04  -0.1849226032E-03  -0.1075718454E-03   0.5561022785E-04   0.0000000000E+00   0.0000000000E+00   0.1936217338E-01
   0.1218816269E+00   0.2610742134E-01   0.7538143686E-04  -0.2443679755E-05   0.7538143686E-04  -0.2443679755E-05   0.4711593312E-02  -0.1742254876E-01   0.0000000000E+00  -0.4391838938E-02   0.0000000000E+00   0.0000000000E+00   0.9938357940E-04  -0.1883602675E-03  -0.1141878124E-03   0.3813286634E-04   0.0000000000E+00   0.0000000000E+00   0.2256018226E-01
   0.2107060839E+00   0.3763245745E-01   0.8097243763E-04  -0.3876730188E-06   0.8097243763E-04  -0.3876730188E-06   0.2427575543E-01   0.3718203313E-02   0.0000000000E+00  -0.5648438225E-02   0.0000000000E+00   0.0000000000E+00   0.2316029443E-03  -0.3564523314E-04  -0.1468593939E-03  -0.8398187622E-04   0.0000000000E+00   0.0000000000E+00   0.2459586336E-01
   0.1906152471E+00   0.3838135584E-01   0.7866855081E-04  -0.5722780739E-06   0.7866855081E-04  -0.5722780739E-06   0.2190489492E-01   0.1425541657E-02   0.0000000000E+00  -0.7271016469E-02   0.0000000000E+00   0.0000000000E+00   0.2147723242E-03  -0.5145926818E-04  -0.1890464282E-03  -0.6999130972E-04   0.0000000000E+00   0.0000000000E+00   0.2457182048E-01
   0.1868679396E+00   0.1901245067E-01   0.7989382484E-04  -0.2349657289E-06   0.7989382484E-04  -0.2349657289E-06   0.1732263359E-01   0.2274675332E-02   0.0000000000E+00  -0.3549867039E-02   0.0000000000E+00   0.0000000000E+00   0.1664023099E-03  -0.2922114745E-04  -0.9229654303E-04  -0.5879192676E-04   0.0000000000E+00   0.0000000000E+00   0.1757771841E-01
   0.2073958484E+00   0.1873773125E-01   0.8178322220E-04  -0.1463252366E-06   0.8178322220E-04  -0.1463252366E-06   0.2109663210E-01   0.4324065178E-02   0.0000000000E+00  -0.2814796181E-02   0.0000000000E+00   0.0000000000E+00   0.1979941255E-03  -0.2004924452E-04  -0.7318470072E-04  -0.7626209184E-04   0.0000000000E+00   0.0000000000E+00   0.1997284293E-01
   0.1575108129E+00   0.2159197231E+00   0.4373295765E-04  -0.1886243751E-04   0.4373295765E-04  -0.1886243751E-04   0.6048388695E-01  -0.1329237685E-02   0.0000000000E+00   0.1596712932E-02   0.0000000000E+00   0.0000000000E+00   0.6088265826E-03  -0.1947440377E-03   0.4151453624E-04  -0.1774639478E-03   0.0000000000E+00   0.0000000000E+00   0.6121839650E-01
   0.1565352551E+00   0.2325642907E+00   0.4129203372E-04  -0.2060565788E-04   0.4129203372E-04  -0.2060565788E-04   0.6198606819E-01  -0.5604474948E-03   0.0000000000E+00   0.9980505540E-03   0.0000000000E+00   0.0000000000E+00   0.6215420244E-03  -0.1915626795E-03   0.2594931440E-04  -0.1842768621E-03   0.0000000000E+00   0.0000000000E+00   0.6229736645E-01
   0.1370499581E+00   0.2325827993E+00   0.3529354858E-04  -0.2366734658E-04   0.3529354858E-04  -0.2366734658E-04   0.6069612285E-01  -0.5799606494E-03   0.0000000000E+00   0.1786631947E-02   0.0000000000E+00   0.0000000000E+00   0.6087011105E-03  -0.1878879751E-03   0.4645243063E-04  -0.1803484866E-03   0.0000000000E+00   0.0000000000E+00   0.6107388545E-01
   0.1382909497E+00   0.2157690557E+00   0.3791982871E-04  -0.2185864502E-04   0.3791982871E-04  -0.2185864502E-04   0.6003545191E-01  -0.1478842827E-02   0.0000000000E+00   0.2955559361E-02   0.0000000000E+00   0.0000000000E+00   0.6047910476E-03  -0.1948947840E-03   0.7684454339E-04  -0.1756698273E-03   0.0000000000E+00   0.0000000000E+00   0.6099226188E-01
   0.0000000000E+00   0.9993359939E-01   0.0000000000E+00  -0.3320080307E-04   0.0000000000E+00  -0.3320080307E-04   0.1642152809E+00   0.1141373624E-01   0.0000000000E+00   0.2305607906E-02   0.0000000000E+00   0.0000000000E+00   0.1607911600E-02  -0.3785084802E-03   0.5994580554E-04  -0.5268870514E-03   0.0000000000E+00   0.0000000000E+00   0.1576466543E+00
   0.1953997721E-01   0.9801411790E-01   0.1547240370E-04  -0.3220434981E-04   0.1547240370E-04  -0.3220434981E-04   0.1520405303E+00   0.1143627336E-01   0.0000000000E+00  -0.2282284152E-01   0.0000000000E+00   0.0000000000E+00   0.1486096483E-02  -0.3417588573E-03  -0.5933938794E-03  -0.4904304110E-03   0.0000000000E+00   0.0000000000E+00   0.1506131797E+00
   0.1681076359E-01   0.1512623401E+00   0.5852394331E-05  -0.3718747266E-04   0.5852394331E-05  -0.3718747266E-04   0.7350343528E-01   0.1244528648E-01   0.0000000000E+00   0.2212458579E-02   0.0000000000E+00   0.0000000000E+00   0.6976984934E-03  -0.9605744101E-04   0.5752392305E-04  -0.2578461653E-03   0.0000000000E+00   0.0000000000E+00   0.6847367688E-01
   0.0000000000E+00   0.1499243939E+00   0.0000000000E+00  -0.3780606723E-04   0.0000000000E+00  -0.3780606723E-04   0.7422537083E-01   0.1416300043E-01   0.0000000000E+00   0.1857875833E-02   0.0000000000E+00   0.0000000000E+00   0.6997647071E-03  -0.8104610821E-04   0.4830477165E-04  -0.2651651138E-03   0.0000000000E+00   0.0000000000E+00   0.6833060407E-01
   0.5109339279E-01   0.1386072007E+00   0.1954134279E-04  -0.3121966648E-04   0.1954134279E-04  -0.3121966648E-04   0.7596981157E-01   0.4832072978E-02   0.0000000000E+00   0.3824458318E-02   0.0000000000E+00   0.0000000000E+00   0.7452018968E-03  -0.1795887049E-03   0.9943591628E-04  -0.2424056536E-03   0.0000000000E+00   0.0000000000E+00   0.7392104562E-01
   0.4908057795E-01   0.1539941985E+00   0.1683707346E-04  -0.3288874068E-04   0.1683707346E-04  -0.3288874068E-04   0.7038453582E-01   0.5319198263E-02   0.0000000000E+00   0.6127491537E-02   0.0000000000E+00   0.0000000000E+00   0.6878877634E-03  -0.1579616248E-03   0.1593147800E-03  -0.2271112023E-03   0.0000000000E+00   0.0000000000E+00   0.6872056435E-01
   0.3319839243E-01   0.1526656113E+00   0.1146386679E-04  -0.3542183320E-04   0.1146386679E-04  -0.3542183320E-04   0.7233080346E-01   0.9423541910E-02   0.0000000000E+00   0.4666966956E-02   0.0000000000E+00   0.0000000000E+00   0.6950374089E-03  -0.1227569913E-03   0.1213411408E-03  -0.2452630361E-03   0.0000000000E+00   0.0000000000E+00   0.6886937737E-01
   0.3439868171E-01   0.1356715154E+00   0.1360255597E-04  -0.3413630513E-04   0.1360255597E-04  -0.3413630513E-04   0.7999936343E-01   0.9790066146E-02   0.0000000000E+00   0.4738070209E-02   0.0000000000E+00   0.0000000000E+00   0.7706234359E-03  -0.1420974288E-03   0.1231898254E-03  -0.2693682887E-03   0.0000000000E+00   0.0000000000E+00   0.7499160318E-01
   0.1669518579E-01   0.1677271983E+00   0.5259745871E-05  -0.3796982941E-04   0.5259745871E-05  -0.3796982941E-04   0.6639798998E-01   0.1029487676E-01   0.0000000000E+00   0.2723375357E-02   0.0000000000E+00   0.0000000000E+00   0.6330952695E-03  -0.9624520231E-04   0.7080775928E-04  -0.2300786002E-03   0.0000000000E+00   0.0000000000E+00   0.6211087367E-01
   0.0000000000E+00   0.1665896889E+00   0.0000000000E+00  -0.3849155194E-04   0.0000000000E+00  -0.3849155194E-04   0.6646366146E-01   0.1122809742E-01   0.0000000000E+00   0.1568525676E-02   0.0000000000E+00   0.0000000000E+00   0.6309523223E-03  -0.8711001015E-04   0.4078166757E-04  -0.2330752766E-03   0.0000000000E+00   0.0000000000E+00   0.6163010258E-01
   0.1710142065E-01   0.1840479461E+00   0.4979124603E-05  -0.3879096543E-04   0.4979124603E-05  -0.3879096543E-04   0.6069956267E-01   0.7258887030E-02   0.0000000000E+00   0.2669611473E-02   0.0000000000E+00   0.0000000000E+00   0.5852189656E-03  -0.1095098177E-03   0.6940989830E-04  -0.2038753491E-03   0.0000000000E+00   0.0000000000E+00   0.5767584713E-01
   0.3341156630E-01   0.1685341643E+00   0.1052775111E-04  -0.3636385582E-04   0.1052775111E-04  -0.3636385582E-04   0.6594558246E-01   0.7532341764E-02   0.0000000000E+00   0.5858916537E-02   0.0000000000E+00   0.0000000000E+00   0.6368587993E-03  -0.1225133297E-03   0.1523318300E-03  -0.2204337727E-03   0.0000000000E+00   0.0000000000E+00   0.6321718684E-01
   0.3453350210E-01   0.1842048103E+00   0.1009999946E-04  -0.3721135049E-04   0.1009999946E-04  -0.3721135049E-04   0.6090286746E-01   0.5528775659E-02   0.0000000000E+00   0.5653301391E-02   0.0000000000E+00   0.0000000000E+00   0.5924423477E-03  -0.1274208458E-03   0.1469858362E-03  -0.1992949294E-03   0.0000000000E+00   0.0000000000E+00   0.5914734787E-01
   0.1945144302E-01   0.2499146520E+00   0.3498958293E-05  -0.4267398575E-04   0.3498958293E-05  -0.4267398575E-04   0.3651963426E-01  -0.6456993830E-03   0.0000000000E+00   0.1850032211E-03   0.0000000000E+00   0.0000000000E+00   0.3671334408E-03  -0.1160158966E-03   0.4810083748E-05  -0.1076218046E-03   0.0000000000E+00   0.0000000000E+00   0.3690398784E-01
   0.3849503251E-01   0.2328641741E+00   0.8608407358E-05  -0.4005294358E-04   0.8608407358E-05  -0.4005294358E-04   0.4673854713E-01   0.8238785997E-03   0.0000000000E+00   0.2647618891E-02   0.0000000000E+00   0.0000000000E+00   0.4649138355E-03  -0.1319768554E-03   0.6883809117E-04  -0.1426872772E-03   0.0000000000E+00   0.0000000000E+00   0.4658685675E-01
   0.3890330645E-01   0.2499178173E+00   0.7208076002E-05  -0.4109136650E-04   0.7208076002E-05  -0.4109136650E-04   0.3968691634E-01  -0.5562119070E-03   0.0000000000E+00   0.1043705337E-02   0.0000000000E+00   0.0000000000E+00   0.3985377991E-03  -0.1246228681E-03   0.2713633877E-04  -0.1173921133E-03   0.0000000000E+00   0.0000000000E+00   0.4000432512E-01
   0.3293609111E+00   0.0000000000E+00   0.9711503874E-04   0.0000000000E+00   0.9711503874E-04   0.0000000000E+00   0.3020580371E-01   0.8734088606E-02   0.0000000000E+00  -0.9171276961E-04   0.0000000000E+00   0.0000000000E+00   0.2758557713E-03  -0.3276525082E-05  -0.2384532010E-05  -0.1168196770E-03   0.0000000000E+00   0.0000000000E+00   0.2692266195E-01
   0.3501999940E+00   0.0000000000E+00   0.1000000000E-03   0.0000000000E+00   0.1000000000E-03   0.0000000000E+00   0.3038306163E-01   0.8788518485E-02   0.0000000000E+00  -0.5517231076E-06   0.0000000000E+00   0.0000000000E+00   0.2774650608E-03  -0.3264000033E-05  -0.1434480080E-07  -0.1175147403E-03   0.0000000000E+00   0.0000000000E+00   0.2708031005E-01
   0.3501999940E+00   0.1923069135E-01   0.1000000000E-03  -0.3927361594E-07   0.1000000000E-03  -0.3927361594E-07   0.3071453755E-01   0.8640657987E-02   0.0000000000E+00  -0.1118997845E-06   0.0000000000E+00   0.0000000000E+00   0.2812234016E-03  -0.5737032796E-05  -0.2909394396E-08  -0.1180655866E-03   0.0000000000E+00   0.0000000000E+00   0.2743327719E-01
   0.3299571062E+00   0.1871446880E-01   0.9715960959E-04  -0.3825040932E-07   0.9715960959E-04  -0.3825040932E-07   0.3055506506E-01   0.8594237399E-02   0.0000000000E+00  -0.2811270197E-03   0.0000000000E+00   0.0000000000E+00   0.2797679384E-03  -0.5722821196E-05  -0.7309302512E-05  -0.1174479074E-03   0.0000000000E+00   0.0000000000E+00   0.2729596007E-01
   0.3501999940E+00   0.3846128804E-01   0.1000000000E-03  -0.1259314826E-06   0.1000000000E-03  -0.1259314826E-06   0.3172063810E-01   0.8209396464E-02   0.0000000000E+00   0.3151226450E-05   0.0000000000E+00   0.0000000000E+00   0.2925781916E-03  -0.1306794965E-04   0.8193188769E-07  -0.1197901037E-03   0.0000000000E+00   0.0000000000E+00   0.2851263494E-01
   0.3304000477E+00   0.3768278646E-01   0.9710983635E-04  -0.1230206226E-06   0.9710983635E-04  -0.1230206226E-06   0.3158930778E-01   0.8180580234E-02   0.0000000000E+00  -0.5849763092E-03   0.0000000000E+00   0.0000000000E+00   0.2913513371E-03  -0.1296212100E-04  -0.1520938404E-04  -0.1193096640E-03   0.0000000000E+00   0.0000000000E+00   0.2841049021E-01
   0.3307524765E+00   0.5676212766E-01   0.9698375451E-04  -0.2987199771E-06   0.9698375451E-04  -0.2987199771E-06   0.3325193984E-01   0.7518177874E-02   0.0000000000E+00  -0.7909483702E-03   0.0000000000E+00   0.0000000000E+00   0.3099648648E-03  -0.2457404078E-04  -0.2056465763E-04  -0.1223103531E-03   0.0000000000E+00   0.0000000000E+00   0.3022750432E-01
   0.3310312574E+00   0.7595544119E-01   0.9679521264E-04  -0.6044565700E-06   0.9679521264E-04  -0.6044565700E-06   0.3544886205E-01   0.6664184786E-02   0.0000000000E+00  -0.9406381895E-03   0.0000000000E+00   0.0000000000E+00   0.3344960661E-03  -0.3970473828E-04  -0.2445659293E-04  -0.1263391405E-03   0.0000000000E+00   0.0000000000E+00   0.3266366400E-01
   0.3119988184E+00   0.7514426606E-01   0.9364067592E-04  -0.6233693490E-06   0.9364067592E-04  -0.6233693490E-06   0.3513598026E-01   0.6432893908E-02   0.0000000000E+00  -0.1864403760E-02   0.0000000000E+00   0.0000000000E+00   0.3320611209E-03  -0.4107900169E-04  -0.4847449776E-04  -0.1247066225E-03   0.0000000000E+00   0.0000000000E+00   0.3255505041E-01
   0.3113329210E+00   0.5605258041E-01   0.9400147928E-04  -0.3092443953E-06   0.9400147928E-04  -0.3092443953E-06   0.3285740250E-01   0.7305106225E-02   0.0000000000E+00  -0.1578278059E-02   0.0000000000E+00   0.0000000000E+00   0.3066587063E-03  -0.2552114526E-04  -0.4103522954E-04  -0.1204875262E-03   0.0000000000E+00   0.0000000000E+00   0.3000080796E-01
   0.3311754478E+00   0.9525385870E-01   0.9654537556E-04  -0.1071050767E-05   0.9654537556E-04  -0.1071050767E-05   0.3806137888E-01   0.5678032484E-02   0.0000000000E+00  -0.1020110090E-02   0.0000000000E+00   0.0000000000E+00   0.3635796913E-03  -0.5740381180E-04  -0.2652286233E-04  -0.1312182341E-03   0.0000000000E+00   0.0000000000E+00   0.3559954865E-01
   0.3123749670E+00   0.9439841626E-01   0.9315601985E-04  -0.1102871346E-05   0.9315601985E-04  -0.1102871346E-05   0.3783380487E-01   0.5439990918E-02   0.0000000000E+00  -0.2006131785E-02   0.0000000000E+00   0.0000000000E+00   0.3620180759E-03  -0.5910150543E-04  -0.5215942642E-04  -0.1298213874E-03   0.0000000000E+00   0.0000000000E+00   0.3559156484E-01
   0.3311612722E+00   0.1147061204E+00   0.9623759778E-04  -0.1721778702E-05   0.9623759778E-04  -0.1721778702E-05   0.4097571064E-01   0.4635505700E-02   0.0000000000E+00  -0.1043049215E-02   0.0000000000E+00   0.0000000000E+00   0.3958505893E-03  -0.7657207491E-04  -0.2711927958E-04  -0.1368336490E-03   0.0000000000E+00   0.0000000000E+00   0.3890035205E-01
   0.3310194532E+00   0.1342699003E+00   0.9588511024E-04  -0.2566868807E-05   0.9588511024E-04  -0.2566868807E-05   0.4405992469E-01   0.3606274235E-02   0.0000000000E+00  -0.1003129848E-02   0.0000000000E+00   0.0000000000E+00   0.4297804242E-03  -0.9611703170E-04  -0.2608137605E-04  -0.1429985968E-03   0.0000000000E+00   0.0000000000E+00   0.4240136442E-01
   0.3119814680E+00   0.1337883651E+00   0.9180551823E-04  -0.2658444113E-05   0.9180551823E-04  -0.2658444113E-05   0.4405916880E-01   0.3353489500E-02   0.0000000000E+00  -0.1951538455E-02   0.0000000000E+00   0.0000000000E+00   0.4305312195E-03  -0.9864261139E-04  -0.5073999983E-04  -0.1422379749E-03   0.0000000000E+00   0.0000000000E+00   0.4261257267E-01
   0.3123710874E+00   0.1139319737E+00   0.9254222017E-04  -0.1774655076E-05   0.9254222017E-04  -0.1774655076E-05   0.4084866160E-01   0.4377913168E-02   0.0000000000E+00  -0.2031025055E-02   0.0000000000E+00   0.0000000000E+00   0.3953528765E-03  -0.7876685312E-04  -0.5280665142E-04  -0.1356797243E-03   0.0000000000E+00   0.0000000000E+00   0.3899905643E-01
   0.2891786878E+00   0.1826408009E-01   0.9156189856E-04  -0.4625408251E-07   0.9156189856E-04  -0.4625408251E-07   0.2918857488E-01   0.8065629573E-02   0.0000000000E+00  -0.8709211222E-03   0.0000000000E+00   0.0000000000E+00   0.2676888600E-03  -0.6909428891E-05  -0.2264394918E-04  -0.1117626133E-03   0.0000000000E+00   0.0000000000E+00   0.2615406622E-01
   0.2876829551E+00   0.0000000000E+00   0.9148055335E-04   0.0000000000E+00   0.9148055335E-04   0.0000000000E+00   0.2872480500E-01   0.8199766126E-02   0.0000000000E+00  -0.2880914922E-03   0.0000000000E+00   0.0000000000E+00   0.2626487516E-03  -0.4176753752E-05  -0.7490378797E-05  -0.1107737134E-03   0.0000000000E+00   0.0000000000E+00   0.2562425204E-01
   0.3085218640E+00   0.0000000000E+00   0.9426351416E-04   0.0000000000E+00   0.9426351416E-04   0.0000000000E+00   0.2966270652E-01   0.8540888259E-02   0.0000000000E+00  -0.1853365265E-03   0.0000000000E+00   0.0000000000E+00   0.2710044004E-03  -0.3579236959E-05  -0.4818749689E-05  -0.1146107843E-03   0.0000000000E+00   0.0000000000E+00   0.2644598423E-01
   0.3095762870E+00   0.1840617214E-01   0.9433151943E-04  -0.4058067522E-07   0.9433151943E-04  -0.4058067522E-07   0.3004405785E-01   0.8403306839E-02   0.0000000000E+00  -0.5638474224E-03   0.0000000000E+00   0.0000000000E+00   0.2752306580E-03  -0.6099105170E-05  -0.1466003298E-04  -0.1153420941E-03   0.0000000000E+00   0.0000000000E+00   0.2686585249E-01
   0.2123389542E+00   0.1636748887E+00   0.6587058204E-04  -0.7861648467E-05   0.6587058204E-04  -0.7861648467E-05   0.5243432505E-01  -0.1820641510E-02   0.0000000000E+00  -0.3522755887E-02   0.0000000000E+00   0.0000000000E+00   0.5298051751E-03  -0.1755093903E-03  -0.9159165307E-04  -0.1518410506E-03   0.0000000000E+00   0.0000000000E+00   0.5371063190E-01
   0.2164463100E+00   0.1467569102E+00   0.6891048186E-04  -0.6172413349E-05   0.6891048186E-04  -0.6172413349E-05   0.4905099852E-01  -0.1843846286E-02   0.0000000000E+00  -0.4821330214E-02   0.0000000000E+00   0.0000000000E+00   0.4960415241E-03  -0.1655914584E-03  -0.1253545856E-03  -0.1416214567E-03   0.0000000000E+00   0.0000000000E+00   0.5067675042E-01
   0.2311000113E+00   0.1467249165E+00   0.7251813074E-04  -0.5390745667E-05   0.7251813074E-04  -0.5390745667E-05   0.4853192848E-01  -0.6589946234E-03   0.0000000000E+00  -0.4522571578E-02   0.0000000000E+00   0.0000000000E+00   0.4872962687E-03  -0.1521857317E-03  -0.1175868610E-03  -0.1436188016E-03   0.0000000000E+00   0.0000000000E+00   0.4948538604E-01
   0.2322913782E+00   0.1630919650E+00   0.7113459479E-04  -0.6605018358E-05   0.7113459479E-04  -0.6605018358E-05   0.5129286851E-01  -0.6072758388E-03   0.0000000000E+00  -0.3600705746E-02   0.0000000000E+00   0.0000000000E+00   0.5147505126E-03  -0.1599513639E-03  -0.9361834941E-04  -0.1520567780E-03   0.0000000000E+00   0.0000000000E+00   0.5197324350E-01
   0.2279333680E+00   0.1845689357E-01   0.8395598345E-04  -0.9936692280E-07   0.8395598345E-04  -0.9936692280E-07   0.2399504312E-01   0.5798018579E-02   0.0000000000E+00  -0.2157948571E-02   0.0000000000E+00   0.0000000000E+00   0.2225563755E-03  -0.1400494359E-04  -0.5610666285E-04  -0.8937918511E-04   0.0000000000E+00   0.0000000000E+00   0.2203963261E-01
   0.2307851312E+00   0.3704761309E-01   0.8342411208E-04  -0.2758542324E-06   0.8342411208E-04  -0.2758542324E-06   0.2639347569E-01   0.5210327643E-02   0.0000000000E+00  -0.4356060193E-02   0.0000000000E+00   0.0000000000E+00   0.2483037740E-03  -0.2707715064E-04  -0.1132575650E-03  -0.9481140999E-04   0.0000000000E+00   0.0000000000E+00   0.2531280925E-01
   0.1834936828E+00   0.0000000000E+00   0.8017289214E-04   0.0000000000E+00   0.8017289214E-04   0.0000000000E+00   0.1548034683E-01   0.2237256384E-02   0.0000000000E+00  -0.1305696177E-02   0.0000000000E+00   0.0000000000E+00   0.1480916991E-03  -0.2406847664E-04  -0.3394810060E-04  -0.5315280963E-04   0.0000000000E+00   0.0000000000E+00   0.1451777493E-01
   0.2043304670E+00   0.0000000000E+00   0.8190049282E-04   0.0000000000E+00   0.8190049282E-04   0.0000000000E+00   0.1964817994E-01   0.4518802651E-02   0.0000000000E+00  -0.9804749519E-03   0.0000000000E+00   0.0000000000E+00   0.1829253914E-03  -0.1375651330E-04  -0.2549234875E-04  -0.7250094776E-04   0.0000000000E+00   0.0000000000E+00   0.1775746793E-01
   0.1418227915E+00   0.0000000000E+00   0.7806273548E-04   0.0000000000E+00   0.7806273548E-04   0.0000000000E+00   0.3152195545E-02  -0.7997058747E-02   0.0000000000E+00  -0.3136395989E-02   0.0000000000E+00   0.0000000000E+00   0.5551313169E-04  -0.8942717411E-04  -0.8154629571E-04   0.1453458961E-04   0.0000000000E+00   0.0000000000E+00   0.1107745786E-01
   0.1458236945E+00   0.2097990670E-01   0.7700522855E-04  -0.8273498823E-06   0.7700522855E-04  -0.8273498823E-06   0.7102896814E-02  -0.6571188289E-02   0.0000000000E+00  -0.4937150459E-02   0.0000000000E+00   0.0000000000E+00   0.9074253301E-04  -0.8702057334E-04  -0.1283659119E-03  -0.1595125575E-05   0.0000000000E+00   0.0000000000E+00   0.1489353711E-01
   0.3501999940E+00   0.2499782626E+00   0.1000000000E-03  -0.1086868525E-04   0.1000000000E-03  -0.1086868525E-04   0.5994206261E-01   0.1910393487E-03   0.0000000000E+00   0.1726726944E-03   0.0000000000E+00   0.0000000000E+00   0.5988475080E-03  -0.1779157943E-03   0.4489490055E-05  -0.1803993059E-03   0.0000000000E+00   0.0000000000E+00   0.5984748642E-01
   0.3307439038E+00   0.2499781094E+00   0.9417288591E-04  -0.1094527924E-04   0.9417288591E-04  -0.1094527924E-04   0.6010990064E-01   0.1927142280E-03   0.0000000000E+00  -0.1257015620E-03   0.0000000000E+00   0.0000000000E+00   0.6005208637E-03  -0.1784025596E-03  -0.3268240612E-05  -0.1809078446E-03   0.0000000000E+00   0.0000000000E+00   0.6001446181E-01
   0.3309774012E+00   0.2310282273E+00   0.9442411028E-04  -0.9269372719E-05   0.9442411028E-04  -0.9269372719E-05   0.5816166668E-01   0.1260950434E-03   0.0000000000E+00  -0.3000081743E-03   0.0000000000E+00   0.0000000000E+00   0.5812383817E-03  -0.1732240496E-03  -0.7800212532E-05  -0.1748632852E-03   0.0000000000E+00   0.0000000000E+00   0.5810145155E-01
   0.3501999940E+00   0.2307508820E+00   0.1000000000E-03  -0.9174980948E-05   0.1000000000E-03  -0.9174980948E-05   0.5804297014E-01   0.1433892026E-03   0.0000000000E+00   0.1600586278E-03   0.0000000000E+00   0.0000000000E+00   0.5799995338E-03  -0.1726950184E-03   0.4161524322E-05  -0.1745590780E-03   0.0000000000E+00   0.0000000000E+00   0.5797228316E-01
   0.2731744061E+00   0.2316445057E+00   0.7741206039E-04  -0.1050816389E-04   0.7741206039E-04  -0.1050816389E-04   0.5982968924E-01   0.1907248110E-05   0.0000000000E+00  -0.8089707311E-03   0.0000000000E+00   0.0000000000E+00   0.5982911706E-03  -0.1794699952E-03  -0.2103323901E-04  -0.1794947895E-03   0.0000000000E+00   0.0000000000E+00   0.5984765205E-01
   0.2924288307E+00   0.2314698598E+00   0.8313833859E-04  -0.9914081685E-05   0.8313833859E-04  -0.9914081685E-05   0.5910728916E-01   0.5853779576E-04   0.0000000000E+00  -0.6849338029E-03   0.0000000000E+00   0.0000000000E+00   0.5908972782E-03  -0.1767364895E-03  -0.1780827887E-04  -0.1774974809E-03   0.0000000000E+00   0.0000000000E+00   0.5909176366E-01
   0.2918314441E+00   0.2499768062E+00   0.8239353590E-04  -0.1159691782E-04   0.8239353590E-04  -0.1159691782E-04   0.6137061604E-01   0.2178199765E-03   0.0000000000E+00  -0.2062591711E-03   0.0000000000E+00   0.0000000000E+00   0.6130527004E-03  -0.1819336483E-03  -0.5362738449E-05  -0.1847653080E-03   0.0000000000E+00   0.0000000000E+00   0.6126233668E-01
   0.2723749955E+00   0.2499755709E+00   0.7638726341E-04  -0.1221453869E-04   0.7638726341E-04  -0.1221453869E-04   0.6236721754E-01   0.2404759417E-03   0.0000000000E+00  -0.2389470647E-03   0.0000000000E+00   0.0000000000E+00   0.6229507475E-03  -0.1846968932E-03  -0.6212623683E-05  -0.1878230804E-03   0.0000000000E+00   0.0000000000E+00   0.6224785577E-01
   0.3501999940E+00   0.1730674565E+00   0.1000000000E-03  -0.4735727678E-05   0.1000000000E-03  -0.4735727678E-05   0.5017253017E-01   0.1884443307E-02   0.0000000000E+00   0.1253869274E-03   0.0000000000E+00   0.0000000000E+00   0.4960719718E-03  -0.1316731574E-03   0.3260060112E-05  -0.1561709204E-03   0.0000000000E+00   0.0000000000E+00   0.4925582767E-01
   0.3309685785E+00   0.1733047039E+00   0.9522826733E-04  -0.4807041504E-05   0.9522826733E-04  -0.4807041504E-05   0.5023183814E-01   0.1808569715E-02   0.0000000000E+00  -0.8164914258E-03   0.0000000000E+00   0.0000000000E+00   0.4968926722E-03  -0.1326098173E-03  -0.2122877707E-04  -0.1561212236E-03   0.0000000000E+00   0.0000000000E+00   0.4936963373E-01
   0.3309607771E+00   0.1538401503E+00   0.9554456449E-04  -0.3600865664E-05   0.9554456449E-04  -0.3600865664E-05   0.4717819533E-01   0.2657306544E-02   0.0000000000E+00  -0.9307269602E-03   0.0000000000E+00   0.0000000000E+00   0.4638100336E-03  -0.1149615205E-03  -0.2419890096E-04  -0.1495065056E-03   0.0000000000E+00   0.0000000000E+00   0.4593098228E-01
   0.3501999940E+00   0.1538390543E+00   0.1000000000E-03  -0.3552845045E-05   0.1000000000E-03  -0.3552845045E-05   0.4713461815E-01   0.2727376655E-02   0.0000000000E+00   0.1109886031E-03   0.0000000000E+00   0.0000000000E+00   0.4631640515E-03  -0.1141300879E-03   0.2885703682E-05  -0.1495859844E-03   0.0000000000E+00   0.0000000000E+00   0.4582886840E-01
   0.3501999940E+00   0.1346103013E+00   0.1000000000E-03  -0.2544832685E-05   0.1000000000E-03  -0.2544832685E-05   0.4403468694E-01   0.3667933952E-02   0.0000000000E+00   0.8604452067E-04   0.0000000000E+00   0.0000000000E+00   0.4293430675E-03  -0.9542472128E-04   0.2237157537E-05  -0.1431078627E-03   0.0000000000E+00   0.0000000000E+00   0.4231576301E-01
   0.3501999940E+00   0.1153811772E+00   0.1000000000E-03  -0.1719395775E-05   0.1000000000E-03  -0.1719395775E-05   0.4098052997E-01   0.4670814222E-02   0.0000000000E+00   0.6621999432E-04   0.0000000000E+00   0.0000000000E+00   0.3957928570E-03  -0.7623344768E-04   0.1721719852E-05  -0.1369540326E-03   0.0000000000E+00   0.0000000000E+00   0.3885001376E-01
   0.3501999940E+00   0.9615169204E-01   0.1000000000E-03  -0.1077928826E-05   0.1000000000E-03  -0.1077928826E-05   0.3809438796E-01   0.5694491411E-02   0.0000000000E+00   0.4355902964E-04   0.0000000000E+00   0.0000000000E+00   0.3638604054E-03  -0.5733824978E-04   0.1132534771E-05  -0.1313666381E-03   0.0000000000E+00   0.0000000000E+00   0.3558311400E-01
   0.3501999940E+00   0.7692185518E-01   0.1000000000E-03  -0.6123112952E-06   0.1000000000E-03  -0.6123112952E-06   0.3550947588E-01   0.6671593563E-02   0.0000000000E+00   0.2553999578E-04   0.0000000000E+00   0.0000000000E+00   0.3350799781E-03  -0.3981249201E-04   0.6640398904E-06  -0.1265432083E-03   0.0000000000E+00   0.0000000000E+00   0.3268083444E-01
   0.3501999940E+00   0.5769169910E-01   0.1000000000E-03  -0.3044504355E-06   0.1000000000E-03  -0.3044504355E-06   0.3334781549E-01   0.7533134400E-02   0.0000000000E+00   0.1168653676E-04   0.0000000000E+00   0.0000000000E+00   0.3108787517E-03  -0.2471210248E-04   0.3038499557E-06  -0.1226428497E-03   0.0000000000E+00   0.0000000000E+00   0.3028582026E-01
   0.0000000000E+00   0.2499135616E+00   0.0000000000E+00  -0.4321922400E-04   0.0000000000E+00  -0.4321922400E-04   0.3539047403E-01  -0.6747788608E-03   0.0000000000E+00   0.1264850421E-02   0.0000000000E+00   0.0000000000E+00   0.3559290769E-03  -0.1129192107E-03   0.3288611095E-04  -0.1041470855E-03   0.0000000000E+00   0.0000000000E+00   0.3579744575E-01
   0.3760590997E-01   0.2161406596E+00   0.9435383102E-05  -0.3901022444E-04   0.9435383102E-05  -0.3901022444E-04   0.5191412567E-01   0.1794745474E-02   0.0000000000E+00   0.4572153305E-02   0.0000000000E+00   0.0000000000E+00   0.5137570203E-03  -0.1377949223E-03   0.1188759859E-03  -0.1611266134E-03   0.0000000000E+00   0.0000000000E+00   0.5162992520E-01
   0.3621303213E-01   0.2000285713E+00   0.9862313201E-05  -0.3806382529E-04   0.9862313201E-05  -0.3806382529E-04   0.5641770577E-01   0.3512192684E-02   0.0000000000E+00   0.5319311497E-02   0.0000000000E+00   0.0000000000E+00   0.5536404796E-03  -0.1341311905E-03   0.1383020989E-03  -0.1797896954E-03   0.0000000000E+00   0.0000000000E+00   0.5549274755E-01
   0.5561373431E-01   0.1985384463E+00   0.1540615401E-04  -0.3528882907E-04   0.1540615401E-04  -0.3528882907E-04   0.5801629653E-01   0.1975004295E-02   0.0000000000E+00   0.7053939749E-02   0.0000000000E+00   0.0000000000E+00   0.5742379524E-03  -0.1542988466E-03   0.1834024335E-03  -0.1799739025E-03   0.0000000000E+00   0.0000000000E+00   0.5836482697E-01
   0.5753624823E-01   0.2148528600E+00   0.1475406468E-04  -0.3624449171E-04   0.1475406468E-04  -0.3624449171E-04   0.5420097672E-01   0.8724611068E-03   0.0000000000E+00   0.5900412725E-02   0.0000000000E+00   0.0000000000E+00   0.5393923839E-03  -0.1538783191E-03   0.1534107308E-03  -0.1652203135E-03   0.0000000000E+00   0.0000000000E+00   0.5472212005E-01
   0.1781729571E-01   0.2003359882E+00   0.4813806206E-05  -0.3969240577E-04   0.4813806206E-05  -0.3969240577E-04   0.5575607128E-01   0.4694406655E-02   0.0000000000E+00   0.2472480940E-02   0.0000000000E+00   0.0000000000E+00   0.5434774928E-03  -0.1203241473E-03   0.6428450443E-04  -0.1813514338E-03   0.0000000000E+00   0.0000000000E+00   0.5379660033E-01
   0.5822491572E-01   0.2322432173E+00   0.1339390857E-04  -0.3743534535E-04   0.1339390857E-04  -0.3743534535E-04   0.4966373218E-01   0.5033439740E-03   0.0000000000E+00   0.3384265947E-02   0.0000000000E+00   0.0000000000E+00   0.4951272898E-03  -0.1439577568E-03   0.8799091462E-04  -0.1505012285E-03   0.0000000000E+00   0.0000000000E+00   0.4980638632E-01
   0.1556327434E+00   0.2499551848E+00   0.3859122364E-04  -0.2240760423E-04   0.3859122364E-04  -0.2240760423E-04   0.6476409357E-01   0.2001723952E-03   0.0000000000E+00   0.4135645589E-03   0.0000000000E+00   0.0000000000E+00   0.6470404185E-03  -0.1922905568E-03   0.1075267853E-04  -0.1948927979E-03   0.0000000000E+00   0.0000000000E+00   0.6466790381E-01
   0.1361759036E+00   0.2499491290E+00   0.3239678858E-04  -0.2543549050E-04   0.3239678858E-04  -0.2543549050E-04   0.6254384054E-01   0.9472708398E-04   0.0000000000E+00   0.6849287835E-03   0.0000000000E+00   0.0000000000E+00   0.6251542241E-03  -0.1866842508E-03   0.1780814837E-04  -0.1879157029E-03   0.0000000000E+00   0.0000000000E+00   0.6249649937E-01
   0.1750898816E+00   0.2499604856E+00   0.4494232407E-04  -0.1975719873E-04   0.4494232407E-04  -0.1975719873E-04   0.6584847850E-01   0.2600589330E-03   0.0000000000E+00   0.1767541127E-03   0.0000000000E+00   0.0000000000E+00   0.6577046082E-03  -0.1949448462E-03   0.4595606931E-05  -0.1983256123E-03   0.0000000000E+00   0.0000000000E+00   0.6572395403E-01
   0.1760189189E+00   0.2324602305E+00   0.4739093448E-04  -0.1794125539E-04   0.4739093448E-04  -0.1794125539E-04   0.6258599372E-01  -0.4954354557E-03   0.0000000000E+00   0.3156464721E-03   0.0000000000E+00   0.0000000000E+00   0.6273462436E-03  -0.1927123357E-03   0.8206808275E-05  -0.1862716748E-03   0.0000000000E+00   0.0000000000E+00   0.6284185413E-01
   0.2251679102E+00   0.0000000000E+00   0.8395808191E-04   0.0000000000E+00   0.8395808191E-04   0.0000000000E+00   0.2291496050E-01   0.5930168090E-02   0.0000000000E+00  -0.7393050936E-03   0.0000000000E+00   0.0000000000E+00   0.2113591007E-03  -0.9443200600E-05  -0.1922193243E-04  -0.8653538577E-04   0.0000000000E+00   0.0000000000E+00   0.2058129809E-01
   0.2460058976E+00   0.0000000000E+00   0.8628030067E-04   0.0000000000E+00   0.8628030067E-04   0.0000000000E+00   0.2544478595E-01   0.6959268298E-02   0.0000000000E+00  -0.5543214324E-03   0.0000000000E+00   0.0000000000E+00   0.2335700546E-03  -0.6741674884E-05  -0.1441235724E-04  -0.9721216276E-04   0.0000000000E+00   0.0000000000E+00   0.2276063659E-01
   0.2484190255E+00   0.1834228254E-01   0.8634173279E-04  -0.7267901072E-07   0.8634173279E-04  -0.7267901072E-07   0.2623908314E-01   0.6817980396E-02   0.0000000000E+00  -0.1642206815E-02   0.0000000000E+00   0.0000000000E+00   0.2419368902E-03  -0.1053744545E-04  -0.4269737720E-04  -0.9917119060E-04   0.0000000000E+00   0.0000000000E+00   0.2376856083E-01
   0.1966634155E+00   0.1994896193E+00   0.5742472998E-04  -0.1248186585E-04   0.5742472998E-04  -0.1248186585E-04   0.5808870535E-01  -0.1525337800E-02   0.0000000000E+00  -0.1066096794E-02   0.0000000000E+00   0.0000000000E+00   0.5854630669E-03  -0.1895194940E-03  -0.2771851665E-04  -0.1696901026E-03   0.0000000000E+00   0.0000000000E+00   0.5889579092E-01
   0.2156852386E+00   0.1983708194E+00   0.6305677502E-04  -0.1071878350E-04   0.6305677502E-04  -0.1071878350E-04   0.5717409013E-01  -0.9086682005E-03   0.0000000000E+00  -0.1769776807E-02   0.0000000000E+00   0.0000000000E+00   0.5744669059E-03  -0.1806089524E-03  -0.4601419698E-04  -0.1687962658E-03   0.0000000000E+00   0.0000000000E+00   0.5771520167E-01
   0.2156648715E+00   0.2151135592E+00   0.6141176059E-04  -0.1224439457E-04   0.6141176059E-04  -0.1224439457E-04   0.5953813623E-01  -0.4878003176E-03   0.0000000000E+00  -0.1184858346E-02   0.0000000000E+00   0.0000000000E+00   0.5968447632E-03  -0.1834924119E-03  -0.3080631699E-04  -0.1771510077E-03   0.0000000000E+00   0.0000000000E+00   0.5982114924E-01
   0.1963338298E+00   0.2155932518E+00   0.5556089056E-04  -0.1403508641E-04   0.5556089056E-04  -0.1403508641E-04   0.6016296725E-01  -0.8010903583E-03   0.0000000000E+00  -0.5370502479E-03   0.0000000000E+00   0.0000000000E+00   0.6040329436E-03  -0.1884998053E-03  -0.1396330644E-04  -0.1780856307E-03   0.0000000000E+00   0.0000000000E+00   0.6057720126E-01
   0.1175768601E+00   0.2323829333E+00   0.2949303427E-04  -0.2703336411E-04   0.2949303427E-04  -0.2703336411E-04   0.5862923050E-01  -0.5392993435E-03   0.0000000000E+00   0.2625293632E-02   0.0000000000E+00   0.0000000000E+00   0.5879102031E-03  -0.1812806849E-03   0.6825763444E-04  -0.1742697935E-03   0.0000000000E+00   0.0000000000E+00   0.5908889841E-01
   0.1189449978E+00   0.2151973348E+00   0.3218391309E-04  -0.2518562119E-04   0.3218391309E-04  -0.2518562119E-04   0.5919020906E-01  -0.1449900735E-02   0.0000000000E+00   0.4403569519E-02   0.0000000000E+00   0.0000000000E+00   0.5962517928E-03  -0.1920696345E-03   0.1144928075E-03  -0.1732209250E-03   0.0000000000E+00   0.0000000000E+00   0.6038843988E-01
   0.2140043662E+00   0.2499686470E+00   0.5774107983E-04  -0.1567647582E-04   0.5774107983E-04  -0.1567647582E-04   0.6551539833E-01   0.2973014023E-03   0.0000000000E+00  -0.1396781717E-03   0.0000000000E+00   0.0000000000E+00   0.6542620791E-03  -0.1935731810E-03  -0.3631632464E-05  -0.1974380992E-03   0.0000000000E+00   0.0000000000E+00   0.6537081637E-01
   0.1945471502E+00   0.2499649694E+00   0.5135110218E-04  -0.1751527602E-04   0.5135110218E-04  -0.1751527602E-04   0.6601850914E-01   0.2907073690E-03   0.0000000000E+00  -0.8047419622E-05   0.0000000000E+00   0.0000000000E+00   0.6593129693E-03  -0.1951484537E-03  -0.2092329102E-06  -0.1989276495E-03   0.0000000000E+00   0.0000000000E+00   0.6587839688E-01
   0.1955421832E+00   0.2323876464E+00   0.5352310967E-04  -0.1570632122E-04   0.5352310967E-04  -0.1570632122E-04   0.6259869980E-01  -0.3948801512E-03   0.0000000000E+00  -0.2184492873E-03   0.0000000000E+00   0.0000000000E+00   0.6271716384E-03  -0.1917449009E-03  -0.5679681469E-05  -0.1866114589E-03   0.0000000000E+00   0.0000000000E+00   0.6280233657E-01
   0.2150313947E+00   0.2322559491E+00   0.5962434494E-04  -0.1388846513E-04   0.5962434494E-04  -0.1388846513E-04   0.6216018627E-01  -0.2813360254E-03   0.0000000000E+00  -0.5866719307E-03   0.0000000000E+00   0.0000000000E+00   0.6224458708E-03  -0.1892939191E-03  -0.1525347020E-04  -0.1856365507E-03   0.0000000000E+00   0.0000000000E+00   0.6231341665E-01
   0.2344655090E+00   0.2319287034E+00   0.6566150025E-04  -0.1243630294E-04   0.6566150025E-04  -0.1243630294E-04   0.6145956121E-01  -0.1757094790E-03   0.0000000000E+00  -0.7934714290E-03   0.0000000000E+00   0.0000000000E+00   0.6151227406E-03  -0.1861357784E-03  -0.2063025715E-04  -0.1838515552E-03   0.0000000000E+00   0.0000000000E+00   0.6156661103E-01
   0.2538401759E+00   0.2318014321E+00   0.7158397292E-04  -0.1133393363E-04   0.7158397292E-04  -0.1133393363E-04   0.6063729435E-01  -0.7997139578E-04   0.0000000000E+00  -0.8585531962E-03   0.0000000000E+00   0.0000000000E+00   0.6066128577E-03  -0.1827115970E-03  -0.2232238310E-04  -0.1816719689E-03   0.0000000000E+00   0.0000000000E+00   0.6069878241E-01
   0.2529183406E+00   0.2499738576E+00   0.7027778630E-04  -0.1307121758E-04   0.7027778630E-04  -0.1307121758E-04   0.6348691833E-01   0.2657018989E-03   0.0000000000E+00  -0.2455336481E-03   0.0000000000E+00   0.0000000000E+00   0.6340720776E-03  -0.1878037360E-03  -0.6383874850E-05  -0.1912578607E-03   0.0000000000E+00   0.0000000000E+00   0.6335542732E-01
   0.2334614525E+00   0.2499715791E+00   0.6405923486E-04  -0.1421043871E-04   0.6405923486E-04  -0.1421043871E-04   0.6459489459E-01   0.2862787419E-03   0.0000000000E+00  -0.2160525619E-03   0.0000000000E+00   0.0000000000E+00   0.6450901096E-03  -0.1909218963E-03  -0.5617366610E-05  -0.1946435200E-03   0.0000000000E+00   0.0000000000E+00   0.6445417071E-01
   0.3112877495E+00   0.2499776346E+00   0.8831377352E-04  -0.1118267779E-04   0.8831377352E-04  -0.1118267779E-04   0.6059844819E-01   0.2005269017E-03   0.0000000000E+00  -0.1358838065E-03   0.0000000000E+00   0.0000000000E+00   0.6053829012E-03  -0.1797900755E-03  -0.3532978970E-05  -0.1823969253E-03   0.0000000000E+00   0.0000000000E+00   0.6049890045E-01
   0.3116801138E+00   0.2312532025E+00   0.8879889990E-04  -0.9509266283E-05   0.8879889990E-04  -0.9509266283E-05   0.5853933890E-01   0.1042323574E-03   0.0000000000E+00  -0.4776912765E-03   0.0000000000E+00   0.0000000000E+00   0.5850806919E-03  -0.1745756931E-03  -0.1241997319E-04  -0.1759307138E-03   0.0000000000E+00   0.0000000000E+00   0.5849489682E-01
   0.5564390774E-01   0.8309527245E-01   0.4344202196E-04  -0.2584352481E-04   0.4344202196E-04  -0.2584352481E-04   0.7162995042E-01   0.2438182230E-01   0.0000000000E+00  -0.3628238380E-01   0.0000000000E+00   0.0000000000E+00   0.6431540373E-03   0.2892837178E-04  -0.9433419787E-03  -0.2880353182E-03   0.0000000000E+00   0.0000000000E+00   0.8643083817E-01
   0.7201225504E-01   0.9409815660E-01   0.4116541761E-04  -0.2148080201E-04   0.4116541761E-04  -0.2148080201E-04   0.5748495234E-01  -0.1267610118E-02   0.0000000000E+00  -0.1513717859E-01   0.0000000000E+00   0.0000000000E+00   0.5786523537E-03  -0.1851309582E-03  -0.3935666433E-03  -0.1686520267E-03   0.0000000000E+00   0.0000000000E+00   0.6357251114E-01
   0.6205275175E-01   0.1069372466E+00   0.3232192675E-04  -0.2558068784E-04   0.3232192675E-04  -0.2558068784E-04   0.6984096787E-01   0.7684670901E-03   0.0000000000E+00  -0.9134445944E-02   0.0000000000E+00   0.0000000000E+00   0.6961042774E-03  -0.2018382327E-03  -0.2374955946E-03  -0.2118283049E-03   0.0000000000E+00   0.0000000000E+00   0.7044599897E-01
   0.3832735814E-01   0.9232771886E-01   0.2950777079E-04  -0.3011651786E-04   0.2950777079E-04  -0.3011651786E-04   0.1046980701E+00   0.1798837759E-01   0.0000000000E+00  -0.2726701501E-01   0.0000000000E+00   0.0000000000E+00   0.9930155680E-03  -0.1342104343E-03  -0.7089423902E-03  -0.3680593430E-03   0.0000000000E+00   0.0000000000E+00   0.1063017904E+00
   0.0000000000E+00   0.1999196060E+00   0.0000000000E+00  -0.4019847649E-04   0.0000000000E+00  -0.4019847649E-04   0.5546357586E-01   0.5103879649E-02   0.0000000000E+00   0.1330610294E-02   0.0000000000E+00   0.0000000000E+00   0.5393241196E-03  -0.1153519311E-03   0.3459586765E-04  -0.1817023665E-03   0.0000000000E+00   0.0000000000E+00   0.5309998124E-01
   0.0000000000E+00   0.1832547702E+00   0.0000000000E+00  -0.3928337785E-04   0.0000000000E+00  -0.3928337785E-04   0.6059157088E-01   0.7977689641E-02   0.0000000000E+00   0.1404991772E-02   0.0000000000E+00   0.0000000000E+00   0.5819826398E-03  -0.1019978162E-03   0.3652978607E-04  -0.2057077815E-03   0.0000000000E+00   0.0000000000E+00   0.5702850975E-01
   0.3654242701E-01   0.1168027689E+00   0.1789455522E-04  -0.3232355351E-04   0.1789455522E-04  -0.3232355351E-04   0.9447160646E-01   0.1247585556E-01   0.0000000000E+00  -0.9952449808E-02   0.0000000000E+00   0.0000000000E+00   0.9072884979E-03  -0.1586562638E-03  -0.2587636950E-03  -0.3208423860E-03   0.0000000000E+00   0.0000000000E+00   0.9152548481E-01
   0.2668442910E+00   0.0000000000E+00   0.8880500343E-04   0.0000000000E+00   0.8880500343E-04   0.0000000000E+00   0.2734172591E-01   0.7684971713E-02   0.0000000000E+00  -0.4107259383E-03   0.0000000000E+00   0.0000000000E+00   0.2503623440E-03  -0.5175460598E-05  -0.1067887440E-04  -0.1050800929E-03   0.0000000000E+00   0.0000000000E+00   0.2441621453E-01
   0.2688037198E+00   0.1829139776E-01   0.8888740044E-04  -0.5641924454E-07   0.8888740044E-04  -0.5641924454E-07   0.2794031155E-01   0.7551725171E-02   0.0000000000E+00  -0.1223084181E-02   0.0000000000E+00   0.0000000000E+00   0.2567479400E-03  -0.8303682957E-05  -0.3180018872E-04  -0.1064761102E-03   0.0000000000E+00   0.0000000000E+00   0.2513113894E-01
   0.2366870459E+00   0.7431400123E-01   0.8132145904E-04  -0.1097434428E-05   0.8132145904E-04  -0.1097434428E-05   0.3349492158E-01   0.3253314764E-02   0.0000000000E+00  -0.6203117686E-02   0.0000000000E+00   0.0000000000E+00   0.3251892715E-03  -0.6795161710E-04  -0.1612810598E-03  -0.1102447090E-03   0.0000000000E+00   0.0000000000E+00   0.3373280316E-01
   0.2553853678E+00   0.7383611823E-01   0.8439942041E-04  -0.8864840720E-06   0.8439942041E-04  -0.8864840720E-06   0.3386574515E-01   0.4502439480E-02   0.0000000000E+00  -0.4959641828E-02   0.0000000000E+00   0.0000000000E+00   0.3251501331E-03  -0.5657284067E-04  -0.1289506875E-03  -0.1151045539E-03   0.0000000000E+00   0.0000000000E+00   0.3297913066E-01
   0.3105239361E+00   0.3712670544E-01   0.9423954925E-04  -0.1283310338E-06   0.9423954925E-04  -0.1283310338E-06   0.3112814476E-01   0.7982279823E-02   0.0000000000E+00  -0.1171495726E-02   0.0000000000E+00   0.0000000000E+00   0.2873346081E-03  -0.1356163605E-04  -0.3045888887E-04  -0.1173312738E-03   0.0000000000E+00   0.0000000000E+00   0.2807054859E-01
   0.2906229432E+00   0.3677695465E-01   0.9141560164E-04  -0.1423234057E-06   0.9141560164E-04  -0.1423234057E-06   0.3041370247E-01   0.7630300029E-02   0.0000000000E+00  -0.1802863877E-02   0.0000000000E+00   0.0000000000E+00   0.2812461246E-03  -0.1493810710E-04  -0.4687446080E-04  -0.1141320075E-03   0.0000000000E+00   0.0000000000E+00   0.2757362928E-01
   0.3501999940E+00   0.2115233283E+00   0.1000000000E-03  -0.7567848025E-05   0.1000000000E-03  -0.7567848025E-05   0.5573774911E-01   0.5891269663E-03   0.0000000000E+00   0.1496556925E-03   0.0000000000E+00   0.0000000000E+00   0.5556101102E-03  -0.1613219777E-03   0.3891048006E-05  -0.1689806282E-03   0.0000000000E+00   0.0000000000E+00   0.5544578498E-01
   0.3310977998E+00   0.2119655253E+00   0.9469092110E-04  -0.7669373064E-05   0.9469092110E-04  -0.7669373064E-05   0.5583365085E-01   0.5492927345E-03   0.0000000000E+00  -0.5288809270E-03   0.0000000000E+00   0.0000000000E+00   0.5566886303E-03  -0.1620080252E-03  -0.1375090410E-04  -0.1691488308E-03   0.0000000000E+00   0.0000000000E+00   0.5556762337E-01
   0.3310329208E+00   0.1926892965E+00   0.9494488858E-04  -0.6170726622E-05   0.9494488858E-04  -0.6170726622E-05   0.5314240019E-01   0.1091917673E-02   0.0000000000E+00  -0.6834631626E-03   0.0000000000E+00   0.0000000000E+00   0.5281482488E-03  -0.1485080238E-03  -0.1777004223E-04  -0.1627029536E-03   0.0000000000E+00   0.0000000000E+00   0.5261654107E-01
   0.3501999940E+00   0.1922955359E+00   0.1000000000E-03  -0.6080064966E-05   0.1000000000E-03  -0.6080064966E-05   0.5306862201E-01   0.1156341971E-02   0.0000000000E+00   0.1403716181E-03   0.0000000000E+00   0.0000000000E+00   0.5272171942E-03  -0.1476424463E-03   0.3649662072E-05  -0.1626748919E-03   0.0000000000E+00   0.0000000000E+00   0.5249961765E-01
   0.2927306085E+00   0.2126674598E+00   0.8392773261E-04  -0.8295115917E-05   0.8392773261E-04  -0.8295115917E-05   0.5662729452E-01   0.3855424604E-03   0.0000000000E+00  -0.1303055443E-02   0.0000000000E+00   0.0000000000E+00   0.5651163178E-03  -0.1660264590E-03  -0.3387944153E-04  -0.1710385109E-03   0.0000000000E+00   0.0000000000E+00   0.5648015431E-01
   0.2736609102E+00   0.2131256106E+00   0.7849061712E-04  -0.8876686335E-05   0.7849061712E-04  -0.8876686335E-05   0.5725871478E-01   0.2290202915E-03   0.0000000000E+00  -0.1558757962E-02   0.0000000000E+00   0.0000000000E+00   0.5719000869E-03  -0.1694859414E-03  -0.4052770701E-04  -0.1724632052E-03   0.0000000000E+00   0.0000000000E+00   0.5720787613E-01
   0.2735145514E+00   0.1942578406E+00   0.7951868220E-04  -0.7331209604E-05   0.7951868220E-04  -0.7331209604E-05   0.5446656833E-01   0.4826238334E-03   0.0000000000E+00  -0.2088247312E-02   0.0000000000E+00   0.0000000000E+00   0.5432178118E-03  -0.1585734667E-03  -0.5429443012E-04  -0.1648475765E-03   0.0000000000E+00   0.0000000000E+00   0.5434837022E-01
   0.2925883376E+00   0.1934332728E+00   0.8470531593E-04  -0.6756086725E-05   0.8470531593E-04  -0.6756086725E-05   0.5387797981E-01   0.7292947591E-03   0.0000000000E+00  -0.1753750236E-02   0.0000000000E+00   0.0000000000E+00   0.5365919138E-03  -0.1543409918E-03  -0.4559750615E-04  -0.1638218237E-03   0.0000000000E+00   0.0000000000E+00   0.5360252544E-01
   0.1945601358E+00   0.5816780268E-01   0.7676090656E-04  -0.1157358415E-05   0.7676090656E-04  -0.1157358415E-05   0.2781678922E-01   0.5835743950E-03   0.0000000000E+00  -0.8749792421E-02   0.0000000000E+00   0.0000000000E+00   0.2764171691E-03  -0.7761462372E-04  -0.2274946029E-03  -0.8520109086E-04   0.0000000000E+00   0.0000000000E+00   0.3139140783E-01
   0.2142532292E+00   0.5661197609E-01   0.7967510152E-04  -0.8035031991E-06   0.7967510152E-04  -0.8035031991E-06   0.2866118675E-01   0.2635783109E-02   0.0000000000E+00  -0.7044872727E-02   0.0000000000E+00   0.0000000000E+00   0.2787045181E-03  -0.5962572914E-04  -0.1831666909E-03  -0.9389090956E-04   0.0000000000E+00   0.0000000000E+00   0.3003102275E-01
   0.7323756658E-01   0.1305415153E+00   0.2929863793E-04  -0.2527386271E-04   0.2929863793E-04  -0.2527386271E-04   0.7111902884E-01  -0.2618287795E-02   0.0000000000E+00   0.1552288883E-02   0.0000000000E+00   0.0000000000E+00   0.7190451518E-03  -0.2395399645E-03   0.4035951095E-04  -0.2055022231E-03   0.0000000000E+00   0.0000000000E+00   0.7245102979E-01
   0.5553683639E-01   0.1224180502E+00   0.2460739718E-04  -0.2870491898E-04   0.2460739718E-04  -0.2870491898E-04   0.8228102572E-01   0.5466440714E-02   0.0000000000E+00  -0.2527373958E-02   0.0000000000E+00   0.0000000000E+00   0.8064109350E-03  -0.1921786700E-03  -0.6571172291E-04  -0.2632423993E-03   0.0000000000E+00   0.0000000000E+00   0.7962249550E-01
   0.8084810078E-01   0.1172327129E+00   0.3544018882E-04  -0.2168703484E-04   0.3544018882E-04  -0.2168703484E-04   0.6817622740E-01  -0.4732262776E-02   0.0000000000E+00  -0.2849491520E-02   0.0000000000E+00   0.0000000000E+00   0.6959590623E-03  -0.2518513100E-03  -0.7408677952E-04  -0.1903318939E-03   0.0000000000E+00   0.0000000000E+00   0.7077268565E-01
   0.5835593056E-01   0.2499227074E+00   0.1129848072E-04  -0.3864632041E-04   0.1129848072E-04  -0.3864632041E-04   0.4429536677E-01  -0.4374915611E-03   0.0000000000E+00   0.1183295404E-02   0.0000000000E+00   0.0000000000E+00   0.4442661423E-03  -0.1372610159E-03   0.3076568050E-04  -0.1315736256E-03   0.0000000000E+00   0.0000000000E+00   0.4452379238E-01
   0.7822983954E-01   0.2133554071E+00   0.2059087172E-04  -0.3261142629E-04   0.2059087172E-04  -0.3261142629E-04   0.5599003706E-01  -0.1493249379E-03   0.0000000000E+00   0.6397795622E-02   0.0000000000E+00   0.0000000000E+00   0.5603483454E-03  -0.1694633606E-03   0.1663426862E-03  -0.1675221364E-03   0.0000000000E+00   0.0000000000E+00   0.5711907295E-01
   0.7804129821E-01   0.1933725671E+00   0.2239920479E-04  -0.3090295616E-04   0.2239920479E-04  -0.3090295616E-04   0.5991544988E-01  -0.3964313710E-03   0.0000000000E+00   0.7541057247E-02   0.0000000000E+00   0.0000000000E+00   0.6003437929E-03  -0.1837106634E-03   0.1960674884E-03  -0.1785570555E-03   0.0000000000E+00   0.0000000000E+00   0.6151591011E-01
   0.1768557184E+00   0.2157671274E+00   0.4963819535E-04  -0.1623629999E-04   0.4963819535E-04  -0.1623629999E-04   0.6050416478E-01  -0.1093392790E-02   0.0000000000E+00   0.4007923855E-03   0.0000000000E+00   0.0000000000E+00   0.6083218262E-03  -0.1924464222E-03   0.1042060202E-04  -0.1782323160E-03   0.0000000000E+00   0.0000000000E+00   0.6106339468E-01
   0.3116913658E+00   0.1537222269E+00   0.9107189544E-04  -0.3740042275E-05   0.9107189544E-04  -0.3740042275E-05   0.4732458621E-01   0.2420313884E-02   0.0000000000E+00  -0.1753025485E-02   0.0000000000E+00   0.0000000000E+00   0.4659849205E-03  -0.1177706198E-03  -0.4557866260E-04  -0.1492347003E-03   0.0000000000E+00   0.0000000000E+00   0.4626083212E-01
   0.3116775498E+00   0.1734281426E+00   0.9042240577E-04  -0.4987196300E-05   0.9042240577E-04  -0.4987196300E-05   0.5044888473E-01   0.1634552594E-02   0.0000000000E+00  -0.1527103260E-02   0.0000000000E+00   0.0000000000E+00   0.4995851895E-03  -0.1350011282E-03  -0.3970468477E-04  -0.1562503120E-03   0.0000000000E+00   0.0000000000E+00   0.4972122093E-01
   0.1167196176E+00   0.2499424901E+00   0.2647527911E-04  -0.2875496312E-04   0.2647527911E-04  -0.2875496312E-04   0.5910222441E-01  -0.2890597955E-04   0.0000000000E+00   0.9643955097E-03   0.0000000000E+00   0.0000000000E+00   0.5911089621E-03  -0.1775957330E-03   0.2507428325E-04  -0.1772199553E-03   0.0000000000E+00   0.0000000000E+00   0.5911038315E-01
   0.7082077278E-01   0.7066791980E-01   0.5504569043E-04  -0.2138079808E-04   0.5504569043E-04  -0.2138079808E-04   0.2826669423E-01   0.1424209414E-01   0.0000000000E+00  -0.1831780709E-01   0.0000000000E+00   0.0000000000E+00   0.2399406599E-03   0.5762085867E-04  -0.4762629845E-03  -0.1275263651E-03   0.0000000000E+00   0.0000000000E+00   0.3720692641E-01
   0.8399635594E-01   0.7963172793E-01   0.5169976838E-04  -0.1662003463E-04   0.5169976838E-04  -0.1662003463E-04   0.3859199127E-01  -0.1392652622E-02   0.0000000000E+00  -0.1541888377E-01   0.0000000000E+00   0.0000000000E+00   0.3900978706E-03  -0.1297025000E-03  -0.4008909780E-03  -0.1115980160E-03   0.0000000000E+00   0.0000000000E+00   0.4779567632E-01
   0.2350729223E+00   0.2142894168E+00   0.6723214812E-04  -0.1079358833E-04   0.6723214812E-04  -0.1079358833E-04   0.5877277412E-01  -0.2096367383E-03   0.0000000000E+00  -0.1532433720E-02   0.0000000000E+00   0.0000000000E+00   0.5883566514E-03  -0.1784146897E-03  -0.3984327673E-04  -0.1756894121E-03   0.0000000000E+00   0.0000000000E+00   0.5893875020E-01
   0.1775425690E+00   0.1998842725E+00   0.5173751222E-04  -0.1460722932E-04   0.5173751222E-04  -0.1460722932E-04   0.5887597217E-01  -0.2063268535E-02   0.0000000000E+00   0.4980337597E-05   0.0000000000E+00   0.0000000000E+00   0.5949495273E-03  -0.1972606019E-03   0.1294887775E-06  -0.1704381109E-03   0.0000000000E+00   0.0000000000E+00   0.5993265133E-01
   0.1586158011E+00   0.1997532466E+00   0.4609107313E-04  -0.1709570653E-04   0.4609107313E-04  -0.1709570653E-04   0.5943341472E-01  -0.2513836694E-02   0.0000000000E+00   0.1372333483E-02   0.0000000000E+00   0.0000000000E+00   0.6018756573E-03  -0.2034386111E-03   0.3568067055E-04  -0.1707587341E-03   0.0000000000E+00   0.0000000000E+00   0.6077187250E-01
   0.1597783907E+00   0.1838804513E+00   0.4846833163E-04  -0.1527984993E-04   0.4846833163E-04  -0.1527984993E-04   0.5852382358E-01  -0.3806998324E-02   0.0000000000E+00   0.6241074443E-03   0.0000000000E+00   0.0000000000E+00   0.5966592307E-03  -0.2136414540E-03   0.1622679355E-04  -0.1641504758E-03   0.0000000000E+00   0.0000000000E+00   0.6051832231E-01
   0.1779195190E+00   0.1845612749E+00   0.5373199084E-04  -0.1303502965E-04   0.5373199084E-04  -0.1303502965E-04   0.5746745054E-01  -0.2996650033E-02   0.0000000000E+00  -0.7392257589E-03   0.0000000000E+00   0.0000000000E+00   0.5836644555E-03  -0.2023688520E-03  -0.1921986973E-04  -0.1634124015E-03   0.0000000000E+00   0.0000000000E+00   0.5903114384E-01
   0.2544446044E+00   0.2136989666E+00   0.7292869793E-04  -0.9694212198E-05   0.7292869793E-04  -0.9694212198E-05   0.5797352593E-01   0.1971584686E-04   0.0000000000E+00  -0.1646429846E-02   0.0000000000E+00   0.0000000000E+00   0.5796761118E-03  -0.1737234193E-03  -0.4280717600E-04  -0.1739797253E-03   0.0000000000E+00   0.0000000000E+00   0.5803353283E-01
   0.3118901400E+00   0.2123167242E+00   0.8932498464E-04  -0.7903893900E-05   0.8932498464E-04  -0.7903893900E-05   0.5616203525E-01   0.4834274993E-03   0.0000000000E+00  -0.9233752783E-03   0.0000000000E+00   0.0000000000E+00   0.5601700700E-03  -0.1636518308E-03  -0.2400775724E-04  -0.1699363882E-03   0.0000000000E+00   0.0000000000E+00   0.5594502394E-01
   0.3118450726E+00   0.1930203880E+00   0.8985828391E-04  -0.6385507111E-05   0.8985828391E-04  -0.6385507111E-05   0.5343844766E-01   0.9755756850E-03   0.0000000000E+00  -0.1240167207E-02   0.0000000000E+00   0.0000000000E+00   0.5314577495E-03  -0.1505595861E-03  -0.3224434739E-04  -0.1632420700E-03   0.0000000000E+00   0.0000000000E+00   0.5300186421E-01
   0.6714195752E-01   0.1440149097E+00   0.2452356068E-04  -0.2821564280E-04   0.2452356068E-04  -0.2821564280E-04   0.7119946942E-01   0.4203338089E-03   0.0000000000E+00   0.4901273907E-02   0.0000000000E+00   0.0000000000E+00   0.7107336927E-03  -0.2093950702E-03   0.1274331216E-03  -0.2148594097E-03   0.0000000000E+00   0.0000000000E+00   0.7147780540E-01
   0.6215868383E-01   0.1545787715E+00   0.2130611710E-04  -0.3033326792E-04   0.2130611710E-04  -0.3033326792E-04   0.6983041752E-01   0.1539451063E-02   0.0000000000E+00   0.6220032963E-02   0.0000000000E+00   0.0000000000E+00   0.6936858220E-03  -0.1940967419E-03   0.1617208570E-03  -0.2141096058E-03   0.0000000000E+00   0.0000000000E+00   0.6986147473E-01
   0.1526855188E+00   0.3951281086E-01   0.7481638904E-04  -0.1453971864E-05   0.7481638904E-04  -0.1453971864E-05   0.1662113572E-01  -0.5105499999E-02   0.0000000000E+00  -0.1048886294E-01   0.0000000000E+00   0.0000000000E+00   0.1815278572E-03  -0.1009184071E-03  -0.2727104365E-03  -0.3454690716E-04   0.0000000000E+00   0.0000000000E+00   0.2655459057E-01
   0.1354968698E+00   0.4589288424E-01   0.7183838343E-04  -0.2927479599E-05   0.7183838343E-04  -0.2927479599E-05   0.1658647988E-01  -0.9993801447E-02   0.0000000000E+00  -0.1372953201E-01   0.0000000000E+00   0.0000000000E+00   0.1958462032E-03  -0.1496974541E-03  -0.3569678323E-03  -0.1977803531E-04   0.0000000000E+00   0.0000000000E+00   0.3234232092E-01
   0.1626577157E+00   0.0000000000E+00   0.7886084245E-04   0.0000000000E+00   0.7886084245E-04   0.0000000000E+00   0.1005777661E-01  -0.8217323431E-03   0.0000000000E+00  -0.1805432884E-02   0.0000000000E+00   0.0000000000E+00   0.1030429632E-03  -0.3839065327E-04  -0.4694125498E-04  -0.2770813281E-04   0.0000000000E+00   0.0000000000E+00   0.1032175407E-01
   0.1665866193E+00   0.1949794128E-01   0.7833362562E-04  -0.4074617144E-06   0.7833362562E-04  -0.4074617144E-06   0.1337874820E-01  -0.9086775289E-03   0.0000000000E+00  -0.4420581572E-02   0.0000000000E+00   0.0000000000E+00   0.1365135146E-03  -0.4922301990E-04  -0.1149351209E-03  -0.3741021202E-04   0.0000000000E+00   0.0000000000E+00   0.1597161282E-01
   0.2756145917E+00   0.9272157667E-01   0.8659185802E-04  -0.1291364420E-05   0.8659185802E-04  -0.1291364420E-05   0.3738905263E-01   0.4393490297E-02   0.0000000000E+00  -0.4044771461E-02   0.0000000000E+00   0.0000000000E+00   0.3607100554E-03  -0.6823225492E-04  -0.1051640580E-03  -0.1253476288E-03   0.0000000000E+00   0.0000000000E+00   0.3607545620E-01
   0.2938072574E+00   0.9348826249E-01   0.8983371345E-04  -0.1172753729E-05   0.8983371345E-04  -0.1172753729E-05   0.3762882690E-01   0.5012379761E-02   0.0000000000E+00  -0.3012997567E-02   0.0000000000E+00   0.0000000000E+00   0.3612511297E-03  -0.6276268309E-04  -0.7833793675E-04  -0.1279236200E-03   0.0000000000E+00   0.0000000000E+00   0.3576562276E-01
   0.2939476086E+00   0.1128450638E+00   0.8894580493E-04  -0.1873616552E-05   0.8894580493E-04  -0.1873616552E-05   0.4071962372E-01   0.3998772916E-02   0.0000000000E+00  -0.3021444689E-02   0.0000000000E+00   0.0000000000E+00   0.3951999185E-03  -0.8217114200E-04  -0.7855756190E-04  -0.1341551899E-03   0.0000000000E+00   0.0000000000E+00   0.3921807456E-01
   0.2760748645E+00   0.1113705175E+00   0.8549177317E-04  -0.2016228971E-05   0.8549177317E-04  -0.2016228971E-05   0.4066323403E-01   0.3372910321E-02   0.0000000000E+00  -0.3938227685E-02   0.0000000000E+00   0.0000000000E+00   0.3965136094E-03  -0.8826059889E-04  -0.1023939198E-03  -0.1321084331E-03   0.0000000000E+00   0.0000000000E+00   0.3967275231E-01
   0.2930561122E+00   0.7443732106E-01   0.9053062404E-04  -0.6701214141E-06   0.9053062404E-04  -0.6701214141E-06   0.3477084326E-01   0.6036113066E-02   0.0000000000E+00  -0.2830921798E-02   0.0000000000E+00   0.0000000000E+00   0.3296000934E-03  -0.4395139913E-04  -0.7360396676E-04  -0.1224208690E-03   0.0000000000E+00   0.0000000000E+00   0.3254259344E-01
   0.1712423440E+00   0.3888043296E-01   0.7665298276E-04  -0.8982681176E-06   0.7665298276E-04  -0.8982681176E-06   0.1832944171E-01  -0.1304441397E-02   0.0000000000E+00  -0.9084069884E-02   0.0000000000E+00   0.0000000000E+00   0.1872077413E-03  -0.6803273909E-04  -0.2361858170E-03  -0.5107500093E-04   0.0000000000E+00   0.0000000000E+00   0.2454835289E-01
   0.2931401842E+00   0.1327437603E+00   0.8778860259E-04  -0.2801853295E-05   0.8778860259E-04  -0.2801853295E-05   0.4411907400E-01   0.2867959915E-02   0.0000000000E+00  -0.2895227812E-02   0.0000000000E+00   0.0000000000E+00   0.4325868602E-03  -0.1036776228E-03  -0.7527592311E-04  -0.1409611017E-03   0.0000000000E+00   0.0000000000E+00   0.4304646621E-01
   0.5194581203E-01   0.1832991309E+00   0.1537006482E-04  -0.3467904239E-04   0.1537006482E-04  -0.3467904239E-04   0.6177384315E-01   0.2951045272E-02   0.0000000000E+00   0.7162606245E-02   0.0000000000E+00   0.0000000000E+00   0.6088852957E-03  -0.1558110767E-03   0.1862277624E-03  -0.1941746653E-03   0.0000000000E+00   0.0000000000E+00   0.6163015822E-01
   0.5045235528E-01   0.1685244566E+00   0.1599453814E-04  -0.3378969771E-04   0.1599453814E-04  -0.3378969771E-04   0.6582113522E-01   0.4513099315E-02   0.0000000000E+00   0.7394680325E-02   0.0000000000E+00   0.0000000000E+00   0.6446720542E-03  -0.1523324125E-03   0.1922616885E-03  -0.2110027036E-03   0.0000000000E+00   0.0000000000E+00   0.6495403709E-01
   0.2919219117E+00   0.5550515006E-01   0.9105985715E-04  -0.3366178336E-06   0.9105985715E-04  -0.3366178336E-06   0.3231707270E-01   0.6924598984E-02   0.0000000000E+00  -0.2411965265E-02   0.0000000000E+00   0.0000000000E+00   0.3023969300E-03  -0.2770522825E-04  -0.6271109690E-04  -0.1177250150E-03   0.0000000000E+00   0.0000000000E+00   0.2975950292E-01
   0.2918382214E+00   0.1532861894E+00   0.8645272272E-04  -0.3985792490E-05   0.8645272272E-04  -0.3985792490E-05   0.4751219480E-01   0.2066565835E-02   0.0000000000E+00  -0.2568154665E-02   0.0000000000E+00   0.0000000000E+00   0.4689222505E-03  -0.1218709261E-03  -0.6677202129E-04  -0.1487362819E-03   0.0000000000E+00   0.0000000000E+00   0.4671943986E-01
   0.2707439081E+00   0.3669220141E-01   0.8866253081E-04  -0.1679935044E-06   0.8866253081E-04  -0.1679935044E-06   0.2940622980E-01   0.7084580360E-02   0.0000000000E+00  -0.2512257370E-02   0.0000000000E+00   0.0000000000E+00   0.2728085569E-03  -0.1737288578E-04  -0.6531869163E-04  -0.1094724305E-03   0.0000000000E+00   0.0000000000E+00   0.2691743019E-01
   0.2508619202E+00   0.3681382292E-01   0.8599810729E-04  -0.2098423046E-06   0.8599810729E-04  -0.2098423046E-06   0.2806856452E-01   0.6307737324E-02   0.0000000000E+00  -0.3346626599E-02   0.0000000000E+00   0.0000000000E+00   0.2617624332E-03  -0.2112832032E-04  -0.8701229158E-04  -0.1031289055E-03   0.0000000000E+00   0.0000000000E+00   0.2612789394E-01
   0.2337000063E+00   0.5569898486E-01   0.8249214562E-04  -0.5971718062E-06   0.8249214562E-04  -0.5971718062E-06   0.2969169529E-01   0.4312343467E-02   0.0000000000E+00  -0.5587713361E-02   0.0000000000E+00   0.0000000000E+00   0.2839799225E-03  -0.4595165119E-04  -0.1452805474E-03  -0.1020121163E-03   0.0000000000E+00   0.0000000000E+00   0.2941457500E-01
   0.2532079751E+00   0.5532653474E-01   0.8532105636E-04  -0.4682784131E-06   0.8532105636E-04  -0.4682784131E-06   0.3070299312E-01   0.5481605927E-02   0.0000000000E+00  -0.4358989977E-02   0.0000000000E+00   0.0000000000E+00   0.2905851134E-03  -0.3729292008E-04  -0.1133337394E-03  -0.1085537971E-03   0.0000000000E+00   0.0000000000E+00   0.2934329840E-01
   0.2350030429E+00   0.1970359855E+00   0.6867395333E-04  -0.9282253084E-05   0.6867395333E-04  -0.9282253084E-05   0.5621861438E-01  -0.4226720002E-03   0.0000000000E+00  -0.2161089863E-02   0.0000000000E+00   0.0000000000E+00   0.5634541598E-03  -0.1728825631E-03  -0.5618833643E-04  -0.1673878271E-03   0.0000000000E+00   0.0000000000E+00   0.5655664904E-01
   0.2543693022E+00   0.1956588175E+00   0.7418461132E-04  -0.8166250899E-05   0.7418461132E-04  -0.8166250899E-05   0.5528425979E-01   0.3310568509E-04   0.0000000000E+00  -0.2274967402E-02   0.0000000000E+00   0.0000000000E+00   0.5527432808E-03  -0.1655217225E-03  -0.5914915246E-04  -0.1659520964E-03   0.0000000000E+00   0.0000000000E+00   0.5540944833E-01
   0.1597061613E+00   0.7268909584E-01   0.6887367324E-04  -0.3280879045E-05   0.6887367324E-04  -0.3280879045E-05   0.3205123633E-01  -0.6310119441E-02   0.0000000000E+00  -0.1241547609E-01   0.0000000000E+00   0.0000000000E+00   0.3394427216E-03  -0.1592549034E-03  -0.3228023785E-03  -0.7722335065E-04   0.0000000000E+00   0.0000000000E+00   0.4154532954E-01
   0.1738839411E+00   0.6065818126E-01   0.7350556963E-04  -0.1768468923E-05   0.7350556963E-04  -0.1768468923E-05   0.2741753957E-01  -0.2831403709E-02   0.0000000000E+00  -0.1103953095E-01   0.0000000000E+00   0.0000000000E+00   0.2826696069E-03  -0.1105666558E-03  -0.2870278048E-03  -0.7375840759E-04   0.0000000000E+00   0.0000000000E+00   0.3467909595E-01
   0.1842620970E+00   0.8233377030E-01   0.7130200213E-04  -0.2769450119E-05   0.7130200213E-04  -0.2769450119E-05   0.3592751897E-01  -0.3235982221E-02   0.0000000000E+00  -0.1044395204E-01   0.0000000000E+00   0.0000000000E+00   0.3689831364E-03  -0.1401423791E-03  -0.2715427529E-03  -0.9807461026E-04   0.0000000000E+00   0.0000000000E+00   0.4172177236E-01
   0.1695345789E+00   0.8994602291E-01   0.6704043776E-04  -0.4128244575E-05   0.6704043776E-04  -0.4128244575E-05   0.3893279389E-01  -0.5895985261E-02   0.0000000000E+00  -0.1057676825E-01   0.0000000000E+00   0.0000000000E+00   0.4070158947E-03  -0.1757582343E-03  -0.2749959745E-03  -0.9911042589E-04   0.0000000000E+00   0.0000000000E+00   0.4598918240E-01
   0.9889168620E-01   0.2141517100E+00   0.2640274942E-04  -0.2883397683E-04   0.2640274942E-04  -0.2883397683E-04   0.5785559006E-01  -0.1105953608E-02   0.0000000000E+00   0.5754822760E-02   0.0000000000E+00   0.0000000000E+00   0.5818737615E-03  -0.1846263063E-03   0.1496253918E-03  -0.1702489094E-03   0.0000000000E+00   0.0000000000E+00   0.5923300195E-01
   0.1398266632E+00   0.1993462547E+00   0.4046811105E-04  -0.1995512545E-04   0.4046811105E-04  -0.1995512545E-04   0.5979712176E-01  -0.2810209111E-02   0.0000000000E+00   0.2946274668E-02   0.0000000000E+00   0.0000000000E+00   0.6064018449E-03  -0.2074934564E-03   0.7660314138E-04  -0.1709607379E-03   0.0000000000E+00   0.0000000000E+00   0.6145807929E-01
   0.1209578520E+00   0.1985929641E+00   0.3483547830E-04  -0.2316246916E-04   0.3483547830E-04  -0.2316246916E-04   0.5989051812E-01  -0.2793355919E-02   0.0000000000E+00   0.4591249362E-02   0.0000000000E+00   0.0000000000E+00   0.6072852490E-03  -0.2076051136E-03   0.1193724834E-03  -0.1712914866E-03   0.0000000000E+00   0.0000000000E+00   0.6184328855E-01
   0.2183277878E+00   0.7553385203E-01   0.7819242233E-04  -0.1423034445E-05   0.7819242233E-04  -0.1423034445E-05   0.3339565242E-01   0.1621713791E-02   0.0000000000E+00  -0.7590704507E-02   0.0000000000E+00   0.0000000000E+00   0.3290913828E-03  -0.8396981934E-04  -0.1973583172E-03  -0.1050520986E-03   0.0000000000E+00   0.0000000000E+00   0.3513905760E-01
   0.8036155325E-01   0.1527426346E+00   0.2773887510E-04  -0.2623568214E-04   0.2773887510E-04  -0.2623568214E-04   0.6687757497E-01  -0.2925998871E-02   0.0000000000E+00   0.5591128397E-02   0.0000000000E+00   0.0000000000E+00   0.6775537463E-03  -0.2298927136E-03   0.1453693383E-03  -0.1918547283E-03   0.0000000000E+00   0.0000000000E+00   0.6903445630E-01
   0.6988052013E-01   0.1666809501E+00   0.2245101705E-04  -0.2995746485E-04   0.2245101705E-04  -0.2995746485E-04   0.6535781646E-01   0.3445344353E-03   0.0000000000E+00   0.7344155766E-02   0.0000000000E+00   0.0000000000E+00   0.6525445613E-03  -0.1926281050E-03   0.1909480499E-03  -0.1971070527E-03   0.0000000000E+00   0.0000000000E+00   0.6641829883E-01
   0.1415314973E+00   0.1830791320E+00   0.4307914021E-04  -0.1793650052E-04   0.4307914021E-04  -0.1793650052E-04   0.5951828493E-01  -0.4251917640E-02   0.0000000000E+00   0.2237042627E-02   0.0000000000E+00   0.0000000000E+00   0.6079386022E-03  -0.2210740312E-03   0.5816310831E-04  -0.1657991019E-03   0.0000000000E+00   0.0000000000E+00   0.6186389694E-01
   0.2726635679E+00   0.1744948040E+00   0.8051295416E-04  -0.5847976629E-05   0.8051295416E-04  -0.5847976629E-05   0.5163472175E-01   0.8121568410E-03   0.0000000000E+00  -0.2726566786E-02   0.0000000000E+00   0.0000000000E+00   0.5139107470E-03  -0.1467825968E-03  -0.7089073643E-04  -0.1573406358E-03   0.0000000000E+00   0.0000000000E+00   0.5144774113E-01
   0.2921140023E+00   0.1736185063E+00   0.8550917265E-04  -0.5306873992E-05   0.8550917265E-04  -0.5306873992E-05   0.5080662123E-01   0.1331945036E-02   0.0000000000E+00  -0.2240674888E-02   0.0000000000E+00   0.0000000000E+00   0.5040703772E-03  -0.1391004133E-03  -0.5825754708E-04  -0.1564156988E-03   0.0000000000E+00   0.0000000000E+00   0.5030434494E-01
   0.9432803299E-01   0.1609919471E+00   0.3121894712E-04  -0.2417196605E-04   0.3121894712E-04  -0.2417196605E-04   0.6454029715E-01  -0.4423571234E-02   0.0000000000E+00   0.5368396454E-02   0.0000000000E+00   0.0000000000E+00   0.6586736852E-03  -0.2378566038E-03   0.1395783078E-03  -0.1803501777E-03   0.0000000000E+00   0.0000000000E+00   0.6748292482E-01
   0.8723374294E-01   0.1754292867E+00   0.2708576978E-04  -0.2727567140E-04   0.2708576978E-04  -0.2727567140E-04   0.6328604609E-01  -0.2378845114E-02   0.0000000000E+00   0.7255489782E-02   0.0000000000E+00   0.0000000000E+00   0.6399969963E-03  -0.2136465894E-03   0.1886427343E-03  -0.1827216029E-03   0.0000000000E+00   0.0000000000E+00   0.6572039265E-01
   0.2742558352E+00   0.7397197809E-01   0.8746657741E-04  -0.7531043247E-06   0.8746657741E-04  -0.7531043247E-06   0.3432302152E-01   0.5405130330E-02   0.0000000000E+00  -0.3840219503E-02   0.0000000000E+00   0.0000000000E+00   0.3270148242E-03  -0.4891776126E-04  -0.9984570707E-04  -0.1191844556E-03   0.0000000000E+00   0.0000000000E+00   0.3263997275E-01
   0.2262984891E+00   0.1122945900E+00   0.7529955190E-04  -0.3178485994E-05   0.7529955190E-04  -0.3178485994E-05   0.4196904582E-01  -0.1726267885E-04   0.0000000000E+00  -0.6493474119E-02   0.0000000000E+00   0.0000000000E+00   0.4197422462E-03  -0.1260797642E-03  -0.1688303271E-03  -0.1258553494E-03   0.0000000000E+00   0.0000000000E+00   0.4344626174E-01
   0.2225982352E+00   0.9418012763E-01   0.7672361058E-04  -0.2224933280E-05   0.7672361058E-04  -0.2224933280E-05   0.3798502907E-01   0.6764304167E-03   0.0000000000E+00  -0.7281004325E-02   0.0000000000E+00   0.0000000000E+00   0.3778209994E-03  -0.1071907830E-03  -0.1893061125E-03  -0.1159843785E-03   0.0000000000E+00   0.0000000000E+00   0.3969297868E-01
   0.2725621423E+00   0.5526127412E-01   0.8816813139E-04  -0.3868401912E-06   0.8816813139E-04  -0.3868401912E-06   0.3159051907E-01   0.6334614651E-02   0.0000000000E+00  -0.3324265406E-02   0.0000000000E+00   0.0000000000E+00   0.2969013467E-03  -0.3142541068E-04  -0.8643090057E-04  -0.1137754012E-03   0.0000000000E+00   0.0000000000E+00   0.2950782444E-01
   0.1570147284E+00   0.5349005962E-01   0.7255420742E-04  -0.2111239807E-05   0.7255420742E-04  -0.2111239807E-05   0.2478505420E-01  -0.5469451430E-02   0.0000000000E+00  -0.1203550421E-01   0.0000000000E+00   0.0000000000E+00   0.2642588963E-03  -0.1290496769E-03  -0.3129231095E-03  -0.5794680831E-04   0.0000000000E+00   0.0000000000E+00   0.3488395121E-01
   0.1468931750E+00   0.6075050866E-01   0.6958897962E-04  -0.3182321472E-05   0.6958897962E-04  -0.3182321472E-05   0.2626129625E-01  -0.7261201244E-02   0.0000000000E+00  -0.1260409772E-01   0.0000000000E+00   0.0000000000E+00   0.2843965662E-03  -0.1513959012E-03  -0.3277065407E-03  -0.5700028501E-04   0.0000000000E+00   0.0000000000E+00   0.3772719640E-01
   0.1239506712E+00   0.1490710637E+00   0.4270859155E-04  -0.1679565105E-04   0.4270859155E-04  -0.1679565105E-04   0.6063340951E-01  -0.7920161034E-02   0.0000000000E+00   0.5083653172E-03   0.0000000000E+00   0.0000000000E+00   0.6300945782E-03  -0.2611018389E-03   0.1321749825E-04  -0.1581397454E-03   0.0000000000E+00   0.0000000000E+00   0.6493271444E-01
   0.1446983457E+00   0.1473326405E+00   0.4937935311E-04  -0.1319372648E-04   0.4937935311E-04  -0.1319372648E-04   0.5730606211E-01  -0.7675319369E-02   0.0000000000E+00  -0.2047185620E-02   0.0000000000E+00   0.0000000000E+00   0.5960865792E-03  -0.2486713800E-03  -0.5322682613E-04  -0.1488922282E-03   0.0000000000E+00   0.0000000000E+00   0.6160194030E-01
   0.1432567969E+00   0.1661016669E+00   0.4595446466E-04  -0.1571954883E-04   0.4595446466E-04  -0.1571954883E-04   0.5904694122E-01  -0.6116720744E-02   0.0000000000E+00   0.6835172800E-03   0.0000000000E+00   0.0000000000E+00   0.6088195745E-03  -0.2383080311E-03   0.1777144928E-04  -0.1587906614E-03   0.0000000000E+00   0.0000000000E+00   0.6231834139E-01
   0.1255655001E+00   0.1662756653E+00   0.4048703891E-04  -0.1869336493E-04   0.4048703891E-04  -0.1869336493E-04   0.6048399950E-01  -0.6296061544E-02   0.0000000000E+00   0.2337060666E-02   0.0000000000E+00   0.0000000000E+00   0.6237281797E-03  -0.2444126140E-03   0.6076357732E-04  -0.1625638139E-03   0.0000000000E+00   0.0000000000E+00   0.6397898859E-01
   0.6672553309E-01   0.1808221429E+00   0.2011454390E-04  -0.3183953944E-04   0.2011454390E-04  -0.3183953944E-04   0.6176809757E-01   0.6403852285E-03   0.0000000000E+00   0.7335049149E-02   0.0000000000E+00   0.0000000000E+00   0.6157598200E-03  -0.1789004404E-03   0.1907112779E-03  -0.1872254484E-03   0.0000000000E+00   0.0000000000E+00   0.6273377050E-01
   0.1096147174E+00   0.1660768066E+00   0.3547321319E-04  -0.2166019710E-04   0.3547321319E-04  -0.2166019710E-04   0.6257155040E-01  -0.5671896424E-02   0.0000000000E+00   0.4211963233E-02   0.0000000000E+00   0.0000000000E+00   0.6427311933E-03  -0.2444336155E-03   0.1095110441E-03  -0.1706989619E-03   0.0000000000E+00   0.0000000000E+00   0.6599595832E-01
   0.1054960285E+00   0.1805462427E+00   0.3226574442E-04  -0.2415312805E-04   0.3226574442E-04  -0.2415312805E-04   0.6157988833E-01  -0.3627477578E-02   0.0000000000E+00   0.5731285093E-02   0.0000000000E+00   0.0000000000E+00   0.6266813160E-03  -0.2210144408E-03   0.1490134124E-03  -0.1738572323E-03   0.0000000000E+00   0.0000000000E+00   0.6422505748E-01
   0.2148312907E+00   0.1816647036E+00   0.6454336076E-04  -0.9284216794E-05   0.6454336076E-04  -0.9284216794E-05   0.5492989154E-01  -0.1416339477E-02   0.0000000000E+00  -0.2569640405E-02   0.0000000000E+00   0.0000000000E+00   0.5535479338E-03  -0.1789530694E-03  -0.6681065052E-04  -0.1605406562E-03   0.0000000000E+00   0.0000000000E+00   0.5582952715E-01
   0.2340464457E+00   0.1798047015E+00   0.6997636434E-04  -0.7873235266E-05   0.6997636434E-04  -0.7873235266E-05   0.5369690031E-01  -0.5819207495E-03   0.0000000000E+00  -0.2910227547E-02   0.0000000000E+00   0.0000000000E+00   0.5387147653E-03  -0.1669099084E-03  -0.7566591621E-04  -0.1593449387E-03   0.0000000000E+00   0.0000000000E+00   0.5422631334E-01
   0.2753937641E+00   0.1304995112E+00   0.8409204709E-04  -0.2965918183E-05   0.8409204709E-04  -0.2965918183E-05   0.4379605286E-01   0.2361661949E-02   0.0000000000E+00  -0.3813675347E-02   0.0000000000E+00   0.0000000000E+00   0.4308755428E-03  -0.1077715391E-03  -0.9915555903E-04  -0.1384731444E-03   0.0000000000E+00   0.0000000000E+00   0.4316573265E-01
   0.2704835041E+00   0.1522776005E+00   0.8148455507E-04  -0.4352748803E-05   0.8148455507E-04  -0.4352748803E-05   0.4787179414E-01   0.1310467747E-02   0.0000000000E+00  -0.3465431889E-02   0.0000000000E+00   0.0000000000E+00   0.4747865381E-03  -0.1305107049E-03  -0.9010122913E-04  -0.1475467857E-03   0.0000000000E+00   0.0000000000E+00   0.4761019762E-01
   0.2534441750E+00   0.1774734692E+00   0.7533052124E-04  -0.6743409946E-05   0.7533052124E-04  -0.6743409946E-05   0.5240368917E-01   0.1728901006E-03   0.0000000000E+00  -0.2946281531E-02   0.0000000000E+00   0.0000000000E+00   0.5235182214E-03  -0.1554821665E-03  -0.7660331981E-04  -0.1577297378E-03   0.0000000000E+00   0.0000000000E+00   0.5256558900E-01
   0.1221941903E+00   0.5811682900E-01   0.6696815045E-04  -0.5385848395E-05   0.6696815045E-04  -0.5385848395E-05   0.2221816088E-01  -0.1321231262E-01   0.0000000000E+00  -0.1350268146E-01   0.0000000000E+00   0.0000000000E+00   0.2618185467E-03  -0.1987776088E-03  -0.3510697179E-03  -0.2701754480E-04   0.0000000000E+00   0.0000000000E+00   0.3930746336E-01
   0.1101608264E+00   0.7308545726E-01   0.5979421043E-04  -0.9052372307E-05   0.5979421043E-04  -0.9052372307E-05   0.3459942220E-01  -0.1287425856E-01   0.0000000000E+00  -0.1413417508E-01   0.0000000000E+00   0.0000000000E+00   0.3846169976E-03  -0.2325408522E-03  -0.3674885521E-03  -0.6517549090E-04   0.0000000000E+00   0.0000000000E+00   0.4891435239E-01
   0.1475906220E+00   0.8122530920E-01   0.6462602476E-04  -0.4952948205E-05   0.6462602476E-04  -0.4952948205E-05   0.3741678013E-01  -0.9002863489E-02   0.0000000000E+00  -0.1256078057E-01   0.0000000000E+00   0.0000000000E+00   0.4011763918E-03  -0.2022789753E-03  -0.3265802949E-03  -0.8524174994E-04   0.0000000000E+00   0.0000000000E+00   0.4790388927E-01
   0.1353634688E+00   0.7049786346E-01   0.6521940604E-04  -0.5040068168E-05   0.6521940604E-04  -0.5040068168E-05   0.3173922799E-01  -0.1034864330E-01   0.0000000000E+00  -0.1403409358E-01   0.0000000000E+00   0.0000000000E+00   0.3484382098E-03  -0.1987041170E-03  -0.3648864330E-03  -0.6417175407E-04   0.0000000000E+00   0.0000000000E+00   0.4490829393E-01
   0.1010398370E+00   0.1969131794E+00   0.2898800097E-04  -0.2674931905E-04   0.2898800097E-04  -0.2674931905E-04   0.6008781742E-01  -0.2276672894E-02   0.0000000000E+00   0.6280748460E-02   0.0000000000E+00   0.0000000000E+00   0.6077081929E-03  -0.2030301812E-03   0.1632994600E-03  -0.1734334336E-03   0.0000000000E+00   0.0000000000E+00   0.6221406618E-01
   0.1236063465E+00   0.1823248238E+00   0.3768124749E-04  -0.2092260133E-04   0.3768124749E-04  -0.2092260133E-04   0.6059792081E-01  -0.4350949022E-02   0.0000000000E+00   0.4021639098E-02   0.0000000000E+00   0.0000000000E+00   0.6190320551E-03  -0.2253032526E-03   0.1045626165E-03  -0.1687409154E-03   0.0000000000E+00   0.0000000000E+00   0.6325521862E-01
   0.1612132362E+00   0.1679270962E+00   0.5106712370E-04  -0.1334639187E-04   0.5106712370E-04  -0.1334639187E-04   0.5731466330E-01  -0.5049154857E-02   0.0000000000E+00  -0.8370976777E-03   0.0000000000E+00   0.0000000000E+00   0.5882940975E-03  -0.2224355385E-03  -0.2176453962E-04  -0.1567965253E-03   0.0000000000E+00   0.0000000000E+00   0.6000995692E-01
   0.1782572553E+00   0.1698261024E+00   0.5573716759E-04  -0.1149777937E-04   0.5573716759E-04  -0.1149777937E-04   0.5594088657E-01  -0.3875132440E-02   0.0000000000E+00  -0.1795066736E-02   0.0000000000E+00   0.0000000000E+00   0.5710342630E-03  -0.2065739841E-03  -0.4667173513E-04  -0.1561972624E-03   0.0000000000E+00   0.0000000000E+00   0.5805503650E-01
   0.8812352194E-01   0.1397856016E+00   0.3261826940E-04  -0.2290367640E-04   0.3261826940E-04  -0.2290367640E-04   0.6731713709E-01  -0.5451449285E-02   0.0000000000E+00   0.2582182442E-02   0.0000000000E+00   0.0000000000E+00   0.6895257188E-03  -0.2564659041E-03   0.6713674349E-04  -0.1855970634E-03   0.0000000000E+00   0.0000000000E+00   0.7033538305E-01
   0.9949153281E-01   0.8893906322E-01   0.5117240260E-04  -0.1332163962E-04   0.5117240260E-04  -0.1332163962E-04   0.4918507396E-01  -0.1156325095E-01   0.0000000000E+00  -0.1158352478E-01   0.0000000000E+00   0.0000000000E+00   0.5265404925E-03  -0.2631877314E-03  -0.3011716442E-03  -0.1128654690E-03   0.0000000000E+00   0.0000000000E+00   0.5876994358E-01
   0.9645254711E-01   0.1276139555E+00   0.3808635514E-04  -0.1938222648E-04   0.3808635514E-04  -0.1938222648E-04   0.6485482759E-01  -0.8365207629E-02   0.0000000000E+00  -0.6028060935E-03   0.0000000000E+00   0.0000000000E+00   0.6736438988E-03  -0.2782165591E-03  -0.1567295843E-04  -0.1694688599E-03   0.0000000000E+00   0.0000000000E+00   0.6928687315E-01
   0.2506877387E+00   0.1600849437E+00   0.7606587216E-04  -0.5538131684E-05   0.7606587216E-04  -0.5538131684E-05   0.4967074353E-01   0.1190775713E-03   0.0000000000E+00  -0.3653715451E-02   0.0000000000E+00   0.0000000000E+00   0.4963502026E-03  -0.1478214549E-03  -0.9499660172E-04  -0.1493694633E-03   0.0000000000E+00   0.0000000000E+00   0.5001216228E-01
   0.2595150103E+00   0.1275288883E+00   0.8086514634E-04  -0.3137843849E-05   0.8086514634E-04  -0.3137843849E-05   0.4408205787E-01   0.1765640665E-02   0.0000000000E+00  -0.4488773168E-02   0.0000000000E+00   0.0000000000E+00   0.4355236567E-03  -0.1145897670E-03  -0.1167081024E-03  -0.1375430956E-03   0.0000000000E+00   0.0000000000E+00   0.4391766010E-01
   0.1962952895E+00   0.1840221453E+00   0.5908974905E-04  -0.1104835360E-04   0.5908974905E-04  -0.1104835360E-04   0.5614392880E-01  -0.2239409518E-02   0.0000000000E+00  -0.1820984457E-02   0.0000000000E+00   0.0000000000E+00   0.5681575166E-03  -0.1908258816E-03  -0.4734559588E-04  -0.1617135579E-03   0.0000000000E+00   0.0000000000E+00   0.5738163870E-01
   0.2584434868E+00   0.1414966597E+00   0.7947391394E-04  -0.4022652311E-05   0.7947391394E-04  -0.4022652311E-05   0.4711592684E-01   0.1548736574E-02   0.0000000000E+00  -0.3992748738E-02   0.0000000000E+00   0.0000000000E+00   0.4665130587E-03  -0.1258604148E-03  -0.1038114672E-03  -0.1459939902E-03   0.0000000000E+00   0.0000000000E+00   0.4686843387E-01
   0.2461003534E+00   0.1446333537E+00   0.7631718782E-04  -0.4618627031E-05   0.7631718782E-04  -0.4618627031E-05   0.4732722065E-01   0.4702464449E-03   0.0000000000E+00  -0.4336853311E-02   0.0000000000E+00   0.0000000000E+00   0.4718614671E-03  -0.1372791975E-03  -0.1127581861E-03  -0.1433924013E-03   0.0000000000E+00   0.0000000000E+00   0.4768553827E-01
   0.1917975955E+00   0.1589714108E+00   0.6095122556E-04  -0.9076585807E-05   0.6095122556E-04  -0.9076585807E-05   0.5313522043E-01  -0.3086735121E-02   0.0000000000E+00  -0.3385533347E-02   0.0000000000E+00   0.0000000000E+00   0.5406124097E-03  -0.1902730125E-03  -0.8802386701E-04  -0.1501454559E-03   0.0000000000E+00   0.0000000000E+00   0.5505641451E-01
   0.1946263942E+00   0.1697704233E+00   0.6035111570E-04  -0.9840353973E-05   0.6035111570E-04  -0.9840353973E-05   0.5437934969E-01  -0.2921599576E-02   0.0000000000E+00  -0.2666405855E-02   0.0000000000E+00   0.0000000000E+00   0.5525582956E-03  -0.1923540448E-03  -0.6932655223E-04  -0.1543732503E-03   0.0000000000E+00   0.0000000000E+00   0.5608763904E-01
   0.1798883656E+00   0.1552764135E+00   0.5820280580E-04  -0.9829255749E-05   0.5820280580E-04  -0.9829255749E-05   0.5411604855E-01  -0.4319288627E-02   0.0000000000E+00  -0.3096107555E-02   0.0000000000E+00   0.0000000000E+00   0.5541183514E-03  -0.2055410319E-03  -0.8049879644E-04  -0.1493902798E-03   0.0000000000E+00   0.0000000000E+00   0.5663527208E-01
   0.1010507347E+00   0.1485251035E+00   0.3539036379E-04  -0.2119724464E-04   0.3539036379E-04  -0.2119724464E-04   0.6403890726E-01  -0.6766679104E-02   0.0000000000E+00   0.2888388307E-02   0.0000000000E+00   0.0000000000E+00   0.6606891099E-03  -0.2597835128E-03   0.7509809598E-04  -0.1718166845E-03   0.0000000000E+00   0.0000000000E+00   0.6784716121E-01
   0.2005339483E+00   0.7797663206E-01   0.7489662991E-04  -0.1935669970E-05   0.7489662991E-04  -0.1935669970E-05   0.3393378241E-01  -0.4902623852E-03   0.0000000000E+00  -0.9084793954E-02   0.0000000000E+00   0.0000000000E+00   0.3408086112E-03  -0.1067039711E-03  -0.2362046428E-03  -0.1003305601E-03   0.0000000000E+00   0.0000000000E+00   0.3761018474E-01
   0.2114929418E+00   0.1146629464E+00   0.7183140705E-04  -0.3910799307E-05   0.7183140705E-04  -0.3910799307E-05   0.4325162877E-01  -0.1520866203E-02   0.0000000000E+00  -0.6949955374E-02   0.0000000000E+00   0.0000000000E+00   0.4370788863E-03  -0.1449635483E-03  -0.1806988397E-03  -0.1251922877E-03   0.0000000000E+00   0.0000000000E+00   0.4563335750E-01
   0.2067242281E+00   0.9688964875E-01   0.7329955840E-04  -0.2873977121E-05   0.7329955840E-04  -0.2873977121E-05   0.3917132319E-01  -0.1296807746E-02   0.0000000000E+00  -0.8198477404E-02   0.0000000000E+00   0.0000000000E+00   0.3956036552E-03  -0.1304820470E-03  -0.2131604125E-03  -0.1136235463E-03   0.0000000000E+00   0.0000000000E+00   0.4226813018E-01
   0.9000782662E-01   0.1039632887E+00   0.4279981241E-04  -0.1763415735E-04   0.4279981241E-04  -0.1763415735E-04   0.6245860013E-01  -0.7965842911E-02   0.0000000000E+00  -0.7199934752E-02   0.0000000000E+00   0.0000000000E+00   0.6484835301E-03  -0.2670342295E-03  -0.1871983036E-03  -0.1634782717E-03   0.0000000000E+00   0.0000000000E+00   0.6746708610E-01
   0.1245941818E+00   0.8337153240E-01   0.5919088245E-04  -0.7828097979E-05   0.5919088245E-04  -0.7828097979E-05   0.4034195273E-01  -0.1233295932E-01   0.0000000000E+00  -0.1301869375E-01   0.0000000000E+00   0.0000000000E+00   0.4404184053E-03  -0.2443554514E-03  -0.3384860375E-03  -0.8402698021E-04   0.0000000000E+00   0.0000000000E+00   0.5269355963E-01
   0.1088447913E+00   0.1151618215E+00   0.4524565173E-04  -0.1491224784E-04   0.4524565173E-04  -0.1491224784E-04   0.5873290472E-01  -0.1075925797E-01   0.0000000000E+00  -0.5513585288E-02   0.0000000000E+00   0.0000000000E+00   0.6196068211E-03  -0.2837912939E-03  -0.1433532175E-03  -0.1439209402E-03   0.0000000000E+00   0.0000000000E+00   0.6554581118E-01
   0.2439712919E+00   0.1279825072E+00   0.7742095390E-04  -0.3593412316E-05   0.7742095390E-04  -0.3593412316E-05   0.4434038557E-01   0.7331666094E-03   0.0000000000E+00  -0.5161867713E-02   0.0000000000E+00   0.0000000000E+00   0.4412043558E-03  -0.1256894906E-03  -0.1342085606E-03  -0.1352206565E-03   0.0000000000E+00   0.0000000000E+00   0.4486919395E-01
   0.1990126918E+00   0.1517259980E+00   0.6381939550E-04  -0.7797992278E-05   0.6381939550E-04  -0.7797992278E-05   0.5150188716E-01  -0.3178671331E-02   0.0000000000E+00  -0.4145810478E-02   0.0000000000E+00   0.0000000000E+00   0.5245548856E-03  -0.1862923748E-03  -0.1077910724E-03  -0.1449696475E-03   0.0000000000E+00   0.0000000000E+00   0.5363950849E-01
   0.2055027919E+00   0.1444224515E+00   0.6645845401E-04  -0.6663239211E-05   0.6645845401E-04  -0.6663239211E-05   0.4983447727E-01  -0.2888638353E-02   0.0000000000E+00  -0.4893411629E-02   0.0000000000E+00   0.0000000000E+00   0.5070106878E-03  -0.1783898153E-03  -0.1272287024E-03  -0.1408375168E-03   0.0000000000E+00   0.0000000000E+00   0.5203544879E-01
   0.1925322545E+00   0.1008130897E+00   0.6981123402E-04  -0.3763169639E-05   0.6981123402E-04  -0.3763169639E-05   0.4096557938E-01  -0.3188957513E-02   0.0000000000E+00  -0.8605545283E-02   0.0000000000E+00   0.0000000000E+00   0.4192226664E-03  -0.1547863133E-03  -0.2237441774E-03  -0.1133298656E-03   0.0000000000E+00   0.0000000000E+00   0.4514569951E-01
   0.1417981465E+00   0.1241922312E+00   0.5294025939E-04  -0.1069839679E-04   0.5294025939E-04  -0.1069839679E-04   0.5380251682E-01  -0.9517680868E-02   0.0000000000E+00  -0.5688047083E-02   0.0000000000E+00   0.0000000000E+00   0.5665782108E-03  -0.2565843591E-03  -0.1478892242E-03  -0.1328545078E-03   0.0000000000E+00   0.0000000000E+00   0.5993666498E-01
   0.1459802656E+00   0.1118720075E+00   0.5678682019E-04  -0.8610229288E-05   0.5678682019E-04  -0.8610229288E-05   0.4988497288E-01  -0.9644230929E-02   0.0000000000E+00  -0.8196357634E-02   0.0000000000E+00   0.0000000000E+00   0.5277824216E-03  -0.2460972279E-03  -0.2131052985E-03  -0.1207222259E-03   0.0000000000E+00   0.0000000000E+00   0.5710636713E-01
   0.1587186059E+00   0.1176531314E+00   0.5888443231E-04  -0.7893810055E-05   0.5888443231E-04  -0.7893810055E-05   0.4941109066E-01  -0.8033806240E-02   0.0000000000E+00  -0.7514459950E-02   0.0000000000E+00   0.0000000000E+00   0.5182123253E-03  -0.2285713344E-03  -0.1953759587E-03  -0.1241318533E-03   0.0000000000E+00   0.0000000000E+00   0.5543988511E-01
   0.1542044880E+00   0.1313574224E+00   0.5500750060E-04  -0.1000329274E-04   0.5500750060E-04  -0.1000329274E-04   0.5285676191E-01  -0.8353968651E-02   0.0000000000E+00  -0.5423639709E-02   0.0000000000E+00   0.0000000000E+00   0.5536295250E-03  -0.2421099722E-03  -0.1410146324E-03  -0.1335083798E-03   0.0000000000E+00   0.0000000000E+00   0.5817493208E-01
   0.1638736436E+00   0.1519571831E+00   0.5421078151E-04  -0.1122844072E-04   0.5421078151E-04  -0.1122844072E-04   0.5523676043E-01  -0.5658756345E-02   0.0000000000E+00  -0.2724175250E-02   0.0000000000E+00   0.0000000000E+00   0.5693438733E-03  -0.2222978447E-03  -0.7082855649E-04  -0.1487340122E-03   0.0000000000E+00   0.0000000000E+00   0.5843537879E-01
   0.1114682227E+00   0.1549084190E+00   0.3776936647E-04  -0.1991498946E-04   0.3776936647E-04  -0.1991498946E-04   0.6314970210E-01  -0.6179157406E-02   0.0000000000E+00   0.3035246085E-02   0.0000000000E+00   0.0000000000E+00   0.6500344932E-03  -0.2512406803E-03   0.7891639821E-04  -0.1709116341E-03   0.0000000000E+00   0.0000000000E+00   0.6662216103E-01
   0.1373579882E+00   0.1347184264E+00   0.4950559298E-04  -0.1272879222E-04   0.4950559298E-04  -0.1272879222E-04   0.5854059104E-01  -0.8594655304E-02   0.0000000000E+00  -0.3104849800E-02   0.0000000000E+00   0.0000000000E+00   0.6111898763E-03  -0.2615683262E-03  -0.8072609481E-04  -0.1498378072E-03   0.0000000000E+00   0.0000000000E+00   0.6345290007E-01
   0.1806247640E+00   0.1056448176E+00   0.6640497960E-04  -0.4852702834E-05   0.6640497960E-04  -0.4852702834E-05   0.4291085993E-01  -0.5326696102E-02   0.0000000000E+00  -0.8976515528E-02   0.0000000000E+00   0.0000000000E+00   0.4450886876E-03  -0.1819995408E-03  -0.2333894037E-03  -0.1127524915E-03   0.0000000000E+00   0.0000000000E+00   0.4835932044E-01
   0.1510921151E+00   0.1000233020E+00   0.6078356384E-04  -0.6651988134E-05   0.6078356384E-04  -0.6651988134E-05   0.4441610975E-01  -0.8924480835E-02   0.0000000000E+00  -0.1013643487E-01   0.0000000000E+00   0.0000000000E+00   0.4709345400E-03  -0.2224931376E-03  -0.2635473066E-03  -0.1064748867E-03   0.0000000000E+00   0.0000000000E+00   0.5247242807E-01
   0.1382204145E+00   0.9238314117E-01   0.5966424814E-04  -0.7155116440E-05   0.5966424814E-04  -0.7155116440E-05   0.4362875404E-01  -0.1078322554E-01   0.0000000000E+00  -0.1163347969E-01   0.0000000000E+00   0.0000000000E+00   0.4686372170E-03  -0.2387185175E-03  -0.3024704718E-03  -0.9853658550E-04   0.0000000000E+00   0.0000000000E+00   0.5375452896E-01
   0.1558888547E+00   0.9053550199E-01   0.6406733224E-04  -0.5232603893E-05   0.6406733224E-04  -0.5232603893E-05   0.3977135407E-01  -0.8947518748E-02   0.0000000000E+00  -0.1210459734E-01   0.0000000000E+00   0.0000000000E+00   0.4245560970E-03  -0.2087892497E-03  -0.3147195308E-03  -0.9247150597E-04   0.0000000000E+00   0.0000000000E+00   0.4949196401E-01
   0.1273564560E+00   0.1185461341E+00   0.5003848720E-04  -0.1209293461E-04   0.5003848720E-04  -0.1209293461E-04   0.5633454299E-01  -0.1076377010E-01   0.0000000000E+00  -0.5926489630E-02   0.0000000000E+00   0.0000000000E+00   0.5956367402E-03  -0.2766413300E-03  -0.1540887304E-03  -0.1367123187E-03   0.0000000000E+00   0.0000000000E+00   0.6320413759E-01
   0.1260321117E+00   0.1331084843E+00   0.4634883648E-04  -0.1433385244E-04   0.4634883648E-04  -0.1433385244E-04   0.5843011407E-01  -0.9549354684E-02   0.0000000000E+00  -0.2878680641E-02   0.0000000000E+00   0.0000000000E+00   0.6129492048E-03  -0.2707838891E-03  -0.7484569667E-04  -0.1466422782E-03   0.0000000000E+00   0.0000000000E+00   0.6394356984E-01
   0.1145251725E+00   0.1296857827E+00   0.4351673439E-04  -0.1593264869E-04   0.4351673439E-04  -0.1593264869E-04   0.5973341274E-01  -0.1070452515E-01   0.0000000000E+00  -0.2612977745E-02   0.0000000000E+00   0.0000000000E+00   0.6294477029E-03  -0.2862454897E-03  -0.6793742138E-04  -0.1470866628E-03   0.0000000000E+00   0.0000000000E+00   0.6581227226E-01
   0.2291237828E+00   0.1294822455E+00   0.7393788436E-04  -0.4221227291E-05   0.7393788436E-04  -0.4221227291E-05   0.4534862192E-01  -0.3842409497E-03   0.0000000000E+00  -0.5530352449E-02   0.0000000000E+00   0.0000000000E+00   0.4546389421E-03  -0.1398882753E-03  -0.1437891637E-03  -0.1348931429E-03   0.0000000000E+00   0.0000000000E+00   0.4653054206E-01
   0.2012643298E+00   0.1332254590E+00   0.6692488986E-04  -0.5943996719E-05   0.6692488986E-04  -0.5943996719E-05   0.4816023256E-01  -0.2846439294E-02   0.0000000000E+00  -0.5721498718E-02   0.0000000000E+00   0.0000000000E+00   0.4901416434E-03  -0.1729450906E-03  -0.1487589667E-03  -0.1359413798E-03   0.0000000000E+00   0.0000000000E+00   0.5061607535E-01
   0.1976536725E+00   0.1180997100E+00   0.6824325849E-04  -0.4880998103E-05   0.6824325849E-04  -0.4880998103E-05   0.4515302408E-01  -0.3153886189E-02   0.0000000000E+00  -0.7093038141E-02   0.0000000000E+00   0.0000000000E+00   0.4609918993E-03  -0.1669979341E-03  -0.1844189917E-03  -0.1259974137E-03   0.0000000000E+00   0.0000000000E+00   0.4838542919E-01
   0.2150472241E+00   0.1311485820E+00   0.7048954508E-04  -0.4989522399E-05   0.7048954508E-04  -0.4989522399E-05   0.4636893332E-01  -0.1691664551E-02   0.0000000000E+00  -0.5794768395E-02   0.0000000000E+00   0.0000000000E+00   0.4687643268E-03  -0.1560234455E-03  -0.1506639783E-03  -0.1340318063E-03   0.0000000000E+00   0.0000000000E+00   0.4828638948E-01
   0.1086696768E+00   0.1384780376E+00   0.3977187697E-04  -0.1828517711E-04   0.3977187697E-04  -0.1828517711E-04   0.6291032885E-01  -0.8725469207E-02   0.0000000000E+00  -0.1509255255E-04   0.0000000000E+00   0.0000000000E+00   0.6552796961E-03  -0.2759856786E-03  -0.3924063663E-06  -0.1625545789E-03   0.0000000000E+00   0.0000000000E+00   0.6766171163E-01
   0.1688572122E+00   0.1364759981E+00   0.5810460941E-04  -0.8946446447E-05   0.5810460941E-04  -0.8946446447E-05   0.5213141377E-01  -0.6626119940E-02   0.0000000000E+00  -0.5048989149E-02   0.0000000000E+00   0.0000000000E+00   0.5411924975E-03  -0.2226554407E-03  -0.1312737179E-03  -0.1365158815E-03   0.0000000000E+00   0.0000000000E+00   0.5640423240E-01
   0.1864205830E+00   0.1396106085E+00   0.6225350949E-04  -0.7626728085E-05   0.6225350949E-04  -0.7626728085E-05   0.5056547963E-01  -0.4567855339E-02   0.0000000000E+00  -0.5119509758E-02   0.0000000000E+00   0.0000000000E+00   0.5193583623E-03  -0.1973749923E-03  -0.1331072537E-03  -0.1379928729E-03   0.0000000000E+00   0.0000000000E+00   0.5372119424E-01
   0.1627669297E+00   0.1046930134E+00   0.6254585496E-04  -0.6089298274E-05   0.6254585496E-04  -0.6089298274E-05   0.4577454328E-01  -0.7098790132E-02   0.0000000000E+00  -0.8951080224E-02   0.0000000000E+00   0.0000000000E+00   0.4790418032E-03  -0.2083115311E-03  -0.2327280858E-03  -0.1160272594E-03   0.0000000000E+00   0.0000000000E+00   0.5199557269E-01
   0.1845100245E+00   0.1214537387E+00   0.6461223077E-04  -0.6043136972E-05   0.6461223077E-04  -0.6043136972E-05   0.4701495952E-01  -0.4670335991E-02   0.0000000000E+00  -0.6922277240E-02   0.0000000000E+00   0.0000000000E+00   0.4841606032E-03  -0.1877482385E-03  -0.1799792082E-03  -0.1270338706E-03   0.0000000000E+00   0.0000000000E+00   0.5091478554E-01
   0.1716668019E+00   0.1217991109E+00   0.6140044005E-04  -0.7100531978E-05   0.6140044005E-04  -0.7100531978E-05   0.4835401780E-01  -0.6461916189E-02   0.0000000000E+00  -0.7019541124E-02   0.0000000000E+00   0.0000000000E+00   0.5029259266E-03  -0.2096812153E-03  -0.1825080692E-03  -0.1256763048E-03   0.0000000000E+00   0.0000000000E+00   0.5327052885E-01
   0.1157138880E+00   0.9812221906E-01   0.5230348274E-04  -0.1122687084E-04   0.5230348274E-04  -0.1122687084E-04   0.5010723852E-01  -0.1241000103E-01   0.0000000000E+00  -0.1026107804E-01   0.0000000000E+00   0.0000000000E+00   0.5383023883E-03  -0.2744217259E-03  -0.2667880290E-03  -0.1130917125E-03   0.0000000000E+00   0.0000000000E+00   0.5997701588E-01
   0.1315286154E+00   0.1052956292E+00   0.5453072436E-04  -0.9651905363E-05   0.5453072436E-04  -0.9651905363E-05   0.5063101696E-01  -0.1126518453E-01   0.0000000000E+00  -0.9007320488E-02   0.0000000000E+00   0.0000000000E+00   0.5401057232E-03  -0.2645448962E-03  -0.2341903327E-03  -0.1180974973E-03   0.0000000000E+00   0.0000000000E+00   0.5910076833E-01
   0.1719730705E+00   0.1103303601E+00   0.6358627006E-04  -0.5918427881E-05   0.6358627006E-04  -0.5918427881E-05   0.4426809123E-01  -0.6529771539E-02   0.0000000000E+00  -0.8625687006E-02   0.0000000000E+00   0.0000000000E+00   0.4622702269E-03  -0.1981019891E-03  -0.2242678622E-03  -0.1132149591E-03   0.0000000000E+00   0.0000000000E+00   0.5013633080E-01
           1           2           3           4
           5           6           7           8
           9          10          11          12
          13          14          15          16
          17          18          19          20
          21          22          23          24
          25          26          27          28
          29          30          31          32
          33          34           4           3
           2           1          35          36
          37          38          39          40
          41          42          36          35
          43          41          44          45
          46           9          47          48
          41          35          39          44
          49          50          51          52
          52          51          53          54
          55          56          57          58
          56          59          60          57
          61          62          63          64
          65          66          67          68
          69          70          71          72
          73          74          25          28
          27          75          76          28
          77          78          24          23
          79          80          81          82
          83          84          85          86
          87          88          89          90
          90          89          62          91
          61          92          91          62
          92          61          59          93
          56          94          93          59
          95          55          54          53
          46          96          10           9
          97          98          99         100
          12         101          98          97
          97         100         102          47
         103         104          31          30
         105         103          30         106
          73         107         108         109
         110         111         112         113
          32          31         114         115
         116         117         118         119
         120         121         122         123
         121          83          86         122
          80         124         125          81
         126         127         128         129
         130         101          12          11
         131          43         101         130
          34         129         132           4
          42          41          43         131
          35           1          40          39
         101          43          45          98
         133         134         109         108
         135         136          13          16
         137         138          65          68
          94          56          55          95
          58         137          54          55
          49          52          68          67
         139         140         141         142
         140         139          82          81
          88          87         142         141
         143         144         145         146
         147          26          25         148
         149         150         128         151
           5           8         152         102
         132         129         128         150
         153         100          99         154
          48          47         102         152
          59          61          64          60
         106         155         113         118
          62          89         156          63
          88         157         156          89
         123         116         119         120
          66          65         134         133
         144         143          84          83
           9          12          97          47
         104         158         114          31
         159         160         127         126
         119         112         161         120
         117         105         106         118
         162         163         164         165
          83         121         166         144
         167         168         141         140
         167         143         146         168
           6         114         158           7
          38          37         169         170
          40         132         150          37
         160         159          20          19
          78         171         172          24
          18          17          21          24
         173         174          78          77
         132          40           1           4
          28          76         107          73
         175         176         177         178
         176         179          57          60
         137          68          52          54
          60          64         177         176
         163         162         155          29
          75          27         174         173
         180         174          27          26
          64          63         181         177
          98          45         182          99
         183         182          45          44
          38         183          44          39
          58          57         179         184
         185         181          63         156
         134         186         187         109
         188          74         187         189
         138         186         134          65
          88         141         168         157
         166         121         120         161
         190         191         166         161
         155         106          30          29
         192         193         194         195
         118         113         112         119
         125          84         143         167
         124          85          84         125
           6         196         115         114
         196           6           5         153
         197          32         115         198
         111         190         161         112
         199         148         188         135
         170         169         200         201
         202         164         163         197
         203         204         146         145
         205         206         201         200
         187          74          73         109
         176         175         207         179
         208         209          16          15
         210         186         138         184
         184         138         137          58
         179         207         210         184
         211         212         172         171
          78         174         180         171
         125         167         140          81
          37         150         149         169
         213         214         215         216
         217         182         183         201
         170         201         183          38
         218         219         206         205
         111         220         221         190
         157         168         146         204
         177         181         222         178
         222         181         185         223
         186         210         189         187
         224         191         190         221
         100         153           5         102
         185         156         157         204
         113         155         162         110
          26         147         193         180
          29          32         197         163
         225         226          19          18
         144         166         191         145
         212         192         227         228
         198         115         196         229
         206         154         217         201
         153         154         229         196
         172         225          18          24
         148          25          74         188
          14          13         175         178
         207         175          13         136
         189         136         135         188
         230         202         197         198
         210         207         136         189
         165         164         231         232
         169         149         233         200
         234         160          19         226
         217         154          99         182
         203         145         191         224
         151         235         233         149
         236         223         203         224
         185         204         203         223
         178         222         237          14
         110         162         165         238
         239         223         236         240
         238         220         111         110
         219         230         198         229
         241         242         232         243
         242          69         220         238
          72          71         240         236
         244         205         200         233
         215         231         164         202
         211         171         180         193
         228         225         172         212
         194         193         147         245
         245         147         148         199
         135          16         209         199
         209         208         246         247
         127         160         234         248
         193         192         212         211
         226         225         228         249
         151         128         127         248
         248         250         235         151
          72         221         220          69
          14         237         251          15
          70          69         252         253
         206         219         229         154
         238         165         232         242
          72         236         224         221
         216         215         202         230
         245         247         254         194
         255         256         257         258
         230         219         218         216
         214         259         231         215
         216         218         260         213
         261         255         258         214
         239         237         222         223
         194         254         262         195
         263         264         227         265
         250         266         267         268
         199         209         247         245
         240          71         269         251
         270         271         246         272
         260         244         273         213
         237         239         240         251
         218         205         244         260
          70         272         269          71
         232         231         259         243
         274         275         243         259
         257         256         263         276
         277         275         274         278
         234         226         249         279
         271         277         262         254
         271         254         247         246
         246         208         269         272
         244         233         235         273
         251         269         208          15
         275         270         253         252
         234         279         250         248
         279         249         264         280
         259         214         258         274
         262         281         276         195
         195         276         263         265
         257         276         281         278
         278         274         258         257
         266         280         256         255
         261         214         213         267
         267         266         255         261
         266         250         279         280
         228         227         264         249
         256         280         264         263
         265         227         192         195
         281         262         277         278
         235         250         268         273
         273         268         267         213
         277         271         270         275
         253         270         272          70
         252          69         242         241
         243         275         252         241
 VARIABLES = X,Y,DU1,DU2,U1,U2,S11,S22,S33,S12,S13,S23,E11,E22,E12,E33,E13,E23,SMISES
 ZONE, T="0.3000D+01" F=FEPOINT, I=  281 J=  250
   0.1777653780E-01   0.1341289716E+00   0.7173700808E-05  -0.3627480944E-04   0.1434740162E-04  -0.7254961889E-04   0.1289433917E+00   0.2427500400E-01   0.0000000000E+00   0.1924357796E-02   0.0000000000E+00   0.0000000000E+00   0.1216608905E-02  -0.1440801350E-03   0.5003330271E-04  -0.4596551870E-03   0.0000000000E+00   0.0000000000E+00   0.1180831903E+00
   0.0000000000E+00   0.1332219670E+00   0.0000000000E+00  -0.3712433844E-04   0.0000000000E+00  -0.7424867689E-04   0.1300930799E+00   0.2588811075E-01   0.0000000000E+00   0.3647231790E-02   0.0000000000E+00   0.0000000000E+00   0.1223266467E-02  -0.1313981322E-03   0.9482802654E-04  -0.4679435720E-03   0.0000000000E+00   0.0000000000E+00   0.1192762149E+00
   0.0000000000E+00   0.1165587375E+00   0.0000000000E+00  -0.3597650796E-04   0.0000000000E+00  -0.7195301592E-04   0.1654706826E+00   0.1360271844E-01   0.0000000000E+00   0.3139508467E-02   0.0000000000E+00   0.0000000000E+00   0.1613898671E-02  -0.3603848635E-03   0.8162722015E-04  -0.5372202032E-03   0.0000000000E+00   0.0000000000E+00   0.1590735536E+00
   0.1918415818E-01   0.1161863449E+00   0.1000706109E-04  -0.3494770620E-04   0.2001412218E-04  -0.6989541239E-04   0.1516349998E+00   0.1342442067E-01   0.0000000000E+00  -0.1350764208E-01   0.0000000000E+00   0.0000000000E+00   0.1476076736E-02  -0.3206607928E-03  -0.3511986940E-03  -0.4951782615E-03   0.0000000000E+00   0.0000000000E+00   0.1481091643E+00
   0.7805704739E-01   0.2317739166E+00   0.1851606492E-04  -0.3416214462E-04   0.3703212984E-04  -0.6832428925E-04   0.7935010484E-01  -0.2526162901E-04   0.0000000000E+00   0.5465387953E-02   0.0000000000E+00   0.0000000000E+00   0.7935768333E-03  -0.2383029308E-03   0.1421000868E-03  -0.2379745296E-03   0.0000000000E+00   0.0000000000E+00   0.7996306795E-01
   0.9784963418E-01   0.2319634294E+00   0.2387809382E-04  -0.3061086520E-04   0.4775618764E-04  -0.6122173039E-04   0.8391946331E-01  -0.4161113959E-03   0.0000000000E+00   0.4978999534E-02   0.0000000000E+00   0.0000000000E+00   0.8404429672E-03  -0.2559195039E-03   0.1294539879E-03  -0.2505100557E-03   0.0000000000E+00   0.0000000000E+00   0.8459807253E-01
   0.9728504090E-01   0.2499033596E+00   0.2093899991E-04  -0.3221346831E-04   0.4187799982E-04  -0.6442693662E-04   0.8193134020E-01  -0.2974519799E-03   0.0000000000E+00   0.1756538011E-02   0.0000000000E+00   0.0000000000E+00   0.8202057579E-03  -0.2487685404E-03   0.4566998828E-04  -0.2449016647E-03   0.0000000000E+00   0.0000000000E+00   0.8206439695E-01
   0.7782538628E-01   0.2498932171E+00   0.1586856091E-04  -0.3559431363E-04   0.3173712182E-04  -0.7118862726E-04   0.7422467020E-01  -0.4610840689E-03   0.0000000000E+00   0.1943695203E-02   0.0000000000E+00   0.0000000000E+00   0.7436299542E-03  -0.2272848513E-03   0.5053607528E-04  -0.2212907584E-03   0.0000000000E+00   0.0000000000E+00   0.7445069461E-01
   0.1911077357E-01   0.2331977189E+00   0.4194324500E-05  -0.4170336085E-04   0.8388649000E-05  -0.8340672170E-04   0.6707257923E-01   0.1602112941E-02   0.0000000000E+00   0.1530508189E-02   0.0000000000E+00   0.0000000000E+00   0.6659194534E-03  -0.1851966083E-03   0.3979321291E-04  -0.2060240765E-03   0.0000000000E+00   0.0000000000E+00   0.6644765536E-01
   0.0000000000E+00   0.2332065742E+00   0.0000000000E+00  -0.4225327452E-04   0.0000000000E+00  -0.8450654903E-04   0.6598546675E-01   0.1712603390E-02   0.0000000000E+00   0.1934389913E-02   0.0000000000E+00   0.0000000000E+00   0.6547168573E-03  -0.1808303663E-03   0.5029413774E-04  -0.2030942104E-03   0.0000000000E+00   0.0000000000E+00   0.6520810618E-01
   0.0000000000E+00   0.2165430403E+00   0.0000000000E+00  -0.4120955512E-04   0.0000000000E+00  -0.8241911023E-04   0.7522818142E-01   0.3858603693E-02   0.0000000000E+00   0.1961205849E-02   0.0000000000E+00   0.0000000000E+00   0.7407060031E-03  -0.1870985073E-03   0.5099135207E-04  -0.2372603553E-03   0.0000000000E+00   0.0000000000E+00   0.7340855046E-01
   0.1854607769E-01   0.2166525853E+00   0.4594296533E-05  -0.4067589180E-04   0.9188593066E-05  -0.8135178359E-04   0.7595899974E-01   0.3544639021E-02   0.0000000000E+00   0.3071533566E-02   0.0000000000E+00   0.0000000000E+00   0.7489560804E-03  -0.1924306090E-03   0.7985987272E-04  -0.2385109163E-03   0.0000000000E+00   0.0000000000E+00   0.7453736733E-01
   0.2574554674E+00   0.9226982882E-01   0.8332712020E-04  -0.1480726220E-05   0.1666542404E-03  -0.2961452439E-05   0.5591888837E-01   0.5246712056E-02   0.0000000000E+00  -0.7644717893E-02   0.0000000000E+00   0.0000000000E+00   0.5434487475E-03  -0.1152895445E-03  -0.1987626652E-03  -0.1834968013E-03   0.0000000000E+00   0.0000000000E+00   0.5508960070E-01
   0.2588476730E+00   0.1102792073E+00   0.8213167433E-04  -0.2240886236E-05   0.1642633487E-03  -0.4481772473E-05   0.6107162978E-01   0.3870223132E-02   0.0000000000E+00  -0.7346163913E-02   0.0000000000E+00   0.0000000000E+00   0.5991056284E-03  -0.1445126580E-03  -0.1910002617E-03  -0.1948255587E-03   0.0000000000E+00   0.0000000000E+00   0.6057003977E-01
   0.2420916996E+00   0.1106687926E+00   0.7872254551E-04  -0.2625452180E-05   0.1574450910E-03  -0.5250904360E-05   0.6169055652E-01   0.2070984662E-02   0.0000000000E+00  -0.8651578325E-02   0.0000000000E+00   0.0000000000E+00   0.6106926112E-03  -0.1643618229E-03  -0.2249410364E-03  -0.1912846235E-03   0.0000000000E+00   0.0000000000E+00   0.6249209932E-01
   0.2396202600E+00   0.9267598025E-01   0.8004134111E-04  -0.1779416926E-05   0.1600826822E-03  -0.3558833852E-05   0.5608906142E-01   0.3362904111E-02   0.0000000000E+00  -0.9305616770E-02   0.0000000000E+00   0.0000000000E+00   0.5508019019E-03  -0.1346381432E-03  -0.2419460360E-03  -0.1783558966E-03   0.0000000000E+00   0.0000000000E+00   0.5680144878E-01
   0.9260146976E-01   0.3823608323E-01   0.7117262020E-04  -0.1075312325E-04   0.1423452404E-03  -0.2150624650E-04  -0.7007351184E-02  -0.4705585436E-01   0.0000000000E+00   0.7284495301E-02   0.0000000000E+00   0.0000000000E+00   0.7109405124E-04  -0.4495364900E-03   0.1893968778E-03   0.1621896166E-03   0.0000000000E+00   0.0000000000E+00   0.4198818557E-01
   0.1082552629E+00   0.4607836062E-01   0.6946764023E-04  -0.6726961335E-05   0.1389352805E-03  -0.1345392267E-04   0.1512202739E-01  -0.2094350194E-01   0.0000000000E+00  -0.1008071455E-01   0.0000000000E+00   0.0000000000E+00   0.2140507797E-03  -0.2548011016E-03  -0.2620985782E-03   0.1746442365E-04   0.0000000000E+00   0.0000000000E+00   0.3317752086E-01
   0.9629575480E-01   0.6350752569E-01   0.6155280127E-04  -0.1155633551E-04   0.1231056025E-03  -0.2311267102E-04   0.3131587143E-01  -0.1231906286E-01   0.0000000000E+00  -0.1510885340E-01   0.0000000000E+00   0.0000000000E+00   0.3501159029E-03  -0.2171382429E-03  -0.3928301884E-03  -0.5699042571E-04   0.0000000000E+00   0.0000000000E+00   0.4695527257E-01
   0.8334013802E-01   0.5550832323E-01   0.6439283980E-04  -0.1623348976E-04   0.1287856796E-03  -0.3246697951E-04   0.9086149368E-02  -0.1036400123E-01   0.0000000000E+00  -0.4647317103E-02   0.0000000000E+00   0.0000000000E+00   0.1219534974E-03  -0.1308984604E-03  -0.1208302447E-03   0.3833555588E-05   0.0000000000E+00   0.0000000000E+00   0.1983816143E-01
   0.9830365354E-01   0.1949310194E-01   0.7504231292E-04  -0.5310154320E-05   0.1500846258E-03  -0.1062030864E-04  -0.6965483173E-02  -0.7513373467E-01   0.0000000000E+00   0.1016642625E-01   0.0000000000E+00   0.0000000000E+00   0.1557463723E-03  -0.7304408972E-03   0.2643270826E-03   0.2462976535E-03   0.0000000000E+00   0.0000000000E+00   0.7146090377E-01
   0.1002300686E+00   0.0000000000E+00   0.7668918340E-04   0.0000000000E+00   0.1533783668E-03   0.0000000000E+00  -0.9788216172E-02  -0.8072733161E-01   0.0000000000E+00  -0.5537767945E-02   0.0000000000E+00   0.0000000000E+00   0.1442998331E-03  -0.7779086676E-03  -0.1439819666E-03   0.2715466434E-03   0.0000000000E+00   0.0000000000E+00   0.7651973476E-01
   0.1210664078E+00   0.0000000000E+00   0.7769259034E-04   0.0000000000E+00   0.1553851807E-03   0.0000000000E+00  -0.5132573271E-04  -0.2775378819E-01   0.0000000000E+00  -0.6206068006E-02   0.0000000000E+00   0.0000000000E+00   0.8274810726E-04  -0.2773839047E-03  -0.1613577682E-03   0.8341534178E-04   0.0000000000E+00   0.0000000000E+00   0.2904326006E-01
   0.1219570083E+00   0.2610497766E-01   0.7538143686E-04  -0.2443679755E-05   0.1507628737E-03  -0.4887359511E-05   0.7067389969E-02  -0.2613382314E-01   0.0000000000E+00  -0.6587758407E-02   0.0000000000E+00   0.0000000000E+00   0.1490753691E-03  -0.2825404013E-03  -0.1712817186E-03   0.5719929951E-04   0.0000000000E+00   0.0000000000E+00   0.3384027339E-01
   0.2107870563E+00   0.3763206978E-01   0.8097243763E-04  -0.3876730188E-06   0.1619448753E-03  -0.7753460376E-06   0.3641363314E-01   0.5577304970E-02   0.0000000000E+00  -0.8472657338E-02   0.0000000000E+00   0.0000000000E+00   0.3474044165E-03  -0.5346784971E-04  -0.2202890908E-03  -0.1259728143E-03   0.0000000000E+00   0.0000000000E+00   0.3689379504E-01
   0.1906939157E+00   0.3838078357E-01   0.7866855081E-04  -0.5722780739E-06   0.1573371016E-03  -0.1144556148E-05   0.3285734238E-01   0.2138312486E-02   0.0000000000E+00  -0.1090652470E-01   0.0000000000E+00   0.0000000000E+00   0.3221584863E-03  -0.7718890227E-04  -0.2835696423E-03  -0.1049869646E-03   0.0000000000E+00   0.0000000000E+00   0.3685773071E-01
   0.1869478335E+00   0.1901221570E-01   0.7989382484E-04  -0.2349657289E-06   0.1597876497E-03  -0.4699314578E-06   0.2598395038E-01   0.3412012998E-02   0.0000000000E+00  -0.5324800559E-02   0.0000000000E+00   0.0000000000E+00   0.2496034648E-03  -0.4383172117E-04  -0.1384448145E-03  -0.8818789015E-04   0.0000000000E+00   0.0000000000E+00   0.2636657762E-01
   0.2074776317E+00   0.1873758492E-01   0.8178322220E-04  -0.1463252366E-06   0.1635664444E-03  -0.2926504733E-06   0.3164494815E-01   0.6486097767E-02   0.0000000000E+00  -0.4222194272E-02   0.0000000000E+00   0.0000000000E+00   0.2969911882E-03  -0.3007386678E-04  -0.1097770511E-03  -0.1143931378E-03   0.0000000000E+00   0.0000000000E+00   0.2995926439E-01
   0.1575545459E+00   0.2159008607E+00   0.4373295765E-04  -0.1886243751E-04   0.8746591530E-04  -0.3772487503E-04   0.9072583043E-01  -0.1993856528E-02   0.0000000000E+00   0.2395069399E-02   0.0000000000E+00   0.0000000000E+00   0.9132398738E-03  -0.2921160566E-03   0.6227180437E-04  -0.2661959217E-03   0.0000000000E+00   0.0000000000E+00   0.9182759475E-01
   0.1565765471E+00   0.2325436850E+00   0.4129203372E-04  -0.2060565788E-04   0.8258406743E-04  -0.4121131576E-04   0.9297910229E-01  -0.8406712423E-03   0.0000000000E+00   0.1497075831E-02   0.0000000000E+00   0.0000000000E+00   0.9323130366E-03  -0.2873440193E-03   0.3892397161E-04  -0.2764152931E-03   0.0000000000E+00   0.0000000000E+00   0.9344604967E-01
   0.1370852516E+00   0.2325591320E+00   0.3529354858E-04  -0.2366734658E-04   0.7058709716E-04  -0.4733469316E-04   0.9104418428E-01  -0.8699409740E-03   0.0000000000E+00   0.2679947921E-02   0.0000000000E+00   0.0000000000E+00   0.9130516657E-03  -0.2818319626E-03   0.6967864595E-04  -0.2705227299E-03   0.0000000000E+00   0.0000000000E+00   0.9161082817E-01
   0.1383288695E+00   0.2157471971E+00   0.3791982871E-04  -0.2185864502E-04   0.7583965743E-04  -0.4371729004E-04   0.9005317787E-01  -0.2218264240E-02   0.0000000000E+00   0.4433339042E-02   0.0000000000E+00   0.0000000000E+00   0.9071865714E-03  -0.2923421760E-03   0.1152668151E-03  -0.2635047409E-03   0.0000000000E+00   0.0000000000E+00   0.9148839283E-01
   0.0000000000E+00   0.9990039859E-01   0.0000000000E+00  -0.3320080307E-04   0.0000000000E+00  -0.6640160613E-04   0.2463229213E+00   0.1712060436E-01   0.0000000000E+00   0.3458411858E-02   0.0000000000E+00   0.0000000000E+00   0.2411867400E-02  -0.5677627203E-03   0.8991870832E-04  -0.7903305770E-03   0.0000000000E+00   0.0000000000E+00   0.2364699815E+00
   0.1955544961E-01   0.9798191355E-01   0.1547240370E-04  -0.3220434981E-04   0.3094480740E-04  -0.6440869961E-04   0.2280607955E+00   0.1715441004E-01   0.0000000000E+00  -0.3423426227E-01   0.0000000000E+00   0.0000000000E+00   0.2229144725E-02  -0.5126382860E-03  -0.8900908191E-03  -0.7356456166E-03   0.0000000000E+00   0.0000000000E+00   0.2259197695E+00
   0.1681661598E-01   0.1512251526E+00   0.5852394331E-05  -0.3718747266E-04   0.1170478866E-04  -0.7437494532E-04   0.1102551529E+00   0.1866792972E-01   0.0000000000E+00   0.3318687868E-02   0.0000000000E+00   0.0000000000E+00   0.1046547740E-02  -0.1440861615E-03   0.8628588457E-04  -0.3867692479E-03   0.0000000000E+00   0.0000000000E+00   0.1027105153E+00
   0.0000000000E+00   0.1498865878E+00   0.0000000000E+00  -0.3780606723E-04   0.0000000000E+00  -0.7561213446E-04   0.1113380563E+00   0.2124450064E-01   0.0000000000E+00   0.2786813749E-02   0.0000000000E+00   0.0000000000E+00   0.1049647061E-02  -0.1215691623E-03   0.7245715747E-04  -0.3977476707E-03   0.0000000000E+00   0.0000000000E+00   0.1024959061E+00
   0.5111293413E-01   0.1385759810E+00   0.1954134279E-04  -0.3121966648E-04   0.3908268559E-04  -0.6243933296E-04   0.1139547174E+00   0.7248109467E-02   0.0000000000E+00   0.5736687478E-02   0.0000000000E+00   0.0000000000E+00   0.1117802845E-02  -0.2693830574E-03   0.1491538744E-03  -0.3636084805E-03   0.0000000000E+00   0.0000000000E+00   0.1108815684E+00
   0.4909741502E-01   0.1539613098E+00   0.1683707346E-04  -0.3288874068E-04   0.3367414691E-04  -0.6577748137E-04   0.1055768037E+00   0.7978797394E-02   0.0000000000E+00   0.9191237306E-02   0.0000000000E+00   0.0000000000E+00   0.1031831645E-02  -0.2369424373E-03   0.2389721699E-03  -0.3406668034E-03   0.0000000000E+00   0.0000000000E+00   0.1030808465E+00
   0.3320985630E-01   0.1526301895E+00   0.1146386679E-04  -0.3542183320E-04   0.2292773357E-04  -0.7084366639E-04   0.1084962052E+00   0.1413531287E-01   0.0000000000E+00   0.7000450433E-02   0.0000000000E+00   0.0000000000E+00   0.1042556113E-02  -0.1841354869E-03   0.1820117113E-03  -0.3678945542E-03   0.0000000000E+00   0.0000000000E+00   0.1033040661E+00
   0.3441228427E-01   0.1356373791E+00   0.1360255597E-04  -0.3413630513E-04   0.2720511195E-04  -0.6827261025E-04   0.1199990451E+00   0.1468509922E-01   0.0000000000E+00   0.7107105314E-02   0.0000000000E+00   0.0000000000E+00   0.1155935154E-02  -0.2131461432E-03   0.1847847382E-03  -0.4040524331E-03   0.0000000000E+00   0.0000000000E+00   0.1124874048E+00
   0.1670044554E-01   0.1676892285E+00   0.5259745871E-05  -0.3796982941E-04   0.1051949174E-04  -0.7593965882E-04   0.9959698497E-01   0.1544231514E-01   0.0000000000E+00   0.4085063036E-02   0.0000000000E+00   0.0000000000E+00   0.9496429043E-03  -0.1443678035E-03   0.1062116389E-03  -0.3451179003E-03   0.0000000000E+00   0.0000000000E+00   0.9316631051E-01
   0.0000000000E+00   0.1665511973E+00   0.0000000000E+00  -0.3849155194E-04   0.0000000000E+00  -0.7698310387E-04   0.9969549218E-01   0.1684214613E-01   0.0000000000E+00   0.2352788514E-02   0.0000000000E+00   0.0000000000E+00   0.9464284834E-03  -0.1306650152E-03   0.6117250135E-04  -0.3496129150E-03   0.0000000000E+00   0.0000000000E+00   0.9244515387E-01
   0.1710639977E-01   0.1840091551E+00   0.4979124603E-05  -0.3879096543E-04   0.9958249205E-05  -0.7758193087E-04   0.9104934401E-01   0.1088833054E-01   0.0000000000E+00   0.4004417209E-02   0.0000000000E+00   0.0000000000E+00   0.8778284484E-03  -0.1642647266E-03   0.1041148474E-03  -0.3058130237E-03   0.0000000000E+00   0.0000000000E+00   0.8651377070E-01
   0.3342209405E-01   0.1684978004E+00   0.1052775111E-04  -0.3636385582E-04   0.2105550223E-04  -0.7272771165E-04   0.9891837368E-01   0.1129851265E-01   0.0000000000E+00   0.8788374805E-02   0.0000000000E+00   0.0000000000E+00   0.9552881989E-03  -0.1837699946E-03   0.2284977449E-03  -0.3306506590E-03   0.0000000000E+00   0.0000000000E+00   0.9482578026E-01
   0.3454360210E-01   0.1841675989E+00   0.1009999946E-04  -0.3721135049E-04   0.2019999892E-04  -0.7442270099E-04   0.9135430120E-01   0.8293163488E-02   0.0000000000E+00   0.8479952087E-02   0.0000000000E+00   0.0000000000E+00   0.8886635215E-03  -0.1911312687E-03   0.2204787543E-03  -0.2989423941E-03   0.0000000000E+00   0.0000000000E+00   0.8872102181E-01
   0.1945494197E-01   0.2498719780E+00   0.3498958293E-05  -0.4267398575E-04   0.6997916586E-05  -0.8534797150E-04   0.5477945139E-01  -0.9685490744E-03   0.0000000000E+00   0.2775048316E-03   0.0000000000E+00   0.0000000000E+00   0.5507001611E-03  -0.1740238449E-03   0.7215125622E-05  -0.1614327069E-03   0.0000000000E+00   0.0000000000E+00   0.5535598176E-01
   0.3850364092E-01   0.2328241212E+00   0.8608407358E-05  -0.4005294358E-04   0.1721681472E-04  -0.8010588717E-04   0.7010782070E-01   0.1235817900E-02   0.0000000000E+00   0.3971428337E-02   0.0000000000E+00   0.0000000000E+00   0.6973707533E-03  -0.1979652831E-03   0.1032571367E-03  -0.2140309158E-03   0.0000000000E+00   0.0000000000E+00   0.6988028512E-01
   0.3891051453E-01   0.2498767259E+00   0.7208076002E-05  -0.4109136650E-04   0.1441615200E-04  -0.8218273300E-04   0.5953037451E-01  -0.8343178606E-03   0.0000000000E+00   0.1565558006E-02   0.0000000000E+00   0.0000000000E+00   0.5978066986E-03  -0.1869343021E-03   0.4070450816E-04  -0.1760881699E-03   0.0000000000E+00   0.0000000000E+00   0.6000648768E-01
   0.3294580261E+00   0.0000000000E+00   0.9711503874E-04   0.0000000000E+00   0.1942300775E-03   0.0000000000E+00   0.4530870557E-01   0.1310113291E-01   0.0000000000E+00  -0.1375691544E-03   0.0000000000E+00   0.0000000000E+00   0.4137836570E-03  -0.4914787622E-05  -0.3576798015E-05  -0.1752295154E-03   0.0000000000E+00   0.0000000000E+00   0.4038399293E-01
   0.3502999940E+00   0.0000000000E+00   0.1000000000E-03   0.0000000000E+00   0.2000000000E-03   0.0000000000E+00   0.4557459244E-01   0.1318277773E-01   0.0000000000E+00  -0.8275846614E-06   0.0000000000E+00   0.0000000000E+00   0.4161975912E-03  -0.4896000050E-05  -0.2151720120E-07  -0.1762721105E-03   0.0000000000E+00   0.0000000000E+00   0.4062046508E-01
   0.3502999940E+00   0.1923065208E-01   0.1000000000E-03  -0.3927361594E-07   0.2000000000E-03  -0.7854723188E-07   0.4607180633E-01   0.1296098698E-01   0.0000000000E+00  -0.1678496766E-06   0.0000000000E+00   0.0000000000E+00   0.4218351024E-03  -0.8605549195E-05  -0.4364091593E-08  -0.1770983799E-03   0.0000000000E+00   0.0000000000E+00   0.4114991578E-01
   0.3300542658E+00   0.1871443055E-01   0.9715960959E-04  -0.3825040932E-07   0.1943192192E-03  -0.7650081863E-07   0.4583259760E-01   0.1289135610E-01   0.0000000000E+00  -0.4216905295E-03   0.0000000000E+00   0.0000000000E+00   0.4196519077E-03  -0.8584231794E-05  -0.1096395377E-04  -0.1761718611E-03   0.0000000000E+00   0.0000000000E+00   0.4094394011E-01
   0.3502999940E+00   0.3846116211E-01   0.1000000000E-03  -0.1259314826E-06   0.2000000000E-03  -0.2518629652E-06   0.4758095715E-01   0.1231409470E-01   0.0000000000E+00   0.4726839674E-05   0.0000000000E+00   0.0000000000E+00   0.4388672874E-03  -0.1960192448E-04   0.1228978315E-06  -0.1796851555E-03   0.0000000000E+00   0.0000000000E+00   0.4276895241E-01
   0.3304971575E+00   0.3768266344E-01   0.9710983635E-04  -0.1230206226E-06   0.1942196727E-03  -0.2460412452E-06   0.4738396167E-01   0.1227087035E-01   0.0000000000E+00  -0.8774644638E-03   0.0000000000E+00   0.0000000000E+00   0.4370270057E-03  -0.1944318151E-04  -0.2281407606E-04  -0.1789644961E-03   0.0000000000E+00   0.0000000000E+00   0.4261573531E-01
   0.3308494603E+00   0.5676182894E-01   0.9698375451E-04  -0.2987199771E-06   0.1939675090E-03  -0.5974399542E-06   0.4987790976E-01   0.1127726681E-01   0.0000000000E+00  -0.1186422555E-02   0.0000000000E+00   0.0000000000E+00   0.4649472971E-03  -0.3686106116E-04  -0.3084698644E-04  -0.1834655297E-03   0.0000000000E+00   0.0000000000E+00   0.4534125648E-01
   0.3311280526E+00   0.7595483673E-01   0.9679521264E-04  -0.6044565700E-06   0.1935904253E-03  -0.1208913140E-05   0.5317329307E-01   0.9996277179E-02   0.0000000000E+00  -0.1410957284E-02   0.0000000000E+00   0.0000000000E+00   0.5017440992E-03  -0.5955710743E-04  -0.3668488939E-04  -0.1895087108E-03   0.0000000000E+00   0.0000000000E+00   0.4899549599E-01
   0.3120924590E+00   0.7514364269E-01   0.9364067592E-04  -0.6233693490E-06   0.1872813518E-03  -0.1246738698E-05   0.5270397039E-01   0.9649340863E-02   0.0000000000E+00  -0.2796605640E-02   0.0000000000E+00   0.0000000000E+00   0.4980916813E-03  -0.6161850253E-04  -0.7271174664E-04  -0.1870599337E-03   0.0000000000E+00   0.0000000000E+00   0.4883257562E-01
   0.3114269224E+00   0.5605227117E-01   0.9400147928E-04  -0.3092443953E-06   0.1880029586E-03  -0.6184887907E-06   0.4928610375E-01   0.1095765934E-01   0.0000000000E+00  -0.2367417089E-02   0.0000000000E+00   0.0000000000E+00   0.4599880595E-03  -0.3828171788E-04  -0.6155284431E-04  -0.1807312893E-03   0.0000000000E+00   0.0000000000E+00   0.4500121194E-01
   0.3312719931E+00   0.9525278765E-01   0.9654537556E-04  -0.1071050767E-05   0.1930907511E-03  -0.2142101534E-05   0.5709206832E-01   0.8517048726E-02   0.0000000000E+00  -0.1530165134E-02   0.0000000000E+00   0.0000000000E+00   0.5453695370E-03  -0.8610571770E-04  -0.3978429350E-04  -0.1968273511E-03   0.0000000000E+00   0.0000000000E+00   0.5339932298E-01
   0.3124681231E+00   0.9439731339E-01   0.9315601985E-04  -0.1102871346E-05   0.1863120397E-03  -0.2205742693E-05   0.5675070730E-01   0.8159986377E-02   0.0000000000E+00  -0.3009197678E-02   0.0000000000E+00   0.0000000000E+00   0.5430271139E-03  -0.8865225814E-04  -0.7823913963E-04  -0.1947320810E-03   0.0000000000E+00   0.0000000000E+00   0.5338734726E-01
   0.3312575098E+00   0.1147043987E+00   0.9623759778E-04  -0.1721778702E-05   0.1924751956E-03  -0.3443557404E-05   0.6146356596E-01   0.6953258550E-02   0.0000000000E+00  -0.1564573822E-02   0.0000000000E+00   0.0000000000E+00   0.5937758839E-03  -0.1148581124E-03  -0.4067891938E-04  -0.2052504735E-03   0.0000000000E+00   0.0000000000E+00   0.5835052807E-01
   0.3311153383E+00   0.1342673334E+00   0.9588511024E-04  -0.2566868807E-05   0.1917702205E-03  -0.5133737615E-05   0.6608988703E-01   0.5409411353E-02   0.0000000000E+00  -0.1504694772E-02   0.0000000000E+00   0.0000000000E+00   0.6446706362E-03  -0.1441755476E-03  -0.3912206408E-04  -0.2144978951E-03   0.0000000000E+00   0.0000000000E+00   0.6360204664E-01
   0.3120732736E+00   0.1337857067E+00   0.9180551823E-04  -0.2658444113E-05   0.1836110365E-03  -0.5316888226E-05   0.6608875320E-01   0.5030234251E-02   0.0000000000E+00  -0.2927307683E-02   0.0000000000E+00   0.0000000000E+00   0.6457968292E-03  -0.1479639171E-03  -0.7610999975E-04  -0.2133569624E-03   0.0000000000E+00   0.0000000000E+00   0.6391885900E-01
   0.3124636297E+00   0.1139301990E+00   0.9254222017E-04  -0.1774655076E-05   0.1850844403E-03  -0.3549310153E-05   0.6127299240E-01   0.6566869751E-02   0.0000000000E+00  -0.3046537582E-02   0.0000000000E+00   0.0000000000E+00   0.5930293147E-03  -0.1181502797E-03  -0.7920997713E-04  -0.2035195865E-03   0.0000000000E+00   0.0000000000E+00   0.5849858465E-01
   0.2892702497E+00   0.1826403384E-01   0.9156189856E-04  -0.4625408251E-07   0.1831237971E-03  -0.9250816502E-07   0.4378286231E-01   0.1209844436E-01   0.0000000000E+00  -0.1306381683E-02   0.0000000000E+00   0.0000000000E+00   0.4015332901E-03  -0.1036414334E-04  -0.3396592376E-04  -0.1676439200E-03   0.0000000000E+00   0.0000000000E+00   0.3923109932E-01
   0.2877744357E+00   0.0000000000E+00   0.9148055335E-04   0.0000000000E+00   0.1829611067E-03   0.0000000000E+00   0.4308720750E-01   0.1229964919E-01   0.0000000000E+00  -0.4321372383E-03   0.0000000000E+00   0.0000000000E+00   0.3939731275E-03  -0.6265130628E-05  -0.1123556820E-04  -0.1661605701E-03   0.0000000000E+00   0.0000000000E+00   0.3843637806E-01
   0.3086161275E+00   0.0000000000E+00   0.9426351416E-04   0.0000000000E+00   0.1885270283E-03   0.0000000000E+00   0.4449405977E-01   0.1281133239E-01   0.0000000000E+00  -0.2780047898E-03   0.0000000000E+00   0.0000000000E+00   0.4065066006E-03  -0.5368855438E-05  -0.7228124534E-05  -0.1719161765E-03   0.0000000000E+00   0.0000000000E+00   0.3966897634E-01
   0.3096706186E+00   0.1840613156E-01   0.9433151943E-04  -0.4058067522E-07   0.1886630389E-03  -0.8116135045E-07   0.4506608678E-01   0.1260496026E-01   0.0000000000E+00  -0.8457711337E-03   0.0000000000E+00   0.0000000000E+00   0.4128459870E-03  -0.9148657754E-05  -0.2199004948E-04  -0.1730131411E-03   0.0000000000E+00   0.0000000000E+00   0.4029877873E-01
   0.2124048247E+00   0.1636670271E+00   0.6587058204E-04  -0.7861648467E-05   0.1317411641E-03  -0.1572329693E-04   0.7865148758E-01  -0.2730962265E-02   0.0000000000E+00  -0.5284133831E-02   0.0000000000E+00   0.0000000000E+00   0.7947077626E-03  -0.2632640854E-03  -0.1373874796E-03  -0.2277615759E-03   0.0000000000E+00   0.0000000000E+00   0.8056594785E-01
   0.2165152204E+00   0.1467507378E+00   0.6891048186E-04  -0.6172413349E-05   0.1378209637E-03  -0.1234482670E-04   0.7357649779E-01  -0.2765769429E-02   0.0000000000E+00  -0.7231995322E-02   0.0000000000E+00   0.0000000000E+00   0.7440622862E-03  -0.2483871876E-03  -0.1880318784E-03  -0.2124321851E-03   0.0000000000E+00   0.0000000000E+00   0.7601512563E-01
   0.2311725294E+00   0.1467195258E+00   0.7251813074E-04  -0.5390745667E-05   0.1450362615E-03  -0.1078149133E-04   0.7279789272E-01  -0.9884919351E-03   0.0000000000E+00  -0.6783857367E-02   0.0000000000E+00   0.0000000000E+00   0.7309444030E-03  -0.2282785975E-03  -0.1763802915E-03  -0.2154282023E-03   0.0000000000E+00   0.0000000000E+00   0.7422807905E-01
   0.2323625128E+00   0.1630853599E+00   0.7113459479E-04  -0.6605018358E-05   0.1422691896E-03  -0.1321003672E-04   0.7693930276E-01  -0.9109137582E-03   0.0000000000E+00  -0.5401058620E-02   0.0000000000E+00   0.0000000000E+00   0.7721257689E-03  -0.2399270459E-03  -0.1404275241E-03  -0.2280851670E-03   0.0000000000E+00   0.0000000000E+00   0.7795986525E-01
   0.2280173240E+00   0.1845679420E-01   0.8395598345E-04  -0.9936692280E-07   0.1679119669E-03  -0.1987338456E-06   0.3599256469E-01   0.8697027868E-02   0.0000000000E+00  -0.3236922856E-02   0.0000000000E+00   0.0000000000E+00   0.3338345633E-03  -0.2100741538E-04  -0.8415999427E-04  -0.1340687777E-03   0.0000000000E+00   0.0000000000E+00   0.3305944891E-01
   0.2308685553E+00   0.3704733724E-01   0.8342411208E-04  -0.2758542324E-06   0.1668482242E-03  -0.5517084649E-06   0.3959021353E-01   0.7815491464E-02   0.0000000000E+00  -0.6534090289E-02   0.0000000000E+00   0.0000000000E+00   0.3724556609E-03  -0.4061572595E-04  -0.1698863475E-03  -0.1422171150E-03   0.0000000000E+00   0.0000000000E+00   0.3796921388E-01
   0.1835738557E+00   0.0000000000E+00   0.8017289214E-04   0.0000000000E+00   0.1603457843E-03   0.0000000000E+00   0.2322052024E-01   0.3355884575E-02   0.0000000000E+00  -0.1958544266E-02   0.0000000000E+00   0.0000000000E+00   0.2221375487E-03  -0.3610271496E-04  -0.5092215090E-04  -0.7972921444E-04   0.0000000000E+00   0.0000000000E+00   0.2177666240E-01
   0.2044123675E+00   0.0000000000E+00   0.8190049282E-04   0.0000000000E+00   0.1638009856E-03   0.0000000000E+00   0.2947226991E-01   0.6778203976E-02   0.0000000000E+00  -0.1470712428E-02   0.0000000000E+00   0.0000000000E+00   0.2743880871E-03  -0.2063476995E-04  -0.3823852312E-04  -0.1087514216E-03   0.0000000000E+00   0.0000000000E+00   0.2663620189E-01
   0.1419008542E+00   0.0000000000E+00   0.7806273548E-04   0.0000000000E+00   0.1561254710E-03   0.0000000000E+00   0.4728293317E-02  -0.1199558812E-01   0.0000000000E+00  -0.4704593984E-02   0.0000000000E+00   0.0000000000E+00   0.8326969753E-04  -0.1341407612E-03  -0.1223194436E-03   0.2180188441E-04   0.0000000000E+00   0.0000000000E+00   0.1661618680E-01
   0.1459006997E+00   0.2097907935E-01   0.7700522855E-04  -0.8273498823E-06   0.1540104571E-03  -0.1654699765E-05   0.1065434522E-01  -0.9856782434E-02   0.0000000000E+00  -0.7405725688E-02   0.0000000000E+00   0.0000000000E+00   0.1361137995E-03  -0.1305308600E-03  -0.1925488679E-03  -0.2392688363E-05   0.0000000000E+00   0.0000000000E+00   0.2234030566E-01
   0.3502999940E+00   0.2499673939E+00   0.1000000000E-03  -0.1086868525E-04   0.2000000000E-03  -0.2173737051E-04   0.8991309391E-01   0.2865590231E-03   0.0000000000E+00   0.2590090417E-03   0.0000000000E+00   0.0000000000E+00   0.8982712621E-03  -0.2668736915E-03   0.6734235083E-05  -0.2705989588E-03   0.0000000000E+00   0.0000000000E+00   0.8977122963E-01
   0.3308380767E+00   0.2499671642E+00   0.9417288591E-04  -0.1094527924E-04   0.1883457718E-03  -0.2189055849E-04   0.9016485096E-01   0.2890713420E-03   0.0000000000E+00  -0.1885523430E-03   0.0000000000E+00   0.0000000000E+00   0.9007812955E-03  -0.2676038395E-03  -0.4902360918E-05  -0.2713617669E-03   0.0000000000E+00   0.0000000000E+00   0.9002169272E-01
   0.3310718253E+00   0.2310189579E+00   0.9442411028E-04  -0.9269372719E-05   0.1888482206E-03  -0.1853874544E-04   0.8724250002E-01   0.1891425651E-03   0.0000000000E+00  -0.4500122615E-03   0.0000000000E+00   0.0000000000E+00   0.8718575726E-03  -0.2598360744E-03  -0.1170031880E-04  -0.2622949278E-03   0.0000000000E+00   0.0000000000E+00   0.8715217732E-01
   0.3502999940E+00   0.2307417071E+00   0.1000000000E-03  -0.9174980948E-05   0.2000000000E-03  -0.1834996190E-04   0.8706445521E-01   0.2150838039E-03   0.0000000000E+00   0.2400879416E-03   0.0000000000E+00   0.0000000000E+00   0.8699993007E-03  -0.2590425276E-03   0.6242286483E-05  -0.2618386170E-03   0.0000000000E+00   0.0000000000E+00   0.8695842474E-01
   0.2732518182E+00   0.2316339975E+00   0.7741206039E-04  -0.1050816389E-04   0.1548241208E-03  -0.2101632778E-04   0.8974453386E-01   0.2860872165E-05   0.0000000000E+00  -0.1213456097E-02   0.0000000000E+00   0.0000000000E+00   0.8974367559E-03  -0.2692049928E-03  -0.3154985851E-04  -0.2692421842E-03   0.0000000000E+00   0.0000000000E+00   0.8977147808E-01
   0.2925119690E+00   0.2314599458E+00   0.8313833859E-04  -0.9914081685E-05   0.1662766772E-03  -0.1982816337E-04   0.8866093374E-01   0.8780669364E-04   0.0000000000E+00  -0.1027400704E-02   0.0000000000E+00   0.0000000000E+00   0.8863459173E-03  -0.2651047343E-03  -0.2671241831E-04  -0.2662462213E-03   0.0000000000E+00   0.0000000000E+00   0.8863764549E-01
   0.2919138376E+00   0.2499652092E+00   0.8239353590E-04  -0.1159691782E-04   0.1647870718E-03  -0.2319383564E-04   0.9205592406E-01   0.3267299647E-03   0.0000000000E+00  -0.3093887567E-03   0.0000000000E+00   0.0000000000E+00   0.9195790507E-03  -0.2729004725E-03  -0.8044107674E-05  -0.2771479621E-03   0.0000000000E+00   0.0000000000E+00   0.9189350501E-01
   0.2724513828E+00   0.2499633564E+00   0.7638726341E-04  -0.1221453869E-04   0.1527745268E-03  -0.2442907737E-04   0.9355082630E-01   0.3607139126E-03   0.0000000000E+00  -0.3584205971E-03   0.0000000000E+00   0.0000000000E+00   0.9344261213E-03  -0.2770453398E-03  -0.9318935525E-05  -0.2817346206E-03   0.0000000000E+00   0.0000000000E+00   0.9337178365E-01
   0.3502999940E+00   0.1730627208E+00   0.1000000000E-03  -0.4735727678E-05   0.2000000000E-03  -0.9471455355E-05   0.7525879525E-01   0.2826664960E-02   0.0000000000E+00   0.1880803911E-03   0.0000000000E+00   0.0000000000E+00   0.7441079577E-03  -0.1975097362E-03   0.4890090169E-05  -0.2342563806E-03   0.0000000000E+00   0.0000000000E+00   0.7388374151E-01
   0.3310638068E+00   0.1732998969E+00   0.9522826733E-04  -0.4807041504E-05   0.1904565347E-03  -0.9614083008E-05   0.7534775721E-01   0.2712854573E-02   0.0000000000E+00  -0.1224737139E-02   0.0000000000E+00   0.0000000000E+00   0.7453390083E-03  -0.1989147259E-03  -0.3184316561E-04  -0.2341818353E-03   0.0000000000E+00   0.0000000000E+00   0.7405445060E-01
   0.3310563217E+00   0.1538365494E+00   0.9554456449E-04  -0.3600865664E-05   0.1910891290E-03  -0.7201731328E-05   0.7076729299E-01   0.3985959816E-02   0.0000000000E+00  -0.1396090440E-02   0.0000000000E+00   0.0000000000E+00   0.6957150504E-03  -0.1724422808E-03  -0.3629835145E-04  -0.2242597584E-03   0.0000000000E+00   0.0000000000E+00   0.6889647342E-01
   0.3502999940E+00   0.1538355015E+00   0.1000000000E-03  -0.3552845045E-05   0.2000000000E-03  -0.7105690090E-05   0.7070192723E-01   0.4091064982E-02   0.0000000000E+00   0.1664829047E-03   0.0000000000E+00   0.0000000000E+00   0.6947460773E-03  -0.1711951319E-03   0.4328555523E-05  -0.2243789766E-03   0.0000000000E+00   0.0000000000E+00   0.6874330260E-01
   0.3502999940E+00   0.1346077565E+00   0.1000000000E-03  -0.2544832685E-05   0.2000000000E-03  -0.5089665371E-05   0.6605203040E-01   0.5501900929E-02   0.0000000000E+00   0.1290667810E-03   0.0000000000E+00   0.0000000000E+00   0.6440146013E-03  -0.1431370819E-03   0.3355736306E-05  -0.2146617940E-03   0.0000000000E+00   0.0000000000E+00   0.6347364452E-01
   0.3502999940E+00   0.1153794578E+00   0.1000000000E-03  -0.1719395775E-05   0.2000000000E-03  -0.3438791550E-05   0.6147079495E-01   0.7006221332E-02   0.0000000000E+00   0.9932999148E-04   0.0000000000E+00   0.0000000000E+00   0.5936892855E-03  -0.1143501715E-03   0.2582579779E-05  -0.2054310488E-03   0.0000000000E+00   0.0000000000E+00   0.5827502064E-01
   0.3502999940E+00   0.9615061411E-01   0.1000000000E-03  -0.1077928826E-05   0.2000000000E-03  -0.2155857651E-05   0.5714158195E-01   0.8541737116E-02   0.0000000000E+00   0.6533854446E-04   0.0000000000E+00   0.0000000000E+00   0.5457906081E-03  -0.8600737468E-04   0.1698802156E-05  -0.1970499572E-03   0.0000000000E+00   0.0000000000E+00   0.5337467100E-01
   0.3502999940E+00   0.7692124287E-01   0.1000000000E-03  -0.6123112952E-06   0.2000000000E-03  -0.1224622590E-05   0.5326421382E-01   0.1000739034E-01   0.0000000000E+00   0.3830999368E-04   0.0000000000E+00   0.0000000000E+00   0.5026199672E-03  -0.5971873802E-04   0.9960598356E-06  -0.1898148125E-03   0.0000000000E+00   0.0000000000E+00   0.4902125166E-01
   0.3502999940E+00   0.5769139465E-01   0.1000000000E-03  -0.3044504355E-06   0.2000000000E-03  -0.6089008710E-06   0.5002172324E-01   0.1129970160E-01   0.0000000000E+00   0.1752980514E-04   0.0000000000E+00   0.0000000000E+00   0.4663181276E-03  -0.3706815372E-04   0.4557749335E-06  -0.1839642745E-03   0.0000000000E+00   0.0000000000E+00   0.4542873039E-01
   0.0000000000E+00   0.2498703423E+00   0.0000000000E+00  -0.4321922400E-04   0.0000000000E+00  -0.8643844801E-04   0.5308571104E-01  -0.1012168291E-02   0.0000000000E+00   0.1897275632E-02   0.0000000000E+00   0.0000000000E+00   0.5338936153E-03  -0.1693788160E-03   0.4932916643E-04  -0.1562206283E-03   0.0000000000E+00   0.0000000000E+00   0.5369616862E-01
   0.3761534535E-01   0.2161016493E+00   0.9435383102E-05  -0.3901022444E-04   0.1887076620E-04  -0.7802044888E-04   0.7787118850E-01   0.2692118211E-02   0.0000000000E+00   0.6858229957E-02   0.0000000000E+00   0.0000000000E+00   0.7706355304E-03  -0.2066923834E-03   0.1783139789E-03  -0.2416899201E-03   0.0000000000E+00   0.0000000000E+00   0.7744488780E-01
   0.3622289444E-01   0.1999905075E+00   0.9862313201E-05  -0.3806382529E-04   0.1972462640E-04  -0.7612765058E-04   0.8462655865E-01   0.5268289025E-02   0.0000000000E+00   0.7978967246E-02   0.0000000000E+00   0.0000000000E+00   0.8304607194E-03  -0.2011967857E-03   0.2074531484E-03  -0.2696845430E-03   0.0000000000E+00   0.0000000000E+00   0.8323912133E-01
   0.5562914046E-01   0.1985031575E+00   0.1540615401E-04  -0.3528882907E-04   0.3081230803E-04  -0.7057765815E-04   0.8702444480E-01   0.2962506442E-02   0.0000000000E+00   0.1058090962E-01   0.0000000000E+00   0.0000000000E+00   0.8613569287E-03  -0.2314482700E-03   0.2751036502E-03  -0.2699608537E-03   0.0000000000E+00   0.0000000000E+00   0.8754724045E-01
   0.5755100229E-01   0.2148166155E+00   0.1475406468E-04  -0.3624449171E-04   0.2950812937E-04  -0.7248898341E-04   0.8130146508E-01   0.1308691660E-02   0.0000000000E+00   0.8850619087E-02   0.0000000000E+00   0.0000000000E+00   0.8090885758E-03  -0.2308174786E-03   0.2301160963E-03  -0.2478304702E-03   0.0000000000E+00   0.0000000000E+00   0.8208318008E-01
   0.1782210952E-01   0.2002962958E+00   0.4813806206E-05  -0.3969240577E-04   0.9627612411E-05  -0.7938481154E-04   0.8363410691E-01   0.7041609983E-02   0.0000000000E+00   0.3708721410E-02   0.0000000000E+00   0.0000000000E+00   0.8152162392E-03  -0.1804862209E-03   0.9642675665E-04  -0.2720271507E-03   0.0000000000E+00   0.0000000000E+00   0.8069490049E-01
   0.5823830963E-01   0.2322057820E+00   0.1339390857E-04  -0.3743534535E-04   0.2678781715E-04  -0.7487069070E-04   0.7449559827E-01   0.7550159610E-03   0.0000000000E+00   0.5076398920E-02   0.0000000000E+00   0.0000000000E+00   0.7426909348E-03  -0.2159366352E-03   0.1319863719E-03  -0.2257518427E-03   0.0000000000E+00   0.0000000000E+00   0.7470957948E-01
   0.1556713347E+00   0.2499327772E+00   0.3859122364E-04  -0.2240760423E-04   0.7718244728E-04  -0.4481520847E-04   0.9714614035E-01   0.3002585928E-03   0.0000000000E+00   0.6203468384E-03   0.0000000000E+00   0.0000000000E+00   0.9705606278E-03  -0.2884358351E-03   0.1612901780E-04  -0.2923391968E-03   0.0000000000E+00   0.0000000000E+00   0.9700185572E-01
   0.1362083004E+00   0.2499236935E+00   0.3239678858E-04  -0.2543549050E-04   0.6479357716E-04  -0.5087098101E-04   0.9381576081E-01   0.1420906260E-03   0.0000000000E+00   0.1027393175E-02   0.0000000000E+00   0.0000000000E+00   0.9377313362E-03  -0.2800263762E-03   0.2671222256E-04  -0.2818735543E-03   0.0000000000E+00   0.0000000000E+00   0.9374474906E-01
   0.1751348240E+00   0.2499407284E+00   0.4494232407E-04  -0.1975719873E-04   0.8988464814E-04  -0.3951439746E-04   0.9877271775E-01   0.3900883995E-03   0.0000000000E+00   0.2651311691E-03   0.0000000000E+00   0.0000000000E+00   0.9865569123E-03  -0.2924172693E-03   0.6893410397E-05  -0.2974884185E-03   0.0000000000E+00   0.0000000000E+00   0.9858593105E-01
   0.1760663098E+00   0.2324422892E+00   0.4739093448E-04  -0.1794125539E-04   0.9478186895E-04  -0.3588251078E-04   0.9387899058E-01  -0.7431531835E-03   0.0000000000E+00   0.4734697082E-03   0.0000000000E+00   0.0000000000E+00   0.9410193653E-03  -0.2890685036E-03   0.1231021241E-04  -0.2794075122E-03   0.0000000000E+00   0.0000000000E+00   0.9426278120E-01
   0.2252518682E+00   0.0000000000E+00   0.8395808191E-04   0.0000000000E+00   0.1679161638E-03   0.0000000000E+00   0.3437244075E-01   0.8895252135E-02   0.0000000000E+00  -0.1108957640E-02   0.0000000000E+00   0.0000000000E+00   0.3170386511E-03  -0.1416480090E-04  -0.2883289865E-04  -0.1298030787E-03   0.0000000000E+00   0.0000000000E+00   0.3087194714E-01
   0.2460921779E+00   0.0000000000E+00   0.8628030067E-04   0.0000000000E+00   0.1725606013E-03   0.0000000000E+00   0.3816717893E-01   0.1043890245E-01   0.0000000000E+00  -0.8314821486E-03   0.0000000000E+00   0.0000000000E+00   0.3503550820E-03  -0.1011251233E-04  -0.2161853586E-04  -0.1458182441E-03   0.0000000000E+00   0.0000000000E+00   0.3414095488E-01
   0.2485053672E+00   0.1834220986E-01   0.8634173279E-04  -0.7267901072E-07   0.1726834656E-03  -0.1453580214E-06   0.3935862471E-01   0.1022697059E-01   0.0000000000E+00  -0.2463310223E-02   0.0000000000E+00   0.0000000000E+00   0.3629053353E-03  -0.1580616818E-04  -0.6404606580E-04  -0.1487567859E-03   0.0000000000E+00   0.0000000000E+00   0.3565284125E-01
   0.1967208402E+00   0.1994771374E+00   0.5742472998E-04  -0.1248186585E-04   0.1148494600E-03  -0.2496373169E-04   0.8713305802E-01  -0.2288006700E-02   0.0000000000E+00  -0.1599145191E-02   0.0000000000E+00   0.0000000000E+00   0.8781946003E-03  -0.2842792411E-03  -0.4157777497E-04  -0.2545351540E-03   0.0000000000E+00   0.0000000000E+00   0.8834368638E-01
   0.2157482953E+00   0.1983601006E+00   0.6305677502E-04  -0.1071878350E-04   0.1261135500E-03  -0.2143756700E-04   0.8576113520E-01  -0.1363002301E-02   0.0000000000E+00  -0.2654665210E-02   0.0000000000E+00   0.0000000000E+00   0.8617003589E-03  -0.2709134286E-03  -0.6902129547E-04  -0.2531943987E-03   0.0000000000E+00   0.0000000000E+00   0.8657280251E-01
   0.2157262833E+00   0.2151013148E+00   0.6141176059E-04  -0.1224439457E-04   0.1228235212E-03  -0.2448878914E-04   0.8930720434E-01  -0.7317004764E-03   0.0000000000E+00  -0.1777287519E-02   0.0000000000E+00   0.0000000000E+00   0.8952671448E-03  -0.2752386178E-03  -0.4620947548E-04  -0.2657265116E-03   0.0000000000E+00   0.0000000000E+00   0.8973172386E-01
   0.1963893907E+00   0.2155792167E+00   0.5556089056E-04  -0.1403508641E-04   0.1111217811E-03  -0.2807017282E-04   0.9024445087E-01  -0.1201635537E-02   0.0000000000E+00  -0.8055753718E-03   0.0000000000E+00   0.0000000000E+00   0.9060494154E-03  -0.2827497080E-03  -0.2094495967E-04  -0.2671284460E-03   0.0000000000E+00   0.0000000000E+00   0.9086580188E-01
   0.1176063531E+00   0.2323558999E+00   0.2949303427E-04  -0.2703336411E-04   0.5898606855E-04  -0.5406672821E-04   0.8794384575E-01  -0.8089490153E-03   0.0000000000E+00   0.3937940448E-02   0.0000000000E+00   0.0000000000E+00   0.8818653046E-03  -0.2719210274E-03   0.1023864517E-03  -0.2614046902E-03   0.0000000000E+00   0.0000000000E+00   0.8863334761E-01
   0.1189771817E+00   0.2151721491E+00   0.3218391309E-04  -0.2518562119E-04   0.6436782619E-04  -0.5037124239E-04   0.8878531358E-01  -0.2174851103E-02   0.0000000000E+00   0.6605354279E-02   0.0000000000E+00   0.0000000000E+00   0.8943776891E-03  -0.2881044518E-03   0.1717392113E-03  -0.2598313874E-03   0.0000000000E+00   0.0000000000E+00   0.9058265982E-01
   0.2140621072E+00   0.2499529706E+00   0.5774107983E-04  -0.1567647582E-04   0.1154821597E-03  -0.3135295165E-04   0.9827309750E-01   0.4459521035E-03   0.0000000000E+00  -0.2095172575E-03   0.0000000000E+00   0.0000000000E+00   0.9813931187E-03  -0.2903597715E-03  -0.5447448696E-05  -0.2961571488E-03   0.0000000000E+00   0.0000000000E+00   0.9805622455E-01
   0.1945985013E+00   0.2499474542E+00   0.5135110218E-04  -0.1751527602E-04   0.1027022044E-03  -0.3503055204E-04   0.9902776371E-01   0.4360610534E-03   0.0000000000E+00  -0.1207112943E-04   0.0000000000E+00   0.0000000000E+00   0.9889694539E-03  -0.2927226806E-03  -0.3138493653E-06  -0.2983914743E-03   0.0000000000E+00   0.0000000000E+00   0.9881759531E-01
   0.1955957063E+00   0.2323719400E+00   0.5352310967E-04  -0.1570632122E-04   0.1070462193E-03  -0.3141264244E-04   0.9389804969E-01  -0.5923202268E-03   0.0000000000E+00  -0.3276739309E-03   0.0000000000E+00   0.0000000000E+00   0.9407574576E-03  -0.2876173513E-03  -0.8519522203E-05  -0.2799171884E-03   0.0000000000E+00   0.0000000000E+00   0.9420350486E-01
   0.2150910190E+00   0.2322420606E+00   0.5962434494E-04  -0.1388846513E-04   0.1192486899E-03  -0.2777693026E-04   0.9324027941E-01  -0.4220040380E-03   0.0000000000E+00  -0.8800078961E-03   0.0000000000E+00   0.0000000000E+00   0.9336688062E-03  -0.2839408786E-03  -0.2288020530E-04  -0.2784548261E-03   0.0000000000E+00   0.0000000000E+00   0.9347012497E-01
   0.2345311705E+00   0.2319162671E+00   0.6566150025E-04  -0.1243630294E-04   0.1313230005E-03  -0.2487260588E-04   0.9218934182E-01  -0.2635642184E-03   0.0000000000E+00  -0.1190207143E-02   0.0000000000E+00   0.0000000000E+00   0.9226841109E-03  -0.2792036677E-03  -0.3094538573E-04  -0.2757773328E-03   0.0000000000E+00   0.0000000000E+00   0.9234991655E-01
   0.2539117599E+00   0.2317900982E+00   0.7158397292E-04  -0.1133393363E-04   0.1431679458E-03  -0.2266786726E-04   0.9095594152E-01  -0.1199570937E-03   0.0000000000E+00  -0.1287829794E-02   0.0000000000E+00   0.0000000000E+00   0.9099192865E-03  -0.2740673955E-03  -0.3348357465E-04  -0.2725079533E-03   0.0000000000E+00   0.0000000000E+00   0.9104817362E-01
   0.2529886184E+00   0.2499607863E+00   0.7027778630E-04  -0.1307121758E-04   0.1405555726E-03  -0.2614243516E-04   0.9523037750E-01   0.3985528483E-03   0.0000000000E+00  -0.3683004721E-03   0.0000000000E+00   0.0000000000E+00   0.9511081164E-03  -0.2817056040E-03  -0.9575812275E-05  -0.2868867910E-03   0.0000000000E+00   0.0000000000E+00   0.9503314099E-01
   0.2335255117E+00   0.2499573687E+00   0.6405923486E-04  -0.1421043871E-04   0.1281184697E-03  -0.2842087742E-04   0.9689234188E-01   0.4294181129E-03   0.0000000000E+00  -0.3240788429E-03   0.0000000000E+00   0.0000000000E+00   0.9676351645E-03  -0.2863828445E-03  -0.8426049915E-05  -0.2919652800E-03   0.0000000000E+00   0.0000000000E+00   0.9668125606E-01
   0.3113760633E+00   0.2499664520E+00   0.8831377352E-04  -0.1118267779E-04   0.1766275470E-03  -0.2236535558E-04   0.9089767228E-01   0.3007903526E-03   0.0000000000E+00  -0.2038257098E-03   0.0000000000E+00   0.0000000000E+00   0.9080743518E-03  -0.2696851133E-03  -0.5299468455E-05  -0.2735953879E-03   0.0000000000E+00   0.0000000000E+00   0.9074835067E-01
   0.3117689127E+00   0.2312436932E+00   0.8879889990E-04  -0.9509266283E-05   0.1775977998E-03  -0.1901853257E-04   0.8780900835E-01   0.1563485360E-03   0.0000000000E+00  -0.7165369148E-03   0.0000000000E+00   0.0000000000E+00   0.8776210379E-03  -0.2618635397E-03  -0.1862995978E-04  -0.2638960706E-03   0.0000000000E+00   0.0000000000E+00   0.8774234522E-01
   0.5568734977E-01   0.8306942893E-01   0.4344202196E-04  -0.2584352481E-04   0.8688404392E-04  -0.5168704962E-04   0.1074449256E+00   0.3657273346E-01   0.0000000000E+00  -0.5442357569E-01   0.0000000000E+00   0.0000000000E+00   0.9647310559E-03   0.4339255768E-04  -0.1415012968E-02  -0.4320529773E-03   0.0000000000E+00   0.0000000000E+00   0.1296462573E+00
   0.7205342045E-01   0.9407667579E-01   0.4116541761E-04  -0.2148080201E-04   0.8233083521E-04  -0.4296160401E-04   0.8622742850E-01  -0.1901415177E-02   0.0000000000E+00  -0.2270576788E-01   0.0000000000E+00   0.0000000000E+00   0.8679785306E-03  -0.2776964373E-03  -0.5903499650E-03  -0.2529780400E-03   0.0000000000E+00   0.0000000000E+00   0.9535876671E-01
   0.6208507368E-01   0.1069116659E+00   0.3232192675E-04  -0.2558068784E-04   0.6464385350E-04  -0.5116137568E-04   0.1047614518E+00   0.1152700635E-02   0.0000000000E+00  -0.1370166892E-01   0.0000000000E+00   0.0000000000E+00   0.1044156416E-02  -0.3027573491E-03  -0.3562433918E-03  -0.3177424573E-03   0.0000000000E+00   0.0000000000E+00   0.1056689985E+00
   0.3835686591E-01   0.9229760235E-01   0.2950777079E-04  -0.3011651786E-04   0.5901554158E-04  -0.6023303573E-04   0.1570471051E+00   0.2698256639E-01   0.0000000000E+00  -0.4090052251E-01   0.0000000000E+00   0.0000000000E+00   0.1489523352E-02  -0.2013156515E-03  -0.1063413585E-02  -0.5520890145E-03   0.0000000000E+00   0.0000000000E+00   0.1594526857E+00
   0.0000000000E+00   0.1998794076E+00   0.0000000000E+00  -0.4019847649E-04   0.0000000000E+00  -0.8039695298E-04   0.8319536378E-01   0.7655819474E-02   0.0000000000E+00   0.1995915441E-02   0.0000000000E+00   0.0000000000E+00   0.8089861794E-03  -0.1730278966E-03   0.5189380147E-04  -0.2725535498E-03   0.0000000000E+00   0.0000000000E+00   0.7964997186E-01
   0.0000000000E+00   0.1832154869E+00   0.0000000000E+00  -0.3928337785E-04   0.0000000000E+00  -0.7856675569E-04   0.9088735631E-01   0.1196653446E-01   0.0000000000E+00   0.2107487658E-02   0.0000000000E+00   0.0000000000E+00   0.8729739597E-03  -0.1529967243E-03   0.5479467910E-04  -0.3085616723E-03   0.0000000000E+00   0.0000000000E+00   0.8554276463E-01
   0.3656032157E-01   0.1167704453E+00   0.1789455522E-04  -0.3232355351E-04   0.3578911043E-04  -0.6464710702E-04   0.1417074097E+00   0.1871378333E-01   0.0000000000E+00  -0.1492867471E-01   0.0000000000E+00   0.0000000000E+00   0.1360932747E-02  -0.2379843957E-03  -0.3881455425E-03  -0.4812635791E-03   0.0000000000E+00   0.0000000000E+00   0.1372882272E+00
   0.2669330960E+00   0.0000000000E+00   0.8880500343E-04   0.0000000000E+00   0.1776100069E-03   0.0000000000E+00   0.4101258886E-01   0.1152745757E-01   0.0000000000E+00  -0.6160889074E-03   0.0000000000E+00   0.0000000000E+00   0.3755435159E-03  -0.7763190897E-05  -0.1601831159E-04  -0.1576201393E-03   0.0000000000E+00   0.0000000000E+00   0.3662432179E-01
   0.2688926072E+00   0.1829134134E-01   0.8888740044E-04  -0.5641924454E-07   0.1777748009E-03  -0.1128384891E-06   0.4191046733E-01   0.1132758776E-01   0.0000000000E+00  -0.1834626272E-02   0.0000000000E+00   0.0000000000E+00   0.3851219100E-03  -0.1245552444E-04  -0.4770028308E-04  -0.1597141653E-03   0.0000000000E+00   0.0000000000E+00   0.3769670842E-01
   0.2367683674E+00   0.7431290380E-01   0.8132145904E-04  -0.1097434428E-05   0.1626429181E-03  -0.2194868856E-05   0.5024238237E-01   0.4879972147E-02   0.0000000000E+00  -0.9304676528E-02   0.0000000000E+00   0.0000000000E+00   0.4877839073E-03  -0.1019274256E-03  -0.2419215897E-03  -0.1653670635E-03   0.0000000000E+00   0.0000000000E+00   0.5059920474E-01
   0.2554697673E+00   0.7383523175E-01   0.8439942041E-04  -0.8864840720E-06   0.1687988408E-03  -0.1772968144E-05   0.5079861773E-01   0.6753659220E-02   0.0000000000E+00  -0.7439462742E-02   0.0000000000E+00   0.0000000000E+00   0.4877251997E-03  -0.8485926100E-04  -0.1934260313E-03  -0.1726568309E-03   0.0000000000E+00   0.0000000000E+00   0.4946869599E-01
   0.3106181756E+00   0.3712657711E-01   0.9423954925E-04  -0.1283310338E-06   0.1884790985E-03  -0.2566620676E-06   0.4669221714E-01   0.1197341974E-01   0.0000000000E+00  -0.1757243588E-02   0.0000000000E+00   0.0000000000E+00   0.4310019122E-03  -0.2034245407E-04  -0.4568833330E-04  -0.1759969106E-03   0.0000000000E+00   0.0000000000E+00   0.4210582288E-01
   0.2907143588E+00   0.3677681233E-01   0.9141560164E-04  -0.1423234057E-06   0.1828312033E-03  -0.2846468115E-06   0.4562055370E-01   0.1144545004E-01   0.0000000000E+00  -0.2704295815E-02   0.0000000000E+00   0.0000000000E+00   0.4218691868E-03  -0.2240716066E-04  -0.7031169120E-04  -0.1711980112E-03   0.0000000000E+00   0.0000000000E+00   0.4136044393E-01
   0.3502999940E+00   0.2115157605E+00   0.1000000000E-03  -0.7567848025E-05   0.2000000000E-03  -0.1513569605E-04   0.8360662366E-01   0.8836904495E-03   0.0000000000E+00   0.2244835388E-03   0.0000000000E+00   0.0000000000E+00   0.8334151653E-03  -0.2419829665E-03   0.5836572009E-05  -0.2534709423E-03   0.0000000000E+00   0.0000000000E+00   0.8316867747E-01
   0.3311924908E+00   0.2119578559E+00   0.9469092110E-04  -0.7669373064E-05   0.1893818422E-03  -0.1533874613E-04   0.8375047628E-01   0.8239391018E-03   0.0000000000E+00  -0.7933213905E-03   0.0000000000E+00   0.0000000000E+00   0.8350329455E-03  -0.2430120378E-03  -0.2062635615E-04  -0.2537232462E-03   0.0000000000E+00   0.0000000000E+00   0.8335143505E-01
   0.3311278657E+00   0.1926831258E+00   0.9494488858E-04  -0.6170726622E-05   0.1898897772E-03  -0.1234145324E-04   0.7971360028E-01   0.1637876509E-02   0.0000000000E+00  -0.1025194744E-02   0.0000000000E+00   0.0000000000E+00   0.7922223733E-03  -0.2227620357E-03  -0.2665506334E-04  -0.2440544304E-03   0.0000000000E+00   0.0000000000E+00   0.7892481161E-01
   0.3502999940E+00   0.1922894558E+00   0.1000000000E-03  -0.6080064966E-05   0.2000000000E-03  -0.1216012993E-04   0.7960293301E-01   0.1734512956E-02   0.0000000000E+00   0.2105574272E-03   0.0000000000E+00   0.0000000000E+00   0.7908257913E-03  -0.2214636695E-03   0.5474493108E-05  -0.2440123379E-03   0.0000000000E+00   0.0000000000E+00   0.7874942648E-01
   0.2928145362E+00   0.2126591647E+00   0.8392773261E-04  -0.8295115917E-05   0.1678554652E-03  -0.1659023183E-04   0.8494094178E-01   0.5783136906E-03   0.0000000000E+00  -0.1954583165E-02   0.0000000000E+00   0.0000000000E+00   0.8476744767E-03  -0.2490396884E-03  -0.5081916229E-04  -0.2565577664E-03   0.0000000000E+00   0.0000000000E+00   0.8472023146E-01
   0.2737394009E+00   0.2131167339E+00   0.7849061712E-04  -0.8876686335E-05   0.1569812342E-03  -0.1775337267E-04   0.8588807216E-01   0.3435304373E-03   0.0000000000E+00  -0.2338136943E-02   0.0000000000E+00   0.0000000000E+00   0.8578501303E-03  -0.2542289121E-03  -0.6079156051E-04  -0.2586948078E-03   0.0000000000E+00   0.0000000000E+00   0.8581181420E-01
   0.2735940700E+00   0.1942505094E+00   0.7951868220E-04  -0.7331209604E-05   0.1590373644E-03  -0.1466241921E-04   0.8169985250E-01   0.7239357501E-03   0.0000000000E+00  -0.3132370968E-02   0.0000000000E+00   0.0000000000E+00   0.8148267178E-03  -0.2378602000E-03  -0.8144164518E-04  -0.2472713648E-03   0.0000000000E+00   0.0000000000E+00   0.8152255533E-01
   0.2926730429E+00   0.1934265167E+00   0.8470531593E-04  -0.6756086725E-05   0.1694106319E-03  -0.1351217345E-04   0.8081696971E-01   0.1093942139E-02   0.0000000000E+00  -0.2630625355E-02   0.0000000000E+00   0.0000000000E+00   0.8048878707E-03  -0.2315114877E-03  -0.6839625922E-04  -0.2457327356E-03   0.0000000000E+00   0.0000000000E+00   0.8040378817E-01
   0.1946368967E+00   0.5816664532E-01   0.7676090656E-04  -0.1157358415E-05   0.1535218131E-03  -0.2314716830E-05   0.4172518384E-01   0.8753615925E-03   0.0000000000E+00  -0.1312468863E-01   0.0000000000E+00   0.0000000000E+00   0.4146257536E-03  -0.1164219356E-03  -0.3412419044E-03  -0.1278016363E-03   0.0000000000E+00   0.0000000000E+00   0.4708711175E-01
   0.2143329043E+00   0.5661117259E-01   0.7967510152E-04  -0.8035031991E-06   0.1593502030E-03  -0.1607006398E-05   0.4299178012E-01   0.3953674664E-02   0.0000000000E+00  -0.1056730909E-01   0.0000000000E+00   0.0000000000E+00   0.4180567772E-03  -0.8943859371E-04  -0.2747500364E-03  -0.1408363643E-03   0.0000000000E+00   0.0000000000E+00   0.4504653413E-01
   0.7326686521E-01   0.1305162414E+00   0.2929863793E-04  -0.2527386271E-04   0.5859727585E-04  -0.5054772542E-04   0.1066785433E+00  -0.3927431693E-02   0.0000000000E+00   0.2328433324E-02   0.0000000000E+00   0.0000000000E+00   0.1078567728E-02  -0.3593099467E-03   0.6053926643E-04  -0.3082533347E-03   0.0000000000E+00   0.0000000000E+00   0.1086765447E+00
   0.5556144379E-01   0.1223893452E+00   0.2460739718E-04  -0.2870491898E-04   0.4921479436E-04  -0.5740983795E-04   0.1234215386E+00   0.8199661071E-02   0.0000000000E+00  -0.3791060937E-02   0.0000000000E+00   0.0000000000E+00   0.1209616403E-02  -0.2882680050E-03  -0.9856758437E-04  -0.3948635989E-03   0.0000000000E+00   0.0000000000E+00   0.1194337432E+00
   0.8088354097E-01   0.1172110259E+00   0.3544018882E-04  -0.2168703484E-04   0.7088037764E-04  -0.4337406967E-04   0.1022643411E+00  -0.7098394163E-02   0.0000000000E+00  -0.4274237280E-02   0.0000000000E+00   0.0000000000E+00   0.1043938593E-02  -0.3777769649E-03  -0.1111301693E-03  -0.2854978408E-03   0.0000000000E+00   0.0000000000E+00   0.1061590285E+00
   0.5836722904E-01   0.2498840610E+00   0.1129848072E-04  -0.3864632041E-04   0.2259696144E-04  -0.7729264083E-04   0.6644305015E-01  -0.6562373417E-03   0.0000000000E+00   0.1774943106E-02   0.0000000000E+00   0.0000000000E+00   0.6663992135E-03  -0.2058915239E-03   0.4614852076E-04  -0.1973604384E-03   0.0000000000E+00   0.0000000000E+00   0.6678568858E-01
   0.7825043042E-01   0.2133227957E+00   0.2059087172E-04  -0.3261142629E-04   0.4118174345E-04  -0.6522285258E-04   0.8398505559E-01  -0.2239874068E-03   0.0000000000E+00   0.9596693432E-02   0.0000000000E+00   0.0000000000E+00   0.8405225181E-03  -0.2541950408E-03   0.2495140292E-03  -0.2512832045E-03   0.0000000000E+00   0.0000000000E+00   0.8567860943E-01
   0.7806369741E-01   0.1933416641E+00   0.2239920479E-04  -0.3090295616E-04   0.4479840958E-04  -0.6180591232E-04   0.8987317482E-01  -0.5946470566E-03   0.0000000000E+00   0.1131158587E-01   0.0000000000E+00   0.0000000000E+00   0.9005156894E-03  -0.2755659950E-03   0.2941012326E-03  -0.2678355833E-03   0.0000000000E+00   0.0000000000E+00   0.9227386517E-01
   0.1769053566E+00   0.2157508911E+00   0.4963819535E-04  -0.1623629999E-04   0.9927639070E-04  -0.3247259998E-04   0.9075624717E-01  -0.1640089185E-02   0.0000000000E+00   0.6011885782E-03   0.0000000000E+00   0.0000000000E+00   0.9124827392E-03  -0.2886696334E-03   0.1563090303E-04  -0.2673484739E-03   0.0000000000E+00   0.0000000000E+00   0.9159509202E-01
   0.3117824377E+00   0.1537184869E+00   0.9107189544E-04  -0.3740042275E-05   0.1821437909E-03  -0.7480084550E-05   0.7098687932E-01   0.3630470826E-02   0.0000000000E+00  -0.2629538227E-02   0.0000000000E+00   0.0000000000E+00   0.6989773807E-03  -0.1766559297E-03  -0.6836799390E-04  -0.2238520504E-03   0.0000000000E+00   0.0000000000E+00   0.6939124817E-01
   0.3117679722E+00   0.1734231554E+00   0.9042240577E-04  -0.4987196300E-05   0.1808448115E-03  -0.9974392600E-05   0.7567332710E-01   0.2451828891E-02   0.0000000000E+00  -0.2290654890E-02   0.0000000000E+00   0.0000000000E+00   0.7493777843E-03  -0.2025016924E-03  -0.5955702715E-04  -0.2343754680E-03   0.0000000000E+00   0.0000000000E+00   0.7458183140E-01
   0.1167460928E+00   0.2499137351E+00   0.2647527911E-04  -0.2875496312E-04   0.5295055822E-04  -0.5750992623E-04   0.8865333662E-01  -0.4335896933E-04   0.0000000000E+00   0.1446593264E-02   0.0000000000E+00   0.0000000000E+00   0.8866634431E-03  -0.2663935996E-03   0.3761142488E-04  -0.2658299330E-03   0.0000000000E+00   0.0000000000E+00   0.8866557472E-01
   0.7087581847E-01   0.7064653901E-01   0.5504569043E-04  -0.2138079808E-04   0.1100913809E-03  -0.4276159615E-04   0.4240004135E-01   0.2136314120E-01   0.0000000000E+00  -0.2747671064E-01   0.0000000000E+00   0.0000000000E+00   0.3599109899E-03   0.8643128800E-04  -0.7143944767E-03  -0.1912895477E-03   0.0000000000E+00   0.0000000000E+00   0.5581038962E-01
   0.8404805571E-01   0.7961510790E-01   0.5169976838E-04  -0.1662003463E-04   0.1033995368E-03  -0.3324006927E-04   0.5788798691E-01  -0.2088978933E-02   0.0000000000E+00  -0.2312832566E-01   0.0000000000E+00   0.0000000000E+00   0.5851468059E-03  -0.1945537501E-03  -0.6013364670E-03  -0.1673970239E-03   0.0000000000E+00   0.0000000000E+00   0.7169351448E-01
   0.2351401544E+00   0.2142786232E+00   0.6723214812E-04  -0.1079358833E-04   0.1344642962E-03  -0.2158717665E-04   0.8815916118E-01  -0.3144551075E-03   0.0000000000E+00  -0.2298650581E-02   0.0000000000E+00   0.0000000000E+00   0.8825349771E-03  -0.2676220346E-03  -0.5976491510E-04  -0.2635341182E-03   0.0000000000E+00   0.0000000000E+00   0.8840812530E-01
   0.1775943065E+00   0.1998696653E+00   0.5173751222E-04  -0.1460722932E-04   0.1034750244E-03  -0.2921445865E-04   0.8831395826E-01  -0.3094902802E-02   0.0000000000E+00   0.7470506395E-05   0.0000000000E+00   0.0000000000E+00   0.8924242910E-03  -0.2958909028E-03   0.1942331663E-06  -0.2556571664E-03   0.0000000000E+00   0.0000000000E+00   0.8989897699E-01
   0.1586618922E+00   0.1997361509E+00   0.4609107313E-04  -0.1709570653E-04   0.9218214626E-04  -0.3419141306E-04   0.8915012208E-01  -0.3770755041E-02   0.0000000000E+00   0.2058500224E-02   0.0000000000E+00   0.0000000000E+00   0.9028134859E-03  -0.3051579167E-03   0.5352100583E-04  -0.2561381011E-03   0.0000000000E+00   0.0000000000E+00   0.9115780875E-01
   0.1598268590E+00   0.1838651715E+00   0.4846833163E-04  -0.1527984993E-04   0.9693666326E-04  -0.3055969987E-04   0.8778573536E-01  -0.5710497486E-02   0.0000000000E+00   0.9361611664E-03   0.0000000000E+00   0.0000000000E+00   0.8949888461E-03  -0.3204621810E-03   0.2434019033E-04  -0.2462257136E-03   0.0000000000E+00   0.0000000000E+00   0.9077748347E-01
   0.1779732510E+00   0.1845482399E+00   0.5373199084E-04  -0.1303502965E-04   0.1074639817E-03  -0.2607005930E-04   0.8620117581E-01  -0.4494975050E-02   0.0000000000E+00  -0.1108838638E-02   0.0000000000E+00   0.0000000000E+00   0.8754966833E-03  -0.3035532779E-03  -0.2882980460E-04  -0.2451186023E-03   0.0000000000E+00   0.0000000000E+00   0.8854671576E-01
   0.2545175331E+00   0.2136892724E+00   0.7292869793E-04  -0.9694212198E-05   0.1458573959E-03  -0.1938842440E-04   0.8696028889E-01   0.2957377029E-04   0.0000000000E+00  -0.2469644769E-02   0.0000000000E+00   0.0000000000E+00   0.8695141676E-03  -0.2605851290E-03  -0.6421076400E-04  -0.2609695880E-03   0.0000000000E+00   0.0000000000E+00   0.8705029924E-01
   0.3119794650E+00   0.2123088203E+00   0.8932498464E-04  -0.7903893900E-05   0.1786499693E-03  -0.1580778780E-04   0.8424305288E-01   0.7251412490E-03   0.0000000000E+00  -0.1385062918E-02   0.0000000000E+00   0.0000000000E+00   0.8402551050E-03  -0.2454777461E-03  -0.3601163586E-04  -0.2549045824E-03   0.0000000000E+00   0.0000000000E+00   0.8391753591E-01
   0.3119349309E+00   0.1930140025E+00   0.8985828391E-04  -0.6385507111E-05   0.1797165678E-03  -0.1277101422E-04   0.8015767148E-01   0.1463363527E-02   0.0000000000E+00  -0.1860250811E-02   0.0000000000E+00   0.0000000000E+00   0.7971866243E-03  -0.2258393792E-03  -0.4836652109E-04  -0.2448631050E-03   0.0000000000E+00   0.0000000000E+00   0.7950279631E-01
   0.6716648108E-01   0.1439866941E+00   0.2452356068E-04  -0.2821564280E-04   0.4904712137E-04  -0.5643128559E-04   0.1067992041E+00   0.6305007133E-03   0.0000000000E+00   0.7351910861E-02   0.0000000000E+00   0.0000000000E+00   0.1066100539E-02  -0.3140926052E-03   0.1911496824E-03  -0.3222891145E-03   0.0000000000E+00   0.0000000000E+00   0.1072167081E+00
   0.6217998995E-01   0.1545484382E+00   0.2130611710E-04  -0.3033326792E-04   0.4261223421E-04  -0.6066653584E-04   0.1047456263E+00   0.2309176594E-02   0.0000000000E+00   0.9330049445E-02   0.0000000000E+00   0.0000000000E+00   0.1040528733E-02  -0.2911451129E-03   0.2425812856E-03  -0.3211644086E-03   0.0000000000E+00   0.0000000000E+00   0.1047922121E+00
   0.1527603352E+00   0.3951135688E-01   0.7481638904E-04  -0.1453971864E-05   0.1496327781E-03  -0.2907943728E-05   0.2493170358E-01  -0.7658249999E-02   0.0000000000E+00  -0.1573329441E-01   0.0000000000E+00   0.0000000000E+00   0.2722917858E-03  -0.1513776107E-03  -0.4090656547E-03  -0.5182036074E-04   0.0000000000E+00   0.0000000000E+00   0.3983188586E-01
   0.1355687082E+00   0.4588995676E-01   0.7183838343E-04  -0.2927479599E-05   0.1436767669E-03  -0.5854959198E-05   0.2487971983E-01  -0.1499070217E-01   0.0000000000E+00  -0.2059429802E-01   0.0000000000E+00   0.0000000000E+00   0.2937693048E-03  -0.2245461812E-03  -0.5354517484E-03  -0.2966705297E-04   0.0000000000E+00   0.0000000000E+00   0.4851348139E-01
   0.1627365765E+00   0.0000000000E+00   0.7886084245E-04   0.0000000000E+00   0.1577216849E-03   0.0000000000E+00   0.1508666492E-01  -0.1232598515E-02   0.0000000000E+00  -0.2708149326E-02   0.0000000000E+00   0.0000000000E+00   0.1545644447E-03  -0.5758597990E-04  -0.7041188247E-04  -0.4156219921E-04   0.0000000000E+00   0.0000000000E+00   0.1548263111E-01
   0.1666649529E+00   0.1949753381E-01   0.7833362562E-04  -0.4074617144E-06   0.1566672512E-03  -0.8149234289E-06   0.2006812230E-01  -0.1363016293E-02   0.0000000000E+00  -0.6630872359E-02   0.0000000000E+00   0.0000000000E+00   0.2047702719E-03  -0.7383452984E-04  -0.1724026813E-03  -0.5611531803E-04   0.0000000000E+00   0.0000000000E+00   0.2395741923E-01
   0.2757011836E+00   0.9272028531E-01   0.8659185802E-04  -0.1291364420E-05   0.1731837160E-03  -0.2582728839E-05   0.5608357895E-01   0.6590235445E-02   0.0000000000E+00  -0.6067157191E-02   0.0000000000E+00   0.0000000000E+00   0.5410650831E-03  -0.1023483824E-03  -0.1577460870E-03  -0.1880214432E-03   0.0000000000E+00   0.0000000000E+00   0.5411318429E-01
   0.2938970911E+00   0.9348708974E-01   0.8983371345E-04  -0.1172753729E-05   0.1796674269E-03  -0.2345507458E-05   0.5644324035E-01   0.7518569641E-02   0.0000000000E+00  -0.4519496351E-02   0.0000000000E+00   0.0000000000E+00   0.5418766946E-03  -0.9414402464E-04  -0.1175069051E-03  -0.1918854300E-03   0.0000000000E+00   0.0000000000E+00   0.5364843413E-01
   0.2940365544E+00   0.1128431902E+00   0.8894580493E-04  -0.1873616552E-05   0.1778916099E-03  -0.3747233105E-05   0.6107943558E-01   0.5998159374E-02   0.0000000000E+00  -0.4532167033E-02   0.0000000000E+00   0.0000000000E+00   0.5927998777E-03  -0.1232567130E-03  -0.1178363429E-03  -0.2012327849E-03   0.0000000000E+00   0.0000000000E+00   0.5882711185E-01
   0.2761603563E+00   0.1113685013E+00   0.8549177317E-04  -0.2016228971E-05   0.1709835463E-03  -0.4032457941E-05   0.6099485105E-01   0.5059365481E-02   0.0000000000E+00  -0.5907341528E-02   0.0000000000E+00   0.0000000000E+00   0.5947704140E-03  -0.1323908983E-03  -0.1535908797E-03  -0.1981626496E-03   0.0000000000E+00   0.0000000000E+00   0.5950912847E-01
   0.2931466429E+00   0.7443665094E-01   0.9053062404E-04  -0.6701214141E-06   0.1810612481E-03  -0.1340242828E-05   0.5215626489E-01   0.9054169598E-02   0.0000000000E+00  -0.4246382698E-02   0.0000000000E+00   0.0000000000E+00   0.4944001401E-03  -0.6592709869E-04  -0.1104059501E-03  -0.1836313035E-03   0.0000000000E+00   0.0000000000E+00   0.4881389016E-01
   0.1713189969E+00   0.3887953470E-01   0.7665298276E-04  -0.8982681176E-06   0.1533059655E-03  -0.1796536235E-05   0.2749416256E-01  -0.1956662095E-02   0.0000000000E+00  -0.1362610483E-01   0.0000000000E+00   0.0000000000E+00   0.2808116119E-03  -0.1020491086E-03  -0.3542787255E-03  -0.7661250140E-04   0.0000000000E+00   0.0000000000E+00   0.3682252933E-01
   0.2932279728E+00   0.1327409584E+00   0.8778860259E-04  -0.2801853295E-05   0.1755772052E-03  -0.5603706589E-05   0.6617861099E-01   0.4301939872E-02   0.0000000000E+00  -0.4342841718E-02   0.0000000000E+00   0.0000000000E+00   0.6488802903E-03  -0.1555164343E-03  -0.1129138847E-03  -0.2114416526E-03   0.0000000000E+00   0.0000000000E+00   0.6456969931E-01
   0.5196118209E-01   0.1832644519E+00   0.1537006482E-04  -0.3467904239E-04   0.3074012964E-04  -0.6935808478E-04   0.9266076472E-01   0.4426567908E-02   0.0000000000E+00   0.1074390937E-01   0.0000000000E+00   0.0000000000E+00   0.9133279435E-03  -0.2337166151E-03   0.2793416436E-03  -0.2912619979E-03   0.0000000000E+00   0.0000000000E+00   0.9244523733E-01
   0.5046834981E-01   0.1684906669E+00   0.1599453814E-04  -0.3378969771E-04   0.3198907628E-04  -0.6757939543E-04   0.9873170283E-01   0.6769648972E-02   0.0000000000E+00   0.1109202049E-01   0.0000000000E+00   0.0000000000E+00   0.9670080813E-03  -0.2284986188E-03   0.2883925327E-03  -0.3165040554E-03   0.0000000000E+00   0.0000000000E+00   0.9743105563E-01
   0.2920129716E+00   0.5550481345E-01   0.9105985715E-04  -0.3366178336E-06   0.1821197143E-03  -0.6732356672E-06   0.4847560905E-01   0.1038689848E-01   0.0000000000E+00  -0.3617947898E-02   0.0000000000E+00   0.0000000000E+00   0.4535953950E-03  -0.4155784237E-04  -0.9406664535E-04  -0.1765875226E-03   0.0000000000E+00   0.0000000000E+00   0.4463925438E-01
   0.2919246742E+00   0.1532822036E+00   0.8645272272E-04  -0.3985792490E-05   0.1729054454E-03  -0.7971584980E-05   0.7126829220E-01   0.3099848753E-02   0.0000000000E+00  -0.3852231997E-02   0.0000000000E+00   0.0000000000E+00   0.7033833758E-03  -0.1828063891E-03  -0.1001580319E-03  -0.2231044229E-03   0.0000000000E+00   0.0000000000E+00   0.7007915979E-01
   0.2708325706E+00   0.3669203342E-01   0.8866253081E-04  -0.1679935044E-06   0.1773250616E-03  -0.3359870088E-06   0.4410934469E-01   0.1062687054E-01   0.0000000000E+00  -0.3768386056E-02   0.0000000000E+00   0.0000000000E+00   0.4092128353E-03  -0.2605932867E-04  -0.9797803745E-04  -0.1642086457E-03   0.0000000000E+00   0.0000000000E+00   0.4037614529E-01
   0.2509479183E+00   0.3681361307E-01   0.8599810729E-04  -0.2098423046E-06   0.1719962146E-03  -0.4196846092E-06   0.4210284678E-01   0.9461605986E-02   0.0000000000E+00  -0.5019939899E-02   0.0000000000E+00   0.0000000000E+00   0.3926436498E-03  -0.3169248048E-04  -0.1305184374E-03  -0.1546933583E-03   0.0000000000E+00   0.0000000000E+00   0.3919184091E-01
   0.2337824984E+00   0.5569838768E-01   0.8249214562E-04  -0.5971718062E-06   0.1649842912E-03  -0.1194343612E-05   0.4453754293E-01   0.6468515201E-02   0.0000000000E+00  -0.8381570041E-02   0.0000000000E+00   0.0000000000E+00   0.4259698837E-03  -0.6892747678E-04  -0.2179208211E-03  -0.1530181744E-03   0.0000000000E+00   0.0000000000E+00   0.4412186250E-01
   0.2532932962E+00   0.5532606646E-01   0.8532105636E-04  -0.4682784131E-06   0.1706421127E-03  -0.9365568262E-06   0.4605448968E-01   0.8222408891E-02   0.0000000000E+00  -0.6538484966E-02   0.0000000000E+00   0.0000000000E+00   0.4358776701E-03  -0.5593938012E-04  -0.1700006091E-03  -0.1628306957E-03   0.0000000000E+00   0.0000000000E+00   0.4401494760E-01
   0.2350717169E+00   0.1970267032E+00   0.6867395333E-04  -0.9282253084E-05   0.1373479067E-03  -0.1856450617E-04   0.8432792157E-01  -0.6340080003E-03   0.0000000000E+00  -0.3241634794E-02   0.0000000000E+00   0.0000000000E+00   0.8451812397E-03  -0.2593238447E-03  -0.8428250464E-04  -0.2510817407E-03   0.0000000000E+00   0.0000000000E+00   0.8483497357E-01
   0.2544434868E+00   0.1956506512E+00   0.7418461132E-04  -0.8166250899E-05   0.1483692226E-03  -0.1633250180E-04   0.8292638968E-01   0.4965852764E-04   0.0000000000E+00  -0.3412451104E-02   0.0000000000E+00   0.0000000000E+00   0.8291149212E-03  -0.2482825838E-03  -0.8872372870E-04  -0.2489281446E-03   0.0000000000E+00   0.0000000000E+00   0.8311417250E-01
   0.1597750350E+00   0.7268581496E-01   0.6887367324E-04  -0.3280879045E-05   0.1377473465E-03  -0.6561758090E-05   0.4807685449E-01  -0.9465179161E-02   0.0000000000E+00  -0.1862321414E-01   0.0000000000E+00   0.0000000000E+00   0.5091640824E-03  -0.2388823551E-03  -0.4842035677E-03  -0.1158350260E-03   0.0000000000E+00   0.0000000000E+00   0.6231799430E-01
   0.1739574467E+00   0.6065641279E-01   0.7350556963E-04  -0.1768468923E-05   0.1470111393E-03  -0.3536937846E-05   0.4112630936E-01  -0.4247105564E-02   0.0000000000E+00  -0.1655929643E-01   0.0000000000E+00   0.0000000000E+00   0.4240044103E-03  -0.1658499837E-03  -0.4305417071E-03  -0.1106376114E-03   0.0000000000E+00   0.0000000000E+00   0.5201864393E-01
   0.1843333990E+00   0.8233100085E-01   0.7130200213E-04  -0.2769450119E-05   0.1426040043E-03  -0.5538900239E-05   0.5389127846E-01  -0.4853973331E-02   0.0000000000E+00  -0.1566592805E-01   0.0000000000E+00   0.0000000000E+00   0.5534747046E-03  -0.2102135687E-03  -0.4073141294E-03  -0.1471119154E-03   0.0000000000E+00   0.0000000000E+00   0.6258265855E-01
   0.1696016193E+00   0.8994189467E-01   0.6704043776E-04  -0.4128244575E-05   0.1340808755E-03  -0.8256489150E-05   0.5839919084E-01  -0.8843977892E-02   0.0000000000E+00  -0.1586515237E-01   0.0000000000E+00   0.0000000000E+00   0.6105238421E-03  -0.2636373514E-03  -0.4124939617E-03  -0.1486656388E-03   0.0000000000E+00   0.0000000000E+00   0.6898377361E-01
   0.9891808895E-01   0.2141228761E+00   0.2640274942E-04  -0.2883397683E-04   0.5280549883E-04  -0.5766795366E-04   0.8678338509E-01  -0.1658930412E-02   0.0000000000E+00   0.8632234140E-02   0.0000000000E+00   0.0000000000E+00   0.8728106422E-03  -0.2769394594E-03   0.2244380876E-03  -0.2553733640E-03   0.0000000000E+00   0.0000000000E+00   0.8884950293E-01
   0.1398671313E+00   0.1993262996E+00   0.4046811105E-04  -0.1995512545E-04   0.8093622209E-04  -0.3991025090E-04   0.8969568264E-01  -0.4215313667E-02   0.0000000000E+00   0.4419412003E-02   0.0000000000E+00   0.0000000000E+00   0.9096027674E-03  -0.3112401846E-03   0.1149047121E-03  -0.2564411069E-03   0.0000000000E+00   0.0000000000E+00   0.9218711893E-01
   0.1209926874E+00   0.1985698016E+00   0.3483547830E-04  -0.2316246916E-04   0.6967095661E-04  -0.4632493832E-04   0.8983577718E-01  -0.4190033879E-02   0.0000000000E+00   0.6886874043E-02   0.0000000000E+00   0.0000000000E+00   0.9109278734E-03  -0.3114076703E-03   0.1790587251E-03  -0.2569372299E-03   0.0000000000E+00   0.0000000000E+00   0.9276493283E-01
   0.2184059803E+00   0.7553242900E-01   0.7819242233E-04  -0.1423034445E-05   0.1563848447E-03  -0.2846068890E-05   0.5009347862E-01   0.2432570687E-02   0.0000000000E+00  -0.1138605676E-01   0.0000000000E+00   0.0000000000E+00   0.4936370742E-03  -0.1259547290E-03  -0.2960374758E-03  -0.1575781479E-03   0.0000000000E+00   0.0000000000E+00   0.5270858640E-01
   0.8038929213E-01   0.1527163990E+00   0.2773887510E-04  -0.2623568214E-04   0.5547775019E-04  -0.5247136428E-04   0.1003163625E+00  -0.4388998307E-02   0.0000000000E+00   0.8386692595E-02   0.0000000000E+00   0.0000000000E+00   0.1016330619E-02  -0.3448390704E-03   0.2180540075E-03  -0.2877820924E-03   0.0000000000E+00   0.0000000000E+00   0.1035516844E+00
   0.6990297115E-01   0.1666509926E+00   0.2245101705E-04  -0.2995746485E-04   0.4490203409E-04  -0.5991492970E-04   0.9803672469E-01   0.5168016530E-03   0.0000000000E+00   0.1101623365E-01   0.0000000000E+00   0.0000000000E+00   0.9788168419E-03  -0.2889421575E-03   0.2864220749E-03  -0.2956605790E-03   0.0000000000E+00   0.0000000000E+00   0.9962744824E-01
   0.1415745764E+00   0.1830611955E+00   0.4307914021E-04  -0.1793650052E-04   0.8615828042E-04  -0.3587300103E-04   0.8927742739E-01  -0.6377876460E-02   0.0000000000E+00   0.3355563941E-02   0.0000000000E+00   0.0000000000E+00   0.9119079033E-03  -0.3316110468E-03   0.8724466246E-04  -0.2486986528E-03   0.0000000000E+00   0.0000000000E+00   0.9279584541E-01
   0.2727440809E+00   0.1744889561E+00   0.8051295416E-04  -0.5847976629E-05   0.1610259083E-03  -0.1169595326E-04   0.7745208262E-01   0.1218235262E-02   0.0000000000E+00  -0.4089850178E-02   0.0000000000E+00   0.0000000000E+00   0.7708661205E-03  -0.2201738953E-03  -0.1063361046E-03  -0.2360109537E-03   0.0000000000E+00   0.0000000000E+00   0.7717161170E-01
   0.2921995115E+00   0.1736131994E+00   0.8550917265E-04  -0.5306873992E-05   0.1710183453E-03  -0.1061374798E-04   0.7620993185E-01   0.1997917555E-02   0.0000000000E+00  -0.3361012332E-02   0.0000000000E+00   0.0000000000E+00   0.7561055659E-03  -0.2086506200E-03  -0.8738632062E-04  -0.2346235482E-03   0.0000000000E+00   0.0000000000E+00   0.7545651740E-01
   0.9435925194E-01   0.1609677751E+00   0.3121894712E-04  -0.2417196605E-04   0.6243789424E-04  -0.4834393209E-04   0.9681044572E-01  -0.6635356851E-02   0.0000000000E+00   0.8052594682E-02   0.0000000000E+00   0.0000000000E+00   0.9880105277E-03  -0.3567849057E-03   0.2093674617E-03  -0.2705252666E-03   0.0000000000E+00   0.0000000000E+00   0.1012243872E+00
   0.8726082871E-01   0.1754020110E+00   0.2708576978E-04  -0.2727567140E-04   0.5417153955E-04  -0.5455134280E-04   0.9492906914E-01  -0.3568267672E-02   0.0000000000E+00   0.1088323467E-01   0.0000000000E+00   0.0000000000E+00   0.9599954944E-03  -0.3204698841E-03   0.2829641015E-03  -0.2740824044E-03   0.0000000000E+00   0.0000000000E+00   0.9858058898E-01
   0.2743433017E+00   0.7397122499E-01   0.8746657741E-04  -0.7531043247E-06   0.1749331548E-03  -0.1506208649E-05   0.5148453228E-01   0.8107695495E-02   0.0000000000E+00  -0.5760329254E-02   0.0000000000E+00   0.0000000000E+00   0.4905222363E-03  -0.7337664190E-04  -0.1497685606E-03  -0.1787766833E-03   0.0000000000E+00   0.0000000000E+00   0.4895995913E-01
   0.2263737887E+00   0.1122914115E+00   0.7529955190E-04  -0.3178485994E-05   0.1505991038E-03  -0.6356971988E-05   0.6295356873E-01  -0.2589401828E-04   0.0000000000E+00  -0.9740211178E-02   0.0000000000E+00   0.0000000000E+00   0.6296133693E-03  -0.1891196464E-03  -0.2532454906E-03  -0.1887830241E-03   0.0000000000E+00   0.0000000000E+00   0.6516939261E-01
   0.2226749588E+00   0.9417790270E-01   0.7672361058E-04  -0.2224933280E-05   0.1534472212E-03  -0.4449866560E-05   0.5697754360E-01   0.1014645625E-02   0.0000000000E+00  -0.1092150649E-01   0.0000000000E+00   0.0000000000E+00   0.5667314991E-03  -0.1607861746E-03  -0.2839591687E-03  -0.1739765677E-03   0.0000000000E+00   0.0000000000E+00   0.5953946803E-01
   0.2726503104E+00   0.5526088728E-01   0.8816813139E-04  -0.3868401912E-06   0.1763362628E-03  -0.7736803824E-06   0.4738577860E-01   0.9501921977E-02   0.0000000000E+00  -0.4986398110E-02   0.0000000000E+00   0.0000000000E+00   0.4453520201E-03  -0.4713811603E-04  -0.1296463509E-03  -0.1706631017E-03   0.0000000000E+00   0.0000000000E+00   0.4426173666E-01
   0.1570872826E+00   0.5348794838E-01   0.7255420742E-04  -0.2111239807E-05   0.1451084148E-03  -0.4222479614E-05   0.3717758130E-01  -0.8204177144E-02   0.0000000000E+00  -0.1805325632E-01   0.0000000000E+00   0.0000000000E+00   0.3963883444E-03  -0.1935745153E-03  -0.4693846643E-03  -0.8692021246E-04   0.0000000000E+00   0.0000000000E+00   0.5232592681E-01
   0.1469627639E+00   0.6074732634E-01   0.6958897962E-04  -0.3182321472E-05   0.1391779592E-03  -0.6364642943E-05   0.3939194437E-01  -0.1089180187E-01   0.0000000000E+00  -0.1890614658E-01   0.0000000000E+00   0.0000000000E+00   0.4265948493E-03  -0.2270938518E-03  -0.4915598110E-03  -0.8550042752E-04   0.0000000000E+00   0.0000000000E+00   0.5659079460E-01
   0.1239933798E+00   0.1490542680E+00   0.4270859155E-04  -0.1679565105E-04   0.8541718310E-04  -0.3359130211E-04   0.9095011426E-01  -0.1188024155E-01   0.0000000000E+00   0.7625479758E-03   0.0000000000E+00   0.0000000000E+00   0.9451418673E-03  -0.3916527583E-03   0.1982624737E-04  -0.2372096181E-03   0.0000000000E+00   0.0000000000E+00   0.9739907167E-01
   0.1447477251E+00   0.1473194468E+00   0.4937935311E-04  -0.1319372648E-04   0.9875870622E-04  -0.2638745296E-04   0.8595909317E-01  -0.1151297905E-01   0.0000000000E+00  -0.3070778430E-02   0.0000000000E+00   0.0000000000E+00   0.8941298688E-03  -0.3730070700E-03  -0.7984023919E-04  -0.2233383423E-03   0.0000000000E+00   0.0000000000E+00   0.9240291045E-01
   0.1433027514E+00   0.1660859474E+00   0.4595446466E-04  -0.1571954883E-04   0.9190892931E-04  -0.3143909766E-04   0.8857041184E-01  -0.9175081116E-02   0.0000000000E+00   0.1025275920E-02   0.0000000000E+00   0.0000000000E+00   0.9132293617E-03  -0.3574620467E-03   0.2665717392E-04  -0.2381859922E-03   0.0000000000E+00   0.0000000000E+00   0.9347751209E-01
   0.1256059871E+00   0.1662569719E+00   0.4048703891E-04  -0.1869336493E-04   0.8097407781E-04  -0.3738672987E-04   0.9072599925E-01  -0.9444092317E-02   0.0000000000E+00   0.3505590999E-02   0.0000000000E+00   0.0000000000E+00   0.9355922695E-03  -0.3666189209E-03   0.9114536598E-04  -0.2438457208E-03   0.0000000000E+00   0.0000000000E+00   0.9596848289E-01
   0.6674564763E-01   0.1807903034E+00   0.2011454390E-04  -0.3183953944E-04   0.4022908781E-04  -0.6367907887E-04   0.9265214635E-01   0.9605778427E-03   0.0000000000E+00   0.1100257372E-01   0.0000000000E+00   0.0000000000E+00   0.9236397300E-03  -0.2683506606E-03   0.2860669168E-03  -0.2808381726E-03   0.0000000000E+00   0.0000000000E+00   0.9410065575E-01
   0.1096501906E+00   0.1660551464E+00   0.3547321319E-04  -0.2166019710E-04   0.7094642638E-04  -0.4332039421E-04   0.9385732561E-01  -0.8507844637E-02   0.0000000000E+00   0.6317944849E-02   0.0000000000E+00   0.0000000000E+00   0.9640967900E-03  -0.3666504232E-03   0.1642665661E-03  -0.2560484429E-03   0.0000000000E+00   0.0000000000E+00   0.9899393748E-01
   0.1055282942E+00   0.1805220896E+00   0.3226574442E-04  -0.2415312805E-04   0.6453148884E-04  -0.4830625610E-04   0.9236983250E-01  -0.5441216368E-02   0.0000000000E+00   0.8596927639E-02   0.0000000000E+00   0.0000000000E+00   0.9400219741E-03  -0.3315216612E-03   0.2235201186E-03  -0.2607858484E-03   0.0000000000E+00   0.0000000000E+00   0.9633758622E-01
   0.2148958341E+00   0.1816554193E+00   0.6454336076E-04  -0.9284216794E-05   0.1290867215E-03  -0.1856843359E-04   0.8239483730E-01  -0.2124509215E-02   0.0000000000E+00  -0.3854460607E-02   0.0000000000E+00   0.0000000000E+00   0.8303219007E-03  -0.2684296041E-03  -0.1002159758E-03  -0.2408109843E-03   0.0000000000E+00   0.0000000000E+00   0.8374429073E-01
   0.2341164221E+00   0.1797968283E+00   0.6997636434E-04  -0.7873235266E-05   0.1399527287E-03  -0.1574647053E-04   0.8054535046E-01  -0.8728811243E-03   0.0000000000E+00  -0.4365341320E-02   0.0000000000E+00   0.0000000000E+00   0.8080721480E-03  -0.2503648626E-03  -0.1134988743E-03  -0.2390174080E-03   0.0000000000E+00   0.0000000000E+00   0.8133947001E-01
   0.2754778561E+00   0.1304965452E+00   0.8409204709E-04  -0.2965918183E-05   0.1681840942E-03  -0.5931836366E-05   0.6569407930E-01   0.3542492924E-02   0.0000000000E+00  -0.5720513021E-02   0.0000000000E+00   0.0000000000E+00   0.6463133142E-03  -0.1616573086E-03  -0.1487333385E-03  -0.2077097167E-03   0.0000000000E+00   0.0000000000E+00   0.6474859897E-01
   0.2705649887E+00   0.1522732478E+00   0.8148455507E-04  -0.4352748803E-05   0.1629691101E-03  -0.8705497606E-05   0.7180769121E-01   0.1965701620E-02   0.0000000000E+00  -0.5198147834E-02   0.0000000000E+00   0.0000000000E+00   0.7121798072E-03  -0.1957660574E-03  -0.1351518437E-03  -0.2213201785E-03   0.0000000000E+00   0.0000000000E+00   0.7141529643E-01
   0.2535195056E+00   0.1774667258E+00   0.7533052124E-04  -0.6743409946E-05   0.1506610425E-03  -0.1348681989E-04   0.7860553376E-01   0.2593351509E-03   0.0000000000E+00  -0.4419422297E-02   0.0000000000E+00   0.0000000000E+00   0.7852773321E-03  -0.2332232498E-03  -0.1149049797E-03  -0.2365946067E-03   0.0000000000E+00   0.0000000000E+00   0.7884838350E-01
   0.1222611585E+00   0.5811144315E-01   0.6696815045E-04  -0.5385848395E-05   0.1339363009E-03  -0.1077169679E-04   0.3332724132E-01  -0.1981846892E-01   0.0000000000E+00  -0.2025402218E-01   0.0000000000E+00   0.0000000000E+00   0.3927278200E-03  -0.2981664132E-03  -0.5266045768E-03  -0.4052631720E-04   0.0000000000E+00   0.0000000000E+00   0.5896119505E-01
   0.1102206206E+00   0.7307640488E-01   0.5979421043E-04  -0.9052372307E-05   0.1195884209E-03  -0.1810474461E-04   0.5189913329E-01  -0.1931138784E-01   0.0000000000E+00  -0.2120126262E-01   0.0000000000E+00   0.0000000000E+00   0.5769254965E-03  -0.3488112783E-03  -0.5512328281E-03  -0.9776323635E-04   0.0000000000E+00   0.0000000000E+00   0.7337152859E-01
   0.1476552481E+00   0.8122035626E-01   0.6462602476E-04  -0.4952948205E-05   0.1292520495E-03  -0.9905896411E-05   0.5612517020E-01  -0.1350429523E-01   0.0000000000E+00  -0.1884117086E-01   0.0000000000E+00   0.0000000000E+00   0.6017645877E-03  -0.3034184629E-03  -0.4898704423E-03  -0.1278626249E-03   0.0000000000E+00   0.0000000000E+00   0.7185583390E-01
   0.1354286882E+00   0.7049282340E-01   0.6521940604E-04  -0.5040068168E-05   0.1304388121E-03  -0.1008013634E-04   0.4760884198E-01  -0.1552296495E-01   0.0000000000E+00  -0.2105114036E-01   0.0000000000E+00   0.0000000000E+00   0.5226573147E-03  -0.2980561754E-03  -0.5473296495E-03  -0.9625763110E-04   0.0000000000E+00   0.0000000000E+00   0.6736244089E-01
   0.1010688250E+00   0.1968864300E+00   0.2898800097E-04  -0.2674931905E-04   0.5797600193E-04  -0.5349863809E-04   0.9013172613E-01  -0.3415009341E-02   0.0000000000E+00   0.9421122690E-02   0.0000000000E+00   0.0000000000E+00   0.9115622893E-03  -0.3045452718E-03   0.2449491899E-03  -0.2601501504E-03   0.0000000000E+00   0.0000000000E+00   0.9332109927E-01
   0.1236440277E+00   0.1823039012E+00   0.3768124749E-04  -0.2092260133E-04   0.7536249498E-04  -0.4184520265E-04   0.9089688121E-01  -0.6526423533E-02   0.0000000000E+00   0.6032458647E-02   0.0000000000E+00   0.0000000000E+00   0.9285480827E-03  -0.3379548790E-03   0.1568439248E-03  -0.2531113730E-03   0.0000000000E+00   0.0000000000E+00   0.9488282793E-01
   0.1612643034E+00   0.1679137498E+00   0.5106712370E-04  -0.1334639187E-04   0.1021342474E-03  -0.2669278373E-04   0.8597199495E-01  -0.7573732285E-02   0.0000000000E+00  -0.1255646516E-02   0.0000000000E+00   0.0000000000E+00   0.8824411463E-03  -0.3336533077E-03  -0.3264680943E-04  -0.2351947880E-03   0.0000000000E+00   0.0000000000E+00   0.9001493539E-01
   0.1783129925E+00   0.1698146047E+00   0.5573716759E-04  -0.1149777937E-04   0.1114743352E-03  -0.2299555874E-04   0.8391132985E-01  -0.5812698660E-02   0.0000000000E+00  -0.2692600104E-02   0.0000000000E+00   0.0000000000E+00   0.8565513945E-03  -0.3098609761E-03  -0.7000760270E-04  -0.2342958936E-03   0.0000000000E+00   0.0000000000E+00   0.8708255475E-01
   0.8815614021E-01   0.1397626980E+00   0.3261826940E-04  -0.2290367640E-04   0.6523653879E-04  -0.4580735280E-04   0.1009757056E+00  -0.8177173928E-02   0.0000000000E+00   0.3873273663E-02   0.0000000000E+00   0.0000000000E+00   0.1034288578E-02  -0.3846988562E-03   0.1007051152E-03  -0.2783955951E-03   0.0000000000E+00   0.0000000000E+00   0.1055030746E+00
   0.9954270521E-01   0.8892574158E-01   0.5117240260E-04  -0.1332163962E-04   0.1023448052E-03  -0.2664327924E-04   0.7377761095E-01  -0.1734487643E-01   0.0000000000E+00  -0.1737528716E-01   0.0000000000E+00   0.0000000000E+00   0.7898107387E-03  -0.3947815971E-03  -0.4517574663E-03  -0.1692982036E-03   0.0000000000E+00   0.0000000000E+00   0.8815491538E-01
   0.9649063347E-01   0.1275945733E+00   0.3808635514E-04  -0.1938222648E-04   0.7617271028E-04  -0.3876445295E-04   0.9728224138E-01  -0.1254781144E-01   0.0000000000E+00  -0.9042091402E-03   0.0000000000E+00   0.0000000000E+00   0.1010465848E-02  -0.4173248386E-03  -0.2350943765E-04  -0.2542032898E-03   0.0000000000E+00   0.0000000000E+00   0.1039303097E+00
   0.2507638046E+00   0.1600794056E+00   0.7606587216E-04  -0.5538131684E-05   0.1521317443E-03  -0.1107626337E-04   0.7450611530E-01   0.1786163569E-03   0.0000000000E+00  -0.5480573176E-02   0.0000000000E+00   0.0000000000E+00   0.7445253039E-03  -0.2217321823E-03  -0.1424949026E-03  -0.2240541950E-03   0.0000000000E+00   0.0000000000E+00   0.7501824342E-01
   0.2595958754E+00   0.1275257505E+00   0.8086514634E-04  -0.3137843849E-05   0.1617302927E-03  -0.6275687698E-05   0.6612308681E-01   0.2648460998E-02   0.0000000000E+00  -0.6733159752E-02   0.0000000000E+00   0.0000000000E+00   0.6532854851E-03  -0.1718846504E-03  -0.1750621536E-03  -0.2063146434E-03   0.0000000000E+00   0.0000000000E+00   0.6587649014E-01
   0.1963543792E+00   0.1840110969E+00   0.5908974905E-04  -0.1104835360E-04   0.1181794981E-03  -0.2209670720E-04   0.8421589321E-01  -0.3359114277E-02   0.0000000000E+00  -0.2731476685E-02   0.0000000000E+00   0.0000000000E+00   0.8522362749E-03  -0.2862388224E-03  -0.7101839382E-04  -0.2425703368E-03   0.0000000000E+00   0.0000000000E+00   0.8607245806E-01
   0.2585229607E+00   0.1414926370E+00   0.7947391394E-04  -0.4022652311E-05   0.1589478279E-03  -0.8045304621E-05   0.7067389026E-01   0.2323104861E-02   0.0000000000E+00  -0.5989123108E-02   0.0000000000E+00   0.0000000000E+00   0.6997695880E-03  -0.1887906222E-03  -0.1557172008E-03  -0.2189909854E-03   0.0000000000E+00   0.0000000000E+00   0.7030265080E-01
   0.2461766706E+00   0.1446287351E+00   0.7631718782E-04  -0.4618627031E-05   0.1526343756E-03  -0.9237254062E-05   0.7099083097E-01   0.7053696674E-03   0.0000000000E+00  -0.6505279967E-02   0.0000000000E+00   0.0000000000E+00   0.7077922007E-03  -0.2059187962E-03  -0.1691372791E-03  -0.2150886019E-03   0.0000000000E+00   0.0000000000E+00   0.7152830741E-01
   0.1918585467E+00   0.1589623342E+00   0.6095122556E-04  -0.9076585807E-05   0.1219024511E-03  -0.1815317161E-04   0.7970283065E-01  -0.4630102681E-02   0.0000000000E+00  -0.5078300020E-02   0.0000000000E+00   0.0000000000E+00   0.8109186145E-03  -0.2854095188E-03  -0.1320358005E-03  -0.2252181839E-03   0.0000000000E+00   0.0000000000E+00   0.8258462176E-01
   0.1946867453E+00   0.1697605829E+00   0.6035111570E-04  -0.9840353973E-05   0.1207022314E-03  -0.1968070795E-04   0.8156902454E-01  -0.4382399363E-02   0.0000000000E+00  -0.3999608783E-02   0.0000000000E+00   0.0000000000E+00   0.8288374435E-03  -0.2885310672E-03  -0.1039898284E-03  -0.2315598755E-03   0.0000000000E+00   0.0000000000E+00   0.8413145856E-01
   0.1799465684E+00   0.1552665842E+00   0.5820280580E-04  -0.9829255749E-05   0.1164056116E-03  -0.1965851150E-04   0.8117407283E-01  -0.6478932940E-02   0.0000000000E+00  -0.4644161333E-02   0.0000000000E+00   0.0000000000E+00   0.8311775271E-03  -0.3083115479E-03  -0.1207481947E-03  -0.2240854197E-03   0.0000000000E+00   0.0000000000E+00   0.8495290812E-01
   0.1010861251E+00   0.1485039063E+00   0.3539036379E-04  -0.2119724464E-04   0.7078072758E-04  -0.4239448927E-04   0.9605836089E-01  -0.1015001866E-01   0.0000000000E+00   0.4332582460E-02   0.0000000000E+00   0.0000000000E+00   0.9910336649E-03  -0.3896752692E-03   0.1126471440E-03  -0.2577250267E-03   0.0000000000E+00   0.0000000000E+00   0.1017707418E+00
   0.2006088449E+00   0.7797469639E-01   0.7489662991E-04  -0.1935669970E-05   0.1497932598E-03  -0.3871339940E-05   0.5090067361E-01  -0.7353935778E-03   0.0000000000E+00  -0.1362719093E-01   0.0000000000E+00   0.0000000000E+00   0.5112129169E-03  -0.1600559566E-03  -0.3543069642E-03  -0.1504958401E-03   0.0000000000E+00   0.0000000000E+00   0.5641527710E-01
   0.2115647732E+00   0.1146590356E+00   0.7183140705E-04  -0.3910799307E-05   0.1436628141E-03  -0.7821598613E-05   0.6487744315E-01  -0.2281299305E-02   0.0000000000E+00  -0.1042493306E-01   0.0000000000E+00   0.0000000000E+00   0.6556183294E-03  -0.2174453225E-03  -0.2710482596E-03  -0.1877884315E-03   0.0000000000E+00   0.0000000000E+00   0.6845003625E-01
   0.2067975277E+00   0.9688677477E-01   0.7329955840E-04  -0.2873977121E-05   0.1465991168E-03  -0.5747954242E-05   0.5875698479E-01  -0.1945211619E-02   0.0000000000E+00  -0.1229771611E-01   0.0000000000E+00   0.0000000000E+00   0.5934054828E-03  -0.1957230706E-03  -0.3197406187E-03  -0.1704353195E-03   0.0000000000E+00   0.0000000000E+00   0.6340219527E-01
   0.9005062644E-01   0.1039456545E+00   0.4279981241E-04  -0.1763415735E-04   0.8559962483E-04  -0.3526831471E-04   0.9368790020E-01  -0.1194876437E-01   0.0000000000E+00  -0.1079990213E-01   0.0000000000E+00   0.0000000000E+00   0.9727252951E-03  -0.4005513443E-03  -0.2807974553E-03  -0.2452174075E-03   0.0000000000E+00   0.0000000000E+00   0.1012006291E+00
   0.1246533726E+00   0.8336370431E-01   0.5919088245E-04  -0.7828097979E-05   0.1183817649E-03  -0.1565619596E-04   0.6051292909E-01  -0.1849943899E-01   0.0000000000E+00  -0.1952804062E-01   0.0000000000E+00   0.0000000000E+00   0.6606276079E-03  -0.3665331771E-03  -0.5077290562E-03  -0.1260404703E-03   0.0000000000E+00   0.0000000000E+00   0.7904033944E-01
   0.1088900370E+00   0.1151469093E+00   0.4524565173E-04  -0.1491224784E-04   0.9049130345E-04  -0.2982449569E-04   0.8809935707E-01  -0.1613888696E-01   0.0000000000E+00  -0.8270377932E-02   0.0000000000E+00   0.0000000000E+00   0.9294102316E-03  -0.4256869408E-03  -0.2150298262E-03  -0.2158814103E-03   0.0000000000E+00   0.0000000000E+00   0.9831871678E-01
   0.2440487129E+00   0.1279789138E+00   0.7742095390E-04  -0.3593412316E-05   0.1548419078E-03  -0.7186824633E-05   0.6651057835E-01   0.1099749914E-02   0.0000000000E+00  -0.7742801570E-02   0.0000000000E+00   0.0000000000E+00   0.6618065338E-03  -0.1885342359E-03  -0.2013128408E-03  -0.2028309848E-03   0.0000000000E+00   0.0000000000E+00   0.6730379092E-01
   0.1990765112E+00   0.1517182000E+00   0.6381939550E-04  -0.7797992278E-05   0.1276387910E-03  -0.1559598456E-04   0.7725283074E-01  -0.4768006996E-02   0.0000000000E+00  -0.6218715718E-02   0.0000000000E+00   0.0000000000E+00   0.7868323284E-03  -0.2794385622E-03  -0.1616866087E-03  -0.2174544712E-03   0.0000000000E+00   0.0000000000E+00   0.8045926273E-01
   0.2055692504E+00   0.1444157883E+00   0.6645845401E-04  -0.6663239211E-05   0.1329169080E-03  -0.1332647842E-04   0.7475171591E-01  -0.4332957529E-02   0.0000000000E+00  -0.7340117444E-02   0.0000000000E+00   0.0000000000E+00   0.7605160316E-03  -0.2675847230E-03  -0.1908430535E-03  -0.2112562751E-03   0.0000000000E+00   0.0000000000E+00   0.7805317319E-01
   0.1926020657E+00   0.1008093265E+00   0.6981123402E-04  -0.3763169639E-05   0.1396224680E-03  -0.7526339279E-05   0.6144836907E-01  -0.4783436270E-02   0.0000000000E+00  -0.1290831792E-01   0.0000000000E+00   0.0000000000E+00   0.6288339995E-03  -0.2321794699E-03  -0.3356162660E-03  -0.1699947984E-03   0.0000000000E+00   0.0000000000E+00   0.6771854926E-01
   0.1418510868E+00   0.1241815328E+00   0.5294025939E-04  -0.1069839679E-04   0.1058805188E-03  -0.2139679358E-04   0.8070377523E-01  -0.1427652130E-01   0.0000000000E+00  -0.8532070625E-02   0.0000000000E+00   0.0000000000E+00   0.8498673162E-03  -0.3848765387E-03  -0.2218338362E-03  -0.1992817618E-03   0.0000000000E+00   0.0000000000E+00   0.8990499747E-01
   0.1460370525E+00   0.1118633973E+00   0.5678682019E-04  -0.8610229288E-05   0.1135736404E-03  -0.1722045858E-04   0.7482745932E-01  -0.1446634639E-01   0.0000000000E+00  -0.1229453645E-01   0.0000000000E+00   0.0000000000E+00   0.7916736324E-03  -0.3691458419E-03  -0.3196579477E-03  -0.1810833388E-03   0.0000000000E+00   0.0000000000E+00   0.8565955070E-01
   0.1587774903E+00   0.1176452376E+00   0.5888443231E-04  -0.7893810055E-05   0.1177688646E-03  -0.1578762011E-04   0.7411663599E-01  -0.1205070936E-01   0.0000000000E+00  -0.1127168993E-01   0.0000000000E+00   0.0000000000E+00   0.7773184880E-03  -0.3428570016E-03  -0.2930639381E-03  -0.1861977799E-03   0.0000000000E+00   0.0000000000E+00   0.8315982767E-01
   0.1542594955E+00   0.1313474191E+00   0.5500750060E-04  -0.1000329274E-04   0.1100150012E-03  -0.2000658548E-04   0.7928514286E-01  -0.1253095298E-01   0.0000000000E+00  -0.8135459564E-02   0.0000000000E+00   0.0000000000E+00   0.8304442876E-03  -0.3631649584E-03  -0.2115219487E-03  -0.2002625697E-03   0.0000000000E+00   0.0000000000E+00   0.8726239812E-01
   0.1639278543E+00   0.1519459547E+00   0.5421078151E-04  -0.1122844072E-04   0.1084215630E-03  -0.2245688145E-04   0.8285514064E-01  -0.8488134518E-02   0.0000000000E+00  -0.4086262875E-02   0.0000000000E+00   0.0000000000E+00   0.8540158100E-03  -0.3334467671E-03  -0.1062428347E-03  -0.2231010184E-03   0.0000000000E+00   0.0000000000E+00   0.8765306818E-01
   0.1115059921E+00   0.1548885040E+00   0.3776936647E-04  -0.1991498946E-04   0.7553873293E-04  -0.3982997892E-04   0.9472455314E-01  -0.9268736109E-02   0.0000000000E+00   0.4552869128E-02   0.0000000000E+00   0.0000000000E+00   0.9750517398E-03  -0.3768610205E-03   0.1183745973E-03  -0.2563674511E-03   0.0000000000E+00   0.0000000000E+00   0.9993324155E-01
   0.1374074938E+00   0.1347056976E+00   0.4950559298E-04  -0.1272879222E-04   0.9901118597E-04  -0.2545758445E-04   0.8781088656E-01  -0.1289198296E-01   0.0000000000E+00  -0.4657274700E-02   0.0000000000E+00   0.0000000000E+00   0.9167848145E-03  -0.3923524892E-03  -0.1210891422E-03  -0.2247567108E-03   0.0000000000E+00   0.0000000000E+00   0.9517935011E-01
   0.1806911689E+00   0.1056399649E+00   0.6640497960E-04  -0.4852702834E-05   0.1328099592E-03  -0.9705405669E-05   0.6436628990E-01  -0.7990044153E-02   0.0000000000E+00  -0.1346477329E-01   0.0000000000E+00   0.0000000000E+00   0.6676330314E-03  -0.2729993112E-03  -0.3500841056E-03  -0.1691287372E-03   0.0000000000E+00   0.0000000000E+00   0.7253898066E-01
   0.1511528987E+00   0.1000166500E+00   0.6078356384E-04  -0.6651988134E-05   0.1215671277E-03  -0.1330397627E-04   0.6662416463E-01  -0.1338672125E-01   0.0000000000E+00  -0.1520465230E-01   0.0000000000E+00   0.0000000000E+00   0.7064018100E-03  -0.3337397064E-03  -0.3953209599E-03  -0.1597123301E-03   0.0000000000E+00   0.0000000000E+00   0.7870864210E-01
   0.1382800787E+00   0.9237598605E-01   0.5966424814E-04  -0.7155116440E-05   0.1193284963E-03  -0.1431023288E-04   0.6544313106E-01  -0.1617483831E-01   0.0000000000E+00  -0.1745021953E-01   0.0000000000E+00   0.0000000000E+00   0.7029558255E-03  -0.3580777763E-03  -0.4537057078E-03  -0.1478048783E-03   0.0000000000E+00   0.0000000000E+00   0.8063179344E-01
   0.1559529220E+00   0.9053026939E-01   0.6406733224E-04  -0.5232603893E-05   0.1281346645E-03  -0.1046520779E-04   0.5965703111E-01  -0.1342127812E-01   0.0000000000E+00  -0.1815689601E-01   0.0000000000E+00   0.0000000000E+00   0.6368341454E-03  -0.3131838745E-03  -0.4720792962E-03  -0.1387072590E-03   0.0000000000E+00   0.0000000000E+00   0.7423794602E-01
   0.1274064945E+00   0.1185340412E+00   0.5003848720E-04  -0.1209293461E-04   0.1000769744E-03  -0.2418586922E-04   0.8450181448E-01  -0.1614565515E-01   0.0000000000E+00  -0.8889734445E-02   0.0000000000E+00   0.0000000000E+00   0.8934551103E-03  -0.4149619950E-03  -0.2311330956E-03  -0.2050684780E-03   0.0000000000E+00   0.0000000000E+00   0.9480620638E-01
   0.1260784605E+00   0.1330941504E+00   0.4634883648E-04  -0.1433385244E-04   0.9269767296E-04  -0.2866770489E-04   0.8764517111E-01  -0.1432403203E-01   0.0000000000E+00  -0.4318020962E-02   0.0000000000E+00   0.0000000000E+00   0.9194238072E-03  -0.4061758336E-03  -0.1122685450E-03  -0.2199634173E-03   0.0000000000E+00   0.0000000000E+00   0.9591535476E-01
   0.1145686892E+00   0.1296698501E+00   0.4351673439E-04  -0.1593264869E-04   0.8703346878E-04  -0.3186529737E-04   0.8960011911E-01  -0.1605678772E-01   0.0000000000E+00  -0.3919466618E-02   0.0000000000E+00   0.0000000000E+00   0.9441715543E-03  -0.4293682345E-03  -0.1019061321E-03  -0.2206299942E-03   0.0000000000E+00   0.0000000000E+00   0.9871840839E-01
   0.2291977207E+00   0.1294780243E+00   0.7393788436E-04  -0.4221227291E-05   0.1478757687E-03  -0.8442454582E-05   0.6802293288E-01  -0.5763614246E-03   0.0000000000E+00  -0.8295528673E-02   0.0000000000E+00   0.0000000000E+00   0.6819584131E-03  -0.2098324129E-03  -0.2156837455E-03  -0.2023397144E-03   0.0000000000E+00   0.0000000000E+00   0.6979581309E-01
   0.2013312547E+00   0.1332195150E+00   0.6692488986E-04  -0.5943996719E-05   0.1338497797E-03  -0.1188799344E-04   0.7224034883E-01  -0.4269658942E-02   0.0000000000E+00  -0.8582248078E-02   0.0000000000E+00   0.0000000000E+00   0.7352124652E-03  -0.2594176359E-03  -0.2231384500E-03  -0.2039120697E-03   0.0000000000E+00   0.0000000000E+00   0.7592411303E-01
   0.1977219158E+00   0.1180948290E+00   0.6824325849E-04  -0.4880998103E-05   0.1364865170E-03  -0.9761996205E-05   0.6772953611E-01  -0.4730829283E-02   0.0000000000E+00  -0.1063955721E-01   0.0000000000E+00   0.0000000000E+00   0.6914878490E-03  -0.2504969012E-03  -0.2766284875E-03  -0.1889961205E-03   0.0000000000E+00   0.0000000000E+00   0.7257814378E-01
   0.2151177136E+00   0.1311435924E+00   0.7048954508E-04  -0.4989522399E-05   0.1409790902E-03  -0.9979044797E-05   0.6955339998E-01  -0.2537496826E-02   0.0000000000E+00  -0.8692152593E-02   0.0000000000E+00   0.0000000000E+00   0.7031464902E-03  -0.2340351682E-03  -0.2259959674E-03  -0.2010477094E-03   0.0000000000E+00   0.0000000000E+00   0.7242958422E-01
   0.1087094486E+00   0.1384597525E+00   0.3977187697E-04  -0.1828517711E-04   0.7954375395E-04  -0.3657035421E-04   0.9436549328E-01  -0.1308820381E-01   0.0000000000E+00  -0.2263882882E-04   0.0000000000E+00   0.0000000000E+00   0.9829195442E-03  -0.4139785179E-03  -0.5886095494E-06  -0.2438318684E-03   0.0000000000E+00   0.0000000000E+00   0.1014925674E+00
   0.1689153168E+00   0.1364670517E+00   0.5810460941E-04  -0.8946446447E-05   0.1162092188E-03  -0.1789289289E-04   0.7819712066E-01  -0.9939179910E-02   0.0000000000E+00  -0.7573483724E-02   0.0000000000E+00   0.0000000000E+00   0.8117887463E-03  -0.3339831611E-03  -0.1969105768E-03  -0.2047738222E-03   0.0000000000E+00   0.0000000000E+00   0.8460634860E-01
   0.1864828365E+00   0.1396029818E+00   0.6225350949E-04  -0.7626728085E-05   0.1245070190E-03  -0.1525345617E-04   0.7584821944E-01  -0.6851783008E-02   0.0000000000E+00  -0.7679264637E-02   0.0000000000E+00   0.0000000000E+00   0.7790375434E-03  -0.2960624884E-03  -0.1996608806E-03  -0.2069893093E-03   0.0000000000E+00   0.0000000000E+00   0.8058179136E-01
   0.1628294756E+00   0.1046869241E+00   0.6254585496E-04  -0.6089298274E-05   0.1250917099E-03  -0.1217859655E-04   0.6866181491E-01  -0.1064818520E-01   0.0000000000E+00  -0.1342662034E-01   0.0000000000E+00   0.0000000000E+00   0.7185627047E-03  -0.3124672967E-03  -0.3490921287E-03  -0.1740408891E-03   0.0000000000E+00   0.0000000000E+00   0.7799335904E-01
   0.1845746367E+00   0.1214476956E+00   0.6461223077E-04  -0.6043136972E-05   0.1292244615E-03  -0.1208627394E-04   0.7052243928E-01  -0.7005503987E-02   0.0000000000E+00  -0.1038341586E-01   0.0000000000E+00   0.0000000000E+00   0.7262409047E-03  -0.2816223577E-03  -0.2699688124E-03  -0.1905508059E-03   0.0000000000E+00   0.0000000000E+00   0.7637217830E-01
   0.1717282023E+00   0.1217920104E+00   0.6140044005E-04  -0.7100531978E-05   0.1228008801E-03  -0.1420106396E-04   0.7253102671E-01  -0.9692874284E-02   0.0000000000E+00  -0.1052931169E-01   0.0000000000E+00   0.0000000000E+00   0.7543888899E-03  -0.3145218230E-03  -0.2737621038E-03  -0.1885144573E-03   0.0000000000E+00   0.0000000000E+00   0.7990579327E-01
   0.1157661914E+00   0.9811099219E-01   0.5230348274E-04  -0.1122687084E-04   0.1046069655E-03  -0.2245374168E-04   0.7516085778E-01  -0.1861500155E-01   0.0000000000E+00  -0.1539161706E-01   0.0000000000E+00   0.0000000000E+00   0.8074535825E-03  -0.4116325888E-03  -0.4001820435E-03  -0.1696375687E-03   0.0000000000E+00   0.0000000000E+00   0.8996552382E-01
   0.1315831462E+00   0.1052859773E+00   0.5453072436E-04  -0.9651905363E-05   0.1090614487E-03  -0.1930381073E-04   0.7594652544E-01  -0.1689777680E-01   0.0000000000E+00  -0.1351098073E-01   0.0000000000E+00   0.0000000000E+00   0.8101585848E-03  -0.3968173443E-03  -0.3512854990E-03  -0.1771462459E-03   0.0000000000E+00   0.0000000000E+00   0.8865115249E-01
   0.1720366568E+00   0.1103244417E+00   0.6358627006E-04  -0.5918427881E-05   0.1271725401E-03  -0.1183685576E-04   0.6640213684E-01  -0.9794657309E-02   0.0000000000E+00  -0.1293853051E-01   0.0000000000E+00   0.0000000000E+00   0.6934053404E-03  -0.2971529836E-03  -0.3364017932E-03  -0.1698224386E-03   0.0000000000E+00   0.0000000000E+00   0.7520449620E-01
           1           2           3           4
           5           6           7           8
           9          10          11          12
          13          14          15          16
          17          18          19          20
          21          22          23          24
          25          26          27          28
          29          30          31          32
          33          34           4           3
           2           1          35          36
          37          38          39          40
          41          42          36          35
          43          41          44          45
          46           9          47          48
          41          35          39          44
          49          50          51          52
          52          51          53          54
          55          56          57          58
          56          59          60          57
          61          62          63          64
          65          66          67          68
          69          70          71          72
          73          74          25          28
          27          75          76          28
          77          78          24          23
          79          80          81          82
          83          84          85          86
          87          88          89          90
          90          89          62          91
          61          92          91          62
          92          61          59          93
          56          94          93          59
          95          55          54          53
          46          96          10           9
          97          98          99         100
          12         101          98          97
          97         100         102          47
         103         104          31          30
         105         103          30         106
          73         107         108         109
         110         111         112         113
          32          31         114         115
         116         117         118         119
         120         121         122         123
         121          83          86         122
          80         124         125          81
         126         127         128         129
         130         101          12          11
         131          43         101         130
          34         129         132           4
          42          41          43         131
          35           1          40          39
         101          43          45          98
         133         134         109         108
         135         136          13          16
         137         138          65          68
          94          56          55          95
          58         137          54          55
          49          52          68          67
         139         140         141         142
         140         139          82          81
          88          87         142         141
         143         144         145         146
         147          26          25         148
         149         150         128         151
           5           8         152         102
         132         129         128         150
         153         100          99         154
          48          47         102         152
          59          61          64          60
         106         155         113         118
          62          89         156          63
          88         157         156          89
         123         116         119         120
          66          65         134         133
         144         143          84          83
           9          12          97          47
         104         158         114          31
         159         160         127         126
         119         112         161         120
         117         105         106         118
         162         163         164         165
          83         121         166         144
         167         168         141         140
         167         143         146         168
           6         114         158           7
          38          37         169         170
          40         132         150          37
         160         159          20          19
          78         171         172          24
          18          17          21          24
         173         174          78          77
         132          40           1           4
          28          76         107          73
         175         176         177         178
         176         179          57          60
         137          68          52          54
          60          64         177         176
         163         162         155          29
          75          27         174         173
         180         174          27          26
          64          63         181         177
          98          45         182          99
         183         182          45          44
          38         183          44          39
          58          57         179         184
         185         181          63         156
         134         186         187         109
         188          74         187         189
         138         186         134          65
          88         141         168         157
         166         121         120         161
         190         191         166         161
         155         106          30          29
         192         193         194         195
         118         113         112         119
         125          84         143         167
         124          85          84         125
           6         196         115         114
         196           6           5         153
         197          32         115         198
         111         190         161         112
         199         148         188         135
         170         169         200         201
         202         164         163         197
         203         204         146         145
         205         206         201         200
         187          74          73         109
         176         175         207         179
         208         209          16          15
         210         186         138         184
         184         138         137          58
         179         207         210         184
         211         212         172         171
          78         174         180         171
         125         167         140          81
          37         150         149         169
         213         214         215         216
         217         182         183         201
         170         201         183          38
         218         219         206         205
         111         220         221         190
         157         168         146         204
         177         181         222         178
         222         181         185         223
         186         210         189         187
         224         191         190         221
         100         153           5         102
         185         156         157         204
         113         155         162         110
          26         147         193         180
          29          32         197         163
         225         226          19          18
         144         166         191         145
         212         192         227         228
         198         115         196         229
         206         154         217         201
         153         154         229         196
         172         225          18          24
         148          25          74         188
          14          13         175         178
         207         175          13         136
         189         136         135         188
         230         202         197         198
         210         207         136         189
         165         164         231         232
         169         149         233         200
         234         160          19         226
         217         154          99         182
         203         145         191         224
         151         235         233         149
         236         223         203         224
         185         204         203         223
         178         222         237          14
         110         162         165         238
         239         223         236         240
         238         220         111         110
         219         230         198         229
         241         242         232         243
         242          69         220         238
          72          71         240         236
         244         205         200         233
         215         231         164         202
         211         171         180         193
         228         225         172         212
         194         193         147         245
         245         147         148         199
         135          16         209         199
         209         208         246         247
         127         160         234         248
         193         192         212         211
         226         225         228         249
         151         128         127         248
         248         250         235         151
          72         221         220          69
          14         237         251          15
          70          69         252         253
         206         219         229         154
         238         165         232         242
          72         236         224         221
         216         215         202         230
         245         247         254         194
         255         256         257         258
         230         219         218         216
         214         259         231         215
         216         218         260         213
         261         255         258         214
         239         237         222         223
         194         254         262         195
         263         264         227         265
         250         266         267         268
         199         209         247         245
         240          71         269         251
         270         271         246         272
         260         244         273         213
         237         239         240         251
         218         205         244         260
          70         272         269          71
         232         231         259         243
         274         275         243         259
         257         256         263         276
         277         275         274         278
         234         226         249         279
         271         277         262         254
         271         254         247         246
         246         208         269         272
         244         233         235         273
         251         269         208          15
         275         270         253         252
         234         279         250         248
         279         249         264         280
         259         214         258         274
         262         281         276         195
         195         276         263         265
         257         276         281         278
         278         274         258         257
         266         280         256         255
         261         214         213         267
         267         266         255         261
         266         250         279         280
         228         227         264         249
         256         280         264         263
         265         227         192         195
         281         262         277         278
         235         250         268         273
         273         268         267         213
         277         271         270         275
         253         270         272          70
         252          69         242         241
         243         275         252         241
 VARIABLES = X,Y,DU1,DU2,U1,U2,S11,S22,S33,S12,S13,S23,E11,E22,E12,E33,E13,E23,SMISES
 ZONE, T="0.4000D+01" F=FEPOINT, I=  281 J=  250
   0.1778371150E-01   0.1340926968E+00   0.7173700808E-05  -0.3627480944E-04   0.2152110242E-04  -0.1088244283E-03   0.1719245222E+00   0.3236667200E-01   0.0000000000E+00   0.2565810395E-02   0.0000000000E+00   0.0000000000E+00   0.1622145206E-02  -0.1921068466E-03   0.6671107027E-04  -0.6128735827E-03   0.0000000000E+00   0.0000000000E+00   0.1574442537E+00
   0.0000000000E+00   0.1331848426E+00   0.0000000000E+00  -0.3712433844E-04   0.0000000000E+00  -0.1113730153E-03   0.1734574399E+00   0.3451748101E-01   0.0000000000E+00   0.4862975720E-02   0.0000000000E+00   0.0000000000E+00   0.1631021956E-02  -0.1751975096E-03   0.1264373687E-03  -0.6239247626E-03   0.0000000000E+00   0.0000000000E+00   0.1590349532E+00
   0.0000000000E+00   0.1165227610E+00   0.0000000000E+00  -0.3597650796E-04   0.0000000000E+00  -0.1079295239E-03   0.2206275768E+00   0.1813695792E-01   0.0000000000E+00   0.4186011290E-02   0.0000000000E+00   0.0000000000E+00   0.2151864895E-02  -0.4805131513E-03   0.1088362935E-03  -0.7162936043E-03   0.0000000000E+00   0.0000000000E+00   0.2120980715E+00
   0.1919416524E-01   0.1161513972E+00   0.1000706109E-04  -0.3494770620E-04   0.3002118327E-04  -0.1048431186E-03   0.2021799998E+00   0.1789922756E-01   0.0000000000E+00  -0.1801018944E-01   0.0000000000E+00   0.0000000000E+00   0.1968102315E-02  -0.4275477238E-03  -0.4682649254E-03  -0.6602376820E-03   0.0000000000E+00   0.0000000000E+00   0.1974788857E+00
   0.7807556346E-01   0.2317397544E+00   0.1851606492E-04  -0.3416214462E-04   0.5554819476E-04  -0.1024864339E-03   0.1058001398E+00  -0.3368217201E-04   0.0000000000E+00   0.7287183937E-02   0.0000000000E+00   0.0000000000E+00   0.1058102444E-02  -0.3177372411E-03   0.1894667824E-03  -0.3172993728E-03   0.0000000000E+00   0.0000000000E+00   0.1066174239E+00
   0.9787351228E-01   0.2319328185E+00   0.2387809382E-04  -0.3061086520E-04   0.7163428146E-04  -0.9183259559E-04   0.1118926177E+00  -0.5548151945E-03   0.0000000000E+00   0.6638666045E-02   0.0000000000E+00   0.0000000000E+00   0.1120590623E-02  -0.3412260052E-03   0.1726053172E-03  -0.3340134076E-03   0.0000000000E+00   0.0000000000E+00   0.1127974300E+00
   0.9730597990E-01   0.2498711461E+00   0.2093899991E-04  -0.3221346831E-04   0.6281699974E-04  -0.9664040494E-04   0.1092417869E+00  -0.3966026399E-03   0.0000000000E+00   0.2342050681E-02   0.0000000000E+00   0.0000000000E+00   0.1093607677E-02  -0.3316913872E-03   0.6089331770E-04  -0.3265355529E-03   0.0000000000E+00   0.0000000000E+00   0.1094191959E+00
   0.7784125484E-01   0.2498576227E+00   0.1586856091E-04  -0.3559431363E-04   0.4760568273E-04  -0.1067829409E-03   0.9896622694E-01  -0.6147787585E-03   0.0000000000E+00   0.2591593604E-02   0.0000000000E+00   0.0000000000E+00   0.9915066057E-03  -0.3030464684E-03   0.6738143371E-04  -0.2950543445E-03   0.0000000000E+00   0.0000000000E+00   0.9926759281E-01
   0.1911496790E-01   0.2331560156E+00   0.4194324500E-05  -0.4170336085E-04   0.1258297350E-04  -0.1251100825E-03   0.8943010563E-01   0.2136150588E-02   0.0000000000E+00   0.2040677585E-02   0.0000000000E+00   0.0000000000E+00   0.8878926046E-03  -0.2469288110E-03   0.5305761721E-04  -0.2746987687E-03   0.0000000000E+00   0.0000000000E+00   0.8859687382E-01
   0.0000000000E+00   0.2331643209E+00   0.0000000000E+00  -0.4225327452E-04   0.0000000000E+00  -0.1267598235E-03   0.8798062233E-01   0.2283471186E-02   0.0000000000E+00   0.2579186551E-02   0.0000000000E+00   0.0000000000E+00   0.8729558097E-03  -0.2411071551E-03   0.6705885032E-04  -0.2707922805E-03   0.0000000000E+00   0.0000000000E+00   0.8694414157E-01
   0.0000000000E+00   0.2165018308E+00   0.0000000000E+00  -0.4120955512E-04   0.0000000000E+00  -0.1236286654E-03   0.1003042419E+00   0.5144804924E-02   0.0000000000E+00   0.2614941132E-02   0.0000000000E+00   0.0000000000E+00   0.9876080042E-03  -0.2494646764E-03   0.6798846943E-04  -0.3163471405E-03   0.0000000000E+00   0.0000000000E+00   0.9787806729E-01
   0.1855067199E-01   0.2166119094E+00   0.4594296533E-05  -0.4067589180E-04   0.1378288960E-04  -0.1220276754E-03   0.1012786663E+00   0.4726185361E-02   0.0000000000E+00   0.4095378088E-02   0.0000000000E+00   0.0000000000E+00   0.9986081072E-03  -0.2565741454E-03   0.1064798303E-03  -0.3180145551E-03   0.0000000000E+00   0.0000000000E+00   0.9938315645E-01
   0.2575387945E+00   0.9226834810E-01   0.8332712020E-04  -0.1480726220E-05   0.2499813606E-03  -0.4442178659E-05   0.7455851782E-01   0.6995616075E-02   0.0000000000E+00  -0.1019295719E-01   0.0000000000E+00   0.0000000000E+00   0.7245983300E-03  -0.1537193927E-03  -0.2650168870E-03  -0.2446624017E-03   0.0000000000E+00   0.0000000000E+00   0.7345280094E-01
   0.2589298047E+00   0.1102769665E+00   0.8213167433E-04  -0.2240886236E-05   0.2463950230E-03  -0.6722658709E-05   0.8142883970E-01   0.5160297509E-02   0.0000000000E+00  -0.9794885217E-02   0.0000000000E+00   0.0000000000E+00   0.7988075045E-03  -0.1926835440E-03  -0.2546670156E-03  -0.2597674116E-03   0.0000000000E+00   0.0000000000E+00   0.8076005303E-01
   0.2421704222E+00   0.1106661672E+00   0.7872254551E-04  -0.2625452180E-05   0.2361676365E-03  -0.7876356540E-05   0.8225407536E-01   0.2761312883E-02   0.0000000000E+00  -0.1153543777E-01   0.0000000000E+00   0.0000000000E+00   0.8142568150E-03  -0.2191490973E-03  -0.2999213819E-03  -0.2550461647E-03   0.0000000000E+00   0.0000000000E+00   0.8332279910E-01
   0.2397003014E+00   0.9267420083E-01   0.8004134111E-04  -0.1779416926E-05   0.2401240233E-03  -0.5338250778E-05   0.7478541523E-01   0.4483872148E-02   0.0000000000E+00  -0.1240748903E-01   0.0000000000E+00   0.0000000000E+00   0.7344025359E-03  -0.1795175242E-03  -0.3225947147E-03  -0.2378078621E-03   0.0000000000E+00   0.0000000000E+00   0.7573526504E-01
   0.9267264238E-01   0.3822533011E-01   0.7117262020E-04  -0.1075312325E-04   0.2135178606E-03  -0.3225936974E-04  -0.9343134912E-02  -0.6274113915E-01   0.0000000000E+00   0.9712660401E-02   0.0000000000E+00   0.0000000000E+00   0.9479206832E-04  -0.5993819867E-03   0.2525291704E-03   0.2162528222E-03   0.0000000000E+00   0.0000000000E+00   0.5598424743E-01
   0.1083247306E+00   0.4607163365E-01   0.6946764023E-04  -0.6726961335E-05   0.2084029207E-03  -0.2018088400E-04   0.2016270319E-01  -0.2792466926E-01   0.0000000000E+00  -0.1344095273E-01   0.0000000000E+00   0.0000000000E+00   0.2854010396E-03  -0.3397348021E-03  -0.3494647709E-03   0.2328589820E-04   0.0000000000E+00   0.0000000000E+00   0.4423669448E-01
   0.9635730761E-01   0.6349596936E-01   0.6155280127E-04  -0.1155633551E-04   0.1846584038E-03  -0.3466900654E-04   0.4175449524E-01  -0.1642541715E-01   0.0000000000E+00  -0.2014513787E-01   0.0000000000E+00   0.0000000000E+00   0.4668212038E-03  -0.2895176572E-03  -0.5237735846E-03  -0.7598723428E-04   0.0000000000E+00   0.0000000000E+00   0.6260703010E-01
   0.8340453086E-01   0.5549208974E-01   0.6439283980E-04  -0.1623348976E-04   0.1931785194E-03  -0.4870046927E-04   0.1211486582E-01  -0.1381866831E-01   0.0000000000E+00  -0.6196422805E-02   0.0000000000E+00   0.0000000000E+00   0.1626046632E-03  -0.1745312805E-03  -0.1611069929E-03   0.5111407450E-05   0.0000000000E+00   0.0000000000E+00   0.2645088190E-01
   0.9837869585E-01   0.1948779178E-01   0.7504231292E-04  -0.5310154320E-05   0.2251269388E-03  -0.1593046296E-04  -0.9287310898E-02  -0.1001783129E+00   0.0000000000E+00   0.1355523501E-01   0.0000000000E+00   0.0000000000E+00   0.2076618297E-03  -0.9739211963E-03   0.3524361102E-03   0.3283968714E-03   0.0000000000E+00   0.0000000000E+00   0.9528120503E-01
   0.1003067577E+00   0.0000000000E+00   0.7668918340E-04   0.0000000000E+00   0.2300675502E-03   0.0000000000E+00  -0.1305095490E-01  -0.1076364422E+00   0.0000000000E+00  -0.7383690594E-02   0.0000000000E+00   0.0000000000E+00   0.1923997775E-03  -0.1037211557E-02  -0.1919759554E-03   0.3620621911E-03   0.0000000000E+00   0.0000000000E+00   0.1020263130E+00
   0.1211441004E+00   0.0000000000E+00   0.7769259034E-04   0.0000000000E+00   0.2330777710E-03   0.0000000000E+00  -0.6843431028E-04  -0.3700505093E-01   0.0000000000E+00  -0.8274757341E-02   0.0000000000E+00   0.0000000000E+00   0.1103308097E-03  -0.3698452063E-03  -0.2151436909E-03   0.1112204557E-03   0.0000000000E+00   0.0000000000E+00   0.3872434675E-01
   0.1220323897E+00   0.2610253398E-01   0.7538143686E-04  -0.2443679755E-05   0.2261443106E-03  -0.7331039266E-05   0.9423186625E-02  -0.3484509752E-01   0.0000000000E+00  -0.8783677876E-02   0.0000000000E+00   0.0000000000E+00   0.1987671588E-03  -0.3767205350E-03  -0.2283756248E-03   0.7626573267E-04   0.0000000000E+00   0.0000000000E+00   0.4512036453E-01
   0.2108680288E+00   0.3763168211E-01   0.8097243763E-04  -0.3876730188E-06   0.2429173129E-03  -0.1163019056E-05   0.4855151085E-01   0.7436406627E-02   0.0000000000E+00  -0.1129687645E-01   0.0000000000E+00   0.0000000000E+00   0.4632058886E-03  -0.7129046628E-04  -0.2937187877E-03  -0.1679637524E-03   0.0000000000E+00   0.0000000000E+00   0.4919172672E-01
   0.1907725842E+00   0.3838021129E-01   0.7866855081E-04  -0.5722780739E-06   0.2360056524E-03  -0.1716834222E-05   0.4380978983E-01   0.2851083315E-02   0.0000000000E+00  -0.1454203294E-01   0.0000000000E+00   0.0000000000E+00   0.4295446484E-03  -0.1029185364E-03  -0.3780928564E-03  -0.1399826194E-03   0.0000000000E+00   0.0000000000E+00   0.4914364095E-01
   0.1870277273E+00   0.1901198074E-01   0.7989382484E-04  -0.2349657289E-06   0.2396814745E-03  -0.7048971868E-06   0.3464526718E-01   0.4549350664E-02   0.0000000000E+00  -0.7099734079E-02   0.0000000000E+00   0.0000000000E+00   0.3328046198E-03  -0.5844229489E-04  -0.1845930861E-03  -0.1175838535E-03   0.0000000000E+00   0.0000000000E+00   0.3515543683E-01
   0.2075594149E+00   0.1873743860E-01   0.8178322220E-04  -0.1463252366E-06   0.2453496666E-03  -0.4389757099E-06   0.4219326420E-01   0.8648130356E-02   0.0000000000E+00  -0.5629592363E-02   0.0000000000E+00   0.0000000000E+00   0.3959882509E-03  -0.4009848904E-04  -0.1463694014E-03  -0.1525241837E-03   0.0000000000E+00   0.0000000000E+00   0.3994568586E-01
   0.1575982788E+00   0.2158819982E+00   0.4373295765E-04  -0.1886243751E-04   0.1311988730E-03  -0.5658731254E-04   0.1209677739E+00  -0.2658475370E-02   0.0000000000E+00   0.3193425865E-02   0.0000000000E+00   0.0000000000E+00   0.1217653165E-02  -0.3894880754E-03   0.8302907249E-04  -0.3549278956E-03   0.0000000000E+00   0.0000000000E+00   0.1224367930E+00
   0.1566178391E+00   0.2325230794E+00   0.4129203372E-04  -0.2060565788E-04   0.1238761011E-03  -0.6181697364E-04   0.1239721364E+00  -0.1120894990E-02   0.0000000000E+00   0.1996101108E-02   0.0000000000E+00   0.0000000000E+00   0.1243084049E-02  -0.3831253590E-03   0.5189862881E-04  -0.3685537242E-03   0.0000000000E+00   0.0000000000E+00   0.1245947329E+00
   0.1371205452E+00   0.2325354646E+00   0.3529354858E-04  -0.2366734658E-04   0.1058806457E-03  -0.7100203974E-04   0.1213922457E+00  -0.1159921299E-02   0.0000000000E+00   0.3573263895E-02   0.0000000000E+00   0.0000000000E+00   0.1217402221E-02  -0.3757759501E-03   0.9290486126E-04  -0.3606969732E-03   0.0000000000E+00   0.0000000000E+00   0.1221477709E+00
   0.1383667893E+00   0.2157253384E+00   0.3791982871E-04  -0.2185864502E-04   0.1137594861E-03  -0.6557593506E-04   0.1200709038E+00  -0.2957685654E-02   0.0000000000E+00   0.5911118722E-02   0.0000000000E+00   0.0000000000E+00   0.1209582095E-02  -0.3897895680E-03   0.1536890868E-03  -0.3513396545E-03   0.0000000000E+00   0.0000000000E+00   0.1219845238E+00
   0.0000000000E+00   0.9986719779E-01   0.0000000000E+00  -0.3320080307E-04   0.0000000000E+00  -0.9960240920E-04   0.3284305618E+00   0.2282747248E-01   0.0000000000E+00   0.4611215811E-02   0.0000000000E+00   0.0000000000E+00   0.3215823200E-02  -0.7570169604E-03   0.1198916111E-03  -0.1053774103E-02   0.0000000000E+00   0.0000000000E+00   0.3152933086E+00
   0.1957092201E-01   0.9794970920E-01   0.1547240370E-04  -0.3220434981E-04   0.4641721110E-04  -0.9661304942E-04   0.3040810606E+00   0.2287254673E-01   0.0000000000E+00  -0.4564568303E-01   0.0000000000E+00   0.0000000000E+00   0.2972192966E-02  -0.6835177146E-03  -0.1186787759E-02  -0.9808608221E-03   0.0000000000E+00   0.0000000000E+00   0.3012263594E+00
   0.1682246838E-01   0.1511879651E+00   0.5852394331E-05  -0.3718747266E-04   0.1755718299E-04  -0.1115624180E-03   0.1470068706E+00   0.2489057297E-01   0.0000000000E+00   0.4424917158E-02   0.0000000000E+00   0.0000000000E+00   0.1395396987E-02  -0.1921148820E-03   0.1150478461E-03  -0.5156923306E-03   0.0000000000E+00   0.0000000000E+00   0.1369473538E+00
   0.0000000000E+00   0.1498487817E+00   0.0000000000E+00  -0.3780606723E-04   0.0000000000E+00  -0.1134182017E-03   0.1484507417E+00   0.2832600086E-01   0.0000000000E+00   0.3715751665E-02   0.0000000000E+00   0.0000000000E+00   0.1399529414E-02  -0.1620922164E-03   0.9660954330E-04  -0.5303302276E-03   0.0000000000E+00   0.0000000000E+00   0.1366612081E+00
   0.5113247547E-01   0.1385447613E+00   0.1954134279E-04  -0.3121966648E-04   0.5862402838E-04  -0.9365899944E-04   0.1519396231E+00   0.9664145956E-02   0.0000000000E+00   0.7648916637E-02   0.0000000000E+00   0.0000000000E+00   0.1490403794E-02  -0.3591774099E-03   0.1988718326E-03  -0.4848113073E-03   0.0000000000E+00   0.0000000000E+00   0.1478420912E+00
   0.4911425209E-01   0.1539284210E+00   0.1683707346E-04  -0.3288874068E-04   0.5051122037E-04  -0.9866622205E-04   0.1407690716E+00   0.1063839653E-01   0.0000000000E+00   0.1225498307E-01   0.0000000000E+00   0.0000000000E+00   0.1375775527E-02  -0.3159232497E-03   0.3186295599E-03  -0.4542224045E-03   0.0000000000E+00   0.0000000000E+00   0.1374411287E+00
   0.3322132017E-01   0.1525947677E+00   0.1146386679E-04  -0.3542183320E-04   0.3439160036E-04  -0.1062654996E-03   0.1446616069E+00   0.1884708382E-01   0.0000000000E+00   0.9333933911E-02   0.0000000000E+00   0.0000000000E+00   0.1390074818E-02  -0.2455139826E-03   0.2426822817E-03  -0.4905260722E-03   0.0000000000E+00   0.0000000000E+00   0.1377387547E+00
   0.3442588682E-01   0.1356032428E+00   0.1360255597E-04  -0.3413630513E-04   0.4080766792E-04  -0.1024089154E-03   0.1599987269E+00   0.1958013229E-01   0.0000000000E+00   0.9476140418E-02   0.0000000000E+00   0.0000000000E+00   0.1541246872E-02  -0.2841948577E-03   0.2463796509E-03  -0.5387365775E-03   0.0000000000E+00   0.0000000000E+00   0.1499832064E+00
   0.1670570528E-01   0.1676512587E+00   0.5259745871E-05  -0.3796982941E-04   0.1577923761E-04  -0.1139094882E-03   0.1327959800E+00   0.2058975353E-01   0.0000000000E+00   0.5446750714E-02   0.0000000000E+00   0.0000000000E+00   0.1266190539E-02  -0.1924904046E-03   0.1416155186E-03  -0.4601572005E-03   0.0000000000E+00   0.0000000000E+00   0.1242217473E+00
   0.0000000000E+00   0.1665127058E+00   0.0000000000E+00  -0.3849155194E-04   0.0000000000E+00  -0.1154746558E-03   0.1329273229E+00   0.2245619484E-01   0.0000000000E+00   0.3137051351E-02   0.0000000000E+00   0.0000000000E+00   0.1261904645E-02  -0.1742200203E-03   0.8156333514E-04  -0.4661505533E-03   0.0000000000E+00   0.0000000000E+00   0.1232602052E+00
   0.1711137890E-01   0.1839703641E+00   0.4979124603E-05  -0.3879096543E-04   0.1493737381E-04  -0.1163728963E-03   0.1213991253E+00   0.1451777406E-01   0.0000000000E+00   0.5339222946E-02   0.0000000000E+00   0.0000000000E+00   0.1170437931E-02  -0.2190196354E-03   0.1388197966E-03  -0.4077506982E-03   0.0000000000E+00   0.0000000000E+00   0.1153516943E+00
   0.3343262180E-01   0.1684614366E+00   0.1052775111E-04  -0.3636385582E-04   0.3158325334E-04  -0.1090915675E-03   0.1318911649E+00   0.1506468353E-01   0.0000000000E+00   0.1171783307E-01   0.0000000000E+00   0.0000000000E+00   0.1273717599E-02  -0.2450266595E-03   0.3046636599E-03  -0.4408675453E-03   0.0000000000E+00   0.0000000000E+00   0.1264343737E+00
   0.3455370210E-01   0.1841303876E+00   0.1009999946E-04  -0.3721135049E-04   0.3029999838E-04  -0.1116340515E-03   0.1218057349E+00   0.1105755132E-01   0.0000000000E+00   0.1130660278E-01   0.0000000000E+00   0.0000000000E+00   0.1184884695E-02  -0.2548416916E-03   0.2939716723E-03  -0.3985898587E-03   0.0000000000E+00   0.0000000000E+00   0.1182946957E+00
   0.1945844093E-01   0.2498293041E+00   0.3498958293E-05  -0.4267398575E-04   0.1049687488E-04  -0.1280219572E-03   0.7303926852E-01  -0.1291398766E-02   0.0000000000E+00   0.3700064422E-03   0.0000000000E+00   0.0000000000E+00   0.7342668815E-03  -0.2320317932E-03   0.9620167496E-05  -0.2152436093E-03   0.0000000000E+00   0.0000000000E+00   0.7380797568E-01
   0.3851224933E-01   0.2327840682E+00   0.8608407358E-05  -0.4005294358E-04   0.2582522207E-04  -0.1201588308E-03   0.9347709427E-01   0.1647757199E-02   0.0000000000E+00   0.5295237782E-02   0.0000000000E+00   0.0000000000E+00   0.9298276711E-03  -0.2639537108E-03   0.1376761823E-03  -0.2853745544E-03   0.0000000000E+00   0.0000000000E+00   0.9317371349E-01
   0.3891772260E-01   0.2498356345E+00   0.7208076002E-05  -0.4109136650E-04   0.2162422801E-04  -0.1232740995E-03   0.7937383268E-01  -0.1112423814E-02   0.0000000000E+00   0.2087410675E-02   0.0000000000E+00   0.0000000000E+00   0.7970755982E-03  -0.2492457362E-03   0.5427267754E-04  -0.2347842266E-03   0.0000000000E+00   0.0000000000E+00   0.8000865024E-01
   0.3295551412E+00   0.0000000000E+00   0.9711503874E-04   0.0000000000E+00   0.2913451162E-03   0.0000000000E+00   0.6041160742E-01   0.1746817721E-01   0.0000000000E+00  -0.1834255392E-03   0.0000000000E+00   0.0000000000E+00   0.5517115426E-03  -0.6553050163E-05  -0.4769064020E-05  -0.2336393539E-03   0.0000000000E+00   0.0000000000E+00   0.5384532390E-01
   0.3503999940E+00   0.0000000000E+00   0.1000000000E-03   0.0000000000E+00   0.3000000000E-03   0.0000000000E+00   0.6076612326E-01   0.1757703697E-01   0.0000000000E+00  -0.1103446215E-05   0.0000000000E+00   0.0000000000E+00   0.5549301216E-03  -0.6528000067E-05  -0.2868960159E-07  -0.2350294807E-03   0.0000000000E+00   0.0000000000E+00   0.5416062011E-01
   0.3503999940E+00   0.1923061281E-01   0.1000000000E-03  -0.3927361594E-07   0.3000000000E-03  -0.1178208478E-06   0.6142907511E-01   0.1728131597E-01   0.0000000000E+00  -0.2237995689E-06   0.0000000000E+00   0.0000000000E+00   0.5624468032E-03  -0.1147406559E-04  -0.5818788792E-08  -0.2361311733E-03   0.0000000000E+00   0.0000000000E+00   0.5486655437E-01
   0.3301514254E+00   0.1871439230E-01   0.9715960959E-04  -0.3825040932E-07   0.2914788288E-03  -0.1147512279E-06   0.6111013013E-01   0.1718847480E-01   0.0000000000E+00  -0.5622540394E-03   0.0000000000E+00   0.0000000000E+00   0.5595358769E-03  -0.1144564239E-04  -0.1461860502E-04  -0.2348958148E-03   0.0000000000E+00   0.0000000000E+00   0.5459192015E-01
   0.3503999940E+00   0.3846103617E-01   0.1000000000E-03  -0.1259314826E-06   0.3000000000E-03  -0.3777944478E-06   0.6344127620E-01   0.1641879293E-01   0.0000000000E+00   0.6302452899E-05   0.0000000000E+00   0.0000000000E+00   0.5851563832E-03  -0.2613589930E-04   0.1638637754E-06  -0.2395802074E-03   0.0000000000E+00   0.0000000000E+00   0.5702526988E-01
   0.3305942673E+00   0.3768254042E-01   0.9710983635E-04  -0.1230206226E-06   0.2913295091E-03  -0.3690618678E-06   0.6317861556E-01   0.1636116047E-01   0.0000000000E+00  -0.1169952618E-02   0.0000000000E+00   0.0000000000E+00   0.5827026742E-03  -0.2592424201E-04  -0.3041876808E-04  -0.2386193281E-03   0.0000000000E+00   0.0000000000E+00   0.5682098041E-01
   0.3309464440E+00   0.5676153022E-01   0.9698375451E-04  -0.2987199771E-06   0.2909512635E-03  -0.8961599313E-06   0.6650387968E-01   0.1503635575E-01   0.0000000000E+00  -0.1581896740E-02   0.0000000000E+00   0.0000000000E+00   0.6199297295E-03  -0.4914808155E-04  -0.4112931525E-04  -0.2446207063E-03   0.0000000000E+00   0.0000000000E+00   0.6045500864E-01
   0.3312248479E+00   0.7595423227E-01   0.9679521264E-04  -0.6044565700E-06   0.2903856379E-03  -0.1813369710E-05   0.7089772410E-01   0.1332836957E-01   0.0000000000E+00  -0.1881276379E-02   0.0000000000E+00   0.0000000000E+00   0.6689921322E-03  -0.7940947657E-04  -0.4891318586E-04  -0.2526782810E-03   0.0000000000E+00   0.0000000000E+00   0.6532732799E-01
   0.3121860997E+00   0.7514301932E-01   0.9364067592E-04  -0.6233693490E-06   0.2809220278E-03  -0.1870108047E-05   0.7027196052E-01   0.1286578782E-01   0.0000000000E+00  -0.3728807520E-02   0.0000000000E+00   0.0000000000E+00   0.6641222417E-03  -0.8215800338E-04  -0.9694899552E-04  -0.2494132450E-03   0.0000000000E+00   0.0000000000E+00   0.6511010083E-01
   0.3115209239E+00   0.5605196192E-01   0.9400147928E-04  -0.3092443953E-06   0.2820044378E-03  -0.9277331860E-06   0.6571480500E-01   0.1461021245E-01   0.0000000000E+00  -0.3156556118E-02   0.0000000000E+00   0.0000000000E+00   0.6133174127E-03  -0.5104229051E-04  -0.8207045908E-04  -0.2409750524E-03   0.0000000000E+00   0.0000000000E+00   0.6000161592E-01
   0.3313685385E+00   0.9525171660E-01   0.9654537556E-04  -0.1071050767E-05   0.2896361267E-03  -0.3213152301E-05   0.7612275776E-01   0.1135606497E-01   0.0000000000E+00  -0.2040220179E-02   0.0000000000E+00   0.0000000000E+00   0.7271593827E-03  -0.1148076236E-03  -0.5304572466E-04  -0.2624364682E-03   0.0000000000E+00   0.0000000000E+00   0.7119909731E-01
   0.3125612791E+00   0.9439621051E-01   0.9315601985E-04  -0.1102871346E-05   0.2794680595E-03  -0.3308614039E-05   0.7566760974E-01   0.1087998184E-01   0.0000000000E+00  -0.4012263571E-02   0.0000000000E+00   0.0000000000E+00   0.7240361518E-03  -0.1182030109E-03  -0.1043188528E-03  -0.2596427747E-03   0.0000000000E+00   0.0000000000E+00   0.7118312969E-01
   0.3313537474E+00   0.1147026769E+00   0.9623759778E-04  -0.1721778702E-05   0.2887127933E-03  -0.5165336106E-05   0.8195142128E-01   0.9271011400E-02   0.0000000000E+00  -0.2086098430E-02   0.0000000000E+00   0.0000000000E+00   0.7917011786E-03  -0.1531441498E-03  -0.5423855917E-04  -0.2736672980E-03   0.0000000000E+00   0.0000000000E+00   0.7780070410E-01
   0.3312112234E+00   0.1342647665E+00   0.9588511024E-04  -0.2566868807E-05   0.2876553307E-03  -0.7700606422E-05   0.8811984937E-01   0.7212548471E-02   0.0000000000E+00  -0.2006259696E-02   0.0000000000E+00   0.0000000000E+00   0.8595608483E-03  -0.1922340634E-03  -0.5216275211E-04  -0.2859971935E-03   0.0000000000E+00   0.0000000000E+00   0.8480272885E-01
   0.3121650791E+00   0.1337830482E+00   0.9180551823E-04  -0.2658444113E-05   0.2754165547E-03  -0.7975332338E-05   0.8811833760E-01   0.6706979001E-02   0.0000000000E+00  -0.3903076910E-02   0.0000000000E+00   0.0000000000E+00   0.8610624390E-03  -0.1972852228E-03  -0.1014799997E-03  -0.2844759498E-03   0.0000000000E+00   0.0000000000E+00   0.8522514533E-01
   0.3125561719E+00   0.1139284244E+00   0.9254222017E-04  -0.1774655076E-05   0.2776266605E-03  -0.5323965229E-05   0.8169732320E-01   0.8755826335E-02   0.0000000000E+00  -0.4062050109E-02   0.0000000000E+00   0.0000000000E+00   0.7907057530E-03  -0.1575337062E-03  -0.1056133028E-03  -0.2713594486E-03   0.0000000000E+00   0.0000000000E+00   0.7799811287E-01
   0.2893618116E+00   0.1826398758E-01   0.9156189856E-04  -0.4625408251E-07   0.2746856957E-03  -0.1387622475E-06   0.5837714975E-01   0.1613125915E-01   0.0000000000E+00  -0.1741842244E-02   0.0000000000E+00   0.0000000000E+00   0.5353777201E-03  -0.1381885778E-04  -0.4528789835E-04  -0.2235252267E-03   0.0000000000E+00   0.0000000000E+00   0.5230813243E-01
   0.2878659162E+00   0.0000000000E+00   0.9148055335E-04   0.0000000000E+00   0.2744416601E-03   0.0000000000E+00   0.5744961001E-01   0.1639953225E-01   0.0000000000E+00  -0.5761829844E-03   0.0000000000E+00   0.0000000000E+00   0.5252975033E-03  -0.8353507504E-05  -0.1498075759E-04  -0.2215474268E-03   0.0000000000E+00   0.0000000000E+00   0.5124850408E-01
   0.3087103911E+00   0.0000000000E+00   0.9426351416E-04   0.0000000000E+00   0.2827905425E-03   0.0000000000E+00   0.5932541303E-01   0.1708177652E-01   0.0000000000E+00  -0.3706730530E-03   0.0000000000E+00   0.0000000000E+00   0.5420088008E-03  -0.7158473918E-05  -0.9637499379E-05  -0.2292215686E-03   0.0000000000E+00   0.0000000000E+00   0.5289196845E-01
   0.3097649501E+00   0.1840609098E-01   0.9433151943E-04  -0.4058067522E-07   0.2829945583E-03  -0.1217420257E-06   0.6008811571E-01   0.1680661368E-01   0.0000000000E+00  -0.1127694845E-02   0.0000000000E+00   0.0000000000E+00   0.5504613160E-03  -0.1219821034E-04  -0.2932006597E-04  -0.2306841882E-03   0.0000000000E+00   0.0000000000E+00   0.5373170497E-01
   0.2124706953E+00   0.1636591654E+00   0.6587058204E-04  -0.7861648467E-05   0.1976117461E-03  -0.2358494540E-04   0.1048686501E+00  -0.3641283020E-02   0.0000000000E+00  -0.7045511775E-02   0.0000000000E+00   0.0000000000E+00   0.1059610350E-02  -0.3510187805E-03  -0.1831833061E-03  -0.3036821013E-03   0.0000000000E+00   0.0000000000E+00   0.1074212638E+00
   0.2165841309E+00   0.1467445653E+00   0.6891048186E-04  -0.6172413349E-05   0.2067314456E-03  -0.1851724005E-04   0.9810199705E-01  -0.3687692571E-02   0.0000000000E+00  -0.9642660429E-02   0.0000000000E+00   0.0000000000E+00   0.9920830482E-03  -0.3311829169E-03  -0.2507091711E-03  -0.2832429134E-03   0.0000000000E+00   0.0000000000E+00   0.1013535008E+00
   0.2312450475E+00   0.1467141350E+00   0.7251813074E-04  -0.5390745667E-05   0.2175543922E-03  -0.1617223700E-04   0.9706385696E-01  -0.1317989247E-02   0.0000000000E+00  -0.9045143156E-02   0.0000000000E+00   0.0000000000E+00   0.9745925373E-03  -0.3043714633E-03  -0.2351737221E-03  -0.2872376031E-03   0.0000000000E+00   0.0000000000E+00   0.9897077207E-01
   0.2324336474E+00   0.1630787549E+00   0.7113459479E-04  -0.6605018358E-05   0.2134037844E-03  -0.1981505507E-04   0.1025857370E+00  -0.1214551678E-02   0.0000000000E+00  -0.7201411493E-02   0.0000000000E+00   0.0000000000E+00   0.1029501025E-02  -0.3199027278E-03  -0.1872366988E-03  -0.3041135560E-03   0.0000000000E+00   0.0000000000E+00   0.1039464870E+00
   0.2281012799E+00   0.1845669483E-01   0.8395598345E-04  -0.9936692280E-07   0.2518679503E-03  -0.2981007684E-06   0.4799008625E-01   0.1159603716E-01   0.0000000000E+00  -0.4315897142E-02   0.0000000000E+00   0.0000000000E+00   0.4451127510E-03  -0.2800988718E-04  -0.1122133257E-03  -0.1787583702E-03   0.0000000000E+00   0.0000000000E+00   0.4407926522E-01
   0.2309519794E+00   0.3704706138E-01   0.8342411208E-04  -0.2758542324E-06   0.2502723363E-03  -0.8275626973E-06   0.5278695138E-01   0.1042065529E-01   0.0000000000E+00  -0.8712120385E-02   0.0000000000E+00   0.0000000000E+00   0.4966075479E-03  -0.5415430127E-04  -0.2265151300E-03  -0.1896228200E-03   0.0000000000E+00   0.0000000000E+00   0.5062561851E-01
   0.1836540286E+00   0.0000000000E+00   0.8017289214E-04   0.0000000000E+00   0.2405186764E-03   0.0000000000E+00   0.3096069365E-01   0.4474512767E-02   0.0000000000E+00  -0.2611392354E-02   0.0000000000E+00   0.0000000000E+00   0.2961833982E-03  -0.4813695329E-04  -0.6789620121E-04  -0.1063056193E-03   0.0000000000E+00   0.0000000000E+00   0.2903554987E-01
   0.2044942680E+00   0.0000000000E+00   0.8190049282E-04   0.0000000000E+00   0.2457014785E-03   0.0000000000E+00   0.3929635987E-01   0.9037605302E-02   0.0000000000E+00  -0.1960949904E-02   0.0000000000E+00   0.0000000000E+00   0.3658507828E-03  -0.2751302660E-04  -0.5098469750E-04  -0.1450018955E-03   0.0000000000E+00   0.0000000000E+00   0.3551493585E-01
   0.1419789169E+00   0.0000000000E+00   0.7806273548E-04   0.0000000000E+00   0.2341882064E-03   0.0000000000E+00   0.6304391089E-02  -0.1599411749E-01   0.0000000000E+00  -0.6272791978E-02   0.0000000000E+00   0.0000000000E+00   0.1110262634E-03  -0.1788543482E-03  -0.1630925914E-03   0.2906917922E-04   0.0000000000E+00   0.0000000000E+00   0.2215491573E-01
   0.1459777049E+00   0.2097825200E-01   0.7700522855E-04  -0.8273498823E-06   0.2310156856E-03  -0.2482049647E-05   0.1420579363E-01  -0.1314237658E-01   0.0000000000E+00  -0.9874300917E-02   0.0000000000E+00   0.0000000000E+00   0.1814850660E-03  -0.1740411467E-03  -0.2567318239E-03  -0.3190251150E-05   0.0000000000E+00   0.0000000000E+00   0.2978707422E-01
   0.3503999940E+00   0.2499565253E+00   0.1000000000E-03  -0.1086868525E-04   0.3000000000E-03  -0.3260605576E-04   0.1198841252E+00   0.3820786974E-03   0.0000000000E+00   0.3453453889E-03   0.0000000000E+00   0.0000000000E+00   0.1197695016E-02  -0.3558315887E-03   0.8978980111E-05  -0.3607986117E-03   0.0000000000E+00   0.0000000000E+00   0.1196949728E+00
   0.3309322495E+00   0.2499562189E+00   0.9417288591E-04  -0.1094527924E-04   0.2825186577E-03  -0.3283583773E-04   0.1202198013E+00   0.3854284560E-03   0.0000000000E+00  -0.2514031240E-03   0.0000000000E+00   0.0000000000E+00   0.1201041727E-02  -0.3568051193E-03  -0.6536481224E-05  -0.3618156892E-03   0.0000000000E+00   0.0000000000E+00   0.1200289236E+00
   0.3311662494E+00   0.2310096885E+00   0.9442411028E-04  -0.9269372719E-05   0.2832723308E-03  -0.2780811816E-04   0.1163233334E+00   0.2521900868E-03   0.0000000000E+00  -0.6000163486E-03   0.0000000000E+00   0.0000000000E+00   0.1162476763E-02  -0.3464480992E-03  -0.1560042506E-04  -0.3497265704E-03   0.0000000000E+00   0.0000000000E+00   0.1162029031E+00
   0.3503999940E+00   0.2307325321E+00   0.1000000000E-03  -0.9174980948E-05   0.3000000000E-03  -0.2752494285E-04   0.1160859403E+00   0.2867784052E-03   0.0000000000E+00   0.3201172555E-03   0.0000000000E+00   0.0000000000E+00   0.1159999068E-02  -0.3453900368E-03   0.8323048644E-05  -0.3491181561E-03   0.0000000000E+00   0.0000000000E+00   0.1159445663E+00
   0.2733292302E+00   0.2316234893E+00   0.7741206039E-04  -0.1050816389E-04   0.2322361812E-03  -0.3152449168E-04   0.1196593785E+00   0.3814496220E-05   0.0000000000E+00  -0.1617941462E-02   0.0000000000E+00   0.0000000000E+00   0.1196582341E-02  -0.3589399905E-03  -0.4206647801E-04  -0.3589895789E-03   0.0000000000E+00   0.0000000000E+00   0.1196953041E+00
   0.2925951074E+00   0.2314500317E+00   0.8313833859E-04  -0.9914081685E-05   0.2494150158E-03  -0.2974224506E-04   0.1182145783E+00   0.1170755915E-03   0.0000000000E+00  -0.1369867606E-02   0.0000000000E+00   0.0000000000E+00   0.1181794556E-02  -0.3534729790E-03  -0.3561655775E-04  -0.3549949617E-03   0.0000000000E+00   0.0000000000E+00   0.1181835273E+00
   0.2919962311E+00   0.2499536123E+00   0.8239353590E-04  -0.1159691782E-04   0.2471806077E-03  -0.3479075346E-04   0.1227412321E+00   0.4356399529E-03   0.0000000000E+00  -0.4125183422E-03   0.0000000000E+00   0.0000000000E+00   0.1226105401E-02  -0.3638672967E-03  -0.1072547690E-04  -0.3695306161E-03   0.0000000000E+00   0.0000000000E+00   0.1225246734E+00
   0.2725277701E+00   0.2499511418E+00   0.7638726341E-04  -0.1221453869E-04   0.2291617902E-03  -0.3664361606E-04   0.1247344351E+00   0.4809518835E-03   0.0000000000E+00  -0.4778941295E-03   0.0000000000E+00   0.0000000000E+00   0.1245901495E-02  -0.3693937864E-03  -0.1242524737E-04  -0.3756461609E-03   0.0000000000E+00   0.0000000000E+00   0.1244957115E+00
   0.3503999940E+00   0.1730579851E+00   0.1000000000E-03  -0.4735727678E-05   0.3000000000E-03  -0.1420718303E-04   0.1003450603E+00   0.3768886613E-02   0.0000000000E+00   0.2507738548E-03   0.0000000000E+00   0.0000000000E+00   0.9921439435E-03  -0.2633463149E-03   0.6520120225E-05  -0.3123418409E-03   0.0000000000E+00   0.0000000000E+00   0.9851165535E-01
   0.3311590351E+00   0.1732950898E+00   0.9522826733E-04  -0.4807041504E-05   0.2856848020E-03  -0.1442112451E-04   0.1004636763E+00   0.3617139431E-02   0.0000000000E+00  -0.1632982852E-02   0.0000000000E+00   0.0000000000E+00   0.9937853444E-03  -0.2652196345E-03  -0.4245755414E-04  -0.3122424471E-03   0.0000000000E+00   0.0000000000E+00   0.9873926747E-01
   0.3311518663E+00   0.1538329485E+00   0.9554456449E-04  -0.3600865664E-05   0.2866336935E-03  -0.1080259699E-04   0.9435639065E-01   0.5314613087E-02   0.0000000000E+00  -0.1861453920E-02   0.0000000000E+00   0.0000000000E+00   0.9276200672E-03  -0.2299230411E-03  -0.4839780193E-04  -0.2990130112E-03   0.0000000000E+00   0.0000000000E+00   0.9186196457E-01
   0.3503999940E+00   0.1538319486E+00   0.1000000000E-03  -0.3552845045E-05   0.3000000000E-03  -0.1065853514E-04   0.9426923630E-01   0.5454753309E-02   0.0000000000E+00   0.2219772063E-03   0.0000000000E+00   0.0000000000E+00   0.9263281031E-03  -0.2282601758E-03   0.5771407363E-05  -0.2991719688E-03   0.0000000000E+00   0.0000000000E+00   0.9165773680E-01
   0.3503999940E+00   0.1346052117E+00   0.1000000000E-03  -0.2544832685E-05   0.3000000000E-03  -0.7634498056E-05   0.8806937387E-01   0.7335867905E-02   0.0000000000E+00   0.1720890413E-03   0.0000000000E+00   0.0000000000E+00   0.8586861350E-03  -0.1908494426E-03   0.4474315075E-05  -0.2862157253E-03   0.0000000000E+00   0.0000000000E+00   0.8463152602E-01
   0.3503999940E+00   0.1153777384E+00   0.1000000000E-03  -0.1719395775E-05   0.3000000000E-03  -0.5158187324E-05   0.8196105993E-01   0.9341628443E-02   0.0000000000E+00   0.1324399886E-03   0.0000000000E+00   0.0000000000E+00   0.7915857140E-03  -0.1524668954E-03   0.3443439705E-05  -0.2739080651E-03   0.0000000000E+00   0.0000000000E+00   0.7770002752E-01
   0.3503999940E+00   0.9614953618E-01   0.1000000000E-03  -0.1077928826E-05   0.3000000000E-03  -0.3233786477E-05   0.7618877593E-01   0.1138898282E-01   0.0000000000E+00   0.8711805928E-04   0.0000000000E+00   0.0000000000E+00   0.7277208108E-03  -0.1146764996E-03   0.2265069541E-05  -0.2627332763E-03   0.0000000000E+00   0.0000000000E+00   0.7116622800E-01
   0.3503999940E+00   0.7692063055E-01   0.1000000000E-03  -0.6123112952E-06   0.3000000000E-03  -0.1836933886E-05   0.7101895176E-01   0.1334318713E-01   0.0000000000E+00   0.5107999157E-04   0.0000000000E+00   0.0000000000E+00   0.6701599562E-03  -0.7962498403E-04   0.1328079781E-05  -0.2530864167E-03   0.0000000000E+00   0.0000000000E+00   0.6536166888E-01
   0.3503999940E+00   0.5769109020E-01   0.1000000000E-03  -0.3044504355E-06   0.3000000000E-03  -0.9133513065E-06   0.6669563099E-01   0.1506626880E-01   0.0000000000E+00   0.2337307351E-04   0.0000000000E+00   0.0000000000E+00   0.6217575035E-03  -0.4942420496E-04   0.6076999114E-06  -0.2452856994E-03   0.0000000000E+00   0.0000000000E+00   0.6057164053E-01
   0.0000000000E+00   0.2498271231E+00   0.0000000000E+00  -0.4321922400E-04   0.0000000000E+00  -0.1296576720E-03   0.7078094806E-01  -0.1349557722E-02   0.0000000000E+00   0.2529700842E-02   0.0000000000E+00   0.0000000000E+00   0.7118581537E-03  -0.2258384214E-03   0.6577222190E-04  -0.2082941710E-03   0.0000000000E+00   0.0000000000E+00   0.7159489150E-01
   0.3762478073E-01   0.2160626391E+00   0.9435383102E-05  -0.3901022444E-04   0.2830614931E-04  -0.1170306733E-03   0.1038282513E+00   0.3589490948E-02   0.0000000000E+00   0.9144306610E-02   0.0000000000E+00   0.0000000000E+00   0.1027514041E-02  -0.2755898445E-03   0.2377519718E-03  -0.3222532269E-03   0.0000000000E+00   0.0000000000E+00   0.1032598504E+00
   0.3623275675E-01   0.1999524437E+00   0.9862313201E-05  -0.3806382529E-04   0.2958693960E-04  -0.1141914759E-03   0.1128354115E+00   0.7024385367E-02   0.0000000000E+00   0.1063862299E-01   0.0000000000E+00   0.0000000000E+00   0.1107280959E-02  -0.2682623809E-03   0.2766041978E-03  -0.3595793907E-03   0.0000000000E+00   0.0000000000E+00   0.1109854951E+00
   0.5564454662E-01   0.1984678687E+00   0.1540615401E-04  -0.3528882907E-04   0.4621846204E-04  -0.1058664872E-03   0.1160325931E+00   0.3950008589E-02   0.0000000000E+00   0.1410787950E-01   0.0000000000E+00   0.0000000000E+00   0.1148475905E-02  -0.3085976933E-03   0.3668048669E-03  -0.3599478050E-03   0.0000000000E+00   0.0000000000E+00   0.1167296539E+00
   0.5756575636E-01   0.2147803710E+00   0.1475406468E-04  -0.3624449171E-04   0.4426219405E-04  -0.1087334751E-03   0.1084019534E+00   0.1744922214E-02   0.0000000000E+00   0.1180082545E-01   0.0000000000E+00   0.0000000000E+00   0.1078784768E-02  -0.3077566382E-03   0.3068214617E-03  -0.3304406269E-03   0.0000000000E+00   0.0000000000E+00   0.1094442401E+00
   0.1782692332E-01   0.2002566034E+00   0.4813806206E-05  -0.3969240577E-04   0.1444141862E-04  -0.1190772173E-03   0.1115121426E+00   0.9388813310E-02   0.0000000000E+00   0.4944961879E-02   0.0000000000E+00   0.0000000000E+00   0.1086954986E-02  -0.2406482945E-03   0.1285690089E-03  -0.3627028676E-03   0.0000000000E+00   0.0000000000E+00   0.1075932007E+00
   0.5825170353E-01   0.2321683466E+00   0.1339390857E-04  -0.3743534535E-04   0.4018172572E-04  -0.1123060361E-03   0.9932746435E-01   0.1006687948E-02   0.0000000000E+00   0.6768531894E-02   0.0000000000E+00   0.0000000000E+00   0.9902545797E-03  -0.2879155136E-03   0.1759818292E-03  -0.3010024569E-03   0.0000000000E+00   0.0000000000E+00   0.9961277264E-01
   0.1557099259E+00   0.2499103696E+00   0.3859122364E-04  -0.2240760423E-04   0.1157736709E-03  -0.6722281270E-04   0.1295281871E+00   0.4003447903E-03   0.0000000000E+00   0.8271291178E-03   0.0000000000E+00   0.0000000000E+00   0.1294080837E-02  -0.3845811135E-03   0.2150535706E-04  -0.3897855958E-03   0.0000000000E+00   0.0000000000E+00   0.1293358076E+00
   0.1362406972E+00   0.2498982580E+00   0.3239678858E-04  -0.2543549050E-04   0.9719036575E-04  -0.7630647151E-04   0.1250876811E+00   0.1894541680E-03   0.0000000000E+00   0.1369857567E-02   0.0000000000E+00   0.0000000000E+00   0.1250308448E-02  -0.3733685015E-03   0.3561629674E-04  -0.3758314057E-03   0.0000000000E+00   0.0000000000E+00   0.1249929987E+00
   0.1751797663E+00   0.2499209712E+00   0.4494232407E-04  -0.1975719873E-04   0.1348269722E-03  -0.5927159619E-04   0.1316969570E+00   0.5201178660E-03   0.0000000000E+00   0.3535082255E-03   0.0000000000E+00   0.0000000000E+00   0.1315409216E-02  -0.3898896924E-03   0.9191213862E-05  -0.3966512246E-03   0.0000000000E+00   0.0000000000E+00   0.1314479081E+00
   0.1761137007E+00   0.2324243480E+00   0.4739093448E-04  -0.1794125539E-04   0.1421728034E-03  -0.5382376618E-04   0.1251719874E+00  -0.9908709113E-03   0.0000000000E+00   0.6312929442E-03   0.0000000000E+00   0.0000000000E+00   0.1254692487E-02  -0.3854246714E-03   0.1641361655E-04  -0.3725433496E-03   0.0000000000E+00   0.0000000000E+00   0.1256837083E+00
   0.2253358263E+00   0.0000000000E+00   0.8395808191E-04   0.0000000000E+00   0.2518742457E-03   0.0000000000E+00   0.4582992100E-01   0.1186033618E-01   0.0000000000E+00  -0.1478610187E-02   0.0000000000E+00   0.0000000000E+00   0.4227182015E-03  -0.1888640120E-04  -0.3844386487E-04  -0.1730707715E-03   0.0000000000E+00   0.0000000000E+00   0.4116259618E-01
   0.2461784582E+00   0.0000000000E+00   0.8628030067E-04   0.0000000000E+00   0.2588409020E-03   0.0000000000E+00   0.5088957191E-01   0.1391853660E-01   0.0000000000E+00  -0.1108642865E-02   0.0000000000E+00   0.0000000000E+00   0.4671401093E-03  -0.1348334977E-04  -0.2882471448E-04  -0.1944243255E-03   0.0000000000E+00   0.0000000000E+00   0.4552127318E-01
   0.2485917089E+00   0.1834213718E-01   0.8634173279E-04  -0.7267901072E-07   0.2590251984E-03  -0.2180370322E-06   0.5247816628E-01   0.1363596079E-01   0.0000000000E+00  -0.3284413631E-02   0.0000000000E+00   0.0000000000E+00   0.4838737804E-03  -0.2107489090E-04  -0.8539475440E-04  -0.1983423812E-03   0.0000000000E+00   0.0000000000E+00   0.4753712167E-01
   0.1967782649E+00   0.1994646555E+00   0.5742472998E-04  -0.1248186585E-04   0.1722741900E-03  -0.3744559754E-04   0.1161774107E+00  -0.3050675600E-02   0.0000000000E+00  -0.2132193588E-02   0.0000000000E+00   0.0000000000E+00   0.1170926134E-02  -0.3790389881E-03  -0.5543703329E-04  -0.3393802053E-03   0.0000000000E+00   0.0000000000E+00   0.1177915818E+00
   0.2158113521E+00   0.1983493819E+00   0.6305677502E-04  -0.1071878350E-04   0.1891703251E-03  -0.3215635051E-04   0.1143481803E+00  -0.1817336401E-02   0.0000000000E+00  -0.3539553614E-02   0.0000000000E+00   0.0000000000E+00   0.1148933812E-02  -0.3612179048E-03  -0.9202839396E-04  -0.3375925316E-03   0.0000000000E+00   0.0000000000E+00   0.1154304033E+00
   0.2157876950E+00   0.2150890704E+00   0.6141176059E-04  -0.1224439457E-04   0.1842352818E-03  -0.3673318371E-04   0.1190762725E+00  -0.9756006352E-03   0.0000000000E+00  -0.2369716691E-02   0.0000000000E+00   0.0000000000E+00   0.1193689526E-02  -0.3669848237E-03  -0.6161263397E-04  -0.3543020155E-03   0.0000000000E+00   0.0000000000E+00   0.1196422985E+00
   0.1964449516E+00   0.2155651817E+00   0.5556089056E-04  -0.1403508641E-04   0.1666826717E-03  -0.4210525923E-04   0.1203259345E+00  -0.1602180717E-02   0.0000000000E+00  -0.1074100496E-02   0.0000000000E+00   0.0000000000E+00   0.1208065887E-02  -0.3769996107E-03  -0.2792661289E-04  -0.3561712613E-03   0.0000000000E+00   0.0000000000E+00   0.1211544025E+00
   0.1176358461E+00   0.2323288665E+00   0.2949303427E-04  -0.2703336411E-04   0.8847910282E-04  -0.8110009232E-04   0.1172584610E+00  -0.1078598687E-02   0.0000000000E+00   0.5250587264E-02   0.0000000000E+00   0.0000000000E+00   0.1175820406E-02  -0.3625613699E-03   0.1365152689E-03  -0.3485395870E-03   0.0000000000E+00   0.0000000000E+00   0.1181777968E+00
   0.1190093657E+00   0.2151469635E+00   0.3218391309E-04  -0.2518562119E-04   0.9655173928E-04  -0.7555686358E-04   0.1183804181E+00  -0.2899801471E-02   0.0000000000E+00   0.8807139039E-02   0.0000000000E+00   0.0000000000E+00   0.1192503586E-02  -0.3841392690E-03   0.2289856150E-03  -0.3464418499E-03   0.0000000000E+00   0.0000000000E+00   0.1207768798E+00
   0.2141198483E+00   0.2499372941E+00   0.5774107983E-04  -0.1567647582E-04   0.1732232395E-03  -0.4702942747E-04   0.1310307967E+00   0.5946028047E-03   0.0000000000E+00  -0.2793563434E-03   0.0000000000E+00   0.0000000000E+00   0.1308524158E-02  -0.3871463619E-03  -0.7263264927E-05  -0.3948761984E-03   0.0000000000E+00   0.0000000000E+00   0.1307416327E+00
   0.1946498524E+00   0.2499299389E+00   0.5135110218E-04  -0.1751527602E-04   0.1540533066E-03  -0.5254582806E-04   0.1320370183E+00   0.5814147379E-03   0.0000000000E+00  -0.1609483924E-04   0.0000000000E+00   0.0000000000E+00   0.1318625939E-02  -0.3902969075E-03  -0.4184658203E-06  -0.3978552990E-03   0.0000000000E+00   0.0000000000E+00   0.1317567938E+00
   0.1956492294E+00   0.2323562337E+00   0.5352310967E-04  -0.1570632122E-04   0.1605693290E-03  -0.4711896366E-04   0.1251973996E+00  -0.7897603024E-03   0.0000000000E+00  -0.4368985745E-03   0.0000000000E+00   0.0000000000E+00   0.1254343277E-02  -0.3834898018E-03  -0.1135936294E-04  -0.3732229179E-03   0.0000000000E+00   0.0000000000E+00   0.1256046731E+00
   0.2151506434E+00   0.2322281721E+00   0.5962434494E-04  -0.1388846513E-04   0.1788730348E-03  -0.4166539539E-04   0.1243203725E+00  -0.5626720507E-03   0.0000000000E+00  -0.1173343861E-02   0.0000000000E+00   0.0000000000E+00   0.1244891742E-02  -0.3785878382E-03  -0.3050694040E-04  -0.3712731015E-03   0.0000000000E+00   0.0000000000E+00   0.1246268333E+00
   0.2345968320E+00   0.2319038308E+00   0.6566150025E-04  -0.1243630294E-04   0.1969845007E-03  -0.3730890882E-04   0.1229191224E+00  -0.3514189579E-03   0.0000000000E+00  -0.1586942858E-02   0.0000000000E+00   0.0000000000E+00   0.1230245481E-02  -0.3722715569E-03  -0.4126051431E-04  -0.3677031104E-03   0.0000000000E+00   0.0000000000E+00   0.1231332221E+00
   0.2539833439E+00   0.2317787643E+00   0.7158397292E-04  -0.1133393363E-04   0.2147519187E-03  -0.3400180089E-04   0.1212745887E+00  -0.1599427916E-03   0.0000000000E+00  -0.1717106392E-02   0.0000000000E+00   0.0000000000E+00   0.1213225715E-02  -0.3654231940E-03  -0.4464476620E-04  -0.3633439377E-03   0.0000000000E+00   0.0000000000E+00   0.1213975648E+00
   0.2530588961E+00   0.2499477151E+00   0.7027778630E-04  -0.1307121758E-04   0.2108333589E-03  -0.3921365274E-04   0.1269738367E+00   0.5314037978E-03   0.0000000000E+00  -0.4910672961E-03   0.0000000000E+00   0.0000000000E+00   0.1268144155E-02  -0.3756074720E-03  -0.1276774970E-04  -0.3825157214E-03   0.0000000000E+00   0.0000000000E+00   0.1267108546E+00
   0.2335895709E+00   0.2499431582E+00   0.6405923486E-04  -0.1421043871E-04   0.1921777046E-03  -0.4263131613E-04   0.1291897892E+00   0.5725574838E-03   0.0000000000E+00  -0.4321051239E-03   0.0000000000E+00   0.0000000000E+00   0.1290180219E-02  -0.3818437927E-03  -0.1123473322E-04  -0.3892870400E-03   0.0000000000E+00   0.0000000000E+00   0.1289083414E+00
   0.3114643771E+00   0.2499552693E+00   0.8831377352E-04  -0.1118267779E-04   0.2649413206E-03  -0.3354803336E-04   0.1211968964E+00   0.4010538034E-03   0.0000000000E+00  -0.2717676131E-03   0.0000000000E+00   0.0000000000E+00   0.1210765802E-02  -0.3595801511E-03  -0.7065957939E-05  -0.3647938505E-03   0.0000000000E+00   0.0000000000E+00   0.1209978009E+00
   0.3118577116E+00   0.2312341839E+00   0.8879889990E-04  -0.9509266283E-05   0.2663966997E-03  -0.2852779885E-04   0.1170786778E+00   0.2084647147E-03   0.0000000000E+00  -0.9553825531E-03   0.0000000000E+00   0.0000000000E+00   0.1170161384E-02  -0.3491513862E-03  -0.2483994638E-04  -0.3518614275E-03   0.0000000000E+00   0.0000000000E+00   0.1169897936E+00
   0.5573079179E-01   0.8304358540E-01   0.4344202196E-04  -0.2584352481E-04   0.1303260659E-03  -0.7753057444E-04   0.1432599008E+00   0.4876364461E-01   0.0000000000E+00  -0.7256476759E-01   0.0000000000E+00   0.0000000000E+00   0.1286308075E-02   0.5785674357E-04  -0.1886683957E-02  -0.5760706364E-03   0.0000000000E+00   0.0000000000E+00   0.1728616763E+00
   0.7209458587E-01   0.9405519499E-01   0.4116541761E-04  -0.2148080201E-04   0.1234962528E-03  -0.6444240602E-04   0.1149699047E+00  -0.2535220237E-02   0.0000000000E+00  -0.3027435718E-01   0.0000000000E+00   0.0000000000E+00   0.1157304707E-02  -0.3702619164E-03  -0.7871332867E-03  -0.3373040533E-03   0.0000000000E+00   0.0000000000E+00   0.1271450223E+00
   0.6211739561E-01   0.1068860852E+00   0.3232192675E-04  -0.2558068784E-04   0.9696578025E-04  -0.7674206351E-04   0.1396819357E+00   0.1536934180E-02   0.0000000000E+00  -0.1826889189E-01   0.0000000000E+00   0.0000000000E+00   0.1392208555E-02  -0.4036764654E-03  -0.4749911891E-03  -0.4236566098E-03   0.0000000000E+00   0.0000000000E+00   0.1408919979E+00
   0.3838637368E-01   0.9226748583E-01   0.2950777079E-04  -0.3011651786E-04   0.8852331236E-04  -0.9034955359E-04   0.2093961402E+00   0.3597675518E-01   0.0000000000E+00  -0.5453403001E-01   0.0000000000E+00   0.0000000000E+00   0.1986031136E-02  -0.2684208687E-03  -0.1417884780E-02  -0.7361186860E-03   0.0000000000E+00   0.0000000000E+00   0.2126035809E+00
   0.0000000000E+00   0.1998392091E+00   0.0000000000E+00  -0.4019847649E-04   0.0000000000E+00  -0.1205954295E-03   0.1109271517E+00   0.1020775930E-01   0.0000000000E+00   0.2661220588E-02   0.0000000000E+00   0.0000000000E+00   0.1078648239E-02  -0.2307038622E-03   0.6919173529E-04  -0.3634047330E-03   0.0000000000E+00   0.0000000000E+00   0.1061999625E+00
   0.0000000000E+00   0.1831762035E+00   0.0000000000E+00  -0.3928337785E-04   0.0000000000E+00  -0.1178501335E-03   0.1211831418E+00   0.1595537928E-01   0.0000000000E+00   0.2809983544E-02   0.0000000000E+00   0.0000000000E+00   0.1163965280E-02  -0.2039956324E-03   0.7305957213E-04  -0.4114155631E-03   0.0000000000E+00   0.0000000000E+00   0.1140570195E+00
   0.3657821612E-01   0.1167381218E+00   0.1789455522E-04  -0.3232355351E-04   0.5368366565E-04  -0.9697066054E-04   0.1889432129E+00   0.2495171111E-01   0.0000000000E+00  -0.1990489962E-01   0.0000000000E+00   0.0000000000E+00   0.1814576996E-02  -0.3173125276E-03  -0.5175273900E-03  -0.6416847721E-03   0.0000000000E+00   0.0000000000E+00   0.1830509696E+00
   0.2670219010E+00   0.0000000000E+00   0.8880500343E-04   0.0000000000E+00   0.2664150103E-03   0.0000000000E+00   0.5468345182E-01   0.1536994343E-01   0.0000000000E+00  -0.8214518766E-03   0.0000000000E+00   0.0000000000E+00   0.5007246879E-03  -0.1035092120E-04  -0.2135774879E-04  -0.2101601857E-03   0.0000000000E+00   0.0000000000E+00   0.4883242905E-01
   0.2689814946E+00   0.1829128492E-01   0.8888740044E-04  -0.5641924454E-07   0.2666622013E-03  -0.1692577336E-06   0.5588062311E-01   0.1510345034E-01   0.0000000000E+00  -0.2446168363E-02   0.0000000000E+00   0.0000000000E+00   0.5134958801E-03  -0.1660736591E-04  -0.6360037743E-04  -0.2129522204E-03   0.0000000000E+00   0.0000000000E+00   0.5026227789E-01
   0.2368496888E+00   0.7431180636E-01   0.8132145904E-04  -0.1097434428E-05   0.2439643771E-03  -0.3292303284E-05   0.6698984316E-01   0.6506629529E-02   0.0000000000E+00  -0.1240623537E-01   0.0000000000E+00   0.0000000000E+00   0.6503785430E-03  -0.1359032342E-03  -0.3225621196E-03  -0.2204894181E-03   0.0000000000E+00   0.0000000000E+00   0.6746560632E-01
   0.2555541667E+00   0.7383434526E-01   0.8439942041E-04  -0.8864840720E-06   0.2531982612E-03  -0.2659452216E-05   0.6773149031E-01   0.9004878959E-02   0.0000000000E+00  -0.9919283655E-02   0.0000000000E+00   0.0000000000E+00   0.6503002662E-03  -0.1131456813E-03  -0.2579013750E-03  -0.2302091078E-03   0.0000000000E+00   0.0000000000E+00   0.6595826131E-01
   0.3107124152E+00   0.3712644878E-01   0.9423954925E-04  -0.1283310338E-06   0.2827186477E-03  -0.3849931015E-06   0.6225628952E-01   0.1596455965E-01   0.0000000000E+00  -0.2342991451E-02   0.0000000000E+00   0.0000000000E+00   0.5746692163E-03  -0.2712327210E-04  -0.6091777773E-04  -0.2346625475E-03   0.0000000000E+00   0.0000000000E+00   0.5614109718E-01
   0.2908057744E+00   0.3677667001E-01   0.9141560164E-04  -0.1423234057E-06   0.2742468049E-03  -0.4269702172E-06   0.6082740493E-01   0.1526060006E-01   0.0000000000E+00  -0.3605727754E-02   0.0000000000E+00   0.0000000000E+00   0.5624922491E-03  -0.2987621421E-04  -0.9374892160E-04  -0.2282640150E-03   0.0000000000E+00   0.0000000000E+00   0.5514725857E-01
   0.3503999940E+00   0.2115081926E+00   0.1000000000E-03  -0.7567848025E-05   0.3000000000E-03  -0.2270354408E-04   0.1114754982E+00   0.1178253933E-02   0.0000000000E+00   0.2993113851E-03   0.0000000000E+00   0.0000000000E+00   0.1111220220E-02  -0.3226439553E-03   0.7782096012E-05  -0.3379612564E-03   0.0000000000E+00   0.0000000000E+00   0.1108915700E+00
   0.3312871817E+00   0.2119501865E+00   0.9469092110E-04  -0.7669373064E-05   0.2840727633E-03  -0.2300811919E-04   0.1116673017E+00   0.1098585469E-02   0.0000000000E+00  -0.1057761854E-02   0.0000000000E+00   0.0000000000E+00   0.1113377261E-02  -0.3240160504E-03  -0.2750180821E-04  -0.3382976615E-03   0.0000000000E+00   0.0000000000E+00   0.1111352467E+00
   0.3312228106E+00   0.1926769551E+00   0.9494488858E-04  -0.6170726622E-05   0.2848346657E-03  -0.1851217987E-04   0.1062848004E+00   0.2183835345E-02   0.0000000000E+00  -0.1366926325E-02   0.0000000000E+00   0.0000000000E+00   0.1056296498E-02  -0.2970160477E-03  -0.3554008446E-04  -0.3254059071E-03   0.0000000000E+00   0.0000000000E+00   0.1052330821E+00
   0.3503999940E+00   0.1922833757E+00   0.1000000000E-03  -0.6080064966E-05   0.3000000000E-03  -0.1824019490E-04   0.1061372440E+00   0.2312683941E-02   0.0000000000E+00   0.2807432363E-03   0.0000000000E+00   0.0000000000E+00   0.1054434388E-02  -0.2952848926E-03   0.7299324144E-05  -0.3253497839E-03   0.0000000000E+00   0.0000000000E+00   0.1049992353E+00
   0.2928984639E+00   0.2126508695E+00   0.8392773261E-04  -0.8295115917E-05   0.2517831978E-03  -0.2488534775E-04   0.1132545890E+00   0.7710849208E-03   0.0000000000E+00  -0.2606110887E-02   0.0000000000E+00   0.0000000000E+00   0.1130232636E-02  -0.3320529179E-03  -0.6775888306E-04  -0.3420770219E-03   0.0000000000E+00   0.0000000000E+00   0.1129603086E+00
   0.2738178915E+00   0.2131078573E+00   0.7849061712E-04  -0.8876686335E-05   0.2354718514E-03  -0.2663005901E-04   0.1145174296E+00   0.4580405831E-03   0.0000000000E+00  -0.3117515923E-02   0.0000000000E+00   0.0000000000E+00   0.1143800174E-02  -0.3389718828E-03  -0.8105541401E-04  -0.3449264104E-03   0.0000000000E+00   0.0000000000E+00   0.1144157523E+00
   0.2736735887E+00   0.1942431782E+00   0.7951868220E-04  -0.7331209604E-05   0.2385560466E-03  -0.2199362881E-04   0.1089331367E+00   0.9652476668E-03   0.0000000000E+00  -0.4176494624E-02   0.0000000000E+00   0.0000000000E+00   0.1086435624E-02  -0.3171469333E-03  -0.1085888602E-03  -0.3296951530E-03   0.0000000000E+00   0.0000000000E+00   0.1086967404E+00
   0.2927577483E+00   0.1934197607E+00   0.8470531593E-04  -0.6756086725E-05   0.2541159478E-03  -0.2026826017E-04   0.1077559596E+00   0.1458589518E-02   0.0000000000E+00  -0.3507500473E-02   0.0000000000E+00   0.0000000000E+00   0.1073183828E-02  -0.3086819837E-03  -0.9119501230E-04  -0.3276436474E-03   0.0000000000E+00   0.0000000000E+00   0.1072050509E+00
   0.1947136576E+00   0.5816548797E-01   0.7676090656E-04  -0.1157358415E-05   0.2302827197E-03  -0.3472075245E-05   0.5563357845E-01   0.1167148790E-02   0.0000000000E+00  -0.1749958484E-01   0.0000000000E+00   0.0000000000E+00   0.5528343381E-03  -0.1552292474E-03  -0.4549892059E-03  -0.1704021817E-03   0.0000000000E+00   0.0000000000E+00   0.6278281567E-01
   0.2144125794E+00   0.5661036909E-01   0.7967510152E-04  -0.8035031991E-06   0.2390253045E-03  -0.2410509597E-05   0.5732237349E-01   0.5271566219E-02   0.0000000000E+00  -0.1408974545E-01   0.0000000000E+00   0.0000000000E+00   0.5574090362E-03  -0.1192514583E-03  -0.3663333818E-03  -0.1877818191E-03   0.0000000000E+00   0.0000000000E+00   0.6006204551E-01
   0.7329616385E-01   0.1304909675E+00   0.2929863793E-04  -0.2527386271E-04   0.8789591378E-04  -0.7582158813E-04   0.1422380577E+00  -0.5236575591E-02   0.0000000000E+00   0.3104577766E-02   0.0000000000E+00   0.0000000000E+00   0.1438090304E-02  -0.4790799289E-03   0.8071902191E-04  -0.4110044463E-03   0.0000000000E+00   0.0000000000E+00   0.1449020596E+00
   0.5558605119E-01   0.1223606403E+00   0.2460739718E-04  -0.2870491898E-04   0.7382219154E-04  -0.8611475693E-04   0.1645620514E+00   0.1093288143E-01   0.0000000000E+00  -0.5054747916E-02   0.0000000000E+00   0.0000000000E+00   0.1612821870E-02  -0.3843573400E-03  -0.1314234458E-03  -0.5264847986E-03   0.0000000000E+00   0.0000000000E+00   0.1592449910E+00
   0.8091898116E-01   0.1171893389E+00   0.3544018882E-04  -0.2168703484E-04   0.1063205665E-03  -0.6506110451E-04   0.1363524548E+00  -0.9464525551E-02   0.0000000000E+00  -0.5698983040E-02   0.0000000000E+00   0.0000000000E+00   0.1391918125E-02  -0.5037026199E-03  -0.1481735590E-03  -0.3806637877E-03   0.0000000000E+00   0.0000000000E+00   0.1415453713E+00
   0.5837852752E-01   0.2498454147E+00   0.1129848072E-04  -0.3864632041E-04   0.3389544216E-04  -0.1159389612E-03   0.8859073353E-01  -0.8749831222E-03   0.0000000000E+00   0.2366590808E-02   0.0000000000E+00   0.0000000000E+00   0.8885322847E-03  -0.2745220318E-03   0.6153136101E-04  -0.2631472512E-03   0.0000000000E+00   0.0000000000E+00   0.8904758477E-01
   0.7827102129E-01   0.2132901843E+00   0.2059087172E-04  -0.3261142629E-04   0.6177261517E-04  -0.9783427886E-04   0.1119800741E+00  -0.2986498757E-03   0.0000000000E+00   0.1279559124E-01   0.0000000000E+00   0.0000000000E+00   0.1120696691E-02  -0.3389267211E-03   0.3326853723E-03  -0.3350442727E-03   0.0000000000E+00   0.0000000000E+00   0.1142381459E+00
   0.7808609662E-01   0.1933107612E+00   0.2239920479E-04  -0.3090295616E-04   0.6719761438E-04  -0.9270886848E-04   0.1198308998E+00  -0.7928627421E-03   0.0000000000E+00   0.1508211449E-01   0.0000000000E+00   0.0000000000E+00   0.1200687586E-02  -0.3674213267E-03   0.3921349769E-03  -0.3571141111E-03   0.0000000000E+00   0.0000000000E+00   0.1230318202E+00
   0.1769549948E+00   0.2157346548E+00   0.4963819535E-04  -0.1623629999E-04   0.1489145860E-03  -0.4870889996E-04   0.1210083296E+00  -0.2186785580E-02   0.0000000000E+00   0.8015847710E-03   0.0000000000E+00   0.0000000000E+00   0.1216643652E-02  -0.3848928445E-03   0.2084120405E-04  -0.3564646319E-03   0.0000000000E+00   0.0000000000E+00   0.1221267894E+00
   0.3118735096E+00   0.1537147468E+00   0.9107189544E-04  -0.3740042275E-05   0.2732156863E-03  -0.1122012683E-04   0.9464917243E-01   0.4840627768E-02   0.0000000000E+00  -0.3506050969E-02   0.0000000000E+00   0.0000000000E+00   0.9319698410E-03  -0.2355412396E-03  -0.9115732520E-04  -0.2984694006E-03   0.0000000000E+00   0.0000000000E+00   0.9252166423E-01
   0.3118583946E+00   0.1734181682E+00   0.9042240577E-04  -0.4987196300E-05   0.2712672173E-03  -0.1496158890E-04   0.1008977695E+00   0.3269105189E-02   0.0000000000E+00  -0.3054206520E-02   0.0000000000E+00   0.0000000000E+00   0.9991703790E-03  -0.2700022565E-03  -0.7940936953E-04  -0.3125006239E-03   0.0000000000E+00   0.0000000000E+00   0.9944244187E-01
   0.1167725681E+00   0.2498849801E+00   0.2647527911E-04  -0.2875496312E-04   0.7942583733E-04  -0.8626488935E-04   0.1182044488E+00  -0.5781195911E-04   0.0000000000E+00   0.1928791019E-02   0.0000000000E+00   0.0000000000E+00   0.1182217924E-02  -0.3551914661E-03   0.5014856650E-04  -0.3544399106E-03   0.0000000000E+00   0.0000000000E+00   0.1182207663E+00
   0.7093086416E-01   0.7062515821E-01   0.5504569043E-04  -0.2138079808E-04   0.1651370713E-03  -0.6414239423E-04   0.5653338846E-01   0.2848418827E-01   0.0000000000E+00  -0.3663561419E-01   0.0000000000E+00   0.0000000000E+00   0.4798813198E-03   0.1152417173E-03  -0.9525259689E-03  -0.2550527302E-03   0.0000000000E+00   0.0000000000E+00   0.7441385283E-01
   0.8409975547E-01   0.7959848786E-01   0.5169976838E-04  -0.1662003463E-04   0.1550993051E-03  -0.4986010390E-04   0.7718398255E-01  -0.2785305244E-02   0.0000000000E+00  -0.3083776754E-01   0.0000000000E+00   0.0000000000E+00   0.7801957412E-03  -0.2594050001E-03  -0.8017819560E-03  -0.2231960319E-03   0.0000000000E+00   0.0000000000E+00   0.9559135264E-01
   0.2352073866E+00   0.2142678296E+00   0.6723214812E-04  -0.1079358833E-04   0.2016964444E-03  -0.3238076498E-04   0.1175455482E+00  -0.4192734767E-03   0.0000000000E+00  -0.3064867441E-02   0.0000000000E+00   0.0000000000E+00   0.1176713303E-02  -0.3568293795E-03  -0.7968655346E-04  -0.3513788243E-03   0.0000000000E+00   0.0000000000E+00   0.1178775004E+00
   0.1776460440E+00   0.1998550581E+00   0.5173751222E-04  -0.1460722932E-04   0.1552125367E-03  -0.4382168797E-04   0.1177519443E+00  -0.4126537069E-02   0.0000000000E+00   0.9960675194E-05   0.0000000000E+00   0.0000000000E+00   0.1189899055E-02  -0.3945212037E-03   0.2589775550E-06  -0.3408762218E-03   0.0000000000E+00   0.0000000000E+00   0.1198653027E+00
   0.1587079833E+00   0.1997190552E+00   0.4609107313E-04  -0.1709570653E-04   0.1382732194E-03  -0.5128711958E-04   0.1188668294E+00  -0.5027673388E-02   0.0000000000E+00   0.2744666966E-02   0.0000000000E+00   0.0000000000E+00   0.1203751315E-02  -0.4068772222E-03   0.7136134111E-04  -0.3415174682E-03   0.0000000000E+00   0.0000000000E+00   0.1215437450E+00
   0.1598753273E+00   0.1838498916E+00   0.4846833163E-04  -0.1527984993E-04   0.1454049949E-03  -0.4583954980E-04   0.1170476472E+00  -0.7613996648E-02   0.0000000000E+00   0.1248214889E-02   0.0000000000E+00   0.0000000000E+00   0.1193318461E-02  -0.4272829079E-03   0.3245358710E-04  -0.3283009515E-03   0.0000000000E+00   0.0000000000E+00   0.1210366446E+00
   0.1780269830E+00   0.1845352049E+00   0.5373199084E-04  -0.1303502965E-04   0.1611959725E-03  -0.3910508894E-04   0.1149349011E+00  -0.5993300066E-02   0.0000000000E+00  -0.1478451518E-02   0.0000000000E+00   0.0000000000E+00   0.1167328911E-02  -0.4047377039E-03  -0.3843973946E-04  -0.3268248031E-03   0.0000000000E+00   0.0000000000E+00   0.1180622877E+00
   0.2545904618E+00   0.2136795782E+00   0.7292869793E-04  -0.9694212198E-05   0.2187860938E-03  -0.2908263659E-04   0.1159470519E+00   0.3943169372E-04   0.0000000000E+00  -0.3292859692E-02   0.0000000000E+00   0.0000000000E+00   0.1159352224E-02  -0.3474468386E-03  -0.8561435200E-04  -0.3479594507E-03   0.0000000000E+00   0.0000000000E+00   0.1160670657E+00
   0.3120687899E+00   0.2123009164E+00   0.8932498464E-04  -0.7903893900E-05   0.2679749539E-03  -0.2371168170E-04   0.1123240705E+00   0.9668549987E-03   0.0000000000E+00  -0.1846750557E-02   0.0000000000E+00   0.0000000000E+00   0.1120340140E-02  -0.3273036615E-03  -0.4801551447E-04  -0.3398727765E-03   0.0000000000E+00   0.0000000000E+00   0.1118900479E+00
   0.3120247891E+00   0.1930076170E+00   0.8985828391E-04  -0.6385507111E-05   0.2695748517E-03  -0.1915652133E-04   0.1068768953E+00   0.1951151370E-02   0.0000000000E+00  -0.2480334415E-02   0.0000000000E+00   0.0000000000E+00   0.1062915499E-02  -0.3011191722E-03  -0.6448869479E-04  -0.3264841400E-03   0.0000000000E+00   0.0000000000E+00   0.1060037284E+00
   0.6719100464E-01   0.1439584784E+00   0.2452356068E-04  -0.2821564280E-04   0.7357068205E-04  -0.8464692839E-04   0.1423989388E+00   0.8406676178E-03   0.0000000000E+00   0.9802547815E-02   0.0000000000E+00   0.0000000000E+00   0.1421467385E-02  -0.4187901403E-03   0.2548662432E-03  -0.4297188194E-03   0.0000000000E+00   0.0000000000E+00   0.1429556108E+00
   0.6220129607E-01   0.1545181049E+00   0.2130611710E-04  -0.3033326792E-04   0.6391835131E-04  -0.9099980377E-04   0.1396608350E+00   0.3078902126E-02   0.0000000000E+00   0.1244006593E-01   0.0000000000E+00   0.0000000000E+00   0.1387371644E-02  -0.3881934839E-03   0.3234417141E-03  -0.4282192115E-03   0.0000000000E+00   0.0000000000E+00   0.1397229495E+00
   0.1528351516E+00   0.3950990291E-01   0.7481638904E-04  -0.1453971864E-05   0.2244491671E-03  -0.4361915592E-05   0.3324227144E-01  -0.1021100000E-01   0.0000000000E+00  -0.2097772588E-01   0.0000000000E+00   0.0000000000E+00   0.3630557144E-03  -0.2018368143E-03  -0.5454208729E-03  -0.6909381432E-04   0.0000000000E+00   0.0000000000E+00   0.5310918115E-01
   0.1356405465E+00   0.4588702928E-01   0.7183838343E-04  -0.2927479599E-05   0.2155151503E-03  -0.8782438798E-05   0.3317295977E-01  -0.1998760289E-01   0.0000000000E+00  -0.2745906402E-01   0.0000000000E+00   0.0000000000E+00   0.3916924064E-03  -0.2993949082E-03  -0.7139356645E-03  -0.3955607062E-04   0.0000000000E+00   0.0000000000E+00   0.6468464185E-01
   0.1628154374E+00   0.0000000000E+00   0.7886084245E-04   0.0000000000E+00   0.2365825273E-03   0.0000000000E+00   0.2011555322E-01  -0.1643464686E-02   0.0000000000E+00  -0.3610865768E-02   0.0000000000E+00   0.0000000000E+00   0.2060859263E-03  -0.7678130654E-04  -0.9388250996E-04  -0.5541626561E-04   0.0000000000E+00   0.0000000000E+00   0.2064350815E-01
   0.1667432865E+00   0.1949712635E-01   0.7833362562E-04  -0.4074617144E-06   0.2350008769E-03  -0.1222385143E-05   0.2675749640E-01  -0.1817355058E-02   0.0000000000E+00  -0.8841163145E-02   0.0000000000E+00   0.0000000000E+00   0.2730270292E-03  -0.9844603979E-04  -0.2298702418E-03  -0.7482042404E-04   0.0000000000E+00   0.0000000000E+00   0.3194322564E-01
   0.2757877754E+00   0.9271899394E-01   0.8659185802E-04  -0.1291364420E-05   0.2597755741E-03  -0.3874093259E-05   0.7477810526E-01   0.8786980594E-02   0.0000000000E+00  -0.8089542921E-02   0.0000000000E+00   0.0000000000E+00   0.7214201108E-03  -0.1364645098E-03  -0.2103281160E-03  -0.2506952576E-03   0.0000000000E+00   0.0000000000E+00   0.7215091239E-01
   0.2939869249E+00   0.9348591699E-01   0.8983371345E-04  -0.1172753729E-05   0.2695011404E-03  -0.3518261186E-05   0.7525765380E-01   0.1002475952E-01   0.0000000000E+00  -0.6025995134E-02   0.0000000000E+00   0.0000000000E+00   0.7225022594E-03  -0.1255253662E-03  -0.1566758735E-03  -0.2558472400E-03   0.0000000000E+00   0.0000000000E+00   0.7153124551E-01
   0.2941255002E+00   0.1128413165E+00   0.8894580493E-04  -0.1873616552E-05   0.2668374148E-03  -0.5620849657E-05   0.8143924744E-01   0.7997545832E-02   0.0000000000E+00  -0.6042889377E-02   0.0000000000E+00   0.0000000000E+00   0.7903998369E-03  -0.1643422840E-03  -0.1571151238E-03  -0.2683103798E-03   0.0000000000E+00   0.0000000000E+00   0.7843614913E-01
   0.2762458481E+00   0.1113664851E+00   0.8549177317E-04  -0.2016228971E-05   0.2564753195E-03  -0.6048686912E-05   0.8132646806E-01   0.6745820642E-02   0.0000000000E+00  -0.7876455371E-02   0.0000000000E+00   0.0000000000E+00   0.7930272187E-03  -0.1765211978E-03  -0.2047878396E-03  -0.2642168661E-03   0.0000000000E+00   0.0000000000E+00   0.7934550463E-01
   0.2932371735E+00   0.7443598081E-01   0.9053062404E-04  -0.6701214141E-06   0.2715918721E-03  -0.2010364242E-05   0.6954168652E-01   0.1207222613E-01   0.0000000000E+00  -0.5661843597E-02   0.0000000000E+00   0.0000000000E+00   0.6592001868E-03  -0.8790279826E-04  -0.1472079335E-03  -0.2448417380E-03   0.0000000000E+00   0.0000000000E+00   0.6508518688E-01
   0.1713956499E+00   0.3887863643E-01   0.7665298276E-04  -0.8982681176E-06   0.2299589483E-03  -0.2694804353E-05   0.3665888342E-01  -0.2608882793E-02   0.0000000000E+00  -0.1816813977E-01   0.0000000000E+00   0.0000000000E+00   0.3744154825E-03  -0.1360654782E-03  -0.4723716340E-03  -0.1021500019E-03   0.0000000000E+00   0.0000000000E+00   0.4909670578E-01
   0.2933157614E+00   0.1327381566E+00   0.8778860259E-04  -0.2801853295E-05   0.2633658078E-03  -0.8405559884E-05   0.8823814799E-01   0.5735919829E-02   0.0000000000E+00  -0.5790455624E-02   0.0000000000E+00   0.0000000000E+00   0.8651737204E-03  -0.2073552457E-03  -0.1505518462E-03  -0.2819222035E-03   0.0000000000E+00   0.0000000000E+00   0.8609293242E-01
   0.5197655216E-01   0.1832297728E+00   0.1537006482E-04  -0.3467904239E-04   0.4611019446E-04  -0.1040371272E-03   0.1235476863E+00   0.5902090544E-02   0.0000000000E+00   0.1432521249E-01   0.0000000000E+00   0.0000000000E+00   0.1217770591E-02  -0.3116221535E-03   0.3724555247E-03  -0.3883493305E-03   0.0000000000E+00   0.0000000000E+00   0.1232603164E+00
   0.5048434435E-01   0.1684568772E+00   0.1599453814E-04  -0.3378969771E-04   0.4798361441E-04  -0.1013690931E-03   0.1316422704E+00   0.9026198630E-02   0.0000000000E+00   0.1478936065E-01   0.0000000000E+00   0.0000000000E+00   0.1289344108E-02  -0.3046648250E-03   0.3845233769E-03  -0.4220054072E-03   0.0000000000E+00   0.0000000000E+00   0.1299080742E+00
   0.2921040314E+00   0.5550447683E-01   0.9105985715E-04  -0.3366178336E-06   0.2731795714E-03  -0.1009853501E-05   0.6463414539E-01   0.1384919797E-01   0.0000000000E+00  -0.4823930531E-02   0.0000000000E+00   0.0000000000E+00   0.6047938600E-03  -0.5541045650E-04  -0.1254221938E-03  -0.2354500301E-03   0.0000000000E+00   0.0000000000E+00   0.5951900583E-01
   0.2920111269E+00   0.1532782178E+00   0.8645272272E-04  -0.3985792490E-05   0.2593581682E-03  -0.1195737747E-04   0.9502438961E-01   0.4133131670E-02   0.0000000000E+00  -0.5136309330E-02   0.0000000000E+00   0.0000000000E+00   0.9378445010E-03  -0.2437418521E-03  -0.1335440426E-03  -0.2974725638E-03   0.0000000000E+00   0.0000000000E+00   0.9343887972E-01
   0.2709212331E+00   0.3669186543E-01   0.8866253081E-04  -0.1679935044E-06   0.2659875924E-03  -0.5039805132E-06   0.5881245959E-01   0.1416916072E-01   0.0000000000E+00  -0.5024514741E-02   0.0000000000E+00   0.0000000000E+00   0.5456171137E-03  -0.3474577156E-04  -0.1306373833E-03  -0.2189448609E-03   0.0000000000E+00   0.0000000000E+00   0.5383486038E-01
   0.2510339164E+00   0.3681340323E-01   0.8599810729E-04  -0.2098423046E-06   0.2579943219E-03  -0.6295269138E-06   0.5613712904E-01   0.1261547465E-01   0.0000000000E+00  -0.6693253198E-02   0.0000000000E+00   0.0000000000E+00   0.5235248665E-03  -0.4225664064E-04  -0.1740245832E-03  -0.2062578111E-03   0.0000000000E+00   0.0000000000E+00   0.5225578787E-01
   0.2338649906E+00   0.5569779051E-01   0.8249214562E-04  -0.5971718062E-06   0.2474764369E-03  -0.1791515419E-05   0.5938339057E-01   0.8624686934E-02   0.0000000000E+00  -0.1117542672E-01   0.0000000000E+00   0.0000000000E+00   0.5679598449E-03  -0.9190330237E-04  -0.2905610948E-03  -0.2040242325E-03   0.0000000000E+00   0.0000000000E+00   0.5882915000E-01
   0.2533786172E+00   0.5532559819E-01   0.8532105636E-04  -0.4682784131E-06   0.2559631691E-03  -0.1404835239E-05   0.6140598624E-01   0.1096321185E-01   0.0000000000E+00  -0.8717979955E-02   0.0000000000E+00   0.0000000000E+00   0.5811702268E-03  -0.7458584017E-04  -0.2266674788E-03  -0.2171075943E-03   0.0000000000E+00   0.0000000000E+00   0.5868659680E-01
   0.2351403908E+00   0.1970174210E+00   0.6867395333E-04  -0.9282253084E-05   0.2060218600E-03  -0.2784675925E-04   0.1124372288E+00  -0.8453440004E-03   0.0000000000E+00  -0.4322179725E-02   0.0000000000E+00   0.0000000000E+00   0.1126908320E-02  -0.3457651263E-03  -0.1123766729E-03  -0.3347756543E-03   0.0000000000E+00   0.0000000000E+00   0.1131132981E+00
   0.2545176714E+00   0.1956424850E+00   0.7418461132E-04  -0.8166250899E-05   0.2225538340E-03  -0.2449875270E-04   0.1105685196E+00   0.6621137018E-04   0.0000000000E+00  -0.4549934805E-02   0.0000000000E+00   0.0000000000E+00   0.1105486562E-02  -0.3310434450E-03  -0.1182983049E-03  -0.3319041928E-03   0.0000000000E+00   0.0000000000E+00   0.1108188967E+00
   0.1598439087E+00   0.7268253408E-01   0.6887367324E-04  -0.3280879045E-05   0.2066210197E-03  -0.9842637135E-05   0.6410247265E-01  -0.1262023888E-01   0.0000000000E+00  -0.2483095219E-01   0.0000000000E+00   0.0000000000E+00   0.6788854432E-03  -0.3185098068E-03  -0.6456047569E-03  -0.1544467013E-03   0.0000000000E+00   0.0000000000E+00   0.8309065907E-01
   0.1740309523E+00   0.6065464432E-01   0.7350556963E-04  -0.1768468923E-05   0.2205167089E-03  -0.5305406769E-05   0.5483507915E-01  -0.5662807419E-02   0.0000000000E+00  -0.2207906190E-01   0.0000000000E+00   0.0000000000E+00   0.5653392137E-03  -0.2211333116E-03  -0.5740556095E-03  -0.1475168152E-03   0.0000000000E+00   0.0000000000E+00   0.6935819190E-01
   0.1844047010E+00   0.8232823140E-01   0.7130200213E-04  -0.2769450119E-05   0.2139060064E-03  -0.8308350358E-05   0.7185503795E-01  -0.6471964442E-02   0.0000000000E+00  -0.2088790407E-01   0.0000000000E+00   0.0000000000E+00   0.7379662728E-03  -0.2802847583E-03  -0.5430855059E-03  -0.1961492205E-03   0.0000000000E+00   0.0000000000E+00   0.8344354473E-01
   0.1696686598E+00   0.8993776642E-01   0.6704043776E-04  -0.4128244575E-05   0.2011213133E-03  -0.1238473373E-04   0.7786558778E-01  -0.1179197052E-01   0.0000000000E+00  -0.2115353650E-01   0.0000000000E+00   0.0000000000E+00   0.8140317894E-03  -0.3515164686E-03  -0.5499919489E-03  -0.1982208518E-03   0.0000000000E+00   0.0000000000E+00   0.9197836481E-01
   0.9894449170E-01   0.2140940421E+00   0.2640274942E-04  -0.2883397683E-04   0.7920824825E-04  -0.8650193050E-04   0.1157111801E+00  -0.2211907216E-02   0.0000000000E+00   0.1150964552E-01   0.0000000000E+00   0.0000000000E+00   0.1163747523E-02  -0.3692526125E-03   0.2992507835E-03  -0.3404978187E-03   0.0000000000E+00   0.0000000000E+00   0.1184660039E+00
   0.1399075994E+00   0.1993063445E+00   0.4046811105E-04  -0.1995512545E-04   0.1214043331E-03  -0.5986537635E-04   0.1195942435E+00  -0.5620418222E-02   0.0000000000E+00   0.5892549337E-02   0.0000000000E+00   0.0000000000E+00   0.1212803690E-02  -0.4149869128E-03   0.1532062828E-03  -0.3419214759E-03   0.0000000000E+00   0.0000000000E+00   0.1229161586E+00
   0.1210275229E+00   0.1985466391E+00   0.3483547830E-04  -0.2316246916E-04   0.1045064349E-03  -0.6948740748E-04   0.1197810362E+00  -0.5586711838E-02   0.0000000000E+00   0.9182498724E-02   0.0000000000E+00   0.0000000000E+00   0.1214570498E-02  -0.4152102271E-03   0.2387449668E-03  -0.3425829732E-03   0.0000000000E+00   0.0000000000E+00   0.1236865771E+00
   0.2184841727E+00   0.7553100596E-01   0.7819242233E-04  -0.1423034445E-05   0.2345772670E-03  -0.4269103335E-05   0.6679130483E-01   0.3243427582E-02   0.0000000000E+00  -0.1518140901E-01   0.0000000000E+00   0.0000000000E+00   0.6581827656E-03  -0.1679396387E-03  -0.3947166343E-03  -0.2101041972E-03   0.0000000000E+00   0.0000000000E+00   0.7027811521E-01
   0.8041703100E-01   0.1526901633E+00   0.2773887510E-04  -0.2623568214E-04   0.8321662529E-04  -0.7870704641E-04   0.1337551499E+00  -0.5851997742E-02   0.0000000000E+00   0.1118225679E-01   0.0000000000E+00   0.0000000000E+00   0.1355107493E-02  -0.4597854272E-03   0.2907386766E-03  -0.3837094566E-03   0.0000000000E+00   0.0000000000E+00   0.1380689126E+00
   0.6992542217E-01   0.1666210351E+00   0.2245101705E-04  -0.2995746485E-04   0.6735305114E-04  -0.8987239455E-04   0.1307156329E+00   0.6890688707E-03   0.0000000000E+00   0.1468831153E-01   0.0000000000E+00   0.0000000000E+00   0.1305089123E-02  -0.3852562100E-03   0.3818960998E-03  -0.3942141054E-03   0.0000000000E+00   0.0000000000E+00   0.1328365977E+00
   0.1416176556E+00   0.1830432590E+00   0.4307914021E-04  -0.1793650052E-04   0.1292374206E-03  -0.5380950155E-04   0.1190365699E+00  -0.8503835280E-02   0.0000000000E+00   0.4474085254E-02   0.0000000000E+00   0.0000000000E+00   0.1215877204E-02  -0.4421480624E-03   0.1163262166E-03  -0.3315982037E-03   0.0000000000E+00   0.0000000000E+00   0.1237277939E+00
   0.2728245938E+00   0.1744831081E+00   0.8051295416E-04  -0.5847976629E-05   0.2415388625E-03  -0.1754392989E-04   0.1032694435E+00   0.1624313682E-02   0.0000000000E+00  -0.5453133571E-02   0.0000000000E+00   0.0000000000E+00   0.1027821494E-02  -0.2935651937E-03  -0.1417814729E-03  -0.3146812715E-03   0.0000000000E+00   0.0000000000E+00   0.1028954823E+00
   0.2922850207E+00   0.1736078925E+00   0.8550917265E-04  -0.5306873992E-05   0.2565275180E-03  -0.1592062197E-04   0.1016132425E+00   0.2663890073E-02   0.0000000000E+00  -0.4481349776E-02   0.0000000000E+00   0.0000000000E+00   0.1008140754E-02  -0.2782008267E-03  -0.1165150942E-03  -0.3128313976E-03   0.0000000000E+00   0.0000000000E+00   0.1006086899E+00
   0.9439047089E-01   0.1609436031E+00   0.3121894712E-04  -0.2417196605E-04   0.9365684136E-04  -0.7251589814E-04   0.1290805943E+00  -0.8847142467E-02   0.0000000000E+00   0.1073679291E-01   0.0000000000E+00   0.0000000000E+00   0.1317347370E-02  -0.4757132075E-03   0.2791566156E-03  -0.3607003555E-03   0.0000000000E+00   0.0000000000E+00   0.1349658496E+00
   0.8728791448E-01   0.1753747353E+00   0.2708576978E-04  -0.2727567140E-04   0.8125730933E-04  -0.8182701420E-04   0.1265720922E+00  -0.4757690229E-02   0.0000000000E+00   0.1451097956E-01   0.0000000000E+00   0.0000000000E+00   0.1279993993E-02  -0.4272931788E-03   0.3772854687E-03  -0.3654432059E-03   0.0000000000E+00   0.0000000000E+00   0.1314407853E+00
   0.2744307683E+00   0.7397047188E-01   0.8746657741E-04  -0.7531043247E-06   0.2623997322E-03  -0.2259312974E-05   0.6864604304E-01   0.1081026066E-01   0.0000000000E+00  -0.7680439005E-02   0.0000000000E+00   0.0000000000E+00   0.6540296484E-03  -0.9783552253E-04  -0.1996914141E-03  -0.2383689111E-03   0.0000000000E+00   0.0000000000E+00   0.6527994551E-01
   0.2264490882E+00   0.1122882331E+00   0.7529955190E-04  -0.3178485994E-05   0.2258986557E-03  -0.9535457982E-05   0.8393809164E-01  -0.3452535770E-04   0.0000000000E+00  -0.1298694824E-01   0.0000000000E+00   0.0000000000E+00   0.8394844925E-03  -0.2521595285E-03  -0.3376606542E-03  -0.2517106988E-03   0.0000000000E+00   0.0000000000E+00   0.8689252348E-01
   0.2227516824E+00   0.9417567777E-01   0.7672361058E-04  -0.2224933280E-05   0.2301708317E-03  -0.6674799840E-05   0.7597005813E-01   0.1352860833E-02   0.0000000000E+00  -0.1456200865E-01   0.0000000000E+00   0.0000000000E+00   0.7556419988E-03  -0.2143815661E-03  -0.3786122249E-03  -0.2319687569E-03   0.0000000000E+00   0.0000000000E+00   0.7938595737E-01
   0.2727384785E+00   0.5526050044E-01   0.8816813139E-04  -0.3868401912E-06   0.2645043942E-03  -0.1160520574E-05   0.6318103813E-01   0.1266922930E-01   0.0000000000E+00  -0.6648530813E-02   0.0000000000E+00   0.0000000000E+00   0.5938026934E-03  -0.6285082137E-04  -0.1728618011E-03  -0.2275508023E-03   0.0000000000E+00   0.0000000000E+00   0.5901564889E-01
   0.1571598368E+00   0.5348583714E-01   0.7255420742E-04  -0.2111239807E-05   0.2176626223E-03  -0.6333719421E-05   0.4957010840E-01  -0.1093890286E-01   0.0000000000E+00  -0.2407100843E-01   0.0000000000E+00   0.0000000000E+00   0.5285177926E-03  -0.2580993538E-03  -0.6258462191E-03  -0.1158936166E-03   0.0000000000E+00   0.0000000000E+00   0.6976790241E-01
   0.1470323529E+00   0.6074414401E-01   0.6958897962E-04  -0.3182321472E-05   0.2087669389E-03  -0.9546964415E-05   0.5252259250E-01  -0.1452240249E-01   0.0000000000E+00  -0.2520819543E-01   0.0000000000E+00   0.0000000000E+00   0.5687931324E-03  -0.3027918024E-03  -0.6554130813E-03  -0.1140005700E-03   0.0000000000E+00   0.0000000000E+00   0.7545439280E-01
   0.1240360884E+00   0.1490374724E+00   0.4270859155E-04  -0.1679565105E-04   0.1281257747E-03  -0.5038695316E-04   0.1212668190E+00  -0.1584032207E-01   0.0000000000E+00   0.1016730634E-02   0.0000000000E+00   0.0000000000E+00   0.1260189156E-02  -0.5222036777E-03   0.2643499650E-04  -0.3162794908E-03   0.0000000000E+00   0.0000000000E+00   0.1298654289E+00
   0.1447971044E+00   0.1473062531E+00   0.4937935311E-04  -0.1319372648E-04   0.1481380593E-03  -0.3958117943E-04   0.1146121242E+00  -0.1535063874E-01   0.0000000000E+00  -0.4094371241E-02   0.0000000000E+00   0.0000000000E+00   0.1192173158E-02  -0.4973427601E-03  -0.1064536523E-03  -0.2977844565E-03   0.0000000000E+00   0.0000000000E+00   0.1232038806E+00
   0.1433487059E+00   0.1660702278E+00   0.4595446466E-04  -0.1571954883E-04   0.1378633940E-03  -0.4715864650E-04   0.1180938824E+00  -0.1223344149E-01   0.0000000000E+00   0.1367034560E-02   0.0000000000E+00   0.0000000000E+00   0.1217639149E-02  -0.4766160622E-03   0.3554289856E-04  -0.3175813229E-03   0.0000000000E+00   0.0000000000E+00   0.1246366828E+00
   0.1256464742E+00   0.1662382785E+00   0.4048703891E-04  -0.1869336493E-04   0.1214611167E-03  -0.5608009480E-04   0.1209679990E+00  -0.1259212309E-01   0.0000000000E+00   0.4674121332E-02   0.0000000000E+00   0.0000000000E+00   0.1247456359E-02  -0.4888252279E-03   0.1215271546E-03  -0.3251276277E-03   0.0000000000E+00   0.0000000000E+00   0.1279579772E+00
   0.6676576218E-01   0.1807584638E+00   0.2011454390E-04  -0.3183953944E-04   0.6034363171E-04  -0.9551861831E-04   0.1235361951E+00   0.1280770457E-02   0.0000000000E+00   0.1467009830E-01   0.0000000000E+00   0.0000000000E+00   0.1231519640E-02  -0.3578008808E-03   0.3814225558E-03  -0.3744508968E-03   0.0000000000E+00   0.0000000000E+00   0.1254675410E+00
   0.1096856639E+00   0.1660334862E+00   0.3547321319E-04  -0.2166019710E-04   0.1064196396E-03  -0.6498059131E-04   0.1251431008E+00  -0.1134379285E-01   0.0000000000E+00   0.8423926466E-02   0.0000000000E+00   0.0000000000E+00   0.1285462387E-02  -0.4888672309E-03   0.2190220881E-03  -0.3413979239E-03   0.0000000000E+00   0.0000000000E+00   0.1319919166E+00
   0.1055605600E+00   0.1804979365E+00   0.3226574442E-04  -0.2415312805E-04   0.9679723326E-04  -0.7245938415E-04   0.1231597767E+00  -0.7254955157E-02   0.0000000000E+00   0.1146257019E-01   0.0000000000E+00   0.0000000000E+00   0.1253362632E-02  -0.4420288816E-03   0.2980268248E-03  -0.3477144645E-03   0.0000000000E+00   0.0000000000E+00   0.1284501150E+00
   0.2149603774E+00   0.1816461351E+00   0.6454336076E-04  -0.9284216794E-05   0.1936300823E-03  -0.2785265038E-04   0.1098597831E+00  -0.2832678953E-02   0.0000000000E+00  -0.5139280809E-02   0.0000000000E+00   0.0000000000E+00   0.1107095868E-02  -0.3579061388E-03  -0.1336213010E-03  -0.3210813124E-03   0.0000000000E+00   0.0000000000E+00   0.1116590543E+00
   0.2341863985E+00   0.1797889551E+00   0.6997636434E-04  -0.7873235266E-05   0.2099290930E-03  -0.2361970580E-04   0.1073938006E+00  -0.1163841499E-02   0.0000000000E+00  -0.5820455093E-02   0.0000000000E+00   0.0000000000E+00   0.1077429531E-02  -0.3338198168E-03  -0.1513318324E-03  -0.3186898773E-03   0.0000000000E+00   0.0000000000E+00   0.1084526267E+00
   0.2755619482E+00   0.1304935793E+00   0.8409204709E-04  -0.2965918183E-05   0.2522761413E-03  -0.8897754548E-05   0.8759210573E-01   0.4723323899E-02   0.0000000000E+00  -0.7627350695E-02   0.0000000000E+00   0.0000000000E+00   0.8617510856E-03  -0.2155430782E-03  -0.1983111181E-03  -0.2769462889E-03   0.0000000000E+00   0.0000000000E+00   0.8633146529E-01
   0.2706464732E+00   0.1522688950E+00   0.8148455507E-04  -0.4352748803E-05   0.2444536652E-03  -0.1305824641E-04   0.9574358827E-01   0.2620935494E-02   0.0000000000E+00  -0.6930863779E-02   0.0000000000E+00   0.0000000000E+00   0.9495730763E-03  -0.2610214099E-03  -0.1802024583E-03  -0.2950935713E-03   0.0000000000E+00   0.0000000000E+00   0.9522039523E-01
   0.2535948361E+00   0.1774599824E+00   0.7533052124E-04  -0.6743409946E-05   0.2259915637E-03  -0.2023022984E-04   0.1048073783E+00   0.3457802011E-03   0.0000000000E+00  -0.5892563062E-02   0.0000000000E+00   0.0000000000E+00   0.1047036443E-02  -0.3109643330E-03  -0.1532066396E-03  -0.3154594756E-03   0.0000000000E+00   0.0000000000E+00   0.1051311780E+00
   0.1223281266E+00   0.5810605731E-01   0.6696815045E-04  -0.5385848395E-05   0.2009044513E-03  -0.1615754518E-04   0.4443632176E-01  -0.2642462523E-01   0.0000000000E+00  -0.2700536291E-01   0.0000000000E+00   0.0000000000E+00   0.5236370933E-03  -0.3975552176E-03  -0.7021394357E-03  -0.5403508960E-04   0.0000000000E+00   0.0000000000E+00   0.7861492673E-01
   0.1102804148E+00   0.7306735251E-01   0.5979421043E-04  -0.9052372307E-05   0.1793826313E-03  -0.2715711692E-04   0.6919884439E-01  -0.2574851712E-01   0.0000000000E+00  -0.2826835016E-01   0.0000000000E+00   0.0000000000E+00   0.7692339953E-03  -0.4650817044E-03  -0.7349771041E-03  -0.1303509818E-03   0.0000000000E+00   0.0000000000E+00   0.9782870478E-01
   0.1477198741E+00   0.8121540331E-01   0.6462602476E-04  -0.4952948205E-05   0.1938780743E-03  -0.1485884462E-04   0.7483356027E-01  -0.1800572698E-01   0.0000000000E+00  -0.2512156114E-01   0.0000000000E+00   0.0000000000E+00   0.8023527836E-03  -0.4045579506E-03  -0.6531605897E-03  -0.1704834999E-03   0.0000000000E+00   0.0000000000E+00   0.9580777853E-01
   0.1354939076E+00   0.7048778333E-01   0.6521940604E-04  -0.5040068168E-05   0.1956582181E-03  -0.1512020450E-04   0.6347845598E-01  -0.2069728660E-01   0.0000000000E+00  -0.2806818715E-01   0.0000000000E+00   0.0000000000E+00   0.6968764196E-03  -0.3974082339E-03  -0.7297728660E-03  -0.1283435081E-03   0.0000000000E+00   0.0000000000E+00   0.8981658785E-01
   0.1010978130E+00   0.1968596807E+00   0.2898800097E-04  -0.2674931905E-04   0.8696400290E-04  -0.8024795714E-04   0.1201756348E+00  -0.4553345787E-02   0.0000000000E+00   0.1256149692E-01   0.0000000000E+00   0.0000000000E+00   0.1215416386E-02  -0.4060603624E-03   0.3265989199E-03  -0.3468668671E-03   0.0000000000E+00   0.0000000000E+00   0.1244281324E+00
   0.1236817090E+00   0.1822829786E+00   0.3768124749E-04  -0.2092260133E-04   0.1130437425E-03  -0.6276780398E-04   0.1211958416E+00  -0.8701898044E-02   0.0000000000E+00   0.8043278196E-02   0.0000000000E+00   0.0000000000E+00   0.1238064110E-02  -0.4506065053E-03   0.2091252331E-03  -0.3374818307E-03   0.0000000000E+00   0.0000000000E+00   0.1265104372E+00
   0.1613153705E+00   0.1679004034E+00   0.5106712370E-04  -0.1334639187E-04   0.1532013711E-03  -0.4003917560E-04   0.1146293266E+00  -0.1009830971E-01   0.0000000000E+00  -0.1674195355E-02   0.0000000000E+00   0.0000000000E+00   0.1176588195E-02  -0.4448710769E-03  -0.4352907924E-04  -0.3135930506E-03   0.0000000000E+00   0.0000000000E+00   0.1200199138E+00
   0.1783687297E+00   0.1698031069E+00   0.5573716759E-04  -0.1149777937E-04   0.1672115028E-03  -0.3449333811E-04   0.1118817731E+00  -0.7750264880E-02   0.0000000000E+00  -0.3590133472E-02   0.0000000000E+00   0.0000000000E+00   0.1142068526E-02  -0.4131479682E-03  -0.9334347026E-04  -0.3123945248E-03   0.0000000000E+00   0.0000000000E+00   0.1161100730E+00
   0.8818875848E-01   0.1397397943E+00   0.3261826940E-04  -0.2290367640E-04   0.9785480819E-04  -0.6871102920E-04   0.1346342742E+00  -0.1090289857E-01   0.0000000000E+00   0.5164364884E-02   0.0000000000E+00   0.0000000000E+00   0.1379051438E-02  -0.5129318083E-03   0.1342734870E-03  -0.3711941268E-03   0.0000000000E+00   0.0000000000E+00   0.1406707661E+00
   0.9959387761E-01   0.8891241994E-01   0.5117240260E-04  -0.1332163962E-04   0.1535172078E-03  -0.3996491887E-04   0.9837014793E-01  -0.2312650190E-01   0.0000000000E+00  -0.2316704955E-01   0.0000000000E+00   0.0000000000E+00   0.1053080985E-02  -0.5263754628E-03  -0.6023432883E-03  -0.2257309381E-03   0.0000000000E+00   0.0000000000E+00   0.1175398872E+00
   0.9652871982E-01   0.1275751911E+00   0.3808635514E-04  -0.1938222648E-04   0.1142590654E-03  -0.5814667943E-04   0.1297096552E+00  -0.1673041526E-01   0.0000000000E+00  -0.1205612187E-02   0.0000000000E+00   0.0000000000E+00   0.1347287798E-02  -0.5564331181E-03  -0.3134591686E-04  -0.3389377198E-03   0.0000000000E+00   0.0000000000E+00   0.1385737463E+00
   0.2508398705E+00   0.1600738675E+00   0.7606587216E-04  -0.5538131684E-05   0.2281976165E-03  -0.1661439505E-04   0.9934148707E-01   0.2381551425E-03   0.0000000000E+00  -0.7307430901E-02   0.0000000000E+00   0.0000000000E+00   0.9927004053E-03  -0.2956429098E-03  -0.1899932034E-03  -0.2987389266E-03   0.0000000000E+00   0.0000000000E+00   0.1000243246E+00
   0.2596767406E+00   0.1275226126E+00   0.8086514634E-04  -0.3137843849E-05   0.2425954390E-03  -0.9413531547E-05   0.8816411574E-01   0.3531281330E-02   0.0000000000E+00  -0.8977546337E-02   0.0000000000E+00   0.0000000000E+00   0.8710473134E-03  -0.2291795339E-03  -0.2334162048E-03  -0.2750861912E-03   0.0000000000E+00   0.0000000000E+00   0.8783532019E-01
   0.1964134690E+00   0.1840000486E+00   0.5908974905E-04  -0.1104835360E-04   0.1772692471E-03  -0.3314506080E-04   0.1122878576E+00  -0.4478819037E-02   0.0000000000E+00  -0.3641968914E-02   0.0000000000E+00   0.0000000000E+00   0.1136315033E-02  -0.3816517632E-03  -0.9469119176E-04  -0.3234271157E-03   0.0000000000E+00   0.0000000000E+00   0.1147632774E+00
   0.2586024347E+00   0.1414886144E+00   0.7947391394E-04  -0.4022652311E-05   0.2384217418E-03  -0.1206795693E-04   0.9423185368E-01   0.3097473148E-02   0.0000000000E+00  -0.7985497477E-02   0.0000000000E+00   0.0000000000E+00   0.9330261174E-03  -0.2517208296E-03  -0.2076229344E-03  -0.2919879805E-03   0.0000000000E+00   0.0000000000E+00   0.9373686773E-01
   0.2462529878E+00   0.1446241165E+00   0.7631718782E-04  -0.4618627031E-05   0.2289515634E-03  -0.1385588109E-04   0.9465444129E-01   0.9404928899E-03   0.0000000000E+00  -0.8673706623E-02   0.0000000000E+00   0.0000000000E+00   0.9437229342E-03  -0.2745583950E-03  -0.2255163722E-03  -0.2867848025E-03   0.0000000000E+00   0.0000000000E+00   0.9537107655E-01
   0.1919194979E+00   0.1589532577E+00   0.6095122556E-04  -0.9076585807E-05   0.1828536767E-03  -0.2722975742E-04   0.1062704409E+00  -0.6173470242E-02   0.0000000000E+00  -0.6771066693E-02   0.0000000000E+00   0.0000000000E+00   0.1081224819E-02  -0.3805460250E-03  -0.1760477340E-03  -0.3002909119E-03   0.0000000000E+00   0.0000000000E+00   0.1101128290E+00
   0.1947470965E+00   0.1697507426E+00   0.6035111570E-04  -0.9840353973E-05   0.1810533471E-03  -0.2952106192E-04   0.1087586994E+00  -0.5843199151E-02   0.0000000000E+00  -0.5332811710E-02   0.0000000000E+00   0.0000000000E+00   0.1105116591E-02  -0.3847080897E-03  -0.1386531045E-03  -0.3087465007E-03   0.0000000000E+00   0.0000000000E+00   0.1121752781E+00
   0.1800047712E+00   0.1552567550E+00   0.5820280580E-04  -0.9829255749E-05   0.1746084174E-03  -0.2948776725E-04   0.1082320971E+00  -0.8638577253E-02   0.0000000000E+00  -0.6192215111E-02   0.0000000000E+00   0.0000000000E+00   0.1108236703E-02  -0.4110820638E-03  -0.1609975929E-03  -0.2987805595E-03   0.0000000000E+00   0.0000000000E+00   0.1132705442E+00
   0.1011215155E+00   0.1484827090E+00   0.3539036379E-04  -0.2119724464E-04   0.1061710914E-03  -0.6359173391E-04   0.1280778145E+00  -0.1353335821E-01   0.0000000000E+00   0.5776776614E-02   0.0000000000E+00   0.0000000000E+00   0.1321378220E-02  -0.5195670256E-03   0.1501961920E-03  -0.3436333689E-03   0.0000000000E+00   0.0000000000E+00   0.1356943224E+00
   0.2006837415E+00   0.7797276072E-01   0.7489662991E-04  -0.1935669970E-05   0.2246898897E-03  -0.5807009910E-05   0.6786756482E-01  -0.9805247704E-03   0.0000000000E+00  -0.1816958791E-01   0.0000000000E+00   0.0000000000E+00   0.6816172225E-03  -0.2134079422E-03  -0.4724092856E-03  -0.2006611201E-03   0.0000000000E+00   0.0000000000E+00   0.7522036947E-01
   0.2116366046E+00   0.1146551248E+00   0.7183140705E-04  -0.3910799307E-05   0.2154942212E-03  -0.1173239792E-04   0.8650325753E-01  -0.3041732406E-02   0.0000000000E+00  -0.1389991075E-01   0.0000000000E+00   0.0000000000E+00   0.8741577725E-03  -0.2899270967E-03  -0.3613976794E-03  -0.2503845754E-03   0.0000000000E+00   0.0000000000E+00   0.9126671500E-01
   0.2068708272E+00   0.9688390079E-01   0.7329955840E-04  -0.2873977121E-05   0.2198986752E-03  -0.8621931364E-05   0.7834264639E-01  -0.2593615491E-02   0.0000000000E+00  -0.1639695481E-01   0.0000000000E+00   0.0000000000E+00   0.7912073104E-03  -0.2609640941E-03  -0.4263208250E-03  -0.2272470927E-03   0.0000000000E+00   0.0000000000E+00   0.8453626035E-01
   0.9009342625E-01   0.1039280204E+00   0.4279981241E-04  -0.1763415735E-04   0.1283994372E-03  -0.5290247206E-04   0.1249172003E+00  -0.1593168582E-01   0.0000000000E+00  -0.1439986950E-01   0.0000000000E+00   0.0000000000E+00   0.1296967060E-02  -0.5340684590E-03  -0.3743966071E-03  -0.3269565433E-03   0.0000000000E+00   0.0000000000E+00   0.1349341722E+00
   0.1247125635E+00   0.8335587621E-01   0.5919088245E-04  -0.7828097979E-05   0.1775726474E-03  -0.2348429394E-04   0.8068390546E-01  -0.2466591865E-01   0.0000000000E+00  -0.2603738750E-01   0.0000000000E+00   0.0000000000E+00   0.8808368105E-03  -0.4887109029E-03  -0.6769720749E-03  -0.1680539604E-03   0.0000000000E+00   0.0000000000E+00   0.1053871193E+00
   0.1089352826E+00   0.1151319970E+00   0.4524565173E-04  -0.1491224784E-04   0.1357369552E-03  -0.4473674353E-04   0.1174658094E+00  -0.2151851595E-01   0.0000000000E+00  -0.1102717058E-01   0.0000000000E+00   0.0000000000E+00   0.1239213642E-02  -0.5675825878E-03  -0.2867064350E-03  -0.2878418805E-03   0.0000000000E+00   0.0000000000E+00   0.1310916224E+00
   0.2441261338E+00   0.1279753204E+00   0.7742095390E-04  -0.3593412316E-05   0.2322628617E-03  -0.1078023695E-04   0.8868077113E-01   0.1466333219E-02   0.0000000000E+00  -0.1032373543E-01   0.0000000000E+00   0.0000000000E+00   0.8824087117E-03  -0.2513789812E-03  -0.2684171211E-03  -0.2704413131E-03   0.0000000000E+00   0.0000000000E+00   0.8973838790E-01
   0.1991403306E+00   0.1517104020E+00   0.6381939550E-04  -0.7797992278E-05   0.1914581865E-03  -0.2339397683E-04   0.1030037743E+00  -0.6357342662E-02   0.0000000000E+00  -0.8291620957E-02   0.0000000000E+00   0.0000000000E+00   0.1049109771E-02  -0.3725847496E-03  -0.2155821449E-03  -0.2899392950E-03   0.0000000000E+00   0.0000000000E+00   0.1072790170E+00
   0.2056357088E+00   0.1444091250E+00   0.6645845401E-04  -0.6663239211E-05   0.1993753620E-03  -0.1998971763E-04   0.9966895454E-01  -0.5777276706E-02   0.0000000000E+00  -0.9786823258E-02   0.0000000000E+00   0.0000000000E+00   0.1014021376E-02  -0.3567796307E-03  -0.2544574047E-03  -0.2816750335E-03   0.0000000000E+00   0.0000000000E+00   0.1040708976E+00
   0.1926718769E+00   0.1008055633E+00   0.6981123402E-04  -0.3763169639E-05   0.2094337021E-03  -0.1128950892E-04   0.8193115877E-01  -0.6377915027E-02   0.0000000000E+00  -0.1721109057E-01   0.0000000000E+00   0.0000000000E+00   0.8384453327E-03  -0.3095726266E-03  -0.4474883547E-03  -0.2266597312E-03   0.0000000000E+00   0.0000000000E+00   0.9029139902E-01
   0.1419040270E+00   0.1241708344E+00   0.5294025939E-04  -0.1069839679E-04   0.1588207782E-03  -0.3209519037E-04   0.1076050336E+00  -0.1903536174E-01   0.0000000000E+00  -0.1137609417E-01   0.0000000000E+00   0.0000000000E+00   0.1133156422E-02  -0.5131687183E-03  -0.2957784483E-03  -0.2657090157E-03   0.0000000000E+00   0.0000000000E+00   0.1198733300E+00
   0.1460938393E+00   0.1118547871E+00   0.5678682019E-04  -0.8610229288E-05   0.1703604606E-03  -0.2583068786E-04   0.9976994577E-01  -0.1928846186E-01   0.0000000000E+00  -0.1639271527E-01   0.0000000000E+00   0.0000000000E+00   0.1055564843E-02  -0.4921944559E-03  -0.4262105970E-03  -0.2414444517E-03   0.0000000000E+00   0.0000000000E+00   0.1142127343E+00
   0.1588363747E+00   0.1176373438E+00   0.5888443231E-04  -0.7893810055E-05   0.1766532969E-03  -0.2368143017E-04   0.9882218132E-01  -0.1606761248E-01   0.0000000000E+00  -0.1502891990E-01   0.0000000000E+00   0.0000000000E+00   0.1036424651E-02  -0.4571426688E-03  -0.3907519174E-03  -0.2482637065E-03   0.0000000000E+00   0.0000000000E+00   0.1108797702E+00
   0.1543145030E+00   0.1313374158E+00   0.5500750060E-04  -0.1000329274E-04   0.1650225018E-03  -0.3000987822E-04   0.1057135238E+00  -0.1670793730E-01   0.0000000000E+00  -0.1084727942E-01   0.0000000000E+00   0.0000000000E+00   0.1107259050E-02  -0.4842199445E-03  -0.2820292649E-03  -0.2670167596E-03   0.0000000000E+00   0.0000000000E+00   0.1163498642E+00
   0.1639820651E+00   0.1519347262E+00   0.5421078151E-04  -0.1122844072E-04   0.1626323445E-03  -0.3368532217E-04   0.1104735209E+00  -0.1131751269E-01   0.0000000000E+00  -0.5448350499E-02   0.0000000000E+00   0.0000000000E+00   0.1138687747E-02  -0.4445956895E-03  -0.1416571130E-03  -0.2974680245E-03   0.0000000000E+00   0.0000000000E+00   0.1168707576E+00
   0.1115437615E+00   0.1548685890E+00   0.3776936647E-04  -0.1991498946E-04   0.1133080994E-03  -0.5974496838E-04   0.1262994042E+00  -0.1235831481E-01   0.0000000000E+00   0.6070492170E-02   0.0000000000E+00   0.0000000000E+00   0.1300068986E-02  -0.5024813607E-03   0.1578327964E-03  -0.3418232681E-03   0.0000000000E+00   0.0000000000E+00   0.1332443221E+00
   0.1374569994E+00   0.1346929688E+00   0.4950559298E-04  -0.1272879222E-04   0.1485167790E-03  -0.3818637667E-04   0.1170811821E+00  -0.1718931061E-01   0.0000000000E+00  -0.6209699601E-02   0.0000000000E+00   0.0000000000E+00   0.1222379753E-02  -0.5231366523E-03  -0.1614521896E-03  -0.2996756144E-03   0.0000000000E+00   0.0000000000E+00   0.1269058001E+00
   0.1807575739E+00   0.1056351122E+00   0.6640497960E-04  -0.4852702834E-05   0.1992149388E-03  -0.1455810850E-04   0.8582171986E-01  -0.1065339220E-01   0.0000000000E+00  -0.1795303106E-01   0.0000000000E+00   0.0000000000E+00   0.8901773752E-03  -0.3639990816E-03  -0.4667788075E-03  -0.2255049830E-03   0.0000000000E+00   0.0000000000E+00   0.9671864089E-01
   0.1512136823E+00   0.1000099980E+00   0.6078356384E-04  -0.6651988134E-05   0.1823506915E-03  -0.1995596440E-04   0.8883221950E-01  -0.1784896167E-01   0.0000000000E+00  -0.2027286974E-01   0.0000000000E+00   0.0000000000E+00   0.9418690800E-03  -0.4449862752E-03  -0.5270946132E-03  -0.2129497735E-03   0.0000000000E+00   0.0000000000E+00   0.1049448561E+00
   0.1383397430E+00   0.9236883093E-01   0.5966424814E-04  -0.7155116440E-05   0.1789927444E-03  -0.2146534932E-04   0.8725750808E-01  -0.2156645108E-01   0.0000000000E+00  -0.2326695937E-01   0.0000000000E+00   0.0000000000E+00   0.9372744340E-03  -0.4774370350E-03  -0.6049409437E-03  -0.1970731710E-03   0.0000000000E+00   0.0000000000E+00   0.1075090579E+00
   0.1560169893E+00   0.9052503678E-01   0.6406733224E-04  -0.5232603893E-05   0.1922019967E-03  -0.1569781168E-04   0.7954270814E-01  -0.1789503750E-01   0.0000000000E+00  -0.2420919467E-01   0.0000000000E+00   0.0000000000E+00   0.8491121939E-03  -0.4175784994E-03  -0.6294390615E-03  -0.1849430119E-03   0.0000000000E+00   0.0000000000E+00   0.9898392802E-01
   0.1274565329E+00   0.1185219483E+00   0.5003848720E-04  -0.1209293461E-04   0.1501154616E-03  -0.3627880382E-04   0.1126690860E+00  -0.2152754020E-01   0.0000000000E+00  -0.1185297926E-01   0.0000000000E+00   0.0000000000E+00   0.1191273480E-02  -0.5532826600E-03  -0.3081774608E-03  -0.2734246373E-03   0.0000000000E+00   0.0000000000E+00   0.1264082752E+00
   0.1261248093E+00   0.1330798166E+00   0.4634883648E-04  -0.1433385244E-04   0.1390465094E-03  -0.4300155733E-04   0.1168602281E+00  -0.1909870937E-01   0.0000000000E+00  -0.5757361282E-02   0.0000000000E+00   0.0000000000E+00   0.1225898410E-02  -0.5415677781E-03  -0.1496913933E-03  -0.2932845563E-03   0.0000000000E+00   0.0000000000E+00   0.1278871397E+00
   0.1146122059E+00   0.1296539174E+00   0.4351673439E-04  -0.1593264869E-04   0.1305502032E-03  -0.4779794606E-04   0.1194668255E+00  -0.2140905029E-01   0.0000000000E+00  -0.5225955490E-02   0.0000000000E+00   0.0000000000E+00   0.1258895406E-02  -0.5724909794E-03  -0.1358748428E-03  -0.2941733256E-03   0.0000000000E+00   0.0000000000E+00   0.1316245445E+00
   0.2292716585E+00   0.1294738031E+00   0.7393788436E-04  -0.4221227291E-05   0.2218136531E-03  -0.1266368187E-04   0.9069724384E-01  -0.7684818994E-03   0.0000000000E+00  -0.1106070490E-01   0.0000000000E+00   0.0000000000E+00   0.9092778841E-03  -0.2797765505E-03  -0.2875783273E-03  -0.2697862858E-03   0.0000000000E+00   0.0000000000E+00   0.9306108412E-01
   0.2013981796E+00   0.1332135710E+00   0.6692488986E-04  -0.5943996719E-05   0.2007746696E-03  -0.1783199016E-04   0.9632046511E-01  -0.5692878589E-02   0.0000000000E+00  -0.1144299744E-01   0.0000000000E+00   0.0000000000E+00   0.9802832869E-03  -0.3458901812E-03  -0.2975179334E-03  -0.2718827596E-03   0.0000000000E+00   0.0000000000E+00   0.1012321507E+00
   0.1977901590E+00   0.1180899480E+00   0.6824325849E-04  -0.4880998103E-05   0.2047297755E-03  -0.1464299431E-04   0.9030604815E-01  -0.6307772377E-02   0.0000000000E+00  -0.1418607628E-01   0.0000000000E+00   0.0000000000E+00   0.9219837986E-03  -0.3339958682E-03  -0.3688379833E-03  -0.2519948273E-03   0.0000000000E+00   0.0000000000E+00   0.9677085838E-01
   0.2151882032E+00   0.1311386029E+00   0.7048954508E-04  -0.4989522399E-05   0.2114686352E-03  -0.1496856720E-04   0.9273786663E-01  -0.3383329102E-02   0.0000000000E+00  -0.1158953679E-01   0.0000000000E+00   0.0000000000E+00   0.9375286536E-03  -0.3120468909E-03  -0.3013279566E-03  -0.2680636126E-03   0.0000000000E+00   0.0000000000E+00   0.9657277896E-01
   0.1087492205E+00   0.1384414673E+00   0.3977187697E-04  -0.1828517711E-04   0.1193156309E-03  -0.5485553132E-04   0.1258206577E+00  -0.1745093841E-01   0.0000000000E+00  -0.3018510510E-04   0.0000000000E+00   0.0000000000E+00   0.1310559392E-02  -0.5519713572E-03  -0.7848127325E-06  -0.3251091579E-03   0.0000000000E+00   0.0000000000E+00   0.1353234233E+00
   0.1689734214E+00   0.1364581052E+00   0.5810460941E-04  -0.8946446447E-05   0.1743138282E-03  -0.2683933934E-04   0.1042628275E+00  -0.1325223988E-01   0.0000000000E+00  -0.1009797830E-01   0.0000000000E+00   0.0000000000E+00   0.1082384995E-02  -0.4453108814E-03  -0.2625474358E-03  -0.2730317630E-03   0.0000000000E+00   0.0000000000E+00   0.1128084648E+00
   0.1865450900E+00   0.1395953551E+00   0.6225350949E-04  -0.7626728085E-05   0.1867605285E-03  -0.2288018425E-04   0.1011309593E+00  -0.9135710678E-02   0.0000000000E+00  -0.1023901952E-01   0.0000000000E+00   0.0000000000E+00   0.1038716725E-02  -0.3947499845E-03  -0.2662145074E-03  -0.2759857457E-03   0.0000000000E+00   0.0000000000E+00   0.1074423885E+00
   0.1628920214E+00   0.1046808348E+00   0.6254585496E-04  -0.6089298274E-05   0.1876375649E-03  -0.1826789482E-04   0.9154908655E-01  -0.1419758026E-01   0.0000000000E+00  -0.1790216045E-01   0.0000000000E+00   0.0000000000E+00   0.9580836063E-03  -0.4166230623E-03  -0.4654561717E-03  -0.2320545189E-03   0.0000000000E+00   0.0000000000E+00   0.1039911454E+00
   0.1846392489E+00   0.1214416525E+00   0.6461223077E-04  -0.6043136972E-05   0.1938366923E-03  -0.1812941092E-04   0.9402991904E-01  -0.9340671983E-02   0.0000000000E+00  -0.1384455448E-01   0.0000000000E+00   0.0000000000E+00   0.9683212063E-03  -0.3754964769E-03  -0.3599584165E-03  -0.2540677412E-03   0.0000000000E+00   0.0000000000E+00   0.1018295711E+00
   0.1717896028E+00   0.1217849099E+00   0.6140044005E-04  -0.7100531978E-05   0.1842013201E-03  -0.2130159593E-04   0.9670803561E-01  -0.1292383238E-01   0.0000000000E+00  -0.1403908225E-01   0.0000000000E+00   0.0000000000E+00   0.1005851853E-02  -0.4193624306E-03  -0.3650161384E-03  -0.2513526097E-03   0.0000000000E+00   0.0000000000E+00   0.1065410577E+00
   0.1158184949E+00   0.9809976532E-01   0.5230348274E-04  -0.1122687084E-04   0.1569104482E-03  -0.3368061252E-04   0.1002144770E+00  -0.2482000207E-01   0.0000000000E+00  -0.2052215608E-01   0.0000000000E+00   0.0000000000E+00   0.1076604777E-02  -0.5488434518E-03  -0.5335760580E-03  -0.2261834249E-03   0.0000000000E+00   0.0000000000E+00   0.1199540318E+00
   0.1316376769E+00   0.1052763254E+00   0.5453072436E-04  -0.9651905363E-05   0.1635921731E-03  -0.2895571609E-04   0.1012620339E+00  -0.2253036907E-01   0.0000000000E+00  -0.1801464098E-01   0.0000000000E+00   0.0000000000E+00   0.1080211446E-02  -0.5290897924E-03  -0.4683806654E-03  -0.2361949946E-03   0.0000000000E+00   0.0000000000E+00   0.1182015367E+00
   0.1721002431E+00   0.1103185233E+00   0.6358627006E-04  -0.5918427881E-05   0.1907588102E-03  -0.1775528364E-04   0.8853618246E-01  -0.1305954308E-01   0.0000000000E+00  -0.1725137401E-01   0.0000000000E+00   0.0000000000E+00   0.9245404538E-03  -0.3962039782E-03  -0.4485357243E-03  -0.2264299181E-03   0.0000000000E+00   0.0000000000E+00   0.1002726616E+00
           1           2           3           4
           5           6           7           8
           9          10          11          12
          13          14          15          16
          17          18          19          20
          21          22          23          24
          25          26          27          28
          29          30          31          32
          33          34           4           3
           2           1          35          36
          37          38          39          40
          41          42          36          35
          43          41          44          45
          46           9          47          48
          41          35          39          44
          49          50          51          52
          52          51          53          54
          55          56          57          58
          56          59          60          57
          61          62          63          64
          65          66          67          68
          69          70          71          72
          73          74          25          28
          27          75          76          28
          77          78          24          23
          79          80          81          82
          83          84          85          86
          87          88          89          90
          90          89          62          91
          61          92          91          62
          92          61          59          93
          56          94          93          59
          95          55          54          53
          46          96          10           9
          97          98          99         100
          12         101          98          97
          97         100         102          47
         103         104          31          30
         105         103          30         106
          73         107         108         109
         110         111         112         113
          32          31         114         115
         116         117         118         119
         120         121         122         123
         121          83          86         122
          80         124         125          81
         126         127         128         129
         130         101          12          11
         131          43         101         130
          34         129         132           4
          42          41          43         131
          35           1          40          39
         101          43          45          98
         133         134         109         108
         135         136          13          16
         137         138          65          68
          94          56          55          95
          58         137          54          55
          49          52          68          67
         139         140         141         142
         140         139          82          81
          88          87         142         141
         143         144         145         146
         147          26          25         148
         149         150         128         151
           5           8         152         102
         132         129         128         150
         153         100          99         154
          48          47         102         152
          59          61          64          60
         106         155         113         118
          62          89         156          63
          88         157         156          89
         123         116         119         120
          66          65         134         133
         144         143          84          83
           9          12          97          47
         104         158         114          31
         159         160         127         126
         119         112         161         120
         117         105         106         118
         162         163         164         165
          83         121         166         144
         167         168         141         140
         167         143         146         168
           6         114         158           7
          38          37         169         170
          40         132         150          37
         160         159          20          19
          78         171         172          24
          18          17          21          24
         173         174          78          77
         132          40           1           4
          28          76         107          73
         175         176         177         178
         176         179          57          60
         137          68          52          54
          60          64         177         176
         163         162         155          29
          75          27         174         173
         180         174          27          26
          64          63         181         177
          98          45         182          99
         183         182          45          44
          38         183          44          39
          58          57         179         184
         185         181          63         156
         134         186         187         109
         188          74         187         189
         138         186         134          65
          88         141         168         157
         166         121         120         161
         190         191         166         161
         155         106          30          29
         192         193         194         195
         118         113         112         119
         125          84         143         167
         124          85          84         125
           6         196         115         114
         196           6           5         153
         197          32         115         198
         111         190         161         112
         199         148         188         135
         170         169         200         201
         202         164         163         197
         203         204         146         145
         205         206         201         200
         187          74          73         109
         176         175         207         179
         208         209          16          15
         210         186         138         184
         184         138         137          58
         179         207         210         184
         211         212         172         171
          78         174         180         171
         125         167         140          81
          37         150         149         169
         213         214         215         216
         217         182         183         201
         170         201         183          38
         218         219         206         205
         111         220         221         190
         157         168         146         204
         177         181         222         178
         222         181         185         223
         186         210         189         187
         224         191         190         221
         100         153           5         102
         185         156         157         204
         113         155         162         110
          26         147         193         180
          29          32         197         163
         225         226          19          18
         144         166         191         145
         212         192         227         228
         198         115         196         229
         206         154         217         201
         153         154         229         196
         172         225          18          24
         148          25          74         188
          14          13         175         178
         207         175          13         136
         189         136         135         188
         230         202         197         198
         210         207         136         189
         165         164         231         232
         169         149         233         200
         234         160          19         226
         217         154          99         182
         203         145         191         224
         151         235         233         149
         236         223         203         224
         185         204         203         223
         178         222         237          14
         110         162         165         238
         239         223         236         240
         238         220         111         110
         219         230         198         229
         241         242         232         243
         242          69         220         238
          72          71         240         236
         244         205         200         233
         215         231         164         202
         211         171         180         193
         228         225         172         212
         194         193         147         245
         245         147         148         199
         135          16         209         199
         209         208         246         247
         127         160         234         248
         193         192         212         211
         226         225         228         249
         151         128         127         248
         248         250         235         151
          72         221         220          69
          14         237         251          15
          70          69         252         253
         206         219         229         154
         238         165         232         242
          72         236         224         221
         216         215         202         230
         245         247         254         194
         255         256         257         258
         230         219         218         216
         214         259         231         215
         216         218         260         213
         261         255         258         214
         239         237         222         223
         194         254         262         195
         263         264         227         265
         250         266         267         268
         199         209         247         245
         240          71         269         251
         270         271         246         272
         260         244         273         213
         237         239         240         251
         218         205         244         260
          70         272         269          71
         232         231         259         243
         274         275         243         259
         257         256         263         276
         277         275         274         278
         234         226         249         279
         271         277         262         254
         271         254         247         246
         246         208         269         272
         244         233         235         273
         251         269         208          15
         275         270         253         252
         234         279         250         248
         279         249         264         280
         259         214         258         274
         262         281         276         195
         195         276         263         265
         257         276         281         278
         278         274         258         257
         266         280         256         255
         261         214         213         267
         267         266         255         261
         266         250         279         280
         228         227         264         249
         256         280         264         263
         265         227         192         195
         281         262         277         278
         235         250         268         273
         273         268         267         213
         277         271         270         275
         253         270         272          70
         252          69         242         241
         243         275         252         241
 VARIABLES = X,Y,DU1,DU2,U1,U2,S11,S22,S33,S12,S13,S23,E11,E22,E12,E33,E13,E23,SMISES
 ZONE, T="0.5000D+01" F=FEPOINT, I=  281 J=  250
   0.1779088520E-01   0.1340564220E+00   0.7173700808E-05  -0.3627480944E-04   0.2869480323E-04  -0.1450992378E-03   0.2149056528E+00   0.4045834000E-01   0.0000000000E+00   0.3207262994E-02   0.0000000000E+00   0.0000000000E+00   0.2027681508E-02  -0.2401335583E-03   0.8338883784E-04  -0.7660919783E-03   0.0000000000E+00   0.0000000000E+00   0.1968053171E+00
   0.0000000000E+00   0.1331477183E+00   0.0000000000E+00  -0.3712433844E-04   0.0000000000E+00  -0.1484973538E-03   0.2168217998E+00   0.4314685126E-01   0.0000000000E+00   0.6078719650E-02   0.0000000000E+00   0.0000000000E+00   0.2038777445E-02  -0.2189968870E-03   0.1580467109E-03  -0.7799059533E-03   0.0000000000E+00   0.0000000000E+00   0.1987936915E+00
   0.0000000000E+00   0.1164867845E+00   0.0000000000E+00  -0.3597650796E-04   0.0000000000E+00  -0.1439060318E-03   0.2757844710E+00   0.2267119740E-01   0.0000000000E+00   0.5232514112E-02   0.0000000000E+00   0.0000000000E+00   0.2689831118E-02  -0.6006414391E-03   0.1360453669E-03  -0.8953670054E-03   0.0000000000E+00   0.0000000000E+00   0.2651225894E+00
   0.1920417231E-01   0.1161164495E+00   0.1000706109E-04  -0.3494770620E-04   0.4002824435E-04  -0.1397908248E-03   0.2527249997E+00   0.2237403445E-01   0.0000000000E+00  -0.2251273680E-01   0.0000000000E+00   0.0000000000E+00   0.2460127894E-02  -0.5344346547E-03  -0.5853311567E-03  -0.8252971025E-03   0.0000000000E+00   0.0000000000E+00   0.2468486071E+00
   0.7809407952E-01   0.2317055923E+00   0.1851606492E-04  -0.3416214462E-04   0.7406425968E-04  -0.1366485785E-03   0.1322501747E+00  -0.4210271502E-04   0.0000000000E+00   0.9108979921E-02   0.0000000000E+00   0.0000000000E+00   0.1322628055E-02  -0.3971715513E-03   0.2368334780E-03  -0.3966242160E-03   0.0000000000E+00   0.0000000000E+00   0.1332717799E+00
   0.9789739037E-01   0.2319022077E+00   0.2387809382E-04  -0.3061086520E-04   0.9551237527E-04  -0.1224434608E-03   0.1398657722E+00  -0.6935189931E-03   0.0000000000E+00   0.8298332557E-02   0.0000000000E+00   0.0000000000E+00   0.1400738279E-02  -0.4265325065E-03   0.2157566465E-03  -0.4175167596E-03   0.0000000000E+00   0.0000000000E+00   0.1409967876E+00
   0.9732691890E-01   0.2498389327E+00   0.2093899991E-04  -0.3221346831E-04   0.8375599965E-04  -0.1288538732E-03   0.1365522337E+00  -0.4957532998E-03   0.0000000000E+00   0.2927563351E-02   0.0000000000E+00   0.0000000000E+00   0.1367009597E-02  -0.4146142340E-03   0.7611664713E-04  -0.4081694411E-03   0.0000000000E+00   0.0000000000E+00   0.1367739949E+00
   0.7785712340E-01   0.2498220284E+00   0.1586856091E-04  -0.3559431363E-04   0.6347424364E-04  -0.1423772545E-03   0.1237077837E+00  -0.7684734482E-03   0.0000000000E+00   0.3239492005E-02   0.0000000000E+00   0.0000000000E+00   0.1239383257E-02  -0.3788080855E-03   0.8422679214E-04  -0.3688179307E-03   0.0000000000E+00   0.0000000000E+00   0.1240844910E+00
   0.1911916222E-01   0.2331143122E+00   0.4194324500E-05  -0.4170336085E-04   0.1677729800E-04  -0.1668134434E-03   0.1117876320E+00   0.2670188235E-02   0.0000000000E+00   0.2550846981E-02   0.0000000000E+00   0.0000000000E+00   0.1109865756E-02  -0.3086610138E-03   0.6632202151E-04  -0.3433734608E-03   0.0000000000E+00   0.0000000000E+00   0.1107460923E+00
   0.0000000000E+00   0.2331220676E+00   0.0000000000E+00  -0.4225327452E-04   0.0000000000E+00  -0.1690130981E-03   0.1099757779E+00   0.2854338983E-02   0.0000000000E+00   0.3223983189E-02   0.0000000000E+00   0.0000000000E+00   0.1091194762E-02  -0.3013839439E-03   0.8382356290E-04  -0.3384903507E-03   0.0000000000E+00   0.0000000000E+00   0.1086801770E+00
   0.0000000000E+00   0.2164606212E+00   0.0000000000E+00  -0.4120955512E-04   0.0000000000E+00  -0.1648382205E-03   0.1253803024E+00   0.6431006155E-02   0.0000000000E+00   0.3268676415E-02   0.0000000000E+00   0.0000000000E+00   0.1234510005E-02  -0.3118308456E-03   0.8498558678E-04  -0.3954339256E-03   0.0000000000E+00   0.0000000000E+00   0.1223475841E+00
   0.1855526628E-01   0.2165712335E+00   0.4594296533E-05  -0.4067589180E-04   0.1837718613E-04  -0.1627035672E-03   0.1265983329E+00   0.5907731701E-02   0.0000000000E+00   0.5119222611E-02   0.0000000000E+00   0.0000000000E+00   0.1248260134E-02  -0.3207176817E-03   0.1330997879E-03  -0.3975181938E-03   0.0000000000E+00   0.0000000000E+00   0.1242289456E+00
   0.2576221216E+00   0.9226686737E-01   0.8332712020E-04  -0.1480726220E-05   0.3333084808E-03  -0.5922904878E-05   0.9319814728E-01   0.8744520094E-02   0.0000000000E+00  -0.1274119649E-01   0.0000000000E+00   0.0000000000E+00   0.9057479125E-03  -0.1921492409E-03  -0.3312711087E-03  -0.3058280021E-03   0.0000000000E+00   0.0000000000E+00   0.9181600117E-01
   0.2590119364E+00   0.1102747256E+00   0.8213167433E-04  -0.2240886236E-05   0.3285266973E-03  -0.8963544946E-05   0.1017860496E+00   0.6450371886E-02   0.0000000000E+00  -0.1224360652E-01   0.0000000000E+00   0.0000000000E+00   0.9985093806E-03  -0.2408544300E-03  -0.3183337695E-03  -0.3247092646E-03   0.0000000000E+00   0.0000000000E+00   0.1009500663E+00
   0.2422491447E+00   0.1106635417E+00   0.7872254551E-04  -0.2625452180E-05   0.3148901820E-03  -0.1050180872E-04   0.1028175942E+00   0.3451641103E-02   0.0000000000E+00  -0.1441929721E-01   0.0000000000E+00   0.0000000000E+00   0.1017821019E-02  -0.2739363716E-03  -0.3749017274E-03  -0.3188077059E-03   0.0000000000E+00   0.0000000000E+00   0.1041534989E+00
   0.2397803427E+00   0.9267242142E-01   0.8004134111E-04  -0.1779416926E-05   0.3201653645E-03  -0.7117667704E-05   0.9348176904E-01   0.5604840185E-02   0.0000000000E+00  -0.1550936128E-01   0.0000000000E+00   0.0000000000E+00   0.9180031699E-03  -0.2243969053E-03  -0.4032433933E-03  -0.2972598277E-03   0.0000000000E+00   0.0000000000E+00   0.9466908130E-01
   0.9274381500E-01   0.3821457698E-01   0.7117262020E-04  -0.1075312325E-04   0.2846904808E-03  -0.4301249299E-04  -0.1167891864E-01  -0.7842642393E-01   0.0000000000E+00   0.1214082550E-01   0.0000000000E+00   0.0000000000E+00   0.1184900854E-03  -0.7492274834E-03   0.3156614630E-03   0.2703160277E-03   0.0000000000E+00   0.0000000000E+00   0.6998030929E-01
   0.1083941982E+00   0.4606490669E-01   0.6946764023E-04  -0.6726961335E-05   0.2778705609E-03  -0.2690784534E-04   0.2520337899E-01  -0.3490583657E-01   0.0000000000E+00  -0.1680119091E-01   0.0000000000E+00   0.0000000000E+00   0.3567512996E-03  -0.4246685027E-03  -0.4368309636E-03   0.2910737275E-04   0.0000000000E+00   0.0000000000E+00   0.5529586810E-01
   0.9641886041E-01   0.6348441302E-01   0.6155280127E-04  -0.1155633551E-04   0.2462112051E-03  -0.4622534205E-04   0.5219311905E-01  -0.2053177143E-01   0.0000000000E+00  -0.2518142234E-01   0.0000000000E+00   0.0000000000E+00   0.5835265048E-03  -0.3618970715E-03  -0.6547169807E-03  -0.9498404285E-04   0.0000000000E+00   0.0000000000E+00   0.7825878762E-01
   0.8346892370E-01   0.5547585625E-01   0.6439283980E-04  -0.1623348976E-04   0.2575713592E-03  -0.6493395903E-04   0.1514358228E-01  -0.1727333538E-01   0.0000000000E+00  -0.7745528506E-02   0.0000000000E+00   0.0000000000E+00   0.2032558289E-03  -0.2181641007E-03  -0.2013837411E-03   0.6389259313E-05   0.0000000000E+00   0.0000000000E+00   0.3306360238E-01
   0.9845373816E-01   0.1948248163E-01   0.7504231292E-04  -0.5310154320E-05   0.3001692517E-03  -0.2124061728E-04  -0.1160913862E-01  -0.1252228911E+00   0.0000000000E+00   0.1694404376E-01   0.0000000000E+00   0.0000000000E+00   0.2595772872E-03  -0.1217401495E-02   0.4405451377E-03   0.4104960892E-03   0.0000000000E+00   0.0000000000E+00   0.1191015063E+00
   0.1003834469E+00   0.0000000000E+00   0.7668918340E-04   0.0000000000E+00   0.3067567336E-03   0.0000000000E+00  -0.1631369362E-01  -0.1345455527E+00   0.0000000000E+00  -0.9229613242E-02   0.0000000000E+00   0.0000000000E+00   0.2404997219E-03  -0.1296514446E-02  -0.2399699443E-03   0.4525777389E-03   0.0000000000E+00   0.0000000000E+00   0.1275328913E+00
   0.1212217930E+00   0.0000000000E+00   0.7769259034E-04   0.0000000000E+00   0.3107703614E-03   0.0000000000E+00  -0.8554288785E-04  -0.4625631366E-01   0.0000000000E+00  -0.1034344668E-01   0.0000000000E+00   0.0000000000E+00   0.1379135121E-03  -0.4623065079E-03  -0.2689296136E-03   0.1390255696E-03   0.0000000000E+00   0.0000000000E+00   0.4840543344E-01
   0.1221077712E+00   0.2610009030E-01   0.7538143686E-04  -0.2443679755E-05   0.3015257474E-03  -0.9774719021E-05   0.1177898328E-01  -0.4355637190E-01   0.0000000000E+00  -0.1097959735E-01   0.0000000000E+00   0.0000000000E+00   0.2484589485E-03  -0.4709006688E-03  -0.2854695310E-03   0.9533216584E-04   0.0000000000E+00   0.0000000000E+00   0.5640045566E-01
   0.2109490012E+00   0.3763129443E-01   0.8097243763E-04  -0.3876730188E-06   0.3238897505E-03  -0.1550692075E-05   0.6068938856E-01   0.9295508284E-02   0.0000000000E+00  -0.1412109556E-01   0.0000000000E+00   0.0000000000E+00   0.5790073608E-03  -0.8911308285E-04  -0.3671484847E-03  -0.2099546905E-03   0.0000000000E+00   0.0000000000E+00   0.6148965840E-01
   0.1908512528E+00   0.3837963901E-01   0.7866855081E-04  -0.5722780739E-06   0.3146742032E-03  -0.2289112296E-05   0.5476223729E-01   0.3563854144E-02   0.0000000000E+00  -0.1817754117E-01   0.0000000000E+00   0.0000000000E+00   0.5369308105E-03  -0.1286481704E-03  -0.4726160705E-03  -0.1749782743E-03   0.0000000000E+00   0.0000000000E+00   0.6142955119E-01
   0.1871076211E+00   0.1901174577E-01   0.7989382484E-04  -0.2349657289E-06   0.3195752994E-03  -0.9398629157E-06   0.4330658397E-01   0.5686688330E-02   0.0000000000E+00  -0.8874667599E-02   0.0000000000E+00   0.0000000000E+00   0.4160057747E-03  -0.7305286861E-04  -0.2307413576E-03  -0.1469798169E-03   0.0000000000E+00   0.0000000000E+00   0.4394429604E-01
   0.2076411981E+00   0.1873729227E-01   0.8178322220E-04  -0.1463252366E-06   0.3271328888E-03  -0.5853009465E-06   0.5274158025E-01   0.1081016295E-01   0.0000000000E+00  -0.7036990454E-02   0.0000000000E+00   0.0000000000E+00   0.4949853137E-03  -0.5012311130E-04  -0.1829617518E-03  -0.1906552296E-03   0.0000000000E+00   0.0000000000E+00   0.4993210732E-01
   0.1576420118E+00   0.2158631358E+00   0.4373295765E-04  -0.1886243751E-04   0.1749318306E-03  -0.7544975005E-04   0.1512097174E+00  -0.3323094213E-02   0.0000000000E+00   0.3991782331E-02   0.0000000000E+00   0.0000000000E+00   0.1522066456E-02  -0.4868600943E-03   0.1037863406E-03  -0.4436598695E-03   0.0000000000E+00   0.0000000000E+00   0.1530459912E+00
   0.1566591312E+00   0.2325024737E+00   0.4129203372E-04  -0.2060565788E-04   0.1651681349E-03  -0.8242263153E-04   0.1549651705E+00  -0.1401118737E-02   0.0000000000E+00   0.2495126385E-02   0.0000000000E+00   0.0000000000E+00   0.1553855061E-02  -0.4789066988E-03   0.6487328601E-04  -0.4606921552E-03   0.0000000000E+00   0.0000000000E+00   0.1557434161E+00
   0.1371558387E+00   0.2325117973E+00   0.3529354858E-04  -0.2366734658E-04   0.1411741943E-03  -0.9466938632E-04   0.1517403071E+00  -0.1449901623E-02   0.0000000000E+00   0.4466579868E-02   0.0000000000E+00   0.0000000000E+00   0.1521752776E-02  -0.4697199376E-03   0.1161310766E-03  -0.4508712165E-03   0.0000000000E+00   0.0000000000E+00   0.1526847136E+00
   0.1384047091E+00   0.2157034798E+00   0.3791982871E-04  -0.2185864502E-04   0.1516793149E-03  -0.8743458008E-04   0.1500886298E+00  -0.3697107067E-02   0.0000000000E+00   0.7388898403E-02   0.0000000000E+00   0.0000000000E+00   0.1511977619E-02  -0.4872369600E-03   0.1921113585E-03  -0.4391745682E-03   0.0000000000E+00   0.0000000000E+00   0.1524806547E+00
   0.0000000000E+00   0.9983399698E-01   0.0000000000E+00  -0.3320080307E-04   0.0000000000E+00  -0.1328032123E-03   0.4105382022E+00   0.2853434060E-01   0.0000000000E+00   0.5764019764E-02   0.0000000000E+00   0.0000000000E+00   0.4019779000E-02  -0.9462712006E-03   0.1498645139E-03  -0.1317217628E-02   0.0000000000E+00   0.0000000000E+00   0.3941166358E+00
   0.1958639442E-01   0.9791750485E-01   0.1547240370E-04  -0.3220434981E-04   0.6188961480E-04  -0.1288173992E-03   0.3801013258E+00   0.2859068341E-01   0.0000000000E+00  -0.5705710379E-01   0.0000000000E+00   0.0000000000E+00   0.3715241208E-02  -0.8543971433E-03  -0.1483484699E-02  -0.1226076028E-02   0.0000000000E+00   0.0000000000E+00   0.3765329492E+00
   0.1682832077E-01   0.1511507776E+00   0.5852394331E-05  -0.3718747266E-04   0.2340957732E-04  -0.1487498906E-03   0.1837585882E+00   0.3111321621E-01   0.0000000000E+00   0.5531146447E-02   0.0000000000E+00   0.0000000000E+00   0.1744246233E-02  -0.2401436025E-03   0.1438098076E-03  -0.6446154132E-03   0.0000000000E+00   0.0000000000E+00   0.1711841922E+00
   0.0000000000E+00   0.1498109757E+00   0.0000000000E+00  -0.3780606723E-04   0.0000000000E+00  -0.1512242689E-03   0.1855634271E+00   0.3540750107E-01   0.0000000000E+00   0.4644689582E-02   0.0000000000E+00   0.0000000000E+00   0.1749411768E-02  -0.2026152705E-03   0.1207619291E-03  -0.6629127845E-03   0.0000000000E+00   0.0000000000E+00   0.1708265102E+00
   0.5115201681E-01   0.1385135417E+00   0.1954134279E-04  -0.3121966648E-04   0.7816537118E-04  -0.1248786659E-03   0.1899245289E+00   0.1208018244E-01   0.0000000000E+00   0.9561145796E-02   0.0000000000E+00   0.0000000000E+00   0.1863004742E-02  -0.4489717623E-03   0.2485897907E-03  -0.6060141341E-03   0.0000000000E+00   0.0000000000E+00   0.1848026140E+00
   0.4913108917E-01   0.1538955323E+00   0.1683707346E-04  -0.3288874068E-04   0.6734829382E-04  -0.1315549627E-03   0.1759613396E+00   0.1329799566E-01   0.0000000000E+00   0.1531872884E-01   0.0000000000E+00   0.0000000000E+00   0.1719719409E-02  -0.3949040621E-03   0.3982869499E-03  -0.5677780056E-03   0.0000000000E+00   0.0000000000E+00   0.1718014109E+00
   0.3323278403E-01   0.1525593458E+00   0.1146386679E-04  -0.3542183320E-04   0.4585546715E-04  -0.1416873328E-03   0.1808270087E+00   0.2355885478E-01   0.0000000000E+00   0.1166741739E-01   0.0000000000E+00   0.0000000000E+00   0.1737593522E-02  -0.3068924782E-03   0.3033528521E-03  -0.6131575903E-03   0.0000000000E+00   0.0000000000E+00   0.1721734434E+00
   0.3443948938E-01   0.1355691065E+00   0.1360255597E-04  -0.3413630513E-04   0.5441022389E-04  -0.1365452205E-03   0.1999984086E+00   0.2447516536E-01   0.0000000000E+00   0.1184517552E-01   0.0000000000E+00   0.0000000000E+00   0.1926558590E-02  -0.3552435721E-03   0.3079745636E-03  -0.6734207218E-03   0.0000000000E+00   0.0000000000E+00   0.1874790080E+00
   0.1671096503E-01   0.1676132889E+00   0.5259745871E-05  -0.3796982941E-04   0.2103898348E-04  -0.1518793176E-03   0.1659949749E+00   0.2573719191E-01   0.0000000000E+00   0.6808438393E-02   0.0000000000E+00   0.0000000000E+00   0.1582738174E-02  -0.2406130058E-03   0.1770193982E-03  -0.5751965006E-03   0.0000000000E+00   0.0000000000E+00   0.1552771842E+00
   0.0000000000E+00   0.1664742142E+00   0.0000000000E+00  -0.3849155194E-04   0.0000000000E+00  -0.1539662077E-03   0.1661591536E+00   0.2807024355E-01   0.0000000000E+00   0.3921314189E-02   0.0000000000E+00   0.0000000000E+00   0.1577380806E-02  -0.2177750254E-03   0.1019541689E-03  -0.5826881916E-03   0.0000000000E+00   0.0000000000E+00   0.1540752565E+00
   0.1711635802E-01   0.1839315732E+00   0.4979124603E-05  -0.3879096543E-04   0.1991649841E-04  -0.1551638617E-03   0.1517489067E+00   0.1814721757E-01   0.0000000000E+00   0.6674028682E-02   0.0000000000E+00   0.0000000000E+00   0.1463047414E-02  -0.2737745443E-03   0.1735247457E-03  -0.5096883728E-03   0.0000000000E+00   0.0000000000E+00   0.1441896178E+00
   0.3344314956E-01   0.1684250727E+00   0.1052775111E-04  -0.3636385582E-04   0.4211100445E-04  -0.1454554233E-03   0.1648639561E+00   0.1883085441E-01   0.0000000000E+00   0.1464729134E-01   0.0000000000E+00   0.0000000000E+00   0.1592146998E-02  -0.3062833243E-03   0.3808295749E-03  -0.5510844317E-03   0.0000000000E+00   0.0000000000E+00   0.1580429671E+00
   0.3456380210E-01   0.1840931762E+00   0.1009999946E-04  -0.3721135049E-04   0.4039999784E-04  -0.1488454020E-03   0.1522571687E+00   0.1382193915E-01   0.0000000000E+00   0.1413325348E-01   0.0000000000E+00   0.0000000000E+00   0.1481105869E-02  -0.3185521145E-03   0.3674645904E-03  -0.4982373234E-03   0.0000000000E+00   0.0000000000E+00   0.1478683697E+00
   0.1946193989E-01   0.2497866301E+00   0.3498958293E-05  -0.4267398575E-04   0.1399583317E-04  -0.1706959430E-03   0.9129908565E-01  -0.1614248457E-02   0.0000000000E+00   0.4625080527E-03   0.0000000000E+00   0.0000000000E+00   0.9178336019E-03  -0.2900397415E-03   0.1202520937E-04  -0.2690545116E-03   0.0000000000E+00   0.0000000000E+00   0.9225996960E-01
   0.3852085774E-01   0.2327440153E+00   0.8608407358E-05  -0.4005294358E-04   0.3443362943E-04  -0.1602117743E-03   0.1168463678E+00   0.2059696499E-02   0.0000000000E+00   0.6619047228E-02   0.0000000000E+00   0.0000000000E+00   0.1162284589E-02  -0.3299421385E-03   0.1720952279E-03  -0.3567181930E-03   0.0000000000E+00   0.0000000000E+00   0.1164671419E+00
   0.3892493068E-01   0.2497945432E+00   0.7208076002E-05  -0.4109136650E-04   0.2883230401E-04  -0.1643654660E-03   0.9921729084E-01  -0.1390529768E-02   0.0000000000E+00   0.2609263343E-02   0.0000000000E+00   0.0000000000E+00   0.9963444977E-03  -0.3115571702E-03   0.6784084693E-04  -0.2934802832E-03   0.0000000000E+00   0.0000000000E+00   0.1000108128E+00
   0.3296522562E+00   0.0000000000E+00   0.9711503874E-04   0.0000000000E+00   0.3884601550E-03   0.0000000000E+00   0.7551450928E-01   0.2183522151E-01   0.0000000000E+00  -0.2292819240E-03   0.0000000000E+00   0.0000000000E+00   0.6896394283E-03  -0.8191312704E-05  -0.5961330025E-05  -0.2920491924E-03   0.0000000000E+00   0.0000000000E+00   0.6730665488E-01
   0.3504999940E+00   0.0000000000E+00   0.1000000000E-03   0.0000000000E+00   0.4000000000E-03   0.0000000000E+00   0.7595765407E-01   0.2197129621E-01   0.0000000000E+00  -0.1379307769E-05   0.0000000000E+00   0.0000000000E+00   0.6936626521E-03  -0.8160000083E-05  -0.3586200199E-07  -0.2937868508E-03   0.0000000000E+00   0.0000000000E+00   0.6770077514E-01
   0.3504999940E+00   0.1923057353E-01   0.1000000000E-03  -0.3927361594E-07   0.4000000000E-03  -0.1570944638E-06   0.7678634389E-01   0.2160164497E-01   0.0000000000E+00  -0.2797494612E-06   0.0000000000E+00   0.0000000000E+00   0.7030585040E-03  -0.1434258199E-04  -0.7273485991E-08  -0.2951639666E-03   0.0000000000E+00   0.0000000000E+00   0.6858319297E-01
   0.3302485850E+00   0.1871435405E-01   0.9715960959E-04  -0.3825040932E-07   0.3886384384E-03  -0.1530016373E-06   0.7638766266E-01   0.2148559350E-01   0.0000000000E+00  -0.7028175492E-03   0.0000000000E+00   0.0000000000E+00   0.6994198461E-03  -0.1430705299E-04  -0.1827325628E-04  -0.2936197685E-03   0.0000000000E+00   0.0000000000E+00   0.6823990018E-01
   0.3504999940E+00   0.3846091024E-01   0.1000000000E-03  -0.1259314826E-06   0.4000000000E-03  -0.5037259304E-06   0.7930159525E-01   0.2052349116E-01   0.0000000000E+00   0.7878066124E-05   0.0000000000E+00   0.0000000000E+00   0.7314454790E-03  -0.3266987413E-04   0.2048297192E-06  -0.2994752592E-03   0.0000000000E+00   0.0000000000E+00   0.7128158735E-01
   0.3306913772E+00   0.3768241740E-01   0.9710983635E-04  -0.1230206226E-06   0.3884393454E-03  -0.4920824904E-06   0.7897326946E-01   0.2045145059E-01   0.0000000000E+00  -0.1462440773E-02   0.0000000000E+00   0.0000000000E+00   0.7283783428E-03  -0.3240530251E-04  -0.3802346010E-04  -0.2982741601E-03   0.0000000000E+00   0.0000000000E+00   0.7102622552E-01
   0.3310434278E+00   0.5676123150E-01   0.9698375451E-04  -0.2987199771E-06   0.3879350181E-03  -0.1194879908E-05   0.8312984960E-01   0.1879544469E-01   0.0000000000E+00  -0.1977370926E-02   0.0000000000E+00   0.0000000000E+00   0.7749121619E-03  -0.6143510194E-04  -0.5141164407E-04  -0.3057758828E-03   0.0000000000E+00   0.0000000000E+00   0.7556876080E-01
   0.3313216431E+00   0.7595362782E-01   0.9679521264E-04  -0.6044565700E-06   0.3871808505E-03  -0.2417826280E-05   0.8862215512E-01   0.1666046197E-01   0.0000000000E+00  -0.2351595474E-02   0.0000000000E+00   0.0000000000E+00   0.8362401653E-03  -0.9926184571E-04  -0.6114148232E-04  -0.3158478513E-03   0.0000000000E+00   0.0000000000E+00   0.8165915999E-01
   0.3122797404E+00   0.7514239595E-01   0.9364067592E-04  -0.6233693490E-06   0.3745627037E-03  -0.2493477396E-05   0.8783995064E-01   0.1608223477E-01   0.0000000000E+00  -0.4661009400E-02   0.0000000000E+00   0.0000000000E+00   0.8301528021E-03  -0.1026975042E-03  -0.1211862444E-03  -0.3117665562E-03   0.0000000000E+00   0.0000000000E+00   0.8138762604E-01
   0.3116149254E+00   0.5605165268E-01   0.9400147928E-04  -0.3092443953E-06   0.3760059171E-03  -0.1236977581E-05   0.8214350625E-01   0.1826276556E-01   0.0000000000E+00  -0.3945695148E-02   0.0000000000E+00   0.0000000000E+00   0.7666467659E-03  -0.6380286314E-04  -0.1025880738E-03  -0.3012188154E-03   0.0000000000E+00   0.0000000000E+00   0.7500201990E-01
   0.3314650839E+00   0.9525064555E-01   0.9654537556E-04  -0.1071050767E-05   0.3861815022E-03  -0.4284203067E-05   0.9515344720E-01   0.1419508121E-01   0.0000000000E+00  -0.2550275224E-02   0.0000000000E+00   0.0000000000E+00   0.9089492284E-03  -0.1435095295E-03  -0.6630715583E-04  -0.3280455852E-03   0.0000000000E+00   0.0000000000E+00   0.8899887164E-01
   0.3126544351E+00   0.9439510764E-01   0.9315601985E-04  -0.1102871346E-05   0.3726240794E-03  -0.4411485386E-05   0.9458451217E-01   0.1359997729E-01   0.0000000000E+00  -0.5015329464E-02   0.0000000000E+00   0.0000000000E+00   0.9050451898E-03  -0.1477537636E-03  -0.1303985661E-03  -0.3245534684E-03   0.0000000000E+00   0.0000000000E+00   0.8897891211E-01
   0.3314499850E+00   0.1147009551E+00   0.9623759778E-04  -0.1721778702E-05   0.3849503911E-03  -0.6887114808E-05   0.1024392766E+00   0.1158876425E-01   0.0000000000E+00  -0.2607623037E-02   0.0000000000E+00   0.0000000000E+00   0.9896264732E-03  -0.1914301873E-03  -0.6779819896E-04  -0.3420841225E-03   0.0000000000E+00   0.0000000000E+00   0.9725088012E-01
   0.3313071086E+00   0.1342621997E+00   0.9588511024E-04  -0.2566868807E-05   0.3835404410E-03  -0.1026747523E-04   0.1101498117E+00   0.9015685588E-02   0.0000000000E+00  -0.2507824621E-02   0.0000000000E+00   0.0000000000E+00   0.1074451060E-02  -0.2402925793E-03  -0.6520344013E-04  -0.3574964919E-03   0.0000000000E+00   0.0000000000E+00   0.1060034111E+00
   0.3122568846E+00   0.1337803898E+00   0.9180551823E-04  -0.2658444113E-05   0.3672220729E-03  -0.1063377645E-04   0.1101479220E+00   0.8383723751E-02   0.0000000000E+00  -0.4878846138E-02   0.0000000000E+00   0.0000000000E+00   0.1076328049E-02  -0.2466065285E-03  -0.1268499996E-03  -0.3555949373E-03   0.0000000000E+00   0.0000000000E+00   0.1065314317E+00
   0.3126487141E+00   0.1139266497E+00   0.9254222017E-04  -0.1774655076E-05   0.3701688807E-03  -0.7098620305E-05   0.1021216540E+00   0.1094478292E-01   0.0000000000E+00  -0.5077562637E-02   0.0000000000E+00   0.0000000000E+00   0.9883821912E-03  -0.1969171328E-03  -0.1320166286E-03  -0.3391993108E-03   0.0000000000E+00   0.0000000000E+00   0.9749764108E-01
   0.2894533735E+00   0.1826394133E-01   0.9156189856E-04  -0.4625408251E-07   0.3662475942E-03  -0.1850163300E-06   0.7297143719E-01   0.2016407393E-01   0.0000000000E+00  -0.2177302805E-02   0.0000000000E+00   0.0000000000E+00   0.6692221501E-03  -0.1727357223E-04  -0.5660987294E-04  -0.2794065334E-03   0.0000000000E+00   0.0000000000E+00   0.6538516554E-01
   0.2879573968E+00   0.0000000000E+00   0.9148055335E-04   0.0000000000E+00   0.3659222134E-03   0.0000000000E+00   0.7181201251E-01   0.2049941531E-01   0.0000000000E+00  -0.7202287305E-03   0.0000000000E+00   0.0000000000E+00   0.6566218791E-03  -0.1044188438E-04  -0.1872594699E-04  -0.2769342835E-03   0.0000000000E+00   0.0000000000E+00   0.6406063010E-01
   0.3088046546E+00   0.0000000000E+00   0.9426351416E-04   0.0000000000E+00   0.3770540566E-03   0.0000000000E+00   0.7415676629E-01   0.2135222065E-01   0.0000000000E+00  -0.4633413163E-03   0.0000000000E+00   0.0000000000E+00   0.6775110009E-03  -0.8948092397E-05  -0.1204687422E-04  -0.2865269608E-03   0.0000000000E+00   0.0000000000E+00   0.6611496056E-01
   0.3098592816E+00   0.1840605040E-01   0.9433151943E-04  -0.4058067522E-07   0.3773260777E-03  -0.1623227009E-06   0.7511014463E-01   0.2100826710E-01   0.0000000000E+00  -0.1409618556E-02   0.0000000000E+00   0.0000000000E+00   0.6880766450E-03  -0.1524776292E-04  -0.3665008246E-04  -0.2883552352E-03   0.0000000000E+00   0.0000000000E+00   0.6716463122E-01
   0.2125365659E+00   0.1636513038E+00   0.6587058204E-04  -0.7861648467E-05   0.2634823282E-03  -0.3144659387E-04   0.1310858126E+00  -0.4551603776E-02   0.0000000000E+00  -0.8806889718E-02   0.0000000000E+00   0.0000000000E+00   0.1324512938E-02  -0.4387734757E-03  -0.2289791327E-03  -0.3796026266E-03   0.0000000000E+00   0.0000000000E+00   0.1342765797E+00
   0.2166530414E+00   0.1467383929E+00   0.6891048186E-04  -0.6172413349E-05   0.2756419274E-03  -0.2468965340E-04   0.1226274963E+00  -0.4609615714E-02   0.0000000000E+00  -0.1205332554E-01   0.0000000000E+00   0.0000000000E+00   0.1240103810E-02  -0.4139786461E-03  -0.3133864639E-03  -0.3540536418E-03   0.0000000000E+00   0.0000000000E+00   0.1266918760E+00
   0.2313175657E+00   0.1467087443E+00   0.7251813074E-04  -0.5390745667E-05   0.2900725230E-03  -0.2156298267E-04   0.1213298212E+00  -0.1647486558E-02   0.0000000000E+00  -0.1130642895E-01   0.0000000000E+00   0.0000000000E+00   0.1218240672E-02  -0.3804643292E-03  -0.2939671526E-03  -0.3590470039E-03   0.0000000000E+00   0.0000000000E+00   0.1237134651E+00
   0.2325047820E+00   0.1630721499E+00   0.7113459479E-04  -0.6605018358E-05   0.2845383792E-03  -0.2642007343E-04   0.1282321713E+00  -0.1518189597E-02   0.0000000000E+00  -0.9001764366E-02   0.0000000000E+00   0.0000000000E+00   0.1286876281E-02  -0.3998784098E-03  -0.2340458735E-03  -0.3801419450E-03   0.0000000000E+00   0.0000000000E+00   0.1299331088E+00
   0.2281852359E+00   0.1845659547E-01   0.8395598345E-04  -0.9936692280E-07   0.3358239338E-03  -0.3974676912E-06   0.5998760781E-01   0.1449504645E-01   0.0000000000E+00  -0.5394871427E-02   0.0000000000E+00   0.0000000000E+00   0.5563909388E-03  -0.3501235897E-04  -0.1402666571E-03  -0.2234479628E-03   0.0000000000E+00   0.0000000000E+00   0.5509908152E-01
   0.2310354036E+00   0.3704678553E-01   0.8342411208E-04  -0.2758542324E-06   0.3336964483E-03  -0.1103416930E-05   0.6598368922E-01   0.1302581911E-01   0.0000000000E+00  -0.1089015048E-01   0.0000000000E+00   0.0000000000E+00   0.6207594349E-03  -0.6769287659E-04  -0.2831439125E-03  -0.2370285250E-03   0.0000000000E+00   0.0000000000E+00   0.6328202313E-01
   0.1837342015E+00   0.0000000000E+00   0.8017289214E-04   0.0000000000E+00   0.3206915685E-03   0.0000000000E+00   0.3870086707E-01   0.5593140959E-02   0.0000000000E+00  -0.3264240443E-02   0.0000000000E+00   0.0000000000E+00   0.3702292478E-03  -0.6017119161E-04  -0.8487025151E-04  -0.1328820241E-03   0.0000000000E+00   0.0000000000E+00   0.3629443734E-01
   0.2045761685E+00   0.0000000000E+00   0.8190049282E-04   0.0000000000E+00   0.3276019713E-03   0.0000000000E+00   0.4912044984E-01   0.1129700663E-01   0.0000000000E+00  -0.2451187380E-02   0.0000000000E+00   0.0000000000E+00   0.4573134785E-03  -0.3439128325E-04  -0.6373087187E-04  -0.1812523694E-03   0.0000000000E+00   0.0000000000E+00   0.4439366981E-01
   0.1420569797E+00   0.0000000000E+00   0.7806273548E-04   0.0000000000E+00   0.3122509419E-03   0.0000000000E+00   0.7880488862E-02  -0.1999264687E-01   0.0000000000E+00  -0.7840989973E-02   0.0000000000E+00   0.0000000000E+00   0.1387828292E-03  -0.2235679353E-03  -0.2038657393E-03   0.3633647402E-04   0.0000000000E+00   0.0000000000E+00   0.2769364466E-01
   0.1460547101E+00   0.2097742465E-01   0.7700522855E-04  -0.8273498823E-06   0.3080209142E-03  -0.3309399529E-05   0.1775724204E-01  -0.1642797072E-01   0.0000000000E+00  -0.1234287615E-01   0.0000000000E+00   0.0000000000E+00   0.2268563325E-03  -0.2175514333E-03  -0.3209147798E-03  -0.3987813938E-05   0.0000000000E+00   0.0000000000E+00   0.3723384277E-01
   0.3504999940E+00   0.2499456566E+00   0.1000000000E-03  -0.1086868525E-04   0.4000000000E-03  -0.4347474102E-04   0.1498551565E+00   0.4775983718E-03   0.0000000000E+00   0.4316817361E-03   0.0000000000E+00   0.0000000000E+00   0.1497118770E-02  -0.4447894858E-03   0.1122372514E-04  -0.4509982647E-03   0.0000000000E+00   0.0000000000E+00   0.1496187160E+00
   0.3310264224E+00   0.2499452736E+00   0.9417288591E-04  -0.1094527924E-04   0.3766915436E-03  -0.4378111697E-04   0.1502747516E+00   0.4817855700E-03   0.0000000000E+00  -0.3142539050E-03   0.0000000000E+00   0.0000000000E+00   0.1501302159E-02  -0.4460063991E-03  -0.8170601530E-05  -0.4522696115E-03   0.0000000000E+00   0.0000000000E+00   0.1500361545E+00
   0.3312606736E+00   0.2310004191E+00   0.9442411028E-04  -0.9269372719E-05   0.3776964411E-03  -0.3707749088E-04   0.1454041667E+00   0.3152376085E-03   0.0000000000E+00  -0.7500204358E-03   0.0000000000E+00   0.0000000000E+00   0.1453095954E-02  -0.4330601240E-03  -0.1950053133E-04  -0.4371582129E-03   0.0000000000E+00   0.0000000000E+00   0.1452536289E+00
   0.3504999940E+00   0.2307233571E+00   0.1000000000E-03  -0.9174980948E-05   0.4000000000E-03  -0.3669992379E-04   0.1451074254E+00   0.3584730065E-03   0.0000000000E+00   0.4001465694E-03   0.0000000000E+00   0.0000000000E+00   0.1449998834E-02  -0.4317375460E-03   0.1040381080E-04  -0.4363976951E-03   0.0000000000E+00   0.0000000000E+00   0.1449307079E+00
   0.2734066423E+00   0.2316129812E+00   0.7741206039E-04  -0.1050816389E-04   0.3096482416E-03  -0.4203265557E-04   0.1495742231E+00   0.4768120275E-05   0.0000000000E+00  -0.2022426828E-02   0.0000000000E+00   0.0000000000E+00   0.1495727927E-02  -0.4486749881E-03  -0.5258309752E-04  -0.4487369736E-03   0.0000000000E+00   0.0000000000E+00   0.1496191301E+00
   0.2926782457E+00   0.2314401176E+00   0.8313833859E-04  -0.9914081685E-05   0.3325533544E-03  -0.3965632674E-04   0.1477682229E+00   0.1463444894E-03   0.0000000000E+00  -0.1712334507E-02   0.0000000000E+00   0.0000000000E+00   0.1477243196E-02  -0.4418412238E-03  -0.4452069719E-04  -0.4437437022E-03   0.0000000000E+00   0.0000000000E+00   0.1477294091E+00
   0.2920786247E+00   0.2499420154E+00   0.8239353590E-04  -0.1159691782E-04   0.3295741436E-03  -0.4638767128E-04   0.1534265401E+00   0.5445499411E-03   0.0000000000E+00  -0.5156479278E-03   0.0000000000E+00   0.0000000000E+00   0.1532631751E-02  -0.4548341209E-03  -0.1340684612E-04  -0.4619132701E-03   0.0000000000E+00   0.0000000000E+00   0.1531558417E+00
   0.2726041573E+00   0.2499389273E+00   0.7638726341E-04  -0.1221453869E-04   0.3055490536E-03  -0.4885815475E-04   0.1559180438E+00   0.6011898543E-03   0.0000000000E+00  -0.5973676618E-03   0.0000000000E+00   0.0000000000E+00   0.1557376869E-02  -0.4617422330E-03  -0.1553155921E-04  -0.4695577011E-03   0.0000000000E+00   0.0000000000E+00   0.1556196394E+00
   0.3504999940E+00   0.1730532494E+00   0.1000000000E-03  -0.4735727678E-05   0.4000000000E-03  -0.1894291071E-04   0.1254313254E+00   0.4711108266E-02   0.0000000000E+00   0.3134673185E-03   0.0000000000E+00   0.0000000000E+00   0.1240179929E-02  -0.3291828936E-03   0.8150150281E-05  -0.3904273011E-03   0.0000000000E+00   0.0000000000E+00   0.1231395692E+00
   0.3312542633E+00   0.1732902828E+00   0.9522826733E-04  -0.4807041504E-05   0.3809130693E-03  -0.1922816602E-04   0.1255795953E+00   0.4521424288E-02   0.0000000000E+00  -0.2041228565E-02   0.0000000000E+00   0.0000000000E+00   0.1242231681E-02  -0.3315245431E-03  -0.5307194268E-04  -0.3903030589E-03   0.0000000000E+00   0.0000000000E+00   0.1234240843E+00
   0.3312474108E+00   0.1538293477E+00   0.9554456449E-04  -0.3600865664E-05   0.3821782580E-03  -0.1440346266E-04   0.1179454883E+00   0.6643266359E-02   0.0000000000E+00  -0.2326817400E-02   0.0000000000E+00   0.0000000000E+00   0.1159525084E-02  -0.2874038013E-03  -0.6049725241E-04  -0.3737662640E-03   0.0000000000E+00   0.0000000000E+00   0.1148274557E+00
   0.3504999940E+00   0.1538283958E+00   0.1000000000E-03  -0.3552845045E-05   0.4000000000E-03  -0.1421138018E-04   0.1178365454E+00   0.6818441637E-02   0.0000000000E+00   0.2774715079E-03   0.0000000000E+00   0.0000000000E+00   0.1157910129E-02  -0.2853252198E-03   0.7214259204E-05  -0.3739649610E-03   0.0000000000E+00   0.0000000000E+00   0.1145721710E+00
   0.3504999940E+00   0.1346026668E+00   0.1000000000E-03  -0.2544832685E-05   0.4000000000E-03  -0.1017933074E-04   0.1100867173E+00   0.9169834881E-02   0.0000000000E+00   0.2151113017E-03   0.0000000000E+00   0.0000000000E+00   0.1073357669E-02  -0.2385618032E-03   0.5592893844E-05  -0.3577696567E-03   0.0000000000E+00   0.0000000000E+00   0.1057894075E+00
   0.3504999940E+00   0.1153760190E+00   0.1000000000E-03  -0.1719395775E-05   0.4000000000E-03  -0.6877583099E-05   0.1024513249E+00   0.1167703555E-01   0.0000000000E+00   0.1655499858E-03   0.0000000000E+00   0.0000000000E+00   0.9894821425E-03  -0.1905836192E-03   0.4304299631E-05  -0.3423850814E-03   0.0000000000E+00   0.0000000000E+00   0.9712503440E-01
   0.3504999940E+00   0.9614845826E-01   0.1000000000E-03  -0.1077928826E-05   0.4000000000E-03  -0.4311715302E-05   0.9523596991E-01   0.1423622853E-01   0.0000000000E+00   0.1088975741E-03   0.0000000000E+00   0.0000000000E+00   0.9096510135E-03  -0.1433456245E-03   0.2831336927E-05  -0.3284165953E-03   0.0000000000E+00   0.0000000000E+00   0.8895778499E-01
   0.3504999940E+00   0.7692001824E-01   0.1000000000E-03  -0.6123112952E-06   0.4000000000E-03  -0.2449245181E-05   0.8877368970E-01   0.1667898391E-01   0.0000000000E+00   0.6384998946E-04   0.0000000000E+00   0.0000000000E+00   0.8376999453E-03  -0.9953123003E-04   0.1660099726E-05  -0.3163580208E-03   0.0000000000E+00   0.0000000000E+00   0.8170208610E-01
   0.3504999940E+00   0.5769078575E-01   0.1000000000E-03  -0.3044504355E-06   0.4000000000E-03  -0.1217801742E-05   0.8336953873E-01   0.1883283600E-01   0.0000000000E+00   0.2921634189E-04   0.0000000000E+00   0.0000000000E+00   0.7771968793E-03  -0.6178025620E-04   0.7596248892E-06  -0.3066071242E-03   0.0000000000E+00   0.0000000000E+00   0.7571455066E-01
   0.0000000000E+00   0.2497839039E+00   0.0000000000E+00  -0.4321922400E-04   0.0000000000E+00  -0.1728768960E-03   0.8847618507E-01  -0.1686947152E-02   0.0000000000E+00   0.3162126053E-02   0.0000000000E+00   0.0000000000E+00   0.8898226922E-03  -0.2822980267E-03   0.8221527738E-04  -0.2603677138E-03   0.0000000000E+00   0.0000000000E+00   0.8949361437E-01
   0.3763421612E-01   0.2160236289E+00   0.9435383102E-05  -0.3901022444E-04   0.3774153241E-04  -0.1560408978E-03   0.1297853142E+00   0.4486863685E-02   0.0000000000E+00   0.1143038326E-01   0.0000000000E+00   0.0000000000E+00   0.1284392551E-02  -0.3444873057E-03   0.2971899648E-03  -0.4028165336E-03   0.0000000000E+00   0.0000000000E+00   0.1290748130E+00
   0.3624261907E-01   0.1999143799E+00   0.9862313201E-05  -0.3806382529E-04   0.3944925280E-04  -0.1522553012E-03   0.1410442644E+00   0.8780481709E-02   0.0000000000E+00   0.1329827874E-01   0.0000000000E+00   0.0000000000E+00   0.1384101199E-02  -0.3353279762E-03   0.3457552473E-03  -0.4494742384E-03   0.0000000000E+00   0.0000000000E+00   0.1387318689E+00
   0.5565995277E-01   0.1984325799E+00   0.1540615401E-04  -0.3528882907E-04   0.6162461606E-04  -0.1411553163E-03   0.1450407413E+00   0.4937510737E-02   0.0000000000E+00   0.1763484937E-01   0.0000000000E+00   0.0000000000E+00   0.1435594881E-02  -0.3857471166E-03   0.4585060837E-03  -0.4499347562E-03   0.0000000000E+00   0.0000000000E+00   0.1459120674E+00
   0.5758051042E-01   0.2147441265E+00   0.1475406468E-04  -0.3624449171E-04   0.5901625873E-04  -0.1449779668E-03   0.1355024418E+00   0.2181152767E-02   0.0000000000E+00   0.1475103181E-01   0.0000000000E+00   0.0000000000E+00   0.1348480960E-02  -0.3846957977E-03   0.3835268271E-03  -0.4130507837E-03   0.0000000000E+00   0.0000000000E+00   0.1368053001E+00
   0.1783173713E-01   0.2002169110E+00   0.4813806206E-05  -0.3969240577E-04   0.1925522482E-04  -0.1587696231E-03   0.1393901782E+00   0.1173601664E-01   0.0000000000E+00   0.6181202349E-02   0.0000000000E+00   0.0000000000E+00   0.1358693732E-02  -0.3008103682E-03   0.1607112611E-03  -0.4533785845E-03   0.0000000000E+00   0.0000000000E+00   0.1344915008E+00
   0.5826509744E-01   0.2321309113E+00   0.1339390857E-04  -0.3743534535E-04   0.5357563429E-04  -0.1497413814E-03   0.1241593304E+00   0.1258359935E-02   0.0000000000E+00   0.8460664867E-02   0.0000000000E+00   0.0000000000E+00   0.1237818225E-02  -0.3598943920E-03   0.2199772865E-03  -0.3762530711E-03   0.0000000000E+00   0.0000000000E+00   0.1245159658E+00
   0.1557485171E+00   0.2498879620E+00   0.3859122364E-04  -0.2240760423E-04   0.1543648946E-03  -0.8963041693E-04   0.1619102339E+00   0.5004309879E-03   0.0000000000E+00   0.1033911397E-02   0.0000000000E+00   0.0000000000E+00   0.1617601046E-02  -0.4807263919E-03   0.2688169633E-04  -0.4872319947E-03   0.0000000000E+00   0.0000000000E+00   0.1616697595E+00
   0.1362730939E+00   0.2498728225E+00   0.3239678858E-04  -0.2543549050E-04   0.1295871543E-03  -0.1017419620E-03   0.1563596013E+00   0.2368177100E-03   0.0000000000E+00   0.1712321959E-02   0.0000000000E+00   0.0000000000E+00   0.1562885560E-02  -0.4667106269E-03   0.4452037093E-04  -0.4697892572E-03   0.0000000000E+00   0.0000000000E+00   0.1562412484E+00
   0.1752247086E+00   0.2499012140E+00   0.4494232407E-04  -0.1975719873E-04   0.1797692963E-03  -0.7902879492E-04   0.1646211963E+00   0.6501473325E-03   0.0000000000E+00   0.4418852818E-03   0.0000000000E+00   0.0000000000E+00   0.1644261521E-02  -0.4873621154E-03   0.1148901733E-04  -0.4958140308E-03   0.0000000000E+00   0.0000000000E+00   0.1643098851E+00
   0.1761610917E+00   0.2324064067E+00   0.4739093448E-04  -0.1794125539E-04   0.1895637379E-03  -0.7176502157E-04   0.1564649843E+00  -0.1238588639E-02   0.0000000000E+00   0.7891161803E-03   0.0000000000E+00   0.0000000000E+00   0.1568365609E-02  -0.4817808393E-03   0.2051702069E-04  -0.4656791870E-03   0.0000000000E+00   0.0000000000E+00   0.1571046353E+00
   0.2254197844E+00   0.0000000000E+00   0.8395808191E-04   0.0000000000E+00   0.3358323277E-03   0.0000000000E+00   0.5728740125E-01   0.1482542023E-01   0.0000000000E+00  -0.1848262734E-02   0.0000000000E+00   0.0000000000E+00   0.5283977518E-03  -0.2360800150E-04  -0.4805483109E-04  -0.2163384644E-03   0.0000000000E+00   0.0000000000E+00   0.5145324523E-01
   0.2462647385E+00   0.0000000000E+00   0.8628030067E-04   0.0000000000E+00   0.3451212027E-03   0.0000000000E+00   0.6361196489E-01   0.1739817074E-01   0.0000000000E+00  -0.1385803581E-02   0.0000000000E+00   0.0000000000E+00   0.5839251366E-03  -0.1685418721E-04  -0.3603089311E-04  -0.2430304069E-03   0.0000000000E+00   0.0000000000E+00   0.5690159147E-01
   0.2486780507E+00   0.1834206450E-01   0.8634173279E-04  -0.7267901072E-07   0.3453669312E-03  -0.2907160429E-06   0.6559770785E-01   0.1704495099E-01   0.0000000000E+00  -0.4105517039E-02   0.0000000000E+00   0.0000000000E+00   0.6048422255E-03  -0.2634361363E-04  -0.1067434430E-03  -0.2479279765E-03   0.0000000000E+00   0.0000000000E+00   0.5942140208E-01
   0.1968356896E+00   0.1994521737E+00   0.5742472998E-04  -0.1248186585E-04   0.2296989199E-03  -0.4992746338E-04   0.1452217634E+00  -0.3813344501E-02   0.0000000000E+00  -0.2665241985E-02   0.0000000000E+00   0.0000000000E+00   0.1463657667E-02  -0.4737987351E-03  -0.6929629161E-04  -0.4242252566E-03   0.0000000000E+00   0.0000000000E+00   0.1472394773E+00
   0.2158744089E+00   0.1983386631E+00   0.6305677502E-04  -0.1071878350E-04   0.2522271001E-03  -0.4287513401E-04   0.1429352253E+00  -0.2271670501E-02   0.0000000000E+00  -0.4424442017E-02   0.0000000000E+00   0.0000000000E+00   0.1436167265E-02  -0.4515223810E-03  -0.1150354924E-03  -0.4219906645E-03   0.0000000000E+00   0.0000000000E+00   0.1442880042E+00
   0.2158491068E+00   0.2150768260E+00   0.6141176059E-04  -0.1224439457E-04   0.2456470423E-03  -0.4897757828E-04   0.1488453406E+00  -0.1219500794E-02   0.0000000000E+00  -0.2962145864E-02   0.0000000000E+00   0.0000000000E+00   0.1492111908E-02  -0.4587310296E-03  -0.7701579247E-04  -0.4428775193E-03   0.0000000000E+00   0.0000000000E+00   0.1495528731E+00
   0.1965005125E+00   0.2155511466E+00   0.5556089056E-04  -0.1403508641E-04   0.2222435622E-03  -0.5614034564E-04   0.1504074181E+00  -0.2002725896E-02   0.0000000000E+00  -0.1342625620E-02   0.0000000000E+00   0.0000000000E+00   0.1510082359E-02  -0.4712495133E-03  -0.3490826611E-04  -0.4452140767E-03   0.0000000000E+00   0.0000000000E+00   0.1514430031E+00
   0.1176653392E+00   0.2323018332E+00   0.2949303427E-04  -0.2703336411E-04   0.1179721371E-03  -0.1081334564E-03   0.1465730763E+00  -0.1348248359E-02   0.0000000000E+00   0.6563234080E-02   0.0000000000E+00   0.0000000000E+00   0.1469775508E-02  -0.4532017124E-03   0.1706440861E-03  -0.4356744837E-03   0.0000000000E+00   0.0000000000E+00   0.1477222460E+00
   0.1190415496E+00   0.2151217779E+00   0.3218391309E-04  -0.2518562119E-04   0.1287356524E-03  -0.1007424848E-03   0.1479755226E+00  -0.3624751839E-02   0.0000000000E+00   0.1100892380E-01   0.0000000000E+00   0.0000000000E+00   0.1490629482E-02  -0.4801740863E-03   0.2862320188E-03  -0.4330523124E-03   0.0000000000E+00   0.0000000000E+00   0.1509710997E+00
   0.2141775894E+00   0.2499216176E+00   0.5774107983E-04  -0.1567647582E-04   0.2309643193E-03  -0.6270590329E-04   0.1637884958E+00   0.7432535058E-03   0.0000000000E+00  -0.3491954292E-03   0.0000000000E+00   0.0000000000E+00   0.1635655198E-02  -0.4839329524E-03  -0.9079081159E-05  -0.4935952480E-03   0.0000000000E+00   0.0000000000E+00   0.1634270409E+00
   0.1947012035E+00   0.2499124236E+00   0.5135110218E-04  -0.1751527602E-04   0.2054044087E-03  -0.7006110408E-04   0.1650462728E+00   0.7267684224E-03   0.0000000000E+00  -0.2011854906E-04   0.0000000000E+00   0.0000000000E+00   0.1648282423E-02  -0.4878711343E-03  -0.5230822754E-06  -0.4973191238E-03   0.0000000000E+00   0.0000000000E+00   0.1646959922E+00
   0.1957027525E+00   0.2323405274E+00   0.5352310967E-04  -0.1570632122E-04   0.2140924387E-03  -0.6282528488E-04   0.1564967495E+00  -0.9872003780E-03   0.0000000000E+00  -0.5461232181E-03   0.0000000000E+00   0.0000000000E+00   0.1567929096E-02  -0.4793622522E-03  -0.1419920367E-04  -0.4665286473E-03   0.0000000000E+00   0.0000000000E+00   0.1570058414E+00
   0.2152102677E+00   0.2322142837E+00   0.5962434494E-04  -0.1388846513E-04   0.2384973798E-03  -0.5555386052E-04   0.1554004657E+00  -0.7033400634E-03   0.0000000000E+00  -0.1466679827E-02   0.0000000000E+00   0.0000000000E+00   0.1556114677E-02  -0.4732347977E-03  -0.3813367550E-04  -0.4640913769E-03   0.0000000000E+00   0.0000000000E+00   0.1557835416E+00
   0.2346624935E+00   0.2318913945E+00   0.6566150025E-04  -0.1243630294E-04   0.2626460010E-03  -0.4974521177E-04   0.1536489030E+00  -0.4392736974E-03   0.0000000000E+00  -0.1983678572E-02   0.0000000000E+00   0.0000000000E+00   0.1537806851E-02  -0.4653394461E-03  -0.5157564288E-04  -0.4596288880E-03   0.0000000000E+00   0.0000000000E+00   0.1539165276E+00
   0.2540549279E+00   0.2317674303E+00   0.7158397292E-04  -0.1133393363E-04   0.2863358917E-03  -0.4533573452E-04   0.1515932359E+00  -0.1999284895E-03   0.0000000000E+00  -0.2146382991E-02   0.0000000000E+00   0.0000000000E+00   0.1516532144E-02  -0.4567789925E-03  -0.5580595776E-04  -0.4541799222E-03   0.0000000000E+00   0.0000000000E+00   0.1517469560E+00
   0.2531291739E+00   0.2499346439E+00   0.7027778630E-04  -0.1307121758E-04   0.2811111452E-03  -0.5228487032E-04   0.1587172958E+00   0.6642547472E-03   0.0000000000E+00  -0.6138341202E-03   0.0000000000E+00   0.0000000000E+00   0.1585180194E-02  -0.4695093400E-03  -0.1595968712E-04  -0.4781446517E-03   0.0000000000E+00   0.0000000000E+00   0.1583885683E+00
   0.2336536302E+00   0.2499289478E+00   0.6405923486E-04  -0.1421043871E-04   0.2562369394E-03  -0.5684175484E-04   0.1614872365E+00   0.7156968548E-03   0.0000000000E+00  -0.5401314048E-03   0.0000000000E+00   0.0000000000E+00   0.1612725274E-02  -0.4773047408E-03  -0.1404341653E-04  -0.4866088000E-03   0.0000000000E+00   0.0000000000E+00   0.1611354268E+00
   0.3115526909E+00   0.2499440866E+00   0.8831377352E-04  -0.1118267779E-04   0.3532550941E-03  -0.4473071115E-04   0.1514961205E+00   0.5013172543E-03   0.0000000000E+00  -0.3397095163E-03   0.0000000000E+00   0.0000000000E+00   0.1513457253E-02  -0.4494751889E-03  -0.8832447424E-05  -0.4559923132E-03   0.0000000000E+00   0.0000000000E+00   0.1512472511E+00
   0.3119465105E+00   0.2312246747E+00   0.8879889990E-04  -0.9509266283E-05   0.3551955996E-03  -0.3803706513E-04   0.1463483472E+00   0.2605808934E-03   0.0000000000E+00  -0.1194228191E-02   0.0000000000E+00   0.0000000000E+00   0.1462701730E-02  -0.4364392328E-03  -0.3104993297E-04  -0.4398267844E-03   0.0000000000E+00   0.0000000000E+00   0.1462372420E+00
   0.5577423381E-01   0.8301774188E-01   0.4344202196E-04  -0.2584352481E-04   0.1737680878E-03  -0.1033740992E-03   0.1790748761E+00   0.6095455576E-01   0.0000000000E+00  -0.9070595949E-01   0.0000000000E+00   0.0000000000E+00   0.1607885093E-02   0.7232092946E-04  -0.2358354947E-02  -0.7200882954E-03   0.0000000000E+00   0.0000000000E+00   0.2160770954E+00
   0.7213575129E-01   0.9403371419E-01   0.4116541761E-04  -0.2148080201E-04   0.1646616704E-03  -0.8592320802E-04   0.1437123808E+00  -0.3169025296E-02   0.0000000000E+00  -0.3784294647E-01   0.0000000000E+00   0.0000000000E+00   0.1446630884E-02  -0.4628273955E-03  -0.9839166083E-03  -0.4216300666E-03   0.0000000000E+00   0.0000000000E+00   0.1589312779E+00
   0.6214971753E-01   0.1068605046E+00   0.3232192675E-04  -0.2558068784E-04   0.1292877070E-03  -0.1023227514E-03   0.1746024197E+00   0.1921167725E-02   0.0000000000E+00  -0.2283611486E-01   0.0000000000E+00   0.0000000000E+00   0.1740260694E-02  -0.5045955818E-03  -0.5937389864E-03  -0.5295707622E-03   0.0000000000E+00   0.0000000000E+00   0.1761149974E+00
   0.3841588145E-01   0.9223736931E-01   0.2950777079E-04  -0.3011651786E-04   0.1180310832E-03  -0.1204660715E-03   0.2617451752E+00   0.4497094398E-01   0.0000000000E+00  -0.6816753752E-01   0.0000000000E+00   0.0000000000E+00   0.2482538920E-02  -0.3355260858E-03  -0.1772355975E-02  -0.9201483576E-03   0.0000000000E+00   0.0000000000E+00   0.2657544761E+00
   0.0000000000E+00   0.1997990106E+00   0.0000000000E+00  -0.4019847649E-04   0.0000000000E+00  -0.1607939060E-03   0.1386589396E+00   0.1275969912E-01   0.0000000000E+00   0.3326525735E-02   0.0000000000E+00   0.0000000000E+00   0.1348310299E-02  -0.2883798277E-03   0.8648966912E-04  -0.4542559163E-03   0.0000000000E+00   0.0000000000E+00   0.1327499531E+00
   0.0000000000E+00   0.1831369201E+00   0.0000000000E+00  -0.3928337785E-04   0.0000000000E+00  -0.1571335114E-03   0.1514789272E+00   0.1994422410E-01   0.0000000000E+00   0.3512479429E-02   0.0000000000E+00   0.0000000000E+00   0.1454956600E-02  -0.2549945405E-03   0.9132446516E-04  -0.5142694539E-03   0.0000000000E+00   0.0000000000E+00   0.1425712744E+00
   0.3659611068E-01   0.1167057982E+00   0.1789455522E-04  -0.3232355351E-04   0.7157822087E-04  -0.1292942140E-03   0.2361790161E+00   0.3118963889E-01   0.0000000000E+00  -0.2488112452E-01   0.0000000000E+00   0.0000000000E+00   0.2268221245E-02  -0.3966406595E-03  -0.6469092375E-03  -0.8021059651E-03   0.0000000000E+00   0.0000000000E+00   0.2288137120E+00
   0.2671107060E+00   0.0000000000E+00   0.8880500343E-04   0.0000000000E+00   0.3552200137E-03   0.0000000000E+00   0.6835431477E-01   0.1921242928E-01   0.0000000000E+00  -0.1026814846E-02   0.0000000000E+00   0.0000000000E+00   0.6259058599E-03  -0.1293865150E-04  -0.2669718599E-04  -0.2627002322E-03   0.0000000000E+00   0.0000000000E+00   0.6104053631E-01
   0.2690703820E+00   0.1829122850E-01   0.8888740044E-04  -0.5641924454E-07   0.3555496018E-03  -0.2256769782E-06   0.6985077889E-01   0.1887931293E-01   0.0000000000E+00  -0.3057710454E-02   0.0000000000E+00   0.0000000000E+00   0.6418698501E-03  -0.2075920739E-04  -0.7950047179E-04  -0.2661902754E-03   0.0000000000E+00   0.0000000000E+00   0.6282784736E-01
   0.2369310103E+00   0.7431070893E-01   0.8132145904E-04  -0.1097434428E-05   0.3252858362E-03  -0.4389737713E-05   0.8373730395E-01   0.8133286911E-02   0.0000000000E+00  -0.1550779421E-01   0.0000000000E+00   0.0000000000E+00   0.8129731788E-03  -0.1698790427E-03  -0.4032026496E-03  -0.2756117726E-03   0.0000000000E+00   0.0000000000E+00   0.8433200790E-01
   0.2556385661E+00   0.7383345878E-01   0.8439942041E-04  -0.8864840720E-06   0.3375976816E-03  -0.3545936288E-05   0.8466436289E-01   0.1125609870E-01   0.0000000000E+00  -0.1239910457E-01   0.0000000000E+00   0.0000000000E+00   0.8128753328E-03  -0.1414321017E-03  -0.3223767188E-03  -0.2877613848E-03   0.0000000000E+00   0.0000000000E+00   0.8244782664E-01
   0.3108066547E+00   0.3712632044E-01   0.9423954925E-04  -0.1283310338E-06   0.3769581970E-03  -0.5133241353E-06   0.7782036190E-01   0.1995569956E-01   0.0000000000E+00  -0.2928739314E-02   0.0000000000E+00   0.0000000000E+00   0.7183365204E-03  -0.3390409012E-04  -0.7614722216E-04  -0.2933281844E-03   0.0000000000E+00   0.0000000000E+00   0.7017637147E-01
   0.2908971900E+00   0.3677652768E-01   0.9141560164E-04  -0.1423234057E-06   0.3656624065E-03  -0.5692936230E-06   0.7603425616E-01   0.1907575007E-01   0.0000000000E+00  -0.4507159692E-02   0.0000000000E+00   0.0000000000E+00   0.7031153114E-03  -0.3734526776E-04  -0.1171861520E-03  -0.2853300187E-03   0.0000000000E+00   0.0000000000E+00   0.6893407321E-01
   0.3504999940E+00   0.2115006248E+00   0.1000000000E-03  -0.7567848025E-05   0.4000000000E-03  -0.3027139210E-04   0.1393443728E+00   0.1472817416E-02   0.0000000000E+00   0.3741392314E-03   0.0000000000E+00   0.0000000000E+00   0.1389025275E-02  -0.4033049442E-03   0.9727620015E-05  -0.4224515706E-03   0.0000000000E+00   0.0000000000E+00   0.1386144624E+00
   0.3313818726E+00   0.2119425171E+00   0.9469092110E-04  -0.7669373064E-05   0.3787636844E-03  -0.3067749226E-04   0.1395841271E+00   0.1373231836E-02   0.0000000000E+00  -0.1322202318E-02   0.0000000000E+00   0.0000000000E+00   0.1391721576E-02  -0.4050200630E-03  -0.3437726026E-04  -0.4228720769E-03   0.0000000000E+00   0.0000000000E+00   0.1389190584E+00
   0.3313177554E+00   0.1926707844E+00   0.9494488858E-04  -0.6170726622E-05   0.3797795543E-03  -0.2468290649E-04   0.1328560005E+00   0.2729794181E-02   0.0000000000E+00  -0.1708657906E-02   0.0000000000E+00   0.0000000000E+00   0.1320370622E-02  -0.3712700596E-03  -0.4442510557E-04  -0.4067573839E-03   0.0000000000E+00   0.0000000000E+00   0.1315413527E+00
   0.3504999940E+00   0.1922772957E+00   0.1000000000E-03  -0.6080064966E-05   0.4000000000E-03  -0.2432025986E-04   0.1326715550E+00   0.2890854926E-02   0.0000000000E+00   0.3509290454E-03   0.0000000000E+00   0.0000000000E+00   0.1318042985E-02  -0.3691061158E-03   0.9124155179E-05  -0.4066872298E-03   0.0000000000E+00   0.0000000000E+00   0.1312490441E+00
   0.2929823917E+00   0.2126425744E+00   0.8392773261E-04  -0.8295115917E-05   0.3357109304E-03  -0.3318046367E-04   0.1415682363E+00   0.9638561510E-03   0.0000000000E+00  -0.3257638609E-02   0.0000000000E+00   0.0000000000E+00   0.1412790795E-02  -0.4150661474E-03  -0.8469860382E-04  -0.4275962774E-03   0.0000000000E+00   0.0000000000E+00   0.1412003858E+00
   0.2738963821E+00   0.2130989806E+00   0.7849061712E-04  -0.8876686335E-05   0.3139624685E-03  -0.3550674534E-04   0.1431467869E+00   0.5725507289E-03   0.0000000000E+00  -0.3896894904E-02   0.0000000000E+00   0.0000000000E+00   0.1429750217E-02  -0.4237148535E-03  -0.1013192675E-03  -0.4311580130E-03   0.0000000000E+00   0.0000000000E+00   0.1430196903E+00
   0.2737531074E+00   0.1942358470E+00   0.7951868220E-04  -0.7331209604E-05   0.3180747288E-03  -0.2932483842E-04   0.1361664208E+00   0.1206559584E-02   0.0000000000E+00  -0.5220618280E-02   0.0000000000E+00   0.0000000000E+00   0.1358044530E-02  -0.3964336667E-03  -0.1357360753E-03  -0.4121189413E-03   0.0000000000E+00   0.0000000000E+00   0.1358709256E+00
   0.2928424536E+00   0.1934130046E+00   0.8470531593E-04  -0.6756086725E-05   0.3388212637E-03  -0.2702434690E-04   0.1346949495E+00   0.1823236898E-02   0.0000000000E+00  -0.4384375591E-02   0.0000000000E+00   0.0000000000E+00   0.1341479785E-02  -0.3858524796E-03  -0.1139937654E-03  -0.4095545593E-03   0.0000000000E+00   0.0000000000E+00   0.1340063136E+00
   0.1947904185E+00   0.5816433061E-01   0.7676090656E-04  -0.1157358415E-05   0.3070436262E-03  -0.4629433660E-05   0.6954197306E-01   0.1458935987E-02   0.0000000000E+00  -0.2187448105E-01   0.0000000000E+00   0.0000000000E+00   0.6910429226E-03  -0.1940365593E-03  -0.5687365074E-03  -0.2130027271E-03   0.0000000000E+00   0.0000000000E+00   0.7847851959E-01
   0.2144922545E+00   0.5660956558E-01   0.7967510152E-04  -0.8035031991E-06   0.3187004061E-03  -0.3214012796E-05   0.7165296686E-01   0.6589457773E-02   0.0000000000E+00  -0.1761218182E-01   0.0000000000E+00   0.0000000000E+00   0.6967612953E-03  -0.1490643229E-03  -0.4579167273E-03  -0.2347272739E-03   0.0000000000E+00   0.0000000000E+00   0.7507755689E-01
   0.7332546249E-01   0.1304656937E+00   0.2929863793E-04  -0.2527386271E-04   0.1171945517E-03  -0.1010954508E-03   0.1777975721E+00  -0.6545719489E-02   0.0000000000E+00   0.3880722207E-02   0.0000000000E+00   0.0000000000E+00   0.1797612879E-02  -0.5988499112E-03   0.1008987774E-03  -0.5137555578E-03   0.0000000000E+00   0.0000000000E+00   0.1811275745E+00
   0.5561065859E-01   0.1223319354E+00   0.2460739718E-04  -0.2870491898E-04   0.9842958872E-04  -0.1148196759E-03   0.2057025643E+00   0.1366610178E-01   0.0000000000E+00  -0.6318434895E-02   0.0000000000E+00   0.0000000000E+00   0.2016027338E-02  -0.4804466750E-03  -0.1642793073E-03  -0.6581059982E-03   0.0000000000E+00   0.0000000000E+00   0.1990562387E+00
   0.8095442134E-01   0.1171676518E+00   0.3544018882E-04  -0.2168703484E-04   0.1417607553E-03  -0.8674813934E-04   0.1704405685E+00  -0.1183065694E-01   0.0000000000E+00  -0.7123728800E-02   0.0000000000E+00   0.0000000000E+00   0.1739897656E-02  -0.6296282749E-03  -0.1852169488E-03  -0.4758297347E-03   0.0000000000E+00   0.0000000000E+00   0.1769317141E+00
   0.5838982600E-01   0.2498067684E+00   0.1129848072E-04  -0.3864632041E-04   0.4519392288E-04  -0.1545852817E-03   0.1107384169E+00  -0.1093728903E-02   0.0000000000E+00   0.2958238510E-02   0.0000000000E+00   0.0000000000E+00   0.1110665356E-02  -0.3431525398E-03   0.7691420126E-04  -0.3289340640E-03   0.0000000000E+00   0.0000000000E+00   0.1113094810E+00
   0.7829161216E-01   0.2132575729E+00   0.2059087172E-04  -0.3261142629E-04   0.8236348689E-04  -0.1304457052E-03   0.1399750926E+00  -0.3733123446E-03   0.0000000000E+00   0.1599448905E-01   0.0000000000E+00   0.0000000000E+00   0.1400870863E-02  -0.4236584014E-03   0.4158567154E-03  -0.4188053409E-03   0.0000000000E+00   0.0000000000E+00   0.1427976824E+00
   0.7810849582E-01   0.1932798582E+00   0.2239920479E-04  -0.3090295616E-04   0.8959681917E-04  -0.1236118246E-03   0.1497886247E+00  -0.9910784276E-03   0.0000000000E+00   0.1885264312E-01   0.0000000000E+00   0.0000000000E+00   0.1500859482E-02  -0.4592766584E-03   0.4901687211E-03  -0.4463926388E-03   0.0000000000E+00   0.0000000000E+00   0.1537897753E+00
   0.1770046330E+00   0.2157184185E+00   0.4963819535E-04  -0.1623629999E-04   0.1985527814E-03  -0.6494519995E-04   0.1512604119E+00  -0.2733481976E-02   0.0000000000E+00   0.1001980964E-02   0.0000000000E+00   0.0000000000E+00   0.1520804565E-02  -0.4811160556E-03   0.2605150506E-04  -0.4455807899E-03   0.0000000000E+00   0.0000000000E+00   0.1526584867E+00
   0.3119645815E+00   0.1537110068E+00   0.9107189544E-04  -0.3740042275E-05   0.3642875818E-03  -0.1496016910E-04   0.1183114655E+00   0.6050784710E-02   0.0000000000E+00  -0.4382563712E-02   0.0000000000E+00   0.0000000000E+00   0.1164962301E-02  -0.2944265495E-03  -0.1139466565E-03  -0.3730867507E-03   0.0000000000E+00   0.0000000000E+00   0.1156520803E+00
   0.3119488170E+00   0.1734131810E+00   0.9042240577E-04  -0.4987196300E-05   0.3616896231E-03  -0.1994878520E-04   0.1261222118E+00   0.4086381486E-02   0.0000000000E+00  -0.3817758151E-02   0.0000000000E+00   0.0000000000E+00   0.1248962974E-02  -0.3375028206E-03  -0.9926171191E-04  -0.3906257799E-03   0.0000000000E+00   0.0000000000E+00   0.1243030523E+00
   0.1167990434E+00   0.2498562252E+00   0.2647527911E-04  -0.2875496312E-04   0.1059011164E-03  -0.1150198525E-03   0.1477555610E+00  -0.7226494888E-04   0.0000000000E+00   0.2410988774E-02   0.0000000000E+00   0.0000000000E+00   0.1477772405E-02  -0.4439893326E-03   0.6268570813E-04  -0.4430498883E-03   0.0000000000E+00   0.0000000000E+00   0.1477759579E+00
   0.7098590985E-01   0.7060377741E-01   0.5504569043E-04  -0.2138079808E-04   0.2201827617E-03  -0.8552319230E-04   0.7066673558E-01   0.3560523534E-01   0.0000000000E+00  -0.4579451774E-01   0.0000000000E+00   0.0000000000E+00   0.5998516498E-03   0.1440521467E-03  -0.1190657461E-02  -0.3188159128E-03   0.0000000000E+00   0.0000000000E+00   0.9301731604E-01
   0.8415145524E-01   0.7958186783E-01   0.5169976838E-04  -0.1662003463E-04   0.2067990735E-03  -0.6648013854E-04   0.9647997819E-01  -0.3481631555E-02   0.0000000000E+00  -0.3854720943E-01   0.0000000000E+00   0.0000000000E+00   0.9752446765E-03  -0.3242562501E-03  -0.1002227445E-02  -0.2789950399E-03   0.0000000000E+00   0.0000000000E+00   0.1194891908E+00
   0.2352746187E+00   0.2142570361E+00   0.6723214812E-04  -0.1079358833E-04   0.2689285925E-03  -0.4317435330E-04   0.1469319353E+00  -0.5240918458E-03   0.0000000000E+00  -0.3831084301E-02   0.0000000000E+00   0.0000000000E+00   0.1470891629E-02  -0.4460367244E-03  -0.9960819183E-04  -0.4392235304E-03   0.0000000000E+00   0.0000000000E+00   0.1473468755E+00
   0.1776977816E+00   0.1998404509E+00   0.5173751222E-04  -0.1460722932E-04   0.2069500489E-03  -0.5842891730E-04   0.1471899304E+00  -0.5158171337E-02   0.0000000000E+00   0.1245084399E-04   0.0000000000E+00   0.0000000000E+00   0.1487373818E-02  -0.4931515046E-03   0.3237219438E-06  -0.4260952773E-03   0.0000000000E+00   0.0000000000E+00   0.1498316283E+00
   0.1587540744E+00   0.1997019595E+00   0.4609107313E-04  -0.1709570653E-04   0.1843642925E-03  -0.6838282611E-04   0.1485835368E+00  -0.6284591736E-02   0.0000000000E+00   0.3430833707E-02   0.0000000000E+00   0.0000000000E+00   0.1504689143E-02  -0.5085965278E-03   0.8920167638E-04  -0.4268968352E-03   0.0000000000E+00   0.0000000000E+00   0.1519296812E+00
   0.1599237957E+00   0.1838346118E+00   0.4846833163E-04  -0.1527984993E-04   0.1938733265E-03  -0.6111939974E-04   0.1463095589E+00  -0.9517495810E-02   0.0000000000E+00   0.1560268611E-02   0.0000000000E+00   0.0000000000E+00   0.1491648077E-02  -0.5341036349E-03   0.4056698388E-04  -0.4103761894E-03   0.0000000000E+00   0.0000000000E+00   0.1512958058E+00
   0.1780807150E+00   0.1845221699E+00   0.5373199084E-04  -0.1303502965E-04   0.2149279634E-03  -0.5214011859E-04   0.1436686264E+00  -0.7491625083E-02   0.0000000000E+00  -0.1848064397E-02   0.0000000000E+00   0.0000000000E+00   0.1459161139E-02  -0.5059221299E-03  -0.4804967433E-04  -0.4085310038E-03   0.0000000000E+00   0.0000000000E+00   0.1475778596E+00
   0.2546633905E+00   0.2136698839E+00   0.7292869793E-04  -0.9694212198E-05   0.2917147917E-03  -0.3877684879E-04   0.1449338148E+00   0.4928961715E-04   0.0000000000E+00  -0.4116074615E-02   0.0000000000E+00   0.0000000000E+00   0.1449190279E-02  -0.4343085483E-03  -0.1070179400E-03  -0.4349493133E-03   0.0000000000E+00   0.0000000000E+00   0.1450838321E+00
   0.3121581149E+00   0.2122930125E+00   0.8932498464E-04  -0.7903893900E-05   0.3572999386E-03  -0.3161557560E-04   0.1404050881E+00   0.1208568748E-02   0.0000000000E+00  -0.2308438196E-02   0.0000000000E+00   0.0000000000E+00   0.1400425175E-02  -0.4091295769E-03  -0.6001939309E-04  -0.4248409706E-03   0.0000000000E+00   0.0000000000E+00   0.1398625599E+00
   0.3121146474E+00   0.1930012315E+00   0.8985828391E-04  -0.6385507111E-05   0.3594331356E-03  -0.2554202845E-04   0.1335961191E+00   0.2438939212E-02   0.0000000000E+00  -0.3100418019E-02   0.0000000000E+00   0.0000000000E+00   0.1328644374E-02  -0.3763989653E-03  -0.8061086849E-04  -0.4081051751E-03   0.0000000000E+00   0.0000000000E+00   0.1325046605E+00
   0.6721552820E-01   0.1439302628E+00   0.2452356068E-04  -0.2821564280E-04   0.9809424274E-04  -0.1128625712E-03   0.1779986735E+00   0.1050834522E-02   0.0000000000E+00   0.1225318477E-01   0.0000000000E+00   0.0000000000E+00   0.1776834232E-02  -0.5234876754E-03   0.3185828040E-03  -0.5371485242E-03   0.0000000000E+00   0.0000000000E+00   0.1786945135E+00
   0.6222260219E-01   0.1544877717E+00   0.2130611710E-04  -0.3033326792E-04   0.8522446841E-04  -0.1213330717E-03   0.1745760438E+00   0.3848627657E-02   0.0000000000E+00   0.1555008241E-01   0.0000000000E+00   0.0000000000E+00   0.1734214555E-02  -0.4852418548E-03   0.4043021426E-03  -0.5352740144E-03   0.0000000000E+00   0.0000000000E+00   0.1746536868E+00
   0.1529099679E+00   0.3950844894E-01   0.7481638904E-04  -0.1453971864E-05   0.2992655562E-03  -0.5815887456E-05   0.4155283930E-01  -0.1276375000E-01   0.0000000000E+00  -0.2622215735E-01   0.0000000000E+00   0.0000000000E+00   0.4538196430E-03  -0.2522960179E-03  -0.6817760911E-03  -0.8636726790E-04   0.0000000000E+00   0.0000000000E+00   0.6638647644E-01
   0.1357123849E+00   0.4588410180E-01   0.7183838343E-04  -0.2927479599E-05   0.2873535337E-03  -0.1170991840E-04   0.4146619971E-01  -0.2498450362E-01   0.0000000000E+00  -0.3432383003E-01   0.0000000000E+00   0.0000000000E+00   0.4896155079E-03  -0.3742436353E-03  -0.8924195807E-03  -0.4944508828E-04   0.0000000000E+00   0.0000000000E+00   0.8085580231E-01
   0.1628942982E+00   0.0000000000E+00   0.7886084245E-04   0.0000000000E+00   0.3154433698E-03   0.0000000000E+00   0.2514444153E-01  -0.2054330858E-02   0.0000000000E+00  -0.4513582210E-02   0.0000000000E+00   0.0000000000E+00   0.2576074079E-03  -0.9597663317E-04  -0.1173531374E-03  -0.6927033202E-04   0.0000000000E+00   0.0000000000E+00   0.2580438519E-01
   0.1668216201E+00   0.1949671889E-01   0.7833362562E-04  -0.4074617144E-06   0.3133345025E-03  -0.1629846858E-05   0.3344687050E-01  -0.2271693822E-02   0.0000000000E+00  -0.1105145393E-01   0.0000000000E+00   0.0000000000E+00   0.3412837865E-03  -0.1230575497E-03  -0.2873378022E-03  -0.9352553005E-04   0.0000000000E+00   0.0000000000E+00   0.3992903204E-01
   0.2758743673E+00   0.9271770258E-01   0.8659185802E-04  -0.1291364420E-05   0.3463674321E-03  -0.5165457678E-05   0.9347263158E-01   0.1098372574E-01   0.0000000000E+00  -0.1011192865E-01   0.0000000000E+00   0.0000000000E+00   0.9017751385E-03  -0.1705806373E-03  -0.2629101449E-03  -0.3133690720E-03   0.0000000000E+00   0.0000000000E+00   0.9018864049E-01
   0.2940767586E+00   0.9348474423E-01   0.8983371345E-04  -0.1172753729E-05   0.3593348538E-03  -0.4691014915E-05   0.9407206725E-01   0.1253094940E-01   0.0000000000E+00  -0.7532493918E-02   0.0000000000E+00   0.0000000000E+00   0.9031278243E-03  -0.1569067077E-03  -0.1958448419E-03  -0.3198090500E-03   0.0000000000E+00   0.0000000000E+00   0.8941405689E-01
   0.2942144460E+00   0.1128394429E+00   0.8894580493E-04  -0.1873616552E-05   0.3557832197E-03  -0.7494466209E-05   0.1017990593E+00   0.9996932290E-02   0.0000000000E+00  -0.7553611721E-02   0.0000000000E+00   0.0000000000E+00   0.9879997961E-03  -0.2054278550E-03  -0.1963939048E-03  -0.3353879748E-03   0.0000000000E+00   0.0000000000E+00   0.9804518641E-01
   0.2763313399E+00   0.1113644689E+00   0.8549177317E-04  -0.2016228971E-05   0.3419670927E-03  -0.8064915882E-05   0.1016580851E+00   0.8432275802E-02   0.0000000000E+00  -0.9845569213E-02   0.0000000000E+00   0.0000000000E+00   0.9912840234E-03  -0.2206514972E-03  -0.2559847995E-03  -0.3302710826E-03   0.0000000000E+00   0.0000000000E+00   0.9918188078E-01
   0.2933277041E+00   0.7443531069E-01   0.9053062404E-04  -0.6701214141E-06   0.3621224962E-03  -0.2680485656E-05   0.8692710815E-01   0.1509028266E-01   0.0000000000E+00  -0.7077304496E-02   0.0000000000E+00   0.0000000000E+00   0.8240002335E-03  -0.1098784978E-03  -0.1840099169E-03  -0.3060521725E-03   0.0000000000E+00   0.0000000000E+00   0.8135648360E-01
   0.1714723029E+00   0.3887773816E-01   0.7665298276E-04  -0.8982681176E-06   0.3066119311E-03  -0.3593072470E-05   0.4582360427E-01  -0.3261103492E-02   0.0000000000E+00  -0.2271017471E-01   0.0000000000E+00   0.0000000000E+00   0.4680193532E-03  -0.1700818477E-03  -0.5904645425E-03  -0.1276875023E-03   0.0000000000E+00   0.0000000000E+00   0.6137088222E-01
   0.2934035500E+00   0.1327353547E+00   0.8778860259E-04  -0.2801853295E-05   0.3511544103E-03  -0.1120741318E-04   0.1102976850E+00   0.7169899787E-02   0.0000000000E+00  -0.7238069530E-02   0.0000000000E+00   0.0000000000E+00   0.1081467151E-02  -0.2591940571E-03  -0.1881898078E-03  -0.3524027543E-03   0.0000000000E+00   0.0000000000E+00   0.1076161655E+00
   0.5199192222E-01   0.1831950938E+00   0.1537006482E-04  -0.3467904239E-04   0.6148025927E-04  -0.1387161696E-03   0.1544346079E+00   0.7377613181E-02   0.0000000000E+00   0.1790651561E-01   0.0000000000E+00   0.0000000000E+00   0.1522213239E-02  -0.3895276918E-03   0.4655694059E-03  -0.4854366632E-03   0.0000000000E+00   0.0000000000E+00   0.1540753956E+00
   0.5050033889E-01   0.1684230875E+00   0.1599453814E-04  -0.3378969771E-04   0.6397815255E-04  -0.1351587909E-03   0.1645528380E+00   0.1128274829E-01   0.0000000000E+00   0.1848670081E-01   0.0000000000E+00   0.0000000000E+00   0.1611680136E-02  -0.3808310313E-03   0.4806542211E-03  -0.5275067590E-03   0.0000000000E+00   0.0000000000E+00   0.1623850927E+00
   0.2921950913E+00   0.5550414021E-01   0.9105985715E-04  -0.3366178336E-06   0.3642394286E-03  -0.1346471334E-05   0.8079268174E-01   0.1731149746E-01   0.0000000000E+00  -0.6029913163E-02   0.0000000000E+00   0.0000000000E+00   0.7559923250E-03  -0.6926307062E-04  -0.1567777422E-03  -0.2943125376E-03   0.0000000000E+00   0.0000000000E+00   0.7439875729E-01
   0.2920975796E+00   0.1532742320E+00   0.8645272272E-04  -0.3985792490E-05   0.3458108909E-03  -0.1594316996E-04   0.1187804870E+00   0.5166414588E-02   0.0000000000E+00  -0.6420386662E-02   0.0000000000E+00   0.0000000000E+00   0.1172305626E-02  -0.3046773151E-03  -0.1669300532E-03  -0.3718407048E-03   0.0000000000E+00   0.0000000000E+00   0.1167985996E+00
   0.2710098957E+00   0.3669169743E-01   0.8866253081E-04  -0.1679935044E-06   0.3546501233E-03  -0.6719740175E-06   0.7351557449E-01   0.1771145090E-01   0.0000000000E+00  -0.6280643426E-02   0.0000000000E+00   0.0000000000E+00   0.6820213922E-03  -0.4343221445E-04  -0.1632967291E-03  -0.2736810762E-03   0.0000000000E+00   0.0000000000E+00   0.6729357548E-01
   0.2511199145E+00   0.3681319339E-01   0.8599810729E-04  -0.2098423046E-06   0.3439924292E-03  -0.8393692183E-06   0.7017141130E-01   0.1576934331E-01   0.0000000000E+00  -0.8366566498E-02   0.0000000000E+00   0.0000000000E+00   0.6544060831E-03  -0.5282080081E-04  -0.2175307289E-03  -0.2578222638E-03   0.0000000000E+00   0.0000000000E+00   0.6531973484E-01
   0.2339474827E+00   0.5569719334E-01   0.8249214562E-04  -0.5971718062E-06   0.3299685825E-03  -0.2388687225E-05   0.7422923821E-01   0.1078085867E-01   0.0000000000E+00  -0.1396928340E-01   0.0000000000E+00   0.0000000000E+00   0.7099498061E-03  -0.1148791280E-03  -0.3632013684E-03  -0.2550302906E-03   0.0000000000E+00   0.0000000000E+00   0.7353643750E-01
   0.2534639383E+00   0.5532512991E-01   0.8532105636E-04  -0.4682784131E-06   0.3412842255E-03  -0.1873113652E-05   0.7675748280E-01   0.1370401482E-01   0.0000000000E+00  -0.1089747494E-01   0.0000000000E+00   0.0000000000E+00   0.7264627835E-03  -0.9323230021E-04  -0.2833343485E-03  -0.2713844928E-03   0.0000000000E+00   0.0000000000E+00   0.7335824600E-01
   0.2352090648E+00   0.1970081387E+00   0.6867395333E-04  -0.9282253084E-05   0.2746958133E-03  -0.3712901233E-04   0.1405465359E+00  -0.1056680001E-02   0.0000000000E+00  -0.5402724657E-02   0.0000000000E+00   0.0000000000E+00   0.1408635399E-02  -0.4322064078E-03  -0.1404708411E-03  -0.4184695678E-03   0.0000000000E+00   0.0000000000E+00   0.1413916226E+00
   0.2545918561E+00   0.1956343187E+00   0.7418461132E-04  -0.8166250899E-05   0.2967384453E-03  -0.3266500360E-04   0.1382106495E+00   0.8276421273E-04   0.0000000000E+00  -0.5687418506E-02   0.0000000000E+00   0.0000000000E+00   0.1381858202E-02  -0.4138043063E-03  -0.1478728812E-03  -0.4148802410E-03   0.0000000000E+00   0.0000000000E+00   0.1385236208E+00
   0.1599127824E+00   0.7267925320E-01   0.6887367324E-04  -0.3280879045E-05   0.2754946930E-03  -0.1312351618E-04   0.8012809081E-01  -0.1577529860E-01   0.0000000000E+00  -0.3103869024E-01   0.0000000000E+00   0.0000000000E+00   0.8486068039E-03  -0.3981372585E-03  -0.8070059461E-03  -0.1930583766E-03   0.0000000000E+00   0.0000000000E+00   0.1038633238E+00
   0.1741044578E+00   0.6065287586E-01   0.7350556963E-04  -0.1768468923E-05   0.2940222785E-03  -0.7073875692E-05   0.6854384893E-01  -0.7078509273E-02   0.0000000000E+00  -0.2759882738E-01   0.0000000000E+00   0.0000000000E+00   0.7066740172E-03  -0.2764166395E-03  -0.7175695119E-03  -0.1843960190E-03   0.0000000000E+00   0.0000000000E+00   0.8669773988E-01
   0.1844760030E+00   0.8232546195E-01   0.7130200213E-04  -0.2769450119E-05   0.2852080085E-03  -0.1107780048E-04   0.8981879743E-01  -0.8089955552E-02   0.0000000000E+00  -0.2610988009E-01   0.0000000000E+00   0.0000000000E+00   0.9224578410E-03  -0.3503559478E-03  -0.6788568824E-03  -0.2451865256E-03   0.0000000000E+00   0.0000000000E+00   0.1043044309E+00
   0.1697357002E+00   0.8993363818E-01   0.6704043776E-04  -0.4128244575E-05   0.2681617511E-03  -0.1651297830E-04   0.9733198473E-01  -0.1473996315E-01   0.0000000000E+00  -0.2644192062E-01   0.0000000000E+00   0.0000000000E+00   0.1017539737E-02  -0.4393955857E-03  -0.6874899361E-03  -0.2477760647E-03   0.0000000000E+00   0.0000000000E+00   0.1149729560E+00
   0.9897089445E-01   0.2140652081E+00   0.2640274942E-04  -0.2883397683E-04   0.1056109977E-03  -0.1153359073E-03   0.1446389752E+00  -0.2764884021E-02   0.0000000000E+00   0.1438705690E-01   0.0000000000E+00   0.0000000000E+00   0.1454684404E-02  -0.4615657657E-03   0.3740634794E-03  -0.4256222734E-03   0.0000000000E+00   0.0000000000E+00   0.1480825049E+00
   0.1399480676E+00   0.1992863894E+00   0.4046811105E-04  -0.1995512545E-04   0.1618724442E-03  -0.7982050180E-04   0.1494928044E+00  -0.7025522778E-02   0.0000000000E+00   0.7365686671E-02   0.0000000000E+00   0.0000000000E+00   0.1516004612E-02  -0.5187336410E-03   0.1915078534E-03  -0.4274018449E-03   0.0000000000E+00   0.0000000000E+00   0.1536451982E+00
   0.1210623584E+00   0.1985234767E+00   0.3483547830E-04  -0.2316246916E-04   0.1393419132E-03  -0.9264987664E-04   0.1497262953E+00  -0.6983389798E-02   0.0000000000E+00   0.1147812341E-01   0.0000000000E+00   0.0000000000E+00   0.1518213122E-02  -0.5190127839E-03   0.2984312085E-03  -0.4282287165E-03   0.0000000000E+00   0.0000000000E+00   0.1546082214E+00
   0.2185623651E+00   0.7552958293E-01   0.7819242233E-04  -0.1423034445E-05   0.3127696893E-03  -0.5692137780E-05   0.8348913104E-01   0.4054284478E-02   0.0000000000E+00  -0.1897676127E-01   0.0000000000E+00   0.0000000000E+00   0.8227284570E-03  -0.2099245483E-03  -0.4933957929E-03  -0.2626302466E-03   0.0000000000E+00   0.0000000000E+00   0.8784764401E-01
   0.8044476988E-01   0.1526639276E+00   0.2773887510E-04  -0.2623568214E-04   0.1109555004E-03  -0.1049427286E-03   0.1671939374E+00  -0.7314997178E-02   0.0000000000E+00   0.1397782099E-01   0.0000000000E+00   0.0000000000E+00   0.1693884366E-02  -0.5747317840E-03   0.3634233458E-03  -0.4796368207E-03   0.0000000000E+00   0.0000000000E+00   0.1725861407E+00
   0.6994787319E-01   0.1665910777E+00   0.2245101705E-04  -0.2995746485E-04   0.8980406819E-04  -0.1198298594E-03   0.1633945411E+00   0.8613360883E-03   0.0000000000E+00   0.1836038942E-01   0.0000000000E+00   0.0000000000E+00   0.1631361403E-02  -0.4815702626E-03   0.4773701248E-03  -0.4927676317E-03   0.0000000000E+00   0.0000000000E+00   0.1660457471E+00
   0.1416607347E+00   0.1830253225E+00   0.4307914021E-04  -0.1793650052E-04   0.1723165608E-03  -0.7174600207E-04   0.1487957123E+00  -0.1062979410E-01   0.0000000000E+00   0.5592606568E-02   0.0000000000E+00   0.0000000000E+00   0.1519846505E-02  -0.5526850779E-03   0.1454077708E-03  -0.4144977546E-03   0.0000000000E+00   0.0000000000E+00   0.1546597424E+00
   0.2729051068E+00   0.1744772601E+00   0.8051295416E-04  -0.5847976629E-05   0.3220518167E-03  -0.2339190651E-04   0.1290868044E+00   0.2030392103E-02   0.0000000000E+00  -0.6816416964E-02   0.0000000000E+00   0.0000000000E+00   0.1284776867E-02  -0.3669564921E-03  -0.1772268411E-03  -0.3933515894E-03   0.0000000000E+00   0.0000000000E+00   0.1286193528E+00
   0.2923705299E+00   0.1736025856E+00   0.8550917265E-04  -0.5306873992E-05   0.3420366906E-03  -0.2122749597E-04   0.1270165531E+00   0.3329862591E-02   0.0000000000E+00  -0.5601687219E-02   0.0000000000E+00   0.0000000000E+00   0.1260175943E-02  -0.3477510333E-03  -0.1456438677E-03  -0.3910392470E-03   0.0000000000E+00   0.0000000000E+00   0.1257608623E+00
   0.9442168984E-01   0.1609194312E+00   0.3121894712E-04  -0.2417196605E-04   0.1248757885E-03  -0.9668786418E-04   0.1613507429E+00  -0.1105892808E-01   0.0000000000E+00   0.1342099114E-01   0.0000000000E+00   0.0000000000E+00   0.1646684213E-02  -0.5946415094E-03   0.3489457695E-03  -0.4508754443E-03   0.0000000000E+00   0.0000000000E+00   0.1687073121E+00
   0.8731500025E-01   0.1753474596E+00   0.2708576978E-04  -0.2727567140E-04   0.1083430791E-03  -0.1091026856E-03   0.1582151152E+00  -0.5947112786E-02   0.0000000000E+00   0.1813872446E-01   0.0000000000E+00   0.0000000000E+00   0.1599992491E-02  -0.5341164736E-03   0.4716068358E-03  -0.4568040073E-03   0.0000000000E+00   0.0000000000E+00   0.1643009816E+00
   0.2745182349E+00   0.7396971878E-01   0.8746657741E-04  -0.7531043247E-06   0.3498663096E-03  -0.3012417299E-05   0.8580755380E-01   0.1351282582E-01   0.0000000000E+00  -0.9600548757E-02   0.0000000000E+00   0.0000000000E+00   0.8175370605E-03  -0.1222944032E-03  -0.2496142677E-03  -0.2979611389E-03   0.0000000000E+00   0.0000000000E+00   0.8159993189E-01
   0.2265243878E+00   0.1122850546E+00   0.7529955190E-04  -0.3178485994E-05   0.3011982076E-03  -0.1271394398E-04   0.1049226145E+00  -0.4315669713E-04   0.0000000000E+00  -0.1623368530E-01   0.0000000000E+00   0.0000000000E+00   0.1049355616E-02  -0.3151994106E-03  -0.4220758177E-03  -0.3146383736E-03   0.0000000000E+00   0.0000000000E+00   0.1086156543E+00
   0.2228284061E+00   0.9417345283E-01   0.7672361058E-04  -0.2224933280E-05   0.3068944423E-03  -0.8899733121E-05   0.9496257267E-01   0.1691076042E-02   0.0000000000E+00  -0.1820251081E-01   0.0000000000E+00   0.0000000000E+00   0.9445524986E-03  -0.2679769576E-03  -0.4732652811E-03  -0.2899609461E-03   0.0000000000E+00   0.0000000000E+00   0.9923244671E-01
   0.2728266467E+00   0.5526011360E-01   0.8816813139E-04  -0.3868401912E-06   0.3526725256E-03  -0.1547360765E-05   0.7897629767E-01   0.1583653663E-01   0.0000000000E+00  -0.8310663516E-02   0.0000000000E+00   0.0000000000E+00   0.7422533668E-03  -0.7856352671E-04  -0.2160772514E-03  -0.2844385029E-03   0.0000000000E+00   0.0000000000E+00   0.7376956111E-01
   0.1572323910E+00   0.5348372590E-01   0.7255420742E-04  -0.2111239807E-05   0.2902168297E-03  -0.8444959228E-05   0.6196263550E-01  -0.1367362857E-01   0.0000000000E+00  -0.3008876053E-01   0.0000000000E+00   0.0000000000E+00   0.6606472407E-03  -0.3226241922E-03  -0.7823077738E-03  -0.1448670208E-03   0.0000000000E+00   0.0000000000E+00   0.8720987801E-01
   0.1471019419E+00   0.6074096169E-01   0.6958897962E-04  -0.3182321472E-05   0.2783559185E-03  -0.1272928589E-04   0.6565324062E-01  -0.1815300311E-01   0.0000000000E+00  -0.3151024429E-01   0.0000000000E+00   0.0000000000E+00   0.7109914155E-03  -0.3784897530E-03  -0.8192663516E-03  -0.1425007125E-03   0.0000000000E+00   0.0000000000E+00   0.9431799100E-01
   0.1240787970E+00   0.1490206767E+00   0.4270859155E-04  -0.1679565105E-04   0.1708343662E-03  -0.6718260422E-04   0.1515835238E+00  -0.1980040259E-01   0.0000000000E+00   0.1270913293E-02   0.0000000000E+00   0.0000000000E+00   0.1575236445E-02  -0.6527545972E-03   0.3304374562E-04  -0.3953493635E-03   0.0000000000E+00   0.0000000000E+00   0.1623317861E+00
   0.1448464838E+00   0.1472930594E+00   0.4937935311E-04  -0.1319372648E-04   0.1975174124E-03  -0.5277490591E-04   0.1432651553E+00  -0.1918829842E-01   0.0000000000E+00  -0.5117964051E-02   0.0000000000E+00   0.0000000000E+00   0.1490216448E-02  -0.6216784501E-03  -0.1330670653E-03  -0.3722305706E-03   0.0000000000E+00   0.0000000000E+00   0.1540048507E+00
   0.1433946603E+00   0.1660545083E+00   0.4595446466E-04  -0.1571954883E-04   0.1838178586E-03  -0.6287819533E-04   0.1476173531E+00  -0.1529180186E-01   0.0000000000E+00   0.1708793200E-02   0.0000000000E+00   0.0000000000E+00   0.1522048936E-02  -0.5957700778E-03   0.4442862320E-04  -0.3969766536E-03   0.0000000000E+00   0.0000000000E+00   0.1557958535E+00
   0.1256869612E+00   0.1662195852E+00   0.4048703891E-04  -0.1869336493E-04   0.1619481556E-03  -0.7477345974E-04   0.1512099988E+00  -0.1574015386E-01   0.0000000000E+00   0.5842651665E-02   0.0000000000E+00   0.0000000000E+00   0.1559320449E-02  -0.6110315349E-03   0.1519089433E-03  -0.4064095347E-03   0.0000000000E+00   0.0000000000E+00   0.1599474715E+00
   0.6678587672E-01   0.1807266243E+00   0.2011454390E-04  -0.3183953944E-04   0.8045817562E-04  -0.1273581577E-03   0.1544202439E+00   0.1600963071E-02   0.0000000000E+00   0.1833762287E-01   0.0000000000E+00   0.0000000000E+00   0.1539399550E-02  -0.4472511010E-03   0.4767781947E-03  -0.4680636210E-03   0.0000000000E+00   0.0000000000E+00   0.1568344262E+00
   0.1097211371E+00   0.1660118260E+00   0.3547321319E-04  -0.2166019710E-04   0.1418928528E-03  -0.8664078841E-04   0.1564288760E+00  -0.1417974106E-01   0.0000000000E+00   0.1052990808E-01   0.0000000000E+00   0.0000000000E+00   0.1606827983E-02  -0.6110840386E-03   0.2737776101E-03  -0.4267474049E-03   0.0000000000E+00   0.0000000000E+00   0.1649898958E+00
   0.1055928257E+00   0.1804737834E+00   0.3226574442E-04  -0.2415312805E-04   0.1290629777E-03  -0.9661251220E-04   0.1539497208E+00  -0.9068693946E-02   0.0000000000E+00   0.1432821273E-01   0.0000000000E+00   0.0000000000E+00   0.1566703290E-02  -0.5525361019E-03   0.3725335310E-03  -0.4346430806E-03   0.0000000000E+00   0.0000000000E+00   0.1605626437E+00
   0.2150249208E+00   0.1816368509E+00   0.6454336076E-04  -0.9284216794E-05   0.2581734430E-03  -0.3713686718E-04   0.1373247288E+00  -0.3540848691E-02   0.0000000000E+00  -0.6424101012E-02   0.0000000000E+00   0.0000000000E+00   0.1383869834E-02  -0.4473826734E-03  -0.1670266263E-03  -0.4013516405E-03   0.0000000000E+00   0.0000000000E+00   0.1395738179E+00
   0.2342563748E+00   0.1797810818E+00   0.6997636434E-04  -0.7873235266E-05   0.2799054574E-03  -0.3149294106E-04   0.1342422508E+00  -0.1454801874E-02   0.0000000000E+00  -0.7275568867E-02   0.0000000000E+00   0.0000000000E+00   0.1346786913E-02  -0.4172747710E-03  -0.1891647905E-03  -0.3983623467E-03   0.0000000000E+00   0.0000000000E+00   0.1355657833E+00
   0.2756460402E+00   0.1304906134E+00   0.8409204709E-04  -0.2965918183E-05   0.3363681884E-03  -0.1186367273E-04   0.1094901322E+00   0.5904154873E-02   0.0000000000E+00  -0.9534188368E-02   0.0000000000E+00   0.0000000000E+00   0.1077188857E-02  -0.2694288477E-03  -0.2478888976E-03  -0.3461828611E-03   0.0000000000E+00   0.0000000000E+00   0.1079143316E+00
   0.2707279578E+00   0.1522645423E+00   0.8148455507E-04  -0.4352748803E-05   0.3259382203E-03  -0.1741099521E-04   0.1196794853E+00   0.3276169367E-02   0.0000000000E+00  -0.8663579724E-02   0.0000000000E+00   0.0000000000E+00   0.1186966345E-02  -0.3262767624E-03  -0.2252530728E-03  -0.3688669641E-03   0.0000000000E+00   0.0000000000E+00   0.1190254940E+00
   0.2536701666E+00   0.1774532390E+00   0.7533052124E-04  -0.6743409946E-05   0.3013220849E-03  -0.2697363978E-04   0.1310092229E+00   0.4322252514E-03   0.0000000000E+00  -0.7365703828E-02   0.0000000000E+00   0.0000000000E+00   0.1308795554E-02  -0.3887054163E-03  -0.1915082995E-03  -0.3943243445E-03   0.0000000000E+00   0.0000000000E+00   0.1314139725E+00
   0.1223950948E+00   0.5810067146E-01   0.6696815045E-04  -0.5385848395E-05   0.2678726018E-03  -0.2154339358E-04   0.5554540220E-01  -0.3303078154E-01   0.0000000000E+00  -0.3375670364E-01   0.0000000000E+00   0.0000000000E+00   0.6545463667E-03  -0.4969440220E-03  -0.8776742946E-03  -0.6754386200E-04   0.0000000000E+00   0.0000000000E+00   0.9826865841E-01
   0.1103402091E+00   0.7305830014E-01   0.5979421043E-04  -0.9052372307E-05   0.2391768417E-03  -0.3620948923E-04   0.8649855549E-01  -0.3218564641E-01   0.0000000000E+00  -0.3533543770E-01   0.0000000000E+00   0.0000000000E+00   0.9615424941E-03  -0.5813521305E-03  -0.9187213801E-03  -0.1629387272E-03   0.0000000000E+00   0.0000000000E+00   0.1222858810E+00
   0.1477845001E+00   0.8121045036E-01   0.6462602476E-04  -0.4952948205E-05   0.2585040991E-03  -0.1981179282E-04   0.9354195034E-01  -0.2250715872E-01   0.0000000000E+00  -0.3140195143E-01   0.0000000000E+00   0.0000000000E+00   0.1002940980E-02  -0.5056974382E-03  -0.8164507372E-03  -0.2131043748E-03   0.0000000000E+00   0.0000000000E+00   0.1197597232E+00
   0.1355591270E+00   0.7048274326E-01   0.6521940604E-04  -0.5040068168E-05   0.2608776242E-03  -0.2016027267E-04   0.7934806997E-01  -0.2587160825E-01   0.0000000000E+00  -0.3508523394E-01   0.0000000000E+00   0.0000000000E+00   0.8710955244E-03  -0.4967602924E-03  -0.9122160825E-03  -0.1604293852E-03   0.0000000000E+00   0.0000000000E+00   0.1122707348E+00
   0.1011268010E+00   0.1968329314E+00   0.2898800097E-04  -0.2674931905E-04   0.1159520039E-03  -0.1069972762E-03   0.1502195435E+00  -0.5691682234E-02   0.0000000000E+00   0.1570187115E-01   0.0000000000E+00   0.0000000000E+00   0.1519270482E-02  -0.5075754530E-03   0.4082486499E-03  -0.4335835839E-03   0.0000000000E+00   0.0000000000E+00   0.1555351655E+00
   0.1237193902E+00   0.1822620560E+00   0.3768124749E-04  -0.2092260133E-04   0.1507249900E-03  -0.8369040531E-04   0.1514948020E+00  -0.1087737256E-01   0.0000000000E+00   0.1005409774E-01   0.0000000000E+00   0.0000000000E+00   0.1547580138E-02  -0.5632581316E-03   0.2614065414E-03  -0.4218522884E-03   0.0000000000E+00   0.0000000000E+00   0.1581380466E+00
   0.1613664376E+00   0.1678870570E+00   0.5106712370E-04  -0.1334639187E-04   0.2042684948E-03  -0.5338556747E-04   0.1432866582E+00  -0.1262288714E-01   0.0000000000E+00  -0.2092744194E-02   0.0000000000E+00   0.0000000000E+00   0.1470735244E-02  -0.5560888461E-03  -0.5441134905E-04  -0.3919913133E-03   0.0000000000E+00   0.0000000000E+00   0.1500248923E+00
   0.1784244668E+00   0.1697916091E+00   0.5573716759E-04  -0.1149777937E-04   0.2229486704E-03  -0.4599111749E-04   0.1398522164E+00  -0.9687831101E-02   0.0000000000E+00  -0.4487666839E-02   0.0000000000E+00   0.0000000000E+00   0.1427585657E-02  -0.5164349602E-03  -0.1166793378E-03  -0.3904931559E-03   0.0000000000E+00   0.0000000000E+00   0.1451375912E+00
   0.8822137675E-01   0.1397168906E+00   0.3261826940E-04  -0.2290367640E-04   0.1304730776E-03  -0.9161470560E-04   0.1682928427E+00  -0.1362862321E-01   0.0000000000E+00   0.6455456105E-02   0.0000000000E+00   0.0000000000E+00   0.1723814297E-02  -0.6411647603E-03   0.1678418587E-03  -0.4639926585E-03   0.0000000000E+00   0.0000000000E+00   0.1758384576E+00
   0.9964505001E-01   0.8889909830E-01   0.5117240260E-04  -0.1332163962E-04   0.2046896104E-03  -0.5328655849E-04   0.1229626849E+00  -0.2890812738E-01   0.0000000000E+00  -0.2895881194E-01   0.0000000000E+00   0.0000000000E+00   0.1316351231E-02  -0.6579693285E-03  -0.7529291104E-03  -0.2821636726E-03   0.0000000000E+00   0.0000000000E+00   0.1469248590E+00
   0.9656680618E-01   0.1275558089E+00   0.3808635514E-04  -0.1938222648E-04   0.1523454206E-03  -0.7752890590E-04   0.1621370690E+00  -0.2091301907E-01   0.0000000000E+00  -0.1507015234E-02   0.0000000000E+00   0.0000000000E+00   0.1684109747E-02  -0.6955413977E-03  -0.3918239608E-04  -0.4236721497E-03   0.0000000000E+00   0.0000000000E+00   0.1732171829E+00
   0.2509159364E+00   0.1600683293E+00   0.7606587216E-04  -0.5538131684E-05   0.3042634887E-03  -0.2215252673E-04   0.1241768588E+00   0.2976939282E-03   0.0000000000E+00  -0.9134288626E-02   0.0000000000E+00   0.0000000000E+00   0.1240875507E-02  -0.3695536372E-03  -0.2374915043E-03  -0.3734236583E-03   0.0000000000E+00   0.0000000000E+00   0.1250304057E+00
   0.2597576057E+00   0.1275194748E+00   0.8086514634E-04  -0.3137843849E-05   0.3234605854E-03  -0.1255137540E-04   0.1102051447E+00   0.4414101663E-02   0.0000000000E+00  -0.1122193292E-01   0.0000000000E+00   0.0000000000E+00   0.1088809142E-02  -0.2864744174E-03  -0.2917702559E-03  -0.3438577390E-03   0.0000000000E+00   0.0000000000E+00   0.1097941502E+00
   0.1964725587E+00   0.1839890002E+00   0.5908974905E-04  -0.1104835360E-04   0.2363589962E-03  -0.4419341440E-04   0.1403598220E+00  -0.5598523796E-02   0.0000000000E+00  -0.4552461142E-02   0.0000000000E+00   0.0000000000E+00   0.1420393791E-02  -0.4770647040E-03  -0.1183639897E-03  -0.4042838946E-03   0.0000000000E+00   0.0000000000E+00   0.1434540968E+00
   0.2586819086E+00   0.1414845917E+00   0.7947391394E-04  -0.4022652311E-05   0.3178956558E-03  -0.1609060924E-04   0.1177898171E+00   0.3871841435E-02   0.0000000000E+00  -0.9981871846E-02   0.0000000000E+00   0.0000000000E+00   0.1166282647E-02  -0.3146510370E-03  -0.2595286680E-03  -0.3649849756E-03   0.0000000000E+00   0.0000000000E+00   0.1171710847E+00
   0.2463293049E+00   0.1446194979E+00   0.7631718782E-04  -0.4618627031E-05   0.3052687513E-03  -0.1847450812E-04   0.1183180516E+00   0.1175616112E-02   0.0000000000E+00  -0.1084213328E-01   0.0000000000E+00   0.0000000000E+00   0.1179653668E-02  -0.3431979937E-03  -0.2818954652E-03  -0.3584810032E-03   0.0000000000E+00   0.0000000000E+00   0.1192138457E+00
   0.1919804491E+00   0.1589441811E+00   0.6095122556E-04  -0.9076585807E-05   0.2438049023E-03  -0.3630634323E-04   0.1328380511E+00  -0.7716837802E-02   0.0000000000E+00  -0.8463833367E-02   0.0000000000E+00   0.0000000000E+00   0.1351531024E-02  -0.4756825313E-03  -0.2200596675E-03  -0.3753636398E-03   0.0000000000E+00   0.0000000000E+00   0.1376410363E+00
   0.1948074476E+00   0.1697409022E+00   0.6035111570E-04  -0.9840353973E-05   0.2414044628E-03  -0.3936141589E-04   0.1359483742E+00  -0.7303998939E-02   0.0000000000E+00  -0.6666014638E-02   0.0000000000E+00   0.0000000000E+00   0.1381395739E-02  -0.4808851121E-03  -0.1733163806E-03  -0.3859331259E-03   0.0000000000E+00   0.0000000000E+00   0.1402190976E+00
   0.1800629740E+00   0.1552469257E+00   0.5820280580E-04  -0.9829255749E-05   0.2328112232E-03  -0.3931702300E-04   0.1352901214E+00  -0.1079822157E-01   0.0000000000E+00  -0.7740268889E-02   0.0000000000E+00   0.0000000000E+00   0.1385295878E-02  -0.5138525798E-03  -0.2012469911E-03  -0.3734756994E-03   0.0000000000E+00   0.0000000000E+00   0.1415881802E+00
   0.1011569058E+00   0.1484615118E+00   0.3539036379E-04  -0.2119724464E-04   0.1415614552E-03  -0.8478897855E-04   0.1600972682E+00  -0.1691669776E-01   0.0000000000E+00   0.7220970767E-02   0.0000000000E+00   0.0000000000E+00   0.1651722775E-02  -0.6494587820E-03   0.1877452399E-03  -0.4295417112E-03   0.0000000000E+00   0.0000000000E+00   0.1696179030E+00
   0.2007586381E+00   0.7797082505E-01   0.7489662991E-04  -0.1935669970E-05   0.2995865196E-03  -0.7742679880E-05   0.8483445602E-01  -0.1225655963E-02   0.0000000000E+00  -0.2271198488E-01   0.0000000000E+00   0.0000000000E+00   0.8520215281E-03  -0.2667599277E-03  -0.5905116070E-03  -0.2508264002E-03   0.0000000000E+00   0.0000000000E+00   0.9402546184E-01
   0.2117084360E+00   0.1146512140E+00   0.7183140705E-04  -0.3910799307E-05   0.2873256282E-03  -0.1564319723E-04   0.1081290719E+00  -0.3802165508E-02   0.0000000000E+00  -0.1737488843E-01   0.0000000000E+00   0.0000000000E+00   0.1092697216E-02  -0.3624088708E-03  -0.4517470993E-03  -0.3129807192E-03   0.0000000000E+00   0.0000000000E+00   0.1140833937E+00
   0.2069441268E+00   0.9688102681E-01   0.7329955840E-04  -0.2873977121E-05   0.2931982336E-03  -0.1149590848E-04   0.9792830799E-01  -0.3242019364E-02   0.0000000000E+00  -0.2049619351E-01   0.0000000000E+00   0.0000000000E+00   0.9890091380E-03  -0.3262051176E-03  -0.5329010312E-03  -0.2840588659E-03   0.0000000000E+00   0.0000000000E+00   0.1056703254E+00
   0.9013622606E-01   0.1039103862E+00   0.4279981241E-04  -0.1763415735E-04   0.1711992497E-03  -0.7053662941E-04   0.1561465003E+00  -0.1991460728E-01   0.0000000000E+00  -0.1799983688E-01   0.0000000000E+00   0.0000000000E+00   0.1621208825E-02  -0.6675855738E-03  -0.4679957589E-03  -0.4086956792E-03   0.0000000000E+00   0.0000000000E+00   0.1686677152E+00
   0.1247717544E+00   0.8334804811E-01   0.5919088245E-04  -0.7828097979E-05   0.2367635298E-03  -0.3131239191E-04   0.1008548818E+00  -0.3083239831E-01   0.0000000000E+00  -0.3254673437E-01   0.0000000000E+00   0.0000000000E+00   0.1101046013E-02  -0.6108886286E-03  -0.8462150936E-03  -0.2100674505E-03   0.0000000000E+00   0.0000000000E+00   0.1317338991E+00
   0.1089805283E+00   0.1151170848E+00   0.4524565173E-04  -0.1491224784E-04   0.1809826069E-03  -0.5964899138E-04   0.1468322618E+00  -0.2689814493E-01   0.0000000000E+00  -0.1378396322E-01   0.0000000000E+00   0.0000000000E+00   0.1549017053E-02  -0.7094782347E-03  -0.3583830437E-03  -0.3598023506E-03   0.0000000000E+00   0.0000000000E+00   0.1638645280E+00
   0.2442035548E+00   0.1279717269E+00   0.7742095390E-04  -0.3593412316E-05   0.3096838156E-03  -0.1437364927E-04   0.1108509639E+00   0.1832916524E-02   0.0000000000E+00  -0.1290466928E-01   0.0000000000E+00   0.0000000000E+00   0.1103010890E-02  -0.3142237265E-03  -0.3355214014E-03  -0.3380516413E-03   0.0000000000E+00   0.0000000000E+00   0.1121729849E+00
   0.1992041500E+00   0.1517026040E+00   0.6381939550E-04  -0.7797992278E-05   0.2552775820E-03  -0.3119196911E-04   0.1287547179E+00  -0.7946678327E-02   0.0000000000E+00  -0.1036452620E-01   0.0000000000E+00   0.0000000000E+00   0.1311387214E-02  -0.4657309370E-03  -0.2694776811E-03  -0.3624241187E-03   0.0000000000E+00   0.0000000000E+00   0.1340987712E+00
   0.2057021673E+00   0.1444024618E+00   0.6645845401E-04  -0.6663239211E-05   0.2658338160E-03  -0.2665295684E-04   0.1245861932E+00  -0.7221595882E-02   0.0000000000E+00  -0.1223352907E-01   0.0000000000E+00   0.0000000000E+00   0.1267526719E-02  -0.4459745383E-03  -0.3180717559E-03  -0.3520937919E-03   0.0000000000E+00   0.0000000000E+00   0.1300886220E+00
   0.1927416882E+00   0.1008018002E+00   0.6981123402E-04  -0.3763169639E-05   0.2792449361E-03  -0.1505267856E-04   0.1024139485E+00  -0.7972393784E-02   0.0000000000E+00  -0.2151386321E-01   0.0000000000E+00   0.0000000000E+00   0.1048056666E-02  -0.3869657832E-03  -0.5593604434E-03  -0.2833246640E-03   0.0000000000E+00   0.0000000000E+00   0.1128642488E+00
   0.1419569673E+00   0.1241601360E+00   0.5294025939E-04  -0.1069839679E-04   0.2117610375E-03  -0.4279358717E-04   0.1345062920E+00  -0.2379420217E-01   0.0000000000E+00  -0.1422011771E-01   0.0000000000E+00   0.0000000000E+00   0.1416445527E-02  -0.6414608978E-03  -0.3697230604E-03  -0.3321362696E-03   0.0000000000E+00   0.0000000000E+00   0.1498416625E+00
   0.1461506261E+00   0.1118461769E+00   0.5678682019E-04  -0.8610229288E-05   0.2271472808E-03  -0.3444091715E-04   0.1247124322E+00  -0.2411057732E-01   0.0000000000E+00  -0.2049089409E-01   0.0000000000E+00   0.0000000000E+00   0.1319456054E-02  -0.6152430698E-03  -0.5327632462E-03  -0.3018055647E-03   0.0000000000E+00   0.0000000000E+00   0.1427659178E+00
   0.1588952592E+00   0.1176294499E+00   0.5888443231E-04  -0.7893810055E-05   0.2355377292E-03  -0.3157524022E-04   0.1235277267E+00  -0.2008451560E-01   0.0000000000E+00  -0.1878614988E-01   0.0000000000E+00   0.0000000000E+00   0.1295530813E-02  -0.5714283360E-03  -0.4884398968E-03  -0.3103296332E-03   0.0000000000E+00   0.0000000000E+00   0.1385997128E+00
   0.1543695105E+00   0.1313274125E+00   0.5500750060E-04  -0.1000329274E-04   0.2200300024E-03  -0.4001317096E-04   0.1321419048E+00  -0.2088492163E-01   0.0000000000E+00  -0.1355909927E-01   0.0000000000E+00   0.0000000000E+00   0.1384073813E-02  -0.6052749306E-03  -0.3525365811E-03  -0.3337709494E-03   0.0000000000E+00   0.0000000000E+00   0.1454373302E+00
   0.1640362759E+00   0.1519234978E+00   0.5421078151E-04  -0.1122844072E-04   0.2168431260E-03  -0.4491376290E-04   0.1380919011E+00  -0.1414689086E-01   0.0000000000E+00  -0.6810438124E-02   0.0000000000E+00   0.0000000000E+00   0.1423359683E-02  -0.5557446118E-03  -0.1770713912E-03  -0.3718350306E-03   0.0000000000E+00   0.0000000000E+00   0.1460884470E+00
   0.1115815308E+00   0.1548486741E+00   0.3776936647E-04  -0.1991498946E-04   0.1510774659E-03  -0.7965995784E-04   0.1578742552E+00  -0.1544789351E-01   0.0000000000E+00   0.7588115213E-02   0.0000000000E+00   0.0000000000E+00   0.1625086233E-02  -0.6281017009E-03   0.1972909955E-03  -0.4272790852E-03   0.0000000000E+00   0.0000000000E+00   0.1665554026E+00
   0.1375065050E+00   0.1346802400E+00   0.4950559298E-04  -0.1272879222E-04   0.1980223719E-03  -0.5091516890E-04   0.1463514776E+00  -0.2148663826E-01   0.0000000000E+00  -0.7762124501E-02   0.0000000000E+00   0.0000000000E+00   0.1527974691E-02  -0.6539208154E-03  -0.2018152370E-03  -0.3745945180E-03   0.0000000000E+00   0.0000000000E+00   0.1586322502E+00
   0.1808239789E+00   0.1056302595E+00   0.6640497960E-04  -0.4852702834E-05   0.2656199184E-03  -0.1941081134E-04   0.1072771498E+00  -0.1331674026E-01   0.0000000000E+00  -0.2244128882E-01   0.0000000000E+00   0.0000000000E+00   0.1112721719E-02  -0.4549988520E-03  -0.5834735093E-03  -0.2818812287E-03   0.0000000000E+00   0.0000000000E+00   0.1208983011E+00
   0.1512744658E+00   0.1000033461E+00   0.6078356384E-04  -0.6651988134E-05   0.2431342553E-03  -0.2660795253E-04   0.1110402744E+00  -0.2231120209E-01   0.0000000000E+00  -0.2534108717E-01   0.0000000000E+00   0.0000000000E+00   0.1177336350E-02  -0.5562328440E-03  -0.6588682664E-03  -0.2661872169E-03   0.0000000000E+00   0.0000000000E+00   0.1311810702E+00
   0.1383994072E+00   0.9236167582E-01   0.5966424814E-04  -0.7155116440E-05   0.2386569926E-03  -0.2862046576E-04   0.1090718851E+00  -0.2695806385E-01   0.0000000000E+00  -0.2908369922E-01   0.0000000000E+00   0.0000000000E+00   0.1171593043E-02  -0.5967962938E-03  -0.7561761796E-03  -0.2463414638E-03   0.0000000000E+00   0.0000000000E+00   0.1343863224E+00
   0.1560810567E+00   0.9051980418E-01   0.6406733224E-04  -0.5232603893E-05   0.2562693290E-03  -0.2093041557E-04   0.9942838518E-01  -0.2236879687E-01   0.0000000000E+00  -0.3026149334E-01   0.0000000000E+00   0.0000000000E+00   0.1061390242E-02  -0.5219731242E-03  -0.7867988269E-03  -0.2311787649E-03   0.0000000000E+00   0.0000000000E+00   0.1237299100E+00
   0.1275065714E+00   0.1185098553E+00   0.5003848720E-04  -0.1209293461E-04   0.2001539488E-03  -0.4837173843E-04   0.1408363575E+00  -0.2690942526E-01   0.0000000000E+00  -0.1481622408E-01   0.0000000000E+00   0.0000000000E+00   0.1489091850E-02  -0.6916033250E-03  -0.3852218260E-03  -0.3417807966E-03   0.0000000000E+00   0.0000000000E+00   0.1580103440E+00
   0.1261711582E+00   0.1330654827E+00   0.4634883648E-04  -0.1433385244E-04   0.1853953459E-03  -0.5733540978E-04   0.1460752852E+00  -0.2387338671E-01   0.0000000000E+00  -0.7196701603E-02   0.0000000000E+00   0.0000000000E+00   0.1532373012E-02  -0.6769597227E-03  -0.1871142417E-03  -0.3666056954E-03   0.0000000000E+00   0.0000000000E+00   0.1598589246E+00
   0.1146557227E+00   0.1296379848E+00   0.4351673439E-04  -0.1593264869E-04   0.1740669376E-03  -0.6373059474E-04   0.1493335319E+00  -0.2676131287E-01   0.0000000000E+00  -0.6532444363E-02   0.0000000000E+00   0.0000000000E+00   0.1573619257E-02  -0.7156137242E-03  -0.1698435534E-03  -0.3677166570E-03   0.0000000000E+00   0.0000000000E+00   0.1645306806E+00
   0.2293455964E+00   0.1294695819E+00   0.7393788436E-04  -0.4221227291E-05   0.2957515374E-03  -0.1688490916E-04   0.1133715548E+00  -0.9606023743E-03   0.0000000000E+00  -0.1382588112E-01   0.0000000000E+00   0.0000000000E+00   0.1136597355E-02  -0.3497206881E-03  -0.3594729092E-03  -0.3372328573E-03   0.0000000000E+00   0.0000000000E+00   0.1163263552E+00
   0.2014651044E+00   0.1332076270E+00   0.6692488986E-04  -0.5943996719E-05   0.2676995595E-03  -0.2377598688E-04   0.1204005814E+00  -0.7116098236E-02   0.0000000000E+00  -0.1430374680E-01   0.0000000000E+00   0.0000000000E+00   0.1225354109E-02  -0.4323627265E-03  -0.3718974167E-03  -0.3398534495E-03   0.0000000000E+00   0.0000000000E+00   0.1265401884E+00
   0.1978584023E+00   0.1180850670E+00   0.6824325849E-04  -0.4880998103E-05   0.2729730339E-03  -0.1952399241E-04   0.1128825602E+00  -0.7884715471E-02   0.0000000000E+00  -0.1773259535E-01   0.0000000000E+00   0.0000000000E+00   0.1152479748E-02  -0.4174948353E-03  -0.4610474791E-03  -0.3149935342E-03   0.0000000000E+00   0.0000000000E+00   0.1209635730E+00
   0.2152586927E+00   0.1311336134E+00   0.7048954508E-04  -0.4989522399E-05   0.2819581803E-03  -0.1995808959E-04   0.1159223333E+00  -0.4229161377E-02   0.0000000000E+00  -0.1448692099E-01   0.0000000000E+00   0.0000000000E+00   0.1171910817E-02  -0.3900586137E-03  -0.3766599457E-03  -0.3350795157E-03   0.0000000000E+00   0.0000000000E+00   0.1207159737E+00
   0.1087889924E+00   0.1384231821E+00   0.3977187697E-04  -0.1828517711E-04   0.1590875079E-03  -0.7314070842E-04   0.1572758221E+00  -0.2181367302E-01   0.0000000000E+00  -0.3773138137E-04   0.0000000000E+00   0.0000000000E+00   0.1638199240E-02  -0.6899641966E-03  -0.9810159157E-06  -0.4063864473E-03   0.0000000000E+00   0.0000000000E+00   0.1691542791E+00
   0.1690315260E+00   0.1364491588E+00   0.5810460941E-04  -0.8946446447E-05   0.2324184377E-03  -0.3578578579E-04   0.1303285344E+00  -0.1656529985E-01   0.0000000000E+00  -0.1262247287E-01   0.0000000000E+00   0.0000000000E+00   0.1352981244E-02  -0.5566386018E-03  -0.3281842947E-03  -0.3412897037E-03   0.0000000000E+00   0.0000000000E+00   0.1410105810E+00
   0.1866073435E+00   0.1395877284E+00   0.6225350949E-04  -0.7626728085E-05   0.2490140379E-03  -0.3050691234E-04   0.1264136991E+00  -0.1141963835E-01   0.0000000000E+00  -0.1279877439E-01   0.0000000000E+00   0.0000000000E+00   0.1298395906E-02  -0.4934374807E-03  -0.3327681343E-03  -0.3449821822E-03   0.0000000000E+00   0.0000000000E+00   0.1343029856E+00
   0.1629545673E+00   0.1046747455E+00   0.6254585496E-04  -0.6089298274E-05   0.2501834198E-03  -0.2435719310E-04   0.1144363582E+00  -0.1774697533E-01   0.0000000000E+00  -0.2237770056E-01   0.0000000000E+00   0.0000000000E+00   0.1197604508E-02  -0.5207788279E-03  -0.5818202146E-03  -0.2900681486E-03   0.0000000000E+00   0.0000000000E+00   0.1299889317E+00
   0.1847038612E+00   0.1214356093E+00   0.6461223077E-04  -0.6043136972E-05   0.2584489231E-03  -0.2417254789E-04   0.1175373988E+00  -0.1167583998E-01   0.0000000000E+00  -0.1730569310E-01   0.0000000000E+00   0.0000000000E+00   0.1210401508E-02  -0.4693705962E-03  -0.4499480206E-03  -0.3175846765E-03   0.0000000000E+00   0.0000000000E+00   0.1272869638E+00
   0.1718510032E+00   0.1217778093E+00   0.6140044005E-04  -0.7100531978E-05   0.2456017602E-03  -0.2840212791E-04   0.1208850445E+00  -0.1615479047E-01   0.0000000000E+00  -0.1754885281E-01   0.0000000000E+00   0.0000000000E+00   0.1257314817E-02  -0.5242030383E-03  -0.4562701730E-03  -0.3141907621E-03   0.0000000000E+00   0.0000000000E+00   0.1331763221E+00
   0.1158707984E+00   0.9808853845E-01   0.5230348274E-04  -0.1122687084E-04   0.2092139309E-03  -0.4490748336E-04   0.1252680963E+00  -0.3102500258E-01   0.0000000000E+00  -0.2565269510E-01   0.0000000000E+00   0.0000000000E+00   0.1345755971E-02  -0.6860543147E-03  -0.6669700725E-03  -0.2827292812E-03   0.0000000000E+00   0.0000000000E+00   0.1499425397E+00
   0.1316922076E+00   0.1052666735E+00   0.5453072436E-04  -0.9651905363E-05   0.2181228974E-03  -0.3860762145E-04   0.1265775424E+00  -0.2816296133E-01   0.0000000000E+00  -0.2251830122E-01   0.0000000000E+00   0.0000000000E+00   0.1350264308E-02  -0.6613622405E-03  -0.5854758317E-03  -0.2952437432E-03   0.0000000000E+00   0.0000000000E+00   0.1477519208E+00
   0.1721638294E+00   0.1103126049E+00   0.6358627006E-04  -0.5918427881E-05   0.2543450802E-03  -0.2367371152E-04   0.1106702281E+00  -0.1632442885E-01   0.0000000000E+00  -0.2156421751E-01   0.0000000000E+00   0.0000000000E+00   0.1155675567E-02  -0.4952549727E-03  -0.5606696554E-03  -0.2830373977E-03   0.0000000000E+00   0.0000000000E+00   0.1253408270E+00
           1           2           3           4
           5           6           7           8
           9          10          11          12
          13          14          15          16
          17          18          19          20
          21          22          23          24
          25          26          27          28
          29          30          31          32
          33          34           4           3
           2           1          35          36
          37          38          39          40
          41          42          36          35
          43          41          44          45
          46           9          47          48
          41          35          39          44
          49          50          51          52
          52          51          53          54
          55          56          57          58
          56          59          60          57
          61          62          63          64
          65          66          67          68
          69          70          71          72
          73          74          25          28
          27          75          76          28
          77          78          24          23
          79          80          81          82
          83          84          85          86
          87          88          89          90
          90          89          62          91
          61          92          91          62
          92          61          59          93
          56          94          93          59
          95          55          54          53
          46          96          10           9
          97          98          99         100
          12         101          98          97
          97         100         102          47
         103         104          31          30
         105         103          30         106
          73         107         108         109
         110         111         112         113
          32          31         114         115
         116         117         118         119
         120         121         122         123
         121          83          86         122
          80         124         125          81
         126         127         128         129
         130         101          12          11
         131          43         101         130
          34         129         132           4
          42          41          43         131
          35           1          40          39
         101          43          45          98
         133         134         109         108
         135         136          13          16
         137         138          65          68
          94          56          55          95
          58         137          54          55
          49          52          68          67
         139         140         141         142
         140         139          82          81
          88          87         142         141
         143         144         145         146
         147          26          25         148
         149         150         128         151
           5           8         152         102
         132         129         128         150
         153         100          99         154
          48          47         102         152
          59          61          64          60
         106         155         113         118
          62          89         156          63
          88         157         156          89
         123         116         119         120
          66          65         134         133
         144         143          84          83
           9          12          97          47
         104         158         114          31
         159         160         127         126
         119         112         161         120
         117         105         106         118
         162         163         164         165
          83         121         166         144
         167         168         141         140
         167         143         146         168
           6         114         158           7
          38          37         169         170
          40         132         150          37
         160         159          20          19
          78         171         172          24
          18          17          21          24
         173         174          78          77
         132          40           1           4
          28          76         107          73
         175         176         177         178
         176         179          57          60
         137          68          52          54
          60          64         177         176
         163         162         155          29
          75          27         174         173
         180         174          27          26
          64          63         181         177
          98          45         182          99
         183         182          45          44
          38         183          44          39
          58          57         179         184
         185         181          63         156
         134         186         187         109
         188          74         187         189
         138         186         134          65
          88         141         168         157
         166         121         120         161
         190         191         166         161
         155         106          30          29
         192         193         194         195
         118         113         112         119
         125          84         143         167
         124          85          84         125
           6         196         115         114
         196           6           5         153
         197          32         115         198
         111         190         161         112
         199         148         188         135
         170         169         200         201
         202         164         163         197
         203         204         146         145
         205         206         201         200
         187          74          73         109
         176         175         207         179
         208         209          16          15
         210         186         138         184
         184         138         137          58
         179         207         210         184
         211         212         172         171
          78         174         180         171
         125         167         140          81
          37         150         149         169
         213         214         215         216
         217         182         183         201
         170         201         183          38
         218         219         206         205
         111         220         221         190
         157         168         146         204
         177         181         222         178
         222         181         185         223
         186         210         189         187
         224         191         190         221
         100         153           5         102
         185         156         157         204
         113         155         162         110
          26         147         193         180
          29          32         197         163
         225         226          19          18
         144         166         191         145
         212         192         227         228
         198         115         196         229
         206         154         217         201
         153         154         229         196
         172         225          18          24
         148          25          74         188
          14          13         175         178
         207         175          13         136
         189         136         135         188
         230         202         197         198
         210         207         136         189
         165         164         231         232
         169         149         233         200
         234         160          19         226
         217         154          99         182
         203         145         191         224
         151         235         233         149
         236         223         203         224
         185         204         203         223
         178         222         237          14
         110         162         165         238
         239         223         236         240
         238         220         111         110
         219         230         198         229
         241         242         232         243
         242          69         220         238
          72          71         240         236
         244         205         200         233
         215         231         164         202
         211         171         180         193
         228         225         172         212
         194         193         147         245
         245         147         148         199
         135          16         209         199
         209         208         246         247
         127         160         234         248
         193         192         212         211
         226         225         228         249
         151         128         127         248
         248         250         235         151
          72         221         220          69
          14         237         251          15
          70          69         252         253
         206         219         229         154
         238         165         232         242
          72         236         224         221
         216         215         202         230
         245         247         254         194
         255         256         257         258
         230         219         218         216
         214         259         231         215
         216         218         260         213
         261         255         258         214
         239         237         222         223
         194         254         262         195
         263         264         227         265
         250         266         267         268
         199         209         247         245
         240          71         269         251
         270         271         246         272
         260         244         273         213
         237         239         240         251
         218         205         244         260
          70         272         269          71
         232         231         259         243
         274         275         243         259
         257         256         263         276
         277         275         274         278
         234         226         249         279
         271         277         262         254
         271         254         247         246
         246         208         269         272
         244         233         235         273
         251         269         208          15
         275         270         253         252
         234         279         250         248
         279         249         264         280
         259         214         258         274
         262         281         276         195
         195         276         263         265
         257         276         281         278
         278         274         258         257
         266         280         256         255
         261         214         213         267
         267         266         255         261
         266         250         279         280
         228         227         264         249
         256         280         264         263
         265         227         192         195
         281         262         277         278
         235         250         268         273
         273         268         267         213
         277         271         270         275
         253         270         272          70
         252          69         242         241
         243         275         252         241
 VARIABLES = X,Y,DU1,DU2,U1,U2,S11,S22,S33,S12,S13,S23,E11,E22,E12,E33,E13,E23,SMISES
 ZONE, T="0.6000D+01" F=FEPOINT, I=  281 J=  250
   0.1779805890E-01   0.1340201471E+00   0.7173700808E-05  -0.3627480944E-04   0.3586850404E-04  -0.1813740472E-03   0.2578867833E+00   0.4855000800E-01   0.0000000000E+00   0.3848715593E-02   0.0000000000E+00   0.0000000000E+00   0.2433217809E-02  -0.2881602699E-03   0.1000666054E-03  -0.9193103740E-03   0.0000000000E+00   0.0000000000E+00   0.2361663806E+00
   0.0000000000E+00   0.1331105940E+00   0.0000000000E+00  -0.3712433844E-04   0.0000000000E+00  -0.1856216922E-03   0.2601861598E+00   0.5177622151E-01   0.0000000000E+00   0.7294463580E-02   0.0000000000E+00   0.0000000000E+00   0.2446532934E-02  -0.2627962644E-03   0.1896560531E-03  -0.9358871440E-03   0.0000000000E+00   0.0000000000E+00   0.2385524298E+00
   0.0000000000E+00   0.1164508080E+00   0.0000000000E+00  -0.3597650796E-04   0.0000000000E+00  -0.1798825398E-03   0.3309413653E+00   0.2720543689E-01   0.0000000000E+00   0.6279016935E-02   0.0000000000E+00   0.0000000000E+00   0.3227797342E-02  -0.7207697269E-03   0.1632544403E-03  -0.1074440406E-02   0.0000000000E+00   0.0000000000E+00   0.3181471073E+00
   0.1921417937E-01   0.1160815018E+00   0.1000706109E-04  -0.3494770620E-04   0.5003530544E-04  -0.1747385310E-03   0.3032699997E+00   0.2684884134E-01   0.0000000000E+00  -0.2701528416E-01   0.0000000000E+00   0.0000000000E+00   0.2952153473E-02  -0.6413215856E-03  -0.7023973880E-03  -0.9903565230E-03   0.0000000000E+00   0.0000000000E+00   0.2962183286E+00
   0.7811259559E-01   0.2316714301E+00   0.1851606492E-04  -0.3416214462E-04   0.9258032460E-04  -0.1708107231E-03   0.1587002097E+00  -0.5052325802E-04   0.0000000000E+00   0.1093077591E-01   0.0000000000E+00   0.0000000000E+00   0.1587153667E-02  -0.4766058616E-03   0.2842001735E-03  -0.4759490593E-03   0.0000000000E+00   0.0000000000E+00   0.1599261359E+00
   0.9792126846E-01   0.2318715968E+00   0.2387809382E-04  -0.3061086520E-04   0.1193904691E-03  -0.1530543260E-03   0.1678389266E+00  -0.8322227918E-03   0.0000000000E+00   0.9957999068E-02   0.0000000000E+00   0.0000000000E+00   0.1680885934E-02  -0.5118390078E-03   0.2589079758E-03  -0.5010201115E-03   0.0000000000E+00   0.0000000000E+00   0.1691961451E+00
   0.9734785790E-01   0.2498067192E+00   0.2093899991E-04  -0.3221346831E-04   0.1046949996E-03  -0.1610673416E-03   0.1638626804E+00  -0.5949039598E-03   0.0000000000E+00   0.3513076021E-02   0.0000000000E+00   0.0000000000E+00   0.1640411516E-02  -0.4975370808E-03   0.9133997655E-04  -0.4898033293E-03   0.0000000000E+00   0.0000000000E+00   0.1641287939E+00
   0.7787299197E-01   0.2497864341E+00   0.1586856091E-04  -0.3559431363E-04   0.7934280455E-04  -0.1779715681E-03   0.1484493404E+00  -0.9221681378E-03   0.0000000000E+00   0.3887390406E-02   0.0000000000E+00   0.0000000000E+00   0.1487259908E-02  -0.4545697026E-03   0.1010721506E-03  -0.4425815168E-03   0.0000000000E+00   0.0000000000E+00   0.1489013892E+00
   0.1912335655E-01   0.2330726088E+00   0.4194324500E-05  -0.4170336085E-04   0.2097162250E-04  -0.2085168042E-03   0.1341451585E+00   0.3204225882E-02   0.0000000000E+00   0.3061016377E-02   0.0000000000E+00   0.0000000000E+00   0.1331838907E-02  -0.3703932165E-03   0.7958642581E-04  -0.4120481530E-03   0.0000000000E+00   0.0000000000E+00   0.1328953107E+00
   0.0000000000E+00   0.2330798144E+00   0.0000000000E+00  -0.4225327452E-04   0.0000000000E+00  -0.2112663726E-03   0.1319709335E+00   0.3425206779E-02   0.0000000000E+00   0.3868779826E-02   0.0000000000E+00   0.0000000000E+00   0.1309433715E-02  -0.3616607327E-03   0.1005882755E-03  -0.4061884208E-03   0.0000000000E+00   0.0000000000E+00   0.1304162124E+00
   0.0000000000E+00   0.2164194117E+00   0.0000000000E+00  -0.4120955512E-04   0.0000000000E+00  -0.2060477756E-03   0.1504563628E+00   0.7717207386E-02   0.0000000000E+00   0.3922411698E-02   0.0000000000E+00   0.0000000000E+00   0.1481412006E-02  -0.3741970147E-03   0.1019827041E-03  -0.4745207107E-03   0.0000000000E+00   0.0000000000E+00   0.1468171009E+00
   0.1855986058E-01   0.2165305576E+00   0.4594296533E-05  -0.4067589180E-04   0.2297148267E-04  -0.2033794590E-03   0.1519179995E+00   0.7089278041E-02   0.0000000000E+00   0.6143067133E-02   0.0000000000E+00   0.0000000000E+00   0.1497912161E-02  -0.3848612181E-03   0.1597197454E-03  -0.4770218326E-03   0.0000000000E+00   0.0000000000E+00   0.1490747347E+00
   0.2577054487E+00   0.9226538664E-01   0.8332712020E-04  -0.1480726220E-05   0.4166356010E-03  -0.7403631098E-05   0.1118377767E+00   0.1049342411E-01   0.0000000000E+00  -0.1528943579E-01   0.0000000000E+00   0.0000000000E+00   0.1086897495E-02  -0.2305790891E-03  -0.3975253305E-03  -0.3669936025E-03   0.0000000000E+00   0.0000000000E+00   0.1101792014E+00
   0.2590940680E+00   0.1102724847E+00   0.8213167433E-04  -0.2240886236E-05   0.4106583717E-03  -0.1120443118E-04   0.1221432596E+00   0.7740446263E-02   0.0000000000E+00  -0.1469232783E-01   0.0000000000E+00   0.0000000000E+00   0.1198211257E-02  -0.2890253160E-03  -0.3820005235E-03  -0.3896511175E-03   0.0000000000E+00   0.0000000000E+00   0.1211400795E+00
   0.2423278673E+00   0.1106609163E+00   0.7872254551E-04  -0.2625452180E-05   0.3936127276E-03  -0.1312726090E-04   0.1233811130E+00   0.4141969324E-02   0.0000000000E+00  -0.1730315665E-01   0.0000000000E+00   0.0000000000E+00   0.1221385222E-02  -0.3287236459E-03  -0.4498820729E-03  -0.3825692471E-03   0.0000000000E+00   0.0000000000E+00   0.1249841986E+00
   0.2398603840E+00   0.9267064200E-01   0.8004134111E-04  -0.1779416926E-05   0.4002067056E-03  -0.8897084630E-05   0.1121781228E+00   0.6725808222E-02   0.0000000000E+00  -0.1861123354E-01   0.0000000000E+00   0.0000000000E+00   0.1101603804E-02  -0.2692762863E-03  -0.4838920720E-03  -0.3567117932E-03   0.0000000000E+00   0.0000000000E+00   0.1136028976E+00
   0.9281498762E-01   0.3820382386E-01   0.7117262020E-04  -0.1075312325E-04   0.3558631010E-03  -0.5376561624E-04  -0.1401470237E-01  -0.9411170872E-01   0.0000000000E+00   0.1456899060E-01   0.0000000000E+00   0.0000000000E+00   0.1421881025E-03  -0.8990729801E-03   0.3787937556E-03   0.3243792333E-03   0.0000000000E+00   0.0000000000E+00   0.8397637115E-01
   0.1084636658E+00   0.4605817973E-01   0.6946764023E-04  -0.6726961335E-05   0.3473382012E-03  -0.3363480667E-04   0.3024405478E-01  -0.4188700388E-01   0.0000000000E+00  -0.2016142909E-01   0.0000000000E+00   0.0000000000E+00   0.4281015595E-03  -0.5096022032E-03  -0.5241971563E-03   0.3492884730E-04   0.0000000000E+00   0.0000000000E+00   0.6635504172E-01
   0.9648041321E-01   0.6347285669E-01   0.6155280127E-04  -0.1155633551E-04   0.3077640064E-03  -0.5778167756E-04   0.6263174286E-01  -0.2463812572E-01   0.0000000000E+00  -0.3021770680E-01   0.0000000000E+00   0.0000000000E+00   0.7002318058E-03  -0.4342764858E-03  -0.7856603769E-03  -0.1139808514E-03   0.0000000000E+00   0.0000000000E+00   0.9391054515E-01
   0.8353331654E-01   0.5545962276E-01   0.6439283980E-04  -0.1623348976E-04   0.3219641990E-03  -0.8116744878E-04   0.1817229874E-01  -0.2072800246E-01   0.0000000000E+00  -0.9294634207E-02   0.0000000000E+00   0.0000000000E+00   0.2439069947E-03  -0.2617969208E-03  -0.2416604894E-03   0.7667111175E-05   0.0000000000E+00   0.0000000000E+00   0.3967632285E-01
   0.9852878048E-01   0.1947717147E-01   0.7504231292E-04  -0.5310154320E-05   0.3752115646E-03  -0.2655077160E-04  -0.1393096635E-01  -0.1502674693E+00   0.0000000000E+00   0.2033285251E-01   0.0000000000E+00   0.0000000000E+00   0.3114927446E-03  -0.1460881794E-02   0.5286541652E-03   0.4925953071E-03   0.0000000000E+00   0.0000000000E+00   0.1429218075E+00
   0.1004601361E+00   0.0000000000E+00   0.7668918340E-04   0.0000000000E+00   0.3834459170E-03   0.0000000000E+00  -0.1957643234E-01  -0.1614546632E+00   0.0000000000E+00  -0.1107553589E-01   0.0000000000E+00   0.0000000000E+00   0.2885996663E-03  -0.1555817335E-02  -0.2879639332E-03   0.5430932867E-03   0.0000000000E+00   0.0000000000E+00   0.1530394695E+00
   0.1212994855E+00   0.0000000000E+00   0.7769259034E-04   0.0000000000E+00   0.3884629517E-03   0.0000000000E+00  -0.1026514654E-03  -0.5550757639E-01   0.0000000000E+00  -0.1241213601E-01   0.0000000000E+00   0.0000000000E+00   0.1654962145E-03  -0.5547678095E-03  -0.3227155363E-03   0.1668306836E-03   0.0000000000E+00   0.0000000000E+00   0.5808652013E-01
   0.1221831526E+00   0.2609764662E-01   0.7538143686E-04  -0.2443679755E-05   0.3769071843E-03  -0.1221839878E-04   0.1413477994E-01  -0.5226764627E-01   0.0000000000E+00  -0.1317551681E-01   0.0000000000E+00   0.0000000000E+00   0.2981507382E-03  -0.5650808026E-03  -0.3425634372E-03   0.1143985990E-03   0.0000000000E+00   0.0000000000E+00   0.6768054679E-01
   0.2110299736E+00   0.3763090676E-01   0.8097243763E-04  -0.3876730188E-06   0.4048621882E-03  -0.1938365094E-05   0.7282726628E-01   0.1115460994E-01   0.0000000000E+00  -0.1694531468E-01   0.0000000000E+00   0.0000000000E+00   0.6948088329E-03  -0.1069356994E-03  -0.4405781816E-03  -0.2519456286E-03   0.0000000000E+00   0.0000000000E+00   0.7378759007E-01
   0.1909299213E+00   0.3837906673E-01   0.7866855081E-04  -0.5722780739E-06   0.3933427541E-03  -0.2861390370E-05   0.6571468475E-01   0.4276624972E-02   0.0000000000E+00  -0.2181304941E-01   0.0000000000E+00   0.0000000000E+00   0.6443169726E-03  -0.1543778045E-03  -0.5671392846E-03  -0.2099739292E-03   0.0000000000E+00   0.0000000000E+00   0.7371546143E-01
   0.1871875149E+00   0.1901151081E-01   0.7989382484E-04  -0.2349657289E-06   0.3994691242E-03  -0.1174828645E-05   0.5196790077E-01   0.6824025997E-02   0.0000000000E+00  -0.1064960112E-01   0.0000000000E+00   0.0000000000E+00   0.4992069297E-03  -0.8766344234E-04  -0.2768896291E-03  -0.1763757803E-03   0.0000000000E+00   0.0000000000E+00   0.5273315524E-01
   0.2077229813E+00   0.1873714595E-01   0.8178322220E-04  -0.1463252366E-06   0.4089161110E-03  -0.7316261832E-06   0.6328989630E-01   0.1297219553E-01   0.0000000000E+00  -0.8444388544E-02   0.0000000000E+00   0.0000000000E+00   0.5939823764E-03  -0.6014773356E-04  -0.2195541022E-03  -0.2287862755E-03   0.0000000000E+00   0.0000000000E+00   0.5991852879E-01
   0.1576857447E+00   0.2158442734E+00   0.4373295765E-04  -0.1886243751E-04   0.2186647883E-03  -0.9431218756E-04   0.1814516609E+00  -0.3987713055E-02   0.0000000000E+00   0.4790138797E-02   0.0000000000E+00   0.0000000000E+00   0.1826479748E-02  -0.5842321131E-03   0.1245436087E-03  -0.5323918434E-03   0.0000000000E+00   0.0000000000E+00   0.1836551895E+00
   0.1567004232E+00   0.2324818681E+00   0.4129203372E-04  -0.2060565788E-04   0.2064601686E-03  -0.1030282894E-03   0.1859582046E+00  -0.1681342485E-02   0.0000000000E+00   0.2994151662E-02   0.0000000000E+00   0.0000000000E+00   0.1864626073E-02  -0.5746880386E-03   0.7784794321E-04  -0.5528305863E-03   0.0000000000E+00   0.0000000000E+00   0.1868920993E+00
   0.1371911323E+00   0.2324881299E+00   0.3529354858E-04  -0.2366734658E-04   0.1764677429E-03  -0.1183367329E-03   0.1820883686E+00  -0.1739881948E-02   0.0000000000E+00   0.5359895842E-02   0.0000000000E+00   0.0000000000E+00   0.1826103331E-02  -0.5636639252E-03   0.1393572919E-03  -0.5410454598E-03   0.0000000000E+00   0.0000000000E+00   0.1832216563E+00
   0.1384426290E+00   0.2156816211E+00   0.3791982871E-04  -0.2185864502E-04   0.1895991436E-03  -0.1092932251E-03   0.1801063557E+00  -0.4436528481E-02   0.0000000000E+00   0.8866678084E-02   0.0000000000E+00   0.0000000000E+00   0.1814373143E-02  -0.5846843520E-03   0.2305336302E-03  -0.5270094818E-03   0.0000000000E+00   0.0000000000E+00   0.1829767857E+00
   0.0000000000E+00   0.9980079618E-01   0.0000000000E+00  -0.3320080307E-04   0.0000000000E+00  -0.1660040153E-03   0.4926458426E+00   0.3424120872E-01   0.0000000000E+00   0.6916823717E-02   0.0000000000E+00   0.0000000000E+00   0.4823734800E-02  -0.1135525441E-02   0.1798374166E-03  -0.1580661154E-02   0.0000000000E+00   0.0000000000E+00   0.4729399630E+00
   0.1960186682E-01   0.9788530050E-01   0.1547240370E-04  -0.3220434981E-04   0.7736201850E-04  -0.1610217490E-03   0.4561215909E+00   0.3430882009E-01   0.0000000000E+00  -0.6846852455E-01   0.0000000000E+00   0.0000000000E+00   0.4458289449E-02  -0.1025276572E-02  -0.1780181638E-02  -0.1471291233E-02   0.0000000000E+00   0.0000000000E+00   0.4518395390E+00
   0.1683417317E-01   0.1511135902E+00   0.5852394331E-05  -0.3718747266E-04   0.2926197165E-04  -0.1859373633E-03   0.2205103058E+00   0.3733585945E-01   0.0000000000E+00   0.6637375736E-02   0.0000000000E+00   0.0000000000E+00   0.2093095480E-02  -0.2881723230E-03   0.1725717691E-03  -0.7735384959E-03   0.0000000000E+00   0.0000000000E+00   0.2054210306E+00
   0.0000000000E+00   0.1497731696E+00   0.0000000000E+00  -0.3780606723E-04   0.0000000000E+00  -0.1890303362E-03   0.2226761125E+00   0.4248900129E-01   0.0000000000E+00   0.5573627498E-02   0.0000000000E+00   0.0000000000E+00   0.2099294121E-02  -0.2431383246E-03   0.1449143149E-03  -0.7954953414E-03   0.0000000000E+00   0.0000000000E+00   0.2049918122E+00
   0.5117155816E-01   0.1384823220E+00   0.1954134279E-04  -0.3121966648E-04   0.9770671397E-04  -0.1560983324E-03   0.2279094347E+00   0.1449621893E-01   0.0000000000E+00   0.1147337496E-01   0.0000000000E+00   0.0000000000E+00   0.2235605690E-02  -0.5387661148E-03   0.2983077488E-03  -0.7272169609E-03   0.0000000000E+00   0.0000000000E+00   0.2217631368E+00
   0.4914792624E-01   0.1538626436E+00   0.1683707346E-04  -0.3288874068E-04   0.8418536728E-04  -0.1644437034E-03   0.2111536075E+00   0.1595759479E-01   0.0000000000E+00   0.1838247461E-01   0.0000000000E+00   0.0000000000E+00   0.2063663290E-02  -0.4738848745E-03   0.4779443399E-03  -0.6813336068E-03   0.0000000000E+00   0.0000000000E+00   0.2061616931E+00
   0.3324424790E-01   0.1525239240E+00   0.1146386679E-04  -0.3542183320E-04   0.5731933393E-04  -0.1771091660E-03   0.2169924104E+00   0.2827062573E-01   0.0000000000E+00   0.1400090087E-01   0.0000000000E+00   0.0000000000E+00   0.2085112227E-02  -0.3682709738E-03   0.3640234225E-03  -0.7357891083E-03   0.0000000000E+00   0.0000000000E+00   0.2066081321E+00
   0.3445309194E-01   0.1355349702E+00   0.1360255597E-04  -0.3413630513E-04   0.6801277987E-04  -0.1706815256E-03   0.2399980903E+00   0.2937019844E-01   0.0000000000E+00   0.1421421063E-01   0.0000000000E+00   0.0000000000E+00   0.2311870308E-02  -0.4262922865E-03   0.3695694763E-03  -0.8081048662E-03   0.0000000000E+00   0.0000000000E+00   0.2249748095E+00
   0.1671622478E-01   0.1675753190E+00   0.5259745871E-05  -0.3796982941E-04   0.2629872936E-04  -0.1898491471E-03   0.1991939699E+00   0.3088463029E-01   0.0000000000E+00   0.8170126071E-02   0.0000000000E+00   0.0000000000E+00   0.1899285809E-02  -0.2887356069E-03   0.2124232779E-03  -0.6902358007E-03   0.0000000000E+00   0.0000000000E+00   0.1863326210E+00
   0.0000000000E+00   0.1664357227E+00   0.0000000000E+00  -0.3849155194E-04   0.0000000000E+00  -0.1924577597E-03   0.1993909844E+00   0.3368429226E-01   0.0000000000E+00   0.4705577027E-02   0.0000000000E+00   0.0000000000E+00   0.1892856967E-02  -0.2613300305E-03   0.1223450027E-03  -0.6992258299E-03   0.0000000000E+00   0.0000000000E+00   0.1848903077E+00
   0.1712133715E-01   0.1838927822E+00   0.4979124603E-05  -0.3879096543E-04   0.2489562301E-04  -0.1939548272E-03   0.1820986880E+00   0.2177666109E-01   0.0000000000E+00   0.8008834419E-02   0.0000000000E+00   0.0000000000E+00   0.1755656897E-02  -0.3285294531E-03   0.2082296949E-03  -0.6116260473E-03   0.0000000000E+00   0.0000000000E+00   0.1730275414E+00
   0.3345367731E-01   0.1683887089E+00   0.1052775111E-04  -0.3636385582E-04   0.5263875557E-04  -0.1818192791E-03   0.1978367474E+00   0.2259702529E-01   0.0000000000E+00   0.1757674961E-01   0.0000000000E+00   0.0000000000E+00   0.1910576398E-02  -0.3675399892E-03   0.4569954899E-03  -0.6613013180E-03   0.0000000000E+00   0.0000000000E+00   0.1896515605E+00
   0.3457390210E-01   0.1840559649E+00   0.1009999946E-04  -0.3721135049E-04   0.5049999731E-04  -0.1860567525E-03   0.1827086024E+00   0.1658632698E-01   0.0000000000E+00   0.1695990417E-01   0.0000000000E+00   0.0000000000E+00   0.1777327043E-02  -0.3822625374E-03   0.4409575085E-03  -0.5978847881E-03   0.0000000000E+00   0.0000000000E+00   0.1774420436E+00
   0.1946543885E-01   0.2497439561E+00   0.3498958293E-05  -0.4267398575E-04   0.1749479146E-04  -0.2133699287E-03   0.1095589028E+00  -0.1937098149E-02   0.0000000000E+00   0.5550096633E-03   0.0000000000E+00   0.0000000000E+00   0.1101400322E-02  -0.3480476898E-03   0.1443025124E-04  -0.3228654139E-03   0.0000000000E+00   0.0000000000E+00   0.1107119635E+00
   0.3852946614E-01   0.2327039623E+00   0.8608407358E-05  -0.4005294358E-04   0.4304203679E-04  -0.2002647179E-03   0.1402156414E+00   0.2471635799E-02   0.0000000000E+00   0.7942856673E-02   0.0000000000E+00   0.0000000000E+00   0.1394741507E-02  -0.3959305662E-03   0.2065142735E-03  -0.4280618316E-03   0.0000000000E+00   0.0000000000E+00   0.1397605702E+00
   0.3893213876E-01   0.2497534518E+00   0.7208076002E-05  -0.4109136650E-04   0.3604038001E-04  -0.2054568325E-03   0.1190607490E+00  -0.1668635721E-02   0.0000000000E+00   0.3131116012E-02   0.0000000000E+00   0.0000000000E+00   0.1195613397E-02  -0.3738686042E-03   0.8140901631E-04  -0.3521763399E-03   0.0000000000E+00   0.0000000000E+00   0.1200129754E+00
   0.3297493712E+00   0.0000000000E+00   0.9711503874E-04   0.0000000000E+00   0.4855751937E-03   0.0000000000E+00   0.9061741114E-01   0.2620226582E-01   0.0000000000E+00  -0.2751383088E-03   0.0000000000E+00   0.0000000000E+00   0.8275673139E-03  -0.9829575245E-05  -0.7153596030E-05  -0.3504590309E-03   0.0000000000E+00   0.0000000000E+00   0.8076798586E-01
   0.3505999940E+00   0.0000000000E+00   0.1000000000E-03   0.0000000000E+00   0.5000000000E-03   0.0000000000E+00   0.9114918488E-01   0.2636555546E-01   0.0000000000E+00  -0.1655169322E-05   0.0000000000E+00   0.0000000000E+00   0.8323951825E-03  -0.9792000100E-05  -0.4303440238E-07  -0.3525442210E-03   0.0000000000E+00   0.0000000000E+00   0.8124093016E-01
   0.3505999940E+00   0.1923053426E-01   0.1000000000E-03  -0.3927361594E-07   0.5000000000E-03  -0.1963680797E-06   0.9214361266E-01   0.2592197396E-01   0.0000000000E+00  -0.3356993535E-06   0.0000000000E+00   0.0000000000E+00   0.8436702048E-03  -0.1721109839E-04  -0.8728183190E-08  -0.3541967599E-03   0.0000000000E+00   0.0000000000E+00   0.8229983156E-01
   0.3303457447E+00   0.1871431580E-01   0.9715960959E-04  -0.3825040932E-07   0.4857980479E-03  -0.1912520466E-06   0.9166519519E-01   0.2578271220E-01   0.0000000000E+00  -0.8433810591E-03   0.0000000000E+00   0.0000000000E+00   0.8393038153E-03  -0.1716846359E-04  -0.2192790754E-04  -0.3523437222E-03   0.0000000000E+00   0.0000000000E+00   0.8188788022E-01
   0.3505999940E+00   0.3846078431E-01   0.1000000000E-03  -0.1259314826E-06   0.5000000000E-03  -0.6296574130E-06   0.9516191429E-01   0.2462818939E-01   0.0000000000E+00   0.9453679349E-05   0.0000000000E+00   0.0000000000E+00   0.8777345748E-03  -0.3920384895E-04   0.2457956631E-06  -0.3593703111E-03   0.0000000000E+00   0.0000000000E+00   0.8553790482E-01
   0.3307884870E+00   0.3768229438E-01   0.9710983635E-04  -0.1230206226E-06   0.4855491818E-03  -0.6151031130E-06   0.9476792335E-01   0.2454174070E-01   0.0000000000E+00  -0.1754928928E-02   0.0000000000E+00   0.0000000000E+00   0.8740540114E-03  -0.3888636301E-04  -0.4562815212E-04  -0.3579289921E-03   0.0000000000E+00   0.0000000000E+00   0.8523147062E-01
   0.3311404115E+00   0.5676093278E-01   0.9698375451E-04  -0.2987199771E-06   0.4849187726E-03  -0.1493599886E-05   0.9975581952E-01   0.2255453362E-01   0.0000000000E+00  -0.2372845111E-02   0.0000000000E+00   0.0000000000E+00   0.9298945943E-03  -0.7372212233E-04  -0.6169397288E-04  -0.3669310594E-03   0.0000000000E+00   0.0000000000E+00   0.9068251296E-01
   0.3314184383E+00   0.7595302336E-01   0.9679521264E-04  -0.6044565700E-06   0.4839760632E-03  -0.3022282850E-05   0.1063465861E+00   0.1999255436E-01   0.0000000000E+00  -0.2821914569E-02   0.0000000000E+00   0.0000000000E+00   0.1003488198E-02  -0.1191142149E-03  -0.7336977878E-04  -0.3790174215E-03   0.0000000000E+00   0.0000000000E+00   0.9799099199E-01
   0.3123733811E+00   0.7514177258E-01   0.9364067592E-04  -0.6233693490E-06   0.4682033796E-03  -0.3116846745E-05   0.1054079408E+00   0.1929868173E-01   0.0000000000E+00  -0.5593211280E-02   0.0000000000E+00   0.0000000000E+00   0.9961833626E-03  -0.1232370051E-03  -0.1454234933E-03  -0.3741198675E-03   0.0000000000E+00   0.0000000000E+00   0.9766515124E-01
   0.3117089269E+00   0.5605134343E-01   0.9400147928E-04  -0.3092443953E-06   0.4700073964E-03  -0.1546221977E-05   0.9857220751E-01   0.2191531867E-01   0.0000000000E+00  -0.4734834178E-02   0.0000000000E+00   0.0000000000E+00   0.9199761190E-03  -0.7656343577E-04  -0.1231056886E-03  -0.3614625785E-03   0.0000000000E+00   0.0000000000E+00   0.9000242388E-01
   0.3315616293E+00   0.9524957450E-01   0.9654537556E-04  -0.1071050767E-05   0.4827268778E-03  -0.5355253834E-05   0.1141841366E+00   0.1703409745E-01   0.0000000000E+00  -0.3060330269E-02   0.0000000000E+00   0.0000000000E+00   0.1090739074E-02  -0.1722114354E-03  -0.7956858699E-04  -0.3936547023E-03   0.0000000000E+00   0.0000000000E+00   0.1067986460E+00
   0.3127475911E+00   0.9439400477E-01   0.9315601985E-04  -0.1102871346E-05   0.4657800992E-03  -0.5514356732E-05   0.1135014146E+00   0.1631997275E-01   0.0000000000E+00  -0.6018395356E-02   0.0000000000E+00   0.0000000000E+00   0.1086054228E-02  -0.1773045163E-03  -0.1564782793E-03  -0.3894641621E-03   0.0000000000E+00   0.0000000000E+00   0.1067746945E+00
   0.3315462226E+00   0.1146992333E+00   0.9623759778E-04  -0.1721778702E-05   0.4811879889E-03  -0.8608893510E-05   0.1229271319E+00   0.1390651710E-01   0.0000000000E+00  -0.3129147644E-02   0.0000000000E+00   0.0000000000E+00   0.1187551768E-02  -0.2297162247E-03  -0.8135783875E-04  -0.4105009470E-03   0.0000000000E+00   0.0000000000E+00   0.1167010561E+00
   0.3314029937E+00   0.1342596328E+00   0.9588511024E-04  -0.2566868807E-05   0.4794255512E-03  -0.1283434404E-04   0.1321797741E+00   0.1081882271E-01   0.0000000000E+00  -0.3009389545E-02   0.0000000000E+00   0.0000000000E+00   0.1289341272E-02  -0.2883510951E-03  -0.7824412816E-04  -0.4289957903E-03   0.0000000000E+00   0.0000000000E+00   0.1272040933E+00
   0.3123486901E+00   0.1337777313E+00   0.9180551823E-04  -0.2658444113E-05   0.4590275911E-03  -0.1329222056E-04   0.1321775064E+00   0.1006046850E-01   0.0000000000E+00  -0.5854615365E-02   0.0000000000E+00   0.0000000000E+00   0.1291593658E-02  -0.2959278342E-03  -0.1522199995E-03  -0.4267139247E-03   0.0000000000E+00   0.0000000000E+00   0.1278377180E+00
   0.3127412563E+00   0.1139248751E+00   0.9254222017E-04  -0.1774655076E-05   0.4627111009E-03  -0.8873275382E-05   0.1225459848E+00   0.1313373950E-01   0.0000000000E+00  -0.6093075164E-02   0.0000000000E+00   0.0000000000E+00   0.1186058629E-02  -0.2363005594E-03  -0.1584199543E-03  -0.4070391729E-03   0.0000000000E+00   0.0000000000E+00   0.1169971693E+00
   0.2895449354E+00   0.1826389508E-01   0.9156189856E-04  -0.4625408251E-07   0.4578094928E-03  -0.2312704126E-06   0.8756572463E-01   0.2419688872E-01   0.0000000000E+00  -0.2612763366E-02   0.0000000000E+00   0.0000000000E+00   0.8030665801E-03  -0.2072828667E-04  -0.6793184753E-04  -0.3352878400E-03   0.0000000000E+00   0.0000000000E+00   0.7846219865E-01
   0.2880488773E+00   0.0000000000E+00   0.9148055335E-04   0.0000000000E+00   0.4574027668E-03   0.0000000000E+00   0.8617441501E-01   0.2459929838E-01   0.0000000000E+00  -0.8642744765E-03   0.0000000000E+00   0.0000000000E+00   0.7879462549E-03  -0.1253026126E-04  -0.2247113639E-04  -0.3323211402E-03   0.0000000000E+00   0.0000000000E+00   0.7687275612E-01
   0.3088989181E+00   0.0000000000E+00   0.9426351416E-04   0.0000000000E+00   0.4713175708E-03   0.0000000000E+00   0.8898811955E-01   0.2562266478E-01   0.0000000000E+00  -0.5560095796E-03   0.0000000000E+00   0.0000000000E+00   0.8130132011E-03  -0.1073771088E-04  -0.1445624907E-04  -0.3438323530E-03   0.0000000000E+00   0.0000000000E+00   0.7933795268E-01
   0.3099536131E+00   0.1840600982E-01   0.9433151943E-04  -0.4058067522E-07   0.4716575971E-03  -0.2029033761E-06   0.9013217356E-01   0.2520992052E-01   0.0000000000E+00  -0.1691542267E-02   0.0000000000E+00   0.0000000000E+00   0.8256919741E-03  -0.1829731551E-04  -0.4398009895E-04  -0.3460262822E-03   0.0000000000E+00   0.0000000000E+00   0.8059755746E-01
   0.2126024365E+00   0.1636434421E+00   0.6587058204E-04  -0.7861648467E-05   0.3293529102E-03  -0.3930824234E-04   0.1573029752E+00  -0.5461924531E-02   0.0000000000E+00  -0.1056826766E-01   0.0000000000E+00   0.0000000000E+00   0.1589415525E-02  -0.5265281708E-03  -0.2747749592E-03  -0.4555231519E-03   0.0000000000E+00   0.0000000000E+00   0.1611318957E+00
   0.2167219519E+00   0.1467322205E+00   0.6891048186E-04  -0.6172413349E-05   0.3445524093E-03  -0.3086206674E-04   0.1471529956E+00  -0.5531538857E-02   0.0000000000E+00  -0.1446399064E-01   0.0000000000E+00   0.0000000000E+00   0.1488124572E-02  -0.4967743753E-03  -0.3760637567E-03  -0.4248643701E-03   0.0000000000E+00   0.0000000000E+00   0.1520302513E+00
   0.2313900838E+00   0.1467033535E+00   0.7251813074E-04  -0.5390745667E-05   0.3625906537E-03  -0.2695372834E-04   0.1455957854E+00  -0.1976983870E-02   0.0000000000E+00  -0.1356771473E-01   0.0000000000E+00   0.0000000000E+00   0.1461888806E-02  -0.4565571950E-03  -0.3527605831E-03  -0.4308564047E-03   0.0000000000E+00   0.0000000000E+00   0.1484561581E+00
   0.2325759166E+00   0.1630655449E+00   0.7113459479E-04  -0.6605018358E-05   0.3556729740E-03  -0.3302509179E-04   0.1538786055E+00  -0.1821827516E-02   0.0000000000E+00  -0.1080211724E-01   0.0000000000E+00   0.0000000000E+00   0.1544251538E-02  -0.4798540917E-03  -0.2808550482E-03  -0.4561703340E-03   0.0000000000E+00   0.0000000000E+00   0.1559197305E+00
   0.2282691919E+00   0.1845649610E-01   0.8395598345E-04  -0.9936692280E-07   0.4197799172E-03  -0.4968346140E-06   0.7198512937E-01   0.1739405574E-01   0.0000000000E+00  -0.6473845713E-02   0.0000000000E+00   0.0000000000E+00   0.6676691265E-03  -0.4201483076E-04  -0.1683199885E-03  -0.2681375553E-03   0.0000000000E+00   0.0000000000E+00   0.6611889783E-01
   0.2311188277E+00   0.3704650967E-01   0.8342411208E-04  -0.2758542324E-06   0.4171205604E-03  -0.1379271162E-05   0.7918042706E-01   0.1563098293E-01   0.0000000000E+00  -0.1306818058E-01   0.0000000000E+00   0.0000000000E+00   0.7449113219E-03  -0.8123145191E-04  -0.3397726950E-03  -0.2844342300E-03   0.0000000000E+00   0.0000000000E+00   0.7593842776E-01
   0.1838143744E+00   0.0000000000E+00   0.8017289214E-04   0.0000000000E+00   0.4008644607E-03   0.0000000000E+00   0.4644104048E-01   0.6711769151E-02   0.0000000000E+00  -0.3917088531E-02   0.0000000000E+00   0.0000000000E+00   0.4442750973E-03  -0.7220542993E-04  -0.1018443018E-03  -0.1594584289E-03   0.0000000000E+00   0.0000000000E+00   0.4355332480E-01
   0.2046580690E+00   0.0000000000E+00   0.8190049282E-04   0.0000000000E+00   0.4095024641E-03   0.0000000000E+00   0.5894453981E-01   0.1355640795E-01   0.0000000000E+00  -0.2941424856E-02   0.0000000000E+00   0.0000000000E+00   0.5487761742E-03  -0.4126953990E-04  -0.7647704625E-04  -0.2175028433E-03   0.0000000000E+00   0.0000000000E+00   0.5327240378E-01
   0.1421350424E+00   0.0000000000E+00   0.7806273548E-04   0.0000000000E+00   0.3903136774E-03   0.0000000000E+00   0.9456586634E-02  -0.2399117624E-01   0.0000000000E+00  -0.9409187967E-02   0.0000000000E+00   0.0000000000E+00   0.1665393951E-03  -0.2682815223E-03  -0.2446388871E-03   0.4360376882E-04   0.0000000000E+00   0.0000000000E+00   0.3323237359E-01
   0.1461317154E+00   0.2097659730E-01   0.7700522855E-04  -0.8273498823E-06   0.3850261427E-03  -0.4136749411E-05   0.2130869044E-01  -0.1971356487E-01   0.0000000000E+00  -0.1481145138E-01   0.0000000000E+00   0.0000000000E+00   0.2722275990E-03  -0.2610617200E-03  -0.3850977358E-03  -0.4785376726E-05   0.0000000000E+00   0.0000000000E+00   0.4468061132E-01
   0.3505999940E+00   0.2499347879E+00   0.1000000000E-03  -0.1086868525E-04   0.5000000000E-03  -0.5434342627E-04   0.1798261878E+00   0.5731180461E-03   0.0000000000E+00   0.5180180833E-03   0.0000000000E+00   0.0000000000E+00   0.1796542524E-02  -0.5337473830E-03   0.1346847017E-04  -0.5411979176E-03   0.0000000000E+00   0.0000000000E+00   0.1795424593E+00
   0.3311205953E+00   0.2499343283E+00   0.9417288591E-04  -0.1094527924E-04   0.4708644295E-03  -0.5472639622E-04   0.1803297019E+00   0.5781426840E-03   0.0000000000E+00  -0.3771046860E-03   0.0000000000E+00   0.0000000000E+00   0.1801562591E-02  -0.5352076789E-03  -0.9804721836E-05  -0.5427235338E-03   0.0000000000E+00   0.0000000000E+00   0.1800433854E+00
   0.3313550977E+00   0.2309911498E+00   0.9442411028E-04  -0.9269372719E-05   0.4721205514E-03  -0.4634686359E-04   0.1744850000E+00   0.3782851302E-03   0.0000000000E+00  -0.9000245229E-03   0.0000000000E+00   0.0000000000E+00   0.1743715145E-02  -0.5196721488E-03  -0.2340063760E-04  -0.5245898555E-03   0.0000000000E+00   0.0000000000E+00   0.1743043546E+00
   0.3505999940E+00   0.2307141821E+00   0.1000000000E-03  -0.9174980948E-05   0.5000000000E-03  -0.4587490474E-04   0.1741289104E+00   0.4301676078E-03   0.0000000000E+00   0.4801758833E-03   0.0000000000E+00   0.0000000000E+00   0.1739998601E-02  -0.5180850552E-03   0.1248457297E-04  -0.5236772341E-03   0.0000000000E+00   0.0000000000E+00   0.1739168495E+00
   0.2734840544E+00   0.2316024730E+00   0.7741206039E-04  -0.1050816389E-04   0.3870603020E-03  -0.5254081946E-04   0.1794890677E+00   0.5721744330E-05   0.0000000000E+00  -0.2426912193E-02   0.0000000000E+00   0.0000000000E+00   0.1794873512E-02  -0.5384099857E-03  -0.6309971702E-04  -0.5384843684E-03   0.0000000000E+00   0.0000000000E+00   0.1795429562E+00
   0.2927613840E+00   0.2314302035E+00   0.8313833859E-04  -0.9914081685E-05   0.4156916930E-03  -0.4957040843E-04   0.1773218675E+00   0.1756133873E-03   0.0000000000E+00  -0.2054801409E-02   0.0000000000E+00   0.0000000000E+00   0.1772691835E-02  -0.5302094686E-03  -0.5342483662E-04  -0.5324924426E-03   0.0000000000E+00   0.0000000000E+00   0.1772752910E+00
   0.2921610182E+00   0.2499304185E+00   0.8239353590E-04  -0.1159691782E-04   0.4119676795E-03  -0.5798458910E-04   0.1841118481E+00   0.6534599294E-03   0.0000000000E+00  -0.6187775134E-03   0.0000000000E+00   0.0000000000E+00   0.1839158101E-02  -0.5458009450E-03  -0.1608821535E-04  -0.5542959241E-03   0.0000000000E+00   0.0000000000E+00   0.1837870100E+00
   0.2726805446E+00   0.2499267128E+00   0.7638726341E-04  -0.1221453869E-04   0.3819363170E-03  -0.6107269344E-04   0.1871016526E+00   0.7214278252E-03   0.0000000000E+00  -0.7168411942E-03   0.0000000000E+00   0.0000000000E+00   0.1868852243E-02  -0.5540906796E-03  -0.1863787105E-04  -0.5634692413E-03   0.0000000000E+00   0.0000000000E+00   0.1867435673E+00
   0.3505999940E+00   0.1730485136E+00   0.1000000000E-03  -0.4735727678E-05   0.5000000000E-03  -0.2367863839E-04   0.1505175905E+00   0.5653329920E-02   0.0000000000E+00   0.3761607822E-03   0.0000000000E+00   0.0000000000E+00   0.1488215915E-02  -0.3950194723E-03   0.9780180337E-05  -0.4685127613E-03   0.0000000000E+00   0.0000000000E+00   0.1477674830E+00
   0.3313494916E+00   0.1732854758E+00   0.9522826733E-04  -0.4807041504E-05   0.4761413366E-03  -0.2403520752E-04   0.1506955144E+00   0.5425709146E-02   0.0000000000E+00  -0.2449474277E-02   0.0000000000E+00   0.0000000000E+00   0.1490678017E-02  -0.3978294518E-03  -0.6368633121E-04  -0.4683636707E-03   0.0000000000E+00   0.0000000000E+00   0.1481089012E+00
   0.3313429554E+00   0.1538257468E+00   0.9554456449E-04  -0.3600865664E-05   0.4777228224E-03  -0.1800432832E-04   0.1415345860E+00   0.7971919631E-02   0.0000000000E+00  -0.2792180880E-02   0.0000000000E+00   0.0000000000E+00   0.1391430101E-02  -0.3448845616E-03  -0.7259670289E-04  -0.4485195168E-03   0.0000000000E+00   0.0000000000E+00   0.1377929468E+00
   0.3505999940E+00   0.1538248429E+00   0.1000000000E-03  -0.3552845045E-05   0.5000000000E-03  -0.1776422523E-04   0.1414038545E+00   0.8182129964E-02   0.0000000000E+00   0.3329658094E-03   0.0000000000E+00   0.0000000000E+00   0.1389492155E-02  -0.3423902637E-03   0.8657111045E-05  -0.4487579532E-03   0.0000000000E+00   0.0000000000E+00   0.1374866052E+00
   0.3505999940E+00   0.1346001220E+00   0.1000000000E-03  -0.2544832685E-05   0.5000000000E-03  -0.1272416343E-04   0.1321040608E+00   0.1100380186E-01   0.0000000000E+00   0.2581335620E-03   0.0000000000E+00   0.0000000000E+00   0.1288029203E-02  -0.2862741639E-03   0.6711472612E-05  -0.4293235880E-03   0.0000000000E+00   0.0000000000E+00   0.1269472890E+00
   0.3505999940E+00   0.1153742996E+00   0.1000000000E-03  -0.1719395775E-05   0.5000000000E-03  -0.8596978874E-05   0.1229415899E+00   0.1401244266E-01   0.0000000000E+00   0.1986599830E-03   0.0000000000E+00   0.0000000000E+00   0.1187378571E-02  -0.2287003430E-03   0.5165159557E-05  -0.4108620977E-03   0.0000000000E+00   0.0000000000E+00   0.1165500413E+00
   0.3505999940E+00   0.9614738033E-01   0.1000000000E-03  -0.1077928826E-05   0.5000000000E-03  -0.5389644128E-05   0.1142831639E+00   0.1708347423E-01   0.0000000000E+00   0.1306770889E-03   0.0000000000E+00   0.0000000000E+00   0.1091581216E-02  -0.1720147494E-03   0.3397604312E-05  -0.3940999144E-03   0.0000000000E+00   0.0000000000E+00   0.1067493420E+00
   0.3505999940E+00   0.7691940593E-01   0.1000000000E-03  -0.6123112952E-06   0.5000000000E-03  -0.3061556476E-05   0.1065284276E+00   0.2001478069E-01   0.0000000000E+00   0.7661998735E-04   0.0000000000E+00   0.0000000000E+00   0.1005239934E-02  -0.1194374760E-03   0.1992119671E-05  -0.3796296250E-03   0.0000000000E+00   0.0000000000E+00   0.9804250332E-01
   0.3505999940E+00   0.5769048130E-01   0.1000000000E-03  -0.3044504355E-06   0.5000000000E-03  -0.1522252178E-05   0.1000434465E+00   0.2259940320E-01   0.0000000000E+00   0.3505961027E-04   0.0000000000E+00   0.0000000000E+00   0.9326362552E-03  -0.7413630744E-04   0.9115498671E-06  -0.3679285490E-03   0.0000000000E+00   0.0000000000E+00   0.9085746079E-01
   0.0000000000E+00   0.2497406847E+00   0.0000000000E+00  -0.4321922400E-04   0.0000000000E+00  -0.2160961200E-03   0.1061714221E+00  -0.2024336582E-02   0.0000000000E+00   0.3794551264E-02   0.0000000000E+00   0.0000000000E+00   0.1067787231E-02  -0.3387576321E-03   0.9865833285E-04  -0.3124412565E-03   0.0000000000E+00   0.0000000000E+00   0.1073923372E+00
   0.3764365150E-01   0.2159846187E+00   0.9435383102E-05  -0.3901022444E-04   0.4717691551E-04  -0.1950511222E-03   0.1557423770E+00   0.5384236422E-02   0.0000000000E+00   0.1371645991E-01   0.0000000000E+00   0.0000000000E+00   0.1541271061E-02  -0.4133847668E-03   0.3566279578E-03  -0.4833798403E-03   0.0000000000E+00   0.0000000000E+00   0.1548897756E+00
   0.3625248138E-01   0.1998763160E+00   0.9862313201E-05  -0.3806382529E-04   0.4931156601E-04  -0.1903191265E-03   0.1692531173E+00   0.1053657805E-01   0.0000000000E+00   0.1595793449E-01   0.0000000000E+00   0.0000000000E+00   0.1660921439E-02  -0.4023935714E-03   0.4149062968E-03  -0.5393690861E-03   0.0000000000E+00   0.0000000000E+00   0.1664782427E+00
   0.5567535892E-01   0.1983972910E+00   0.1540615401E-04  -0.3528882907E-04   0.7703077007E-04  -0.1764441454E-03   0.1740488896E+00   0.5925012884E-02   0.0000000000E+00   0.2116181925E-01   0.0000000000E+00   0.0000000000E+00   0.1722713857E-02  -0.4628965399E-03   0.5502073004E-03  -0.5399217074E-03   0.0000000000E+00   0.0000000000E+00   0.1750944809E+00
   0.5759526449E-01   0.2147078820E+00   0.1475406468E-04  -0.3624449171E-04   0.7377032341E-04  -0.1812224585E-03   0.1626029302E+00   0.2617383320E-02   0.0000000000E+00   0.1770123817E-01   0.0000000000E+00   0.0000000000E+00   0.1618177152E-02  -0.4616349573E-03   0.4602321925E-03  -0.4956609404E-03   0.0000000000E+00   0.0000000000E+00   0.1641663602E+00
   0.1783655094E-01   0.2001772186E+00   0.4813806206E-05  -0.3969240577E-04   0.2406903103E-04  -0.1984620288E-03   0.1672682138E+00   0.1408321997E-01   0.0000000000E+00   0.7417442819E-02   0.0000000000E+00   0.0000000000E+00   0.1630432478E-02  -0.3609724418E-03   0.1928535133E-03  -0.5440543014E-03   0.0000000000E+00   0.0000000000E+00   0.1613898010E+00
   0.5827849135E-01   0.2320934759E+00   0.1339390857E-04  -0.3743534535E-04   0.6696954286E-04  -0.1871767268E-03   0.1489911965E+00   0.1510031922E-02   0.0000000000E+00   0.1015279784E-01   0.0000000000E+00   0.0000000000E+00   0.1485381870E-02  -0.4318732704E-03   0.2639727439E-03  -0.4515036854E-03   0.0000000000E+00   0.0000000000E+00   0.1494191590E+00
   0.1557871083E+00   0.2498655544E+00   0.3859122364E-04  -0.2240760423E-04   0.1929561182E-03  -0.1120380212E-03   0.1942922807E+00   0.6005171855E-03   0.0000000000E+00   0.1240693677E-02   0.0000000000E+00   0.0000000000E+00   0.1941121256E-02  -0.5768716703E-03   0.3225803560E-04  -0.5846783937E-03   0.0000000000E+00   0.0000000000E+00   0.1940037114E+00
   0.1363054907E+00   0.2498473871E+00   0.3239678858E-04  -0.2543549050E-04   0.1619839429E-03  -0.1271774525E-03   0.1876315216E+00   0.2841812520E-03   0.0000000000E+00   0.2054786351E-02   0.0000000000E+00   0.0000000000E+00   0.1875462672E-02  -0.5600527523E-03   0.5342444512E-04  -0.5637471086E-03   0.0000000000E+00   0.0000000000E+00   0.1874894981E+00
   0.1752696509E+00   0.2498814568E+00   0.4494232407E-04  -0.1975719873E-04   0.2247116204E-03  -0.9878599365E-04   0.1975454355E+00   0.7801767990E-03   0.0000000000E+00   0.5302623382E-03   0.0000000000E+00   0.0000000000E+00   0.1973113825E-02  -0.5848345385E-03   0.1378682079E-04  -0.5949768369E-03   0.0000000000E+00   0.0000000000E+00   0.1971718621E+00
   0.1762084826E+00   0.2323884655E+00   0.4739093448E-04  -0.1794125539E-04   0.2369546724E-03  -0.8970627696E-04   0.1877579812E+00  -0.1486306367E-02   0.0000000000E+00   0.9469394163E-03   0.0000000000E+00   0.0000000000E+00   0.1882038731E-02  -0.5781370071E-03   0.2462042482E-04  -0.5588150244E-03   0.0000000000E+00   0.0000000000E+00   0.1885255624E+00
   0.2255037425E+00   0.0000000000E+00   0.8395808191E-04   0.0000000000E+00   0.4197904096E-03   0.0000000000E+00   0.6874488150E-01   0.1779050427E-01   0.0000000000E+00  -0.2217915281E-02   0.0000000000E+00   0.0000000000E+00   0.6340773022E-03  -0.2832960180E-04  -0.5766579730E-04  -0.2596061573E-03   0.0000000000E+00   0.0000000000E+00   0.6174389427E-01
   0.2463510188E+00   0.0000000000E+00   0.8628030067E-04   0.0000000000E+00   0.4314015034E-03   0.0000000000E+00   0.7633435786E-01   0.2087780489E-01   0.0000000000E+00  -0.1662964297E-02   0.0000000000E+00   0.0000000000E+00   0.7007101639E-03  -0.2022502465E-04  -0.4323707173E-04  -0.2916364883E-03   0.0000000000E+00   0.0000000000E+00   0.6828190977E-01
   0.2487643924E+00   0.1834199183E-01   0.8634173279E-04  -0.7267901072E-07   0.4317086640E-03  -0.3633950536E-06   0.7871724941E-01   0.2045394119E-01   0.0000000000E+00  -0.4926620446E-02   0.0000000000E+00   0.0000000000E+00   0.7258106706E-03  -0.3161233635E-04  -0.1280921316E-03  -0.2975135718E-03   0.0000000000E+00   0.0000000000E+00   0.7130568250E-01
   0.1968931144E+00   0.1994396918E+00   0.5742472998E-04  -0.1248186585E-04   0.2871236499E-03  -0.6240932923E-04   0.1742661160E+00  -0.4576013401E-02   0.0000000000E+00  -0.3198290382E-02   0.0000000000E+00   0.0000000000E+00   0.1756389201E-02  -0.5685584821E-03  -0.8315554994E-04  -0.5090703079E-03   0.0000000000E+00   0.0000000000E+00   0.1766873728E+00
   0.2159374657E+00   0.1983279443E+00   0.6305677502E-04  -0.1071878350E-04   0.3152838751E-03  -0.5359391751E-04   0.1715222704E+00  -0.2726004601E-02   0.0000000000E+00  -0.5309330421E-02   0.0000000000E+00   0.0000000000E+00   0.1723400718E-02  -0.5418268572E-03  -0.1380425909E-03  -0.5063887974E-03   0.0000000000E+00   0.0000000000E+00   0.1731456050E+00
   0.2159105186E+00   0.2150645816E+00   0.6141176059E-04  -0.1224439457E-04   0.3070588029E-03  -0.6122197285E-04   0.1786144087E+00  -0.1463400953E-02   0.0000000000E+00  -0.3554575037E-02   0.0000000000E+00   0.0000000000E+00   0.1790534290E-02  -0.5504772356E-03  -0.9241895096E-04  -0.5314530232E-03   0.0000000000E+00   0.0000000000E+00   0.1794634477E+00
   0.1965560733E+00   0.2155371115E+00   0.5556089056E-04  -0.1403508641E-04   0.2778044528E-03  -0.7017543204E-04   0.1804889017E+00  -0.2403271075E-02   0.0000000000E+00  -0.1611150744E-02   0.0000000000E+00   0.0000000000E+00   0.1812098831E-02  -0.5654994160E-03  -0.4188991933E-04  -0.5342568920E-03   0.0000000000E+00   0.0000000000E+00   0.1817316038E+00
   0.1176948322E+00   0.2322747998E+00   0.2949303427E-04  -0.2703336411E-04   0.1474651714E-03  -0.1351668205E-03   0.1758876915E+00  -0.1617898031E-02   0.0000000000E+00   0.7875880897E-02   0.0000000000E+00   0.0000000000E+00   0.1763730609E-02  -0.5438420548E-03   0.2047729033E-03  -0.5228093804E-03   0.0000000000E+00   0.0000000000E+00   0.1772666952E+00
   0.1190737335E+00   0.2150965923E+00   0.3218391309E-04  -0.2518562119E-04   0.1609195655E-03  -0.1259281060E-03   0.1775706272E+00  -0.4349702206E-02   0.0000000000E+00   0.1321070856E-01   0.0000000000E+00   0.0000000000E+00   0.1788755378E-02  -0.5762089036E-03   0.3434784225E-03  -0.5196627749E-03   0.0000000000E+00   0.0000000000E+00   0.1811653196E+00
   0.2142353305E+00   0.2499059411E+00   0.5774107983E-04  -0.1567647582E-04   0.2887053991E-03  -0.7838237912E-04   0.1965461950E+00   0.8919042070E-03   0.0000000000E+00  -0.4190345150E-03   0.0000000000E+00   0.0000000000E+00   0.1962786237E-02  -0.5807195429E-03  -0.1089489739E-04  -0.5923142976E-03   0.0000000000E+00   0.0000000000E+00   0.1961124491E+00
   0.1947525546E+00   0.2498949083E+00   0.5135110218E-04  -0.1751527602E-04   0.2567555109E-03  -0.8757638010E-04   0.1980555274E+00   0.8721221069E-03   0.0000000000E+00  -0.2414225887E-04   0.0000000000E+00   0.0000000000E+00   0.1977938908E-02  -0.5854453612E-03  -0.6276987305E-06  -0.5967829486E-03   0.0000000000E+00   0.0000000000E+00   0.1976351906E+00
   0.1957562757E+00   0.2323248211E+00   0.5352310967E-04  -0.1570632122E-04   0.2676155484E-03  -0.7853160610E-04   0.1877960994E+00  -0.1184640454E-02   0.0000000000E+00  -0.6553478618E-03   0.0000000000E+00   0.0000000000E+00   0.1881514915E-02  -0.5752347027E-03  -0.1703904441E-04  -0.5598343768E-03   0.0000000000E+00   0.0000000000E+00   0.1884070097E+00
   0.2152698921E+00   0.2322003952E+00   0.5962434494E-04  -0.1388846513E-04   0.2981217247E-03  -0.6944232566E-04   0.1864805588E+00  -0.8440080761E-03   0.0000000000E+00  -0.1760015792E-02   0.0000000000E+00   0.0000000000E+00   0.1867337612E-02  -0.5678817572E-03  -0.4576041060E-04  -0.5569096522E-03   0.0000000000E+00   0.0000000000E+00   0.1869402499E+00
   0.2347281550E+00   0.2318789582E+00   0.6566150025E-04  -0.1243630294E-04   0.3283075012E-03  -0.6218151471E-04   0.1843786836E+00  -0.5271284369E-03   0.0000000000E+00  -0.2380414287E-02   0.0000000000E+00   0.0000000000E+00   0.1845368222E-02  -0.5584073353E-03  -0.6189077146E-04  -0.5515546656E-03   0.0000000000E+00   0.0000000000E+00   0.1846998331E+00
   0.2541265118E+00   0.2317560964E+00   0.7158397292E-04  -0.1133393363E-04   0.3579198646E-03  -0.5666966815E-04   0.1819118830E+00  -0.2399141874E-03   0.0000000000E+00  -0.2575659589E-02   0.0000000000E+00   0.0000000000E+00   0.1819838573E-02  -0.5481347910E-03  -0.6696714931E-04  -0.5450159066E-03   0.0000000000E+00   0.0000000000E+00   0.1820963472E+00
   0.2531994517E+00   0.2499215727E+00   0.7027778630E-04  -0.1307121758E-04   0.3513889315E-03  -0.6535608789E-04   0.1904607550E+00   0.7971056966E-03   0.0000000000E+00  -0.7366009442E-03   0.0000000000E+00   0.0000000000E+00   0.1902216233E-02  -0.5634112080E-03  -0.1915162455E-04  -0.5737735821E-03   0.0000000000E+00   0.0000000000E+00   0.1900662820E+00
   0.2337176894E+00   0.2499147374E+00   0.6405923486E-04  -0.1421043871E-04   0.3202961743E-03  -0.7105219355E-04   0.1937846838E+00   0.8588362258E-03   0.0000000000E+00  -0.6481576858E-03   0.0000000000E+00   0.0000000000E+00   0.1935270329E-02  -0.5727656890E-03  -0.1685209983E-04  -0.5839305600E-03   0.0000000000E+00   0.0000000000E+00   0.1933625121E+00
   0.3116410046E+00   0.2499329039E+00   0.8831377352E-04  -0.1118267779E-04   0.4415688676E-03  -0.5591338894E-04   0.1817953446E+00   0.6015807051E-03   0.0000000000E+00  -0.4076514196E-03   0.0000000000E+00   0.0000000000E+00   0.1816148704E-02  -0.5393702266E-03  -0.1059893691E-04  -0.5471907758E-03   0.0000000000E+00   0.0000000000E+00   0.1814967013E+00
   0.3120353094E+00   0.2312151654E+00   0.8879889990E-04  -0.9509266283E-05   0.4439944995E-03  -0.4754633141E-04   0.1756180167E+00   0.3126970721E-03   0.0000000000E+00  -0.1433073830E-02   0.0000000000E+00   0.0000000000E+00   0.1755242076E-02  -0.5237270794E-03  -0.3725991957E-04  -0.5277921413E-03   0.0000000000E+00   0.0000000000E+00   0.1754846904E+00
   0.5581767583E-01   0.8299189835E-01   0.4344202196E-04  -0.2584352481E-04   0.2172101098E-03  -0.1292176241E-03   0.2148898513E+00   0.7314546691E-01   0.0000000000E+00  -0.1088471514E+00   0.0000000000E+00   0.0000000000E+00   0.1929462112E-02   0.8678511535E-04  -0.2830025936E-02  -0.8641059545E-03   0.0000000000E+00   0.0000000000E+00   0.2592925145E+00
   0.7217691671E-01   0.9401223339E-01   0.4116541761E-04  -0.2148080201E-04   0.2058270880E-03  -0.1074040100E-03   0.1724548570E+00  -0.3802830355E-02   0.0000000000E+00  -0.4541153577E-01   0.0000000000E+00   0.0000000000E+00   0.1735957061E-02  -0.5553928746E-03  -0.1180699930E-02  -0.5059560800E-03   0.0000000000E+00   0.0000000000E+00   0.1907175334E+00
   0.6218203946E-01   0.1068349239E+00   0.3232192675E-04  -0.2558068784E-04   0.1616096338E-03  -0.1279034392E-03   0.2095229036E+00   0.2305401270E-02   0.0000000000E+00  -0.2740333783E-01   0.0000000000E+00   0.0000000000E+00   0.2088312832E-02  -0.6055146981E-03  -0.7124867837E-03  -0.6354849146E-03   0.0000000000E+00   0.0000000000E+00   0.2113379969E+00
   0.3844538922E-01   0.9220725279E-01   0.2950777079E-04  -0.3011651786E-04   0.1475388539E-03  -0.1505825893E-03   0.3140942102E+00   0.5396513278E-01   0.0000000000E+00  -0.8180104502E-01   0.0000000000E+00   0.0000000000E+00   0.2979046704E-02  -0.4026313030E-03  -0.2126827171E-02  -0.1104178029E-02   0.0000000000E+00   0.0000000000E+00   0.3189053713E+00
   0.0000000000E+00   0.1997588121E+00   0.0000000000E+00  -0.4019847649E-04   0.0000000000E+00  -0.2009923824E-03   0.1663907276E+00   0.1531163895E-01   0.0000000000E+00   0.3991830882E-02   0.0000000000E+00   0.0000000000E+00   0.1617972359E-02  -0.3460557932E-03   0.1037876029E-03  -0.5451070996E-03   0.0000000000E+00   0.0000000000E+00   0.1592999437E+00
   0.0000000000E+00   0.1830976367E+00   0.0000000000E+00  -0.3928337785E-04   0.0000000000E+00  -0.1964168892E-03   0.1817747126E+00   0.2393306892E-01   0.0000000000E+00   0.4214975315E-02   0.0000000000E+00   0.0000000000E+00   0.1745947919E-02  -0.3059934486E-03   0.1095893582E-03  -0.6171233446E-03   0.0000000000E+00   0.0000000000E+00   0.1710855293E+00
   0.3661400523E-01   0.1166734747E+00   0.1789455522E-04  -0.3232355351E-04   0.8947277609E-04  -0.1616177676E-03   0.2834148194E+00   0.3742756667E-01   0.0000000000E+00  -0.2985734942E-01   0.0000000000E+00   0.0000000000E+00   0.2721865494E-02  -0.4759687914E-03  -0.7762910850E-03  -0.9625271581E-03   0.0000000000E+00   0.0000000000E+00   0.2745764544E+00
   0.2671995110E+00   0.0000000000E+00   0.8880500343E-04   0.0000000000E+00   0.4440250171E-03   0.0000000000E+00   0.8202517773E-01   0.2305491514E-01   0.0000000000E+00  -0.1232177815E-02   0.0000000000E+00   0.0000000000E+00   0.7510870319E-03  -0.1552638179E-04  -0.3203662319E-04  -0.3152402786E-03   0.0000000000E+00   0.0000000000E+00   0.7324864358E-01
   0.2691592694E+00   0.1829117208E-01   0.8888740044E-04  -0.5641924454E-07   0.4444370022E-03  -0.2820962227E-06   0.8382093466E-01   0.2265517551E-01   0.0000000000E+00  -0.3669252544E-02   0.0000000000E+00   0.0000000000E+00   0.7702438201E-03  -0.2491104887E-04  -0.9540056615E-04  -0.3194283305E-03   0.0000000000E+00   0.0000000000E+00   0.7539341683E-01
   0.2370123318E+00   0.7430961149E-01   0.8132145904E-04  -0.1097434428E-05   0.4066072952E-03  -0.5487172141E-05   0.1004847647E+00   0.9759944293E-02   0.0000000000E+00  -0.1860935306E-01   0.0000000000E+00   0.0000000000E+00   0.9755678145E-03  -0.2038548513E-03  -0.4838431795E-03  -0.3307341271E-03   0.0000000000E+00   0.0000000000E+00   0.1011984095E+00
   0.2557229655E+00   0.7383257230E-01   0.8439942041E-04  -0.8864840720E-06   0.4219971021E-03  -0.4432420360E-05   0.1015972355E+00   0.1350731844E-01   0.0000000000E+00  -0.1487892548E-01   0.0000000000E+00   0.0000000000E+00   0.9754503993E-03  -0.1697185220E-03  -0.3868520626E-03  -0.3453136617E-03   0.0000000000E+00   0.0000000000E+00   0.9893739197E-01
   0.3109008943E+00   0.3712619211E-01   0.9423954925E-04  -0.1283310338E-06   0.4711977462E-03  -0.6416551691E-06   0.9338443428E-01   0.2394683947E-01   0.0000000000E+00  -0.3514487177E-02   0.0000000000E+00   0.0000000000E+00   0.8620038244E-03  -0.4068490815E-04  -0.9137666660E-04  -0.3519938213E-03   0.0000000000E+00   0.0000000000E+00   0.8421164576E-01
   0.2909886056E+00   0.3677638536E-01   0.9141560164E-04  -0.1423234057E-06   0.4570780082E-03  -0.7116170287E-06   0.9124110740E-01   0.2289090009E-01   0.0000000000E+00  -0.5408591631E-02   0.0000000000E+00   0.0000000000E+00   0.8437383737E-03  -0.4481432131E-04  -0.1406233824E-03  -0.3423960224E-03   0.0000000000E+00   0.0000000000E+00   0.8272088785E-01
   0.3505999940E+00   0.2114930569E+00   0.1000000000E-03  -0.7567848025E-05   0.5000000000E-03  -0.3783924013E-04   0.1672132473E+00   0.1767380899E-02   0.0000000000E+00   0.4489670776E-03   0.0000000000E+00   0.0000000000E+00   0.1666830331E-02  -0.4839659330E-03   0.1167314402E-04  -0.5069418847E-03   0.0000000000E+00   0.0000000000E+00   0.1663373549E+00
   0.3314765635E+00   0.2119348478E+00   0.9469092110E-04  -0.7669373064E-05   0.4734546055E-03  -0.3834686532E-04   0.1675009526E+00   0.1647878204E-02   0.0000000000E+00  -0.1586642781E-02   0.0000000000E+00   0.0000000000E+00   0.1670065891E-02  -0.4860240757E-03  -0.4125271231E-04  -0.5074464923E-03   0.0000000000E+00   0.0000000000E+00   0.1667028701E+00
   0.3314127003E+00   0.1926646136E+00   0.9494488858E-04  -0.6170726622E-05   0.4747244429E-03  -0.3085363311E-04   0.1594272006E+00   0.3275753018E-02   0.0000000000E+00  -0.2050389488E-02   0.0000000000E+00   0.0000000000E+00   0.1584444747E-02  -0.4455240715E-03  -0.5331012668E-04  -0.4881088607E-03   0.0000000000E+00   0.0000000000E+00   0.1578496232E+00
   0.3505999940E+00   0.1922712156E+00   0.1000000000E-03  -0.6080064966E-05   0.5000000000E-03  -0.3040032483E-04   0.1592058660E+00   0.3469025912E-02   0.0000000000E+00   0.4211148544E-03   0.0000000000E+00   0.0000000000E+00   0.1581651583E-02  -0.4429273390E-03   0.1094898622E-04  -0.4880246758E-03   0.0000000000E+00   0.0000000000E+00   0.1574988530E+00
   0.2930663194E+00   0.2126342793E+00   0.8392773261E-04  -0.8295115917E-05   0.4196386631E-03  -0.4147557958E-04   0.1698818836E+00   0.1156627381E-02   0.0000000000E+00  -0.3909166330E-02   0.0000000000E+00   0.0000000000E+00   0.1695348953E-02  -0.4980793769E-03  -0.1016383246E-03  -0.5131155328E-03   0.0000000000E+00   0.0000000000E+00   0.1694404629E+00
   0.2739748727E+00   0.2130901039E+00   0.7849061712E-04  -0.8876686335E-05   0.3924530856E-03  -0.4438343168E-04   0.1717761443E+00   0.6870608746E-03   0.0000000000E+00  -0.4676273885E-02   0.0000000000E+00   0.0000000000E+00   0.1715700261E-02  -0.5084578242E-03  -0.1215831210E-03  -0.5173896156E-03   0.0000000000E+00   0.0000000000E+00   0.1716236284E+00
   0.2738326261E+00   0.1942285157E+00   0.7951868220E-04  -0.7331209604E-05   0.3975934110E-03  -0.3665604802E-04   0.1633997050E+00   0.1447871500E-02   0.0000000000E+00  -0.6264741937E-02   0.0000000000E+00   0.0000000000E+00   0.1629653436E-02  -0.4757204000E-03  -0.1628832904E-03  -0.4945427295E-03   0.0000000000E+00   0.0000000000E+00   0.1630451107E+00
   0.2929271589E+00   0.1934062485E+00   0.8470531593E-04  -0.6756086725E-05   0.4235265796E-03  -0.3378043362E-04   0.1616339394E+00   0.2187884277E-02   0.0000000000E+00  -0.5261250709E-02   0.0000000000E+00   0.0000000000E+00   0.1609775741E-02  -0.4630229755E-03  -0.1367925184E-03  -0.4914654711E-03   0.0000000000E+00   0.0000000000E+00   0.1608075763E+00
   0.1948671794E+00   0.5816317325E-01   0.7676090656E-04  -0.1157358415E-05   0.3838045328E-03  -0.5786792075E-05   0.8345036767E-01   0.1750723185E-02   0.0000000000E+00  -0.2624937726E-01   0.0000000000E+00   0.0000000000E+00   0.8292515072E-03  -0.2328438712E-03  -0.6824838088E-03  -0.2556032726E-03   0.0000000000E+00   0.0000000000E+00   0.9417422350E-01
   0.2145719296E+00   0.5660876208E-01   0.7967510152E-04  -0.8035031991E-06   0.3983755076E-03  -0.4017515995E-05   0.8598356024E-01   0.7907349328E-02   0.0000000000E+00  -0.2113461818E-01   0.0000000000E+00   0.0000000000E+00   0.8361135544E-03  -0.1788771874E-03  -0.5495000727E-03  -0.2816727287E-03   0.0000000000E+00   0.0000000000E+00   0.9009306826E-01
   0.7335476113E-01   0.1304404198E+00   0.2929863793E-04  -0.2527386271E-04   0.1464931896E-03  -0.1263693135E-03   0.2133570865E+00  -0.7854863386E-02   0.0000000000E+00   0.4656866649E-02   0.0000000000E+00   0.0000000000E+00   0.2157135455E-02  -0.7186198934E-03   0.1210785329E-03  -0.6165066694E-03   0.0000000000E+00   0.0000000000E+00   0.2173530894E+00
   0.5563526598E-01   0.1223032305E+00   0.2460739718E-04  -0.2870491898E-04   0.1230369859E-03  -0.1435245949E-03   0.2468430772E+00   0.1639932214E-01   0.0000000000E+00  -0.7582121874E-02   0.0000000000E+00   0.0000000000E+00   0.2419232805E-02  -0.5765360100E-03  -0.1971351687E-03  -0.7897271979E-03   0.0000000000E+00   0.0000000000E+00   0.2388674865E+00
   0.8098986153E-01   0.1171459648E+00   0.3544018882E-04  -0.2168703484E-04   0.1772009441E-03  -0.1084351742E-03   0.2045286822E+00  -0.1419678833E-01   0.0000000000E+00  -0.8548474560E-02   0.0000000000E+00   0.0000000000E+00   0.2087877187E-02  -0.7555539299E-03  -0.2222603386E-03  -0.5709956816E-03   0.0000000000E+00   0.0000000000E+00   0.2123180570E+00
   0.5840112448E-01   0.2497681221E+00   0.1129848072E-04  -0.3864632041E-04   0.5649240360E-04  -0.1932316021E-03   0.1328861003E+00  -0.1312474683E-02   0.0000000000E+00   0.3549886212E-02   0.0000000000E+00   0.0000000000E+00   0.1332798427E-02  -0.4117830477E-03   0.9229704151E-04  -0.3947208768E-03   0.0000000000E+00   0.0000000000E+00   0.1335713772E+00
   0.7831220303E-01   0.2132249614E+00   0.2059087172E-04  -0.3261142629E-04   0.1029543586E-03  -0.1630571314E-03   0.1679701112E+00  -0.4479748136E-03   0.0000000000E+00   0.1919338686E-01   0.0000000000E+00   0.0000000000E+00   0.1681045036E-02  -0.5083900817E-03   0.4990280585E-03  -0.5025664091E-03   0.0000000000E+00   0.0000000000E+00   0.1713572189E+00
   0.7813089503E-01   0.1932489553E+00   0.2239920479E-04  -0.3090295616E-04   0.1119960240E-03  -0.1545147808E-03   0.1797463496E+00  -0.1189294113E-02   0.0000000000E+00   0.2262317174E-01   0.0000000000E+00   0.0000000000E+00   0.1801031379E-02  -0.5511319901E-03   0.5882024653E-03  -0.5356711666E-03   0.0000000000E+00   0.0000000000E+00   0.1845477303E+00
   0.1770542712E+00   0.2157021822E+00   0.4963819535E-04  -0.1623629999E-04   0.2481909767E-03  -0.8118149994E-04   0.1815124943E+00  -0.3280178371E-02   0.0000000000E+00   0.1202377156E-02   0.0000000000E+00   0.0000000000E+00   0.1824965478E-02  -0.5773392667E-03   0.3126180607E-04  -0.5346969479E-03   0.0000000000E+00   0.0000000000E+00   0.1831901840E+00
   0.3120556534E+00   0.1537072667E+00   0.9107189544E-04  -0.3740042275E-05   0.4553594772E-03  -0.1870021138E-04   0.1419737586E+00   0.7260941653E-02   0.0000000000E+00  -0.5259076454E-02   0.0000000000E+00   0.0000000000E+00   0.1397954761E-02  -0.3533118594E-03  -0.1367359878E-03  -0.4477041009E-03   0.0000000000E+00   0.0000000000E+00   0.1387824963E+00
   0.3120392394E+00   0.1734081938E+00   0.9042240577E-04  -0.4987196300E-05   0.4521120289E-03  -0.2493598150E-04   0.1513466542E+00   0.4903657783E-02   0.0000000000E+00  -0.4581309781E-02   0.0000000000E+00   0.0000000000E+00   0.1498755569E-02  -0.4050033847E-03  -0.1191140543E-03  -0.4687509359E-03   0.0000000000E+00   0.0000000000E+00   0.1491636628E+00
   0.1168255187E+00   0.2498274702E+00   0.2647527911E-04  -0.2875496312E-04   0.1323763955E-03  -0.1437748156E-03   0.1773066732E+00  -0.8671793866E-04   0.0000000000E+00   0.2893186529E-02   0.0000000000E+00   0.0000000000E+00   0.1773326886E-02  -0.5327871991E-03   0.7522284975E-04  -0.5316598659E-03   0.0000000000E+00   0.0000000000E+00   0.1773311494E+00
   0.7104095554E-01   0.7058239661E-01   0.5504569043E-04  -0.2138079808E-04   0.2752284521E-03  -0.1069039904E-03   0.8480008269E-01   0.4272628241E-01   0.0000000000E+00  -0.5495342128E-01   0.0000000000E+00   0.0000000000E+00   0.7198219797E-03   0.1728625760E-03  -0.1428788953E-02  -0.3825790953E-03   0.0000000000E+00   0.0000000000E+00   0.1116207792E+00
   0.8420315501E-01   0.7956524779E-01   0.5169976838E-04  -0.1662003463E-04   0.2584988419E-03  -0.8310017317E-04   0.1157759738E+00  -0.4177957866E-02   0.0000000000E+00  -0.4625665131E-01   0.0000000000E+00   0.0000000000E+00   0.1170293612E-02  -0.3891075001E-03  -0.1202672934E-02  -0.3347940479E-03   0.0000000000E+00   0.0000000000E+00   0.1433870290E+00
   0.2353418509E+00   0.2142462425E+00   0.6723214812E-04  -0.1079358833E-04   0.3361607406E-03  -0.5396794163E-04   0.1763183224E+00  -0.6289102150E-03   0.0000000000E+00  -0.4597301161E-02   0.0000000000E+00   0.0000000000E+00   0.1765069954E-02  -0.5352440692E-03  -0.1195298302E-03  -0.5270682364E-03   0.0000000000E+00   0.0000000000E+00   0.1768162506E+00
   0.1777495191E+00   0.1998258436E+00   0.5173751222E-04  -0.1460722932E-04   0.2586875611E-03  -0.7303614662E-04   0.1766279165E+00  -0.6189805604E-02   0.0000000000E+00   0.1494101279E-04   0.0000000000E+00   0.0000000000E+00   0.1784848582E-02  -0.5917818056E-03   0.3884663326E-06  -0.5113143327E-03   0.0000000000E+00   0.0000000000E+00   0.1797979540E+00
   0.1588001654E+00   0.1996848638E+00   0.4609107313E-04  -0.1709570653E-04   0.2304553657E-03  -0.8547853264E-04   0.1783002442E+00  -0.7541510083E-02   0.0000000000E+00   0.4117000448E-02   0.0000000000E+00   0.0000000000E+00   0.1805626972E-02  -0.6103158333E-03   0.1070420117E-03  -0.5122762022E-03   0.0000000000E+00   0.0000000000E+00   0.1823156175E+00
   0.1599722640E+00   0.1838193319E+00   0.4846833163E-04  -0.1527984993E-04   0.2423416581E-03  -0.7639924967E-04   0.1755714707E+00  -0.1142099497E-01   0.0000000000E+00   0.1872322333E-02   0.0000000000E+00   0.0000000000E+00   0.1789977692E-02  -0.6409243619E-03   0.4868038065E-04  -0.4924514273E-03   0.0000000000E+00   0.0000000000E+00   0.1815549669E+00
   0.1781344469E+00   0.1845091348E+00   0.5373199084E-04  -0.1303502965E-04   0.2686599542E-03  -0.6517514824E-04   0.1724023516E+00  -0.8989950099E-02   0.0000000000E+00  -0.2217677277E-02   0.0000000000E+00   0.0000000000E+00   0.1750993367E-02  -0.6071065559E-03  -0.5765960919E-04  -0.4902372046E-03   0.0000000000E+00   0.0000000000E+00   0.1770934315E+00
   0.2547363192E+00   0.2136601897E+00   0.7292869793E-04  -0.9694212198E-05   0.3646434897E-03  -0.4847106099E-04   0.1739205778E+00   0.5914754058E-04   0.0000000000E+00  -0.4939289538E-02   0.0000000000E+00   0.0000000000E+00   0.1739028335E-02  -0.5211702580E-03  -0.1284215280E-03  -0.5219391760E-03   0.0000000000E+00   0.0000000000E+00   0.1741005985E+00
   0.3122474399E+00   0.2122851086E+00   0.8932498464E-04  -0.7903893900E-05   0.4466249232E-03  -0.3951946950E-04   0.1684861058E+00   0.1450282498E-02   0.0000000000E+00  -0.2770125835E-02   0.0000000000E+00   0.0000000000E+00   0.1680510210E-02  -0.4909554923E-03  -0.7202327171E-04  -0.5098091647E-03   0.0000000000E+00   0.0000000000E+00   0.1678350718E+00
   0.3122045057E+00   0.1929948460E+00   0.8985828391E-04  -0.6385507111E-05   0.4492914195E-03  -0.3192753556E-04   0.1603153430E+00   0.2926727055E-02   0.0000000000E+00  -0.3720501622E-02   0.0000000000E+00   0.0000000000E+00   0.1594373249E-02  -0.4516787584E-03  -0.9673304218E-04  -0.4897262101E-03   0.0000000000E+00   0.0000000000E+00   0.1590055926E+00
   0.6724005176E-01   0.1439020471E+00   0.2452356068E-04  -0.2821564280E-04   0.1226178034E-03  -0.1410782140E-03   0.2135984082E+00   0.1261001427E-02   0.0000000000E+00   0.1470382172E-01   0.0000000000E+00   0.0000000000E+00   0.2132201078E-02  -0.6281852105E-03   0.3822993648E-03  -0.6445782290E-03   0.0000000000E+00   0.0000000000E+00   0.2144334162E+00
   0.6224390830E-01   0.1544574384E+00   0.2130611710E-04  -0.3033326792E-04   0.1065305855E-03  -0.1516663396E-03   0.2094912526E+00   0.4618353189E-02   0.0000000000E+00   0.1866009889E-01   0.0000000000E+00   0.0000000000E+00   0.2081057466E-02  -0.5822902258E-03   0.4851625711E-03  -0.6423288173E-03   0.0000000000E+00   0.0000000000E+00   0.2095844242E+00
   0.1529847843E+00   0.3950699497E-01   0.7481638904E-04  -0.1453971864E-05   0.3740819452E-03  -0.7269859320E-05   0.4986340716E-01  -0.1531650000E-01   0.0000000000E+00  -0.3146658882E-01   0.0000000000E+00   0.0000000000E+00   0.5445835716E-03  -0.3027552214E-03  -0.8181313094E-03  -0.1036407215E-03   0.0000000000E+00   0.0000000000E+00   0.7966377172E-01
   0.1357842233E+00   0.4588117432E-01   0.7183838343E-04  -0.2927479599E-05   0.3591919171E-03  -0.1463739800E-04   0.4975943965E-01  -0.2998140434E-01   0.0000000000E+00  -0.4118859603E-01   0.0000000000E+00   0.0000000000E+00   0.5875386095E-03  -0.4490923624E-03  -0.1070903497E-02  -0.5933410593E-04   0.0000000000E+00   0.0000000000E+00   0.9702696277E-01
   0.1629731591E+00   0.0000000000E+00   0.7886084245E-04   0.0000000000E+00   0.3943042122E-03   0.0000000000E+00   0.3017332984E-01  -0.2465197029E-02   0.0000000000E+00  -0.5416298651E-02   0.0000000000E+00   0.0000000000E+00   0.3091288895E-03  -0.1151719598E-03  -0.1408237649E-03  -0.8312439842E-04   0.0000000000E+00   0.0000000000E+00   0.3096526222E-01
   0.1668999538E+00   0.1949631143E-01   0.7833362562E-04  -0.4074617144E-06   0.3916681281E-03  -0.2037308572E-05   0.4013624461E-01  -0.2726032587E-02   0.0000000000E+00  -0.1326174472E-01   0.0000000000E+00   0.0000000000E+00   0.4095405438E-03  -0.1476690597E-03  -0.3448053626E-03  -0.1122306361E-03   0.0000000000E+00   0.0000000000E+00   0.4791483845E-01
   0.2759609591E+00   0.9271641121E-01   0.8659185802E-04  -0.1291364420E-05   0.4329592901E-03  -0.6456822098E-05   0.1121671579E+00   0.1318047089E-01   0.0000000000E+00  -0.1213431438E-01   0.0000000000E+00   0.0000000000E+00   0.1082130166E-02  -0.2046967648E-03  -0.3154921739E-03  -0.3760428863E-03   0.0000000000E+00   0.0000000000E+00   0.1082263686E+00
   0.2941665923E+00   0.9348357148E-01   0.8983371345E-04  -0.1172753729E-05   0.4491685673E-03  -0.5863768644E-05   0.1128864807E+00   0.1503713928E-01   0.0000000000E+00  -0.9038992702E-02   0.0000000000E+00   0.0000000000E+00   0.1083753389E-02  -0.1882880493E-03  -0.2350138102E-03  -0.3837708599E-03   0.0000000000E+00   0.0000000000E+00   0.1072968683E+00
   0.2943033918E+00   0.1128375693E+00   0.8894580493E-04  -0.1873616552E-05   0.4447290246E-03  -0.9368082761E-05   0.1221588712E+00   0.1199631875E-01   0.0000000000E+00  -0.9064334066E-02   0.0000000000E+00   0.0000000000E+00   0.1185599755E-02  -0.2465134260E-03  -0.2356726857E-03  -0.4024655697E-03   0.0000000000E+00   0.0000000000E+00   0.1176542237E+00
   0.2764168316E+00   0.1113624526E+00   0.8549177317E-04  -0.2016228971E-05   0.4274588658E-03  -0.1008114485E-04   0.1219897021E+00   0.1011873096E-01   0.0000000000E+00  -0.1181468306E-01   0.0000000000E+00   0.0000000000E+00   0.1189540828E-02  -0.2647817967E-03  -0.3071817595E-03  -0.3963252992E-03   0.0000000000E+00   0.0000000000E+00   0.1190182569E+00
   0.2934182347E+00   0.7443464057E-01   0.9053062404E-04  -0.6701214141E-06   0.4526531202E-03  -0.3350607070E-05   0.1043125298E+00   0.1810833920E-01   0.0000000000E+00  -0.8492765395E-02   0.0000000000E+00   0.0000000000E+00   0.9888002803E-03  -0.1318541974E-03  -0.2208119003E-03  -0.3672626069E-03   0.0000000000E+00   0.0000000000E+00   0.9762778032E-01
   0.1715489559E+00   0.3887683989E-01   0.7665298276E-04  -0.8982681176E-06   0.3832649138E-03  -0.4491340588E-05   0.5498832512E-01  -0.3913324190E-02   0.0000000000E+00  -0.2725220965E-01   0.0000000000E+00   0.0000000000E+00   0.5616232238E-03  -0.2040982173E-03  -0.7085574510E-03  -0.1532250028E-03   0.0000000000E+00   0.0000000000E+00   0.7364505866E-01
   0.2934913386E+00   0.1327325529E+00   0.8778860259E-04  -0.2801853295E-05   0.4389430129E-03  -0.1400926647E-04   0.1323572220E+00   0.8603879744E-02   0.0000000000E+00  -0.8685683436E-02   0.0000000000E+00   0.0000000000E+00   0.1297760581E-02  -0.3110328685E-03  -0.2258277693E-03  -0.4228833052E-03   0.0000000000E+00   0.0000000000E+00   0.1291393986E+00
   0.5200729229E-01   0.1831604147E+00   0.1537006482E-04  -0.3467904239E-04   0.7685032409E-04  -0.1733952120E-03   0.1853215294E+00   0.8853135817E-02   0.0000000000E+00   0.2148781873E-01   0.0000000000E+00   0.0000000000E+00   0.1826655887E-02  -0.4674332302E-03   0.5586832871E-03  -0.5825239958E-03   0.0000000000E+00   0.0000000000E+00   0.1848904747E+00
   0.5051633343E-01   0.1683892978E+00   0.1599453814E-04  -0.3378969771E-04   0.7997269069E-04  -0.1689484886E-03   0.1974634057E+00   0.1353929794E-01   0.0000000000E+00   0.2218404098E-01   0.0000000000E+00   0.0000000000E+00   0.1934016163E-02  -0.4569972375E-03   0.5767850654E-03  -0.6330081108E-03   0.0000000000E+00   0.0000000000E+00   0.1948621113E+00
   0.2922861511E+00   0.5550380359E-01   0.9105985715E-04  -0.3366178336E-06   0.4552992857E-03  -0.1683089168E-05   0.9695121809E-01   0.2077379695E-01   0.0000000000E+00  -0.7235895796E-02   0.0000000000E+00   0.0000000000E+00   0.9071907900E-03  -0.8311568474E-04  -0.1881332907E-03  -0.3531750451E-03   0.0000000000E+00   0.0000000000E+00   0.8927850875E-01
   0.2921840323E+00   0.1532702462E+00   0.8645272272E-04  -0.3985792490E-05   0.4322636136E-03  -0.1992896245E-04   0.1425365844E+00   0.6199697506E-02   0.0000000000E+00  -0.7704463995E-02   0.0000000000E+00   0.0000000000E+00   0.1406766752E-02  -0.3656127782E-03  -0.2003160639E-03  -0.4462088457E-03   0.0000000000E+00   0.0000000000E+00   0.1401583196E+00
   0.2710985582E+00   0.3669152944E-01   0.8866253081E-04  -0.1679935044E-06   0.4433126541E-03  -0.8399675219E-06   0.8821868939E-01   0.2125374108E-01   0.0000000000E+00  -0.7536772111E-02   0.0000000000E+00   0.0000000000E+00   0.8184256706E-03  -0.5211865735E-04  -0.1959560749E-03  -0.3284172914E-03   0.0000000000E+00   0.0000000000E+00   0.8075229058E-01
   0.2512059126E+00   0.3681298355E-01   0.8599810729E-04  -0.2098423046E-06   0.4299905365E-03  -0.1049211523E-05   0.8420569356E-01   0.1892321197E-01   0.0000000000E+00  -0.1003987980E-01   0.0000000000E+00   0.0000000000E+00   0.7852872997E-03  -0.6338496097E-04  -0.2610368747E-03  -0.3093867166E-03   0.0000000000E+00   0.0000000000E+00   0.7838368181E-01
   0.2340299749E+00   0.5569659617E-01   0.8249214562E-04  -0.5971718062E-06   0.4124607281E-03  -0.2985859031E-05   0.8907508586E-01   0.1293703040E-01   0.0000000000E+00  -0.1676314008E-01   0.0000000000E+00   0.0000000000E+00   0.8519397674E-03  -0.1378549536E-03  -0.4358416421E-03  -0.3060363488E-03   0.0000000000E+00   0.0000000000E+00   0.8824372500E-01
   0.2535492593E+00   0.5532466163E-01   0.8532105636E-04  -0.4682784131E-06   0.4266052818E-03  -0.2341392066E-05   0.9210897935E-01   0.1644481778E-01   0.0000000000E+00  -0.1307696993E-01   0.0000000000E+00   0.0000000000E+00   0.8717553402E-03  -0.1118787602E-03  -0.3400012182E-03  -0.3256613914E-03   0.0000000000E+00   0.0000000000E+00   0.8802989520E-01
   0.2352777387E+00   0.1969988565E+00   0.6867395333E-04  -0.9282253084E-05   0.3433697667E-03  -0.4641126542E-04   0.1686558431E+00  -0.1268016001E-02   0.0000000000E+00  -0.6483269588E-02   0.0000000000E+00   0.0000000000E+00   0.1690362479E-02  -0.5186476894E-03  -0.1685650093E-03  -0.5021634814E-03   0.0000000000E+00   0.0000000000E+00   0.1696699471E+00
   0.2546660407E+00   0.1956261525E+00   0.7418461132E-04  -0.8166250899E-05   0.3709230566E-03  -0.4083125449E-04   0.1658527794E+00   0.9931705528E-04   0.0000000000E+00  -0.6824902207E-02   0.0000000000E+00   0.0000000000E+00   0.1658229842E-02  -0.4965651675E-03  -0.1774474574E-03  -0.4978562892E-03   0.0000000000E+00   0.0000000000E+00   0.1662283450E+00
   0.1599816560E+00   0.7267597233E-01   0.6887367324E-04  -0.3280879045E-05   0.3443683662E-03  -0.1640439522E-04   0.9615370898E-01  -0.1893035832E-01   0.0000000000E+00  -0.3724642828E-01   0.0000000000E+00   0.0000000000E+00   0.1018328165E-02  -0.4777647101E-03  -0.9684071354E-03  -0.2316700520E-03   0.0000000000E+00   0.0000000000E+00   0.1246359886E+00
   0.1741779634E+00   0.6065110739E-01   0.7350556963E-04  -0.1768468923E-05   0.3675278481E-03  -0.8842344614E-05   0.8225261872E-01  -0.8494211128E-02   0.0000000000E+00  -0.3311859286E-01   0.0000000000E+00   0.0000000000E+00   0.8480088206E-03  -0.3316999674E-03  -0.8610834143E-03  -0.2212752228E-03   0.0000000000E+00   0.0000000000E+00   0.1040372879E+00
   0.1845473050E+00   0.8232269250E-01   0.7130200213E-04  -0.2769450119E-05   0.3565100106E-03  -0.1384725060E-04   0.1077825569E+00  -0.9707946662E-02   0.0000000000E+00  -0.3133185611E-01   0.0000000000E+00   0.0000000000E+00   0.1106949409E-02  -0.4204271374E-03  -0.8146282588E-03  -0.2942238308E-03   0.0000000000E+00   0.0000000000E+00   0.1251653171E+00
   0.1698027406E+00   0.8992950993E-01   0.6704043776E-04  -0.4128244575E-05   0.3352021888E-03  -0.2064122288E-04   0.1167983817E+00  -0.1768795578E-01   0.0000000000E+00  -0.3173030474E-01   0.0000000000E+00   0.0000000000E+00   0.1221047684E-02  -0.5272747029E-03  -0.8249879234E-03  -0.2973312777E-03   0.0000000000E+00   0.0000000000E+00   0.1379675472E+00
   0.9899729720E-01   0.2140363741E+00   0.2640274942E-04  -0.2883397683E-04   0.1320137471E-03  -0.1441698842E-03   0.1735667702E+00  -0.3317860825E-02   0.0000000000E+00   0.1726446828E-01   0.0000000000E+00   0.0000000000E+00   0.1745621284E-02  -0.5538789188E-03   0.4488761753E-03  -0.5107467281E-03   0.0000000000E+00   0.0000000000E+00   0.1776990059E+00
   0.1399885357E+00   0.1992664342E+00   0.4046811105E-04  -0.1995512545E-04   0.2023405552E-03  -0.9977562724E-04   0.1793913653E+00  -0.8430627333E-02   0.0000000000E+00   0.8838824005E-02   0.0000000000E+00   0.0000000000E+00   0.1819205535E-02  -0.6224803692E-03   0.2298094241E-03  -0.5128822138E-03   0.0000000000E+00   0.0000000000E+00   0.1843742379E+00
   0.1210971939E+00   0.1985003142E+00   0.3483547830E-04  -0.2316246916E-04   0.1741773915E-03  -0.1158123458E-03   0.1796715544E+00  -0.8380067757E-02   0.0000000000E+00   0.1377374809E-01   0.0000000000E+00   0.0000000000E+00   0.1821855747E-02  -0.6228153407E-03   0.3581174502E-03  -0.5138744598E-03   0.0000000000E+00   0.0000000000E+00   0.1855298657E+00
   0.2186405575E+00   0.7552815989E-01   0.7819242233E-04  -0.1423034445E-05   0.3909621116E-03  -0.7115172226E-05   0.1001869572E+00   0.4865141374E-02   0.0000000000E+00  -0.2277211352E-01   0.0000000000E+00   0.0000000000E+00   0.9872741484E-03  -0.2519094580E-03  -0.5920749515E-03  -0.3151562959E-03   0.0000000000E+00   0.0000000000E+00   0.1054171728E+00
   0.8047250875E-01   0.1526376919E+00   0.2773887510E-04  -0.2623568214E-04   0.1386943755E-03  -0.1311784107E-03   0.2006327249E+00  -0.8777996613E-02   0.0000000000E+00   0.1677338519E-01   0.0000000000E+00   0.0000000000E+00   0.2032661239E-02  -0.6896781408E-03   0.4361080149E-03  -0.5755641849E-03   0.0000000000E+00   0.0000000000E+00   0.2071033689E+00
   0.6997032420E-01   0.1665611202E+00   0.2245101705E-04  -0.2995746485E-04   0.1122550852E-03  -0.1497873243E-03   0.1960734494E+00   0.1033603306E-02   0.0000000000E+00   0.2203246730E-01   0.0000000000E+00   0.0000000000E+00   0.1957633684E-02  -0.5778843151E-03   0.5728441498E-03  -0.5913211580E-03   0.0000000000E+00   0.0000000000E+00   0.1992548965E+00
   0.1417038138E+00   0.1830073860E+00   0.4307914021E-04  -0.1793650052E-04   0.2153957010E-03  -0.8968250259E-04   0.1785548548E+00  -0.1275575292E-01   0.0000000000E+00   0.6711127882E-02   0.0000000000E+00   0.0000000000E+00   0.1823815807E-02  -0.6632220935E-03   0.1744893249E-03  -0.4973973056E-03   0.0000000000E+00   0.0000000000E+00   0.1855916908E+00
   0.2729856197E+00   0.1744714121E+00   0.8051295416E-04  -0.5847976629E-05   0.4025647708E-03  -0.2923988314E-04   0.1549041652E+00   0.2436470523E-02   0.0000000000E+00  -0.8179700357E-02   0.0000000000E+00   0.0000000000E+00   0.1541732241E-02  -0.4403477905E-03  -0.2126722093E-03  -0.4720219073E-03   0.0000000000E+00   0.0000000000E+00   0.1543432234E+00
   0.2924560390E+00   0.1735972788E+00   0.8550917265E-04  -0.5306873992E-05   0.4275458633E-03  -0.2653436996E-04   0.1524198637E+00   0.3995835109E-02   0.0000000000E+00  -0.6722024663E-02   0.0000000000E+00   0.0000000000E+00   0.1512211132E-02  -0.4173012400E-03  -0.1747726412E-03  -0.4692470964E-03   0.0000000000E+00   0.0000000000E+00   0.1509130348E+00
   0.9445290878E-01   0.1608952592E+00   0.3121894712E-04  -0.2417196605E-04   0.1560947356E-03  -0.1208598302E-03   0.1936208914E+00  -0.1327071370E-01   0.0000000000E+00   0.1610518936E-01   0.0000000000E+00   0.0000000000E+00   0.1976021055E-02  -0.7135698113E-03   0.4187349234E-03  -0.5410505332E-03   0.0000000000E+00   0.0000000000E+00   0.2024487745E+00
   0.8734208602E-01   0.1753201840E+00   0.2708576978E-04  -0.2727567140E-04   0.1354288489E-03  -0.1363783570E-03   0.1898581383E+00  -0.7136535343E-02   0.0000000000E+00   0.2176646935E-01   0.0000000000E+00   0.0000000000E+00   0.1919990989E-02  -0.6409397683E-03   0.5659282030E-03  -0.5481648088E-03   0.0000000000E+00   0.0000000000E+00   0.1971611780E+00
   0.2746057015E+00   0.7396896567E-01   0.8746657741E-04  -0.7531043247E-06   0.4373328870E-03  -0.3765521623E-05   0.1029690646E+00   0.1621539099E-01   0.0000000000E+00  -0.1152065851E-01   0.0000000000E+00   0.0000000000E+00   0.9810444726E-03  -0.1467532838E-03  -0.2995371212E-03  -0.3575533667E-03   0.0000000000E+00   0.0000000000E+00   0.9791991826E-01
   0.2265996873E+00   0.1122818761E+00   0.7529955190E-04  -0.3178485994E-05   0.3764977595E-03  -0.1589242997E-04   0.1259071375E+00  -0.5178803656E-04   0.0000000000E+00  -0.1948042236E-01   0.0000000000E+00   0.0000000000E+00   0.1259226739E-02  -0.3782392927E-03  -0.5064909813E-03  -0.3775660483E-03   0.0000000000E+00   0.0000000000E+00   0.1303387852E+00
   0.2229051297E+00   0.9417122790E-01   0.7672361058E-04  -0.2224933280E-05   0.3836180529E-03  -0.1112466640E-04   0.1139550872E+00   0.2029291250E-02   0.0000000000E+00  -0.2184301298E-01   0.0000000000E+00   0.0000000000E+00   0.1133462998E-02  -0.3215723491E-03  -0.5679183374E-03  -0.3479531354E-03   0.0000000000E+00   0.0000000000E+00   0.1190789361E+00
   0.2729148148E+00   0.5525972676E-01   0.8816813139E-04  -0.3868401912E-06   0.4408406570E-03  -0.1934200956E-05   0.9477155720E-01   0.1900384395E-01   0.0000000000E+00  -0.9972796219E-02   0.0000000000E+00   0.0000000000E+00   0.8907040401E-03  -0.9427623205E-04  -0.2592927017E-03  -0.3413262035E-03   0.0000000000E+00   0.0000000000E+00   0.8852347333E-01
   0.1573049452E+00   0.5348161466E-01   0.7255420742E-04  -0.2111239807E-05   0.3627710371E-03  -0.1055619904E-04   0.7435516260E-01  -0.1640835429E-01   0.0000000000E+00  -0.3610651264E-01   0.0000000000E+00   0.0000000000E+00   0.7927766889E-03  -0.3871490307E-03  -0.9387693286E-03  -0.1738404249E-03   0.0000000000E+00   0.0000000000E+00   0.1046518536E+00
   0.1471715309E+00   0.6073777937E-01   0.6958897962E-04  -0.3182321472E-05   0.3479448981E-03  -0.1591160736E-04   0.7878388875E-01  -0.2178360373E-01   0.0000000000E+00  -0.3781229315E-01   0.0000000000E+00   0.0000000000E+00   0.8531896986E-03  -0.4541877036E-03  -0.9831196220E-03  -0.1710008550E-03   0.0000000000E+00   0.0000000000E+00   0.1131815892E+00
   0.1241215055E+00   0.1490038811E+00   0.4270859155E-04  -0.1679565105E-04   0.2135429578E-03  -0.8397825527E-04   0.1819002285E+00  -0.2376048310E-01   0.0000000000E+00   0.1525095952E-02   0.0000000000E+00   0.0000000000E+00   0.1890283735E-02  -0.7833055166E-03   0.3965249474E-04  -0.4744192363E-03   0.0000000000E+00   0.0000000000E+00   0.1947981433E+00
   0.1448958631E+00   0.1472798656E+00   0.4937935311E-04  -0.1319372648E-04   0.2468967655E-03  -0.6596863239E-04   0.1719181863E+00  -0.2302595811E-01   0.0000000000E+00  -0.6141556861E-02   0.0000000000E+00   0.0000000000E+00   0.1788259738E-02  -0.7460141401E-03  -0.1596804784E-03  -0.4466766847E-03   0.0000000000E+00   0.0000000000E+00   0.1848058209E+00
   0.1434406148E+00   0.1660387887E+00   0.4595446466E-04  -0.1571954883E-04   0.2297723233E-03  -0.7859774416E-04   0.1771408237E+00  -0.1835016223E-01   0.0000000000E+00   0.2050551840E-02   0.0000000000E+00   0.0000000000E+00   0.1826458723E-02  -0.7149240933E-03   0.5331434784E-04  -0.4763719843E-03   0.0000000000E+00   0.0000000000E+00   0.1869550242E+00
   0.1257274482E+00   0.1662008918E+00   0.4048703891E-04  -0.1869336493E-04   0.2024351945E-03  -0.9346682467E-04   0.1814519985E+00  -0.1888818463E-01   0.0000000000E+00   0.7011181998E-02   0.0000000000E+00   0.0000000000E+00   0.1871184539E-02  -0.7332378419E-03   0.1822907320E-03  -0.4876914416E-03   0.0000000000E+00   0.0000000000E+00   0.1919369658E+00
   0.6680599126E-01   0.1806947848E+00   0.2011454390E-04  -0.3183953944E-04   0.1005727195E-03  -0.1591976972E-03   0.1853042927E+00   0.1921155685E-02   0.0000000000E+00   0.2200514745E-01   0.0000000000E+00   0.0000000000E+00   0.1847279460E-02  -0.5367013212E-03   0.5721338337E-03  -0.5616763452E-03   0.0000000000E+00   0.0000000000E+00   0.1882013115E+00
   0.1097566103E+00   0.1659901658E+00   0.3547321319E-04  -0.2166019710E-04   0.1773660660E-03  -0.1083009855E-03   0.1877146512E+00  -0.1701568927E-01   0.0000000000E+00   0.1263588970E-01   0.0000000000E+00   0.0000000000E+00   0.1928193580E-02  -0.7333008464E-03   0.3285331322E-03  -0.5120968858E-03   0.0000000000E+00   0.0000000000E+00   0.1979878750E+00
   0.1056250915E+00   0.1804496302E+00   0.3226574442E-04  -0.2415312805E-04   0.1613287221E-03  -0.1207656402E-03   0.1847396650E+00  -0.1088243274E-01   0.0000000000E+00   0.1719385528E-01   0.0000000000E+00   0.0000000000E+00   0.1880043948E-02  -0.6630433223E-03   0.4470402372E-03  -0.5215716968E-03   0.0000000000E+00   0.0000000000E+00   0.1926751724E+00
   0.2150894642E+00   0.1816275667E+00   0.6454336076E-04  -0.9284216794E-05   0.3227168038E-03  -0.4642108397E-04   0.1647896746E+00  -0.4249018430E-02   0.0000000000E+00  -0.7708921214E-02   0.0000000000E+00   0.0000000000E+00   0.1660643801E-02  -0.5368592081E-03  -0.2004319516E-03  -0.4816219685E-03   0.0000000000E+00   0.0000000000E+00   0.1674885815E+00
   0.2343263512E+00   0.1797732086E+00   0.6997636434E-04  -0.7873235266E-05   0.3498818217E-03  -0.3936617633E-04   0.1610907009E+00  -0.1745762249E-02   0.0000000000E+00  -0.8730682640E-02   0.0000000000E+00   0.0000000000E+00   0.1616144296E-02  -0.5007297252E-03  -0.2269977486E-03  -0.4780348160E-03   0.0000000000E+00   0.0000000000E+00   0.1626789400E+00
   0.2757301323E+00   0.1304876475E+00   0.8409204709E-04  -0.2965918183E-05   0.4204602354E-03  -0.1482959091E-04   0.1313881586E+00   0.7084985848E-02   0.0000000000E+00  -0.1144102604E-01   0.0000000000E+00   0.0000000000E+00   0.1292626628E-02  -0.3233146173E-03  -0.2974666771E-03  -0.4154194333E-03   0.0000000000E+00   0.0000000000E+00   0.1294971979E+00
   0.2708094423E+00   0.1522601895E+00   0.8148455507E-04  -0.4352748803E-05   0.4074227753E-03  -0.2176374401E-04   0.1436153824E+00   0.3931403241E-02   0.0000000000E+00  -0.1039629567E-01   0.0000000000E+00   0.0000000000E+00   0.1424359614E-02  -0.3915321148E-03  -0.2703036874E-03  -0.4426403570E-03   0.0000000000E+00   0.0000000000E+00   0.1428305929E+00
   0.2537454971E+00   0.1774464955E+00   0.7533052124E-04  -0.6743409946E-05   0.3766526062E-03  -0.3371704973E-04   0.1572110675E+00   0.5186703017E-03   0.0000000000E+00  -0.8838844593E-02   0.0000000000E+00   0.0000000000E+00   0.1570554664E-02  -0.4664464995E-03  -0.2298099594E-03  -0.4731892135E-03   0.0000000000E+00   0.0000000000E+00   0.1576967670E+00
   0.1224620629E+00   0.5809528561E-01   0.6696815045E-04  -0.5385848395E-05   0.3348407522E-03  -0.2692924197E-04   0.6665448265E-01  -0.3963693785E-01   0.0000000000E+00  -0.4050804437E-01   0.0000000000E+00   0.0000000000E+00   0.7854556400E-03  -0.5963328264E-03  -0.1053209154E-02  -0.8105263440E-04   0.0000000000E+00   0.0000000000E+00   0.1179223901E+00
   0.1104000033E+00   0.7304924777E-01   0.5979421043E-04  -0.9052372307E-05   0.2989710522E-03  -0.4526186153E-04   0.1037982666E+00  -0.3862277569E-01   0.0000000000E+00  -0.4240252524E-01   0.0000000000E+00   0.0000000000E+00   0.1153850993E-02  -0.6976225566E-03  -0.1102465656E-02  -0.1955264727E-03   0.0000000000E+00   0.0000000000E+00   0.1467430572E+00
   0.1478491261E+00   0.8120549741E-01   0.6462602476E-04  -0.4952948205E-05   0.3231301238E-03  -0.2476474103E-04   0.1122503404E+00  -0.2700859047E-01   0.0000000000E+00  -0.3768234172E-01   0.0000000000E+00   0.0000000000E+00   0.1203529175E-02  -0.6068369259E-03  -0.9797408846E-03  -0.2557252498E-03   0.0000000000E+00   0.0000000000E+00   0.1437116678E+00
   0.1356243464E+00   0.7047770319E-01   0.6521940604E-04  -0.5040068168E-05   0.3260970302E-03  -0.2520034084E-04   0.9521768396E-01  -0.3104592990E-01   0.0000000000E+00  -0.4210228073E-01   0.0000000000E+00   0.0000000000E+00   0.1045314629E-02  -0.5961123509E-03  -0.1094659299E-02  -0.1925152622E-03   0.0000000000E+00   0.0000000000E+00   0.1347248818E+00
   0.1011557890E+00   0.1968061821E+00   0.2898800097E-04  -0.2674931905E-04   0.1449400048E-03  -0.1337465952E-03   0.1802634523E+00  -0.6830018681E-02   0.0000000000E+00   0.1884224538E-01   0.0000000000E+00   0.0000000000E+00   0.1823124579E-02  -0.6090905436E-03   0.4898983799E-03  -0.5203003007E-03   0.0000000000E+00   0.0000000000E+00   0.1866421985E+00
   0.1237570715E+00   0.1822411334E+00   0.3768124749E-04  -0.2092260133E-04   0.1884062375E-03  -0.1046130066E-03   0.1817937624E+00  -0.1305284707E-01   0.0000000000E+00   0.1206491729E-01   0.0000000000E+00   0.0000000000E+00   0.1857096165E-02  -0.6759097579E-03   0.3136878496E-03  -0.5062227461E-03   0.0000000000E+00   0.0000000000E+00   0.1897656559E+00
   0.1614175047E+00   0.1678737106E+00   0.5106712370E-04  -0.1334639187E-04   0.2553356185E-03  -0.6673195933E-04   0.1719439899E+00  -0.1514746457E-01   0.0000000000E+00  -0.2511293033E-02   0.0000000000E+00   0.0000000000E+00   0.1764882293E-02  -0.6673066154E-03  -0.6529361886E-04  -0.4703895760E-03   0.0000000000E+00   0.0000000000E+00   0.1800298708E+00
   0.1784802040E+00   0.1697801113E+00   0.5573716759E-04  -0.1149777937E-04   0.2786858379E-03  -0.5748889686E-04   0.1678226597E+00  -0.1162539732E-01   0.0000000000E+00  -0.5385200207E-02   0.0000000000E+00   0.0000000000E+00   0.1713102789E-02  -0.6197219523E-03  -0.1400152054E-03  -0.4685917871E-03   0.0000000000E+00   0.0000000000E+00   0.1741651095E+00
   0.8825399502E-01   0.1396939869E+00   0.3261826940E-04  -0.2290367640E-04   0.1630913470E-03  -0.1145183820E-03   0.2019514113E+00  -0.1635434786E-01   0.0000000000E+00   0.7746547326E-02   0.0000000000E+00   0.0000000000E+00   0.2068577156E-02  -0.7693977124E-03   0.2014102305E-03  -0.5567911903E-03   0.0000000000E+00   0.0000000000E+00   0.2110061491E+00
   0.9969622242E-01   0.8888577666E-01   0.5117240260E-04  -0.1332163962E-04   0.2558620130E-03  -0.6660819811E-04   0.1475552219E+00  -0.3468975285E-01   0.0000000000E+00  -0.3475057433E-01   0.0000000000E+00   0.0000000000E+00   0.1579621477E-02  -0.7895631942E-03  -0.9035149325E-03  -0.3385964071E-03   0.0000000000E+00   0.0000000000E+00   0.1763098308E+00
   0.9660489253E-01   0.1275364266E+00   0.3808635514E-04  -0.1938222648E-04   0.1904317757E-03  -0.9691113238E-04   0.1945644828E+00  -0.2509562289E-01   0.0000000000E+00  -0.1808418280E-02   0.0000000000E+00   0.0000000000E+00   0.2020931696E-02  -0.8346496772E-03  -0.4701887529E-04  -0.5084065796E-03   0.0000000000E+00   0.0000000000E+00   0.2078606195E+00
   0.2509920022E+00   0.1600627912E+00   0.7606587216E-04  -0.5538131684E-05   0.3803293608E-03  -0.2769065842E-04   0.1490122306E+00   0.3572327138E-03   0.0000000000E+00  -0.1096114635E-01   0.0000000000E+00   0.0000000000E+00   0.1489050608E-02  -0.4434643647E-03  -0.2849898051E-03  -0.4481083899E-03   0.0000000000E+00   0.0000000000E+00   0.1500364868E+00
   0.2598384709E+00   0.1275163369E+00   0.8086514634E-04  -0.3137843849E-05   0.4043257317E-03  -0.1568921925E-04   0.1322461736E+00   0.5296921996E-02   0.0000000000E+00  -0.1346631950E-01   0.0000000000E+00   0.0000000000E+00   0.1306570970E-02  -0.3437693009E-03  -0.3501243071E-03  -0.4126292868E-03   0.0000000000E+00   0.0000000000E+00   0.1317529803E+00
   0.1965316485E+00   0.1839779519E+00   0.5908974905E-04  -0.1104835360E-04   0.2954487452E-03  -0.5524176800E-04   0.1684317864E+00  -0.6718228555E-02   0.0000000000E+00  -0.5462953371E-02   0.0000000000E+00   0.0000000000E+00   0.1704472550E-02  -0.5724776448E-03  -0.1420367876E-03  -0.4851406736E-03   0.0000000000E+00   0.0000000000E+00   0.1721449161E+00
   0.2587613825E+00   0.1414805691E+00   0.7947391394E-04  -0.4022652311E-05   0.3973695697E-03  -0.2011326155E-04   0.1413477805E+00   0.4646209722E-02   0.0000000000E+00  -0.1197824622E-01   0.0000000000E+00   0.0000000000E+00   0.1399539176E-02  -0.3775812444E-03  -0.3114344016E-03  -0.4379819707E-03   0.0000000000E+00   0.0000000000E+00   0.1406053016E+00
   0.2464056221E+00   0.1446148792E+00   0.7631718782E-04  -0.4618627031E-05   0.3815859391E-03  -0.2309313515E-04   0.1419816619E+00   0.1410739335E-02   0.0000000000E+00  -0.1301055993E-01   0.0000000000E+00   0.0000000000E+00   0.1415584401E-02  -0.4118375925E-03  -0.3382745583E-03  -0.4301772038E-03   0.0000000000E+00   0.0000000000E+00   0.1430566148E+00
   0.1920414004E+00   0.1589351045E+00   0.6095122556E-04  -0.9076585807E-05   0.3047561278E-03  -0.4538292904E-04   0.1594056613E+00  -0.9260205362E-02   0.0000000000E+00  -0.1015660004E-01   0.0000000000E+00   0.0000000000E+00   0.1621837229E-02  -0.5708190375E-03  -0.2640716010E-03  -0.4504363678E-03   0.0000000000E+00   0.0000000000E+00   0.1651692435E+00
   0.1948677987E+00   0.1697310619E+00   0.6035111570E-04  -0.9840353973E-05   0.3017555785E-03  -0.4920176986E-04   0.1631380491E+00  -0.8764798727E-02   0.0000000000E+00  -0.7999217565E-02   0.0000000000E+00   0.0000000000E+00   0.1657674887E-02  -0.5770621345E-03  -0.2079796567E-03  -0.4631197510E-03   0.0000000000E+00   0.0000000000E+00   0.1682629171E+00
   0.1801211768E+00   0.1552370965E+00   0.5820280580E-04  -0.9829255749E-05   0.2910140290E-03  -0.4914627875E-04   0.1623481457E+00  -0.1295786588E-01   0.0000000000E+00  -0.9288322666E-02   0.0000000000E+00   0.0000000000E+00   0.1662355054E-02  -0.6166230958E-03  -0.2414963893E-03  -0.4481708393E-03   0.0000000000E+00   0.0000000000E+00   0.1699058162E+00
   0.1011922962E+00   0.1484403145E+00   0.3539036379E-04  -0.2119724464E-04   0.1769518189E-03  -0.1059862232E-03   0.1921167218E+00  -0.2030003731E-01   0.0000000000E+00   0.8665164920E-02   0.0000000000E+00   0.0000000000E+00   0.1982067330E-02  -0.7793505385E-03   0.2252942879E-03  -0.5154500534E-03   0.0000000000E+00   0.0000000000E+00   0.2035414836E+00
   0.2008335348E+00   0.7796888938E-01   0.7489662991E-04  -0.1935669970E-05   0.3744831495E-03  -0.9678349850E-05   0.1018013472E+00  -0.1470787156E-02   0.0000000000E+00  -0.2725438186E-01   0.0000000000E+00   0.0000000000E+00   0.1022425834E-02  -0.3201119132E-03  -0.7086139284E-03  -0.3009916802E-03   0.0000000000E+00   0.0000000000E+00   0.1128305542E+00
   0.2117802674E+00   0.1146473032E+00   0.7183140705E-04  -0.3910799307E-05   0.3591570353E-03  -0.1955399653E-04   0.1297548863E+00  -0.4562598610E-02   0.0000000000E+00  -0.2084986612E-01   0.0000000000E+00   0.0000000000E+00   0.1311236659E-02  -0.4348906450E-03  -0.5420965192E-03  -0.3755768631E-03   0.0000000000E+00   0.0000000000E+00   0.1369000725E+00
   0.2070174264E+00   0.9687815284E-01   0.7329955840E-04  -0.2873977121E-05   0.3664977920E-03  -0.1436988561E-04   0.1175139696E+00  -0.3890423237E-02   0.0000000000E+00  -0.2459543221E-01   0.0000000000E+00   0.0000000000E+00   0.1186810966E-02  -0.3914461411E-03  -0.6394812375E-03  -0.3408706390E-03   0.0000000000E+00   0.0000000000E+00   0.1268043905E+00
   0.9017902587E-01   0.1038927521E+00   0.4279981241E-04  -0.1763415735E-04   0.2139990621E-03  -0.8817078676E-04   0.1873758004E+00  -0.2389752873E-01   0.0000000000E+00  -0.2159980426E-01   0.0000000000E+00   0.0000000000E+00   0.1945450590E-02  -0.8011026885E-03  -0.5615949107E-03  -0.4904348150E-03   0.0000000000E+00   0.0000000000E+00   0.2024012583E+00
   0.1248309453E+00   0.8334022001E-01   0.5919088245E-04  -0.7828097979E-05   0.2959544123E-03  -0.3914048989E-04   0.1210258582E+00  -0.3699887797E-01   0.0000000000E+00  -0.3905608124E-01   0.0000000000E+00   0.0000000000E+00   0.1321255216E-02  -0.7330663543E-03  -0.1015458112E-02  -0.2520809406E-03   0.0000000000E+00   0.0000000000E+00   0.1580806789E+00
   0.1090257739E+00   0.1151021725E+00   0.4524565173E-04  -0.1491224784E-04   0.2262282586E-03  -0.7456123922E-04   0.1761987141E+00  -0.3227777392E-01   0.0000000000E+00  -0.1654075586E-01   0.0000000000E+00   0.0000000000E+00   0.1858820463E-02  -0.8513738817E-03  -0.4300596524E-03  -0.4317628207E-03   0.0000000000E+00   0.0000000000E+00   0.1966374336E+00
   0.2442809757E+00   0.1279681335E+00   0.7742095390E-04  -0.3593412316E-05   0.3871047695E-03  -0.1796706158E-04   0.1330211567E+00   0.2199499828E-02   0.0000000000E+00  -0.1548560314E-01   0.0000000000E+00   0.0000000000E+00   0.1323613068E-02  -0.3770684718E-03  -0.4026256817E-03  -0.4056619696E-03   0.0000000000E+00   0.0000000000E+00   0.1346075818E+00
   0.1992679694E+00   0.1516948060E+00   0.6381939550E-04  -0.7797992278E-05   0.3190969775E-03  -0.3898996139E-04   0.1545056615E+00  -0.9536013992E-02   0.0000000000E+00  -0.1243743144E-01   0.0000000000E+00   0.0000000000E+00   0.1573664657E-02  -0.5588771244E-03  -0.3233732173E-03  -0.4349089425E-03   0.0000000000E+00   0.0000000000E+00   0.1609185255E+00
   0.2057686257E+00   0.1443957986E+00   0.6645845401E-04  -0.6663239211E-05   0.3322922701E-03  -0.3331619605E-04   0.1495034318E+00  -0.8665915058E-02   0.0000000000E+00  -0.1468023489E-01   0.0000000000E+00   0.0000000000E+00   0.1521032063E-02  -0.5351694460E-03  -0.3816861071E-03  -0.4225125503E-03   0.0000000000E+00   0.0000000000E+00   0.1561063464E+00
   0.1928114994E+00   0.1007980370E+00   0.6981123402E-04  -0.3763169639E-05   0.3490561701E-03  -0.1881584820E-04   0.1228967381E+00  -0.9566872540E-02   0.0000000000E+00  -0.2581663585E-01   0.0000000000E+00   0.0000000000E+00   0.1257667999E-02  -0.4643589398E-03  -0.6712325321E-03  -0.3399895968E-03   0.0000000000E+00   0.0000000000E+00   0.1354370985E+00
   0.1420099076E+00   0.1241494376E+00   0.5294025939E-04  -0.1069839679E-04   0.2647012969E-03  -0.5349198396E-04   0.1614075505E+00  -0.2855304260E-01   0.0000000000E+00  -0.1706414125E-01   0.0000000000E+00   0.0000000000E+00   0.1699734632E-02  -0.7697530774E-03  -0.4436676725E-03  -0.3985635235E-03   0.0000000000E+00   0.0000000000E+00   0.1798099949E+00
   0.1462074129E+00   0.1118375666E+00   0.5678682019E-04  -0.8610229288E-05   0.2839341010E-03  -0.4305114644E-04   0.1496549186E+00  -0.2893269279E-01   0.0000000000E+00  -0.2458907290E-01   0.0000000000E+00   0.0000000000E+00   0.1583347265E-02  -0.7382916838E-03  -0.6393158955E-03  -0.3621666776E-03   0.0000000000E+00   0.0000000000E+00   0.1713191014E+00
   0.1589541436E+00   0.1176215561E+00   0.5888443231E-04  -0.7893810055E-05   0.2944221616E-03  -0.3946905028E-04   0.1482332720E+00  -0.2410141872E-01   0.0000000000E+00  -0.2254337985E-01   0.0000000000E+00   0.0000000000E+00   0.1554636976E-02  -0.6857140031E-03  -0.5861278761E-03  -0.3723955598E-03   0.0000000000E+00   0.0000000000E+00   0.1663196553E+00
   0.1544245180E+00   0.1313174092E+00   0.5500750060E-04  -0.1000329274E-04   0.2750375030E-03  -0.5001646370E-04   0.1585702857E+00  -0.2506190595E-01   0.0000000000E+00  -0.1627091913E-01   0.0000000000E+00   0.0000000000E+00   0.1660888575E-02  -0.7263299167E-03  -0.4230438973E-03  -0.4005251393E-03   0.0000000000E+00   0.0000000000E+00   0.1745247962E+00
   0.1640904867E+00   0.1519122694E+00   0.5421078151E-04  -0.1122844072E-04   0.2710539075E-03  -0.5614220362E-04   0.1657102813E+00  -0.1697626904E-01   0.0000000000E+00  -0.8172525749E-02   0.0000000000E+00   0.0000000000E+00   0.1708031620E-02  -0.6668935342E-03  -0.2124856695E-03  -0.4462020367E-03   0.0000000000E+00   0.0000000000E+00   0.1753061364E+00
   0.1116193002E+00   0.1548287591E+00   0.3776936647E-04  -0.1991498946E-04   0.1888468323E-03  -0.9957494730E-04   0.1894491063E+00  -0.1853747222E-01   0.0000000000E+00   0.9105738255E-02   0.0000000000E+00   0.0000000000E+00   0.1950103480E-02  -0.7537220410E-03   0.2367491946E-03  -0.5127349022E-03   0.0000000000E+00   0.0000000000E+00   0.1998664831E+00
   0.1375560106E+00   0.1346675112E+00   0.4950559298E-04  -0.1272879222E-04   0.2475279649E-03  -0.6364396112E-04   0.1756217731E+00  -0.2578396591E-01   0.0000000000E+00  -0.9314549401E-02   0.0000000000E+00   0.0000000000E+00   0.1833569629E-02  -0.7847049785E-03  -0.2421782844E-03  -0.4495134216E-03   0.0000000000E+00   0.0000000000E+00   0.1903587002E+00
   0.1808903839E+00   0.1056254068E+00   0.6640497960E-04  -0.4852702834E-05   0.3320248980E-03  -0.2426351417E-04   0.1287325798E+00  -0.1598008831E-01   0.0000000000E+00  -0.2692954658E-01   0.0000000000E+00   0.0000000000E+00   0.1335266063E-02  -0.5459986224E-03  -0.7001682112E-03  -0.3382574745E-03   0.0000000000E+00   0.0000000000E+00   0.1450779613E+00
   0.1513352494E+00   0.9999669407E-01   0.6078356384E-04  -0.6651988134E-05   0.3039178192E-03  -0.3325994067E-04   0.1332483293E+00  -0.2677344250E-01   0.0000000000E+00  -0.3040930460E-01   0.0000000000E+00   0.0000000000E+00   0.1412803620E-02  -0.6674794128E-03  -0.7906419197E-03  -0.3194246602E-03   0.0000000000E+00   0.0000000000E+00   0.1574172842E+00
   0.1384590715E+00   0.9235452070E-01   0.5966424814E-04  -0.7155116440E-05   0.2983212407E-03  -0.3577558220E-04   0.1308862621E+00  -0.3234967662E-01   0.0000000000E+00  -0.3490043906E-01   0.0000000000E+00   0.0000000000E+00   0.1405911651E-02  -0.7161555525E-03  -0.9074114155E-03  -0.2956097565E-03   0.0000000000E+00   0.0000000000E+00   0.1612635869E+00
   0.1561451240E+00   0.9051457158E-01   0.6406733224E-04  -0.5232603893E-05   0.3203366612E-03  -0.2616301946E-04   0.1193140622E+00  -0.2684255624E-01   0.0000000000E+00  -0.3631379201E-01   0.0000000000E+00   0.0000000000E+00   0.1273668291E-02  -0.6263677491E-03  -0.9441585923E-03  -0.2774145179E-03   0.0000000000E+00   0.0000000000E+00   0.1484758920E+00
   0.1275566099E+00   0.1184977624E+00   0.5003848720E-04  -0.1209293461E-04   0.2501924360E-03  -0.6046467304E-04   0.1690036290E+00  -0.3229131031E-01   0.0000000000E+00  -0.1777946889E-01   0.0000000000E+00   0.0000000000E+00   0.1786910221E-02  -0.8299239900E-03  -0.4622661912E-03  -0.4101369560E-03   0.0000000000E+00   0.0000000000E+00   0.1896124128E+00
   0.1262175070E+00   0.1330511489E+00   0.4634883648E-04  -0.1433385244E-04   0.2317441824E-03  -0.7166926222E-04   0.1752903422E+00  -0.2864806405E-01   0.0000000000E+00  -0.8636041923E-02   0.0000000000E+00   0.0000000000E+00   0.1838847614E-02  -0.8123516672E-03  -0.2245370900E-03  -0.4399268345E-03   0.0000000000E+00   0.0000000000E+00   0.1918307095E+00
   0.1146992394E+00   0.1296220521E+00   0.4351673439E-04  -0.1593264869E-04   0.2175836720E-03  -0.7966324343E-04   0.1792002382E+00  -0.3211357544E-01   0.0000000000E+00  -0.7838933236E-02   0.0000000000E+00   0.0000000000E+00   0.1888343109E-02  -0.8587364691E-03  -0.2038122641E-03  -0.4412599884E-03   0.0000000000E+00   0.0000000000E+00   0.1974368168E+00
   0.2294195343E+00   0.1294653606E+00   0.7393788436E-04  -0.4221227291E-05   0.3696894218E-03  -0.2110613646E-04   0.1360458658E+00  -0.1152722849E-02   0.0000000000E+00  -0.1659105735E-01   0.0000000000E+00   0.0000000000E+00   0.1363916826E-02  -0.4196648258E-03  -0.4313674910E-03  -0.4046794287E-03   0.0000000000E+00   0.0000000000E+00   0.1395916262E+00
   0.2015320293E+00   0.1332016830E+00   0.6692488986E-04  -0.5943996719E-05   0.3346244493E-03  -0.2971998360E-04   0.1444806977E+00  -0.8539317883E-02   0.0000000000E+00  -0.1716449616E-01   0.0000000000E+00   0.0000000000E+00   0.1470424930E-02  -0.5188352718E-03  -0.4462769000E-03  -0.4078241394E-03   0.0000000000E+00   0.0000000000E+00   0.1518482261E+00
   0.1979266456E+00   0.1180801860E+00   0.6824325849E-04  -0.4880998103E-05   0.3412162924E-03  -0.2440499051E-04   0.1354590722E+00  -0.9461658566E-02   0.0000000000E+00  -0.2127911442E-01   0.0000000000E+00   0.0000000000E+00   0.1382975698E-02  -0.5009938023E-03  -0.5532569750E-03  -0.3779922410E-03   0.0000000000E+00   0.0000000000E+00   0.1451562876E+00
   0.2153291823E+00   0.1311286239E+00   0.7048954508E-04  -0.4989522399E-05   0.3524477254E-03  -0.2494761199E-04   0.1391068000E+00  -0.5074993653E-02   0.0000000000E+00  -0.1738430519E-01   0.0000000000E+00   0.0000000000E+00   0.1406292980E-02  -0.4680703364E-03  -0.4519919348E-03  -0.4020954189E-03   0.0000000000E+00   0.0000000000E+00   0.1448591684E+00
   0.1088287643E+00   0.1384048969E+00   0.3977187697E-04  -0.1828517711E-04   0.1988593849E-03  -0.9142588553E-04   0.1887309866E+00  -0.2617640762E-01   0.0000000000E+00  -0.4527765765E-04   0.0000000000E+00   0.0000000000E+00   0.1965839088E-02  -0.8279570359E-03  -0.1177219099E-05  -0.4876637368E-03   0.0000000000E+00   0.0000000000E+00   0.2029851349E+00
   0.1690896307E+00   0.1364402123E+00   0.5810460941E-04  -0.8946446447E-05   0.2905230471E-03  -0.4473223224E-04   0.1563942413E+00  -0.1987835982E-01   0.0000000000E+00  -0.1514696745E-01   0.0000000000E+00   0.0000000000E+00   0.1623577493E-02  -0.6679663221E-03  -0.3938211537E-03  -0.4095476445E-03   0.0000000000E+00   0.0000000000E+00   0.1692126972E+00
   0.1866695971E+00   0.1395801016E+00   0.6225350949E-04  -0.7626728085E-05   0.3112675474E-03  -0.3813364042E-04   0.1516964389E+00  -0.1370356602E-01   0.0000000000E+00  -0.1535852927E-01   0.0000000000E+00   0.0000000000E+00   0.1558075087E-02  -0.5921249768E-03  -0.3993217611E-03  -0.4139786186E-03   0.0000000000E+00   0.0000000000E+00   0.1611635827E+00
   0.1630171131E+00   0.1046686562E+00   0.6254585496E-04  -0.6089298274E-05   0.3127292748E-03  -0.3044649137E-04   0.1373236298E+00  -0.2129637040E-01   0.0000000000E+00  -0.2685324067E-01   0.0000000000E+00   0.0000000000E+00   0.1437125409E-02  -0.6249345934E-03  -0.6981842575E-03  -0.3480817783E-03   0.0000000000E+00   0.0000000000E+00   0.1559867181E+00
   0.1847684734E+00   0.1214295662E+00   0.6461223077E-04  -0.6043136972E-05   0.3230611538E-03  -0.3021568486E-04   0.1410448786E+00  -0.1401100797E-01   0.0000000000E+00  -0.2076683172E-01   0.0000000000E+00   0.0000000000E+00   0.1452481809E-02  -0.5632447154E-03  -0.5399376247E-03  -0.3811016117E-03   0.0000000000E+00   0.0000000000E+00   0.1527443566E+00
   0.1719124036E+00   0.1217707088E+00   0.6140044005E-04  -0.7100531978E-05   0.3070022002E-03  -0.3550265989E-04   0.1450620534E+00  -0.1938574857E-01   0.0000000000E+00  -0.2105862337E-01   0.0000000000E+00   0.0000000000E+00   0.1508777780E-02  -0.6290436459E-03  -0.5475242076E-03  -0.3770289145E-03   0.0000000000E+00   0.0000000000E+00   0.1598115865E+00
   0.1159231019E+00   0.9807731157E-01   0.5230348274E-04  -0.1122687084E-04   0.2615174137E-03  -0.5613435420E-04   0.1503217156E+00  -0.3723000310E-01   0.0000000000E+00  -0.3078323411E-01   0.0000000000E+00   0.0000000000E+00   0.1614907165E-02  -0.8232651777E-03  -0.8003640870E-03  -0.3392751374E-03   0.0000000000E+00   0.0000000000E+00   0.1799310476E+00
   0.1317467383E+00   0.1052570216E+00   0.5453072436E-04  -0.9651905363E-05   0.2726536218E-03  -0.4825952681E-04   0.1518930509E+00  -0.3379555360E-01   0.0000000000E+00  -0.2702196146E-01   0.0000000000E+00   0.0000000000E+00   0.1620317170E-02  -0.7936346886E-03  -0.7025709981E-03  -0.3542924919E-03   0.0000000000E+00   0.0000000000E+00   0.1773023050E+00
   0.1722274156E+00   0.1103066864E+00   0.6358627006E-04  -0.5918427881E-05   0.3179313503E-03  -0.2959213940E-04   0.1328042737E+00  -0.1958931462E-01   0.0000000000E+00  -0.2587706102E-01   0.0000000000E+00   0.0000000000E+00   0.1386810681E-02  -0.5943059672E-03  -0.6728035865E-03  -0.3396448772E-03   0.0000000000E+00   0.0000000000E+00   0.1504089924E+00
           1           2           3           4
           5           6           7           8
           9          10          11          12
          13          14          15          16
          17          18          19          20
          21          22          23          24
          25          26          27          28
          29          30          31          32
          33          34           4           3
           2           1          35          36
          37          38          39          40
          41          42          36          35
          43          41          44          45
          46           9          47          48
          41          35          39          44
          49          50          51          52
          52          51          53          54
          55          56          57          58
          56          59          60          57
          61          62          63          64
          65          66          67          68
          69          70          71          72
          73          74          25          28
          27          75          76          28
          77          78          24          23
          79          80          81          82
          83          84          85          86
          87          88          89          90
          90          89          62          91
          61          92          91          62
          92          61          59          93
          56          94          93          59
          95          55          54          53
          46          96          10           9
          97          98          99         100
          12         101          98          97
          97         100         102          47
         103         104          31          30
         105         103          30         106
          73         107         108         109
         110         111         112         113
          32          31         114         115
         116         117         118         119
         120         121         122         123
         121          83          86         122
          80         124         125          81
         126         127         128         129
         130         101          12          11
         131          43         101         130
          34         129         132           4
          42          41          43         131
          35           1          40          39
         101          43          45          98
         133         134         109         108
         135         136          13          16
         137         138          65          68
          94          56          55          95
          58         137          54          55
          49          52          68          67
         139         140         141         142
         140         139          82          81
          88          87         142         141
         143         144         145         146
         147          26          25         148
         149         150         128         151
           5           8         152         102
         132         129         128         150
         153         100          99         154
          48          47         102         152
          59          61          64          60
         106         155         113         118
          62          89         156          63
          88         157         156          89
         123         116         119         120
          66          65         134         133
         144         143          84          83
           9          12          97          47
         104         158         114          31
         159         160         127         126
         119         112         161         120
         117         105         106         118
         162         163         164         165
          83         121         166         144
         167         168         141         140
         167         143         146         168
           6         114         158           7
          38          37         169         170
          40         132         150          37
         160         159          20          19
          78         171         172          24
          18          17          21          24
         173         174          78          77
         132          40           1           4
          28          76         107          73
         175         176         177         178
         176         179          57          60
         137          68          52          54
          60          64         177         176
         163         162         155          29
          75          27         174         173
         180         174          27          26
          64          63         181         177
          98          45         182          99
         183         182          45          44
          38         183          44          39
          58          57         179         184
         185         181          63         156
         134         186         187         109
         188          74         187         189
         138         186         134          65
          88         141         168         157
         166         121         120         161
         190         191         166         161
         155         106          30          29
         192         193         194         195
         118         113         112         119
         125          84         143         167
         124          85          84         125
           6         196         115         114
         196           6           5         153
         197          32         115         198
         111         190         161         112
         199         148         188         135
         170         169         200         201
         202         164         163         197
         203         204         146         145
         205         206         201         200
         187          74          73         109
         176         175         207         179
         208         209          16          15
         210         186         138         184
         184         138         137          58
         179         207         210         184
         211         212         172         171
          78         174         180         171
         125         167         140          81
          37         150         149         169
         213         214         215         216
         217         182         183         201
         170         201         183          38
         218         219         206         205
         111         220         221         190
         157         168         146         204
         177         181         222         178
         222         181         185         223
         186         210         189         187
         224         191         190         221
         100         153           5         102
         185         156         157         204
         113         155         162         110
          26         147         193         180
          29          32         197         163
         225         226          19          18
         144         166         191         145
         212         192         227         228
         198         115         196         229
         206         154         217         201
         153         154         229         196
         172         225          18          24
         148          25          74         188
          14          13         175         178
         207         175          13         136
         189         136         135         188
         230         202         197         198
         210         207         136         189
         165         164         231         232
         169         149         233         200
         234         160          19         226
         217         154          99         182
         203         145         191         224
         151         235         233         149
         236         223         203         224
         185         204         203         223
         178         222         237          14
         110         162         165         238
         239         223         236         240
         238         220         111         110
         219         230         198         229
         241         242         232         243
         242          69         220         238
          72          71         240         236
         244         205         200         233
         215         231         164         202
         211         171         180         193
         228         225         172         212
         194         193         147         245
         245         147         148         199
         135          16         209         199
         209         208         246         247
         127         160         234         248
         193         192         212         211
         226         225         228         249
         151         128         127         248
         248         250         235         151
          72         221         220          69
          14         237         251          15
          70          69         252         253
         206         219         229         154
         238         165         232         242
          72         236         224         221
         216         215         202         230
         245         247         254         194
         255         256         257         258
         230         219         218         216
         214         259         231         215
         216         218         260         213
         261         255         258         214
         239         237         222         223
         194         254         262         195
         263         264         227         265
         250         266         267         268
         199         209         247         245
         240          71         269         251
         270         271         246         272
         260         244         273         213
         237         239         240         251
         218         205         244         260
          70         272         269          71
         232         231         259         243
         274         275         243         259
         257         256         263         276
         277         275         274         278
         234         226         249         279
         271         277         262         254
         271         254         247         246
         246         208         269         272
         244         233         235         273
         251         269         208          15
         275         270         253         252
         234         279         250         248
         279         249         264         280
         259         214         258         274
         262         281         276         195
         195         276         263         265
         257         276         281         278
         278         274         258         257
         266         280         256         255
         261         214         213         267
         267         266         255         261
         266         250         279         280
         228         227         264         249
         256         280         264         263
         265         227         192         195
         281         262         277         278
         235         250         268         273
         273         268         267         213
         277         271         270         275
         253         270         272          70
         252          69         242         241
         243         275         252         241
 VARIABLES = X,Y,DU1,DU2,U1,U2,S11,S22,S33,S12,S13,S23,E11,E22,E12,E33,E13,E23,SMISES
 ZONE, T="0.7000D+01" F=FEPOINT, I=  281 J=  250
   0.1780523261E-01   0.1339838723E+00   0.7173700808E-05  -0.3627480944E-04   0.4304220485E-04  -0.2176488567E-03   0.3008679139E+00   0.5664167601E-01   0.0000000000E+00   0.4490168192E-02   0.0000000000E+00   0.0000000000E+00   0.2838754111E-02  -0.3361869816E-03   0.1167443730E-03  -0.1072528770E-02   0.0000000000E+00   0.0000000000E+00   0.2755274440E+00
   0.0000000000E+00   0.1330734696E+00   0.0000000000E+00  -0.3712433844E-04   0.0000000000E+00  -0.2227460307E-03   0.3035505198E+00   0.6040559176E-01   0.0000000000E+00   0.8510207510E-02   0.0000000000E+00   0.0000000000E+00   0.2854288423E-02  -0.3065956418E-03   0.2212653953E-03  -0.1091868335E-02   0.0000000000E+00   0.0000000000E+00   0.2783111682E+00
   0.0000000000E+00   0.1164148314E+00   0.0000000000E+00  -0.3597650796E-04   0.0000000000E+00  -0.2158590478E-03   0.3860982595E+00   0.3173967637E-01   0.0000000000E+00   0.7325519757E-02   0.0000000000E+00   0.0000000000E+00   0.3765763566E-02  -0.8408980147E-03   0.1904635137E-03  -0.1253513807E-02   0.0000000000E+00   0.0000000000E+00   0.3711716252E+00
   0.1922418643E-01   0.1160465541E+00   0.1000706109E-04  -0.3494770620E-04   0.6004236653E-04  -0.2096862372E-03   0.3538149996E+00   0.3132364823E-01   0.0000000000E+00  -0.3151783152E-01   0.0000000000E+00   0.0000000000E+00   0.3444179052E-02  -0.7482085166E-03  -0.8194636194E-03  -0.1155415944E-02   0.0000000000E+00   0.0000000000E+00   0.3455880500E+00
   0.7813111165E-01   0.2316372680E+00   0.1851606492E-04  -0.3416214462E-04   0.1110963895E-03  -0.2049728677E-03   0.1851502446E+00  -0.5894380102E-04   0.0000000000E+00   0.1275257189E-01   0.0000000000E+00   0.0000000000E+00   0.1851679278E-02  -0.5560401719E-03   0.3315668691E-03  -0.5552739025E-03   0.0000000000E+00   0.0000000000E+00   0.1865804919E+00
   0.9794514656E-01   0.2318409859E+00   0.2387809382E-04  -0.3061086520E-04   0.1432685629E-03  -0.1836651912E-03   0.1958120810E+00  -0.9709265904E-03   0.0000000000E+00   0.1161766558E-01   0.0000000000E+00   0.0000000000E+00   0.1961033590E-02  -0.5971455090E-03   0.3020593051E-03  -0.5845234634E-03   0.0000000000E+00   0.0000000000E+00   0.1973955026E+00
   0.9736879690E-01   0.2497745057E+00   0.2093899991E-04  -0.3221346831E-04   0.1256339995E-03  -0.1932808099E-03   0.1911731271E+00  -0.6940546198E-03   0.0000000000E+00   0.4098588692E-02   0.0000000000E+00   0.0000000000E+00   0.1913813435E-02  -0.5804599276E-03   0.1065633060E-03  -0.5714372175E-03   0.0000000000E+00   0.0000000000E+00   0.1914835929E+00
   0.7788886053E-01   0.2497508398E+00   0.1586856091E-04  -0.3559431363E-04   0.9521136546E-04  -0.2135658818E-03   0.1731908971E+00  -0.1075862827E-02   0.0000000000E+00   0.4535288807E-02   0.0000000000E+00   0.0000000000E+00   0.1735136560E-02  -0.5303313197E-03   0.1179175090E-03  -0.5163451029E-03   0.0000000000E+00   0.0000000000E+00   0.1737182874E+00
   0.1912755087E-01   0.2330309055E+00   0.4194324500E-05  -0.4170336085E-04   0.2516594700E-04  -0.2502201651E-03   0.1565026849E+00   0.3738263529E-02   0.0000000000E+00   0.3571185774E-02   0.0000000000E+00   0.0000000000E+00   0.1553812058E-02  -0.4321254193E-03   0.9285083012E-04  -0.4807228452E-03   0.0000000000E+00   0.0000000000E+00   0.1550445292E+00
   0.0000000000E+00   0.2330375611E+00   0.0000000000E+00  -0.4225327452E-04   0.0000000000E+00  -0.2535196471E-03   0.1539660891E+00   0.3996074576E-02   0.0000000000E+00   0.4513576464E-02   0.0000000000E+00   0.0000000000E+00   0.1527672667E-02  -0.4219375215E-03   0.1173529881E-03  -0.4738864910E-03   0.0000000000E+00   0.0000000000E+00   0.1521522477E+00
   0.0000000000E+00   0.2163782021E+00   0.0000000000E+00  -0.4120955512E-04   0.0000000000E+00  -0.2472573307E-03   0.1755324233E+00   0.9003408618E-02   0.0000000000E+00   0.4576146981E-02   0.0000000000E+00   0.0000000000E+00   0.1728314007E-02  -0.4365631838E-03   0.1189798215E-03  -0.5536074958E-03   0.0000000000E+00   0.0000000000E+00   0.1712866177E+00
   0.1856445488E-01   0.2164898818E+00   0.4594296533E-05  -0.4067589180E-04   0.2756577920E-04  -0.2440553508E-03   0.1772376661E+00   0.8270824381E-02   0.0000000000E+00   0.7166911655E-02   0.0000000000E+00   0.0000000000E+00   0.1747564188E-02  -0.4490047544E-03   0.1863397030E-03  -0.5565254714E-03   0.0000000000E+00   0.0000000000E+00   0.1739205238E+00
   0.2577887758E+00   0.9226390592E-01   0.8332712020E-04  -0.1480726220E-05   0.4999627212E-03  -0.8884357318E-05   0.1304774062E+00   0.1224232813E-01   0.0000000000E+00  -0.1783767508E-01   0.0000000000E+00   0.0000000000E+00   0.1268047077E-02  -0.2690089372E-03  -0.4637795522E-03  -0.4281592030E-03   0.0000000000E+00   0.0000000000E+00   0.1285424016E+00
   0.2591761997E+00   0.1102702438E+00   0.8213167433E-04  -0.2240886236E-05   0.4927900460E-03  -0.1344531742E-04   0.1425004695E+00   0.9030520640E-02   0.0000000000E+00  -0.1714104913E-01   0.0000000000E+00   0.0000000000E+00   0.1397913133E-02  -0.3371962020E-03  -0.4456672774E-03  -0.4545929704E-03   0.0000000000E+00   0.0000000000E+00   0.1413300928E+00
   0.2424065898E+00   0.1106582908E+00   0.7872254551E-04  -0.2625452180E-05   0.4723352731E-03  -0.1575271308E-04   0.1439446319E+00   0.4832297545E-02   0.0000000000E+00  -0.2018701609E-01   0.0000000000E+00   0.0000000000E+00   0.1424949426E-02  -0.3835109202E-03  -0.5248624184E-03  -0.4463307883E-03   0.0000000000E+00   0.0000000000E+00   0.1458148984E+00
   0.2399404254E+00   0.9266886258E-01   0.8004134111E-04  -0.1779416926E-05   0.4802480467E-03  -0.1067650156E-04   0.1308744767E+00   0.7846776259E-02   0.0000000000E+00  -0.2171310580E-01   0.0000000000E+00   0.0000000000E+00   0.1285204438E-02  -0.3141556674E-03  -0.5645407507E-03  -0.4161637588E-03   0.0000000000E+00   0.0000000000E+00   0.1325367138E+00
   0.9288616024E-01   0.3819307074E-01   0.7117262020E-04  -0.1075312325E-04   0.4270357212E-03  -0.6451873949E-04  -0.1635048610E-01  -0.1097969935E+00   0.0000000000E+00   0.1699715570E-01   0.0000000000E+00   0.0000000000E+00   0.1658861196E-03  -0.1048918477E-02   0.4419260483E-03   0.3784424388E-03   0.0000000000E+00   0.0000000000E+00   0.9797243300E-01
   0.1085331335E+00   0.4605145277E-01   0.6946764023E-04  -0.6726961335E-05   0.4168058414E-03  -0.4036176801E-04   0.3528473058E-01  -0.4886817120E-01   0.0000000000E+00  -0.2352166727E-01   0.0000000000E+00   0.0000000000E+00   0.4994518194E-03  -0.5945359037E-03  -0.6115633491E-03   0.4075032185E-04   0.0000000000E+00   0.0000000000E+00   0.7741421534E-01
   0.9654196601E-01   0.6346130035E-01   0.6155280127E-04  -0.1155633551E-04   0.3693168076E-03  -0.6933801307E-04   0.7307036667E-01  -0.2874448001E-01   0.0000000000E+00  -0.3525399127E-01   0.0000000000E+00   0.0000000000E+00   0.8169371067E-03  -0.5066559001E-03  -0.9166037730E-03  -0.1329776600E-03   0.0000000000E+00   0.0000000000E+00   0.1095623027E+00
   0.8359770938E-01   0.5544338927E-01   0.6439283980E-04  -0.1623348976E-04   0.3863570388E-03  -0.9740093854E-04   0.2120101519E-01  -0.2418266954E-01   0.0000000000E+00  -0.1084373991E-01   0.0000000000E+00   0.0000000000E+00   0.2845581605E-03  -0.3054297409E-03  -0.2819372376E-03   0.8944963038E-05   0.0000000000E+00   0.0000000000E+00   0.4628904333E-01
   0.9860382279E-01   0.1947186132E-01   0.7504231292E-04  -0.5310154320E-05   0.4502538775E-03  -0.3186092592E-04  -0.1625279407E-01  -0.1753120476E+00   0.0000000000E+00   0.2372166126E-01   0.0000000000E+00   0.0000000000E+00   0.3634082020E-03  -0.1704362094E-02   0.6167631928E-03   0.5746945249E-03   0.0000000000E+00   0.0000000000E+00   0.1667421088E+00
   0.1005368253E+00   0.0000000000E+00   0.7668918340E-04   0.0000000000E+00   0.4601351004E-03   0.0000000000E+00  -0.2283917107E-01  -0.1883637738E+00   0.0000000000E+00  -0.1292145854E-01   0.0000000000E+00   0.0000000000E+00   0.3366996106E-03  -0.1815120224E-02  -0.3359579220E-03   0.6336088345E-03   0.0000000000E+00   0.0000000000E+00   0.1785460478E+00
   0.1213771781E+00   0.0000000000E+00   0.7769259034E-04   0.0000000000E+00   0.4661555421E-03   0.0000000000E+00  -0.1197600430E-03  -0.6475883912E-01   0.0000000000E+00  -0.1448082535E-01   0.0000000000E+00   0.0000000000E+00   0.1930789169E-03  -0.6472291111E-03  -0.3765014590E-03   0.1946357975E-03   0.0000000000E+00   0.0000000000E+00   0.6776760682E-01
   0.1222585341E+00   0.2609520294E-01   0.7538143686E-04  -0.2443679755E-05   0.4522886211E-03  -0.1466207853E-04   0.1649057659E-01  -0.6097892065E-01   0.0000000000E+00  -0.1537143628E-01   0.0000000000E+00   0.0000000000E+00   0.3478425279E-03  -0.6592609363E-03  -0.3996573434E-03   0.1334650322E-03   0.0000000000E+00   0.0000000000E+00   0.7896063792E-01
   0.2111109461E+00   0.3763051909E-01   0.8097243763E-04  -0.3876730188E-06   0.4858346258E-03  -0.2326038113E-05   0.8496514399E-01   0.1301371160E-01   0.0000000000E+00  -0.1976953379E-01   0.0000000000E+00   0.0000000000E+00   0.8106103051E-03  -0.1247583160E-03  -0.5140078785E-03  -0.2939365668E-03   0.0000000000E+00   0.0000000000E+00   0.8608552175E-01
   0.1910085899E+00   0.3837849445E-01   0.7866855081E-04  -0.5722780739E-06   0.4720113049E-03  -0.3433668444E-05   0.7666713221E-01   0.4989395801E-02   0.0000000000E+00  -0.2544855764E-01   0.0000000000E+00   0.0000000000E+00   0.7517031347E-03  -0.1801074386E-03  -0.6616624987E-03  -0.2449695840E-03   0.0000000000E+00   0.0000000000E+00   0.8600137167E-01
   0.1872674088E+00   0.1901127584E-01   0.7989382484E-04  -0.2349657289E-06   0.4793629491E-03  -0.1409794374E-05   0.6062921756E-01   0.7961363663E-02   0.0000000000E+00  -0.1242453464E-01   0.0000000000E+00   0.0000000000E+00   0.5824080846E-03  -0.1022740161E-03  -0.3230379006E-03  -0.2057717437E-03   0.0000000000E+00   0.0000000000E+00   0.6152201445E-01
   0.2078047646E+00   0.1873699962E-01   0.8178322220E-04  -0.1463252366E-06   0.4906993332E-03  -0.8779514198E-06   0.7383821235E-01   0.1513422812E-01   0.0000000000E+00  -0.9851786635E-02   0.0000000000E+00   0.0000000000E+00   0.6929794392E-03  -0.7017235583E-04  -0.2561464525E-03  -0.2669173214E-03   0.0000000000E+00   0.0000000000E+00   0.6990495025E-01
   0.1577294777E+00   0.2158254109E+00   0.4373295765E-04  -0.1886243751E-04   0.2623977459E-03  -0.1131746251E-03   0.2116936043E+00  -0.4652331898E-02   0.0000000000E+00   0.5588495264E-02   0.0000000000E+00   0.0000000000E+00   0.2130893039E-02  -0.6816041320E-03   0.1453008769E-03  -0.6211238173E-03   0.0000000000E+00   0.0000000000E+00   0.2142643877E+00
   0.1567417152E+00   0.2324612624E+00   0.4129203372E-04  -0.2060565788E-04   0.2477522023E-03  -0.1236339473E-03   0.2169512387E+00  -0.1961566232E-02   0.0000000000E+00   0.3493176939E-02   0.0000000000E+00   0.0000000000E+00   0.2175397085E-02  -0.6704693783E-03   0.9082260042E-04  -0.6449690173E-03   0.0000000000E+00   0.0000000000E+00   0.2180407826E+00
   0.1372264258E+00   0.2324644626E+00   0.3529354858E-04  -0.2366734658E-04   0.2117612915E-03  -0.1420040795E-03   0.2124364300E+00  -0.2029862273E-02   0.0000000000E+00   0.6253211816E-02   0.0000000000E+00   0.0000000000E+00   0.2130453887E-02  -0.6576079127E-03   0.1625835072E-03  -0.6312197031E-03   0.0000000000E+00   0.0000000000E+00   0.2137585991E+00
   0.1384805488E+00   0.2156597625E+00   0.3791982871E-04  -0.2185864502E-04   0.2275189723E-03  -0.1311518701E-03   0.2101240817E+00  -0.5175949894E-02   0.0000000000E+00   0.1034445776E-01   0.0000000000E+00   0.0000000000E+00   0.2116768667E-02  -0.6821317440E-03   0.2689559019E-03  -0.6148443954E-03   0.0000000000E+00   0.0000000000E+00   0.2134729166E+00
   0.0000000000E+00   0.9976759538E-01   0.0000000000E+00  -0.3320080307E-04   0.0000000000E+00  -0.1992048184E-03   0.5747534831E+00   0.3994807684E-01   0.0000000000E+00   0.8069627669E-02   0.0000000000E+00   0.0000000000E+00   0.5627690600E-02  -0.1324779681E-02   0.2098103194E-03  -0.1844104680E-02   0.0000000000E+00   0.0000000000E+00   0.5517632901E+00
   0.1961733923E-01   0.9785309615E-01   0.1547240370E-04  -0.3220434981E-04   0.9283442220E-04  -0.1932260988E-03   0.5321418561E+00   0.4002695677E-01   0.0000000000E+00  -0.7987994530E-01   0.0000000000E+00   0.0000000000E+00   0.5201337691E-02  -0.1196156001E-02  -0.2076878578E-02  -0.1716506439E-02   0.0000000000E+00   0.0000000000E+00   0.5271461289E+00
   0.1684002556E-01   0.1510764027E+00   0.5852394331E-05  -0.3718747266E-04   0.3511436598E-04  -0.2231248360E-03   0.2572620235E+00   0.4355850269E-01   0.0000000000E+00   0.7743605026E-02   0.0000000000E+00   0.0000000000E+00   0.2441944727E-02  -0.3362010435E-03   0.2013337307E-03  -0.9024615785E-03   0.0000000000E+00   0.0000000000E+00   0.2396578691E+00
   0.0000000000E+00   0.1497353635E+00   0.0000000000E+00  -0.3780606723E-04   0.0000000000E+00  -0.2268364034E-03   0.2597887979E+00   0.4957050150E-01   0.0000000000E+00   0.6502565414E-02   0.0000000000E+00   0.0000000000E+00   0.2449176475E-02  -0.2836613787E-03   0.1690667008E-03  -0.9280778983E-03   0.0000000000E+00   0.0000000000E+00   0.2391571143E+00
   0.5119109950E-01   0.1384511023E+00   0.1954134279E-04  -0.3121966648E-04   0.1172480568E-03  -0.1873179989E-03   0.2658943405E+00   0.1691225542E-01   0.0000000000E+00   0.1338560411E-01   0.0000000000E+00   0.0000000000E+00   0.2608206639E-02  -0.6285604673E-03   0.3480257070E-03  -0.8484197878E-03   0.0000000000E+00   0.0000000000E+00   0.2587236597E+00
   0.4916476331E-01   0.1538297548E+00   0.1683707346E-04  -0.3288874068E-04   0.1010224407E-03  -0.1973324441E-03   0.2463458754E+00   0.1861719392E-01   0.0000000000E+00   0.2144622038E-01   0.0000000000E+00   0.0000000000E+00   0.2407607172E-02  -0.5528656869E-03   0.5576017299E-03  -0.7948892079E-03   0.0000000000E+00   0.0000000000E+00   0.2405219752E+00
   0.3325571177E-01   0.1524885022E+00   0.1146386679E-04  -0.3542183320E-04   0.6878320072E-04  -0.2125309992E-03   0.2531578121E+00   0.3298239669E-01   0.0000000000E+00   0.1633438434E-01   0.0000000000E+00   0.0000000000E+00   0.2432630931E-02  -0.4296494695E-03   0.4246939930E-03  -0.8584206264E-03   0.0000000000E+00   0.0000000000E+00   0.2410428208E+00
   0.3446669449E-01   0.1355008339E+00   0.1360255597E-04  -0.3413630513E-04   0.8161533584E-04  -0.2048178308E-03   0.2799977720E+00   0.3426523151E-01   0.0000000000E+00   0.1658324573E-01   0.0000000000E+00   0.0000000000E+00   0.2697182026E-02  -0.4973410009E-03   0.4311643890E-03  -0.9427890105E-03   0.0000000000E+00   0.0000000000E+00   0.2624706111E+00
   0.1672148452E-01   0.1675373492E+00   0.5259745871E-05  -0.3796982941E-04   0.3155847523E-04  -0.2278189765E-03   0.2323929649E+00   0.3603206867E-01   0.0000000000E+00   0.9531813750E-02   0.0000000000E+00   0.0000000000E+00   0.2215833443E-02  -0.3368582081E-03   0.2478271575E-03  -0.8052751008E-03   0.0000000000E+00   0.0000000000E+00   0.2173880579E+00
   0.0000000000E+00   0.1663972311E+00   0.0000000000E+00  -0.3849155194E-04   0.0000000000E+00  -0.2309493116E-03   0.2326228151E+00   0.3929834098E-01   0.0000000000E+00   0.5489839865E-02   0.0000000000E+00   0.0000000000E+00   0.2208333128E-02  -0.3048850355E-03   0.1427358365E-03  -0.8157634682E-03   0.0000000000E+00   0.0000000000E+00   0.2157053590E+00
   0.1712631627E-01   0.1838539912E+00   0.4979124603E-05  -0.3879096543E-04   0.2987474762E-04  -0.2327457926E-03   0.2124484693E+00   0.2540610460E-01   0.0000000000E+00   0.9343640155E-02   0.0000000000E+00   0.0000000000E+00   0.2048266380E-02  -0.3832843620E-03   0.2429346440E-03  -0.7135637219E-03   0.0000000000E+00   0.0000000000E+00   0.2018654650E+00
   0.3346420506E-01   0.1683523450E+00   0.1052775111E-04  -0.3636385582E-04   0.6316650668E-04  -0.2181831349E-03   0.2308095386E+00   0.2636319617E-01   0.0000000000E+00   0.2050620788E-01   0.0000000000E+00   0.0000000000E+00   0.2229005797E-02  -0.4287966540E-03   0.5331614048E-03  -0.7715182043E-03   0.0000000000E+00   0.0000000000E+00   0.2212601539E+00
   0.3458400210E-01   0.1840187535E+00   0.1009999946E-04  -0.3721135049E-04   0.6059999677E-04  -0.2232681030E-03   0.2131600361E+00   0.1935071481E-01   0.0000000000E+00   0.1978655487E-01   0.0000000000E+00   0.0000000000E+00   0.2073548217E-02  -0.4459729603E-03   0.5144504266E-03  -0.6975322528E-03   0.0000000000E+00   0.0000000000E+00   0.2070157176E+00
   0.1946893781E-01   0.2497012821E+00   0.3498958293E-05  -0.4267398575E-04   0.2099374976E-04  -0.2560439145E-03   0.1278187199E+00  -0.2259947840E-02   0.0000000000E+00   0.6475112738E-03   0.0000000000E+00   0.0000000000E+00   0.1284967043E-02  -0.4060556381E-03   0.1683529312E-04  -0.3766763162E-03   0.0000000000E+00   0.0000000000E+00   0.1291639574E+00
   0.3853807455E-01   0.2326639094E+00   0.8608407358E-05  -0.4005294358E-04   0.5165044415E-04  -0.2403176615E-03   0.1635849150E+00   0.2883575099E-02   0.0000000000E+00   0.9266666119E-02   0.0000000000E+00   0.0000000000E+00   0.1627198424E-02  -0.4619189939E-03   0.2409333191E-03  -0.4994054702E-03   0.0000000000E+00   0.0000000000E+00   0.1630539986E+00
   0.3893934683E-01   0.2497123604E+00   0.7208076002E-05  -0.4109136650E-04   0.4324845601E-04  -0.2465481990E-03   0.1389042072E+00  -0.1946741675E-02   0.0000000000E+00   0.3652968681E-02   0.0000000000E+00   0.0000000000E+00   0.1394882297E-02  -0.4361800383E-03   0.9497718570E-04  -0.4108723965E-03   0.0000000000E+00   0.0000000000E+00   0.1400151379E+00
   0.3298464863E+00   0.0000000000E+00   0.9711503874E-04   0.0000000000E+00   0.5826902325E-03   0.0000000000E+00   0.1057203130E+00   0.3056931012E-01   0.0000000000E+00  -0.3209946937E-03   0.0000000000E+00   0.0000000000E+00   0.9654951996E-03  -0.1146783779E-04  -0.8345862035E-05  -0.4088688693E-03   0.0000000000E+00   0.0000000000E+00   0.9422931683E-01
   0.3506999940E+00   0.0000000000E+00   0.1000000000E-03   0.0000000000E+00   0.6000000000E-03   0.0000000000E+00   0.1063407157E+00   0.3075981470E-01   0.0000000000E+00  -0.1931030876E-05   0.0000000000E+00   0.0000000000E+00   0.9711277129E-03  -0.1142400012E-04  -0.5020680279E-07  -0.4113015912E-03   0.0000000000E+00   0.0000000000E+00   0.9478108519E-01
   0.3506999940E+00   0.1923049498E-01   0.1000000000E-03  -0.3927361594E-07   0.6000000000E-03  -0.2356416956E-06   0.1075008814E+00   0.3024230295E-01   0.0000000000E+00  -0.3916492456E-06   0.0000000000E+00   0.0000000000E+00   0.9842819056E-03  -0.2007961479E-04  -0.1018288039E-07  -0.4132295532E-03   0.0000000000E+00   0.0000000000E+00   0.9601647016E-01
   0.3304429043E+00   0.1871427755E-01   0.9715960959E-04  -0.3825040932E-07   0.5829576575E-03  -0.2295024559E-06   0.1069427277E+00   0.3007983090E-01   0.0000000000E+00  -0.9839445689E-03   0.0000000000E+00   0.0000000000E+00   0.9791877845E-03  -0.2002987419E-04  -0.2558255879E-04  -0.4110676759E-03   0.0000000000E+00   0.0000000000E+00   0.9553586026E-01
   0.3506999940E+00   0.3846065838E-01   0.1000000000E-03  -0.1259314826E-06   0.6000000000E-03  -0.7555888956E-06   0.1110222333E+00   0.2873288763E-01   0.0000000000E+00   0.1102929257E-04   0.0000000000E+00   0.0000000000E+00   0.1024023671E-02  -0.4573782378E-04   0.2867616069E-06  -0.4192653629E-03   0.0000000000E+00   0.0000000000E+00   0.9979422229E-01
   0.3308855969E+00   0.3768217136E-01   0.9710983635E-04  -0.1230206226E-06   0.5826590181E-03  -0.7381237356E-06   0.1105625772E+00   0.2863203082E-01   0.0000000000E+00  -0.2047417082E-02   0.0000000000E+00   0.0000000000E+00   0.1019729680E-02  -0.4536742351E-04  -0.5323284414E-04  -0.4175838242E-03   0.0000000000E+00   0.0000000000E+00   0.9943671572E-01
   0.3312373953E+00   0.5676063406E-01   0.9698375451E-04  -0.2987199771E-06   0.5819025271E-03  -0.1792319863E-05   0.1163817894E+00   0.2631362256E-01   0.0000000000E+00  -0.2768319296E-02   0.0000000000E+00   0.0000000000E+00   0.1084877027E-02  -0.8600914272E-04  -0.7197630169E-04  -0.4280862360E-03   0.0000000000E+00   0.0000000000E+00   0.1057962651E+00
   0.3315152335E+00   0.7595241890E-01   0.9679521264E-04  -0.6044565700E-06   0.5807712758E-03  -0.3626739420E-05   0.1240710172E+00   0.2332464675E-01   0.0000000000E+00  -0.3292233663E-02   0.0000000000E+00   0.0000000000E+00   0.1170736231E-02  -0.1389665840E-03  -0.8559807525E-04  -0.4421869918E-03   0.0000000000E+00   0.0000000000E+00   0.1143228240E+00
   0.3124670217E+00   0.7514114921E-01   0.9364067592E-04  -0.6233693490E-06   0.5618440555E-03  -0.3740216094E-05   0.1229759309E+00   0.2251512868E-01   0.0000000000E+00  -0.6525413160E-02   0.0000000000E+00   0.0000000000E+00   0.1162213923E-02  -0.1437765059E-03  -0.1696607422E-03  -0.4364731787E-03   0.0000000000E+00   0.0000000000E+00   0.1139426765E+00
   0.3118029284E+00   0.5605103419E-01   0.9400147928E-04  -0.3092443953E-06   0.5640088757E-03  -0.1855466372E-05   0.1150009088E+00   0.2556787179E-01   0.0000000000E+00  -0.5523973207E-02   0.0000000000E+00   0.0000000000E+00   0.1073305472E-02  -0.8932400840E-04  -0.1436233034E-03  -0.4217063416E-03   0.0000000000E+00   0.0000000000E+00   0.1050028279E+00
   0.3316581746E+00   0.9524850344E-01   0.9654537556E-04  -0.1071050767E-05   0.5792722533E-03  -0.6426304601E-05   0.1332148261E+00   0.1987311369E-01   0.0000000000E+00  -0.3570385314E-02   0.0000000000E+00   0.0000000000E+00   0.1272528920E-02  -0.2009133413E-03  -0.9283001816E-04  -0.4592638193E-03   0.0000000000E+00   0.0000000000E+00   0.1245984203E+00
   0.3128407471E+00   0.9439290190E-01   0.9315601985E-04  -0.1102871346E-05   0.5589361191E-03  -0.6617228078E-05   0.1324183170E+00   0.1903996821E-01   0.0000000000E+00  -0.7021461249E-02   0.0000000000E+00   0.0000000000E+00   0.1267063266E-02  -0.2068552690E-03  -0.1825579925E-03  -0.4543748557E-03   0.0000000000E+00   0.0000000000E+00   0.1245704770E+00
   0.3316424602E+00   0.1146975115E+00   0.9623759778E-04  -0.1721778702E-05   0.5774255867E-03  -0.1033067221E-04   0.1434149872E+00   0.1622426995E-01   0.0000000000E+00  -0.3650672252E-02   0.0000000000E+00   0.0000000000E+00   0.1385477063E-02  -0.2680022622E-03  -0.9491747854E-04  -0.4789177716E-03   0.0000000000E+00   0.0000000000E+00   0.1361512322E+00
   0.3314988788E+00   0.1342570659E+00   0.9588511024E-04  -0.2566868807E-05   0.5753106614E-03  -0.1540121284E-04   0.1542097364E+00   0.1262195982E-01   0.0000000000E+00  -0.3510954469E-02   0.0000000000E+00   0.0000000000E+00   0.1504231485E-02  -0.3364096110E-03  -0.9128481619E-04  -0.5004950887E-03   0.0000000000E+00   0.0000000000E+00   0.1484047755E+00
   0.3124404956E+00   0.1337750729E+00   0.9180551823E-04  -0.2658444113E-05   0.5508331094E-03  -0.1595066468E-04   0.1542070908E+00   0.1173721325E-01   0.0000000000E+00  -0.6830384593E-02   0.0000000000E+00   0.0000000000E+00   0.1506859268E-02  -0.3452491399E-03  -0.1775899994E-03  -0.4978329122E-03   0.0000000000E+00   0.0000000000E+00   0.1491440043E+00
   0.3128337985E+00   0.1139231004E+00   0.9254222017E-04  -0.1774655076E-05   0.5552533210E-03  -0.1064793046E-04   0.1429703156E+00   0.1532269609E-01   0.0000000000E+00  -0.7108587691E-02   0.0000000000E+00   0.0000000000E+00   0.1383735068E-02  -0.2756839859E-03  -0.1848232800E-03  -0.4748790351E-03   0.0000000000E+00   0.0000000000E+00   0.1364966975E+00
   0.2896364973E+00   0.1826384882E-01   0.9156189856E-04  -0.4625408251E-07   0.5493713914E-03  -0.2775244951E-06   0.1021600121E+00   0.2822970351E-01   0.0000000000E+00  -0.3048223928E-02   0.0000000000E+00   0.0000000000E+00   0.9369110101E-03  -0.2418300112E-04  -0.7925382212E-04  -0.3911691467E-03   0.0000000000E+00   0.0000000000E+00   0.9153923175E-01
   0.2881403579E+00   0.0000000000E+00   0.9148055335E-04   0.0000000000E+00   0.5488833201E-03   0.0000000000E+00   0.1005368175E+00   0.2869918144E-01   0.0000000000E+00  -0.1008320223E-02   0.0000000000E+00   0.0000000000E+00   0.9192706308E-03  -0.1461863813E-04  -0.2621632579E-04  -0.3877079968E-03   0.0000000000E+00   0.0000000000E+00   0.8968488214E-01
   0.3089931816E+00   0.0000000000E+00   0.9426351416E-04   0.0000000000E+00   0.5655810849E-03   0.0000000000E+00   0.1038194728E+00   0.2989310891E-01   0.0000000000E+00  -0.6486778428E-03   0.0000000000E+00   0.0000000000E+00   0.9485154013E-03  -0.1252732936E-04  -0.1686562391E-04  -0.4011377451E-03   0.0000000000E+00   0.0000000000E+00   0.9256094479E-01
   0.3100479446E+00   0.1840596924E-01   0.9433151943E-04  -0.4058067522E-07   0.5659891166E-03  -0.2434840513E-06   0.1051542025E+00   0.2941157394E-01   0.0000000000E+00  -0.1973465979E-02   0.0000000000E+00   0.0000000000E+00   0.9633073031E-03  -0.2134686809E-04  -0.5131011544E-04  -0.4036973293E-03   0.0000000000E+00   0.0000000000E+00   0.9403048370E-01
   0.2126683071E+00   0.1636355805E+00   0.6587058204E-04  -0.7861648467E-05   0.3952234923E-03  -0.4716989080E-04   0.1835201377E+00  -0.6372245286E-02   0.0000000000E+00  -0.1232964561E-01   0.0000000000E+00   0.0000000000E+00   0.1854318113E-02  -0.6142828659E-03  -0.3205707858E-03  -0.5314436772E-03   0.0000000000E+00   0.0000000000E+00   0.1879872116E+00
   0.2167908624E+00   0.1467260481E+00   0.6891048186E-04  -0.6172413349E-05   0.4134628912E-03  -0.3703448009E-04   0.1716784948E+00  -0.6453462000E-02   0.0000000000E+00  -0.1687465575E-01   0.0000000000E+00   0.0000000000E+00   0.1736145334E-02  -0.5795701045E-03  -0.4387410495E-03  -0.4956750985E-03   0.0000000000E+00   0.0000000000E+00   0.1773686265E+00
   0.2314626019E+00   0.1466979628E+00   0.7251813074E-04  -0.5390745667E-05   0.4351087845E-03  -0.3234447400E-04   0.1698617497E+00  -0.2306481182E-02   0.0000000000E+00  -0.1582900052E-01   0.0000000000E+00   0.0000000000E+00   0.1705536940E-02  -0.5326500608E-03  -0.4115540136E-03  -0.5026658055E-03   0.0000000000E+00   0.0000000000E+00   0.1731988511E+00
   0.2326470512E+00   0.1630589399E+00   0.7113459479E-04  -0.6605018358E-05   0.4268075687E-03  -0.3963011015E-04   0.1795250398E+00  -0.2125465436E-02   0.0000000000E+00  -0.1260247011E-01   0.0000000000E+00   0.0000000000E+00   0.1801626794E-02  -0.5598297737E-03  -0.3276642229E-03  -0.5321987230E-03   0.0000000000E+00   0.0000000000E+00   0.1819063523E+00
   0.2283531479E+00   0.1845639673E-01   0.8395598345E-04  -0.9936692280E-07   0.5037359007E-03  -0.5962015368E-06   0.8398265094E-01   0.2029306502E-01   0.0000000000E+00  -0.7552819998E-02   0.0000000000E+00   0.0000000000E+00   0.7789473143E-03  -0.4901730256E-04  -0.1963733200E-03  -0.3128271479E-03   0.0000000000E+00   0.0000000000E+00   0.7713871413E-01
   0.2312022518E+00   0.3704623382E-01   0.8342411208E-04  -0.2758542324E-06   0.5005446725E-03  -0.1655125395E-05   0.9237716491E-01   0.1823614675E-01   0.0000000000E+00  -0.1524621067E-01   0.0000000000E+00   0.0000000000E+00   0.8690632088E-03  -0.9477002722E-04  -0.3964014775E-03  -0.3318399350E-03   0.0000000000E+00   0.0000000000E+00   0.8859483239E-01
   0.1838945472E+00   0.0000000000E+00   0.8017289214E-04   0.0000000000E+00   0.4810373528E-03   0.0000000000E+00   0.5418121389E-01   0.7830397343E-02   0.0000000000E+00  -0.4569936620E-02   0.0000000000E+00   0.0000000000E+00   0.5183209469E-03  -0.8423966825E-04  -0.1188183521E-03  -0.1860348337E-03   0.0000000000E+00   0.0000000000E+00   0.5081221227E-01
   0.2047399694E+00   0.0000000000E+00   0.8190049282E-04   0.0000000000E+00   0.4914029569E-03   0.0000000000E+00   0.6876862978E-01   0.1581580928E-01   0.0000000000E+00  -0.3431662332E-02   0.0000000000E+00   0.0000000000E+00   0.6402388700E-03  -0.4814779655E-04  -0.8922322062E-04  -0.2537533172E-03   0.0000000000E+00   0.0000000000E+00   0.6215113774E-01
   0.1422131051E+00   0.0000000000E+00   0.7806273548E-04   0.0000000000E+00   0.4683764129E-03   0.0000000000E+00   0.1103268441E-01  -0.2798970562E-01   0.0000000000E+00  -0.1097738596E-01   0.0000000000E+00   0.0000000000E+00   0.1942959609E-03  -0.3129951094E-03  -0.2854120350E-03   0.5087106363E-04   0.0000000000E+00   0.0000000000E+00   0.3877110252E-01
   0.1462087206E+00   0.2097576995E-01   0.7700522855E-04  -0.8273498823E-06   0.4620313713E-03  -0.4964099294E-05   0.2486013885E-01  -0.2299915901E-01   0.0000000000E+00  -0.1728002661E-01   0.0000000000E+00   0.0000000000E+00   0.3175988655E-03  -0.3045720067E-03  -0.4492806917E-03  -0.5582939513E-05   0.0000000000E+00   0.0000000000E+00   0.5212737988E-01
   0.3506999940E+00   0.2499239192E+00   0.1000000000E-03  -0.1086868525E-04   0.6000000000E-03  -0.6521211153E-04   0.2097972191E+00   0.6686377205E-03   0.0000000000E+00   0.6043544305E-03   0.0000000000E+00   0.0000000000E+00   0.2095966278E-02  -0.6227052802E-03   0.1571321519E-04  -0.6313975705E-03   0.0000000000E+00   0.0000000000E+00   0.2094662025E+00
   0.3312147682E+00   0.2499233830E+00   0.9417288591E-04  -0.1094527924E-04   0.5650373154E-03  -0.6567167546E-04   0.2103846522E+00   0.6744997980E-03   0.0000000000E+00  -0.4399554670E-03   0.0000000000E+00   0.0000000000E+00   0.2101823023E-02  -0.6244089587E-03  -0.1143884214E-04  -0.6331774561E-03   0.0000000000E+00   0.0000000000E+00   0.2100506163E+00
   0.3314495218E+00   0.2309818804E+00   0.9442411028E-04  -0.9269372719E-05   0.5665446617E-03  -0.5561623631E-04   0.2035658334E+00   0.4413326519E-03   0.0000000000E+00  -0.1050028610E-02   0.0000000000E+00   0.0000000000E+00   0.2034334336E-02  -0.6062841737E-03  -0.2730074386E-04  -0.6120214981E-03   0.0000000000E+00   0.0000000000E+00   0.2033550804E+00
   0.3506999940E+00   0.2307050071E+00   0.1000000000E-03  -0.9174980948E-05   0.6000000000E-03  -0.5504988569E-04   0.2031503955E+00   0.5018622092E-03   0.0000000000E+00   0.5602051972E-03   0.0000000000E+00   0.0000000000E+00   0.2029998368E-02  -0.6044325644E-03   0.1456533513E-04  -0.6109567731E-03   0.0000000000E+00   0.0000000000E+00   0.2029029911E+00
   0.2735614664E+00   0.2315919649E+00   0.7741206039E-04  -0.1050816389E-04   0.4644723624E-03  -0.6304898335E-04   0.2094039123E+00   0.6675368385E-05   0.0000000000E+00  -0.2831397559E-02   0.0000000000E+00   0.0000000000E+00   0.2094019097E-02  -0.6281449833E-03  -0.7361633653E-04  -0.6282317631E-03   0.0000000000E+00   0.0000000000E+00   0.2094667822E+00
   0.2928445224E+00   0.2314202894E+00   0.8313833859E-04  -0.9914081685E-05   0.4988300316E-03  -0.5948449011E-04   0.2068755121E+00   0.2048822852E-03   0.0000000000E+00  -0.2397268310E-02   0.0000000000E+00   0.0000000000E+00   0.2068140474E-02  -0.6185777133E-03  -0.6232897606E-04  -0.6212411830E-03   0.0000000000E+00   0.0000000000E+00   0.2068211728E+00
   0.2922434118E+00   0.2499188216E+00   0.8239353590E-04  -0.1159691782E-04   0.4943612154E-03  -0.6958150692E-04   0.2147971561E+00   0.7623699176E-03   0.0000000000E+00  -0.7219070989E-03   0.0000000000E+00   0.0000000000E+00   0.2145684452E-02  -0.6367677692E-03  -0.1876958457E-04  -0.6466785781E-03   0.0000000000E+00   0.0000000000E+00   0.2144181784E+00
   0.2727569318E+00   0.2499144982E+00   0.7638726341E-04  -0.1221453869E-04   0.4583235804E-03  -0.7328723212E-04   0.2182852614E+00   0.8416657960E-03   0.0000000000E+00  -0.8363147266E-03   0.0000000000E+00   0.0000000000E+00   0.2180327616E-02  -0.6464391262E-03  -0.2174418289E-04  -0.6573807815E-03   0.0000000000E+00   0.0000000000E+00   0.2178674952E+00
   0.3506999940E+00   0.1730437779E+00   0.1000000000E-03  -0.4735727678E-05   0.6000000000E-03  -0.2841436607E-04   0.1756038556E+00   0.6595551573E-02   0.0000000000E+00   0.4388542459E-03   0.0000000000E+00   0.0000000000E+00   0.1736251901E-02  -0.4608560510E-03   0.1141021039E-04  -0.5465982215E-03   0.0000000000E+00   0.0000000000E+00   0.1723953969E+00
   0.3314447199E+00   0.1732806687E+00   0.9522826733E-04  -0.4807041504E-05   0.5713696040E-03  -0.2884224902E-04   0.1758114335E+00   0.6329994003E-02   0.0000000000E+00  -0.2857719990E-02   0.0000000000E+00   0.0000000000E+00   0.1739124353E-02  -0.4641343604E-03  -0.7430071975E-04  -0.5464242824E-03   0.0000000000E+00   0.0000000000E+00   0.1727937181E+00
   0.3314385000E+00   0.1538221459E+00   0.9554456449E-04  -0.3600865664E-05   0.5732673869E-03  -0.2160519398E-04   0.1651236836E+00   0.9300572903E-02   0.0000000000E+00  -0.3257544361E-02   0.0000000000E+00   0.0000000000E+00   0.1623335118E-02  -0.4023653219E-03  -0.8469615337E-04  -0.5232727696E-03   0.0000000000E+00   0.0000000000E+00   0.1607584380E+00
   0.3506999940E+00   0.1538212901E+00   0.1000000000E-03  -0.3552845045E-05   0.6000000000E-03  -0.2131707027E-04   0.1649711635E+00   0.9545818291E-02   0.0000000000E+00   0.3884601110E-03   0.0000000000E+00   0.0000000000E+00   0.1621074180E-02  -0.3994553077E-03   0.1009996289E-04  -0.5235509455E-03   0.0000000000E+00   0.0000000000E+00   0.1604010394E+00
   0.3506999940E+00   0.1345975772E+00   0.1000000000E-03  -0.2544832685E-05   0.6000000000E-03  -0.1526899611E-04   0.1541214043E+00   0.1283776883E-01   0.0000000000E+00   0.3011558224E-03   0.0000000000E+00   0.0000000000E+00   0.1502700736E-02  -0.3339865245E-03   0.7830051381E-05  -0.5008775193E-03   0.0000000000E+00   0.0000000000E+00   0.1481051705E+00
   0.3506999940E+00   0.1153725802E+00   0.1000000000E-03  -0.1719395775E-05   0.6000000000E-03  -0.1031637465E-04   0.1434318549E+00   0.1634784978E-01   0.0000000000E+00   0.2317699801E-03   0.0000000000E+00   0.0000000000E+00   0.1385274999E-02  -0.2668170669E-03   0.6026019483E-05  -0.4793391140E-03   0.0000000000E+00   0.0000000000E+00   0.1359750482E+00
   0.3506999940E+00   0.9614630240E-01   0.1000000000E-03  -0.1077928826E-05   0.6000000000E-03  -0.6467572954E-05   0.1333303579E+00   0.1993071994E-01   0.0000000000E+00   0.1524566037E-03   0.0000000000E+00   0.0000000000E+00   0.1273511419E-02  -0.2006838742E-03   0.3963871697E-05  -0.4597832334E-03   0.0000000000E+00   0.0000000000E+00   0.1245408990E+00
   0.3506999940E+00   0.7691879362E-01   0.1000000000E-03  -0.6123112952E-06   0.6000000000E-03  -0.3673867771E-05   0.1242831656E+00   0.2335057747E-01   0.0000000000E+00   0.8938998524E-04   0.0000000000E+00   0.0000000000E+00   0.1172779923E-02  -0.1393437220E-03   0.2324139616E-05  -0.4429012292E-03   0.0000000000E+00   0.0000000000E+00   0.1143829205E+00
   0.3506999940E+00   0.5769017685E-01   0.1000000000E-03  -0.3044504355E-06   0.6000000000E-03  -0.1826702613E-05   0.1167173542E+00   0.2636597040E-01   0.0000000000E+00   0.4090287865E-04   0.0000000000E+00   0.0000000000E+00   0.1088075631E-02  -0.8649235868E-04   0.1063474845E-05  -0.4292499739E-03   0.0000000000E+00   0.0000000000E+00   0.1060003709E+00
   0.0000000000E+00   0.2496974654E+00   0.0000000000E+00  -0.4321922400E-04   0.0000000000E+00  -0.2593153440E-03   0.1238666591E+00  -0.2361726013E-02   0.0000000000E+00   0.4426976474E-02   0.0000000000E+00   0.0000000000E+00   0.1245751769E-02  -0.3952172374E-03   0.1151013883E-03  -0.3645147993E-03   0.0000000000E+00   0.0000000000E+00   0.1252910601E+00
   0.3765308688E-01   0.2159456084E+00   0.9435383102E-05  -0.3901022444E-04   0.5661229861E-04  -0.2340613467E-03   0.1816994398E+00   0.6281609159E-02   0.0000000000E+00   0.1600253657E-01   0.0000000000E+00   0.0000000000E+00   0.1798149571E-02  -0.4822822279E-03   0.4160659507E-03  -0.5639431470E-03   0.0000000000E+00   0.0000000000E+00   0.1807047382E+00
   0.3626234369E-01   0.1998382522E+00   0.9862313201E-05  -0.3806382529E-04   0.5917387921E-04  -0.2283829517E-03   0.1974619702E+00   0.1229267439E-01   0.0000000000E+00   0.1861759024E-01   0.0000000000E+00   0.0000000000E+00   0.1937741679E-02  -0.4694591666E-03   0.4840573462E-03  -0.6292639337E-03   0.0000000000E+00   0.0000000000E+00   0.1942246164E+00
   0.5569076508E-01   0.1983620022E+00   0.1540615401E-04  -0.3528882907E-04   0.9243692409E-04  -0.2117329744E-03   0.2030570379E+00   0.6912515031E-02   0.0000000000E+00   0.2468878912E-01   0.0000000000E+00   0.0000000000E+00   0.2009832834E-02  -0.5400459633E-03   0.6419085171E-03  -0.6299086587E-03   0.0000000000E+00   0.0000000000E+00   0.2042768944E+00
   0.5761001855E-01   0.2146716376E+00   0.1475406468E-04  -0.3624449171E-04   0.8852438810E-04  -0.2174669502E-03   0.1897034185E+00   0.3053613874E-02   0.0000000000E+00   0.2065144454E-01   0.0000000000E+00   0.0000000000E+00   0.1887873343E-02  -0.5385741168E-03   0.5369375580E-03  -0.5782710972E-03   0.0000000000E+00   0.0000000000E+00   0.1915274202E+00
   0.1784136474E-01   0.2001375262E+00   0.4813806206E-05  -0.3969240577E-04   0.2888283723E-04  -0.2381544346E-03   0.1951462495E+00   0.1643042329E-01   0.0000000000E+00   0.8653683289E-02   0.0000000000E+00   0.0000000000E+00   0.1902171225E-02  -0.4211345155E-03   0.2249957655E-03  -0.6347300183E-03   0.0000000000E+00   0.0000000000E+00   0.1882881011E+00
   0.5829188526E-01   0.2320560406E+00   0.1339390857E-04  -0.3743534535E-04   0.8036345144E-04  -0.2246120721E-03   0.1738230626E+00   0.1761703909E-02   0.0000000000E+00   0.1184493081E-01   0.0000000000E+00   0.0000000000E+00   0.1732945514E-02  -0.5038521488E-03   0.3079682012E-03  -0.5267542996E-03   0.0000000000E+00   0.0000000000E+00   0.1743223521E+00
   0.1558256996E+00   0.2498431468E+00   0.3859122364E-04  -0.2240760423E-04   0.2315473418E-03  -0.1344456254E-03   0.2266743275E+00   0.7006033831E-03   0.0000000000E+00   0.1447475956E-02   0.0000000000E+00   0.0000000000E+00   0.2264641465E-02  -0.6730169487E-03   0.3763437486E-04  -0.6821247926E-03   0.0000000000E+00   0.0000000000E+00   0.2263376633E+00
   0.1363378875E+00   0.2498219516E+00   0.3239678858E-04  -0.2543549050E-04   0.1943807315E-03  -0.1526129430E-03   0.2189034419E+00   0.3315447939E-03   0.0000000000E+00   0.2397250742E-02   0.0000000000E+00   0.0000000000E+00   0.2188039784E-02  -0.6533948777E-03   0.6232851930E-04  -0.6577049600E-03   0.0000000000E+00   0.0000000000E+00   0.2187377478E+00
   0.1753145933E+00   0.2498616996E+00   0.4494232407E-04  -0.1975719873E-04   0.2696539444E-03  -0.1185431924E-03   0.2304696748E+00   0.9102062655E-03   0.0000000000E+00   0.6186393946E-03   0.0000000000E+00   0.0000000000E+00   0.2301966129E-02  -0.6823069616E-03   0.1608462426E-04  -0.6941396431E-03   0.0000000000E+00   0.0000000000E+00   0.2300338391E+00
   0.1762558735E+00   0.2323705242E+00   0.4739093448E-04  -0.1794125539E-04   0.2843456069E-03  -0.1076475324E-03   0.2190509780E+00  -0.1734024095E-02   0.0000000000E+00   0.1104762652E-02   0.0000000000E+00   0.0000000000E+00   0.2195711852E-02  -0.6744931750E-03   0.2872382896E-04  -0.6519508618E-03   0.0000000000E+00   0.0000000000E+00   0.2199464895E+00
   0.2255877006E+00   0.0000000000E+00   0.8395808191E-04   0.0000000000E+00   0.5037484915E-03   0.0000000000E+00   0.8020236175E-01   0.2075558832E-01   0.0000000000E+00  -0.2587567828E-02   0.0000000000E+00   0.0000000000E+00   0.7397568526E-03  -0.3305120210E-04  -0.6727676352E-04  -0.3028738502E-03   0.0000000000E+00   0.0000000000E+00   0.7203454332E-01
   0.2464372991E+00   0.0000000000E+00   0.8628030067E-04   0.0000000000E+00   0.5176818040E-03   0.0000000000E+00   0.8905675084E-01   0.2435743904E-01   0.0000000000E+00  -0.1940125013E-02   0.0000000000E+00   0.0000000000E+00   0.8174951913E-03  -0.2359586210E-04  -0.5044325035E-04  -0.3402425696E-03   0.0000000000E+00   0.0000000000E+00   0.7966222806E-01
   0.2488507341E+00   0.1834191915E-01   0.8634173279E-04  -0.7267901072E-07   0.5180503968E-03  -0.4360740643E-06   0.9183679098E-01   0.2386293139E-01   0.0000000000E+00  -0.5747723854E-02   0.0000000000E+00   0.0000000000E+00   0.8467791157E-03  -0.3688105908E-04  -0.1494408202E-03  -0.3470991671E-03   0.0000000000E+00   0.0000000000E+00   0.8318996292E-01
   0.1969505391E+00   0.1994272099E+00   0.5742472998E-04  -0.1248186585E-04   0.3445483799E-03  -0.7489119507E-04   0.2033104687E+00  -0.5338682301E-02   0.0000000000E+00  -0.3731338779E-02   0.0000000000E+00   0.0000000000E+00   0.2049120734E-02  -0.6633182292E-03  -0.9701480826E-04  -0.5939153592E-03   0.0000000000E+00   0.0000000000E+00   0.2061352682E+00
   0.2160005224E+00   0.1983172255E+00   0.6305677502E-04  -0.1071878350E-04   0.3783406501E-03  -0.6431270101E-04   0.2001093155E+00  -0.3180338702E-02   0.0000000000E+00  -0.6194218824E-02   0.0000000000E+00   0.0000000000E+00   0.2010634171E-02  -0.6321313334E-03  -0.1610496894E-03  -0.5907869303E-03   0.0000000000E+00   0.0000000000E+00   0.2020032059E+00
   0.2159719303E+00   0.2150523372E+00   0.6141176059E-04  -0.1224439457E-04   0.3684705635E-03  -0.7346636742E-04   0.2083834768E+00  -0.1707301112E-02   0.0000000000E+00  -0.4147004210E-02   0.0000000000E+00   0.0000000000E+00   0.2088956671E-02  -0.6422234415E-03  -0.1078221095E-03  -0.6200285270E-03   0.0000000000E+00   0.0000000000E+00   0.2093740223E+00
   0.1966116342E+00   0.2155230764E+00   0.5556089056E-04  -0.1403508641E-04   0.3333653433E-03  -0.8421051845E-04   0.2105703854E+00  -0.2803816254E-02   0.0000000000E+00  -0.1879675867E-02   0.0000000000E+00   0.0000000000E+00   0.2114115303E-02  -0.6597493187E-03  -0.4887157255E-04  -0.6232997074E-03   0.0000000000E+00   0.0000000000E+00   0.2120202044E+00
   0.1177243252E+00   0.2322477665E+00   0.2949303427E-04  -0.2703336411E-04   0.1769582056E-03  -0.1622001846E-03   0.2052023068E+00  -0.1887547702E-02   0.0000000000E+00   0.9188527713E-02   0.0000000000E+00   0.0000000000E+00   0.2057685711E-02  -0.6344823973E-03   0.2389017205E-03  -0.6099442772E-03   0.0000000000E+00   0.0000000000E+00   0.2068111444E+00
   0.1191059174E+00   0.2150714067E+00   0.3218391309E-04  -0.2518562119E-04   0.1931034786E-03  -0.1511137272E-03   0.2071657317E+00  -0.5074652574E-02   0.0000000000E+00   0.1541249332E-01   0.0000000000E+00   0.0000000000E+00   0.2086881275E-02  -0.6722437208E-03   0.4007248263E-03  -0.6062732374E-03   0.0000000000E+00   0.0000000000E+00   0.2113595396E+00
   0.2142930716E+00   0.2498902647E+00   0.5774107983E-04  -0.1567647582E-04   0.3464464790E-03  -0.9405885494E-04   0.2293038942E+00   0.1040554908E-02   0.0000000000E+00  -0.4888736009E-03   0.0000000000E+00   0.0000000000E+00   0.2289917277E-02  -0.6775061334E-03  -0.1271071362E-04  -0.6910333472E-03   0.0000000000E+00   0.0000000000E+00   0.2287978573E+00
   0.1948039057E+00   0.2498773931E+00   0.5135110218E-04  -0.1751527602E-04   0.3081066131E-03  -0.1050916561E-03   0.2310647820E+00   0.1017475791E-02   0.0000000000E+00  -0.2816596868E-04   0.0000000000E+00   0.0000000000E+00   0.2307595392E-02  -0.6830195880E-03  -0.7323151856E-06  -0.6962467733E-03   0.0000000000E+00   0.0000000000E+00   0.2305743891E+00
   0.1958097988E+00   0.2323091148E+00   0.5352310967E-04  -0.1570632122E-04   0.3211386580E-03  -0.9423792732E-04   0.2190954493E+00  -0.1382080529E-02   0.0000000000E+00  -0.7645725054E-03   0.0000000000E+00   0.0000000000E+00   0.2195100734E-02  -0.6711071531E-03  -0.1987888514E-04  -0.6531401063E-03   0.0000000000E+00   0.0000000000E+00   0.2198081780E+00
   0.2153295164E+00   0.2321865067E+00   0.5962434494E-04  -0.1388846513E-04   0.3577460696E-03  -0.8333079079E-04   0.2175606520E+00  -0.9846760888E-03   0.0000000000E+00  -0.2053351758E-02   0.0000000000E+00   0.0000000000E+00   0.2178560548E-02  -0.6625287168E-03  -0.5338714570E-04  -0.6497279276E-03   0.0000000000E+00   0.0000000000E+00   0.2180969583E+00
   0.2347938165E+00   0.2318665219E+00   0.6566150025E-04  -0.1243630294E-04   0.3939690015E-03  -0.7461781765E-04   0.2151084643E+00  -0.6149831763E-03   0.0000000000E+00  -0.2777150001E-02   0.0000000000E+00   0.0000000000E+00   0.2152929592E-02  -0.6514752245E-03  -0.7220590004E-04  -0.6434804432E-03   0.0000000000E+00   0.0000000000E+00   0.2154831386E+00
   0.2541980958E+00   0.2317447625E+00   0.7158397292E-04  -0.1133393363E-04   0.4295038375E-03  -0.6800360178E-04   0.2122305302E+00  -0.2798998852E-03   0.0000000000E+00  -0.3004936187E-02   0.0000000000E+00   0.0000000000E+00   0.2123145002E-02  -0.6394905895E-03  -0.7812834086E-04  -0.6358518910E-03   0.0000000000E+00   0.0000000000E+00   0.2124457384E+00
   0.2532697295E+00   0.2499085015E+00   0.7027778630E-04  -0.1307121758E-04   0.4216667178E-03  -0.7842730547E-04   0.2222042142E+00   0.9299566461E-03   0.0000000000E+00  -0.8593677682E-03   0.0000000000E+00   0.0000000000E+00   0.2219252272E-02  -0.6573130760E-03  -0.2234356197E-04  -0.6694025124E-03   0.0000000000E+00   0.0000000000E+00   0.2217439956E+00
   0.2337817486E+00   0.2499005269E+00   0.6405923486E-04  -0.1421043871E-04   0.3843554092E-03  -0.8526263226E-04   0.2260821311E+00   0.1001975597E-02   0.0000000000E+00  -0.7561839668E-03   0.0000000000E+00   0.0000000000E+00   0.2257815384E-02  -0.6682266372E-03  -0.1966078314E-04  -0.6812523199E-03   0.0000000000E+00   0.0000000000E+00   0.2255895975E+00
   0.3117293184E+00   0.2499217213E+00   0.8831377352E-04  -0.1118267779E-04   0.5298826411E-03  -0.6709606673E-04   0.2120945687E+00   0.7018441560E-03   0.0000000000E+00  -0.4755933228E-03   0.0000000000E+00   0.0000000000E+00   0.2118840154E-02  -0.6292652644E-03  -0.1236542639E-04  -0.6383892385E-03   0.0000000000E+00   0.0000000000E+00   0.2117461516E+00
   0.3121241083E+00   0.2312056561E+00   0.8879889990E-04  -0.9509266283E-05   0.5327933994E-03  -0.5705559770E-04   0.2048876861E+00   0.3648132508E-03   0.0000000000E+00  -0.1671919468E-02   0.0000000000E+00   0.0000000000E+00   0.2047782422E-02  -0.6110149259E-03  -0.4346990616E-04  -0.6157574982E-03   0.0000000000E+00   0.0000000000E+00   0.2047321389E+00
   0.5586111785E-01   0.8296605483E-01   0.4344202196E-04  -0.2584352481E-04   0.2606521318E-03  -0.1550611489E-03   0.2507048265E+00   0.8533637807E-01   0.0000000000E+00  -0.1269883433E+00   0.0000000000E+00   0.0000000000E+00   0.2251039131E-02   0.1012493012E-03  -0.3301696925E-02  -0.1008123614E-02   0.0000000000E+00   0.0000000000E+00   0.3025079336E+00
   0.7221808212E-01   0.9399075259E-01   0.4116541761E-04  -0.2148080201E-04   0.2469925056E-03  -0.1288848120E-03   0.2011973332E+00  -0.4436635414E-02   0.0000000000E+00  -0.5298012506E-01   0.0000000000E+00   0.0000000000E+00   0.2025283238E-02  -0.6479583537E-03  -0.1377483252E-02  -0.5902820933E-03   0.0000000000E+00   0.0000000000E+00   0.2225037890E+00
   0.6221436139E-01   0.1068093432E+00   0.3232192675E-04  -0.2558068784E-04   0.1939315605E-03  -0.1534841270E-03   0.2444433875E+00   0.2689634815E-02   0.0000000000E+00  -0.3197056081E-01   0.0000000000E+00   0.0000000000E+00   0.2436364971E-02  -0.7064338145E-03  -0.8312345809E-03  -0.7413990671E-03   0.0000000000E+00   0.0000000000E+00   0.2465609964E+00
   0.3847489700E-01   0.9217713627E-01   0.2950777079E-04  -0.3011651786E-04   0.1770466247E-03  -0.1806991072E-03   0.3664432453E+00   0.6295932157E-01   0.0000000000E+00  -0.9543455253E-01   0.0000000000E+00   0.0000000000E+00   0.3475554488E-02  -0.4697365201E-03  -0.2481298366E-02  -0.1288207701E-02   0.0000000000E+00   0.0000000000E+00   0.3720562665E+00
   0.0000000000E+00   0.1997186137E+00   0.0000000000E+00  -0.4019847649E-04   0.0000000000E+00  -0.2411908589E-03   0.1941225155E+00   0.1786357877E-01   0.0000000000E+00   0.4657136029E-02   0.0000000000E+00   0.0000000000E+00   0.1887634419E-02  -0.4037317588E-03   0.1210855368E-03  -0.6359582828E-03   0.0000000000E+00   0.0000000000E+00   0.1858499343E+00
   0.0000000000E+00   0.1830583534E+00   0.0000000000E+00  -0.3928337785E-04   0.0000000000E+00  -0.2357002671E-03   0.2120704981E+00   0.2792191374E-01   0.0000000000E+00   0.4917471201E-02   0.0000000000E+00   0.0000000000E+00   0.2036939239E-02  -0.3569923568E-03   0.1278542512E-03  -0.7199772354E-03   0.0000000000E+00   0.0000000000E+00   0.1995997841E+00
   0.3663189979E-01   0.1166411511E+00   0.1789455522E-04  -0.3232355351E-04   0.1073673313E-03  -0.1939413211E-03   0.3306506226E+00   0.4366549445E-01   0.0000000000E+00  -0.3483357433E-01   0.0000000000E+00   0.0000000000E+00   0.3175509743E-02  -0.5552969233E-03  -0.9056729325E-03  -0.1122948351E-02   0.0000000000E+00   0.0000000000E+00   0.3203391968E+00
   0.2672883160E+00   0.0000000000E+00   0.8880500343E-04   0.0000000000E+00   0.5328300206E-03   0.0000000000E+00   0.9569604068E-01   0.2689740100E-01   0.0000000000E+00  -0.1437540784E-02   0.0000000000E+00   0.0000000000E+00   0.8762682038E-03  -0.1811411209E-04  -0.3737606038E-04  -0.3677803250E-03   0.0000000000E+00   0.0000000000E+00   0.8545675084E-01
   0.2692481568E+00   0.1829111567E-01   0.8888740044E-04  -0.5641924454E-07   0.5333244026E-03  -0.3385154673E-06   0.9779109044E-01   0.2643103810E-01   0.0000000000E+00  -0.4280794635E-02   0.0000000000E+00   0.0000000000E+00   0.8986177901E-03  -0.2906289035E-04  -0.1113006605E-03  -0.3726663856E-03   0.0000000000E+00   0.0000000000E+00   0.8795898630E-01
   0.2370936532E+00   0.7430851406E-01   0.8132145904E-04  -0.1097434428E-05   0.4879287542E-03  -0.6584606569E-05   0.1172322255E+00   0.1138660168E-01   0.0000000000E+00  -0.2171091190E-01   0.0000000000E+00   0.0000000000E+00   0.1138162450E-02  -0.2378306598E-03  -0.5644837094E-03  -0.3858564816E-03   0.0000000000E+00   0.0000000000E+00   0.1180648111E+00
   0.2558073649E+00   0.7383168581E-01   0.8439942041E-04  -0.8864840720E-06   0.5063965225E-03  -0.5318904432E-05   0.1185301080E+00   0.1575853818E-01   0.0000000000E+00  -0.1735874640E-01   0.0000000000E+00   0.0000000000E+00   0.1138025466E-02  -0.1980049423E-03  -0.4513274063E-03  -0.4028659387E-03   0.0000000000E+00   0.0000000000E+00   0.1154269573E+00
   0.3109951338E+00   0.3712606378E-01   0.9423954925E-04  -0.1283310338E-06   0.5654372955E-03  -0.7699862029E-06   0.1089485067E+00   0.2793797938E-01   0.0000000000E+00  -0.4100235040E-02   0.0000000000E+00   0.0000000000E+00   0.1005671128E-02  -0.4746572617E-04  -0.1066061110E-03  -0.4106594581E-03   0.0000000000E+00   0.0000000000E+00   0.9824692006E-01
   0.2910800212E+00   0.3677624304E-01   0.9141560164E-04  -0.1423234057E-06   0.5484936098E-03  -0.8539404344E-06   0.1064479586E+00   0.2670605010E-01   0.0000000000E+00  -0.6310023569E-02   0.0000000000E+00   0.0000000000E+00   0.9843614360E-03  -0.5228337486E-04  -0.1640606128E-03  -0.3994620262E-03   0.0000000000E+00   0.0000000000E+00   0.9650770249E-01
   0.3506999940E+00   0.2114854891E+00   0.1000000000E-03  -0.7567848025E-05   0.6000000000E-03  -0.4540708815E-04   0.1950821219E+00   0.2061944382E-02   0.0000000000E+00   0.5237949239E-03   0.0000000000E+00   0.0000000000E+00   0.1944635386E-02  -0.5646269218E-03   0.1361866802E-04  -0.5914321988E-03   0.0000000000E+00   0.0000000000E+00   0.1940602474E+00
   0.3315712544E+00   0.2119271784E+00   0.9469092110E-04  -0.7669373064E-05   0.5681455266E-03  -0.4601623839E-04   0.1954177780E+00   0.1922524571E-02   0.0000000000E+00  -0.1851083245E-02   0.0000000000E+00   0.0000000000E+00   0.1948410206E-02  -0.5670280883E-03  -0.4812816436E-04  -0.5920209077E-03   0.0000000000E+00   0.0000000000E+00   0.1944866818E+00
   0.3315076452E+00   0.1926584429E+00   0.9494488858E-04  -0.6170726622E-05   0.5696693315E-03  -0.3702435973E-04   0.1859984007E+00   0.3821711854E-02   0.0000000000E+00  -0.2392121069E-02   0.0000000000E+00   0.0000000000E+00   0.1848518871E-02  -0.5197780834E-03  -0.6219514780E-04  -0.5694603375E-03   0.0000000000E+00   0.0000000000E+00   0.1841578938E+00
   0.3506999940E+00   0.1922651355E+00   0.1000000000E-03  -0.6080064966E-05   0.6000000000E-03  -0.3648038979E-04   0.1857401770E+00   0.4047196897E-02   0.0000000000E+00   0.4913006635E-03   0.0000000000E+00   0.0000000000E+00   0.1845260180E-02  -0.5167485621E-03   0.1277381725E-04  -0.5693621218E-03   0.0000000000E+00   0.0000000000E+00   0.1837486618E+00
   0.2931502471E+00   0.2126259842E+00   0.8392773261E-04  -0.8295115917E-05   0.5035663957E-03  -0.4977069550E-04   0.1981955308E+00   0.1349398611E-02   0.0000000000E+00  -0.4560694052E-02   0.0000000000E+00   0.0000000000E+00   0.1977907112E-02  -0.5810926064E-03  -0.1185780453E-03  -0.5986347883E-03   0.0000000000E+00   0.0000000000E+00   0.1976805401E+00
   0.2740533633E+00   0.2130812272E+00   0.7849061712E-04  -0.8876686335E-05   0.4709437027E-03  -0.5326011801E-04   0.2004055017E+00   0.8015710204E-03   0.0000000000E+00  -0.5455652866E-02   0.0000000000E+00   0.0000000000E+00   0.2001650304E-02  -0.5932007949E-03  -0.1418469745E-03  -0.6036212182E-03   0.0000000000E+00   0.0000000000E+00   0.2002275665E+00
   0.2739121448E+00   0.1942211845E+00   0.7951868220E-04  -0.7331209604E-05   0.4771120932E-03  -0.4398725762E-04   0.1906329892E+00   0.1689183417E-02   0.0000000000E+00  -0.7308865593E-02   0.0000000000E+00   0.0000000000E+00   0.1901262341E-02  -0.5550071333E-03  -0.1900305054E-03  -0.5769665178E-03   0.0000000000E+00   0.0000000000E+00   0.1902192958E+00
   0.2930118642E+00   0.1933994924E+00   0.8470531593E-04  -0.6756086725E-05   0.5082318956E-03  -0.4053652035E-04   0.1885729293E+00   0.2552531657E-02   0.0000000000E+00  -0.6138125828E-02   0.0000000000E+00   0.0000000000E+00   0.1878071698E-02  -0.5401934714E-03  -0.1595912715E-03  -0.5733763830E-03   0.0000000000E+00   0.0000000000E+00   0.1876088391E+00
   0.1949439403E+00   0.5816201589E-01   0.7676090656E-04  -0.1157358415E-05   0.4605654393E-03  -0.6944150490E-05   0.9735876228E-01   0.2042510382E-02   0.0000000000E+00  -0.3062427347E-01   0.0000000000E+00   0.0000000000E+00   0.9674600917E-03  -0.2716511830E-03  -0.7962311103E-03  -0.2982038180E-03   0.0000000000E+00   0.0000000000E+00   0.1098699274E+00
   0.2146516047E+00   0.5660795858E-01   0.7967510152E-04  -0.8035031991E-06   0.4780506091E-03  -0.4821019194E-05   0.1003141536E+00   0.9225240883E-02   0.0000000000E+00  -0.2465705455E-01   0.0000000000E+00   0.0000000000E+00   0.9754658134E-03  -0.2086900520E-03  -0.6410834182E-03  -0.3286181835E-03   0.0000000000E+00   0.0000000000E+00   0.1051085796E+00
   0.7338405977E-01   0.1304151460E+00   0.2929863793E-04  -0.2527386271E-04   0.1757918276E-03  -0.1516431763E-03   0.2489166009E+00  -0.9164007284E-02   0.0000000000E+00   0.5433011090E-02   0.0000000000E+00   0.0000000000E+00   0.2516658031E-02  -0.8383898756E-03   0.1412582883E-03  -0.7192577809E-03   0.0000000000E+00   0.0000000000E+00   0.2535786043E+00
   0.5565987338E-01   0.1222745256E+00   0.2460739718E-04  -0.2870491898E-04   0.1476443831E-03  -0.1722295139E-03   0.2879835900E+00   0.1913254250E-01   0.0000000000E+00  -0.8845808854E-02   0.0000000000E+00   0.0000000000E+00   0.2822438273E-02  -0.6726253450E-03  -0.2299910302E-03  -0.9213483975E-03   0.0000000000E+00   0.0000000000E+00   0.2786787342E+00
   0.8102530172E-01   0.1171242778E+00   0.3544018882E-04  -0.2168703484E-04   0.2126411329E-03  -0.1301222090E-03   0.2386167959E+00  -0.1656291971E-01   0.0000000000E+00  -0.9973220320E-02   0.0000000000E+00   0.0000000000E+00   0.2435856718E-02  -0.8814795848E-03  -0.2593037283E-03  -0.6661616286E-03   0.0000000000E+00   0.0000000000E+00   0.2477043998E+00
   0.5841242297E-01   0.2497294758E+00   0.1129848072E-04  -0.3864632041E-04   0.6779088432E-04  -0.2318779225E-03   0.1550337837E+00  -0.1531220464E-02   0.0000000000E+00   0.4141533914E-02   0.0000000000E+00   0.0000000000E+00   0.1554931498E-02  -0.4804135557E-03   0.1076798818E-03  -0.4605076897E-03   0.0000000000E+00   0.0000000000E+00   0.1558332733E+00
   0.7833279390E-01   0.2131923500E+00   0.2059087172E-04  -0.3261142629E-04   0.1235452303E-03  -0.1956685577E-03   0.1959651297E+00  -0.5226372825E-03   0.0000000000E+00   0.2239228468E-01   0.0000000000E+00   0.0000000000E+00   0.1961219209E-02  -0.5931217619E-03   0.5821994016E-03  -0.5863274773E-03   0.0000000000E+00   0.0000000000E+00   0.1999167553E+00
   0.7815329423E-01   0.1932180523E+00   0.2239920479E-04  -0.3090295616E-04   0.1343952288E-03  -0.1854177370E-03   0.2097040746E+00  -0.1387509799E-02   0.0000000000E+00   0.2639370037E-01   0.0000000000E+00   0.0000000000E+00   0.2101203275E-02  -0.6429873217E-03   0.6862362095E-03  -0.6249496944E-03   0.0000000000E+00   0.0000000000E+00   0.2153056854E+00
   0.1771039094E+00   0.2156859459E+00   0.4963819535E-04  -0.1623629999E-04   0.2978291721E-03  -0.9741779993E-04   0.2117645767E+00  -0.3826874766E-02   0.0000000000E+00   0.1402773349E-02   0.0000000000E+00   0.0000000000E+00   0.2129126392E-02  -0.6735624778E-03   0.3647210708E-04  -0.6238131059E-03   0.0000000000E+00   0.0000000000E+00   0.2137218814E+00
   0.3121467253E+00   0.1537035267E+00   0.9107189544E-04  -0.3740042275E-05   0.5464313727E-03  -0.2244025365E-04   0.1656360518E+00   0.8471098595E-02   0.0000000000E+00  -0.6135589196E-02   0.0000000000E+00   0.0000000000E+00   0.1630947222E-02  -0.4121971693E-03  -0.1595253191E-03  -0.5223214510E-03   0.0000000000E+00   0.0000000000E+00   0.1619129124E+00
   0.3121296618E+00   0.1734032066E+00   0.9042240577E-04  -0.4987196300E-05   0.5425344346E-03  -0.2992317780E-04   0.1765710966E+00   0.5720934080E-02   0.0000000000E+00  -0.5344861411E-02   0.0000000000E+00   0.0000000000E+00   0.1748548163E-02  -0.4725039489E-03  -0.1389663967E-03  -0.5468760919E-03   0.0000000000E+00   0.0000000000E+00   0.1740242733E+00
   0.1168519940E+00   0.2497987153E+00   0.2647527911E-04  -0.2875496312E-04   0.1588516747E-03  -0.1725297787E-03   0.2068577854E+00  -0.1011709284E-03   0.0000000000E+00   0.3375384284E-02   0.0000000000E+00   0.0000000000E+00   0.2068881367E-02  -0.6215850656E-03   0.8775999138E-04  -0.6202698436E-03   0.0000000000E+00   0.0000000000E+00   0.2068863410E+00
   0.7109600123E-01   0.7056101581E-01   0.5504569043E-04  -0.2138079808E-04   0.3302741426E-03  -0.1282847885E-03   0.9893342981E-01   0.4984732948E-01   0.0000000000E+00  -0.6411232483E-01   0.0000000000E+00   0.0000000000E+00   0.8397923097E-03   0.2016730053E-03  -0.1666920446E-02  -0.4463422779E-03   0.0000000000E+00   0.0000000000E+00   0.1302242425E+00
   0.8425485478E-01   0.7954862776E-01   0.5169976838E-04  -0.1662003463E-04   0.3101986103E-03  -0.9972020781E-04   0.1350719695E+00  -0.4874284177E-02   0.0000000000E+00  -0.5396609320E-01   0.0000000000E+00   0.0000000000E+00   0.1365342547E-02  -0.4539587502E-03  -0.1403118423E-02  -0.3905930559E-03   0.0000000000E+00   0.0000000000E+00   0.1672848671E+00
   0.2354090830E+00   0.2142354489E+00   0.6723214812E-04  -0.1079358833E-04   0.4033928887E-03  -0.6476152996E-04   0.2057047094E+00  -0.7337285842E-03   0.0000000000E+00  -0.5363518022E-02   0.0000000000E+00   0.0000000000E+00   0.2059248280E-02  -0.6244514141E-03  -0.1394514686E-03  -0.6149129425E-03   0.0000000000E+00   0.0000000000E+00   0.2062856257E+00
   0.1778012566E+00   0.1998112364E+00   0.5173751222E-04  -0.1460722932E-04   0.3104250733E-03  -0.8764337594E-04   0.2060659026E+00  -0.7221439871E-02   0.0000000000E+00   0.1743118159E-04   0.0000000000E+00   0.0000000000E+00   0.2082323346E-02  -0.6904121065E-03   0.4532107213E-06  -0.5965333882E-03   0.0000000000E+00   0.0000000000E+00   0.2097642796E+00
   0.1588462565E+00   0.1996677681E+00   0.4609107313E-04  -0.1709570653E-04   0.2765464388E-03  -0.1025742392E-03   0.2080169515E+00  -0.8798428430E-02   0.0000000000E+00   0.4803167190E-02   0.0000000000E+00   0.0000000000E+00   0.2106564800E-02  -0.7120351389E-03   0.1248823469E-03  -0.5976555693E-03   0.0000000000E+00   0.0000000000E+00   0.2127015537E+00
   0.1600207323E+00   0.1838040521E+00   0.4846833163E-04  -0.1527984993E-04   0.2908099898E-03  -0.9167909960E-04   0.2048333825E+00  -0.1332449413E-01   0.0000000000E+00   0.2184376055E-02   0.0000000000E+00   0.0000000000E+00   0.2088307308E-02  -0.7477450889E-03   0.5679377743E-04  -0.5745266651E-03   0.0000000000E+00   0.0000000000E+00   0.2118141281E+00
   0.1781881789E+00   0.1844960998E+00   0.5373199084E-04  -0.1303502965E-04   0.3223919451E-03  -0.7821017789E-04   0.2011360769E+00  -0.1048827512E-01   0.0000000000E+00  -0.2587290156E-02   0.0000000000E+00   0.0000000000E+00   0.2042825594E-02  -0.7082909819E-03  -0.6726954406E-04  -0.5719434054E-03   0.0000000000E+00   0.0000000000E+00   0.2066090034E+00
   0.2548092479E+00   0.2136504955E+00   0.7292869793E-04  -0.9694212198E-05   0.4375721876E-03  -0.5816527319E-04   0.2029073408E+00   0.6900546401E-04   0.0000000000E+00  -0.5762504461E-02   0.0000000000E+00   0.0000000000E+00   0.2028866391E-02  -0.6080319676E-03  -0.1498251160E-03  -0.6089290387E-03   0.0000000000E+00   0.0000000000E+00   0.2031173649E+00
   0.3123367649E+00   0.2122772047E+00   0.8932498464E-04  -0.7903893900E-05   0.5359499078E-03  -0.4742336340E-04   0.1965671234E+00   0.1691996248E-02   0.0000000000E+00  -0.3231813474E-02   0.0000000000E+00   0.0000000000E+00   0.1960595245E-02  -0.5727814076E-03  -0.8402715033E-04  -0.5947773589E-03   0.0000000000E+00   0.0000000000E+00   0.1958075838E+00
   0.3122943640E+00   0.1929884605E+00   0.8985828391E-04  -0.6385507111E-05   0.5391497035E-03  -0.3831304267E-04   0.1870345668E+00   0.3414514897E-02   0.0000000000E+00  -0.4340585226E-02   0.0000000000E+00   0.0000000000E+00   0.1860102123E-02  -0.5269585514E-03  -0.1128552159E-03  -0.5713472451E-03   0.0000000000E+00   0.0000000000E+00   0.1855065247E+00
   0.6726457532E-01   0.1438738315E+00   0.2452356068E-04  -0.2821564280E-04   0.1471413641E-03  -0.1692938568E-03   0.2491981430E+00   0.1471168331E-02   0.0000000000E+00   0.1715445868E-01   0.0000000000E+00   0.0000000000E+00   0.2487567925E-02  -0.7328827456E-03   0.4460159256E-03  -0.7520079339E-03   0.0000000000E+00   0.0000000000E+00   0.2501723189E+00
   0.6226521442E-01   0.1544271051E+00   0.2130611710E-04  -0.3033326792E-04   0.1278367026E-03  -0.1819996075E-03   0.2444064613E+00   0.5388078720E-02   0.0000000000E+00   0.2177011537E-01   0.0000000000E+00   0.0000000000E+00   0.2427900377E-02  -0.6793385968E-03   0.5660229996E-03  -0.7493836201E-03   0.0000000000E+00   0.0000000000E+00   0.2445151615E+00
   0.1530596007E+00   0.3950554100E-01   0.7481638904E-04  -0.1453971864E-05   0.4488983343E-03  -0.8723831185E-05   0.5817397502E-01  -0.1786925000E-01   0.0000000000E+00  -0.3671102029E-01   0.0000000000E+00   0.0000000000E+00   0.6353475002E-03  -0.3532144250E-03  -0.9544865276E-03  -0.1209141751E-03   0.0000000000E+00   0.0000000000E+00   0.9294106701E-01
   0.1358560617E+00   0.4587824684E-01   0.7183838343E-04  -0.2927479599E-05   0.4310303006E-03  -0.1756487760E-04   0.5805267959E-01  -0.3497830506E-01   0.0000000000E+00  -0.4805336204E-01   0.0000000000E+00   0.0000000000E+00   0.6854617111E-03  -0.5239410894E-03  -0.1249387413E-02  -0.6922312359E-04   0.0000000000E+00   0.0000000000E+00   0.1131981232E+00
   0.1630520199E+00   0.0000000000E+00   0.7886084245E-04   0.0000000000E+00   0.4731650547E-03   0.0000000000E+00   0.3520221814E-01  -0.2876063201E-02   0.0000000000E+00  -0.6319015093E-02   0.0000000000E+00   0.0000000000E+00   0.3606503710E-03  -0.1343672864E-03  -0.1642943924E-03  -0.9697846483E-04   0.0000000000E+00   0.0000000000E+00   0.3612613926E-01
   0.1669782874E+00   0.1949590397E-01   0.7833362562E-04  -0.4074617144E-06   0.4700017537E-03  -0.2444770287E-05   0.4682561871E-01  -0.3180371351E-02   0.0000000000E+00  -0.1547203550E-01   0.0000000000E+00   0.0000000000E+00   0.4777973011E-03  -0.1722805696E-03  -0.4022729231E-03  -0.1309357421E-03   0.0000000000E+00   0.0000000000E+00   0.5590064486E-01
   0.2760475510E+00   0.9271511985E-01   0.8659185802E-04  -0.1291364420E-05   0.5195511481E-03  -0.7748186518E-05   0.1308616842E+00   0.1537721604E-01   0.0000000000E+00  -0.1415670011E-01   0.0000000000E+00   0.0000000000E+00   0.1262485194E-02  -0.2388128922E-03  -0.3680742029E-03  -0.4387167007E-03   0.0000000000E+00   0.0000000000E+00   0.1262640967E+00
   0.2942564260E+00   0.9348239872E-01   0.8983371345E-04  -0.1172753729E-05   0.5390022807E-03  -0.7036522373E-05   0.1317008941E+00   0.1754332916E-01   0.0000000000E+00  -0.1054549149E-01   0.0000000000E+00   0.0000000000E+00   0.1264378954E-02  -0.2196693908E-03  -0.2741827786E-03  -0.4477326699E-03   0.0000000000E+00   0.0000000000E+00   0.1251796796E+00
   0.2943923376E+00   0.1128356957E+00   0.8894580493E-04  -0.1873616552E-05   0.5336748296E-03  -0.1124169931E-04   0.1425186830E+00   0.1399570521E-01   0.0000000000E+00  -0.1057505641E-01   0.0000000000E+00   0.0000000000E+00   0.1383199715E-02  -0.2875989970E-03  -0.2749514667E-03  -0.4695431647E-03   0.0000000000E+00   0.0000000000E+00   0.1372632610E+00
   0.2765023234E+00   0.1113604364E+00   0.8549177317E-04  -0.2016228971E-05   0.5129506390E-03  -0.1209737382E-04   0.1423213191E+00   0.1180518612E-01   0.0000000000E+00  -0.1378379690E-01   0.0000000000E+00   0.0000000000E+00   0.1387797633E-02  -0.3089120961E-03  -0.3583787194E-03  -0.4623795157E-03   0.0000000000E+00   0.0000000000E+00   0.1388546331E+00
   0.2935087654E+00   0.7443397045E-01   0.9053062404E-04  -0.6701214141E-06   0.5431837442E-03  -0.4020728484E-05   0.1216979514E+00   0.2112639573E-01   0.0000000000E+00  -0.9908226294E-02   0.0000000000E+00   0.0000000000E+00   0.1153600327E-02  -0.1538298970E-03  -0.2576138836E-03  -0.4284730414E-03   0.0000000000E+00   0.0000000000E+00   0.1138990770E+00
   0.1716256089E+00   0.3887594162E-01   0.7665298276E-04  -0.8982681176E-06   0.4599178966E-03  -0.5389608705E-05   0.6415304598E-01  -0.4565544888E-02   0.0000000000E+00  -0.3179424460E-01   0.0000000000E+00   0.0000000000E+00   0.6552270944E-03  -0.2381145868E-03  -0.8266503595E-03  -0.1787625033E-03   0.0000000000E+00   0.0000000000E+00   0.8591923511E-01
   0.2935791272E+00   0.1327297510E+00   0.8778860259E-04  -0.2801853295E-05   0.5267316155E-03  -0.1681111977E-04   0.1544167590E+00   0.1003785970E-01   0.0000000000E+00  -0.1013329734E-01   0.0000000000E+00   0.0000000000E+00   0.1514054011E-02  -0.3628716799E-03  -0.2634657309E-03  -0.4933638561E-03   0.0000000000E+00   0.0000000000E+00   0.1506626317E+00
   0.5202266235E-01   0.1831257357E+00   0.1537006482E-04  -0.3467904239E-04   0.9222038891E-04  -0.2080742543E-03   0.2162084510E+00   0.1032865845E-01   0.0000000000E+00   0.2506912186E-01   0.0000000000E+00   0.0000000000E+00   0.2131098535E-02  -0.5453387685E-03   0.6517971683E-03  -0.6796113284E-03   0.0000000000E+00   0.0000000000E+00   0.2157055538E+00
   0.5053232797E-01   0.1683555081E+00   0.1599453814E-04  -0.3378969771E-04   0.9596722883E-04  -0.2027381863E-03   0.2303739733E+00   0.1579584760E-01   0.0000000000E+00   0.2588138114E-01   0.0000000000E+00   0.0000000000E+00   0.2256352190E-02  -0.5331634438E-03   0.6729159096E-03  -0.7385094626E-03   0.0000000000E+00   0.0000000000E+00   0.2273391298E+00
   0.2923772110E+00   0.5550346698E-01   0.9105985715E-04  -0.3366178336E-06   0.5463591429E-03  -0.2019707002E-05   0.1131097544E+00   0.2423609644E-01   0.0000000000E+00  -0.8441878429E-02   0.0000000000E+00   0.0000000000E+00   0.1058389255E-02  -0.9696829887E-04  -0.2194888391E-03  -0.4120375526E-03   0.0000000000E+00   0.0000000000E+00   0.1041582602E+00
   0.2922704851E+00   0.1532662605E+00   0.8645272272E-04  -0.3985792490E-05   0.5187163363E-03  -0.2391475494E-04   0.1662926818E+00   0.7232980423E-02   0.0000000000E+00  -0.8988541327E-02   0.0000000000E+00   0.0000000000E+00   0.1641227877E-02  -0.4265482412E-03  -0.2337020745E-03  -0.5205769867E-03   0.0000000000E+00   0.0000000000E+00   0.1635180395E+00
   0.2711872207E+00   0.3669136145E-01   0.8866253081E-04  -0.1679935044E-06   0.5319751849E-03  -0.1007961026E-05   0.1029218043E+00   0.2479603126E-01   0.0000000000E+00  -0.8792900796E-02   0.0000000000E+00   0.0000000000E+00   0.9548299490E-03  -0.6080510024E-04  -0.2286154207E-03  -0.3831535066E-03   0.0000000000E+00   0.0000000000E+00   0.9421100567E-01
   0.2512919108E+00   0.3681277370E-01   0.8599810729E-04  -0.2098423046E-06   0.5159886438E-03  -0.1259053828E-05   0.9823997582E-01   0.2207708063E-01   0.0000000000E+00  -0.1171319310E-01   0.0000000000E+00   0.0000000000E+00   0.9161685163E-03  -0.7394912113E-04  -0.3045430205E-03  -0.3609511694E-03   0.0000000000E+00   0.0000000000E+00   0.9144762878E-01
   0.2341124670E+00   0.5569599900E-01   0.8249214562E-04  -0.5971718062E-06   0.4949528737E-03  -0.3583030837E-05   0.1039209335E+00   0.1509320213E-01   0.0000000000E+00  -0.1955699676E-01   0.0000000000E+00   0.0000000000E+00   0.9939297286E-03  -0.1608307792E-03  -0.5084819158E-03  -0.3570424069E-03   0.0000000000E+00   0.0000000000E+00   0.1029510125E+00
   0.2536345804E+00   0.5532419335E-01   0.8532105636E-04  -0.4682784131E-06   0.5119263382E-03  -0.2809670479E-05   0.1074604759E+00   0.1918562074E-01   0.0000000000E+00  -0.1525646492E-01   0.0000000000E+00   0.0000000000E+00   0.1017047897E-02  -0.1305252203E-03  -0.3966680879E-03  -0.3799382900E-03   0.0000000000E+00   0.0000000000E+00   0.1027015444E+00
   0.2353464127E+00   0.1969895742E+00   0.6867395333E-04  -0.9282253084E-05   0.4120437200E-03  -0.5569351850E-04   0.1967651503E+00  -0.1479352001E-02   0.0000000000E+00  -0.7563814519E-02   0.0000000000E+00   0.0000000000E+00   0.1972089559E-02  -0.6050889710E-03  -0.1966591775E-03  -0.5858573950E-03   0.0000000000E+00   0.0000000000E+00   0.1979482717E+00
   0.2547402253E+00   0.1956179862E+00   0.7418461132E-04  -0.8166250899E-05   0.4451076679E-03  -0.4899750539E-04   0.1934949093E+00   0.1158698978E-03   0.0000000000E+00  -0.7962385909E-02   0.0000000000E+00   0.0000000000E+00   0.1934601483E-02  -0.5793260288E-03  -0.2070220336E-03  -0.5808323375E-03   0.0000000000E+00   0.0000000000E+00   0.1939330692E+00
   0.1600505297E+00   0.7267269145E-01   0.6887367324E-04  -0.3280879045E-05   0.4132420395E-03  -0.1968527427E-04   0.1121793271E+00  -0.2208541804E-01   0.0000000000E+00  -0.4345416633E-01   0.0000000000E+00   0.0000000000E+00   0.1188049526E-02  -0.5573921618E-03  -0.1129808325E-02  -0.2702817273E-03   0.0000000000E+00   0.0000000000E+00   0.1454086534E+00
   0.1742514690E+00   0.6064933892E-01   0.7350556963E-04  -0.1768468923E-05   0.4410334178E-03  -0.1061081354E-04   0.9596138851E-01  -0.9909912983E-02   0.0000000000E+00  -0.3863835833E-01   0.0000000000E+00   0.0000000000E+00   0.9893436240E-03  -0.3869832953E-03  -0.1004597317E-02  -0.2581544266E-03   0.0000000000E+00   0.0000000000E+00   0.1213768358E+00
   0.1846186070E+00   0.8231992305E-01   0.7130200213E-04  -0.2769450119E-05   0.4278120128E-03  -0.1661670072E-04   0.1257463164E+00  -0.1132593777E-01   0.0000000000E+00  -0.3655383213E-01   0.0000000000E+00   0.0000000000E+00   0.1291440977E-02  -0.4904983269E-03  -0.9503996353E-03  -0.3432611359E-03   0.0000000000E+00   0.0000000000E+00   0.1460262033E+00
   0.1698697811E+00   0.8992538169E-01   0.6704043776E-04  -0.4128244575E-05   0.4022426266E-03  -0.2476946745E-04   0.1362647786E+00  -0.2063594841E-01   0.0000000000E+00  -0.3701868887E-01   0.0000000000E+00   0.0000000000E+00   0.1424555631E-02  -0.6151538200E-03  -0.9624859106E-03  -0.3468864906E-03   0.0000000000E+00   0.0000000000E+00   0.1609621384E+00
   0.9902369995E-01   0.2140075402E+00   0.2640274942E-04  -0.2883397683E-04   0.1584164965E-03  -0.1730038610E-03   0.2024945652E+00  -0.3870837629E-02   0.0000000000E+00   0.2014187966E-01   0.0000000000E+00   0.0000000000E+00   0.2036558165E-02  -0.6461920719E-03   0.5236888712E-03  -0.5958711828E-03   0.0000000000E+00   0.0000000000E+00   0.2073155068E+00
   0.1400290038E+00   0.1992464791E+00   0.4046811105E-04  -0.1995512545E-04   0.2428086663E-03  -0.1197307527E-03   0.2092899262E+00  -0.9835731889E-02   0.0000000000E+00   0.1031196134E-01   0.0000000000E+00   0.0000000000E+00   0.2122406457E-02  -0.7262270974E-03   0.2681109948E-03  -0.5983625828E-03   0.0000000000E+00   0.0000000000E+00   0.2151032775E+00
   0.1211320293E+00   0.1984771517E+00   0.3483547830E-04  -0.2316246916E-04   0.2090128698E-03  -0.1389748150E-03   0.2096168134E+00  -0.9776745717E-02   0.0000000000E+00   0.1606937277E-01   0.0000000000E+00   0.0000000000E+00   0.2125498371E-02  -0.7266178974E-03   0.4178036919E-03  -0.5995202031E-03   0.0000000000E+00   0.0000000000E+00   0.2164515099E+00
   0.2187187500E+00   0.7552673686E-01   0.7819242233E-04  -0.1423034445E-05   0.4691545340E-03  -0.8538206671E-05   0.1168847835E+00   0.5675998269E-02   0.0000000000E+00  -0.2656746577E-01   0.0000000000E+00   0.0000000000E+00   0.1151819840E-02  -0.2938943677E-03  -0.6907541101E-03  -0.3676823452E-03   0.0000000000E+00   0.0000000000E+00   0.1229867016E+00
   0.8050024763E-01   0.1526114562E+00   0.2773887510E-04  -0.2623568214E-04   0.1664332506E-03  -0.1574140928E-03   0.2340715124E+00  -0.1024099605E-01   0.0000000000E+00   0.1956894939E-01   0.0000000000E+00   0.0000000000E+00   0.2371438112E-02  -0.8046244977E-03   0.5087926841E-03  -0.6714915490E-03   0.0000000000E+00   0.0000000000E+00   0.2416205970E+00
   0.6999277522E-01   0.1665311627E+00   0.2245101705E-04  -0.2995746485E-04   0.1347061023E-03  -0.1797447891E-03   0.2287523576E+00   0.1205870524E-02   0.0000000000E+00   0.2570454518E-01   0.0000000000E+00   0.0000000000E+00   0.2283905964E-02  -0.6741983676E-03   0.6683181747E-03  -0.6898746844E-03   0.0000000000E+00   0.0000000000E+00   0.2324640459E+00
   0.1417468930E+00   0.1829894495E+00   0.4307914021E-04  -0.1793650052E-04   0.2584748413E-03  -0.1076190031E-03   0.2083139972E+00  -0.1488171174E-01   0.0000000000E+00   0.7829649195E-02   0.0000000000E+00   0.0000000000E+00   0.2127785108E-02  -0.7737591091E-03   0.2035708791E-03  -0.5802968565E-03   0.0000000000E+00   0.0000000000E+00   0.2165236393E+00
   0.2730661327E+00   0.1744655642E+00   0.8051295416E-04  -0.5847976629E-05   0.4830777250E-03  -0.3508785977E-04   0.1807215261E+00   0.2842548944E-02   0.0000000000E+00  -0.9542983750E-02   0.0000000000E+00   0.0000000000E+00   0.1798687614E-02  -0.5137390889E-03  -0.2481175775E-03  -0.5506922252E-03   0.0000000000E+00   0.0000000000E+00   0.1800670940E+00
   0.2925415482E+00   0.1735919719E+00   0.8550917265E-04  -0.5306873992E-05   0.5130550359E-03  -0.3184124395E-04   0.1778231743E+00   0.4661807627E-02   0.0000000000E+00  -0.7842362107E-02   0.0000000000E+00   0.0000000000E+00   0.1764246320E-02  -0.4868514467E-03  -0.2039014148E-03  -0.5474549458E-03   0.0000000000E+00   0.0000000000E+00   0.1760652073E+00
   0.9448412773E-01   0.1608710872E+00   0.3121894712E-04  -0.2417196605E-04   0.1873136827E-03  -0.1450317963E-03   0.2258910400E+00  -0.1548249932E-01   0.0000000000E+00   0.1878938759E-01   0.0000000000E+00   0.0000000000E+00   0.2305357898E-02  -0.8324981132E-03   0.4885240773E-03  -0.6312256221E-03   0.0000000000E+00   0.0000000000E+00   0.2361902369E+00
   0.8736917179E-01   0.1752929083E+00   0.2708576978E-04  -0.2727567140E-04   0.1625146187E-03  -0.1636540284E-03   0.2215011613E+00  -0.8325957901E-02   0.0000000000E+00   0.2539421424E-01   0.0000000000E+00   0.0000000000E+00   0.2239989487E-02  -0.7477630630E-03   0.6602495702E-03  -0.6395256103E-03   0.0000000000E+00   0.0000000000E+00   0.2300213743E+00
   0.2746931680E+00   0.7396821257E-01   0.8746657741E-04  -0.7531043247E-06   0.5247994644E-03  -0.4518625948E-05   0.1201305753E+00   0.1891795615E-01   0.0000000000E+00  -0.1344076826E-01   0.0000000000E+00   0.0000000000E+00   0.1144551885E-02  -0.1712121644E-03  -0.3494599747E-03  -0.4171455944E-03   0.0000000000E+00   0.0000000000E+00   0.1142399046E+00
   0.2266749869E+00   0.1122786976E+00   0.7529955190E-04  -0.3178485994E-05   0.4517973114E-03  -0.1907091596E-04   0.1468916604E+00  -0.6041937598E-04   0.0000000000E+00  -0.2272715942E-01   0.0000000000E+00   0.0000000000E+00   0.1469097862E-02  -0.4412791749E-03  -0.5909061448E-03  -0.4404937230E-03   0.0000000000E+00   0.0000000000E+00   0.1520619161E+00
   0.2229818533E+00   0.9416900297E-01   0.7672361058E-04  -0.2224933280E-05   0.4603416635E-03  -0.1334959968E-04   0.1329476017E+00   0.2367506459E-02   0.0000000000E+00  -0.2548351514E-01   0.0000000000E+00   0.0000000000E+00   0.1322373498E-02  -0.3751677406E-03  -0.6625713936E-03  -0.4059453246E-03   0.0000000000E+00   0.0000000000E+00   0.1389254254E+00
   0.2730029829E+00   0.5525933992E-01   0.8816813139E-04  -0.3868401912E-06   0.5290087884E-03  -0.2321041147E-05   0.1105668167E+00   0.2217115128E-01   0.0000000000E+00  -0.1163492892E-01   0.0000000000E+00   0.0000000000E+00   0.1039154713E-02  -0.1099889374E-03  -0.3025081520E-03  -0.3982139040E-03   0.0000000000E+00   0.0000000000E+00   0.1032773856E+00
   0.1573774995E+00   0.5347950342E-01   0.7255420742E-04  -0.2111239807E-05   0.4353252445E-03  -0.1266743884E-04   0.8674768970E-01  -0.1914308000E-01   0.0000000000E+00  -0.4212426474E-01   0.0000000000E+00   0.0000000000E+00   0.9249061370E-03  -0.4516738691E-03  -0.1095230883E-02  -0.2028138291E-03   0.0000000000E+00   0.0000000000E+00   0.1220938292E+00
   0.1472411199E+00   0.6073459705E-01   0.6958897962E-04  -0.3182321472E-05   0.4175338777E-03  -0.1909392883E-04   0.9191453687E-01  -0.2541420435E-01   0.0000000000E+00  -0.4411434201E-01   0.0000000000E+00   0.0000000000E+00   0.9953879818E-03  -0.5298856541E-03  -0.1146972892E-02  -0.1995009975E-03   0.0000000000E+00   0.0000000000E+00   0.1320451874E+00
   0.1241642141E+00   0.1489870854E+00   0.4270859155E-04  -0.1679565105E-04   0.2562515493E-03  -0.1007739063E-03   0.2122169333E+00  -0.2772056362E-01   0.0000000000E+00   0.1779278610E-02   0.0000000000E+00   0.0000000000E+00   0.2205331024E-02  -0.9138564360E-03   0.4626124387E-04  -0.5534891090E-03   0.0000000000E+00   0.0000000000E+00   0.2272645006E+00
   0.1449452425E+00   0.1472666719E+00   0.4937935311E-04  -0.1319372648E-04   0.2962761186E-03  -0.7916235887E-04   0.2005712174E+00  -0.2686361779E-01   0.0000000000E+00  -0.7165149671E-02   0.0000000000E+00   0.0000000000E+00   0.2086303027E-02  -0.8703498301E-03  -0.1862938914E-03  -0.5211227988E-03   0.0000000000E+00   0.0000000000E+00   0.2156067910E+00
   0.1434865693E+00   0.1660230692E+00   0.4595446466E-04  -0.1571954883E-04   0.2757267879E-03  -0.9431729299E-04   0.2066642943E+00  -0.2140852260E-01   0.0000000000E+00   0.2392310480E-02   0.0000000000E+00   0.0000000000E+00   0.2130868511E-02  -0.8340781089E-03   0.6220007248E-04  -0.5557673150E-03   0.0000000000E+00   0.0000000000E+00   0.2181141949E+00
   0.1257679353E+00   0.1661821984E+00   0.4048703891E-04  -0.1869336493E-04   0.2429222334E-03  -0.1121601896E-03   0.2116939983E+00  -0.2203621541E-01   0.0000000000E+00   0.8179712332E-02   0.0000000000E+00   0.0000000000E+00   0.2183048629E-02  -0.8554441488E-03   0.2126725206E-03  -0.5689733486E-03   0.0000000000E+00   0.0000000000E+00   0.2239264601E+00
   0.6682610581E-01   0.1806629452E+00   0.2011454390E-04  -0.3183953944E-04   0.1206872634E-03  -0.1910372366E-03   0.2161883415E+00   0.2241348300E-02   0.0000000000E+00   0.2567267202E-01   0.0000000000E+00   0.0000000000E+00   0.2155159370E-02  -0.6261515414E-03   0.6674894726E-03  -0.6552890693E-03   0.0000000000E+00   0.0000000000E+00   0.2195681967E+00
   0.1097920835E+00   0.1659685056E+00   0.3547321319E-04  -0.2166019710E-04   0.2128392792E-03  -0.1299611826E-03   0.2190004264E+00  -0.1985163749E-01   0.0000000000E+00   0.1474187132E-01   0.0000000000E+00   0.0000000000E+00   0.2249559177E-02  -0.8555176541E-03   0.3832886542E-03  -0.5974463668E-03   0.0000000000E+00   0.0000000000E+00   0.2309858541E+00
   0.1056573572E+00   0.1804254771E+00   0.3226574442E-04  -0.2415312805E-04   0.1935944665E-03  -0.1449187683E-03   0.2155296092E+00  -0.1269617152E-01   0.0000000000E+00   0.2005949783E-01   0.0000000000E+00   0.0000000000E+00   0.2193384606E-02  -0.7735505427E-03   0.5215469435E-03  -0.6085003129E-03   0.0000000000E+00   0.0000000000E+00   0.2247877012E+00
   0.2151540075E+00   0.1816182825E+00   0.6454336076E-04  -0.9284216794E-05   0.3872601646E-03  -0.5570530076E-04   0.1922546204E+00  -0.4957188168E-02   0.0000000000E+00  -0.8993741417E-02   0.0000000000E+00   0.0000000000E+00   0.1937417768E-02  -0.6263357428E-03  -0.2338372768E-03  -0.5618922966E-03   0.0000000000E+00   0.0000000000E+00   0.1954033450E+00
   0.2343963276E+00   0.1797653354E+00   0.6997636434E-04  -0.7873235266E-05   0.4198581861E-03  -0.4723941159E-04   0.1879391511E+00  -0.2036722623E-02   0.0000000000E+00  -0.1018579641E-01   0.0000000000E+00   0.0000000000E+00   0.1885501679E-02  -0.5841846794E-03  -0.2648307067E-03  -0.5577072853E-03   0.0000000000E+00   0.0000000000E+00   0.1897920967E+00
   0.2758142243E+00   0.1304846816E+00   0.8409204709E-04  -0.2965918183E-05   0.5045522825E-03  -0.1779550910E-04   0.1532861850E+00   0.8265816823E-02   0.0000000000E+00  -0.1334786372E-01   0.0000000000E+00   0.0000000000E+00   0.1508064400E-02  -0.3772003868E-03  -0.3470444566E-03  -0.4846560055E-03   0.0000000000E+00   0.0000000000E+00   0.1510800643E+00
   0.2708909269E+00   0.1522558368E+00   0.8148455507E-04  -0.4352748803E-05   0.4889073304E-03  -0.2611649282E-04   0.1675512795E+00   0.4586637114E-02   0.0000000000E+00  -0.1212901161E-01   0.0000000000E+00   0.0000000000E+00   0.1661752883E-02  -0.4567874673E-03  -0.3153543019E-03  -0.5164137498E-03   0.0000000000E+00   0.0000000000E+00   0.1666356917E+00
   0.2538208276E+00   0.1774397521E+00   0.7533052124E-04  -0.6743409946E-05   0.4519831274E-03  -0.4046045967E-04   0.1834129121E+00   0.6051153520E-03   0.0000000000E+00  -0.1031198536E-01   0.0000000000E+00   0.0000000000E+00   0.1832313775E-02  -0.5441875828E-03  -0.2681116193E-03  -0.5520540824E-03   0.0000000000E+00   0.0000000000E+00   0.1839795615E+00
   0.1225290311E+00   0.5808989976E-01   0.6696815045E-04  -0.5385848395E-05   0.4018089027E-03  -0.3231509037E-04   0.7776356309E-01  -0.4624309415E-01   0.0000000000E+00  -0.4725938510E-01   0.0000000000E+00   0.0000000000E+00   0.9163649133E-03  -0.6957216308E-03  -0.1228744013E-02  -0.9456140680E-04   0.0000000000E+00   0.0000000000E+00   0.1375761218E+00
   0.1104597975E+00   0.7304019539E-01   0.5979421043E-04  -0.9052372307E-05   0.3587652626E-03  -0.5431423384E-04   0.1210979777E+00  -0.4505990497E-01   0.0000000000E+00  -0.4946961278E-01   0.0000000000E+00   0.0000000000E+00   0.1346159492E-02  -0.8138929827E-03  -0.1286209932E-02  -0.2281142181E-03   0.0000000000E+00   0.0000000000E+00   0.1712002334E+00
   0.1479137522E+00   0.8120054446E-01   0.6462602476E-04  -0.4952948205E-05   0.3877561486E-03  -0.2971768923E-04   0.1309587305E+00  -0.3151002221E-01   0.0000000000E+00  -0.4396273200E-01   0.0000000000E+00   0.0000000000E+00   0.1404117371E-02  -0.7079764135E-03  -0.1143031032E-02  -0.2983461248E-03   0.0000000000E+00   0.0000000000E+00   0.1676636124E+00
   0.1356895658E+00   0.7047266312E-01   0.6521940604E-04  -0.5040068168E-05   0.3913164363E-03  -0.3024040901E-04   0.1110872980E+00  -0.3622025155E-01   0.0000000000E+00  -0.4911932752E-01   0.0000000000E+00   0.0000000000E+00   0.1219533734E-02  -0.6954644093E-03  -0.1277102515E-02  -0.2246011392E-03   0.0000000000E+00   0.0000000000E+00   0.1571790287E+00
   0.1011847770E+00   0.1967794328E+00   0.2898800097E-04  -0.2674931905E-04   0.1739280058E-03  -0.1604959143E-03   0.2103073610E+00  -0.7968355128E-02   0.0000000000E+00   0.2198261961E-01   0.0000000000E+00   0.0000000000E+00   0.2126978675E-02  -0.7106056342E-03   0.5715481099E-03  -0.6070170175E-03   0.0000000000E+00   0.0000000000E+00   0.2177492316E+00
   0.1237947527E+00   0.1822202108E+00   0.3768124749E-04  -0.2092260133E-04   0.2260874849E-03  -0.1255356080E-03   0.2120927228E+00  -0.1522832158E-01   0.0000000000E+00   0.1407573684E-01   0.0000000000E+00   0.0000000000E+00   0.2166612193E-02  -0.7885613843E-03   0.3659691579E-03  -0.5905932037E-03   0.0000000000E+00   0.0000000000E+00   0.2213932652E+00
   0.1614685719E+00   0.1678603643E+00   0.5106712370E-04  -0.1334639187E-04   0.3064027422E-03  -0.8007835120E-04   0.2006013215E+00  -0.1767204200E-01   0.0000000000E+00  -0.2929841872E-02   0.0000000000E+00   0.0000000000E+00   0.2059029341E-02  -0.7785243846E-03  -0.7617588867E-04  -0.5487878386E-03   0.0000000000E+00   0.0000000000E+00   0.2100348492E+00
   0.1785359412E+00   0.1697686135E+00   0.5573716759E-04  -0.1149777937E-04   0.3344230055E-03  -0.6898667623E-04   0.1957931030E+00  -0.1356296354E-01   0.0000000000E+00  -0.6282733575E-02   0.0000000000E+00   0.0000000000E+00   0.1998619920E-02  -0.7230089443E-03  -0.1633510730E-03  -0.5466904183E-03   0.0000000000E+00   0.0000000000E+00   0.2031926277E+00
   0.8828661329E-01   0.1396710833E+00   0.3261826940E-04  -0.2290367640E-04   0.1957096164E-03  -0.1374220584E-03   0.2356099798E+00  -0.1908007250E-01   0.0000000000E+00   0.9037638547E-02   0.0000000000E+00   0.0000000000E+00   0.2413340016E-02  -0.8976306645E-03   0.2349786022E-03  -0.6495897220E-03   0.0000000000E+00   0.0000000000E+00   0.2461738407E+00
   0.9974739482E-01   0.8887245502E-01   0.5117240260E-04  -0.1332163962E-04   0.3070344156E-03  -0.7992983773E-04   0.1721477589E+00  -0.4047137833E-01   0.0000000000E+00  -0.4054233671E-01   0.0000000000E+00   0.0000000000E+00   0.1842891724E-02  -0.9211570599E-03  -0.1054100755E-02  -0.3950291416E-03   0.0000000000E+00   0.0000000000E+00   0.2056948025E+00
   0.9664297889E-01   0.1275170444E+00   0.3808635514E-04  -0.1938222648E-04   0.2285181308E-03  -0.1162933589E-03   0.2269918966E+00  -0.2927822670E-01   0.0000000000E+00  -0.2109821327E-02   0.0000000000E+00   0.0000000000E+00   0.2357753646E-02  -0.9737579567E-03  -0.5485535451E-04  -0.5931410096E-03   0.0000000000E+00   0.0000000000E+00   0.2425040560E+00
   0.2510680681E+00   0.1600572531E+00   0.7606587216E-04  -0.5538131684E-05   0.4563952330E-03  -0.3322879010E-04   0.1738476024E+00   0.4167714995E-03   0.0000000000E+00  -0.1278800408E-01   0.0000000000E+00   0.0000000000E+00   0.1737225709E-02  -0.5173750921E-03  -0.3324881060E-03  -0.5227931216E-03   0.0000000000E+00   0.0000000000E+00   0.1750425680E+00
   0.2599193360E+00   0.1275131991E+00   0.8086514634E-04  -0.3137843849E-05   0.4851908780E-03  -0.1882706309E-04   0.1542872026E+00   0.6179742328E-02   0.0000000000E+00  -0.1571070609E-01   0.0000000000E+00   0.0000000000E+00   0.1524332799E-02  -0.4010641844E-03  -0.4084783583E-03  -0.4814008346E-03   0.0000000000E+00   0.0000000000E+00   0.1537118103E+00
   0.1965907382E+00   0.1839669035E+00   0.5908974905E-04  -0.1104835360E-04   0.3545384943E-03  -0.6629012160E-04   0.1965037508E+00  -0.7837933314E-02   0.0000000000E+00  -0.6373445599E-02   0.0000000000E+00   0.0000000000E+00   0.1988551308E-02  -0.6678905856E-03  -0.1657095856E-03  -0.5659974525E-03   0.0000000000E+00   0.0000000000E+00   0.2008357355E+00
   0.2588408564E+00   0.1414765464E+00   0.7947391394E-04  -0.4022652311E-05   0.4768434836E-03  -0.2413591386E-04   0.1649057439E+00   0.5420578009E-02   0.0000000000E+00  -0.1397462058E-01   0.0000000000E+00   0.0000000000E+00   0.1632795705E-02  -0.4405114517E-03  -0.3633401352E-03  -0.5109789659E-03   0.0000000000E+00   0.0000000000E+00   0.1640395185E+00
   0.2464819393E+00   0.1446102606E+00   0.7631718782E-04  -0.4618627031E-05   0.4579031269E-03  -0.2771176219E-04   0.1656452723E+00   0.1645862557E-02   0.0000000000E+00  -0.1517898659E-01   0.0000000000E+00   0.0000000000E+00   0.1651515135E-02  -0.4804771912E-03  -0.3946536513E-03  -0.5018734044E-03   0.0000000000E+00   0.0000000000E+00   0.1668993840E+00
   0.1921023516E+00   0.1589260279E+00   0.6095122556E-04  -0.9076585807E-05   0.3657073534E-03  -0.5445951484E-04   0.1859732715E+00  -0.1080357292E-01   0.0000000000E+00  -0.1184936671E-01   0.0000000000E+00   0.0000000000E+00   0.1892143434E-02  -0.6659555438E-03  -0.3080835345E-03  -0.5255090958E-03   0.0000000000E+00   0.0000000000E+00   0.1926974508E+00
   0.1949281498E+00   0.1697212215E+00   0.6035111570E-04  -0.9840353973E-05   0.3621066942E-03  -0.5904212384E-04   0.1903277239E+00  -0.1022559851E-01   0.0000000000E+00  -0.9332420493E-02   0.0000000000E+00   0.0000000000E+00   0.1933954035E-02  -0.6732391569E-03  -0.2426429328E-03  -0.5403063762E-03   0.0000000000E+00   0.0000000000E+00   0.1963067366E+00
   0.1801793796E+00   0.1552272672E+00   0.5820280580E-04  -0.9829255749E-05   0.3492168348E-03  -0.5897553450E-04   0.1894061699E+00  -0.1511751019E-01   0.0000000000E+00  -0.1083637644E-01   0.0000000000E+00   0.0000000000E+00   0.1939414230E-02  -0.7193936117E-03  -0.2817457875E-03  -0.5228659792E-03   0.0000000000E+00   0.0000000000E+00   0.1982234523E+00
   0.1012276865E+00   0.1484191173E+00   0.3539036379E-04  -0.2119724464E-04   0.2123421827E-03  -0.1271834678E-03   0.2241361754E+00  -0.2368337686E-01   0.0000000000E+00   0.1010935907E-01   0.0000000000E+00   0.0000000000E+00   0.2312411885E-02  -0.9092422949E-03   0.2628433359E-03  -0.6013583956E-03   0.0000000000E+00   0.0000000000E+00   0.2374650643E+00
   0.2009084314E+00   0.7796695371E-01   0.7489662991E-04  -0.1935669970E-05   0.4493797794E-03  -0.1161401982E-04   0.1187682384E+00  -0.1715918348E-02   0.0000000000E+00  -0.3179677884E-01   0.0000000000E+00   0.0000000000E+00   0.1192830139E-02  -0.3734638988E-03  -0.8267162498E-03  -0.3511569603E-03   0.0000000000E+00   0.0000000000E+00   0.1316356466E+00
   0.2118520988E+00   0.1146433924E+00   0.7183140705E-04  -0.3910799307E-05   0.4309884423E-03  -0.2346479584E-04   0.1513807007E+00  -0.5323031711E-02   0.0000000000E+00  -0.2432484381E-01   0.0000000000E+00   0.0000000000E+00   0.1529776102E-02  -0.5073724192E-03  -0.6324459390E-03  -0.4381730069E-03   0.0000000000E+00   0.0000000000E+00   0.1597167512E+00
   0.2070907259E+00   0.9687527886E-01   0.7329955840E-04  -0.2873977121E-05   0.4397973504E-03  -0.1724386273E-04   0.1370996312E+00  -0.4538827110E-02   0.0000000000E+00  -0.2869467091E-01   0.0000000000E+00   0.0000000000E+00   0.1384612793E-02  -0.4566871646E-03  -0.7460614437E-03  -0.3976824122E-03   0.0000000000E+00   0.0000000000E+00   0.1479384556E+00
   0.9022182569E-01   0.1038751179E+00   0.4279981241E-04  -0.1763415735E-04   0.2567988745E-03  -0.1058049441E-03   0.2186051005E+00  -0.2788045019E-01   0.0000000000E+00  -0.2519977163E-01   0.0000000000E+00   0.0000000000E+00   0.2269692355E-02  -0.9346198033E-03  -0.6551940625E-03  -0.5721739508E-03   0.0000000000E+00   0.0000000000E+00   0.2361348013E+00
   0.1248901362E+00   0.8333239191E-01   0.5919088245E-04  -0.7828097979E-05   0.3551452947E-03  -0.4696858787E-04   0.1411968345E+00  -0.4316535763E-01   0.0000000000E+00  -0.4556542812E-01   0.0000000000E+00   0.0000000000E+00   0.1541464418E-02  -0.8552440800E-03  -0.1184701131E-02  -0.2940944307E-03   0.0000000000E+00   0.0000000000E+00   0.1844274587E+00
   0.1090710196E+00   0.1150872603E+00   0.4524565173E-04  -0.1491224784E-04   0.2714739104E-03  -0.8947348706E-04   0.2055651665E+00  -0.3765740291E-01   0.0000000000E+00  -0.1929754851E-01   0.0000000000E+00   0.0000000000E+00   0.2168623874E-02  -0.9932695286E-03  -0.5017362612E-03  -0.5037232908E-03   0.0000000000E+00   0.0000000000E+00   0.2294103391E+00
   0.2443583967E+00   0.1279645401E+00   0.7742095390E-04  -0.3593412316E-05   0.4645257234E-03  -0.2156047390E-04   0.1551913495E+00   0.2566083133E-02   0.0000000000E+00  -0.1806653700E-01   0.0000000000E+00   0.0000000000E+00   0.1544215245E-02  -0.4399132171E-03  -0.4697299619E-03  -0.4732722978E-03   0.0000000000E+00   0.0000000000E+00   0.1570421788E+00
   0.1993317888E+00   0.1516870081E+00   0.6381939550E-04  -0.7797992278E-05   0.3829163730E-03  -0.4678795367E-04   0.1802566051E+00  -0.1112534966E-01   0.0000000000E+00  -0.1451033667E-01   0.0000000000E+00   0.0000000000E+00   0.1835942100E-02  -0.6520233118E-03  -0.3772687535E-03  -0.5073937662E-03   0.0000000000E+00   0.0000000000E+00   0.1877382797E+00
   0.2058350842E+00   0.1443891353E+00   0.6645845401E-04  -0.6663239211E-05   0.3987507241E-03  -0.3997943526E-04   0.1744206704E+00  -0.1011023423E-01   0.0000000000E+00  -0.1712694070E-01   0.0000000000E+00   0.0000000000E+00   0.1774537407E-02  -0.6243643537E-03  -0.4453004583E-03  -0.4929313086E-03   0.0000000000E+00   0.0000000000E+00   0.1821240708E+00
   0.1928813106E+00   0.1007942738E+00   0.6981123402E-04  -0.3763169639E-05   0.4188674041E-03  -0.2257901784E-04   0.1433795278E+00  -0.1116135130E-01   0.0000000000E+00  -0.3011940849E-01   0.0000000000E+00   0.0000000000E+00   0.1467279332E-02  -0.5417520965E-03  -0.7831046208E-03  -0.3966545296E-03   0.0000000000E+00   0.0000000000E+00   0.1580099483E+00
   0.1420628478E+00   0.1241387392E+00   0.5294025939E-04  -0.1069839679E-04   0.3176415563E-03  -0.6419038075E-04   0.1883088089E+00  -0.3331188304E-01   0.0000000000E+00  -0.1990816479E-01   0.0000000000E+00   0.0000000000E+00   0.1983023738E-02  -0.8980452570E-03  -0.5176122846E-03  -0.4649907775E-03   0.0000000000E+00   0.0000000000E+00   0.2097783274E+00
   0.1462641997E+00   0.1118289564E+00   0.5678682019E-04  -0.8610229288E-05   0.3407209212E-03  -0.5166137573E-04   0.1745974051E+00  -0.3375480825E-01   0.0000000000E+00  -0.2868725172E-01   0.0000000000E+00   0.0000000000E+00   0.1847238476E-02  -0.8613402978E-03  -0.7458685447E-03  -0.4225277905E-03   0.0000000000E+00   0.0000000000E+00   0.1998722850E+00
   0.1590130280E+00   0.1176136623E+00   0.5888443231E-04  -0.7893810055E-05   0.3533065939E-03  -0.4736286033E-04   0.1729388173E+00  -0.2811832184E-01   0.0000000000E+00  -0.2630060983E-01   0.0000000000E+00   0.0000000000E+00   0.1813743139E-02  -0.7999996703E-03  -0.6838158555E-03  -0.4344614864E-03   0.0000000000E+00   0.0000000000E+00   0.1940395979E+00
   0.1544795255E+00   0.1313074060E+00   0.5500750060E-04  -0.1000329274E-04   0.3300450036E-03  -0.6001975644E-04   0.1849986667E+00  -0.2923889028E-01   0.0000000000E+00  -0.1898273898E-01   0.0000000000E+00   0.0000000000E+00   0.1937703338E-02  -0.8473849028E-03  -0.4935512135E-03  -0.4672793292E-03   0.0000000000E+00   0.0000000000E+00   0.2036122623E+00
   0.1641446975E+00   0.1519010409E+00   0.5421078151E-04  -0.1122844072E-04   0.3252646891E-03  -0.6737064434E-04   0.1933286615E+00  -0.1980564721E-01   0.0000000000E+00  -0.9534613374E-02   0.0000000000E+00   0.0000000000E+00   0.1992703557E-02  -0.7780424566E-03  -0.2478999477E-03  -0.5205690429E-03   0.0000000000E+00   0.0000000000E+00   0.2045238258E+00
   0.1116570696E+00   0.1548088441E+00   0.3776936647E-04  -0.1991498946E-04   0.2266161988E-03  -0.1194899368E-03   0.2210239573E+00  -0.2162705092E-01   0.0000000000E+00   0.1062336130E-01   0.0000000000E+00   0.0000000000E+00   0.2275120726E-02  -0.8793423812E-03   0.2762073937E-03  -0.5981907192E-03   0.0000000000E+00   0.0000000000E+00   0.2331775636E+00
   0.1376055162E+00   0.1346547825E+00   0.4950559298E-04  -0.1272879222E-04   0.2970335579E-03  -0.7637275335E-04   0.2048920686E+00  -0.3008129357E-01   0.0000000000E+00  -0.1086697430E-01   0.0000000000E+00   0.0000000000E+00   0.2139164567E-02  -0.9154891416E-03  -0.2825413318E-03  -0.5244323252E-03   0.0000000000E+00   0.0000000000E+00   0.2220851503E+00
   0.1809567889E+00   0.1056205541E+00   0.6640497960E-04  -0.4852702834E-05   0.3984298776E-03  -0.2911621701E-04   0.1501880098E+00  -0.1864343636E-01   0.0000000000E+00  -0.3141780435E-01   0.0000000000E+00   0.0000000000E+00   0.1557810407E-02  -0.6369983929E-03  -0.8168629131E-03  -0.3946337202E-03   0.0000000000E+00   0.0000000000E+00   0.1692576216E+00
   0.1513960329E+00   0.9999004208E-01   0.6078356384E-04  -0.6651988134E-05   0.3647013830E-03  -0.3991192880E-04   0.1554563841E+00  -0.3123568292E-01   0.0000000000E+00  -0.3547752204E-01   0.0000000000E+00   0.0000000000E+00   0.1648270890E-02  -0.7787259816E-03  -0.9224155730E-03  -0.3726621036E-03   0.0000000000E+00   0.0000000000E+00   0.1836534982E+00
   0.1385187357E+00   0.9234736558E-01   0.5966424814E-04  -0.7155116440E-05   0.3579854888E-03  -0.4293069864E-04   0.1527006391E+00  -0.3774128939E-01   0.0000000000E+00  -0.4071717890E-01   0.0000000000E+00   0.0000000000E+00   0.1640230260E-02  -0.8355148113E-03  -0.1058646651E-02  -0.3448780493E-03   0.0000000000E+00   0.0000000000E+00   0.1881408514E+00
   0.1562091913E+00   0.9050933897E-01   0.6406733224E-04  -0.5232603893E-05   0.3844039935E-03  -0.3139562336E-04   0.1391997392E+00  -0.3131631562E-01   0.0000000000E+00  -0.4236609068E-01   0.0000000000E+00   0.0000000000E+00   0.1485946339E-02  -0.7307623739E-03  -0.1101518358E-02  -0.3236502709E-03   0.0000000000E+00   0.0000000000E+00   0.1732218740E+00
   0.1276066484E+00   0.1184856695E+00   0.5003848720E-04  -0.1209293461E-04   0.3002309232E-03  -0.7255760765E-04   0.1971709005E+00  -0.3767319536E-01   0.0000000000E+00  -0.2074271371E-01   0.0000000000E+00   0.0000000000E+00   0.2084728591E-02  -0.9682446549E-03  -0.5393105564E-03  -0.4784931153E-03   0.0000000000E+00   0.0000000000E+00   0.2212144816E+00
   0.1262638559E+00   0.1330368150E+00   0.4634883648E-04  -0.1433385244E-04   0.2780930189E-03  -0.8600311467E-04   0.2045053993E+00  -0.3342274139E-01   0.0000000000E+00  -0.1007538224E-01   0.0000000000E+00   0.0000000000E+00   0.2145322217E-02  -0.9477436117E-03  -0.2619599383E-03  -0.5132479736E-03   0.0000000000E+00   0.0000000000E+00   0.2238024944E+00
   0.1147427561E+00   0.1296061195E+00   0.4351673439E-04  -0.1593264869E-04   0.2611004063E-03  -0.9559589212E-04   0.2090669446E+00  -0.3746583801E-01   0.0000000000E+00  -0.9145422108E-02   0.0000000000E+00   0.0000000000E+00   0.2203066960E-02  -0.1001859214E-02  -0.2377809748E-03  -0.5148033198E-03   0.0000000000E+00   0.0000000000E+00   0.2303429529E+00
   0.2294934722E+00   0.1294611394E+00   0.7393788436E-04  -0.4221227291E-05   0.4436273061E-03  -0.2532736375E-04   0.1587201767E+00  -0.1344843324E-02   0.0000000000E+00  -0.1935623357E-01   0.0000000000E+00   0.0000000000E+00   0.1591236297E-02  -0.4896089634E-03  -0.5032620728E-03  -0.4721260002E-03   0.0000000000E+00   0.0000000000E+00   0.1628568972E+00
   0.2015989542E+00   0.1331957390E+00   0.6692488986E-04  -0.5943996719E-05   0.4015493392E-03  -0.3566398032E-04   0.1685608139E+00  -0.9962537530E-02   0.0000000000E+00  -0.2002524551E-01   0.0000000000E+00   0.0000000000E+00   0.1715495752E-02  -0.6053078171E-03  -0.5206563834E-03  -0.4757948292E-03   0.0000000000E+00   0.0000000000E+00   0.1771562637E+00
   0.1979948888E+00   0.1180753050E+00   0.6824325849E-04  -0.4880998103E-05   0.4094595509E-03  -0.2928598862E-04   0.1580355843E+00  -0.1103860166E-01   0.0000000000E+00  -0.2482563349E-01   0.0000000000E+00   0.0000000000E+00   0.1613471648E-02  -0.5844927694E-03  -0.6454664708E-03  -0.4409909478E-03   0.0000000000E+00   0.0000000000E+00   0.1693490022E+00
   0.2153996718E+00   0.1311236343E+00   0.7048954508E-04  -0.4989522399E-05   0.4229372705E-03  -0.2993713439E-04   0.1622912666E+00  -0.5920825928E-02   0.0000000000E+00  -0.2028168938E-01   0.0000000000E+00   0.0000000000E+00   0.1640675144E-02  -0.5460820591E-03  -0.5273239240E-03  -0.4691113220E-03   0.0000000000E+00   0.0000000000E+00   0.1690023632E+00
   0.1088685361E+00   0.1383866118E+00   0.3977187697E-04  -0.1828517711E-04   0.2386312618E-03  -0.1097110626E-03   0.2201861510E+00  -0.3053914223E-01   0.0000000000E+00  -0.5282393392E-04   0.0000000000E+00   0.0000000000E+00   0.2293478936E-02  -0.9659498752E-03  -0.1373422282E-05  -0.5689410263E-03   0.0000000000E+00   0.0000000000E+00   0.2368159907E+00
   0.1691477353E+00   0.1364312659E+00   0.5810460941E-04  -0.8946446447E-05   0.3486276565E-03  -0.5367867868E-04   0.1824599482E+00  -0.2319141979E-01   0.0000000000E+00  -0.1767146202E-01   0.0000000000E+00   0.0000000000E+00   0.1894173741E-02  -0.7792940425E-03  -0.4594580126E-03  -0.4778055852E-03   0.0000000000E+00   0.0000000000E+00   0.1974148134E+00
   0.1867318506E+00   0.1395724749E+00   0.6225350949E-04  -0.7626728085E-05   0.3735210569E-03  -0.4576036851E-04   0.1769791787E+00  -0.1598749369E-01   0.0000000000E+00  -0.1791828415E-01   0.0000000000E+00   0.0000000000E+00   0.1817754268E-02  -0.6908124730E-03  -0.4658753880E-03  -0.4829750550E-03   0.0000000000E+00   0.0000000000E+00   0.1880241798E+00
   0.1630796590E+00   0.1046625669E+00   0.6254585496E-04  -0.6089298274E-05   0.3752751297E-03  -0.3653578964E-04   0.1602109015E+00  -0.2484576546E-01   0.0000000000E+00  -0.3132878079E-01   0.0000000000E+00   0.0000000000E+00   0.1676646311E-02  -0.7290903590E-03  -0.8145483004E-03  -0.4060954080E-03   0.0000000000E+00   0.0000000000E+00   0.1819845044E+00
   0.1848330856E+00   0.1214235230E+00   0.6461223077E-04  -0.6043136972E-05   0.3876733846E-03  -0.3625882183E-04   0.1645523583E+00  -0.1634617597E-01   0.0000000000E+00  -0.2422797034E-01   0.0000000000E+00   0.0000000000E+00   0.1694562111E-02  -0.6571188346E-03  -0.6299272288E-03  -0.4446185470E-03   0.0000000000E+00   0.0000000000E+00   0.1782017494E+00
   0.1719738041E+00   0.1217636083E+00   0.6140044005E-04  -0.7100531978E-05   0.3684026403E-03  -0.4260319187E-04   0.1692390623E+00  -0.2261670666E-01   0.0000000000E+00  -0.2456839393E-01   0.0000000000E+00   0.0000000000E+00   0.1760240743E-02  -0.7338842536E-03  -0.6387782423E-03  -0.4398670670E-03   0.0000000000E+00   0.0000000000E+00   0.1864468510E+00
   0.1159754054E+00   0.9806608470E-01   0.5230348274E-04  -0.1122687084E-04   0.3138208964E-03  -0.6736122504E-04   0.1753753348E+00  -0.4343500362E-01   0.0000000000E+00  -0.3591377313E-01   0.0000000000E+00   0.0000000000E+00   0.1884058359E-02  -0.9604760406E-03  -0.9337581015E-03  -0.3958209936E-03   0.0000000000E+00   0.0000000000E+00   0.2099195556E+00
   0.1318012691E+00   0.1052473697E+00   0.5453072436E-04  -0.9651905363E-05   0.3271843462E-03  -0.5791143218E-04   0.1772085594E+00  -0.3942814586E-01   0.0000000000E+00  -0.3152562171E-01   0.0000000000E+00   0.0000000000E+00   0.1890370031E-02  -0.9259071367E-03  -0.8196661644E-03  -0.4133412405E-03   0.0000000000E+00   0.0000000000E+00   0.2068526891E+00
   0.1722910019E+00   0.1103007680E+00   0.6358627006E-04  -0.5918427881E-05   0.3815176203E-03  -0.3551056729E-04   0.1549383193E+00  -0.2285420039E-01   0.0000000000E+00  -0.3018990452E-01   0.0000000000E+00   0.0000000000E+00   0.1617945794E-02  -0.6933569618E-03  -0.7849375175E-03  -0.3962523567E-03   0.0000000000E+00   0.0000000000E+00   0.1754771578E+00
           1           2           3           4
           5           6           7           8
           9          10          11          12
          13          14          15          16
          17          18          19          20
          21          22          23          24
          25          26          27          28
          29          30          31          32
          33          34           4           3
           2           1          35          36
          37          38          39          40
          41          42          36          35
          43          41          44          45
          46           9          47          48
          41          35          39          44
          49          50          51          52
          52          51          53          54
          55          56          57          58
          56          59          60          57
          61          62          63          64
          65          66          67          68
          69          70          71          72
          73          74          25          28
          27          75          76          28
          77          78          24          23
          79          80          81          82
          83          84          85          86
          87          88          89          90
          90          89          62          91
          61          92          91          62
          92          61          59          93
          56          94          93          59
          95          55          54          53
          46          96          10           9
          97          98          99         100
          12         101          98          97
          97         100         102          47
         103         104          31          30
         105         103          30         106
          73         107         108         109
         110         111         112         113
          32          31         114         115
         116         117         118         119
         120         121         122         123
         121          83          86         122
          80         124         125          81
         126         127         128         129
         130         101          12          11
         131          43         101         130
          34         129         132           4
          42          41          43         131
          35           1          40          39
         101          43          45          98
         133         134         109         108
         135         136          13          16
         137         138          65          68
          94          56          55          95
          58         137          54          55
          49          52          68          67
         139         140         141         142
         140         139          82          81
          88          87         142         141
         143         144         145         146
         147          26          25         148
         149         150         128         151
           5           8         152         102
         132         129         128         150
         153         100          99         154
          48          47         102         152
          59          61          64          60
         106         155         113         118
          62          89         156          63
          88         157         156          89
         123         116         119         120
          66          65         134         133
         144         143          84          83
           9          12          97          47
         104         158         114          31
         159         160         127         126
         119         112         161         120
         117         105         106         118
         162         163         164         165
          83         121         166         144
         167         168         141         140
         167         143         146         168
           6         114         158           7
          38          37         169         170
          40         132         150          37
         160         159          20          19
          78         171         172          24
          18          17          21          24
         173         174          78          77
         132          40           1           4
          28          76         107          73
         175         176         177         178
         176         179          57          60
         137          68          52          54
          60          64         177         176
         163         162         155          29
          75          27         174         173
         180         174          27          26
          64          63         181         177
          98          45         182          99
         183         182          45          44
          38         183          44          39
          58          57         179         184
         185         181          63         156
         134         186         187         109
         188          74         187         189
         138         186         134          65
          88         141         168         157
         166         121         120         161
         190         191         166         161
         155         106          30          29
         192         193         194         195
         118         113         112         119
         125          84         143         167
         124          85          84         125
           6         196         115         114
         196           6           5         153
         197          32         115         198
         111         190         161         112
         199         148         188         135
         170         169         200         201
         202         164         163         197
         203         204         146         145
         205         206         201         200
         187          74          73         109
         176         175         207         179
         208         209          16          15
         210         186         138         184
         184         138         137          58
         179         207         210         184
         211         212         172         171
          78         174         180         171
         125         167         140          81
          37         150         149         169
         213         214         215         216
         217         182         183         201
         170         201         183          38
         218         219         206         205
         111         220         221         190
         157         168         146         204
         177         181         222         178
         222         181         185         223
         186         210         189         187
         224         191         190         221
         100         153           5         102
         185         156         157         204
         113         155         162         110
          26         147         193         180
          29          32         197         163
         225         226          19          18
         144         166         191         145
         212         192         227         228
         198         115         196         229
         206         154         217         201
         153         154         229         196
         172         225          18          24
         148          25          74         188
          14          13         175         178
         207         175          13         136
         189         136         135         188
         230         202         197         198
         210         207         136         189
         165         164         231         232
         169         149         233         200
         234         160          19         226
         217         154          99         182
         203         145         191         224
         151         235         233         149
         236         223         203         224
         185         204         203         223
         178         222         237          14
         110         162         165         238
         239         223         236         240
         238         220         111         110
         219         230         198         229
         241         242         232         243
         242          69         220         238
          72          71         240         236
         244         205         200         233
         215         231         164         202
         211         171         180         193
         228         225         172         212
         194         193         147         245
         245         147         148         199
         135          16         209         199
         209         208         246         247
         127         160         234         248
         193         192         212         211
         226         225         228         249
         151         128         127         248
         248         250         235         151
          72         221         220          69
          14         237         251          15
          70          69         252         253
         206         219         229         154
         238         165         232         242
          72         236         224         221
         216         215         202         230
         245         247         254         194
         255         256         257         258
         230         219         218         216
         214         259         231         215
         216         218         260         213
         261         255         258         214
         239         237         222         223
         194         254         262         195
         263         264         227         265
         250         266         267         268
         199         209         247         245
         240          71         269         251
         270         271         246         272
         260         244         273         213
         237         239         240         251
         218         205         244         260
          70         272         269          71
         232         231         259         243
         274         275         243         259
         257         256         263         276
         277         275         274         278
         234         226         249         279
         271         277         262         254
         271         254         247         246
         246         208         269         272
         244         233         235         273
         251         269         208          15
         275         270         253         252
         234         279         250         248
         279         249         264         280
         259         214         258         274
         262         281         276         195
         195         276         263         265
         257         276         281         278
         278         274         258         257
         266         280         256         255
         261         214         213         267
         267         266         255         261
         266         250         279         280
         228         227         264         249
         256         280         264         263
         265         227         192         195
         281         262         277         278
         235         250         268         273
         273         268         267         213
         277         271         270         275
         253         270         272          70
         252          69         242         241
         243         275         252         241
 VARIABLES = X,Y,DU1,DU2,U1,U2,S11,S22,S33,S12,S13,S23,E11,E22,E12,E33,E13,E23,SMISES
 ZONE, T="0.8000D+01" F=FEPOINT, I=  281 J=  250
   0.1781240631E-01   0.1339475975E+00   0.7173700808E-05  -0.3627480944E-04   0.5021590565E-04  -0.2539236661E-03   0.3438490444E+00   0.6473334401E-01   0.0000000000E+00   0.5131620790E-02   0.0000000000E+00   0.0000000000E+00   0.3244290412E-02  -0.3842136933E-03   0.1334221405E-03  -0.1225747165E-02   0.0000000000E+00   0.0000000000E+00   0.3148885074E+00
   0.0000000000E+00   0.1330363453E+00   0.0000000000E+00  -0.3712433844E-04   0.0000000000E+00  -0.2598703691E-03   0.3469148798E+00   0.6903496201E-01   0.0000000000E+00   0.9725951440E-02   0.0000000000E+00   0.0000000000E+00   0.3262043912E-02  -0.3503950192E-03   0.2528747374E-03  -0.1247849525E-02   0.0000000000E+00   0.0000000000E+00   0.3180699065E+00
   0.0000000000E+00   0.1163788549E+00   0.0000000000E+00  -0.3597650796E-04   0.0000000000E+00  -0.2518355557E-03   0.4412551537E+00   0.3627391585E-01   0.0000000000E+00   0.8372022580E-02   0.0000000000E+00   0.0000000000E+00   0.4303729789E-02  -0.9610263026E-03   0.2176725871E-03  -0.1432587209E-02   0.0000000000E+00   0.0000000000E+00   0.4241961431E+00
   0.1923419349E-01   0.1160116064E+00   0.1000706109E-04  -0.3494770620E-04   0.7004942762E-04  -0.2446339434E-03   0.4043599996E+00   0.3579845512E-01   0.0000000000E+00  -0.3602037887E-01   0.0000000000E+00   0.0000000000E+00   0.3936204630E-02  -0.8550954475E-03  -0.9365298507E-03  -0.1320475364E-02   0.0000000000E+00   0.0000000000E+00   0.3949577714E+00
   0.7814962772E-01   0.2316031058E+00   0.1851606492E-04  -0.3416214462E-04   0.1296124544E-03  -0.2391350124E-03   0.2116002796E+00  -0.6736434403E-04   0.0000000000E+00   0.1457436787E-01   0.0000000000E+00   0.0000000000E+00   0.2116204889E-02  -0.6354744821E-03   0.3789335647E-03  -0.6345987457E-03   0.0000000000E+00   0.0000000000E+00   0.2132348479E+00
   0.9796902465E-01   0.2318103751E+00   0.2387809382E-04  -0.3061086520E-04   0.1671466567E-03  -0.2142760564E-03   0.2237852355E+00  -0.1109630389E-02   0.0000000000E+00   0.1327733209E-01   0.0000000000E+00   0.0000000000E+00   0.2241181246E-02  -0.6824520103E-03   0.3452106344E-03  -0.6680268153E-03   0.0000000000E+00   0.0000000000E+00   0.2255948601E+00
   0.9738973590E-01   0.2497422923E+00   0.2093899991E-04  -0.3221346831E-04   0.1465729994E-03  -0.2254942782E-03   0.2184835739E+00  -0.7932052797E-03   0.0000000000E+00   0.4684101362E-02   0.0000000000E+00   0.0000000000E+00   0.2187215354E-02  -0.6633827744E-03   0.1217866354E-03  -0.6530711058E-03   0.0000000000E+00   0.0000000000E+00   0.2188383919E+00
   0.7790472909E-01   0.2497152455E+00   0.1586856091E-04  -0.3559431363E-04   0.1110799264E-03  -0.2491601954E-03   0.1979324539E+00  -0.1229557517E-02   0.0000000000E+00   0.5183187208E-02   0.0000000000E+00   0.0000000000E+00   0.1983013211E-02  -0.6060929368E-03   0.1347628674E-03  -0.5901086891E-03   0.0000000000E+00   0.0000000000E+00   0.1985351856E+00
   0.1913174520E-01   0.2329892021E+00   0.4194324500E-05  -0.4170336085E-04   0.2936027150E-04  -0.2919235259E-03   0.1788602113E+00   0.4272301176E-02   0.0000000000E+00   0.4081355170E-02   0.0000000000E+00   0.0000000000E+00   0.1775785209E-02  -0.4938576220E-03   0.1061152344E-03  -0.5493975373E-03   0.0000000000E+00   0.0000000000E+00   0.1771937476E+00
   0.0000000000E+00   0.2329953078E+00   0.0000000000E+00  -0.4225327452E-04   0.0000000000E+00  -0.2957729216E-03   0.1759612447E+00   0.4566942373E-02   0.0000000000E+00   0.5158373102E-02   0.0000000000E+00   0.0000000000E+00   0.1745911619E-02  -0.4822143102E-03   0.1341177006E-03  -0.5415845611E-03   0.0000000000E+00   0.0000000000E+00   0.1738882831E+00
   0.0000000000E+00   0.2163369926E+00   0.0000000000E+00  -0.4120955512E-04   0.0000000000E+00  -0.2884668858E-03   0.2006084838E+00   0.1028960985E-01   0.0000000000E+00   0.5229882264E-02   0.0000000000E+00   0.0000000000E+00   0.1975216008E-02  -0.4989293529E-03   0.1359769389E-03  -0.6326942809E-03   0.0000000000E+00   0.0000000000E+00   0.1957561346E+00
   0.1856904917E-01   0.2164492059E+00   0.4594296533E-05  -0.4067589180E-04   0.3216007573E-04  -0.2847312426E-03   0.2025573327E+00   0.9452370722E-02   0.0000000000E+00   0.8190756177E-02   0.0000000000E+00   0.0000000000E+00   0.1997216214E-02  -0.5131482907E-03   0.2129596606E-03  -0.6360291101E-03   0.0000000000E+00   0.0000000000E+00   0.1987663129E+00
   0.2578721030E+00   0.9226242519E-01   0.8332712020E-04  -0.1480726220E-05   0.5832898414E-03  -0.1036508354E-04   0.1491170356E+00   0.1399123215E-01   0.0000000000E+00  -0.2038591438E-01   0.0000000000E+00   0.0000000000E+00   0.1449196660E-02  -0.3074387854E-03  -0.5300337739E-03  -0.4893248034E-03   0.0000000000E+00   0.0000000000E+00   0.1469056019E+00
   0.2592583314E+00   0.1102680029E+00   0.8213167433E-04  -0.2240886236E-05   0.5749217203E-03  -0.1568620366E-04   0.1628576794E+00   0.1032059502E-01   0.0000000000E+00  -0.1958977043E-01   0.0000000000E+00   0.0000000000E+00   0.1597615009E-02  -0.3853670881E-03  -0.5093340313E-03  -0.5195348233E-03   0.0000000000E+00   0.0000000000E+00   0.1615201061E+00
   0.2424853124E+00   0.1106556654E+00   0.7872254551E-04  -0.2625452180E-05   0.5510578186E-03  -0.1837816526E-04   0.1645081507E+00   0.5522625765E-02   0.0000000000E+00  -0.2307087553E-01   0.0000000000E+00   0.0000000000E+00   0.1628513630E-02  -0.4382981945E-03  -0.5998427639E-03  -0.5100923295E-03   0.0000000000E+00   0.0000000000E+00   0.1666455982E+00
   0.2400204667E+00   0.9266708316E-01   0.8004134111E-04  -0.1779416926E-05   0.5602893878E-03  -0.1245591848E-04   0.1495708305E+00   0.8967744296E-02   0.0000000000E+00  -0.2481497805E-01   0.0000000000E+00   0.0000000000E+00   0.1468805072E-02  -0.3590350484E-03  -0.6451894294E-03  -0.4756157243E-03   0.0000000000E+00   0.0000000000E+00   0.1514705301E+00
   0.9295733286E-01   0.3818231761E-01   0.7117262020E-04  -0.1075312325E-04   0.4982083414E-03  -0.7527186273E-04  -0.1868626982E-01  -0.1254822783E+00   0.0000000000E+00   0.1942532080E-01   0.0000000000E+00   0.0000000000E+00   0.1895841366E-03  -0.1198763973E-02   0.5050583409E-03   0.4325056444E-03   0.0000000000E+00   0.0000000000E+00   0.1119684949E+00
   0.1086026011E+00   0.4604472581E-01   0.6946764023E-04  -0.6726961335E-05   0.4862734816E-03  -0.4708872934E-04   0.4032540638E-01  -0.5584933851E-01   0.0000000000E+00  -0.2688190545E-01   0.0000000000E+00   0.0000000000E+00   0.5708020793E-03  -0.6794696042E-03  -0.6989295418E-03   0.4657179641E-04   0.0000000000E+00   0.0000000000E+00   0.8847338896E-01
   0.9660351881E-01   0.6344974402E-01   0.6155280127E-04  -0.1155633551E-04   0.4308696089E-03  -0.8089434858E-04   0.8350899048E-01  -0.3285083429E-01   0.0000000000E+00  -0.4029027574E-01   0.0000000000E+00   0.0000000000E+00   0.9336424077E-03  -0.5790353144E-03  -0.1047547169E-02  -0.1519744686E-03   0.0000000000E+00   0.0000000000E+00   0.1252140602E+00
   0.8366210222E-01   0.5542715578E-01   0.6439283980E-04  -0.1623348976E-04   0.4507498786E-03  -0.1136344283E-03   0.2422973165E-01  -0.2763733661E-01   0.0000000000E+00  -0.1239284561E-01   0.0000000000E+00   0.0000000000E+00   0.3252093263E-03  -0.3490625611E-03  -0.3222139858E-03   0.1022281490E-04   0.0000000000E+00   0.0000000000E+00   0.5290176380E-01
   0.9867886510E-01   0.1946655117E-01   0.7504231292E-04  -0.5310154320E-05   0.5252961904E-03  -0.3717108024E-04  -0.1857462180E-01  -0.2003566258E+00   0.0000000000E+00   0.2711047001E-01   0.0000000000E+00   0.0000000000E+00   0.4153236594E-03  -0.1947842393E-02   0.7048722203E-03   0.6567937428E-03   0.0000000000E+00   0.0000000000E+00   0.1905624101E+00
   0.1006135145E+00   0.0000000000E+00   0.7668918340E-04   0.0000000000E+00   0.5368242838E-03   0.0000000000E+00  -0.2610190979E-01  -0.2152728843E+00   0.0000000000E+00  -0.1476738119E-01   0.0000000000E+00   0.0000000000E+00   0.3847995550E-03  -0.2074423114E-02  -0.3839519109E-03   0.7241243823E-03   0.0000000000E+00   0.0000000000E+00   0.2040526260E+00
   0.1214548707E+00   0.0000000000E+00   0.7769259034E-04   0.0000000000E+00   0.5438481324E-03   0.0000000000E+00  -0.1368686206E-03  -0.7401010185E-01   0.0000000000E+00  -0.1654951468E-01   0.0000000000E+00   0.0000000000E+00   0.2206616193E-03  -0.7396904127E-03  -0.4302873817E-03   0.2224409114E-03   0.0000000000E+00   0.0000000000E+00   0.7744869350E-01
   0.1223339155E+00   0.2609275926E-01   0.7538143686E-04  -0.2443679755E-05   0.5276700580E-03  -0.1710575829E-04   0.1884637325E-01  -0.6969019503E-01   0.0000000000E+00  -0.1756735575E-01   0.0000000000E+00   0.0000000000E+00   0.3975343176E-03  -0.7534410701E-03  -0.4567512496E-03   0.1525314653E-03   0.0000000000E+00   0.0000000000E+00   0.9024072905E-01
   0.2111919185E+00   0.3763013142E-01   0.8097243763E-04  -0.3876730188E-06   0.5668070634E-03  -0.2713711131E-05   0.9710302170E-01   0.1487281325E-01   0.0000000000E+00  -0.2259375290E-01   0.0000000000E+00   0.0000000000E+00   0.9264117773E-03  -0.1425809326E-03  -0.5874375754E-03  -0.3359275049E-03   0.0000000000E+00   0.0000000000E+00   0.9838345343E-01
   0.1910872584E+00   0.3837792218E-01   0.7866855081E-04  -0.5722780739E-06   0.5506798557E-03  -0.4005946518E-05   0.8761957967E-01   0.5702166630E-02   0.0000000000E+00  -0.2908406588E-01   0.0000000000E+00   0.0000000000E+00   0.8590892968E-03  -0.2058370727E-03  -0.7561857128E-03  -0.2799652389E-03   0.0000000000E+00   0.0000000000E+00   0.9828728191E-01
   0.1873473026E+00   0.1901104087E-01   0.7989382484E-04  -0.2349657289E-06   0.5592567739E-03  -0.1644760102E-05   0.6929053436E-01   0.9098701329E-02   0.0000000000E+00  -0.1419946816E-01   0.0000000000E+00   0.0000000000E+00   0.6656092396E-03  -0.1168845898E-03  -0.3691861721E-03  -0.2351677071E-03   0.0000000000E+00   0.0000000000E+00   0.7031087366E-01
   0.2078865478E+00   0.1873685330E-01   0.8178322220E-04  -0.1463252366E-06   0.5724825554E-03  -0.1024276656E-05   0.8438652840E-01   0.1729626071E-01   0.0000000000E+00  -0.1125918473E-01   0.0000000000E+00   0.0000000000E+00   0.7919765019E-03  -0.8019697809E-04  -0.2927388029E-03  -0.3050483673E-03   0.0000000000E+00   0.0000000000E+00   0.7989137172E-01
   0.1577732107E+00   0.2158065485E+00   0.4373295765E-04  -0.1886243751E-04   0.3061307036E-03  -0.1320370626E-03   0.2419355478E+00  -0.5316950740E-02   0.0000000000E+00   0.6386851730E-02   0.0000000000E+00   0.0000000000E+00   0.2435306330E-02  -0.7789761508E-03   0.1660581450E-03  -0.7098557912E-03   0.0000000000E+00   0.0000000000E+00   0.2448735860E+00
   0.1567830073E+00   0.2324406567E+00   0.4129203372E-04  -0.2060565788E-04   0.2890442360E-03  -0.1442396052E-03   0.2479442728E+00  -0.2241789979E-02   0.0000000000E+00   0.3992202216E-02   0.0000000000E+00   0.0000000000E+00   0.2486168098E-02  -0.7662507181E-03   0.1037972576E-03  -0.7371074483E-03   0.0000000000E+00   0.0000000000E+00   0.2491894658E+00
   0.1372617194E+00   0.2324407952E+00   0.3529354858E-04  -0.2366734658E-04   0.2470548400E-03  -0.1656714261E-03   0.2427844914E+00  -0.2319842597E-02   0.0000000000E+00   0.7146527789E-02   0.0000000000E+00   0.0000000000E+00   0.2434804442E-02  -0.7515519002E-03   0.1858097225E-03  -0.7213939464E-03   0.0000000000E+00   0.0000000000E+00   0.2442955418E+00
   0.1385184686E+00   0.2156379038E+00   0.3791982871E-04  -0.2185864502E-04   0.2654388010E-03  -0.1530105151E-03   0.2401418077E+00  -0.5915371308E-02   0.0000000000E+00   0.1182223744E-01   0.0000000000E+00   0.0000000000E+00   0.2419164191E-02  -0.7795791361E-03   0.3073781736E-03  -0.7026793091E-03   0.0000000000E+00   0.0000000000E+00   0.2439690475E+00
   0.0000000000E+00   0.9973439458E-01   0.0000000000E+00  -0.3320080307E-04   0.0000000000E+00  -0.2324056215E-03   0.6568611235E+00   0.4565494496E-01   0.0000000000E+00   0.9222431622E-02   0.0000000000E+00   0.0000000000E+00   0.6431646400E-02  -0.1514033921E-02   0.2397832222E-03  -0.2107548205E-02   0.0000000000E+00   0.0000000000E+00   0.6305866173E+00
   0.1963281163E-01   0.9782089180E-01   0.1547240370E-04  -0.3220434981E-04   0.1083068259E-03  -0.2254304486E-03   0.6081621213E+00   0.4574509345E-01   0.0000000000E+00  -0.9129136606E-01   0.0000000000E+00   0.0000000000E+00   0.5944385932E-02  -0.1367035429E-02  -0.2373575518E-02  -0.1961721644E-02   0.0000000000E+00   0.0000000000E+00   0.6024527187E+00
   0.1684587795E-01   0.1510392152E+00   0.5852394331E-05  -0.3718747266E-04   0.4096676031E-04  -0.2603123086E-03   0.2940137411E+00   0.4978114593E-01   0.0000000000E+00   0.8849834315E-02   0.0000000000E+00   0.0000000000E+00   0.2790793973E-02  -0.3842297640E-03   0.2300956922E-03  -0.1031384661E-02   0.0000000000E+00   0.0000000000E+00   0.2738947075E+00
   0.0000000000E+00   0.1496975575E+00   0.0000000000E+00  -0.3780606723E-04   0.0000000000E+00  -0.2646424706E-03   0.2969014833E+00   0.5665200171E-01   0.0000000000E+00   0.7431503330E-02   0.0000000000E+00   0.0000000000E+00   0.2799058828E-02  -0.3241844329E-03   0.1932190866E-03  -0.1060660455E-02   0.0000000000E+00   0.0000000000E+00   0.2733224163E+00
   0.5121064084E-01   0.1384198827E+00   0.1954134279E-04  -0.3121966648E-04   0.1367893996E-03  -0.2185376654E-03   0.3038792463E+00   0.1932829191E-01   0.0000000000E+00   0.1529783327E-01   0.0000000000E+00   0.0000000000E+00   0.2980807587E-02  -0.7183548197E-03   0.3977436651E-03  -0.9696226146E-03   0.0000000000E+00   0.0000000000E+00   0.2956841825E+00
   0.4918160039E-01   0.1537968661E+00   0.1683707346E-04  -0.3288874068E-04   0.1178595142E-03  -0.2302211848E-03   0.2815381433E+00   0.2127679305E-01   0.0000000000E+00   0.2450996615E-01   0.0000000000E+00   0.0000000000E+00   0.2751551054E-02  -0.6318464994E-03   0.6372591199E-03  -0.9084448090E-03   0.0000000000E+00   0.0000000000E+00   0.2748822574E+00
   0.3326717563E-01   0.1524530803E+00   0.1146386679E-04  -0.3542183320E-04   0.8024706751E-04  -0.2479528324E-03   0.2893232138E+00   0.3769416764E-01   0.0000000000E+00   0.1866786782E-01   0.0000000000E+00   0.0000000000E+00   0.2780149636E-02  -0.4910279651E-03   0.4853645634E-03  -0.9810521445E-03   0.0000000000E+00   0.0000000000E+00   0.2754775095E+00
   0.3448029705E-01   0.1354666976E+00   0.1360255597E-04  -0.3413630513E-04   0.9521789181E-04  -0.2389541359E-03   0.3199974537E+00   0.3916026458E-01   0.0000000000E+00   0.1895228084E-01   0.0000000000E+00   0.0000000000E+00   0.3082493743E-02  -0.5683897153E-03   0.4927593018E-03  -0.1077473155E-02   0.0000000000E+00   0.0000000000E+00   0.2999664127E+00
   0.1672674427E-01   0.1674993794E+00   0.5259745871E-05  -0.3796982941E-04   0.3681822110E-04  -0.2657888059E-03   0.2655919599E+00   0.4117950705E-01   0.0000000000E+00   0.1089350143E-01   0.0000000000E+00   0.0000000000E+00   0.2532381078E-02  -0.3849808092E-03   0.2832310371E-03  -0.9203144009E-03   0.0000000000E+00   0.0000000000E+00   0.2484434947E+00
   0.0000000000E+00   0.1663587396E+00   0.0000000000E+00  -0.3849155194E-04   0.0000000000E+00  -0.2694408636E-03   0.2658546458E+00   0.4491238969E-01   0.0000000000E+00   0.6274102703E-02   0.0000000000E+00   0.0000000000E+00   0.2523809289E-02  -0.3484400406E-03   0.1631266703E-03  -0.9323011065E-03   0.0000000000E+00   0.0000000000E+00   0.2465204103E+00
   0.1713129540E-01   0.1838152003E+00   0.4979124603E-05  -0.3879096543E-04   0.3485387222E-04  -0.2715367580E-03   0.2427982507E+00   0.2903554812E-01   0.0000000000E+00   0.1067844589E-01   0.0000000000E+00   0.0000000000E+00   0.2340875862E-02  -0.4380392709E-03   0.2776395932E-03  -0.8155013964E-03   0.0000000000E+00   0.0000000000E+00   0.2307033885E+00
   0.3347473281E-01   0.1683159812E+00   0.1052775111E-04  -0.3636385582E-04   0.7369425779E-04  -0.2545469908E-03   0.2637823298E+00   0.3012936706E-01   0.0000000000E+00   0.2343566615E-01   0.0000000000E+00   0.0000000000E+00   0.2547435197E-02  -0.4900533189E-03   0.6093273198E-03  -0.8817350906E-03   0.0000000000E+00   0.0000000000E+00   0.2528687474E+00
   0.3459410210E-01   0.1839815422E+00   0.1009999946E-04  -0.3721135049E-04   0.7069999623E-04  -0.2604794535E-03   0.2436114699E+00   0.2211510264E-01   0.0000000000E+00   0.2261320557E-01   0.0000000000E+00   0.0000000000E+00   0.2369769391E-02  -0.5096833832E-03   0.5879433447E-03  -0.7971797175E-03   0.0000000000E+00   0.0000000000E+00   0.2365893915E+00
   0.1947243677E-01   0.2496586081E+00   0.3498958293E-05  -0.4267398575E-04   0.2449270805E-04  -0.2987179002E-03   0.1460785370E+00  -0.2582797532E-02   0.0000000000E+00   0.7400128843E-03   0.0000000000E+00   0.0000000000E+00   0.1468533763E-02  -0.4640635864E-03   0.1924033499E-04  -0.4304872185E-03   0.0000000000E+00   0.0000000000E+00   0.1476159514E+00
   0.3854668296E-01   0.2326238565E+00   0.8608407358E-05  -0.4005294358E-04   0.6025885150E-04  -0.2803706051E-03   0.1869541885E+00   0.3295514399E-02   0.0000000000E+00   0.1059047556E-01   0.0000000000E+00   0.0000000000E+00   0.1859655342E-02  -0.5279074216E-03   0.2753523647E-03  -0.5707491088E-03   0.0000000000E+00   0.0000000000E+00   0.1863474270E+00
   0.3894655491E-01   0.2496712691E+00   0.7208076002E-05  -0.4109136650E-04   0.5045653201E-04  -0.2876395655E-03   0.1587476654E+00  -0.2224847628E-02   0.0000000000E+00   0.4174821349E-02   0.0000000000E+00   0.0000000000E+00   0.1594151196E-02  -0.4984914723E-03   0.1085453551E-03  -0.4695684532E-03   0.0000000000E+00   0.0000000000E+00   0.1600173005E+00
   0.3299436013E+00   0.0000000000E+00   0.9711503874E-04   0.0000000000E+00   0.6798052712E-03   0.0000000000E+00   0.1208232148E+00   0.3493635442E-01   0.0000000000E+00  -0.3668510785E-03   0.0000000000E+00   0.0000000000E+00   0.1103423085E-02  -0.1310610033E-04  -0.9538128040E-05  -0.4672787078E-03   0.0000000000E+00   0.0000000000E+00   0.1076906478E+00
   0.3507999940E+00   0.0000000000E+00   0.1000000000E-03   0.0000000000E+00   0.7000000000E-03   0.0000000000E+00   0.1215322465E+00   0.3515407394E-01   0.0000000000E+00  -0.2206892430E-05   0.0000000000E+00   0.0000000000E+00   0.1109860243E-02  -0.1305600013E-04  -0.5737920318E-07  -0.4700589614E-03   0.0000000000E+00   0.0000000000E+00   0.1083212402E+00
   0.3507999940E+00   0.1923045571E-01   0.1000000000E-03  -0.3927361594E-07   0.7000000000E-03  -0.2749153116E-06   0.1228581502E+00   0.3456263195E-01   0.0000000000E+00  -0.4475991379E-06   0.0000000000E+00   0.0000000000E+00   0.1124893606E-02  -0.2294813119E-04  -0.1163757759E-07  -0.4722623465E-03   0.0000000000E+00   0.0000000000E+00   0.1097331087E+00
   0.3305400639E+00   0.1871423930E-01   0.9715960959E-04  -0.3825040932E-07   0.6801172671E-03  -0.2677528652E-06   0.1222202603E+00   0.3437694960E-01   0.0000000000E+00  -0.1124508079E-02   0.0000000000E+00   0.0000000000E+00   0.1119071754E-02  -0.2289128478E-04  -0.2923721005E-04  -0.4697916296E-03   0.0000000000E+00   0.0000000000E+00   0.1091838403E+00
   0.3507999940E+00   0.3846053245E-01   0.1000000000E-03  -0.1259314826E-06   0.7000000000E-03  -0.8815203782E-06   0.1268825524E+00   0.3283758586E-01   0.0000000000E+00   0.1260490580E-04   0.0000000000E+00   0.0000000000E+00   0.1170312766E-02  -0.5227179860E-04   0.3277275507E-06  -0.4791604147E-03   0.0000000000E+00   0.0000000000E+00   0.1140505398E+00
   0.3309827067E+00   0.3768204834E-01   0.9710983635E-04  -0.1230206226E-06   0.6797688545E-03  -0.8611443582E-06   0.1263572311E+00   0.3272232094E-01   0.0000000000E+00  -0.2339905237E-02   0.0000000000E+00   0.0000000000E+00   0.1165405348E-02  -0.5184848402E-04  -0.6083753616E-04  -0.4772386562E-03   0.0000000000E+00   0.0000000000E+00   0.1136419608E+00
   0.3313343790E+00   0.5676033534E-01   0.9698375451E-04  -0.2987199771E-06   0.6788862816E-03  -0.2091039840E-05   0.1330077594E+00   0.3007271150E-01   0.0000000000E+00  -0.3163793481E-02   0.0000000000E+00   0.0000000000E+00   0.1239859459E-02  -0.9829616310E-04  -0.8225863051E-04  -0.4892414126E-03   0.0000000000E+00   0.0000000000E+00   0.1209100173E+00
   0.3316120287E+00   0.7595181445E-01   0.9679521264E-04  -0.6044565700E-06   0.6775664885E-03  -0.4231195990E-05   0.1417954482E+00   0.2665673914E-01   0.0000000000E+00  -0.3762552758E-02   0.0000000000E+00   0.0000000000E+00   0.1337984264E-02  -0.1588189531E-03  -0.9782637171E-04  -0.5053565620E-03   0.0000000000E+00   0.0000000000E+00   0.1306546560E+00
   0.3125606624E+00   0.7514052585E-01   0.9364067592E-04  -0.6233693490E-06   0.6554847315E-03  -0.4363585443E-05   0.1405439210E+00   0.2573157563E-01   0.0000000000E+00  -0.7457615040E-02   0.0000000000E+00   0.0000000000E+00   0.1328244483E-02  -0.1643160068E-03  -0.1938979910E-03  -0.4988264900E-03   0.0000000000E+00   0.0000000000E+00   0.1302202017E+00
   0.3118969298E+00   0.5605072494E-01   0.9400147928E-04  -0.3092443953E-06   0.6580103549E-03  -0.2164710767E-05   0.1314296100E+00   0.2922042490E-01   0.0000000000E+00  -0.6313112237E-02   0.0000000000E+00   0.0000000000E+00   0.1226634825E-02  -0.1020845810E-03  -0.1641409182E-03  -0.4819501047E-03   0.0000000000E+00   0.0000000000E+00   0.1200032318E+00
   0.3317547200E+00   0.9524743239E-01   0.9654537556E-04  -0.1071050767E-05   0.6758176289E-03  -0.7497355368E-05   0.1522455155E+00   0.2271212994E-01   0.0000000000E+00  -0.4080440359E-02   0.0000000000E+00   0.0000000000E+00   0.1454318765E-02  -0.2296152472E-03  -0.1060914493E-03  -0.5248729364E-03   0.0000000000E+00   0.0000000000E+00   0.1423981946E+00
   0.3129339032E+00   0.9439179903E-01   0.9315601985E-04  -0.1102871346E-05   0.6520921389E-03  -0.7720099425E-05   0.1513352195E+00   0.2175996367E-01   0.0000000000E+00  -0.8024527142E-02   0.0000000000E+00   0.0000000000E+00   0.1448072304E-02  -0.2364060217E-03  -0.2086377057E-03  -0.5192855494E-03   0.0000000000E+00   0.0000000000E+00   0.1423662594E+00
   0.3317386978E+00   0.1146957898E+00   0.9623759778E-04  -0.1721778702E-05   0.6736631844E-03  -0.1205245091E-04   0.1639028426E+00   0.1854202280E-01   0.0000000000E+00  -0.4172196859E-02   0.0000000000E+00   0.0000000000E+00   0.1583402357E-02  -0.3062882997E-03  -0.1084771183E-03  -0.5473345961E-03   0.0000000000E+00   0.0000000000E+00   0.1556014082E+00
   0.3315947639E+00   0.1342544990E+00   0.9588511024E-04  -0.2566868807E-05   0.6711957717E-03  -0.1796808165E-04   0.1762396987E+00   0.1442509694E-01   0.0000000000E+00  -0.4012519393E-02   0.0000000000E+00   0.0000000000E+00   0.1719121697E-02  -0.3844681268E-03  -0.1043255042E-03  -0.5719943871E-03   0.0000000000E+00   0.0000000000E+00   0.1696054577E+00
   0.3125323011E+00   0.1337724144E+00   0.9180551823E-04  -0.2658444113E-05   0.6426386276E-03  -0.1860910879E-04   0.1762366752E+00   0.1341395800E-01   0.0000000000E+00  -0.7806153820E-02   0.0000000000E+00   0.0000000000E+00   0.1722124878E-02  -0.3945704456E-03  -0.2029599993E-03  -0.5689518996E-03   0.0000000000E+00   0.0000000000E+00   0.1704502907E+00
   0.3129263408E+00   0.1139213258E+00   0.9254222017E-04  -0.1774655076E-05   0.6477955412E-03  -0.1242258553E-04   0.1633946464E+00   0.1751165267E-01   0.0000000000E+00  -0.8124100219E-02   0.0000000000E+00   0.0000000000E+00   0.1581411506E-02  -0.3150674125E-03  -0.2112266057E-03  -0.5427188972E-03   0.0000000000E+00   0.0000000000E+00   0.1559962257E+00
   0.2897280592E+00   0.1826380257E-01   0.9156189856E-04  -0.4625408251E-07   0.6409332899E-03  -0.3237785776E-06   0.1167542995E+00   0.3226251829E-01   0.0000000000E+00  -0.3483684489E-02   0.0000000000E+00   0.0000000000E+00   0.1070755440E-02  -0.2763771557E-04  -0.9057579670E-04  -0.4470504534E-03   0.0000000000E+00   0.0000000000E+00   0.1046162649E+00
   0.2882318384E+00   0.0000000000E+00   0.9148055335E-04   0.0000000000E+00   0.6403638735E-03   0.0000000000E+00   0.1148992200E+00   0.3279906450E-01   0.0000000000E+00  -0.1152365969E-02   0.0000000000E+00   0.0000000000E+00   0.1050595007E-02  -0.1670701501E-04  -0.2996151519E-04  -0.4430948535E-03   0.0000000000E+00   0.0000000000E+00   0.1024970082E+00
   0.3090874451E+00   0.0000000000E+00   0.9426351416E-04   0.0000000000E+00   0.6598445991E-03   0.0000000000E+00   0.1186508261E+00   0.3416355303E-01   0.0000000000E+00  -0.7413461061E-03   0.0000000000E+00   0.0000000000E+00   0.1084017602E-02  -0.1431694784E-04  -0.1927499876E-04  -0.4584431373E-03   0.0000000000E+00   0.0000000000E+00   0.1057839369E+00
   0.3101422762E+00   0.1840592865E-01   0.9433151943E-04  -0.4058067522E-07   0.6603206360E-03  -0.2840647266E-06   0.1201762314E+00   0.3361322736E-01   0.0000000000E+00  -0.2255389690E-02   0.0000000000E+00   0.0000000000E+00   0.1100922632E-02  -0.2439642068E-04  -0.5864013193E-04  -0.4613683763E-03   0.0000000000E+00   0.0000000000E+00   0.1074634099E+00
   0.2127341777E+00   0.1636277188E+00   0.6587058204E-04  -0.7861648467E-05   0.4610940743E-03  -0.5503153927E-04   0.2097373002E+00  -0.7282566041E-02   0.0000000000E+00  -0.1409102355E-01   0.0000000000E+00   0.0000000000E+00   0.2119220700E-02  -0.7020375610E-03  -0.3663666123E-03  -0.6073642025E-03   0.0000000000E+00   0.0000000000E+00   0.2148425276E+00
   0.2168597729E+00   0.1467198757E+00   0.6891048186E-04  -0.6172413349E-05   0.4823733730E-03  -0.4320689344E-04   0.1962039941E+00  -0.7375385143E-02   0.0000000000E+00  -0.1928532086E-01   0.0000000000E+00   0.0000000000E+00   0.1984166096E-02  -0.6623658337E-03  -0.5014183423E-03  -0.5664858269E-03   0.0000000000E+00   0.0000000000E+00   0.2027070017E+00
   0.2315351200E+00   0.1466925720E+00   0.7251813074E-04  -0.5390745667E-05   0.5076269152E-03  -0.3773521967E-04   0.1941277139E+00  -0.2635978494E-02   0.0000000000E+00  -0.1809028631E-01   0.0000000000E+00   0.0000000000E+00   0.1949185075E-02  -0.6087429267E-03  -0.4703474441E-03  -0.5744752063E-03   0.0000000000E+00   0.0000000000E+00   0.1979415441E+00
   0.2327181858E+00   0.1630523349E+00   0.7113459479E-04  -0.6605018358E-05   0.4979421635E-03  -0.4623512850E-04   0.2051714740E+00  -0.2429103355E-02   0.0000000000E+00  -0.1440282299E-01   0.0000000000E+00   0.0000000000E+00   0.2059002050E-02  -0.6398054557E-03  -0.3744733976E-03  -0.6082271120E-03   0.0000000000E+00   0.0000000000E+00   0.2078929740E+00
   0.2284371039E+00   0.1845629736E-01   0.8395598345E-04  -0.9936692280E-07   0.5876918841E-03  -0.6955684596E-06   0.9598017250E-01   0.2319207431E-01   0.0000000000E+00  -0.8631794284E-02   0.0000000000E+00   0.0000000000E+00   0.8902255020E-03  -0.5601977435E-04  -0.2244266514E-03  -0.3575167404E-03   0.0000000000E+00   0.0000000000E+00   0.8815853044E-01
   0.2312856759E+00   0.3704595797E-01   0.8342411208E-04  -0.2758542324E-06   0.5839687846E-03  -0.1930979627E-05   0.1055739028E+00   0.2084131057E-01   0.0000000000E+00  -0.1742424077E-01   0.0000000000E+00   0.0000000000E+00   0.9932150958E-03  -0.1083086025E-03  -0.4530302600E-03  -0.3792456400E-03   0.0000000000E+00   0.0000000000E+00   0.1012512370E+00
   0.1839747201E+00   0.0000000000E+00   0.8017289214E-04   0.0000000000E+00   0.5612102450E-03   0.0000000000E+00   0.6192138730E-01   0.8949025534E-02   0.0000000000E+00  -0.5222784708E-02   0.0000000000E+00   0.0000000000E+00   0.5923667964E-03  -0.9627390657E-04  -0.1357924024E-03  -0.2126112385E-03   0.0000000000E+00   0.0000000000E+00   0.5807109974E-01
   0.2048218699E+00   0.0000000000E+00   0.8190049282E-04   0.0000000000E+00   0.5733034498E-03   0.0000000000E+00   0.7859271975E-01   0.1807521060E-01   0.0000000000E+00  -0.3921899808E-02   0.0000000000E+00   0.0000000000E+00   0.7317015657E-03  -0.5502605320E-04  -0.1019693950E-03  -0.2900037911E-03   0.0000000000E+00   0.0000000000E+00   0.7102987170E-01
   0.1422911679E+00   0.0000000000E+00   0.7806273548E-04   0.0000000000E+00   0.5464391484E-03   0.0000000000E+00   0.1260878218E-01  -0.3198823499E-01   0.0000000000E+00  -0.1254558396E-01   0.0000000000E+00   0.0000000000E+00   0.2220525268E-03  -0.3577086964E-03  -0.3261851829E-03   0.5813835843E-04   0.0000000000E+00   0.0000000000E+00   0.4430983145E-01
   0.1462857258E+00   0.2097494260E-01   0.7700522855E-04  -0.8273498823E-06   0.5390365998E-03  -0.5791449176E-05   0.2841158726E-01  -0.2628475316E-01   0.0000000000E+00  -0.1974860183E-01   0.0000000000E+00   0.0000000000E+00   0.3629701320E-03  -0.3480822933E-03  -0.5134636477E-03  -0.6380502301E-05   0.0000000000E+00   0.0000000000E+00   0.5957414843E-01
   0.3507999940E+00   0.2499130505E+00   0.1000000000E-03  -0.1086868525E-04   0.7000000000E-03  -0.7608079678E-04   0.2397682504E+00   0.7641573948E-03   0.0000000000E+00   0.6906907778E-03   0.0000000000E+00   0.0000000000E+00   0.2395390032E-02  -0.7116631773E-03   0.1795796022E-04  -0.7215972235E-03   0.0000000000E+00   0.0000000000E+00   0.2393899457E+00
   0.3313089411E+00   0.2499124378E+00   0.9417288591E-04  -0.1094527924E-04   0.6592102013E-03  -0.7661695470E-04   0.2404396026E+00   0.7708569120E-03   0.0000000000E+00  -0.5028062480E-03   0.0000000000E+00   0.0000000000E+00   0.2402083455E-02  -0.7136102385E-03  -0.1307296245E-04  -0.7236313784E-03   0.0000000000E+00   0.0000000000E+00   0.2400578473E+00
   0.3315439459E+00   0.2309726110E+00   0.9442411028E-04  -0.9269372719E-05   0.6609687720E-03  -0.6488560903E-04   0.2326466667E+00   0.5043801736E-03   0.0000000000E+00  -0.1200032697E-02   0.0000000000E+00   0.0000000000E+00   0.2324953527E-02  -0.6928961985E-03  -0.3120085013E-04  -0.6994531407E-03   0.0000000000E+00   0.0000000000E+00   0.2324058062E+00
   0.3507999940E+00   0.2306958322E+00   0.1000000000E-03  -0.9174980948E-05   0.7000000000E-03  -0.6422486664E-04   0.2321718806E+00   0.5735568105E-03   0.0000000000E+00   0.6402345111E-03   0.0000000000E+00   0.0000000000E+00   0.2319998135E-02  -0.6907800736E-03   0.1664609729E-04  -0.6982363121E-03   0.0000000000E+00   0.0000000000E+00   0.2318891326E+00
   0.2736388785E+00   0.2315814567E+00   0.7741206039E-04  -0.1050816389E-04   0.5418844228E-03  -0.7355714724E-04   0.2393187569E+00   0.7628992440E-05   0.0000000000E+00  -0.3235882924E-02   0.0000000000E+00   0.0000000000E+00   0.2393164683E-02  -0.7178799809E-03  -0.8413295603E-04  -0.7179791578E-03   0.0000000000E+00   0.0000000000E+00   0.2393906082E+00
   0.2929276607E+00   0.2314103753E+00   0.8313833859E-04  -0.9914081685E-05   0.5819683701E-03  -0.6939857180E-04   0.2364291566E+00   0.2341511830E-03   0.0000000000E+00  -0.2739735211E-02   0.0000000000E+00   0.0000000000E+00   0.2363589113E-02  -0.7069459581E-03  -0.7123311550E-04  -0.7099899235E-03   0.0000000000E+00   0.0000000000E+00   0.2363670546E+00
   0.2923258053E+00   0.2499072247E+00   0.8239353590E-04  -0.1159691782E-04   0.5767547513E-03  -0.8117842474E-04   0.2454824641E+00   0.8712799058E-03   0.0000000000E+00  -0.8250366845E-03   0.0000000000E+00   0.0000000000E+00   0.2452210802E-02  -0.7277345934E-03  -0.2145095380E-04  -0.7390612322E-03   0.0000000000E+00   0.0000000000E+00   0.2450493467E+00
   0.2728333191E+00   0.2499022837E+00   0.7638726341E-04  -0.1221453869E-04   0.5347108438E-03  -0.8550177081E-04   0.2494688701E+00   0.9619037669E-03   0.0000000000E+00  -0.9557882589E-03   0.0000000000E+00   0.0000000000E+00   0.2491802990E-02  -0.7387875728E-03  -0.2485049473E-04  -0.7512923217E-03   0.0000000000E+00   0.0000000000E+00   0.2489914231E+00
   0.3507999940E+00   0.1730390422E+00   0.1000000000E-03  -0.4735727678E-05   0.7000000000E-03  -0.3315009374E-04   0.2006901207E+00   0.7537773226E-02   0.0000000000E+00   0.5015477096E-03   0.0000000000E+00   0.0000000000E+00   0.1984287887E-02  -0.5266926298E-03   0.1304024045E-04  -0.6246836817E-03   0.0000000000E+00   0.0000000000E+00   0.1970233107E+00
   0.3315399481E+00   0.1732758617E+00   0.9522826733E-04  -0.4807041504E-05   0.6665978713E-03  -0.3364929053E-04   0.2009273525E+00   0.7234278861E-02   0.0000000000E+00  -0.3265965703E-02   0.0000000000E+00   0.0000000000E+00   0.1987570689E-02  -0.5304392690E-03  -0.8491510829E-04  -0.6244848942E-03   0.0000000000E+00   0.0000000000E+00   0.1974785349E+00
   0.3315340445E+00   0.1538185451E+00   0.9554456449E-04  -0.3600865664E-05   0.6688119514E-03  -0.2520605965E-04   0.1887127813E+00   0.1062922617E-01   0.0000000000E+00  -0.3722907841E-02   0.0000000000E+00   0.0000000000E+00   0.1855240134E-02  -0.4598460822E-03  -0.9679560386E-04  -0.5980260224E-03   0.0000000000E+00   0.0000000000E+00   0.1837239291E+00
   0.3507999940E+00   0.1538177372E+00   0.1000000000E-03  -0.3552845045E-05   0.7000000000E-03  -0.2486991532E-04   0.1885384726E+00   0.1090950662E-01   0.0000000000E+00   0.4439544126E-03   0.0000000000E+00   0.0000000000E+00   0.1852656206E-02  -0.4565203516E-03   0.1154281473E-04  -0.5983439377E-03   0.0000000000E+00   0.0000000000E+00   0.1833154736E+00
   0.3507999940E+00   0.1345950323E+00   0.1000000000E-03  -0.2544832685E-05   0.7000000000E-03  -0.1781382880E-04   0.1761387477E+00   0.1467173581E-01   0.0000000000E+00   0.3441780827E-03   0.0000000000E+00   0.0000000000E+00   0.1717372270E-02  -0.3816988851E-03   0.8948630150E-05  -0.5724314507E-03   0.0000000000E+00   0.0000000000E+00   0.1692630520E+00
   0.3507999940E+00   0.1153708608E+00   0.1000000000E-03  -0.1719395775E-05   0.7000000000E-03  -0.1203577042E-04   0.1639221199E+00   0.1868325689E-01   0.0000000000E+00   0.2648799773E-03   0.0000000000E+00   0.0000000000E+00   0.1583171428E-02  -0.3049337907E-03   0.6886879410E-05  -0.5478161302E-03   0.0000000000E+00   0.0000000000E+00   0.1554000550E+00
   0.3507999940E+00   0.9614522447E-01   0.1000000000E-03  -0.1077928826E-05   0.7000000000E-03  -0.7545501779E-05   0.1523775519E+00   0.2277796564E-01   0.0000000000E+00   0.1742361186E-03   0.0000000000E+00   0.0000000000E+00   0.1455441622E-02  -0.2293529991E-03   0.4530139083E-05  -0.5254665525E-03   0.0000000000E+00   0.0000000000E+00   0.1423324560E+00
   0.3507999940E+00   0.7691818131E-01   0.1000000000E-03  -0.6123112952E-06   0.7000000000E-03  -0.4286179067E-05   0.1420379035E+00   0.2668637425E-01   0.0000000000E+00   0.1021599831E-03   0.0000000000E+00   0.0000000000E+00   0.1340319912E-02  -0.1592499681E-03   0.2656159562E-05  -0.5061728333E-03   0.0000000000E+00   0.0000000000E+00   0.1307233378E+00
   0.3507999940E+00   0.5768987240E-01   0.1000000000E-03  -0.3044504355E-06   0.7000000000E-03  -0.2131153049E-05   0.1333912620E+00   0.3013253760E-01   0.0000000000E+00   0.4674614703E-04   0.0000000000E+00   0.0000000000E+00   0.1243515007E-02  -0.9884840992E-04   0.1215399823E-05  -0.4905713987E-03   0.0000000000E+00   0.0000000000E+00   0.1211432811E+00
   0.0000000000E+00   0.2496542462E+00   0.0000000000E+00  -0.4321922400E-04   0.0000000000E+00  -0.3025345680E-03   0.1415618961E+00  -0.2699115443E-02   0.0000000000E+00   0.5059401685E-02   0.0000000000E+00   0.0000000000E+00   0.1423716307E-02  -0.4516768428E-03   0.1315444438E-03  -0.4165883420E-03   0.0000000000E+00   0.0000000000E+00   0.1431897830E+00
   0.3766252226E-01   0.2159065982E+00   0.9435383102E-05  -0.3901022444E-04   0.6604768171E-04  -0.2730715711E-03   0.2076565027E+00   0.7178981896E-02   0.0000000000E+00   0.1828861322E-01   0.0000000000E+00   0.0000000000E+00   0.2055028081E-02  -0.5511796891E-03   0.4755039437E-03  -0.6445064537E-03   0.0000000000E+00   0.0000000000E+00   0.2065197008E+00
   0.3627220601E-01   0.1998001884E+00   0.9862313201E-05  -0.3806382529E-04   0.6903619241E-04  -0.2664467770E-03   0.2256708231E+00   0.1404877073E-01   0.0000000000E+00   0.2127724599E-01   0.0000000000E+00   0.0000000000E+00   0.2214561918E-02  -0.5365247619E-03   0.5532083957E-03  -0.7191587814E-03   0.0000000000E+00   0.0000000000E+00   0.2219709902E+00
   0.5570617123E-01   0.1983267134E+00   0.1540615401E-04  -0.3528882907E-04   0.1078430781E-03  -0.2470218035E-03   0.2320651861E+00   0.7900017179E-02   0.0000000000E+00   0.2821575900E-01   0.0000000000E+00   0.0000000000E+00   0.2296951810E-02  -0.6171953866E-03   0.7336097339E-03  -0.7198956099E-03   0.0000000000E+00   0.0000000000E+00   0.2334593079E+00
   0.5762477262E-01   0.2146353931E+00   0.1475406468E-04  -0.3624449171E-04   0.1032784528E-03  -0.2537114419E-03   0.2168039069E+00   0.3489844427E-02   0.0000000000E+00   0.2360165090E-01   0.0000000000E+00   0.0000000000E+00   0.2157569535E-02  -0.6155132763E-03   0.6136429234E-03  -0.6608812539E-03   0.0000000000E+00   0.0000000000E+00   0.2188884802E+00
   0.1784617855E-01   0.2000978338E+00   0.4813806206E-05  -0.3969240577E-04   0.3369664344E-04  -0.2778468404E-03   0.2230242851E+00   0.1877762662E-01   0.0000000000E+00   0.9889923759E-02   0.0000000000E+00   0.0000000000E+00   0.2173909971E-02  -0.4812965891E-03   0.2571380177E-03  -0.7254057352E-03   0.0000000000E+00   0.0000000000E+00   0.2151864013E+00
   0.5830527917E-01   0.2320186052E+00   0.1339390857E-04  -0.3743534535E-04   0.9375736001E-04  -0.2620474175E-03   0.1986549287E+00   0.2013375896E-02   0.0000000000E+00   0.1353706379E-01   0.0000000000E+00   0.0000000000E+00   0.1980509159E-02  -0.5758310272E-03   0.3519636585E-03  -0.6020049138E-03   0.0000000000E+00   0.0000000000E+00   0.1992255453E+00
   0.1558642908E+00   0.2498207392E+00   0.3859122364E-04  -0.2240760423E-04   0.2701385655E-03  -0.1568532296E-03   0.2590563743E+00   0.8006895807E-03   0.0000000000E+00   0.1654258236E-02   0.0000000000E+00   0.0000000000E+00   0.2588161674E-02  -0.7691622270E-03   0.4301071413E-04  -0.7795711916E-03   0.0000000000E+00   0.0000000000E+00   0.2586716152E+00
   0.1363702843E+00   0.2497965161E+00   0.3239678858E-04  -0.2543549050E-04   0.2267775201E-03  -0.1780484335E-03   0.2501753622E+00   0.3789083359E-03   0.0000000000E+00   0.2739715134E-02   0.0000000000E+00   0.0000000000E+00   0.2500616897E-02  -0.7467370031E-03   0.7123259349E-04  -0.7516628115E-03   0.0000000000E+00   0.0000000000E+00   0.2499859975E+00
   0.1753595356E+00   0.2498419424E+00   0.4494232407E-04  -0.1975719873E-04   0.3145962685E-03  -0.1383003911E-03   0.2633939140E+00   0.1040235732E-02   0.0000000000E+00   0.7070164509E-03   0.0000000000E+00   0.0000000000E+00   0.2630818433E-02  -0.7797793847E-03   0.1838242772E-04  -0.7933024492E-03   0.0000000000E+00   0.0000000000E+00   0.2628958161E+00
   0.1763032645E+00   0.2323525830E+00   0.4739093448E-04  -0.1794125539E-04   0.3317365413E-03  -0.1255887877E-03   0.2503439749E+00  -0.1981741823E-02   0.0000000000E+00   0.1262585888E-02   0.0000000000E+00   0.0000000000E+00   0.2509384974E-02  -0.7708493429E-03   0.3282723310E-04  -0.7450866992E-03   0.0000000000E+00   0.0000000000E+00   0.2513674165E+00
   0.2256716587E+00   0.0000000000E+00   0.8395808191E-04   0.0000000000E+00   0.5877065734E-03   0.0000000000E+00   0.9165984200E-01   0.2372067236E-01   0.0000000000E+00  -0.2957220375E-02   0.0000000000E+00   0.0000000000E+00   0.8454364029E-03  -0.3777280240E-04  -0.7688772974E-04  -0.3461415431E-03   0.0000000000E+00   0.0000000000E+00   0.8232519236E-01
   0.2465235794E+00   0.0000000000E+00   0.8628030067E-04   0.0000000000E+00   0.6039621047E-03   0.0000000000E+00   0.1017791438E+00   0.2783707319E-01   0.0000000000E+00  -0.2217285730E-02   0.0000000000E+00   0.0000000000E+00   0.9342802186E-03  -0.2696669954E-04  -0.5764942897E-04  -0.3888486510E-03   0.0000000000E+00   0.0000000000E+00   0.9104254636E-01
   0.2489370759E+00   0.1834184647E-01   0.8634173279E-04  -0.7267901072E-07   0.6043921296E-03  -0.5087530750E-06   0.1049563326E+00   0.2727192159E-01   0.0000000000E+00  -0.6568827262E-02   0.0000000000E+00   0.0000000000E+00   0.9677475608E-03  -0.4214978180E-04  -0.1707895088E-03  -0.3966847624E-03   0.0000000000E+00   0.0000000000E+00   0.9507424333E-01
   0.1970079638E+00   0.1994147281E+00   0.5742472998E-04  -0.1248186585E-04   0.4019731099E-03  -0.8737306092E-04   0.2323548214E+00  -0.6101351201E-02   0.0000000000E+00  -0.4264387176E-02   0.0000000000E+00   0.0000000000E+00   0.2341852267E-02  -0.7580779762E-03  -0.1108740666E-03  -0.6787604106E-03   0.0000000000E+00   0.0000000000E+00   0.2355831637E+00
   0.2160635792E+00   0.1983065067E+00   0.6305677502E-04  -0.1071878350E-04   0.4413974252E-03  -0.7503148451E-04   0.2286963605E+00  -0.3634672802E-02   0.0000000000E+00  -0.7079107228E-02   0.0000000000E+00   0.0000000000E+00   0.2297867624E-02  -0.7224358096E-03  -0.1840567879E-03  -0.6751850632E-03   0.0000000000E+00   0.0000000000E+00   0.2308608067E+00
   0.2160333421E+00   0.2150400928E+00   0.6141176059E-04  -0.1224439457E-04   0.4298823241E-03  -0.8571076199E-04   0.2381525449E+00  -0.1951201270E-02   0.0000000000E+00  -0.4739433383E-02   0.0000000000E+00   0.0000000000E+00   0.2387379053E-02  -0.7339696474E-03  -0.1232252679E-03  -0.7086040309E-03   0.0000000000E+00   0.0000000000E+00   0.2392845970E+00
   0.1966671951E+00   0.2155090413E+00   0.5556089056E-04  -0.1403508641E-04   0.3889262339E-03  -0.9824560486E-04   0.2406518690E+00  -0.3204361433E-02   0.0000000000E+00  -0.2148200991E-02   0.0000000000E+00   0.0000000000E+00   0.2416131774E-02  -0.7539992213E-03  -0.5585322578E-04  -0.7123425227E-03   0.0000000000E+00   0.0000000000E+00   0.2423088050E+00
   0.1177538183E+00   0.2322207331E+00   0.2949303427E-04  -0.2703336411E-04   0.2064512399E-03  -0.1892335487E-03   0.2345169220E+00  -0.2157197374E-02   0.0000000000E+00   0.1050117453E-01   0.0000000000E+00   0.0000000000E+00   0.2351640812E-02  -0.7251227398E-03   0.2730305377E-03  -0.6970791739E-03   0.0000000000E+00   0.0000000000E+00   0.2363555936E+00
   0.1191381013E+00   0.2150462210E+00   0.3218391309E-04  -0.2518562119E-04   0.2252873917E-03  -0.1762993484E-03   0.2367608362E+00  -0.5799602942E-02   0.0000000000E+00   0.1761427808E-01   0.0000000000E+00   0.0000000000E+00   0.2385007171E-02  -0.7682785381E-03   0.4579712300E-03  -0.6928836998E-03   0.0000000000E+00   0.0000000000E+00   0.2415537595E+00
   0.2143508126E+00   0.2498745882E+00   0.5774107983E-04  -0.1567647582E-04   0.4041875588E-03  -0.1097353308E-03   0.2620615933E+00   0.1189205609E-02   0.0000000000E+00  -0.5587126867E-03   0.0000000000E+00   0.0000000000E+00   0.2617048316E-02  -0.7742927239E-03  -0.1452652985E-04  -0.7897523968E-03   0.0000000000E+00   0.0000000000E+00   0.2614832655E+00
   0.1948552568E+00   0.2498598778E+00   0.5135110218E-04  -0.1751527602E-04   0.3594577153E-03  -0.1226069321E-03   0.2640740366E+00   0.1162829476E-02   0.0000000000E+00  -0.3218967849E-04   0.0000000000E+00   0.0000000000E+00   0.2637251877E-02  -0.7805938149E-03  -0.8369316407E-06  -0.7957105981E-03   0.0000000000E+00   0.0000000000E+00   0.2635135875E+00
   0.1958633219E+00   0.2322934084E+00   0.5352310967E-04  -0.1570632122E-04   0.3746617677E-03  -0.1099442485E-03   0.2503947992E+00  -0.1579520605E-02   0.0000000000E+00  -0.8737971490E-03   0.0000000000E+00   0.0000000000E+00   0.2508686554E-02  -0.7669796036E-03  -0.2271872587E-04  -0.7464458357E-03   0.0000000000E+00   0.0000000000E+00   0.2512093463E+00
   0.2153891408E+00   0.2321726183E+00   0.5962434494E-04  -0.1388846513E-04   0.4173704146E-03  -0.9721925592E-04   0.2486407451E+00  -0.1125344101E-02   0.0000000000E+00  -0.2346687723E-02   0.0000000000E+00   0.0000000000E+00   0.2489783483E-02  -0.7571756763E-03  -0.6101388080E-04  -0.7425462030E-03   0.0000000000E+00   0.0000000000E+00   0.2492536666E+00
   0.2348594780E+00   0.2318540856E+00   0.6566150025E-04  -0.1243630294E-04   0.4596305017E-03  -0.8705412059E-04   0.2458382449E+00  -0.7028379158E-03   0.0000000000E+00  -0.3173885716E-02   0.0000000000E+00   0.0000000000E+00   0.2460490962E-02  -0.7445431137E-03  -0.8252102862E-04  -0.7354062208E-03   0.0000000000E+00   0.0000000000E+00   0.2462664441E+00
   0.2542696798E+00   0.2317334285E+00   0.7158397292E-04  -0.1133393363E-04   0.5010878104E-03  -0.7933753541E-04   0.2425491774E+00  -0.3198855831E-03   0.0000000000E+00  -0.3434212785E-02   0.0000000000E+00   0.0000000000E+00   0.2426451431E-02  -0.7308463880E-03  -0.8928953241E-04  -0.7266878754E-03   0.0000000000E+00   0.0000000000E+00   0.2427951296E+00
   0.2533400073E+00   0.2498954303E+00   0.7027778630E-04  -0.1307121758E-04   0.4919445041E-03  -0.9149852305E-04   0.2539476733E+00   0.1062807596E-02   0.0000000000E+00  -0.9821345923E-03   0.0000000000E+00   0.0000000000E+00   0.2536288311E-02  -0.7512149440E-03  -0.2553549940E-04  -0.7650314428E-03   0.0000000000E+00   0.0000000000E+00   0.2534217093E+00
   0.2338458079E+00   0.2498863165E+00   0.6405923486E-04  -0.1421043871E-04   0.4484146440E-03  -0.9947307097E-04   0.2583795783E+00   0.1145114968E-02   0.0000000000E+00  -0.8642102477E-03   0.0000000000E+00   0.0000000000E+00   0.2580360439E-02  -0.7636875854E-03  -0.2246946644E-04  -0.7785740799E-03   0.0000000000E+00   0.0000000000E+00   0.2578166828E+00
   0.3118176322E+00   0.2499105386E+00   0.8831377352E-04  -0.1118267779E-04   0.6181964146E-03  -0.7827874452E-04   0.2423937928E+00   0.8021076068E-03   0.0000000000E+00  -0.5435352261E-03   0.0000000000E+00   0.0000000000E+00   0.2421531605E-02  -0.7191603022E-03  -0.1413191588E-04  -0.7295877011E-03   0.0000000000E+00   0.0000000000E+00   0.2419956018E+00
   0.3122129072E+00   0.2311961469E+00   0.8879889990E-04  -0.9509266283E-05   0.6215922993E-03  -0.6656486398E-04   0.2341573556E+00   0.4169294294E-03   0.0000000000E+00  -0.1910765106E-02   0.0000000000E+00   0.0000000000E+00   0.2340322768E-02  -0.6983027725E-03  -0.4967989276E-04  -0.7037228551E-03   0.0000000000E+00   0.0000000000E+00   0.2339795873E+00
   0.5590455988E-01   0.8294021130E-01   0.4344202196E-04  -0.2584352481E-04   0.3040941537E-03  -0.1809046737E-03   0.2865198017E+00   0.9752728922E-01   0.0000000000E+00  -0.1451295352E+00   0.0000000000E+00   0.0000000000E+00   0.2572616149E-02   0.1157134871E-03  -0.3773367915E-02  -0.1152141273E-02   0.0000000000E+00   0.0000000000E+00   0.3457233527E+00
   0.7225924754E-01   0.9396927178E-01   0.4116541761E-04  -0.2148080201E-04   0.2881579232E-03  -0.1503656140E-03   0.2299398093E+00  -0.5070440473E-02   0.0000000000E+00  -0.6054871436E-01   0.0000000000E+00   0.0000000000E+00   0.2314609415E-02  -0.7405238328E-03  -0.1574266573E-02  -0.6746081066E-03   0.0000000000E+00   0.0000000000E+00   0.2542900446E+00
   0.6224668331E-01   0.1067837625E+00   0.3232192675E-04  -0.2558068784E-04   0.2262534873E-03  -0.1790648149E-03   0.2793638715E+00   0.3073868360E-02   0.0000000000E+00  -0.3653778378E-01   0.0000000000E+00   0.0000000000E+00   0.2784417110E-02  -0.8073529308E-03  -0.9499823782E-03  -0.8473132195E-03   0.0000000000E+00   0.0000000000E+00   0.2817839959E+00
   0.3850440477E-01   0.9214701976E-01   0.2950777079E-04  -0.3011651786E-04   0.2065543955E-03  -0.2108156250E-03   0.4187922803E+00   0.7195351037E-01   0.0000000000E+00  -0.1090680600E+00   0.0000000000E+00   0.0000000000E+00   0.3972062272E-02  -0.5368417373E-03  -0.2835769561E-02  -0.1472237372E-02   0.0000000000E+00   0.0000000000E+00   0.4252071618E+00
   0.0000000000E+00   0.1996784152E+00   0.0000000000E+00  -0.4019847649E-04   0.0000000000E+00  -0.2813893354E-03   0.2218543034E+00   0.2041551860E-01   0.0000000000E+00   0.5322441176E-02   0.0000000000E+00   0.0000000000E+00   0.2157296478E-02  -0.4614077243E-03   0.1383834706E-03  -0.7268094661E-03   0.0000000000E+00   0.0000000000E+00   0.2123999249E+00
   0.0000000000E+00   0.1830190700E+00   0.0000000000E+00  -0.3928337785E-04   0.0000000000E+00  -0.2749836449E-03   0.2423662835E+00   0.3191075856E-01   0.0000000000E+00   0.5619967087E-02   0.0000000000E+00   0.0000000000E+00   0.2327930559E-02  -0.4079912649E-03   0.1461191443E-03  -0.8228311262E-03   0.0000000000E+00   0.0000000000E+00   0.2281140390E+00
   0.3664979434E-01   0.1166088276E+00   0.1789455522E-04  -0.3232355351E-04   0.1252618865E-03  -0.2262648746E-03   0.3778864258E+00   0.4990342223E-01   0.0000000000E+00  -0.3980979923E-01   0.0000000000E+00   0.0000000000E+00   0.3629153992E-02  -0.6346250553E-03  -0.1035054780E-02  -0.1283369544E-02   0.0000000000E+00   0.0000000000E+00   0.3661019393E+00
   0.2673771210E+00   0.0000000000E+00   0.8880500343E-04   0.0000000000E+00   0.6216350240E-03   0.0000000000E+00   0.1093669036E+00   0.3073988685E-01   0.0000000000E+00  -0.1642903753E-02   0.0000000000E+00   0.0000000000E+00   0.1001449376E-02  -0.2070184239E-04  -0.4271549758E-04  -0.4203203715E-03   0.0000000000E+00   0.0000000000E+00   0.9766485810E-01
   0.2693370442E+00   0.1829105925E-01   0.8888740044E-04  -0.5641924454E-07   0.6222118031E-03  -0.3949347118E-06   0.1117612462E+00   0.3020690068E-01   0.0000000000E+00  -0.4892336726E-02   0.0000000000E+00   0.0000000000E+00   0.1026991760E-02  -0.3321473183E-04  -0.1272007549E-03  -0.4259044407E-03   0.0000000000E+00   0.0000000000E+00   0.1005245558E+00
   0.2371749747E+00   0.7430741662E-01   0.8132145904E-04  -0.1097434428E-05   0.5692502133E-03  -0.7682040997E-05   0.1339796863E+00   0.1301325906E-01   0.0000000000E+00  -0.2481247074E-01   0.0000000000E+00   0.0000000000E+00   0.1300757086E-02  -0.2718064684E-03  -0.6451242393E-03  -0.4409788361E-03   0.0000000000E+00   0.0000000000E+00   0.1349312126E+00
   0.2558917644E+00   0.7383079933E-01   0.8439942041E-04  -0.8864840720E-06   0.5907959429E-03  -0.6205388504E-05   0.1354629806E+00   0.1800975792E-01   0.0000000000E+00  -0.1983856731E-01   0.0000000000E+00   0.0000000000E+00   0.1300600532E-02  -0.2262913627E-03  -0.5158027501E-03  -0.4604182156E-03   0.0000000000E+00   0.0000000000E+00   0.1319165226E+00
   0.3110893734E+00   0.3712593545E-01   0.9423954925E-04  -0.1283310338E-06   0.6596768447E-03  -0.8983172368E-06   0.1245125790E+00   0.3192911929E-01   0.0000000000E+00  -0.4685982902E-02   0.0000000000E+00   0.0000000000E+00   0.1149338433E-02  -0.5424654420E-04  -0.1218355555E-03  -0.4693250950E-03   0.0000000000E+00   0.0000000000E+00   0.1122821944E+00
   0.2911714368E+00   0.3677610071E-01   0.9141560164E-04  -0.1423234057E-06   0.6399092115E-03  -0.9962638402E-06   0.1216548099E+00   0.3052120012E-01   0.0000000000E+00  -0.7211455508E-02   0.0000000000E+00   0.0000000000E+00   0.1124984498E-02  -0.5975242842E-04  -0.1874978432E-03  -0.4565280299E-03   0.0000000000E+00   0.0000000000E+00   0.1102945171E+00
   0.3507999940E+00   0.2114779212E+00   0.1000000000E-03  -0.7567848025E-05   0.7000000000E-03  -0.5297493618E-04   0.2229509964E+00   0.2356507865E-02   0.0000000000E+00   0.5986227702E-03   0.0000000000E+00   0.0000000000E+00   0.2222440441E-02  -0.6452879106E-03   0.1556419202E-04  -0.6759225129E-03   0.0000000000E+00   0.0000000000E+00   0.2217831399E+00
   0.3316659454E+00   0.2119195090E+00   0.9469092110E-04  -0.7669373064E-05   0.6628364477E-03  -0.5368561145E-04   0.2233346034E+00   0.2197170938E-02   0.0000000000E+00  -0.2115523708E-02   0.0000000000E+00   0.0000000000E+00   0.2226754521E-02  -0.6480321009E-03  -0.5500361641E-04  -0.6765953231E-03   0.0000000000E+00   0.0000000000E+00   0.2222704935E+00
   0.3316025901E+00   0.1926522722E+00   0.9494488858E-04  -0.6170726622E-05   0.6646142201E-03  -0.4319508635E-04   0.2125696007E+00   0.4367670690E-02   0.0000000000E+00  -0.2733852650E-02   0.0000000000E+00   0.0000000000E+00   0.2112592995E-02  -0.5940320953E-03  -0.7108016891E-04  -0.6508118143E-03   0.0000000000E+00   0.0000000000E+00   0.2104661643E+00
   0.3507999940E+00   0.1922590555E+00   0.1000000000E-03  -0.6080064966E-05   0.7000000000E-03  -0.4256045476E-04   0.2122744880E+00   0.4625367882E-02   0.0000000000E+00   0.5614864726E-03   0.0000000000E+00   0.0000000000E+00   0.2108868777E-02  -0.5905697853E-03   0.1459864829E-04  -0.6506995677E-03   0.0000000000E+00   0.0000000000E+00   0.2099984706E+00
   0.2932341749E+00   0.2126176891E+00   0.8392773261E-04  -0.8295115917E-05   0.5874941283E-03  -0.5806581142E-04   0.2265091781E+00   0.1542169842E-02   0.0000000000E+00  -0.5212221774E-02   0.0000000000E+00   0.0000000000E+00   0.2260465271E-02  -0.6641058358E-03  -0.1355177661E-03  -0.6841540438E-03   0.0000000000E+00   0.0000000000E+00   0.2259206172E+00
   0.2741318539E+00   0.2130723505E+00   0.7849061712E-04  -0.8876686335E-05   0.5494343199E-03  -0.6213680435E-04   0.2290348591E+00   0.9160811662E-03   0.0000000000E+00  -0.6235031847E-02   0.0000000000E+00   0.0000000000E+00   0.2287600348E-02  -0.6779437656E-03  -0.1621108280E-03  -0.6898528208E-03   0.0000000000E+00   0.0000000000E+00   0.2288315045E+00
   0.2739916635E+00   0.1942138533E+00   0.7951868220E-04  -0.7331209604E-05   0.5566307754E-03  -0.5131846723E-04   0.2178662733E+00   0.1930495334E-02   0.0000000000E+00  -0.8352989249E-02   0.0000000000E+00   0.0000000000E+00   0.2172871247E-02  -0.6342938667E-03  -0.2171777205E-03  -0.6593903060E-03   0.0000000000E+00   0.0000000000E+00   0.2173934809E+00
   0.2930965695E+00   0.1933927363E+00   0.8470531593E-04  -0.6756086725E-05   0.5929372115E-03  -0.4729260707E-04   0.2155119192E+00   0.2917179036E-02   0.0000000000E+00  -0.7015000946E-02   0.0000000000E+00   0.0000000000E+00   0.2146367655E-02  -0.6173639673E-03  -0.1823900246E-03  -0.6552872948E-03   0.0000000000E+00   0.0000000000E+00   0.2144101018E+00
   0.1950207013E+00   0.5816085853E-01   0.7676090656E-04  -0.1157358415E-05   0.5373263459E-03  -0.8101508905E-05   0.1112671569E+00   0.2334297580E-02   0.0000000000E+00  -0.3499916968E-01   0.0000000000E+00   0.0000000000E+00   0.1105668676E-02  -0.3104584949E-03  -0.9099784118E-03  -0.3408043634E-03   0.0000000000E+00   0.0000000000E+00   0.1255656313E+00
   0.2147312798E+00   0.5660715507E-01   0.7967510152E-04  -0.8035031991E-06   0.5577257106E-03  -0.5624522393E-05   0.1146447470E+00   0.1054313244E-01   0.0000000000E+00  -0.2817949091E-01   0.0000000000E+00   0.0000000000E+00   0.1114818072E-02  -0.2385029166E-03  -0.7326667637E-03  -0.3755636383E-03   0.0000000000E+00   0.0000000000E+00   0.1201240910E+00
   0.7341335840E-01   0.1303898721E+00   0.2929863793E-04  -0.2527386271E-04   0.2050904655E-03  -0.1769170390E-03   0.2844761154E+00  -0.1047315118E-01   0.0000000000E+00   0.6209155531E-02   0.0000000000E+00   0.0000000000E+00   0.2876180607E-02  -0.9581598579E-03   0.1614380438E-03  -0.8220088925E-03   0.0000000000E+00   0.0000000000E+00   0.2898041192E+00
   0.5568448078E-01   0.1222458206E+00   0.2460739718E-04  -0.2870491898E-04   0.1722517803E-03  -0.2009344328E-03   0.3291241029E+00   0.2186576285E-01   0.0000000000E+00  -0.1010949583E-01   0.0000000000E+00   0.0000000000E+00   0.3225643740E-02  -0.7687146801E-03  -0.2628468916E-03  -0.1052969597E-02   0.0000000000E+00   0.0000000000E+00   0.3184899820E+00
   0.8106074191E-01   0.1171025907E+00   0.3544018882E-04  -0.2168703484E-04   0.2480813217E-03  -0.1518092439E-03   0.2727049096E+00  -0.1892905110E-01   0.0000000000E+00  -0.1139796608E-01   0.0000000000E+00   0.0000000000E+00   0.2783836249E-02  -0.1007405240E-02  -0.2963471181E-03  -0.7613275755E-03   0.0000000000E+00   0.0000000000E+00   0.2830907426E+00
   0.5842372145E-01   0.2496908294E+00   0.1129848072E-04  -0.3864632041E-04   0.7908936504E-04  -0.2705242429E-03   0.1771814671E+00  -0.1749966244E-02   0.0000000000E+00   0.4733181616E-02   0.0000000000E+00   0.0000000000E+00   0.1777064569E-02  -0.5490440636E-03   0.1230627220E-03  -0.5262945025E-03   0.0000000000E+00   0.0000000000E+00   0.1780951695E+00
   0.7835338477E-01   0.2131597386E+00   0.2059087172E-04  -0.3261142629E-04   0.1441361021E-03  -0.2282799840E-03   0.2239601482E+00  -0.5972997514E-03   0.0000000000E+00   0.2559118249E-01   0.0000000000E+00   0.0000000000E+00   0.2241393382E-02  -0.6778534422E-03   0.6653707446E-03  -0.6700885454E-03   0.0000000000E+00   0.0000000000E+00   0.2284762918E+00
   0.7817569344E-01   0.1931871494E+00   0.2239920479E-04  -0.3090295616E-04   0.1567944335E-03  -0.2163206931E-03   0.2396617995E+00  -0.1585725484E-02   0.0000000000E+00   0.3016422899E-01   0.0000000000E+00   0.0000000000E+00   0.2401375172E-02  -0.7348426534E-03   0.7842699537E-03  -0.7142282221E-03   0.0000000000E+00   0.0000000000E+00   0.2460636405E+00
   0.1771535476E+00   0.2156697096E+00   0.4963819535E-04  -0.1623629999E-04   0.3474673674E-03  -0.1136540999E-03   0.2420166591E+00  -0.4373571161E-02   0.0000000000E+00   0.1603169542E-02   0.0000000000E+00   0.0000000000E+00   0.2433287305E-02  -0.7697856889E-03   0.4168240809E-04  -0.7129292639E-03   0.0000000000E+00   0.0000000000E+00   0.2442535787E+00
   0.3122377972E+00   0.1536997867E+00   0.9107189544E-04  -0.3740042275E-05   0.6375032681E-03  -0.2618029593E-04   0.1892983449E+00   0.9681255537E-02   0.0000000000E+00  -0.7012101938E-02   0.0000000000E+00   0.0000000000E+00   0.1863939682E-02  -0.4710824792E-03  -0.1823146504E-03  -0.5969388012E-03   0.0000000000E+00   0.0000000000E+00   0.1850433285E+00
   0.3122200842E+00   0.1733982194E+00   0.9042240577E-04  -0.4987196300E-05   0.6329568404E-03  -0.3491037410E-04   0.2017955389E+00   0.6538210377E-02   0.0000000000E+00  -0.6108413041E-02   0.0000000000E+00   0.0000000000E+00   0.1998340758E-02  -0.5400045130E-03  -0.1588187391E-03  -0.6250012479E-03   0.0000000000E+00   0.0000000000E+00   0.1988848837E+00
   0.1168784692E+00   0.2497699603E+00   0.2647527911E-04  -0.2875496312E-04   0.1853269538E-03  -0.2012847418E-03   0.2364088977E+00  -0.1156239182E-03   0.0000000000E+00   0.3857582039E-02   0.0000000000E+00   0.0000000000E+00   0.2364435848E-02  -0.7103829321E-03   0.1002971330E-03  -0.7088798212E-03   0.0000000000E+00   0.0000000000E+00   0.2364415326E+00
   0.7115104692E-01   0.7053963502E-01   0.5504569043E-04  -0.2138079808E-04   0.3853198330E-03  -0.1496655865E-03   0.1130667769E+00   0.5696837655E-01   0.0000000000E+00  -0.7327122838E-01   0.0000000000E+00   0.0000000000E+00   0.9597626396E-03   0.2304834347E-03  -0.1905051938E-02  -0.5101054604E-03   0.0000000000E+00   0.0000000000E+00   0.1488277057E+00
   0.8430655455E-01   0.7953200772E-01   0.5169976838E-04  -0.1662003463E-04   0.3618983786E-03  -0.1163402424E-03   0.1543679651E+00  -0.5570610488E-02   0.0000000000E+00  -0.6167553508E-01   0.0000000000E+00   0.0000000000E+00   0.1560391482E-02  -0.5188100002E-03  -0.1603563912E-02  -0.4463920638E-03   0.0000000000E+00   0.0000000000E+00   0.1911827053E+00
   0.2354763152E+00   0.2142246553E+00   0.6723214812E-04  -0.1079358833E-04   0.4706250368E-03  -0.7555511828E-04   0.2350910965E+00  -0.8385469533E-03   0.0000000000E+00  -0.6129734882E-02   0.0000000000E+00   0.0000000000E+00   0.2353426606E-02  -0.7136587590E-03  -0.1593731069E-03  -0.7027576486E-03   0.0000000000E+00   0.0000000000E+00   0.2357550008E+00
   0.1778529941E+00   0.1997966292E+00   0.5173751222E-04  -0.1460722932E-04   0.3621625855E-03  -0.1022506053E-03   0.2355038887E+00  -0.8253074139E-02   0.0000000000E+00   0.1992135039E-04   0.0000000000E+00   0.0000000000E+00   0.2379798109E-02  -0.7890424074E-03   0.5179551101E-06  -0.6817524436E-03   0.0000000000E+00   0.0000000000E+00   0.2397306053E+00
   0.1588923476E+00   0.1996506723E+00   0.4609107313E-04  -0.1709570653E-04   0.3226375119E-03  -0.1196699457E-03   0.2377336589E+00  -0.1005534678E-01   0.0000000000E+00   0.5489333931E-02   0.0000000000E+00   0.0000000000E+00   0.2407502629E-02  -0.8137544444E-03   0.1427226822E-03  -0.6830349363E-03   0.0000000000E+00   0.0000000000E+00   0.2430874900E+00
   0.1600692007E+00   0.1837887722E+00   0.4846833163E-04  -0.1527984993E-04   0.3392783214E-03  -0.1069589495E-03   0.2340952943E+00  -0.1522799330E-01   0.0000000000E+00   0.2496429777E-02   0.0000000000E+00   0.0000000000E+00   0.2386636923E-02  -0.8545658159E-03   0.6490717420E-04  -0.6566019030E-03   0.0000000000E+00   0.0000000000E+00   0.2420732893E+00
   0.1782419109E+00   0.1844830648E+00   0.5373199084E-04  -0.1303502965E-04   0.3761239359E-03  -0.9124520753E-04   0.2298698022E+00  -0.1198660013E-01   0.0000000000E+00  -0.2956903036E-02   0.0000000000E+00   0.0000000000E+00   0.2334657822E-02  -0.8094754078E-03  -0.7687947892E-04  -0.6536496061E-03   0.0000000000E+00   0.0000000000E+00   0.2361245754E+00
   0.2548821766E+00   0.2136408013E+00   0.7292869793E-04  -0.9694212198E-05   0.5105008855E-03  -0.6785948538E-04   0.2318941037E+00   0.7886338744E-04   0.0000000000E+00  -0.6585719384E-02   0.0000000000E+00   0.0000000000E+00   0.2318704447E-02  -0.6948936773E-03  -0.1712287040E-03  -0.6959189013E-03   0.0000000000E+00   0.0000000000E+00   0.2321341313E+00
   0.3124260899E+00   0.2122693008E+00   0.8932498464E-04  -0.7903893900E-05   0.6252748925E-03  -0.5532725730E-04   0.2246481410E+00   0.1933709997E-02   0.0000000000E+00  -0.3693501113E-02   0.0000000000E+00   0.0000000000E+00   0.2240680280E-02  -0.6546073230E-03  -0.9603102895E-04  -0.6797455530E-03   0.0000000000E+00   0.0000000000E+00   0.2237800958E+00
   0.3123842223E+00   0.1929820749E+00   0.8985828391E-04  -0.6385507111E-05   0.6290079874E-03  -0.4469854978E-04   0.2137537906E+00   0.3902302740E-02   0.0000000000E+00  -0.4960668830E-02   0.0000000000E+00   0.0000000000E+00   0.2125830998E-02  -0.6022383445E-03  -0.1289773896E-03  -0.6529682801E-03   0.0000000000E+00   0.0000000000E+00   0.2120074568E+00
   0.6728909889E-01   0.1438456159E+00   0.2452356068E-04  -0.2821564280E-04   0.1716649248E-03  -0.1975094996E-03   0.2847978777E+00   0.1681335236E-02   0.0000000000E+00   0.1960509563E-01   0.0000000000E+00   0.0000000000E+00   0.2842934771E-02  -0.8375802806E-03   0.5097324864E-03  -0.8594376387E-03   0.0000000000E+00   0.0000000000E+00   0.2859112216E+00
   0.6228652054E-01   0.1543967719E+00   0.2130611710E-04  -0.3033326792E-04   0.1491428197E-03  -0.2123328755E-03   0.2793216701E+00   0.6157804252E-02   0.0000000000E+00   0.2488013185E-01   0.0000000000E+00   0.0000000000E+00   0.2774743288E-02  -0.7763869677E-03   0.6468834282E-03  -0.8564384230E-03   0.0000000000E+00   0.0000000000E+00   0.2794458989E+00
   0.1531344171E+00   0.3950408703E-01   0.7481638904E-04  -0.1453971864E-05   0.5237147233E-03  -0.1017780305E-04   0.6648454288E-01  -0.2042200000E-01   0.0000000000E+00  -0.4195545176E-01   0.0000000000E+00   0.0000000000E+00   0.7261114287E-03  -0.4036736286E-03  -0.1090841746E-02  -0.1381876286E-03   0.0000000000E+00   0.0000000000E+00   0.1062183623E+00
   0.1359279001E+00   0.4587531936E-01   0.7183838343E-04  -0.2927479599E-05   0.5028686840E-03  -0.2049235719E-04   0.6634591954E-01  -0.3997520579E-01   0.0000000000E+00  -0.5491812804E-01   0.0000000000E+00   0.0000000000E+00   0.7833848127E-03  -0.5987898165E-03  -0.1427871329E-02  -0.7911214124E-04   0.0000000000E+00   0.0000000000E+00   0.1293692837E+00
   0.1631308807E+00   0.0000000000E+00   0.7886084245E-04   0.0000000000E+00   0.5520258971E-03   0.0000000000E+00   0.4023110645E-01  -0.3286929372E-02   0.0000000000E+00  -0.7221731535E-02   0.0000000000E+00   0.0000000000E+00   0.4121718526E-03  -0.1535626131E-03  -0.1877650199E-03  -0.1108325312E-03   0.0000000000E+00   0.0000000000E+00   0.4128701630E-01
   0.1670566210E+00   0.1949549651E-01   0.7833362562E-04  -0.4074617144E-06   0.5483353794E-03  -0.2852232001E-05   0.5351499281E-01  -0.3634710116E-02   0.0000000000E+00  -0.1768232629E-01   0.0000000000E+00   0.0000000000E+00   0.5460540584E-03  -0.1968920796E-03  -0.4597404835E-03  -0.1496408481E-03   0.0000000000E+00   0.0000000000E+00   0.6388645127E-01
   0.2761341429E+00   0.9271382848E-01   0.8659185802E-04  -0.1291364420E-05   0.6061430062E-03  -0.9039550937E-05   0.1495562105E+00   0.1757396119E-01   0.0000000000E+00  -0.1617908584E-01   0.0000000000E+00   0.0000000000E+00   0.1442840222E-02  -0.2729290197E-03  -0.4206562319E-03  -0.5013905151E-03   0.0000000000E+00   0.0000000000E+00   0.1443018248E+00
   0.2943462597E+00   0.9348122597E-01   0.8983371345E-04  -0.1172753729E-05   0.6288359942E-03  -0.8209276101E-05   0.1505153076E+00   0.2004951904E-01   0.0000000000E+00  -0.1205199027E-01   0.0000000000E+00   0.0000000000E+00   0.1445004519E-02  -0.2510507324E-03  -0.3133517470E-03  -0.5116944799E-03   0.0000000000E+00   0.0000000000E+00   0.1430624910E+00
   0.2944812834E+00   0.1128338221E+00   0.8894580493E-04  -0.1873616552E-05   0.6226206345E-03  -0.1311531587E-04   0.1628784949E+00   0.1599509166E-01   0.0000000000E+00  -0.1208577875E-01   0.0000000000E+00   0.0000000000E+00   0.1580799674E-02  -0.3286845680E-03  -0.3142302476E-03  -0.5366207596E-03   0.0000000000E+00   0.0000000000E+00   0.1568722983E+00
   0.2765878152E+00   0.1113584202E+00   0.8549177317E-04  -0.2016228971E-05   0.5984424122E-03  -0.1411360279E-04   0.1626529361E+00   0.1349164128E-01   0.0000000000E+00  -0.1575291074E-01   0.0000000000E+00   0.0000000000E+00   0.1586054437E-02  -0.3530423955E-03  -0.4095756793E-03  -0.5284337322E-03   0.0000000000E+00   0.0000000000E+00   0.1586910093E+00
   0.2935992960E+00   0.7443330033E-01   0.9053062404E-04  -0.6701214141E-06   0.6337143683E-03  -0.4690849899E-05   0.1390833730E+00   0.2414445226E-01   0.0000000000E+00  -0.1132368719E-01   0.0000000000E+00   0.0000000000E+00   0.1318400374E-02  -0.1758055965E-03  -0.2944158670E-03  -0.4896834759E-03   0.0000000000E+00   0.0000000000E+00   0.1301703738E+00
   0.1717022619E+00   0.3887504336E-01   0.7665298276E-04  -0.8982681176E-06   0.5365708794E-03  -0.6287876823E-05   0.7331776683E-01  -0.5217765587E-02   0.0000000000E+00  -0.3633627954E-01   0.0000000000E+00   0.0000000000E+00   0.7488309651E-03  -0.2721309564E-03  -0.9447432680E-03  -0.2043000037E-03   0.0000000000E+00   0.0000000000E+00   0.9819341155E-01
   0.2936669158E+00   0.1327269492E+00   0.8778860259E-04  -0.2801853295E-05   0.6145202181E-03  -0.1961297306E-04   0.1764762960E+00   0.1147183966E-01   0.0000000000E+00  -0.1158091125E-01   0.0000000000E+00   0.0000000000E+00   0.1730347441E-02  -0.4147104914E-03  -0.3011036924E-03  -0.5638444069E-03   0.0000000000E+00   0.0000000000E+00   0.1721858648E+00
   0.5203803242E-01   0.1830910567E+00   0.1537006482E-04  -0.3467904239E-04   0.1075904537E-03  -0.2427532967E-03   0.2470953726E+00   0.1180418109E-01   0.0000000000E+00   0.2865042498E-01   0.0000000000E+00   0.0000000000E+00   0.2435541183E-02  -0.6232443069E-03   0.7449110495E-03  -0.7766986611E-03   0.0000000000E+00   0.0000000000E+00   0.2465206329E+00
   0.5054832251E-01   0.1683217184E+00   0.1599453814E-04  -0.3378969771E-04   0.1119617670E-03  -0.2365278840E-03   0.2632845409E+00   0.1805239726E-01   0.0000000000E+00   0.2957872130E-01   0.0000000000E+00   0.0000000000E+00   0.2578688217E-02  -0.6093296500E-03   0.7690467538E-03  -0.8440108144E-03   0.0000000000E+00   0.0000000000E+00   0.2598161484E+00
   0.2924682709E+00   0.5550313036E-01   0.9105985715E-04  -0.3366178336E-06   0.6374190000E-03  -0.2356324835E-05   0.1292682908E+00   0.2769839594E-01   0.0000000000E+00  -0.9647861061E-02   0.0000000000E+00   0.0000000000E+00   0.1209587720E-02  -0.1108209130E-03  -0.2508443876E-03  -0.4709000602E-03   0.0000000000E+00   0.0000000000E+00   0.1190380117E+00
   0.2923569378E+00   0.1532622747E+00   0.8645272272E-04  -0.3985792490E-05   0.6051690591E-03  -0.2790054743E-04   0.1900487792E+00   0.8266263341E-02   0.0000000000E+00  -0.1027261866E-01   0.0000000000E+00   0.0000000000E+00   0.1875689002E-02  -0.4874837042E-03  -0.2670880851E-03  -0.5949451277E-03   0.0000000000E+00   0.0000000000E+00   0.1868777594E+00
   0.2712758832E+00   0.3669119345E-01   0.8866253081E-04  -0.1679935044E-06   0.6206377157E-03  -0.1175954531E-05   0.1176249192E+00   0.2833832144E-01   0.0000000000E+00  -0.1004902948E-01   0.0000000000E+00   0.0000000000E+00   0.1091234227E-02  -0.6949154313E-04  -0.2612747665E-03  -0.4378897219E-03   0.0000000000E+00   0.0000000000E+00   0.1076697208E+00
   0.2513779089E+00   0.3681256386E-01   0.8599810729E-04  -0.2098423046E-06   0.6019867511E-03  -0.1468896132E-05   0.1122742581E+00   0.2523094930E-01   0.0000000000E+00  -0.1338650640E-01   0.0000000000E+00   0.0000000000E+00   0.1047049733E-02  -0.8451328129E-04  -0.3480491663E-03  -0.4125156221E-03   0.0000000000E+00   0.0000000000E+00   0.1045115757E+00
   0.2341949592E+00   0.5569540183E-01   0.8249214562E-04  -0.5971718062E-06   0.5774450193E-03  -0.4180202644E-05   0.1187667811E+00   0.1724937387E-01   0.0000000000E+00  -0.2235085344E-01   0.0000000000E+00   0.0000000000E+00   0.1135919690E-02  -0.1838066047E-03  -0.5811221895E-03  -0.4080484650E-03   0.0000000000E+00   0.0000000000E+00   0.1176583000E+00
   0.2537199015E+00   0.5532372507E-01   0.8532105636E-04  -0.4682784131E-06   0.5972473945E-03  -0.3277948892E-05   0.1228119725E+00   0.2192642371E-01   0.0000000000E+00  -0.1743595991E-01   0.0000000000E+00   0.0000000000E+00   0.1162340454E-02  -0.1491716803E-03  -0.4533349576E-03  -0.4342151885E-03   0.0000000000E+00   0.0000000000E+00   0.1173731936E+00
   0.2354150866E+00   0.1969802920E+00   0.6867395333E-04  -0.9282253084E-05   0.4807176733E-03  -0.6497577159E-04   0.2248744575E+00  -0.1690688001E-02   0.0000000000E+00  -0.8644359451E-02   0.0000000000E+00   0.0000000000E+00   0.2253816639E-02  -0.6915302525E-03  -0.2247533457E-03  -0.6695513085E-03   0.0000000000E+00   0.0000000000E+00   0.2262265962E+00
   0.2548144099E+00   0.1956098200E+00   0.7418461132E-04  -0.8166250899E-05   0.5192922792E-03  -0.5716375629E-04   0.2211370391E+00   0.1324227404E-03   0.0000000000E+00  -0.9099869610E-02   0.0000000000E+00   0.0000000000E+00   0.2210973123E-02  -0.6620868900E-03  -0.2365966099E-03  -0.6638083857E-03   0.0000000000E+00   0.0000000000E+00   0.2216377933E+00
   0.1601194034E+00   0.7266941057E-01   0.6887367324E-04  -0.3280879045E-05   0.4821157127E-03  -0.2296615331E-04   0.1282049453E+00  -0.2524047776E-01   0.0000000000E+00  -0.4966190438E-01   0.0000000000E+00   0.0000000000E+00   0.1357770886E-02  -0.6370196135E-03  -0.1291209514E-02  -0.3088934026E-03   0.0000000000E+00   0.0000000000E+00   0.1661813181E+00
   0.1743249746E+00   0.6064757045E-01   0.7350556963E-04  -0.1768468923E-05   0.5145389874E-03  -0.1237928246E-04   0.1096701583E+00  -0.1132561484E-01   0.0000000000E+00  -0.4415812381E-01   0.0000000000E+00   0.0000000000E+00   0.1130678427E-02  -0.4422666233E-03  -0.1148111219E-02  -0.2950336304E-03   0.0000000000E+00   0.0000000000E+00   0.1387163838E+00
   0.1846899090E+00   0.8231715360E-01   0.7130200213E-04  -0.2769450119E-05   0.4991140149E-03  -0.1938615083E-04   0.1437100759E+00  -0.1294392888E-01   0.0000000000E+00  -0.4177580815E-01   0.0000000000E+00   0.0000000000E+00   0.1475932546E-02  -0.5605695165E-03  -0.1086171012E-02  -0.3922984410E-03   0.0000000000E+00   0.0000000000E+00   0.1668870895E+00
   0.1699368215E+00   0.8992125344E-01   0.6704043776E-04  -0.4128244575E-05   0.4692830643E-03  -0.2889771203E-04   0.1557311756E+00  -0.2358394105E-01   0.0000000000E+00  -0.4230707299E-01   0.0000000000E+00   0.0000000000E+00   0.1628063579E-02  -0.7030329372E-03  -0.1099983898E-02  -0.3964417036E-03   0.0000000000E+00   0.0000000000E+00   0.1839567296E+00
   0.9905010270E-01   0.2139787062E+00   0.2640274942E-04  -0.2883397683E-04   0.1848192459E-03  -0.2018378378E-03   0.2314223603E+00  -0.4423814433E-02   0.0000000000E+00   0.2301929104E-01   0.0000000000E+00   0.0000000000E+00   0.2327495046E-02  -0.7385052251E-03   0.5985015670E-03  -0.6809956375E-03   0.0000000000E+00   0.0000000000E+00   0.2369320078E+00
   0.1400694719E+00   0.1992265240E+00   0.4046811105E-04  -0.1995512545E-04   0.2832767773E-03  -0.1396858781E-03   0.2391884870E+00  -0.1124083644E-01   0.0000000000E+00   0.1178509867E-01   0.0000000000E+00   0.0000000000E+00   0.2425607380E-02  -0.8299738256E-03   0.3064125655E-03  -0.6838429518E-03   0.0000000000E+00   0.0000000000E+00   0.2458323172E+00
   0.1211668648E+00   0.1984539892E+00   0.3483547830E-04  -0.2316246916E-04   0.2438483481E-03  -0.1621372841E-03   0.2395620725E+00  -0.1117342368E-01   0.0000000000E+00   0.1836499745E-01   0.0000000000E+00   0.0000000000E+00   0.2429140996E-02  -0.8304204542E-03   0.4774899337E-03  -0.6851659464E-03   0.0000000000E+00   0.0000000000E+00   0.2473731542E+00
   0.2187969424E+00   0.7552531382E-01   0.7819242233E-04  -0.1423034445E-05   0.5473469563E-03  -0.9961241116E-05   0.1335826097E+00   0.6486855165E-02   0.0000000000E+00  -0.3036281803E-01   0.0000000000E+00   0.0000000000E+00   0.1316365531E-02  -0.3358792773E-03  -0.7894332687E-03  -0.4202083945E-03   0.0000000000E+00   0.0000000000E+00   0.1405562304E+00
   0.8052798650E-01   0.1525852205E+00   0.2773887510E-04  -0.2623568214E-04   0.1941721257E-03  -0.1836497750E-03   0.2675102999E+00  -0.1170399548E-01   0.0000000000E+00   0.2236451359E-01   0.0000000000E+00   0.0000000000E+00   0.2710214985E-02  -0.9195708545E-03   0.5814773532E-03  -0.7674189132E-03   0.0000000000E+00   0.0000000000E+00   0.2761378252E+00
   0.7001522624E-01   0.1665012053E+00   0.2245101705E-04  -0.2995746485E-04   0.1571571193E-03  -0.2097022540E-03   0.2614312658E+00   0.1378137741E-02   0.0000000000E+00   0.2937662306E-01   0.0000000000E+00   0.0000000000E+00   0.2610178245E-02  -0.7705124201E-03   0.7637921997E-03  -0.7884282107E-03   0.0000000000E+00   0.0000000000E+00   0.2656731953E+00
   0.1417899721E+00   0.1829715130E+00   0.4307914021E-04  -0.1793650052E-04   0.3015539815E-03  -0.1255555036E-03   0.2380731397E+00  -0.1700767056E-01   0.0000000000E+00   0.8948170509E-02   0.0000000000E+00   0.0000000000E+00   0.2431754409E-02  -0.8842961247E-03   0.2326524332E-03  -0.6631964074E-03   0.0000000000E+00   0.0000000000E+00   0.2474555878E+00
   0.2731466456E+00   0.1744597162E+00   0.8051295416E-04  -0.5847976629E-05   0.5635906792E-03  -0.4093583640E-04   0.2065388870E+00   0.3248627364E-02   0.0000000000E+00  -0.1090626714E-01   0.0000000000E+00   0.0000000000E+00   0.2055642988E-02  -0.5871303873E-03  -0.2835629457E-03  -0.6293625431E-03   0.0000000000E+00   0.0000000000E+00   0.2057909645E+00
   0.2926270574E+00   0.1735866650E+00   0.8550917265E-04  -0.5306873992E-05   0.5985642086E-03  -0.3714811794E-04   0.2032264849E+00   0.5327780146E-02   0.0000000000E+00  -0.8962699551E-02   0.0000000000E+00   0.0000000000E+00   0.2016281509E-02  -0.5564016534E-03  -0.2330301883E-03  -0.6256627952E-03   0.0000000000E+00   0.0000000000E+00   0.2012173797E+00
   0.9451534668E-01   0.1608469153E+00   0.3121894712E-04  -0.2417196605E-04   0.2185326298E-03  -0.1692037623E-03   0.2581611886E+00  -0.1769428493E-01   0.0000000000E+00   0.2147358582E-01   0.0000000000E+00   0.0000000000E+00   0.2634694741E-02  -0.9514264151E-03   0.5583132313E-03  -0.7214007109E-03   0.0000000000E+00   0.0000000000E+00   0.2699316993E+00
   0.8739625756E-01   0.1752656326E+00   0.2708576978E-04  -0.2727567140E-04   0.1896003884E-03  -0.1909296998E-03   0.2531441844E+00  -0.9515380458E-02   0.0000000000E+00   0.2902195913E-01   0.0000000000E+00   0.0000000000E+00   0.2559987985E-02  -0.8545863577E-03   0.7545709374E-03  -0.7308864117E-03   0.0000000000E+00   0.0000000000E+00   0.2628815706E+00
   0.2747806346E+00   0.7396745947E-01   0.8746657741E-04  -0.7531043247E-06   0.6122660419E-03  -0.5271730273E-05   0.1372920861E+00   0.2162052132E-01   0.0000000000E+00  -0.1536087801E-01   0.0000000000E+00   0.0000000000E+00   0.1308059297E-02  -0.1956710451E-03  -0.3993828283E-03  -0.4767378222E-03   0.0000000000E+00   0.0000000000E+00   0.1305598910E+00
   0.2267502864E+00   0.1122755191E+00   0.7529955190E-04  -0.3178485994E-05   0.5270968633E-03  -0.2224940196E-04   0.1678761833E+00  -0.6905071541E-04   0.0000000000E+00  -0.2597389648E-01   0.0000000000E+00   0.0000000000E+00   0.1678968985E-02  -0.5043190570E-03  -0.6753213084E-03  -0.5034213977E-03   0.0000000000E+00   0.0000000000E+00   0.1737850470E+00
   0.2230585769E+00   0.9416677803E-01   0.7672361058E-04  -0.2224933280E-05   0.5370652740E-03  -0.1557453296E-04   0.1519401163E+00   0.2705721667E-02   0.0000000000E+00  -0.2912401730E-01   0.0000000000E+00   0.0000000000E+00   0.1511283998E-02  -0.4287631321E-03  -0.7572244498E-03  -0.4639375138E-03   0.0000000000E+00   0.0000000000E+00   0.1587719147E+00
   0.2730911511E+00   0.5525895308E-01   0.8816813139E-04  -0.3868401912E-06   0.6171769198E-03  -0.2707881338E-05   0.1263620763E+00   0.2533845861E-01   0.0000000000E+00  -0.1329706163E-01   0.0000000000E+00   0.0000000000E+00   0.1187605387E-02  -0.1257016427E-03  -0.3457236023E-03  -0.4551016046E-03   0.0000000000E+00   0.0000000000E+00   0.1180312978E+00
   0.1574500537E+00   0.5347739218E-01   0.7255420742E-04  -0.2111239807E-05   0.5078794519E-03  -0.1477867865E-04   0.9914021680E-01  -0.2187780572E-01   0.0000000000E+00  -0.4814201685E-01   0.0000000000E+00   0.0000000000E+00   0.1057035585E-02  -0.5161987076E-03  -0.1251692438E-02  -0.2317872332E-03   0.0000000000E+00   0.0000000000E+00   0.1395358048E+00
   0.1473107088E+00   0.6073141473E-01   0.6958897962E-04  -0.3182321472E-05   0.4871228573E-03  -0.2227625030E-04   0.1050451850E+00  -0.2904480498E-01   0.0000000000E+00  -0.5041639087E-01   0.0000000000E+00   0.0000000000E+00   0.1137586265E-02  -0.6055836047E-03  -0.1310826163E-02  -0.2280011401E-03   0.0000000000E+00   0.0000000000E+00   0.1509087856E+00
   0.1242069227E+00   0.1489702898E+00   0.4270859155E-04  -0.1679565105E-04   0.2989601409E-03  -0.1175695574E-03   0.2425336380E+00  -0.3168064414E-01   0.0000000000E+00   0.2033461269E-02   0.0000000000E+00   0.0000000000E+00   0.2520378313E-02  -0.1044407355E-02   0.5286999299E-04  -0.6325589817E-03   0.0000000000E+00   0.0000000000E+00   0.2597308578E+00
   0.1449946218E+00   0.1472534782E+00   0.4937935311E-04  -0.1319372648E-04   0.3456554718E-03  -0.9235608535E-04   0.2292242484E+00  -0.3070127748E-01   0.0000000000E+00  -0.8188742481E-02   0.0000000000E+00   0.0000000000E+00   0.2384346317E-02  -0.9946855201E-03  -0.2129073045E-03  -0.5955689129E-03   0.0000000000E+00   0.0000000000E+00   0.2464077612E+00
   0.1435325237E+00   0.1660073496E+00   0.4595446466E-04  -0.1571954883E-04   0.3216812526E-03  -0.1100368418E-03   0.2361877649E+00  -0.2446688298E-01   0.0000000000E+00   0.2734069120E-02   0.0000000000E+00   0.0000000000E+00   0.2435278298E-02  -0.9532321244E-03   0.7108579712E-04  -0.6351626458E-03   0.0000000000E+00   0.0000000000E+00   0.2492733656E+00
   0.1258084223E+00   0.1661635051E+00   0.4048703891E-04  -0.1869336493E-04   0.2834092724E-03  -0.1308535545E-03   0.2419359980E+00  -0.2518424618E-01   0.0000000000E+00   0.9348242665E-02   0.0000000000E+00   0.0000000000E+00   0.2494912719E-02  -0.9776504558E-03   0.2430543093E-03  -0.6502552555E-03   0.0000000000E+00   0.0000000000E+00   0.2559159544E+00
   0.6684622035E-01   0.1806311057E+00   0.2011454390E-04  -0.3183953944E-04   0.1408018073E-03  -0.2228767761E-03   0.2470723903E+00   0.2561540914E-02   0.0000000000E+00   0.2934019660E-01   0.0000000000E+00   0.0000000000E+00   0.2463039280E-02  -0.7156017617E-03   0.7628451115E-03  -0.7489017935E-03   0.0000000000E+00   0.0000000000E+00   0.2509350820E+00
   0.1098275567E+00   0.1659468454E+00   0.3547321319E-04  -0.2166019710E-04   0.2483124923E-03  -0.1516213797E-03   0.2502862016E+00  -0.2268758570E-01   0.0000000000E+00   0.1684785293E-01   0.0000000000E+00   0.0000000000E+00   0.2570924773E-02  -0.9777344618E-03   0.4380441762E-03  -0.6827958478E-03   0.0000000000E+00   0.0000000000E+00   0.2639838333E+00
   0.1056896230E+00   0.1804013240E+00   0.3226574442E-04  -0.2415312805E-04   0.2258602109E-03  -0.1690718963E-03   0.2463195533E+00  -0.1450991031E-01   0.0000000000E+00   0.2292514037E-01   0.0000000000E+00   0.0000000000E+00   0.2506725264E-02  -0.8840577631E-03   0.5960536497E-03  -0.6954289290E-03   0.0000000000E+00   0.0000000000E+00   0.2569002299E+00
   0.2152185509E+00   0.1816089983E+00   0.6454336076E-04  -0.9284216794E-05   0.4518035253E-03  -0.6498951756E-04   0.2197195661E+00  -0.5665357906E-02   0.0000000000E+00  -0.1027856162E-01   0.0000000000E+00   0.0000000000E+00   0.2214191735E-02  -0.7158122775E-03  -0.2672426021E-03  -0.6421626247E-03   0.0000000000E+00   0.0000000000E+00   0.2233181086E+00
   0.2344663039E+00   0.1797574621E+00   0.6997636434E-04  -0.7873235266E-05   0.4898345504E-03  -0.5511264686E-04   0.2147876012E+00  -0.2327682998E-02   0.0000000000E+00  -0.1164091019E-01   0.0000000000E+00   0.0000000000E+00   0.2154859061E-02  -0.6676396337E-03  -0.3026636649E-03  -0.6373797547E-03   0.0000000000E+00   0.0000000000E+00   0.2169052534E+00
   0.2758983164E+00   0.1304817157E+00   0.8409204709E-04  -0.2965918183E-05   0.5886443296E-03  -0.2076142728E-04   0.1751842115E+00   0.9446647797E-02   0.0000000000E+00  -0.1525470139E-01   0.0000000000E+00   0.0000000000E+00   0.1723502171E-02  -0.4310861564E-03  -0.3966222361E-03  -0.5538925778E-03   0.0000000000E+00   0.0000000000E+00   0.1726629306E+00
   0.2709724114E+00   0.1522514840E+00   0.8148455507E-04  -0.4352748803E-05   0.5703918855E-03  -0.3046924162E-04   0.1914871765E+00   0.5241870988E-02   0.0000000000E+00  -0.1386172756E-01   0.0000000000E+00   0.0000000000E+00   0.1899146153E-02  -0.5220428198E-03  -0.3604049165E-03  -0.5901871426E-03   0.0000000000E+00   0.0000000000E+00   0.1904407905E+00
   0.2538961582E+00   0.1774330087E+00   0.7533052124E-04  -0.6743409946E-05   0.5273136486E-03  -0.4720386962E-04   0.2096147567E+00   0.6915604023E-03   0.0000000000E+00  -0.1178512612E-01   0.0000000000E+00   0.0000000000E+00   0.2094072886E-02  -0.6219286660E-03  -0.3064132792E-03  -0.6309189513E-03   0.0000000000E+00   0.0000000000E+00   0.2102623560E+00
   0.1225959992E+00   0.5808451391E-01   0.6696815045E-04  -0.5385848395E-05   0.4687770531E-03  -0.3770093876E-04   0.8887264353E-01  -0.5284925046E-01   0.0000000000E+00  -0.5401072582E-01   0.0000000000E+00   0.0000000000E+00   0.1047274187E-02  -0.7951104352E-03  -0.1404278871E-02  -0.1080701792E-03   0.0000000000E+00   0.0000000000E+00   0.1572298535E+00
   0.1105195917E+00   0.7303114302E-01   0.5979421043E-04  -0.9052372307E-05   0.4185594730E-03  -0.6336660615E-04   0.1383976888E+00  -0.5149703425E-01   0.0000000000E+00  -0.5653670032E-01   0.0000000000E+00   0.0000000000E+00   0.1538467991E-02  -0.9301634088E-03  -0.1469954208E-02  -0.2607019636E-03   0.0000000000E+00   0.0000000000E+00   0.1956574096E+00
   0.1479783782E+00   0.8119559151E-01   0.6462602476E-04  -0.4952948205E-05   0.4523821733E-03  -0.3467063744E-04   0.1496671205E+00  -0.3601145396E-01   0.0000000000E+00  -0.5024312229E-01   0.0000000000E+00   0.0000000000E+00   0.1604705567E-02  -0.8091159012E-03  -0.1306321179E-02  -0.3409669997E-03   0.0000000000E+00   0.0000000000E+00   0.1916155571E+00
   0.1357547852E+00   0.7046762305E-01   0.6521940604E-04  -0.5040068168E-05   0.4565358423E-03  -0.3528047717E-04   0.1269569120E+00  -0.4139457320E-01   0.0000000000E+00  -0.5613637431E-01   0.0000000000E+00   0.0000000000E+00   0.1393752839E-02  -0.7948164678E-03  -0.1459545732E-02  -0.2566870163E-03   0.0000000000E+00   0.0000000000E+00   0.1796331757E+00
   0.1012137650E+00   0.1967526834E+00   0.2898800097E-04  -0.2674931905E-04   0.2029160068E-03  -0.1872452333E-03   0.2403512697E+00  -0.9106691575E-02   0.0000000000E+00   0.2512299384E-01   0.0000000000E+00   0.0000000000E+00   0.2430832771E-02  -0.8121207248E-03   0.6531978399E-03  -0.6937337343E-03   0.0000000000E+00   0.0000000000E+00   0.2488562647E+00
   0.1238324340E+00   0.1821992882E+00   0.3768124749E-04  -0.2092260133E-04   0.2637687324E-03  -0.1464582093E-03   0.2423916832E+00  -0.1740379609E-01   0.0000000000E+00   0.1608655639E-01   0.0000000000E+00   0.0000000000E+00   0.2476128221E-02  -0.9012130106E-03   0.4182504662E-03  -0.6749636614E-03   0.0000000000E+00   0.0000000000E+00   0.2530208745E+00
   0.1615196390E+00   0.1678470179E+00   0.5106712370E-04  -0.1334639187E-04   0.3574698659E-03  -0.9342474306E-04   0.2292586532E+00  -0.2019661943E-01   0.0000000000E+00  -0.3348390711E-02   0.0000000000E+00   0.0000000000E+00   0.2353176390E-02  -0.8897421538E-03  -0.8705815848E-04  -0.6271861013E-03   0.0000000000E+00   0.0000000000E+00   0.2400398277E+00
   0.1785916783E+00   0.1697571158E+00   0.5573716759E-04  -0.1149777937E-04   0.3901601731E-03  -0.8048445560E-04   0.2237635463E+00  -0.1550052976E-01   0.0000000000E+00  -0.7180266943E-02   0.0000000000E+00   0.0000000000E+00   0.2284137052E-02  -0.8262959364E-03  -0.1866869405E-03  -0.6247890495E-03   0.0000000000E+00   0.0000000000E+00   0.2322201460E+00
   0.8831923156E-01   0.1396481796E+00   0.3261826940E-04  -0.2290367640E-04   0.2283278858E-03  -0.1603257348E-03   0.2692685484E+00  -0.2180579714E-01   0.0000000000E+00   0.1032872977E-01   0.0000000000E+00   0.0000000000E+00   0.2758102875E-02  -0.1025863617E-02   0.2685469740E-03  -0.7423882537E-03   0.0000000000E+00   0.0000000000E+00   0.2813415322E+00
   0.9979856722E-01   0.8885913338E-01   0.5117240260E-04  -0.1332163962E-04   0.3582068182E-03  -0.9325147736E-04   0.1967402959E+00  -0.4625300380E-01   0.0000000000E+00  -0.4633409910E-01   0.0000000000E+00   0.0000000000E+00   0.2106161970E-02  -0.1052750926E-02  -0.1204686577E-02  -0.4514618762E-03   0.0000000000E+00   0.0000000000E+00   0.2350797743E+00
   0.9668106524E-01   0.1274976622E+00   0.3808635514E-04  -0.1938222648E-04   0.2666044860E-03  -0.1356755853E-03   0.2594193104E+00  -0.3346083052E-01   0.0000000000E+00  -0.2411224374E-02   0.0000000000E+00   0.0000000000E+00   0.2694575595E-02  -0.1112866236E-02  -0.6269183372E-04  -0.6778754395E-03   0.0000000000E+00   0.0000000000E+00   0.2771474926E+00
   0.2511441340E+00   0.1600517149E+00   0.7606587216E-04  -0.5538131684E-05   0.5324611051E-03  -0.3876692179E-04   0.1986829741E+00   0.4763102851E-03   0.0000000000E+00  -0.1461486180E-01   0.0000000000E+00   0.0000000000E+00   0.1985400811E-02  -0.5912858196E-03  -0.3799864069E-03  -0.5974778533E-03   0.0000000000E+00   0.0000000000E+00   0.2000486491E+00
   0.2600002012E+00   0.1275100612E+00   0.8086514634E-04  -0.3137843849E-05   0.5660560244E-03  -0.2196490694E-04   0.1763282315E+00   0.7062562661E-02   0.0000000000E+00  -0.1795509267E-01   0.0000000000E+00   0.0000000000E+00   0.1742094627E-02  -0.4583590678E-03  -0.4668324095E-03  -0.5501723824E-03   0.0000000000E+00   0.0000000000E+00   0.1756706404E+00
   0.1966498280E+00   0.1839558552E+00   0.5908974905E-04  -0.1104835360E-04   0.4136282433E-03  -0.7733847520E-04   0.2245757152E+00  -0.8957638073E-02   0.0000000000E+00  -0.7283937828E-02   0.0000000000E+00   0.0000000000E+00   0.2272630066E-02  -0.7633035264E-03  -0.1893823835E-03  -0.6468542314E-03   0.0000000000E+00   0.0000000000E+00   0.2295265548E+00
   0.2589203303E+00   0.1414725238E+00   0.7947391394E-04  -0.4022652311E-05   0.5563173976E-03  -0.2815856618E-04   0.1884637074E+00   0.6194946296E-02   0.0000000000E+00  -0.1597099495E-01   0.0000000000E+00   0.0000000000E+00   0.1866052235E-02  -0.5034416591E-03  -0.4152458688E-03  -0.5839759610E-03   0.0000000000E+00   0.0000000000E+00   0.1874737355E+00
   0.2465582565E+00   0.1446056420E+00   0.7631718782E-04  -0.4618627031E-05   0.5342203147E-03  -0.3233038922E-04   0.1893088826E+00   0.1880985780E-02   0.0000000000E+00  -0.1734741325E-01   0.0000000000E+00   0.0000000000E+00   0.1887445868E-02  -0.5491167899E-03  -0.4510327444E-03  -0.5735696051E-03   0.0000000000E+00   0.0000000000E+00   0.1907421531E+00
   0.1921633028E+00   0.1589169513E+00   0.6095122556E-04  -0.9076585807E-05   0.4266585790E-03  -0.6353610065E-04   0.2125408817E+00  -0.1234694048E-01   0.0000000000E+00  -0.1354213339E-01   0.0000000000E+00   0.0000000000E+00   0.2162449639E-02  -0.7610920500E-03  -0.3520954681E-03  -0.6005818237E-03   0.0000000000E+00   0.0000000000E+00   0.2202256580E+00
   0.1949885009E+00   0.1697113812E+00   0.6035111570E-04  -0.9840353973E-05   0.4224578099E-03  -0.6888247781E-04   0.2175173988E+00  -0.1168639830E-01   0.0000000000E+00  -0.1066562342E-01   0.0000000000E+00   0.0000000000E+00   0.2210233183E-02  -0.7694161793E-03  -0.2773062089E-03  -0.6174930014E-03   0.0000000000E+00   0.0000000000E+00   0.2243505562E+00
   0.1802375824E+00   0.1552174380E+00   0.5820280580E-04  -0.9829255749E-05   0.4074196406E-03  -0.6880479024E-04   0.2164641942E+00  -0.1727715451E-01   0.0000000000E+00  -0.1238443022E-01   0.0000000000E+00   0.0000000000E+00   0.2216473406E-02  -0.8221641277E-03  -0.3219951858E-03  -0.5975611191E-03   0.0000000000E+00   0.0000000000E+00   0.2265410883E+00
   0.1012630769E+00   0.1483979200E+00   0.3539036379E-04  -0.2119724464E-04   0.2477325465E-03  -0.1483807125E-03   0.2561556290E+00  -0.2706671641E-01   0.0000000000E+00   0.1155355323E-01   0.0000000000E+00   0.0000000000E+00   0.2642756440E-02  -0.1039134051E-02   0.3003923839E-03  -0.6872667379E-03   0.0000000000E+00   0.0000000000E+00   0.2713886449E+00
   0.2009833280E+00   0.7796501804E-01   0.7489662991E-04  -0.1935669970E-05   0.5242764093E-03  -0.1354968979E-04   0.1357351296E+00  -0.1961049541E-02   0.0000000000E+00  -0.3633917582E-01   0.0000000000E+00   0.0000000000E+00   0.1363234445E-02  -0.4268158843E-03  -0.9448185712E-03  -0.4013222403E-03   0.0000000000E+00   0.0000000000E+00   0.1504407389E+00
   0.2119239303E+00   0.1146394816E+00   0.7183140705E-04  -0.3910799307E-05   0.5028198494E-03  -0.2737559515E-04   0.1730065151E+00  -0.6083464813E-02   0.0000000000E+00  -0.2779982150E-01   0.0000000000E+00   0.0000000000E+00   0.1748315545E-02  -0.5798541933E-03  -0.7227953589E-03  -0.5007691508E-03   0.0000000000E+00   0.0000000000E+00   0.1825334300E+00
   0.2071640255E+00   0.9687240488E-01   0.7329955840E-04  -0.2873977121E-05   0.5130969088E-03  -0.2011783985E-04   0.1566852928E+00  -0.5187230983E-02   0.0000000000E+00  -0.3279390962E-01   0.0000000000E+00   0.0000000000E+00   0.1582414621E-02  -0.5219281882E-03  -0.8526416500E-03  -0.4544941854E-03   0.0000000000E+00   0.0000000000E+00   0.1690725207E+00
   0.9026462550E-01   0.1038574837E+00   0.4279981241E-04  -0.1763415735E-04   0.2995986869E-03  -0.1234391015E-03   0.2498344005E+00  -0.3186337164E-01   0.0000000000E+00  -0.2879973901E-01   0.0000000000E+00   0.0000000000E+00   0.2593934120E-02  -0.1068136918E-02  -0.7487932143E-03  -0.6539130867E-03   0.0000000000E+00   0.0000000000E+00   0.2698683444E+00
   0.1249493271E+00   0.8332456382E-01   0.5919088245E-04  -0.7828097979E-05   0.4143361772E-03  -0.5479668585E-04   0.1613678109E+00  -0.4933183730E-01   0.0000000000E+00  -0.5207477499E-01   0.0000000000E+00   0.0000000000E+00   0.1761673621E-02  -0.9774218057E-03  -0.1353944150E-02  -0.3361079209E-03   0.0000000000E+00   0.0000000000E+00   0.2107742385E+00
   0.1091162652E+00   0.1150723480E+00   0.4524565173E-04  -0.1491224784E-04   0.3167195621E-03  -0.1043857349E-03   0.2349316189E+00  -0.4303703189E-01   0.0000000000E+00  -0.2205434115E-01   0.0000000000E+00   0.0000000000E+00   0.2478427284E-02  -0.1135165176E-02  -0.5734128699E-03  -0.5756837609E-03   0.0000000000E+00   0.0000000000E+00   0.2621832447E+00
   0.2444358176E+00   0.1279609467E+00   0.7742095390E-04  -0.3593412316E-05   0.5419466773E-03  -0.2515388621E-04   0.1773615423E+00   0.2932666438E-02   0.0000000000E+00  -0.2064747085E-01   0.0000000000E+00   0.0000000000E+00   0.1764817423E-02  -0.5027579624E-03  -0.5368342422E-03  -0.5408826261E-03   0.0000000000E+00   0.0000000000E+00   0.1794767758E+00
   0.1993956082E+00   0.1516792101E+00   0.6381939550E-04  -0.7797992278E-05   0.4467357685E-03  -0.5458594595E-04   0.2060075486E+00  -0.1271468532E-01   0.0000000000E+00  -0.1658324191E-01   0.0000000000E+00   0.0000000000E+00   0.2098219542E-02  -0.7451694992E-03  -0.4311642898E-03  -0.5798785900E-03   0.0000000000E+00   0.0000000000E+00   0.2145580340E+00
   0.2059015426E+00   0.1443824721E+00   0.6645845401E-04  -0.6663239211E-05   0.4652091781E-03  -0.4664267447E-04   0.1993379091E+00  -0.1155455341E-01   0.0000000000E+00  -0.1957364652E-01   0.0000000000E+00   0.0000000000E+00   0.2028042751E-02  -0.7135592614E-03  -0.5089148094E-03  -0.5633500670E-03   0.0000000000E+00   0.0000000000E+00   0.2081417952E+00
   0.1929511219E+00   0.1007905106E+00   0.6981123402E-04  -0.3763169639E-05   0.4886786381E-03  -0.2634218748E-04   0.1638623175E+00  -0.1275583005E-01   0.0000000000E+00  -0.3442218113E-01   0.0000000000E+00   0.0000000000E+00   0.1676890665E-02  -0.6191452531E-03  -0.8949767095E-03  -0.4533194624E-03   0.0000000000E+00   0.0000000000E+00   0.1805827980E+00
   0.1421157881E+00   0.1241280408E+00   0.5294025939E-04  -0.1069839679E-04   0.3705818157E-03  -0.7488877754E-04   0.2152100673E+00  -0.3807072347E-01   0.0000000000E+00  -0.2275218833E-01   0.0000000000E+00   0.0000000000E+00   0.2266312843E-02  -0.1026337437E-02  -0.5915568966E-03  -0.5314180314E-03   0.0000000000E+00   0.0000000000E+00   0.2397466599E+00
   0.1463209866E+00   0.1118203462E+00   0.5678682019E-04  -0.8610229288E-05   0.3975077414E-03  -0.6027160501E-04   0.1995398915E+00  -0.3857692372E-01   0.0000000000E+00  -0.3278543054E-01   0.0000000000E+00   0.0000000000E+00   0.2111129686E-02  -0.9843889118E-03  -0.8524211940E-03  -0.4828889035E-03   0.0000000000E+00   0.0000000000E+00   0.2284254685E+00
   0.1590719125E+00   0.1176057685E+00   0.5888443231E-04  -0.7893810055E-05   0.4121910262E-03  -0.5525667039E-04   0.1976443626E+00  -0.3213522496E-01   0.0000000000E+00  -0.3005783980E-01   0.0000000000E+00   0.0000000000E+00   0.2072849301E-02  -0.9142853375E-03  -0.7815038349E-03  -0.4965274130E-03   0.0000000000E+00   0.0000000000E+00   0.2217595405E+00
   0.1545345330E+00   0.1312974027E+00   0.5500750060E-04  -0.1000329274E-04   0.3850525042E-03  -0.7002304918E-04   0.2114270476E+00  -0.3341587460E-01   0.0000000000E+00  -0.2169455884E-01   0.0000000000E+00   0.0000000000E+00   0.2214518100E-02  -0.9684398890E-03  -0.5640585297E-03  -0.5340335191E-03   0.0000000000E+00   0.0000000000E+00   0.2326997283E+00
   0.1641989083E+00   0.1518898125E+00   0.5421078151E-04  -0.1122844072E-04   0.3794754706E-03  -0.7859908507E-04   0.2209470417E+00  -0.2263502538E-01   0.0000000000E+00  -0.1089670100E-01   0.0000000000E+00   0.0000000000E+00   0.2277375493E-02  -0.8891913789E-03  -0.2833142260E-03  -0.5949360490E-03   0.0000000000E+00   0.0000000000E+00   0.2337415152E+00
   0.1116948389E+00   0.1547889291E+00   0.3776936647E-04  -0.1991498946E-04   0.2643855653E-03  -0.1394049262E-03   0.2525988084E+00  -0.2471662962E-01   0.0000000000E+00   0.1214098434E-01   0.0000000000E+00   0.0000000000E+00   0.2600137973E-02  -0.1004962721E-02   0.3156655928E-03  -0.6836465363E-03   0.0000000000E+00   0.0000000000E+00   0.2664886441E+00
   0.1376550217E+00   0.1346420537E+00   0.4950559298E-04  -0.1272879222E-04   0.3465391509E-03  -0.8910154557E-04   0.2341623642E+00  -0.3437862122E-01   0.0000000000E+00  -0.1241939920E-01   0.0000000000E+00   0.0000000000E+00   0.2444759505E-02  -0.1046273305E-02  -0.3229043792E-03  -0.5993512288E-03   0.0000000000E+00   0.0000000000E+00   0.2538116003E+00
   0.1810231938E+00   0.1056157014E+00   0.6640497960E-04  -0.4852702834E-05   0.4648348572E-03  -0.3396891984E-04   0.1716434397E+00  -0.2130678441E-01   0.0000000000E+00  -0.3590606211E-01   0.0000000000E+00   0.0000000000E+00   0.1780354750E-02  -0.7279981633E-03  -0.9335576149E-03  -0.4510099660E-03   0.0000000000E+00   0.0000000000E+00   0.1934372818E+00
   0.1514568165E+00   0.9998339009E-01   0.6078356384E-04  -0.6651988134E-05   0.4254849469E-03  -0.4656391693E-04   0.1776644390E+00  -0.3569792334E-01   0.0000000000E+00  -0.4054573947E-01   0.0000000000E+00   0.0000000000E+00   0.1883738160E-02  -0.8899725504E-03  -0.1054189226E-02  -0.4258995470E-03   0.0000000000E+00   0.0000000000E+00   0.2098897123E+00
   0.1385784000E+00   0.9234021047E-01   0.5966424814E-04  -0.7155116440E-05   0.4176497370E-03  -0.5008581508E-04   0.1745150162E+00  -0.4313290216E-01   0.0000000000E+00  -0.4653391874E-01   0.0000000000E+00   0.0000000000E+00   0.1874548868E-02  -0.9548740701E-03  -0.1209881887E-02  -0.3941463420E-03   0.0000000000E+00   0.0000000000E+00   0.2150181158E+00
   0.1562732587E+00   0.9050410637E-01   0.6406733224E-04  -0.5232603893E-05   0.4484713257E-03  -0.3662822725E-04   0.1590854163E+00  -0.3579007499E-01   0.0000000000E+00  -0.4841838935E-01   0.0000000000E+00   0.0000000000E+00   0.1698224388E-02  -0.8351569988E-03  -0.1258878123E-02  -0.3698860239E-03   0.0000000000E+00   0.0000000000E+00   0.1979678560E+00
   0.1276566869E+00   0.1184735765E+00   0.5003848720E-04  -0.1209293461E-04   0.3502694104E-03  -0.8465054226E-04   0.2253381720E+00  -0.4305508041E-01   0.0000000000E+00  -0.2370595852E-01   0.0000000000E+00   0.0000000000E+00   0.2382546961E-02  -0.1106565320E-02  -0.6163549216E-03  -0.5468492746E-03   0.0000000000E+00   0.0000000000E+00   0.2528165504E+00
   0.1263102047E+00   0.1330224812E+00   0.4634883648E-04  -0.1433385244E-04   0.3244418554E-03  -0.1003369671E-03   0.2337204563E+00  -0.3819741874E-01   0.0000000000E+00  -0.1151472256E-01   0.0000000000E+00   0.0000000000E+00   0.2451796819E-02  -0.1083135556E-02  -0.2993827867E-03  -0.5865691127E-03   0.0000000000E+00   0.0000000000E+00   0.2557742794E+00
   0.1147862729E+00   0.1295901868E+00   0.4351673439E-04  -0.1593264869E-04   0.3046171407E-03  -0.1115285408E-03   0.2389336510E+00  -0.4281810059E-01   0.0000000000E+00  -0.1045191098E-01   0.0000000000E+00   0.0000000000E+00   0.2517790811E-02  -0.1144981959E-02  -0.2717496855E-03  -0.5883466511E-03   0.0000000000E+00   0.0000000000E+00   0.2632490890E+00
   0.2295674101E+00   0.1294569182E+00   0.7393788436E-04  -0.4221227291E-05   0.5175651905E-03  -0.2954859104E-04   0.1813944877E+00  -0.1536963799E-02   0.0000000000E+00  -0.2212140979E-01   0.0000000000E+00   0.0000000000E+00   0.1818555768E-02  -0.5595531010E-03  -0.5751566547E-03  -0.5395725716E-03   0.0000000000E+00   0.0000000000E+00   0.1861221682E+00
   0.2016658791E+00   0.1331897950E+00   0.6692488986E-04  -0.5943996719E-05   0.4684742290E-03  -0.4160797704E-04   0.1926409302E+00  -0.1138575718E-01   0.0000000000E+00  -0.2288599487E-01   0.0000000000E+00   0.0000000000E+00   0.1960566574E-02  -0.6917803624E-03  -0.5950358667E-03  -0.5437655191E-03   0.0000000000E+00   0.0000000000E+00   0.2024643014E+00
   0.1980631321E+00   0.1180704240E+00   0.6824325849E-04  -0.4880998103E-05   0.4777028094E-03  -0.3416698672E-04   0.1806120963E+00  -0.1261554475E-01   0.0000000000E+00  -0.2837215256E-01   0.0000000000E+00   0.0000000000E+00   0.1843967597E-02  -0.6679917365E-03  -0.7376759666E-03  -0.5039896546E-03   0.0000000000E+00   0.0000000000E+00   0.1935417168E+00
   0.2154701614E+00   0.1311186448E+00   0.7048954508E-04  -0.4989522399E-05   0.4934268156E-03  -0.3492665679E-04   0.1854757333E+00  -0.6766658204E-02   0.0000000000E+00  -0.2317907358E-01   0.0000000000E+00   0.0000000000E+00   0.1875057307E-02  -0.6240937818E-03  -0.6026559131E-03  -0.5361272252E-03   0.0000000000E+00   0.0000000000E+00   0.1931455579E+00
   0.1089083080E+00   0.1383683266E+00   0.3977187697E-04  -0.1828517711E-04   0.2784031388E-03  -0.1279962397E-03   0.2516413154E+00  -0.3490187683E-01   0.0000000000E+00  -0.6037021020E-04   0.0000000000E+00   0.0000000000E+00   0.2621118785E-02  -0.1103942714E-02  -0.1569625465E-05  -0.6502183157E-03   0.0000000000E+00   0.0000000000E+00   0.2706468465E+00
   0.1692058399E+00   0.1364223194E+00   0.5810460941E-04  -0.8946446447E-05   0.4067322659E-03  -0.6262512513E-04   0.2085256551E+00  -0.2650447976E-01   0.0000000000E+00  -0.2019595660E-01   0.0000000000E+00   0.0000000000E+00   0.2164769990E-02  -0.8906217629E-03  -0.5250948715E-03  -0.5460635260E-03   0.0000000000E+00   0.0000000000E+00   0.2256169296E+00
   0.1867941041E+00   0.1395648482E+00   0.6225350949E-04  -0.7626728085E-05   0.4357745664E-03  -0.5338709659E-04   0.2022619185E+00  -0.1827142136E-01   0.0000000000E+00  -0.2047803903E-01   0.0000000000E+00   0.0000000000E+00   0.2077433449E-02  -0.7894999691E-03  -0.5324290148E-03  -0.5519714915E-03   0.0000000000E+00   0.0000000000E+00   0.2148847770E+00
   0.1631422048E+00   0.1046564776E+00   0.6254585496E-04  -0.6089298274E-05   0.4378209847E-03  -0.4262508792E-04   0.1830981731E+00  -0.2839516053E-01   0.0000000000E+00  -0.3580432090E-01   0.0000000000E+00   0.0000000000E+00   0.1916167213E-02  -0.8332461246E-03  -0.9309123433E-03  -0.4641090377E-03   0.0000000000E+00   0.0000000000E+00   0.2079822908E+00
   0.1848976978E+00   0.1214174799E+00   0.6461223077E-04  -0.6043136972E-05   0.4522856154E-03  -0.4230195880E-04   0.1880598381E+00  -0.1868134397E-01   0.0000000000E+00  -0.2768910896E-01   0.0000000000E+00   0.0000000000E+00   0.1936642413E-02  -0.7509929539E-03  -0.7199168329E-03  -0.5081354823E-03   0.0000000000E+00   0.0000000000E+00   0.2036591421E+00
   0.1720352045E+00   0.1217565077E+00   0.6140044005E-04  -0.7100531978E-05   0.4298030803E-03  -0.4970372385E-04   0.1934160712E+00  -0.2584766476E-01   0.0000000000E+00  -0.2807816449E-01   0.0000000000E+00   0.0000000000E+00   0.2011703706E-02  -0.8387248612E-03  -0.7300322769E-03  -0.5027052194E-03   0.0000000000E+00   0.0000000000E+00   0.2130821154E+00
   0.1160277089E+00   0.9805485783E-01   0.5230348274E-04  -0.1122687084E-04   0.3661243792E-03  -0.7858809588E-04   0.2004289541E+00  -0.4964000413E-01   0.0000000000E+00  -0.4104431215E-01   0.0000000000E+00   0.0000000000E+00   0.2153209553E-02  -0.1097686904E-02  -0.1067152116E-02  -0.4523668499E-03   0.0000000000E+00   0.0000000000E+00   0.2399080635E+00
   0.1318557998E+00   0.1052377178E+00   0.5453072436E-04  -0.9651905363E-05   0.3817150705E-03  -0.6756333754E-04   0.2025240678E+00  -0.4506073813E-01   0.0000000000E+00  -0.3602928195E-01   0.0000000000E+00   0.0000000000E+00   0.2160422893E-02  -0.1058179585E-02  -0.9367613307E-03  -0.4723899891E-03   0.0000000000E+00   0.0000000000E+00   0.2364030733E+00
   0.1723545882E+00   0.1102948496E+00   0.6358627006E-04  -0.5918427881E-05   0.4451038904E-03  -0.4142899517E-04   0.1770723649E+00  -0.2611908616E-01   0.0000000000E+00  -0.3450274802E-01   0.0000000000E+00   0.0000000000E+00   0.1849080908E-02  -0.7924079563E-03  -0.8970714486E-03  -0.4528598363E-03   0.0000000000E+00   0.0000000000E+00   0.2005453232E+00
           1           2           3           4
           5           6           7           8
           9          10          11          12
          13          14          15          16
          17          18          19          20
          21          22          23          24
          25          26          27          28
          29          30          31          32
          33          34           4           3
           2           1          35          36
          37          38          39          40
          41          42          36          35
          43          41          44          45
          46           9          47          48
          41          35          39          44
          49          50          51          52
          52          51          53          54
          55          56          57          58
          56          59          60          57
          61          62          63          64
          65          66          67          68
          69          70          71          72
          73          74          25          28
          27          75          76          28
          77          78          24          23
          79          80          81          82
          83          84          85          86
          87          88          89          90
          90          89          62          91
          61          92          91          62
          92          61          59          93
          56          94          93          59
          95          55          54          53
          46          96          10           9
          97          98          99         100
          12         101          98          97
          97         100         102          47
         103         104          31          30
         105         103          30         106
          73         107         108         109
         110         111         112         113
          32          31         114         115
         116         117         118         119
         120         121         122         123
         121          83          86         122
          80         124         125          81
         126         127         128         129
         130         101          12          11
         131          43         101         130
          34         129         132           4
          42          41          43         131
          35           1          40          39
         101          43          45          98
         133         134         109         108
         135         136          13          16
         137         138          65          68
          94          56          55          95
          58         137          54          55
          49          52          68          67
         139         140         141         142
         140         139          82          81
          88          87         142         141
         143         144         145         146
         147          26          25         148
         149         150         128         151
           5           8         152         102
         132         129         128         150
         153         100          99         154
          48          47         102         152
          59          61          64          60
         106         155         113         118
          62          89         156          63
          88         157         156          89
         123         116         119         120
          66          65         134         133
         144         143          84          83
           9          12          97          47
         104         158         114          31
         159         160         127         126
         119         112         161         120
         117         105         106         118
         162         163         164         165
          83         121         166         144
         167         168         141         140
         167         143         146         168
           6         114         158           7
          38          37         169         170
          40         132         150          37
         160         159          20          19
          78         171         172          24
          18          17          21          24
         173         174          78          77
         132          40           1           4
          28          76         107          73
         175         176         177         178
         176         179          57          60
         137          68          52          54
          60          64         177         176
         163         162         155          29
          75          27         174         173
         180         174          27          26
          64          63         181         177
          98          45         182          99
         183         182          45          44
          38         183          44          39
          58          57         179         184
         185         181          63         156
         134         186         187         109
         188          74         187         189
         138         186         134          65
          88         141         168         157
         166         121         120         161
         190         191         166         161
         155         106          30          29
         192         193         194         195
         118         113         112         119
         125          84         143         167
         124          85          84         125
           6         196         115         114
         196           6           5         153
         197          32         115         198
         111         190         161         112
         199         148         188         135
         170         169         200         201
         202         164         163         197
         203         204         146         145
         205         206         201         200
         187          74          73         109
         176         175         207         179
         208         209          16          15
         210         186         138         184
         184         138         137          58
         179         207         210         184
         211         212         172         171
          78         174         180         171
         125         167         140          81
          37         150         149         169
         213         214         215         216
         217         182         183         201
         170         201         183          38
         218         219         206         205
         111         220         221         190
         157         168         146         204
         177         181         222         178
         222         181         185         223
         186         210         189         187
         224         191         190         221
         100         153           5         102
         185         156         157         204
         113         155         162         110
          26         147         193         180
          29          32         197         163
         225         226          19          18
         144         166         191         145
         212         192         227         228
         198         115         196         229
         206         154         217         201
         153         154         229         196
         172         225          18          24
         148          25          74         188
          14          13         175         178
         207         175          13         136
         189         136         135         188
         230         202         197         198
         210         207         136         189
         165         164         231         232
         169         149         233         200
         234         160          19         226
         217         154          99         182
         203         145         191         224
         151         235         233         149
         236         223         203         224
         185         204         203         223
         178         222         237          14
         110         162         165         238
         239         223         236         240
         238         220         111         110
         219         230         198         229
         241         242         232         243
         242          69         220         238
          72          71         240         236
         244         205         200         233
         215         231         164         202
         211         171         180         193
         228         225         172         212
         194         193         147         245
         245         147         148         199
         135          16         209         199
         209         208         246         247
         127         160         234         248
         193         192         212         211
         226         225         228         249
         151         128         127         248
         248         250         235         151
          72         221         220          69
          14         237         251          15
          70          69         252         253
         206         219         229         154
         238         165         232         242
          72         236         224         221
         216         215         202         230
         245         247         254         194
         255         256         257         258
         230         219         218         216
         214         259         231         215
         216         218         260         213
         261         255         258         214
         239         237         222         223
         194         254         262         195
         263         264         227         265
         250         266         267         268
         199         209         247         245
         240          71         269         251
         270         271         246         272
         260         244         273         213
         237         239         240         251
         218         205         244         260
          70         272         269          71
         232         231         259         243
         274         275         243         259
         257         256         263         276
         277         275         274         278
         234         226         249         279
         271         277         262         254
         271         254         247         246
         246         208         269         272
         244         233         235         273
         251         269         208          15
         275         270         253         252
         234         279         250         248
         279         249         264         280
         259         214         258         274
         262         281         276         195
         195         276         263         265
         257         276         281         278
         278         274         258         257
         266         280         256         255
         261         214         213         267
         267         266         255         261
         266         250         279         280
         228         227         264         249
         256         280         264         263
         265         227         192         195
         281         262         277         278
         235         250         268         273
         273         268         267         213
         277         271         270         275
         253         270         272          70
         252          69         242         241
         243         275         252         241
 VARIABLES = X,Y,DU1,DU2,U1,U2,S11,S22,S33,S12,S13,S23,E11,E22,E12,E33,E13,E23,SMISES
 ZONE, T="0.9000D+01" F=FEPOINT, I=  281 J=  250
   0.1781958001E-01   0.1339113227E+00   0.7173700808E-05  -0.3627480944E-04   0.5738960646E-04  -0.2901984756E-03   0.3868301750E+00   0.7282501201E-01   0.0000000000E+00   0.5773073389E-02   0.0000000000E+00   0.0000000000E+00   0.3649826714E-02  -0.4322404049E-03   0.1500999081E-03  -0.1378965561E-02   0.0000000000E+00   0.0000000000E+00   0.3542495709E+00
   0.0000000000E+00   0.1329992210E+00   0.0000000000E+00  -0.3712433844E-04   0.0000000000E+00  -0.2969947076E-03   0.3902792397E+00   0.7766433226E-01   0.0000000000E+00   0.1094169537E-01   0.0000000000E+00   0.0000000000E+00   0.3669799400E-02  -0.3941943966E-03   0.2844840796E-03  -0.1403830716E-02   0.0000000000E+00   0.0000000000E+00   0.3578286448E+00
   0.0000000000E+00   0.1163428784E+00   0.0000000000E+00  -0.3597650796E-04   0.0000000000E+00  -0.2878120637E-03   0.4964120479E+00   0.4080815533E-01   0.0000000000E+00   0.9418525402E-02   0.0000000000E+00   0.0000000000E+00   0.4841696013E-02  -0.1081154590E-02   0.2448816605E-03  -0.1611660610E-02   0.0000000000E+00   0.0000000000E+00   0.4772206609E+00
   0.1924420055E-01   0.1159766586E+00   0.1000706109E-04  -0.3494770620E-04   0.8005648871E-04  -0.2795816496E-03   0.4549049995E+00   0.4027326201E-01   0.0000000000E+00  -0.4052292623E-01   0.0000000000E+00   0.0000000000E+00   0.4428230209E-02  -0.9619823785E-03  -0.1053596082E-02  -0.1485534785E-02   0.0000000000E+00   0.0000000000E+00   0.4443274928E+00
   0.7816814378E-01   0.2315689437E+00   0.1851606492E-04  -0.3416214462E-04   0.1481285194E-03  -0.2732971570E-03   0.2380503145E+00  -0.7578488703E-04   0.0000000000E+00   0.1639616386E-01   0.0000000000E+00   0.0000000000E+00   0.2380730500E-02  -0.7149087924E-03   0.4263002603E-03  -0.7139235889E-03   0.0000000000E+00   0.0000000000E+00   0.2398892039E+00
   0.9799290274E-01   0.2317797642E+00   0.2387809382E-04  -0.3061086520E-04   0.1910247505E-03  -0.2448869216E-03   0.2517583899E+00  -0.1248334188E-02   0.0000000000E+00   0.1493699860E-01   0.0000000000E+00   0.0000000000E+00   0.2521328902E-02  -0.7677585116E-03   0.3883619636E-03  -0.7515301672E-03   0.0000000000E+00   0.0000000000E+00   0.2537942176E+00
   0.9741067490E-01   0.2497100788E+00   0.2093899991E-04  -0.3221346831E-04   0.1675119993E-03  -0.2577077465E-03   0.2457940206E+00  -0.8923559397E-03   0.0000000000E+00   0.5269614032E-02   0.0000000000E+00   0.0000000000E+00   0.2460617274E-02  -0.7463056212E-03   0.1370099648E-03  -0.7347049940E-03   0.0000000000E+00   0.0000000000E+00   0.2461931908E+00
   0.7792059765E-01   0.2496796512E+00   0.1586856091E-04  -0.3559431363E-04   0.1269484873E-03  -0.2847545090E-03   0.2226740106E+00  -0.1383252207E-02   0.0000000000E+00   0.5831085609E-02   0.0000000000E+00   0.0000000000E+00   0.2230889863E-02  -0.6818545539E-03   0.1516082258E-03  -0.6638722752E-03   0.0000000000E+00   0.0000000000E+00   0.2233520838E+00
   0.1913593952E-01   0.2329474988E+00   0.4194324500E-05  -0.4170336085E-04   0.3355459600E-04  -0.3336268868E-03   0.2012177377E+00   0.4806338824E-02   0.0000000000E+00   0.4591524566E-02   0.0000000000E+00   0.0000000000E+00   0.1997758360E-02  -0.5555898248E-03   0.1193796387E-03  -0.6180722295E-03   0.0000000000E+00   0.0000000000E+00   0.1993429661E+00
   0.0000000000E+00   0.2329530545E+00   0.0000000000E+00  -0.4225327452E-04   0.0000000000E+00  -0.3380261961E-03   0.1979564002E+00   0.5137810169E-02   0.0000000000E+00   0.5803169739E-02   0.0000000000E+00   0.0000000000E+00   0.1964150572E-02  -0.5424910990E-03   0.1508824132E-03  -0.6092826312E-03   0.0000000000E+00   0.0000000000E+00   0.1956243185E+00
   0.0000000000E+00   0.2162957830E+00   0.0000000000E+00  -0.4120955512E-04   0.0000000000E+00  -0.3296764409E-03   0.2256845443E+00   0.1157581108E-01   0.0000000000E+00   0.5883617546E-02   0.0000000000E+00   0.0000000000E+00   0.2222118009E-02  -0.5612955220E-03   0.1529740562E-03  -0.7117810660E-03   0.0000000000E+00   0.0000000000E+00   0.2202256514E+00
   0.1857364347E-01   0.2164085300E+00   0.4594296533E-05  -0.4067589180E-04   0.3675437226E-04  -0.3254071344E-03   0.2278769992E+00   0.1063391706E-01   0.0000000000E+00   0.9214600699E-02   0.0000000000E+00   0.0000000000E+00   0.2246868241E-02  -0.5772918271E-03   0.2395796182E-03  -0.7155327489E-03   0.0000000000E+00   0.0000000000E+00   0.2236121020E+00
   0.2579554301E+00   0.9226094446E-01   0.8332712020E-04  -0.1480726220E-05   0.6666169616E-03  -0.1184580976E-04   0.1677566651E+00   0.1574013617E-01   0.0000000000E+00  -0.2293415368E-01   0.0000000000E+00   0.0000000000E+00   0.1630346242E-02  -0.3458686336E-03  -0.5962879957E-03  -0.5504904038E-03   0.0000000000E+00   0.0000000000E+00   0.1652688021E+00
   0.2593404631E+00   0.1102657620E+00   0.8213167433E-04  -0.2240886236E-05   0.6570533947E-03  -0.1792708989E-04   0.1832148893E+00   0.1161066939E-01   0.0000000000E+00  -0.2203849174E-01   0.0000000000E+00   0.0000000000E+00   0.1797316885E-02  -0.4335379741E-03  -0.5730007852E-03  -0.5844766762E-03   0.0000000000E+00   0.0000000000E+00   0.1817101193E+00
   0.2425640349E+00   0.1106530399E+00   0.7872254551E-04  -0.2625452180E-05   0.6297803641E-03  -0.2100361744E-04   0.1850716696E+00   0.6212953986E-02   0.0000000000E+00  -0.2595473497E-01   0.0000000000E+00   0.0000000000E+00   0.1832077834E-02  -0.4930854688E-03  -0.6748231093E-03  -0.5738538706E-03   0.0000000000E+00   0.0000000000E+00   0.1874762980E+00
   0.2401005081E+00   0.9266530375E-01   0.8004134111E-04  -0.1779416926E-05   0.6403307289E-03  -0.1423533541E-04   0.1682671843E+00   0.1008871233E-01   0.0000000000E+00  -0.2791685031E-01   0.0000000000E+00   0.0000000000E+00   0.1652405706E-02  -0.4039144295E-03  -0.7258381080E-03  -0.5350676898E-03   0.0000000000E+00   0.0000000000E+00   0.1704043463E+00
   0.9302850548E-01   0.3817156449E-01   0.7117262020E-04  -0.1075312325E-04   0.5693809616E-03  -0.8602498598E-04  -0.2102205355E-01  -0.1411675631E+00   0.0000000000E+00   0.2185348590E-01   0.0000000000E+00   0.0000000000E+00   0.2132821537E-03  -0.1348609470E-02   0.5681906335E-03   0.4865688499E-03   0.0000000000E+00   0.0000000000E+00   0.1259645567E+00
   0.1086720688E+00   0.4603799885E-01   0.6946764023E-04  -0.6726961335E-05   0.5557411219E-03  -0.5381569068E-04   0.4536608217E-01  -0.6283050583E-01   0.0000000000E+00  -0.3024214364E-01   0.0000000000E+00   0.0000000000E+00   0.6421523392E-03  -0.7644033048E-03  -0.7862957345E-03   0.5239327096E-04   0.0000000000E+00   0.0000000000E+00   0.9953256258E-01
   0.9666507161E-01   0.6343818768E-01   0.6155280127E-04  -0.1155633551E-04   0.4924224102E-03  -0.9245068410E-04   0.9394761429E-01  -0.3695718858E-01   0.0000000000E+00  -0.4532656021E-01   0.0000000000E+00   0.0000000000E+00   0.1050347709E-02  -0.6514147287E-03  -0.1178490565E-02  -0.1709712771E-03   0.0000000000E+00   0.0000000000E+00   0.1408658177E+00
   0.8372649506E-01   0.5541092229E-01   0.6439283980E-04  -0.1623348976E-04   0.5151427184E-03  -0.1298679181E-03   0.2725844810E-01  -0.3109200369E-01   0.0000000000E+00  -0.1394195131E-01   0.0000000000E+00   0.0000000000E+00   0.3658604921E-03  -0.3926953812E-03  -0.3624907341E-03   0.1150066676E-04   0.0000000000E+00   0.0000000000E+00   0.5951448428E-01
   0.9875390742E-01   0.1946124101E-01   0.7504231292E-04  -0.5310154320E-05   0.6003385034E-03  -0.4248123456E-04  -0.2089644952E-01  -0.2254012040E+00   0.0000000000E+00   0.3049927876E-01   0.0000000000E+00   0.0000000000E+00   0.4672391169E-03  -0.2191322692E-02   0.7929812478E-03   0.7388929606E-03   0.0000000000E+00   0.0000000000E+00   0.2143827113E+00
   0.1006902037E+00   0.0000000000E+00   0.7668918340E-04   0.0000000000E+00   0.6135134672E-03   0.0000000000E+00  -0.2936464852E-01  -0.2421819948E+00   0.0000000000E+00  -0.1661330384E-01   0.0000000000E+00   0.0000000000E+00   0.4328994994E-03  -0.2333726003E-02  -0.4319458997E-03   0.8146399301E-03   0.0000000000E+00   0.0000000000E+00   0.2295592043E+00
   0.1215325633E+00   0.0000000000E+00   0.7769259034E-04   0.0000000000E+00   0.6215407227E-03   0.0000000000E+00  -0.1539771981E-03  -0.8326136458E-01   0.0000000000E+00  -0.1861820402E-01   0.0000000000E+00   0.0000000000E+00   0.2482443218E-03  -0.8321517142E-03  -0.4840733045E-03   0.2502460253E-03   0.0000000000E+00   0.0000000000E+00   0.8712978019E-01
   0.1224092969E+00   0.2609031558E-01   0.7538143686E-04  -0.2443679755E-05   0.6030514948E-03  -0.1954943804E-04   0.2120216991E-01  -0.7840146941E-01   0.0000000000E+00  -0.1976327522E-01   0.0000000000E+00   0.0000000000E+00   0.4472261073E-03  -0.8476212038E-03  -0.5138451558E-03   0.1715978985E-03   0.0000000000E+00   0.0000000000E+00   0.1015208202E+00
   0.2112728909E+00   0.3762974374E-01   0.8097243763E-04  -0.3876730188E-06   0.6477795011E-03  -0.3101384150E-05   0.1092408994E+00   0.1673191491E-01   0.0000000000E+00  -0.2541797201E-01   0.0000000000E+00   0.0000000000E+00   0.1042213249E-02  -0.1604035491E-03  -0.6608672724E-03  -0.3779184430E-03   0.0000000000E+00   0.0000000000E+00   0.1106813851E+00
   0.1911659270E+00   0.3837734990E-01   0.7866855081E-04  -0.5722780739E-06   0.6293484065E-03  -0.4578224591E-05   0.9857202713E-01   0.6414937458E-02   0.0000000000E+00  -0.3271957411E-01   0.0000000000E+00   0.0000000000E+00   0.9664754589E-03  -0.2315667068E-03  -0.8507089269E-03  -0.3149608938E-03   0.0000000000E+00   0.0000000000E+00   0.1105731921E+00
   0.1874271964E+00   0.1901080591E-01   0.7989382484E-04  -0.2349657289E-06   0.6391505987E-03  -0.1879725831E-05   0.7795185115E-01   0.1023603899E-01   0.0000000000E+00  -0.1597440168E-01   0.0000000000E+00   0.0000000000E+00   0.7488103945E-03  -0.1314951635E-03  -0.4153344436E-03  -0.2645636704E-03   0.0000000000E+00   0.0000000000E+00   0.7909973287E-01
   0.2079683310E+00   0.1873670697E-01   0.8178322220E-04  -0.1463252366E-06   0.6542657776E-03  -0.1170601893E-05   0.9493484445E-01   0.1945829330E-01   0.0000000000E+00  -0.1266658282E-01   0.0000000000E+00   0.0000000000E+00   0.8909735646E-03  -0.9022160035E-04  -0.3293311532E-03  -0.3431794133E-03   0.0000000000E+00   0.0000000000E+00   0.8987779318E-01
   0.1578169436E+00   0.2157876861E+00   0.4373295765E-04  -0.1886243751E-04   0.3498636612E-03  -0.1508995001E-03   0.2721774913E+00  -0.5981569583E-02   0.0000000000E+00   0.7185208196E-02   0.0000000000E+00   0.0000000000E+00   0.2739719622E-02  -0.8763481697E-03   0.1868154131E-03  -0.7985877651E-03   0.0000000000E+00   0.0000000000E+00   0.2754827842E+00
   0.1568242993E+00   0.2324200511E+00   0.4129203372E-04  -0.2060565788E-04   0.3303362697E-03  -0.1648452631E-03   0.2789373069E+00  -0.2522013727E-02   0.0000000000E+00   0.4491227493E-02   0.0000000000E+00   0.0000000000E+00   0.2796939110E-02  -0.8620320578E-03   0.1167719148E-03  -0.8292458794E-03   0.0000000000E+00   0.0000000000E+00   0.2803381490E+00
   0.1372970129E+00   0.2324171279E+00   0.3529354858E-04  -0.2366734658E-04   0.2823483886E-03  -0.1893387726E-03   0.2731325528E+00  -0.2609822922E-02   0.0000000000E+00   0.8039843763E-02   0.0000000000E+00   0.0000000000E+00   0.2739154997E-02  -0.8454958877E-03   0.2090359378E-03  -0.8115681897E-03   0.0000000000E+00   0.0000000000E+00   0.2748324845E+00
   0.1385563885E+00   0.2156160452E+00   0.3791982871E-04  -0.2185864502E-04   0.3033586297E-03  -0.1748691602E-03   0.2701595336E+00  -0.6654792721E-02   0.0000000000E+00   0.1330001713E-01   0.0000000000E+00   0.0000000000E+00   0.2721559714E-02  -0.8770265281E-03   0.3458004453E-03  -0.7905142227E-03   0.0000000000E+00   0.0000000000E+00   0.2744651785E+00
   0.0000000000E+00   0.9970119377E-01   0.0000000000E+00  -0.3320080307E-04   0.0000000000E+00  -0.2656064245E-03   0.7389687640E+00   0.5136181309E-01   0.0000000000E+00   0.1037523557E-01   0.0000000000E+00   0.0000000000E+00   0.7235602200E-02  -0.1703288161E-02   0.2697561249E-03  -0.2370991731E-02   0.0000000000E+00   0.0000000000E+00   0.7094099444E+00
   0.1964828403E-01   0.9778868745E-01   0.1547240370E-04  -0.3220434981E-04   0.1237792296E-03  -0.2576347984E-03   0.6841823864E+00   0.5146323013E-01   0.0000000000E+00  -0.1027027868E+00   0.0000000000E+00   0.0000000000E+00   0.6687434174E-02  -0.1537914858E-02  -0.2670272457E-02  -0.2206936850E-02   0.0000000000E+00   0.0000000000E+00   0.6777593086E+00
   0.1685173035E-01   0.1510020277E+00   0.5852394331E-05  -0.3718747266E-04   0.4681915465E-04  -0.2974997813E-03   0.3307654588E+00   0.5600378917E-01   0.0000000000E+00   0.9956063605E-02   0.0000000000E+00   0.0000000000E+00   0.3139643220E-02  -0.4322584846E-03   0.2588576537E-03  -0.1160307744E-02   0.0000000000E+00   0.0000000000E+00   0.3081315460E+00
   0.0000000000E+00   0.1496597514E+00   0.0000000000E+00  -0.3780606723E-04   0.0000000000E+00  -0.3024485378E-03   0.3340141688E+00   0.6373350193E-01   0.0000000000E+00   0.8360441247E-02   0.0000000000E+00   0.0000000000E+00   0.3148941182E-02  -0.3647074870E-03   0.2173714724E-03  -0.1193243012E-02   0.0000000000E+00   0.0000000000E+00   0.3074877183E+00
   0.5123018219E-01   0.1383886630E+00   0.1954134279E-04  -0.3121966648E-04   0.1563307424E-03  -0.2497573319E-03   0.3418641521E+00   0.2174432840E-01   0.0000000000E+00   0.1721006243E-01   0.0000000000E+00   0.0000000000E+00   0.3353408536E-02  -0.8081491722E-03   0.4474616232E-03  -0.1090825441E-02   0.0000000000E+00   0.0000000000E+00   0.3326447053E+00
   0.4919843746E-01   0.1537639773E+00   0.1683707346E-04  -0.3288874068E-04   0.1346965876E-03  -0.2631099255E-03   0.3167304112E+00   0.2393639218E-01   0.0000000000E+00   0.2757371192E-01   0.0000000000E+00   0.0000000000E+00   0.3095494935E-02  -0.7108273118E-03   0.7169165098E-03  -0.1022000410E-02   0.0000000000E+00   0.0000000000E+00   0.3092425396E+00
   0.3327863950E-01   0.1524176585E+00   0.1146386679E-04  -0.3542183320E-04   0.9171093430E-04  -0.2833746656E-03   0.3254886156E+00   0.4240593860E-01   0.0000000000E+00   0.2100135130E-01   0.0000000000E+00   0.0000000000E+00   0.3127668340E-02  -0.5524064608E-03   0.5460351338E-03  -0.1103683663E-02   0.0000000000E+00   0.0000000000E+00   0.3099121982E+00
   0.3449389960E-01   0.1354325613E+00   0.1360255597E-04  -0.3413630513E-04   0.1088204478E-03  -0.2730904410E-03   0.3599971354E+00   0.4405529766E-01   0.0000000000E+00   0.2132131594E-01   0.0000000000E+00   0.0000000000E+00   0.3467805461E-02  -0.6394384297E-03   0.5543542145E-03  -0.1212157299E-02   0.0000000000E+00   0.0000000000E+00   0.3374622143E+00
   0.1673200401E-01   0.1674614095E+00   0.5259745871E-05  -0.3796982941E-04   0.4207796697E-04  -0.3037586353E-03   0.2987909549E+00   0.4632694543E-01   0.0000000000E+00   0.1225518911E-01   0.0000000000E+00   0.0000000000E+00   0.2848928713E-02  -0.4331034104E-03   0.3186349168E-03  -0.1035353701E-02   0.0000000000E+00   0.0000000000E+00   0.2794989315E+00
   0.0000000000E+00   0.1663202480E+00   0.0000000000E+00  -0.3849155194E-04   0.0000000000E+00  -0.3079324155E-03   0.2990864766E+00   0.5052643840E-01   0.0000000000E+00   0.7058365541E-02   0.0000000000E+00   0.0000000000E+00   0.2839285450E-02  -0.3919950457E-03   0.1835175041E-03  -0.1048838745E-02   0.0000000000E+00   0.0000000000E+00   0.2773354616E+00
   0.1713627452E-01   0.1837764093E+00   0.4979124603E-05  -0.3879096543E-04   0.3983299682E-04  -0.3103277235E-03   0.2731480320E+00   0.3266499163E-01   0.0000000000E+00   0.1201325163E-01   0.0000000000E+00   0.0000000000E+00   0.2633485345E-02  -0.4927941797E-03   0.3123445423E-03  -0.9174390710E-03   0.0000000000E+00   0.0000000000E+00   0.2595413121E+00
   0.3348526056E-01   0.1682796173E+00   0.1052775111E-04  -0.3636385582E-04   0.8422200891E-04  -0.2909108466E-03   0.2967551211E+00   0.3389553794E-01   0.0000000000E+00   0.2636512441E-01   0.0000000000E+00   0.0000000000E+00   0.2865864597E-02  -0.5513099838E-03   0.6854932348E-03  -0.9919519770E-03   0.0000000000E+00   0.0000000000E+00   0.2844773408E+00
   0.3460420210E-01   0.1839443308E+00   0.1009999946E-04  -0.3721135049E-04   0.8079999569E-04  -0.2976908039E-03   0.2740629036E+00   0.2487949046E-01   0.0000000000E+00   0.2543985626E-01   0.0000000000E+00   0.0000000000E+00   0.2665990564E-02  -0.5733938061E-03   0.6614362628E-03  -0.8968271822E-03   0.0000000000E+00   0.0000000000E+00   0.2661630654E+00
   0.1947593572E-01   0.2496159341E+00   0.3498958293E-05  -0.4267398575E-04   0.2799166634E-04  -0.3413918860E-03   0.1643383542E+00  -0.2905647223E-02   0.0000000000E+00   0.8325144949E-03   0.0000000000E+00   0.0000000000E+00   0.1652100483E-02  -0.5220715347E-03   0.2164537687E-04  -0.4842981208E-03   0.0000000000E+00   0.0000000000E+00   0.1660679453E+00
   0.3855529137E-01   0.2325838035E+00   0.8608407358E-05  -0.4005294358E-04   0.6886725886E-04  -0.3204235487E-03   0.2103234621E+00   0.3707453699E-02   0.0000000000E+00   0.1191428501E-01   0.0000000000E+00   0.0000000000E+00   0.2092112260E-02  -0.5938958493E-03   0.3097714102E-03  -0.6420927474E-03   0.0000000000E+00   0.0000000000E+00   0.2096408554E+00
   0.3895376298E-01   0.2496301777E+00   0.7208076002E-05  -0.4109136650E-04   0.5766460802E-04  -0.3287309320E-03   0.1785911235E+00  -0.2502953582E-02   0.0000000000E+00   0.4696674018E-02   0.0000000000E+00   0.0000000000E+00   0.1793420096E-02  -0.5608029064E-03   0.1221135245E-03  -0.5282645098E-03   0.0000000000E+00   0.0000000000E+00   0.1800194630E+00
   0.3300407163E+00   0.0000000000E+00   0.9711503874E-04   0.0000000000E+00   0.7769203099E-03   0.0000000000E+00   0.1359261167E+00   0.3930339873E-01   0.0000000000E+00  -0.4127074633E-03   0.0000000000E+00   0.0000000000E+00   0.1241350971E-02  -0.1474436287E-04  -0.1073039404E-04  -0.5256885463E-03   0.0000000000E+00   0.0000000000E+00   0.1211519788E+00
   0.3508999940E+00   0.0000000000E+00   0.1000000000E-03   0.0000000000E+00   0.8000000000E-03   0.0000000000E+00   0.1367237773E+00   0.3954833318E-01   0.0000000000E+00  -0.2482753984E-05   0.0000000000E+00   0.0000000000E+00   0.1248592774E-02  -0.1468800015E-04  -0.6455160359E-07  -0.5288163315E-03   0.0000000000E+00   0.0000000000E+00   0.1218613952E+00
   0.3508999940E+00   0.1923041644E-01   0.1000000000E-03  -0.3927361594E-07   0.8000000000E-03  -0.3141889275E-06   0.1382154190E+00   0.3888296094E-01   0.0000000000E+00  -0.5035490301E-06   0.0000000000E+00   0.0000000000E+00   0.1265505307E-02  -0.2581664758E-04  -0.1309227478E-07  -0.5312951398E-03   0.0000000000E+00   0.0000000000E+00   0.1234497473E+00
   0.3306372235E+00   0.1871420105E-01   0.9715960959E-04  -0.3825040932E-07   0.7772768767E-03  -0.3060032745E-06   0.1374977928E+00   0.3867406830E-01   0.0000000000E+00  -0.1265071589E-02   0.0000000000E+00   0.0000000000E+00   0.1258955723E-02  -0.2575269538E-04  -0.3289186130E-04  -0.5285155832E-03   0.0000000000E+00   0.0000000000E+00   0.1228318203E+00
   0.3508999940E+00   0.3846040652E-01   0.1000000000E-03  -0.1259314826E-06   0.8000000000E-03  -0.1007451861E-05   0.1427428714E+00   0.3694228409E-01   0.0000000000E+00   0.1418051902E-04   0.0000000000E+00   0.0000000000E+00   0.1316601862E-02  -0.5880577343E-04   0.3686934946E-06  -0.5390554666E-03   0.0000000000E+00   0.0000000000E+00   0.1283068572E+00
   0.3310798165E+00   0.3768192531E-01   0.9710983635E-04  -0.1230206226E-06   0.7768786908E-03  -0.9841649808E-06   0.1421518850E+00   0.3681261105E-01   0.0000000000E+00  -0.2632393392E-02   0.0000000000E+00   0.0000000000E+00   0.1311081017E-02  -0.5832954452E-04  -0.6844222818E-04  -0.5368934882E-03   0.0000000000E+00   0.0000000000E+00   0.1278472059E+00
   0.3314313628E+00   0.5676003662E-01   0.9698375451E-04  -0.2987199771E-06   0.7758700361E-03  -0.2389759817E-05   0.1496337293E+00   0.3383180043E-01   0.0000000000E+00  -0.3559267666E-02   0.0000000000E+00   0.0000000000E+00   0.1394841891E-02  -0.1105831835E-03  -0.9254095932E-04  -0.5503965891E-03   0.0000000000E+00   0.0000000000E+00   0.1360237694E+00
   0.3317088239E+00   0.7595120999E-01   0.9679521264E-04  -0.6044565700E-06   0.7743617011E-03  -0.4835652560E-05   0.1595198792E+00   0.2998883154E-01   0.0000000000E+00  -0.4232871853E-02   0.0000000000E+00   0.0000000000E+00   0.1505232298E-02  -0.1786713223E-03  -0.1100546682E-03  -0.5685261323E-03   0.0000000000E+00   0.0000000000E+00   0.1469864880E+00
   0.3126543031E+00   0.7513990248E-01   0.9364067592E-04  -0.6233693490E-06   0.7491254074E-03  -0.4986954792E-05   0.1581119112E+00   0.2894802259E-01   0.0000000000E+00  -0.8389816920E-02   0.0000000000E+00   0.0000000000E+00   0.1494275044E-02  -0.1848555076E-03  -0.2181352399E-03  -0.5611798012E-03   0.0000000000E+00   0.0000000000E+00   0.1464977269E+00
   0.3119909313E+00   0.5605041570E-01   0.9400147928E-04  -0.3092443953E-06   0.7520118342E-03  -0.2473955163E-05   0.1478583113E+00   0.3287297801E-01   0.0000000000E+00  -0.7102251266E-02   0.0000000000E+00   0.0000000000E+00   0.1379964179E-02  -0.1148451537E-03  -0.1846585329E-03  -0.5421938678E-03   0.0000000000E+00   0.0000000000E+00   0.1350036358E+00
   0.3318512654E+00   0.9524636134E-01   0.9654537556E-04  -0.1071050767E-05   0.7723630044E-03  -0.8568406135E-05   0.1712762050E+00   0.2555114618E-01   0.0000000000E+00  -0.4590495403E-02   0.0000000000E+00   0.0000000000E+00   0.1636108611E-02  -0.2583171531E-03  -0.1193528805E-03  -0.5904820534E-03   0.0000000000E+00   0.0000000000E+00   0.1601979689E+00
   0.3130270592E+00   0.9439069616E-01   0.9315601985E-04  -0.1102871346E-05   0.7452481588E-03  -0.8822970771E-05   0.1702521219E+00   0.2447995913E-01   0.0000000000E+00  -0.9027593034E-02   0.0000000000E+00   0.0000000000E+00   0.1629081342E-02  -0.2659567744E-03  -0.2347174189E-03  -0.5841962431E-03   0.0000000000E+00   0.0000000000E+00   0.1601620418E+00
   0.3318349354E+00   0.1146940680E+00   0.9623759778E-04  -0.1721778702E-05   0.7699007822E-03  -0.1377422962E-04   0.1843906979E+00   0.2085977565E-01   0.0000000000E+00  -0.4693721466E-02   0.0000000000E+00   0.0000000000E+00   0.1781327652E-02  -0.3445743371E-03  -0.1220367581E-03  -0.6157514206E-03   0.0000000000E+00   0.0000000000E+00   0.1750515842E+00
   0.3316906490E+00   0.1342519322E+00   0.9588511024E-04  -0.2566868807E-05   0.7670808819E-03  -0.2053495046E-04   0.1982696611E+00   0.1622823406E-01   0.0000000000E+00  -0.4514084317E-02   0.0000000000E+00   0.0000000000E+00   0.1934011909E-02  -0.4325266427E-03  -0.1173661922E-03  -0.6434936854E-03   0.0000000000E+00   0.0000000000E+00   0.1908061399E+00
   0.3126241067E+00   0.1337697560E+00   0.9180551823E-04  -0.2658444113E-05   0.7344441458E-03  -0.2126755290E-04   0.1982662596E+00   0.1509070275E-01   0.0000000000E+00  -0.8781923048E-02   0.0000000000E+00   0.0000000000E+00   0.1937390488E-02  -0.4438917513E-03  -0.2283299992E-03  -0.6400708871E-03   0.0000000000E+00   0.0000000000E+00   0.1917565770E+00
   0.3130188830E+00   0.1139195511E+00   0.9254222017E-04  -0.1774655076E-05   0.7403377614E-03  -0.1419724061E-04   0.1838189772E+00   0.1970060925E-01   0.0000000000E+00  -0.9139612746E-02   0.0000000000E+00   0.0000000000E+00   0.1779087944E-02  -0.3544508391E-03  -0.2376299314E-03  -0.6105587594E-03   0.0000000000E+00   0.0000000000E+00   0.1754957540E+00
   0.2898196211E+00   0.1826375631E-01   0.9156189856E-04  -0.4625408251E-07   0.7324951885E-03  -0.3700326601E-06   0.1313485869E+00   0.3629533308E-01   0.0000000000E+00  -0.3919145050E-02   0.0000000000E+00   0.0000000000E+00   0.1204599870E-02  -0.3109243001E-04  -0.1018977713E-03  -0.5029317601E-03   0.0000000000E+00   0.0000000000E+00   0.1176932980E+00
   0.2883233190E+00   0.0000000000E+00   0.9148055335E-04   0.0000000000E+00   0.7318444268E-03   0.0000000000E+00   0.1292616225E+00   0.3689894756E-01   0.0000000000E+00  -0.1296411715E-02   0.0000000000E+00   0.0000000000E+00   0.1181919382E-02  -0.1879539189E-04  -0.3370670459E-04  -0.4984817102E-03   0.0000000000E+00   0.0000000000E+00   0.1153091342E+00
   0.3091817086E+00   0.0000000000E+00   0.9426351416E-04   0.0000000000E+00   0.7541081133E-03   0.0000000000E+00   0.1334821793E+00   0.3843399716E-01   0.0000000000E+00  -0.8340143693E-03   0.0000000000E+00   0.0000000000E+00   0.1219519802E-02  -0.1610656632E-04  -0.2168437360E-04  -0.5157485294E-03   0.0000000000E+00   0.0000000000E+00   0.1190069290E+00
   0.3102366077E+00   0.1840588807E-01   0.9433151943E-04  -0.4058067522E-07   0.7546521554E-03  -0.3246454018E-06   0.1351982603E+00   0.3781488078E-01   0.0000000000E+00  -0.2537313401E-02   0.0000000000E+00   0.0000000000E+00   0.1238537961E-02  -0.2744597326E-04  -0.6597014843E-04  -0.5190394234E-03   0.0000000000E+00   0.0000000000E+00   0.1208963362E+00
   0.2128000482E+00   0.1636198572E+00   0.6587058204E-04  -0.7861648467E-05   0.5269646563E-03  -0.6289318774E-04   0.2359544627E+00  -0.8192886796E-02   0.0000000000E+00  -0.1585240149E-01   0.0000000000E+00   0.0000000000E+00   0.2384123288E-02  -0.7897922562E-03  -0.4121624388E-03  -0.6832847278E-03   0.0000000000E+00   0.0000000000E+00   0.2416978435E+00
   0.2169286833E+00   0.1467137033E+00   0.6891048186E-04  -0.6172413349E-05   0.5512838549E-03  -0.4937930679E-04   0.2207294934E+00  -0.8297308286E-02   0.0000000000E+00  -0.2169598596E-01   0.0000000000E+00   0.0000000000E+00   0.2232186858E-02  -0.7451615629E-03  -0.5640956351E-03  -0.6372965552E-03   0.0000000000E+00   0.0000000000E+00   0.2280453769E+00
   0.2316076382E+00   0.1466871813E+00   0.7251813074E-04  -0.5390745667E-05   0.5801450459E-03  -0.4312596534E-04   0.2183936782E+00  -0.2965475805E-02   0.0000000000E+00  -0.2035157210E-01   0.0000000000E+00   0.0000000000E+00   0.2192833209E-02  -0.6848357925E-03  -0.5291408746E-03  -0.6462846070E-03   0.0000000000E+00   0.0000000000E+00   0.2226842372E+00
   0.2327893204E+00   0.1630457298E+00   0.7113459479E-04  -0.6605018358E-05   0.5690767583E-03  -0.5284014686E-04   0.2308179083E+00  -0.2732741275E-02   0.0000000000E+00  -0.1620317586E-01   0.0000000000E+00   0.0000000000E+00   0.2316377307E-02  -0.7197811376E-03  -0.4212825723E-03  -0.6842555010E-03   0.0000000000E+00   0.0000000000E+00   0.2338795958E+00
   0.2285210599E+00   0.1845619800E-01   0.8395598345E-04  -0.9936692280E-07   0.6716478676E-03  -0.7949353824E-06   0.1079776941E+00   0.2609108360E-01   0.0000000000E+00  -0.9710768569E-02   0.0000000000E+00   0.0000000000E+00   0.1001503690E-02  -0.6302224615E-04  -0.2524799828E-03  -0.4022063330E-03   0.0000000000E+00   0.0000000000E+00   0.9917834674E-01
   0.2313691000E+00   0.3704568211E-01   0.8342411208E-04  -0.2758542324E-06   0.6673928967E-03  -0.2206833859E-05   0.1187706406E+00   0.2344647439E-01   0.0000000000E+00  -0.1960227087E-01   0.0000000000E+00   0.0000000000E+00   0.1117366983E-02  -0.1218471779E-03  -0.5096590425E-03  -0.4266513450E-03   0.0000000000E+00   0.0000000000E+00   0.1139076416E+00
   0.1840548930E+00   0.0000000000E+00   0.8017289214E-04   0.0000000000E+00   0.6413831371E-03   0.0000000000E+00   0.6966156072E-01   0.1006765373E-01   0.0000000000E+00  -0.5875632797E-02   0.0000000000E+00   0.0000000000E+00   0.6664126460E-03  -0.1083081449E-03  -0.1527664527E-03  -0.2391876433E-03   0.0000000000E+00   0.0000000000E+00   0.6532998720E-01
   0.2049037704E+00   0.0000000000E+00   0.8190049282E-04   0.0000000000E+00   0.6552039426E-03   0.0000000000E+00   0.8841680972E-01   0.2033461193E-01   0.0000000000E+00  -0.4412137284E-02   0.0000000000E+00   0.0000000000E+00   0.8231642614E-03  -0.6190430986E-04  -0.1147155694E-03  -0.3262542649E-03   0.0000000000E+00   0.0000000000E+00   0.7990860567E-01
   0.1423692306E+00   0.0000000000E+00   0.7806273548E-04   0.0000000000E+00   0.6245018839E-03   0.0000000000E+00   0.1418487995E-01  -0.3598676436E-01   0.0000000000E+00  -0.1411378195E-01   0.0000000000E+00   0.0000000000E+00   0.2498090926E-03  -0.4024222835E-03  -0.3669583307E-03   0.6540565324E-04   0.0000000000E+00   0.0000000000E+00   0.4984856039E-01
   0.1463627311E+00   0.2097411525E-01   0.7700522855E-04  -0.8273498823E-06   0.6160418284E-03  -0.6618799058E-05   0.3196303566E-01  -0.2957034730E-01   0.0000000000E+00  -0.2221717706E-01   0.0000000000E+00   0.0000000000E+00   0.4083413985E-03  -0.3915925800E-03  -0.5776466037E-03  -0.7178065089E-05   0.0000000000E+00   0.0000000000E+00   0.6702091699E-01
   0.3508999940E+00   0.2499021818E+00   0.1000000000E-03  -0.1086868525E-04   0.8000000000E-03  -0.8694948204E-04   0.2697392817E+00   0.8596770692E-03   0.0000000000E+00   0.7770271250E-03   0.0000000000E+00   0.0000000000E+00   0.2694813786E-02  -0.8006210745E-03   0.2020270525E-04  -0.8117968764E-03   0.0000000000E+00   0.0000000000E+00   0.2693136889E+00
   0.3314031140E+00   0.2499014925E+00   0.9417288591E-04  -0.1094527924E-04   0.7533830872E-03  -0.8756223395E-04   0.2704945529E+00   0.8672140260E-03   0.0000000000E+00  -0.5656570290E-03   0.0000000000E+00   0.0000000000E+00   0.2702343887E-02  -0.8028115184E-03  -0.1470708275E-04  -0.8140853007E-03   0.0000000000E+00   0.0000000000E+00   0.2700650782E+00
   0.3316383700E+00   0.2309633416E+00   0.9442411028E-04  -0.9269372719E-05   0.7553928822E-03  -0.7415498175E-04   0.2617275001E+00   0.5674276954E-03   0.0000000000E+00  -0.1350036784E-02   0.0000000000E+00   0.0000000000E+00   0.2615572718E-02  -0.7795082233E-03  -0.3510095639E-04  -0.7868847833E-03   0.0000000000E+00   0.0000000000E+00   0.2614565320E+00
   0.3508999940E+00   0.2306866572E+00   0.1000000000E-03  -0.9174980948E-05   0.8000000000E-03  -0.7339984759E-04   0.2611933656E+00   0.6452514118E-03   0.0000000000E+00   0.7202638249E-03   0.0000000000E+00   0.0000000000E+00   0.2609997902E-02  -0.7771275828E-03   0.1872685945E-04  -0.7855158511E-03   0.0000000000E+00   0.0000000000E+00   0.2608752742E+00
   0.2737162905E+00   0.2315709485E+00   0.7741206039E-04  -0.1050816389E-04   0.6192964832E-03  -0.8406531113E-04   0.2692336016E+00   0.8582616495E-05   0.0000000000E+00  -0.3640368290E-02   0.0000000000E+00   0.0000000000E+00   0.2692310268E-02  -0.8076149785E-03  -0.9464957553E-04  -0.8077265526E-03   0.0000000000E+00   0.0000000000E+00   0.2693144342E+00
   0.2930107990E+00   0.2314004613E+00   0.8313833859E-04  -0.9914081685E-05   0.6651067087E-03  -0.7931265348E-04   0.2659828012E+00   0.2634200809E-03   0.0000000000E+00  -0.3082202113E-02   0.0000000000E+00   0.0000000000E+00   0.2659037752E-02  -0.7953142028E-03  -0.8013725494E-04  -0.7987386639E-03   0.0000000000E+00   0.0000000000E+00   0.2659129365E+00
   0.2924081988E+00   0.2498956277E+00   0.8239353590E-04  -0.1159691782E-04   0.6591482872E-03  -0.9277534257E-04   0.2761677722E+00   0.9801898940E-03   0.0000000000E+00  -0.9281662700E-03   0.0000000000E+00   0.0000000000E+00   0.2758737152E-02  -0.8187014176E-03  -0.2413232302E-04  -0.8314438862E-03   0.0000000000E+00   0.0000000000E+00   0.2756805150E+00
   0.2729097064E+00   0.2498900692E+00   0.7638726341E-04  -0.1221453869E-04   0.6110981073E-03  -0.9771630950E-04   0.2806524789E+00   0.1082141738E-02   0.0000000000E+00  -0.1075261791E-02   0.0000000000E+00   0.0000000000E+00   0.2803278364E-02  -0.8311360194E-03  -0.2795680657E-04  -0.8452038619E-03   0.0000000000E+00   0.0000000000E+00   0.2801153510E+00
   0.3508999940E+00   0.1730343065E+00   0.1000000000E-03  -0.4735727678E-05   0.8000000000E-03  -0.3788582142E-04   0.2257763858E+00   0.8479994879E-02   0.0000000000E+00   0.5642411733E-03   0.0000000000E+00   0.0000000000E+00   0.2232323873E-02  -0.5925292085E-03   0.1467027051E-04  -0.7027691419E-03   0.0000000000E+00   0.0000000000E+00   0.2216512245E+00
   0.3316351764E+00   0.1732710546E+00   0.9522826733E-04  -0.4807041504E-05   0.7618261386E-03  -0.3845633203E-04   0.2260432716E+00   0.8138563719E-02   0.0000000000E+00  -0.3674211416E-02   0.0000000000E+00   0.0000000000E+00   0.2236017025E-02  -0.5967441777E-03  -0.9552949682E-04  -0.7025455060E-03   0.0000000000E+00   0.0000000000E+00   0.2221633518E+00
   0.3316295891E+00   0.1538149442E+00   0.9554456449E-04  -0.3600865664E-05   0.7643565159E-03  -0.2880692531E-04   0.2123018790E+00   0.1195787945E-01   0.0000000000E+00  -0.4188271321E-02   0.0000000000E+00   0.0000000000E+00   0.2087145151E-02  -0.5173268424E-03  -0.1088950543E-03  -0.6727792752E-03   0.0000000000E+00   0.0000000000E+00   0.2066894203E+00
   0.3508999940E+00   0.1538141844E+00   0.1000000000E-03  -0.3552845045E-05   0.8000000000E-03  -0.2842276036E-04   0.2121057817E+00   0.1227319495E-01   0.0000000000E+00   0.4994487141E-03   0.0000000000E+00   0.0000000000E+00   0.2084238232E-02  -0.5135853956E-03   0.1298566657E-04  -0.6731369299E-03   0.0000000000E+00   0.0000000000E+00   0.2062299078E+00
   0.3508999940E+00   0.1345924875E+00   0.1000000000E-03  -0.2544832685E-05   0.8000000000E-03  -0.2035866148E-04   0.1981560912E+00   0.1650570279E-01   0.0000000000E+00   0.3872003430E-03   0.0000000000E+00   0.0000000000E+00   0.1932043804E-02  -0.4294112458E-03   0.1006720892E-04  -0.6439853820E-03   0.0000000000E+00   0.0000000000E+00   0.1904209335E+00
   0.3508999940E+00   0.1153691414E+00   0.1000000000E-03  -0.1719395775E-05   0.8000000000E-03  -0.1375516620E-04   0.1844123848E+00   0.2101866400E-01   0.0000000000E+00   0.2979899745E-03   0.0000000000E+00   0.0000000000E+00   0.1781067856E-02  -0.3430505146E-03   0.7747739336E-05  -0.6162931465E-03   0.0000000000E+00   0.0000000000E+00   0.1748250619E+00
   0.3508999940E+00   0.9614414654E-01   0.1000000000E-03  -0.1077928826E-05   0.8000000000E-03  -0.8623430605E-05   0.1714247458E+00   0.2562521135E-01   0.0000000000E+00   0.1960156334E-03   0.0000000000E+00   0.0000000000E+00   0.1637371824E-02  -0.2580221240E-03   0.5096406468E-05  -0.5911498716E-03   0.0000000000E+00   0.0000000000E+00   0.1601240130E+00
   0.3508999940E+00   0.7691756900E-01   0.1000000000E-03  -0.6123112952E-06   0.8000000000E-03  -0.4898490362E-05   0.1597926415E+00   0.3002217103E-01   0.0000000000E+00   0.1149299810E-03   0.0000000000E+00   0.0000000000E+00   0.1507859902E-02  -0.1791562141E-03   0.2988179507E-05  -0.5694444375E-03   0.0000000000E+00   0.0000000000E+00   0.1470637550E+00
   0.3508999940E+00   0.5768956795E-01   0.1000000000E-03  -0.3044504355E-06   0.8000000000E-03  -0.2435603484E-05   0.1500651697E+00   0.3389910480E-01   0.0000000000E+00   0.5258941541E-04   0.0000000000E+00   0.0000000000E+00   0.1398954383E-02  -0.1112044612E-03   0.1367324801E-05  -0.5518928235E-03   0.0000000000E+00   0.0000000000E+00   0.1362861912E+00
   0.0000000000E+00   0.2496110270E+00   0.0000000000E+00  -0.4321922400E-04   0.0000000000E+00  -0.3457537920E-03   0.1592571331E+00  -0.3036504874E-02   0.0000000000E+00   0.5691826895E-02   0.0000000000E+00   0.0000000000E+00   0.1601680846E-02  -0.5081364481E-03   0.1479874993E-03  -0.4686618848E-03   0.0000000000E+00   0.0000000000E+00   0.1610885059E+00
   0.3767195765E-01   0.2158675880E+00   0.9435383102E-05  -0.3901022444E-04   0.7548306481E-04  -0.3120817955E-03   0.2336135655E+00   0.8076354633E-02   0.0000000000E+00   0.2057468987E-01   0.0000000000E+00   0.0000000000E+00   0.2311906591E-02  -0.6200771502E-03   0.5349419367E-03  -0.7250697604E-03   0.0000000000E+00   0.0000000000E+00   0.2323346634E+00
   0.3628206832E-01   0.1997621246E+00   0.9862313201E-05  -0.3806382529E-04   0.7889850561E-04  -0.3045106023E-03   0.2538796760E+00   0.1580486708E-01   0.0000000000E+00   0.2393690174E-01   0.0000000000E+00   0.0000000000E+00   0.2491382158E-02  -0.6035903571E-03   0.6223594452E-03  -0.8090536291E-03   0.0000000000E+00   0.0000000000E+00   0.2497173640E+00
   0.5572157739E-01   0.1982914245E+00   0.1540615401E-04  -0.3528882907E-04   0.1232492321E-03  -0.2823106326E-03   0.2610733344E+00   0.8887519326E-02   0.0000000000E+00   0.3174272887E-01   0.0000000000E+00   0.0000000000E+00   0.2584070786E-02  -0.6943448099E-03   0.8253109506E-03  -0.8098825612E-03   0.0000000000E+00   0.0000000000E+00   0.2626417214E+00
   0.5763952668E-01   0.2145991486E+00   0.1475406468E-04  -0.3624449171E-04   0.1180325175E-03  -0.2899559336E-03   0.2439043952E+00   0.3926074980E-02   0.0000000000E+00   0.2655185726E-01   0.0000000000E+00   0.0000000000E+00   0.2427265727E-02  -0.6924524359E-03   0.6903482888E-03  -0.7434914106E-03   0.0000000000E+00   0.0000000000E+00   0.2462495402E+00
   0.1785099236E-01   0.2000581413E+00   0.4813806206E-05  -0.3969240577E-04   0.3851044965E-04  -0.3175392461E-03   0.2509023207E+00   0.2112482995E-01   0.0000000000E+00   0.1112616423E-01   0.0000000000E+00   0.0000000000E+00   0.2445648718E-02  -0.5414586627E-03   0.2892802699E-03  -0.8160814521E-03   0.0000000000E+00   0.0000000000E+00   0.2420847015E+00
   0.5831867308E-01   0.2319811699E+00   0.1339390857E-04  -0.3743534535E-04   0.1071512686E-03  -0.2994827628E-03   0.2234867948E+00   0.2265047883E-02   0.0000000000E+00   0.1522919676E-01   0.0000000000E+00   0.0000000000E+00   0.2228072804E-02  -0.6478099056E-03   0.3959591158E-03  -0.6772555280E-03   0.0000000000E+00   0.0000000000E+00   0.2241287384E+00
   0.1559028820E+00   0.2497983316E+00   0.3859122364E-04  -0.2240760423E-04   0.3087297891E-03  -0.1792608339E-03   0.2914384211E+00   0.9007757783E-03   0.0000000000E+00   0.1861040515E-02   0.0000000000E+00   0.0000000000E+00   0.2911681883E-02  -0.8653075054E-03   0.4838705339E-04  -0.8770175905E-03   0.0000000000E+00   0.0000000000E+00   0.2910055671E+00
   0.1364026811E+00   0.2497710806E+00   0.3239678858E-04  -0.2543549050E-04   0.2591743087E-03  -0.2034839240E-03   0.2814472824E+00   0.4262718779E-03   0.0000000000E+00   0.3082179526E-02   0.0000000000E+00   0.0000000000E+00   0.2813194009E-02  -0.8400791285E-03   0.8013666768E-04  -0.8456206629E-03   0.0000000000E+00   0.0000000000E+00   0.2812342472E+00
   0.1754044779E+00   0.2498221852E+00   0.4494232407E-04  -0.1975719873E-04   0.3595385926E-03  -0.1580575898E-03   0.2963181533E+00   0.1170265198E-02   0.0000000000E+00   0.7953935073E-03   0.0000000000E+00   0.0000000000E+00   0.2959670737E-02  -0.8772518078E-03   0.2068023119E-04  -0.8924652554E-03   0.0000000000E+00   0.0000000000E+00   0.2957577932E+00
   0.1763506554E+00   0.2323346417E+00   0.4739093448E-04  -0.1794125539E-04   0.3791274758E-03  -0.1435300431E-03   0.2816369717E+00  -0.2229459550E-02   0.0000000000E+00   0.1420409124E-02   0.0000000000E+00   0.0000000000E+00   0.2823058096E-02  -0.8672055107E-03   0.3693063724E-04  -0.8382225366E-03   0.0000000000E+00   0.0000000000E+00   0.2827883436E+00
   0.2257556167E+00   0.0000000000E+00   0.8395808191E-04   0.0000000000E+00   0.6716646553E-03   0.0000000000E+00   0.1031173223E+00   0.2668575641E-01   0.0000000000E+00  -0.3326872921E-02   0.0000000000E+00   0.0000000000E+00   0.9511159533E-03  -0.4249440270E-04  -0.8649869595E-04  -0.3894092360E-03   0.0000000000E+00   0.0000000000E+00   0.9261584141E-01
   0.2466098597E+00   0.0000000000E+00   0.8628030067E-04   0.0000000000E+00   0.6902424054E-03   0.0000000000E+00   0.1145015368E+00   0.3131670734E-01   0.0000000000E+00  -0.2494446446E-02   0.0000000000E+00   0.0000000000E+00   0.1051065246E-02  -0.3033753698E-04  -0.6485560759E-04  -0.4374547324E-03   0.0000000000E+00   0.0000000000E+00   0.1024228647E+00
   0.2490234176E+00   0.1834177379E-01   0.8634173279E-04  -0.7267901072E-07   0.6907338624E-03  -0.5814320858E-06   0.1180758741E+00   0.3068091178E-01   0.0000000000E+00  -0.7389930669E-02   0.0000000000E+00   0.0000000000E+00   0.1088716006E-02  -0.4741850453E-04  -0.1921381974E-03  -0.4462703577E-03   0.0000000000E+00   0.0000000000E+00   0.1069585238E+00
   0.1970653886E+00   0.1994022462E+00   0.5742472998E-04  -0.1248186585E-04   0.4593978399E-03  -0.9985492677E-04   0.2613991741E+00  -0.6864020101E-02   0.0000000000E+00  -0.4797435573E-02   0.0000000000E+00   0.0000000000E+00   0.2634583801E-02  -0.8528377232E-03  -0.1247333249E-03  -0.7636054619E-03   0.0000000000E+00   0.0000000000E+00   0.2650310592E+00
   0.2161266360E+00   0.1982957879E+00   0.6305677502E-04  -0.1071878350E-04   0.5044542002E-03  -0.8575026802E-04   0.2572834056E+00  -0.4089006902E-02   0.0000000000E+00  -0.7963995631E-02   0.0000000000E+00   0.0000000000E+00   0.2585101077E-02  -0.8127402858E-03  -0.2070638864E-03  -0.7595831961E-03   0.0000000000E+00   0.0000000000E+00   0.2597184075E+00
   0.2160947538E+00   0.2150278484E+00   0.6141176059E-04  -0.1224439457E-04   0.4912940847E-03  -0.9795515656E-04   0.2679216130E+00  -0.2195101429E-02   0.0000000000E+00  -0.5331862556E-02   0.0000000000E+00   0.0000000000E+00   0.2685801435E-02  -0.8257158534E-03  -0.1386284264E-03  -0.7971795348E-03   0.0000000000E+00   0.0000000000E+00   0.2691951716E+00
   0.1967227560E+00   0.2154950062E+00   0.5556089056E-04  -0.1403508641E-04   0.4444871244E-03  -0.1122806913E-03   0.2707333526E+00  -0.3604906612E-02   0.0000000000E+00  -0.2416726115E-02   0.0000000000E+00   0.0000000000E+00   0.2718148246E-02  -0.8482491240E-03  -0.6283487900E-04  -0.8013853380E-03   0.0000000000E+00   0.0000000000E+00   0.2725974057E+00
   0.1177833113E+00   0.2321936997E+00   0.2949303427E-04  -0.2703336411E-04   0.2359442742E-03  -0.2162669129E-03   0.2638315373E+00  -0.2426847046E-02   0.0000000000E+00   0.1181382134E-01   0.0000000000E+00   0.0000000000E+00   0.2645595914E-02  -0.8157630823E-03   0.3071593550E-03  -0.7842140707E-03   0.0000000000E+00   0.0000000000E+00   0.2659000428E+00
   0.1191702852E+00   0.2150210354E+00   0.3218391309E-04  -0.2518562119E-04   0.2574713048E-03  -0.2014849696E-03   0.2663559408E+00  -0.6524553309E-02   0.0000000000E+00   0.1981606284E-01   0.0000000000E+00   0.0000000000E+00   0.2683133067E-02  -0.8643133553E-03   0.5152176338E-03  -0.7794941623E-03   0.0000000000E+00   0.0000000000E+00   0.2717479795E+00
   0.2144085537E+00   0.2498589117E+00   0.5774107983E-04  -0.1567647582E-04   0.4619286386E-03  -0.1254118066E-03   0.2948192925E+00   0.1337856311E-02   0.0000000000E+00  -0.6285517726E-03   0.0000000000E+00   0.0000000000E+00   0.2944179356E-02  -0.8710793144E-03  -0.1634234609E-04  -0.8884714464E-03   0.0000000000E+00   0.0000000000E+00   0.2941686737E+00
   0.1949066079E+00   0.2498423625E+00   0.5135110218E-04  -0.1751527602E-04   0.4108088175E-03  -0.1401222082E-03   0.2970832911E+00   0.1308183160E-02   0.0000000000E+00  -0.3621338830E-04   0.0000000000E+00   0.0000000000E+00   0.2966908362E-02  -0.8781680418E-03  -0.9415480958E-06  -0.8951744229E-03   0.0000000000E+00   0.0000000000E+00   0.2964527859E+00
   0.1959168450E+00   0.2322777021E+00   0.5352310967E-04  -0.1570632122E-04   0.4281848774E-03  -0.1256505698E-03   0.2816941491E+00  -0.1776960680E-02   0.0000000000E+00  -0.9830217926E-03   0.0000000000E+00   0.0000000000E+00   0.2822272373E-02  -0.8628520540E-03  -0.2555856661E-04  -0.8397515652E-03   0.0000000000E+00   0.0000000000E+00   0.2826105146E+00
   0.2154487651E+00   0.2321587298E+00   0.5962434494E-04  -0.1388846513E-04   0.4769947595E-03  -0.1111077210E-03   0.2797208382E+00  -0.1266012114E-02   0.0000000000E+00  -0.2640023688E-02   0.0000000000E+00   0.0000000000E+00   0.2801006419E-02  -0.8518226359E-03  -0.6864061590E-04  -0.8353644784E-03   0.0000000000E+00   0.0000000000E+00   0.2804103749E+00
   0.2349251395E+00   0.2318416493E+00   0.6566150025E-04  -0.1243630294E-04   0.5252920020E-03  -0.9949042353E-04   0.2765680255E+00  -0.7906926553E-03   0.0000000000E+00  -0.3570621430E-02   0.0000000000E+00   0.0000000000E+00   0.2768052333E-02  -0.8376110030E-03  -0.9283615719E-04  -0.8273319984E-03   0.0000000000E+00   0.0000000000E+00   0.2770497496E+00
   0.2543412638E+00   0.2317220946E+00   0.7158397292E-04  -0.1133393363E-04   0.5726717833E-03  -0.9067146904E-04   0.2728678246E+00  -0.3598712810E-03   0.0000000000E+00  -0.3863489383E-02   0.0000000000E+00   0.0000000000E+00   0.2729757860E-02  -0.8222021865E-03  -0.1004507240E-03  -0.8175238599E-03   0.0000000000E+00   0.0000000000E+00   0.2731445208E+00
   0.2534102851E+00   0.2498823590E+00   0.7027778630E-04  -0.1307121758E-04   0.5622222904E-03  -0.1045697406E-03   0.2856911325E+00   0.1195658545E-02   0.0000000000E+00  -0.1104901416E-02   0.0000000000E+00   0.0000000000E+00   0.2853324349E-02  -0.8451168120E-03  -0.2872743682E-04  -0.8606603731E-03   0.0000000000E+00   0.0000000000E+00   0.2850994230E+00
   0.2339098671E+00   0.2498721061E+00   0.6405923486E-04  -0.1421043871E-04   0.5124738789E-03  -0.1136835097E-03   0.2906770256E+00   0.1288254339E-02   0.0000000000E+00  -0.9722365287E-03   0.0000000000E+00   0.0000000000E+00   0.2902905493E-02  -0.8591485335E-03  -0.2527814975E-04  -0.8758958399E-03   0.0000000000E+00   0.0000000000E+00   0.2900437682E+00
   0.3119059460E+00   0.2498993559E+00   0.8831377352E-04  -0.1118267779E-04   0.7065101882E-03  -0.8946142231E-04   0.2726930169E+00   0.9023710577E-03   0.0000000000E+00  -0.6114771294E-03   0.0000000000E+00   0.0000000000E+00   0.2724223055E-02  -0.8090553400E-03  -0.1589840536E-04  -0.8207861637E-03   0.0000000000E+00   0.0000000000E+00   0.2722450520E+00
   0.3123017061E+00   0.2311866376E+00   0.8879889990E-04  -0.9509266283E-05   0.7103911992E-03  -0.7607413026E-04   0.2634270250E+00   0.4690456081E-03   0.0000000000E+00  -0.2149610744E-02   0.0000000000E+00   0.0000000000E+00   0.2632863114E-02  -0.7855906190E-03  -0.5588987935E-04  -0.7916882119E-03   0.0000000000E+00   0.0000000000E+00   0.2632270357E+00
   0.5594800190E-01   0.8291436778E-01   0.4344202196E-04  -0.2584352481E-04   0.3475361757E-03  -0.2067481985E-03   0.3223347769E+00   0.1097182004E+00   0.0000000000E+00  -0.1632707271E+00   0.0000000000E+00   0.0000000000E+00   0.2894193168E-02   0.1301776730E-03  -0.4245038904E-02  -0.1296158932E-02   0.0000000000E+00   0.0000000000E+00   0.3889387718E+00
   0.7230041296E-01   0.9394779098E-01   0.4116541761E-04  -0.2148080201E-04   0.3293233409E-03  -0.1718464160E-03   0.2586822855E+00  -0.5704245532E-02   0.0000000000E+00  -0.6811730365E-01   0.0000000000E+00   0.0000000000E+00   0.2603935592E-02  -0.8330893119E-03  -0.1771049895E-02  -0.7589341199E-03   0.0000000000E+00   0.0000000000E+00   0.2860763001E+00
   0.6227900524E-01   0.1067581818E+00   0.3232192675E-04  -0.2558068784E-04   0.2585754140E-03  -0.2046455027E-03   0.3142843554E+00   0.3458101906E-02   0.0000000000E+00  -0.4110500675E-01   0.0000000000E+00   0.0000000000E+00   0.3132469248E-02  -0.9082720472E-03  -0.1068730175E-02  -0.9532273719E-03   0.0000000000E+00   0.0000000000E+00   0.3170069954E+00
   0.3853391254E-01   0.9211690324E-01   0.2950777079E-04  -0.3011651786E-04   0.2360621663E-03  -0.2409321429E-03   0.4711413154E+00   0.8094769916E-01   0.0000000000E+00  -0.1227015675E+00   0.0000000000E+00   0.0000000000E+00   0.4468570056E-02  -0.6039469545E-03  -0.3190240756E-02  -0.1656267044E-02   0.0000000000E+00   0.0000000000E+00   0.4783580570E+00
   0.0000000000E+00   0.1996382167E+00   0.0000000000E+00  -0.4019847649E-04   0.0000000000E+00  -0.3215878119E-03   0.2495860914E+00   0.2296745842E-01   0.0000000000E+00   0.5987746323E-02   0.0000000000E+00   0.0000000000E+00   0.2426958538E-02  -0.5190836898E-03   0.1556814044E-03  -0.8176606493E-03   0.0000000000E+00   0.0000000000E+00   0.2389499156E+00
   0.0000000000E+00   0.1829797866E+00   0.0000000000E+00  -0.3928337785E-04   0.0000000000E+00  -0.3142670228E-03   0.2726620689E+00   0.3589960338E-01   0.0000000000E+00   0.6322462973E-02   0.0000000000E+00   0.0000000000E+00   0.2618921879E-02  -0.4589901730E-03   0.1643840373E-03  -0.9256850170E-03   0.0000000000E+00   0.0000000000E+00   0.2566282939E+00
   0.3666768890E-01   0.1165765040E+00   0.1789455522E-04  -0.3232355351E-04   0.1431564417E-03  -0.2585884281E-03   0.4251222291E+00   0.5614135000E-01   0.0000000000E+00  -0.4478602413E-01   0.0000000000E+00   0.0000000000E+00   0.4082798241E-02  -0.7139531872E-03  -0.1164436627E-02  -0.1443790737E-02   0.0000000000E+00   0.0000000000E+00   0.4118646817E+00
   0.2674659260E+00   0.0000000000E+00   0.8880500343E-04   0.0000000000E+00   0.7104400274E-03   0.0000000000E+00   0.1230377666E+00   0.3458237271E-01   0.0000000000E+00  -0.1848266722E-02   0.0000000000E+00   0.0000000000E+00   0.1126630548E-02  -0.2328957269E-04  -0.4805493478E-04  -0.4728604179E-03   0.0000000000E+00   0.0000000000E+00   0.1098729654E+00
   0.2694259316E+00   0.1829100283E-01   0.8888740044E-04  -0.5641924454E-07   0.7110992035E-03  -0.4513539563E-06   0.1257314020E+00   0.3398276327E-01   0.0000000000E+00  -0.5503878816E-02   0.0000000000E+00   0.0000000000E+00   0.1155365730E-02  -0.3736657331E-04  -0.1431008492E-03  -0.4791424958E-03   0.0000000000E+00   0.0000000000E+00   0.1130901252E+00
   0.2372562961E+00   0.7430631919E-01   0.8132145904E-04  -0.1097434428E-05   0.6505716723E-03  -0.8779475425E-05   0.1507271471E+00   0.1463991644E-01   0.0000000000E+00  -0.2791402959E-01   0.0000000000E+00   0.0000000000E+00   0.1463351722E-02  -0.3057822769E-03  -0.7257647692E-03  -0.4961011906E-03   0.0000000000E+00   0.0000000000E+00   0.1517976142E+00
   0.2559761638E+00   0.7382991284E-01   0.8439942041E-04  -0.8864840720E-06   0.6751953633E-03  -0.7091872576E-05   0.1523958532E+00   0.2026097766E-01   0.0000000000E+00  -0.2231838822E-01   0.0000000000E+00   0.0000000000E+00   0.1463175599E-02  -0.2545777830E-03  -0.5802780938E-03  -0.5179704926E-03   0.0000000000E+00   0.0000000000E+00   0.1484060880E+00
   0.3111836129E+00   0.3712580712E-01   0.9423954925E-04  -0.1283310338E-06   0.7539163940E-03  -0.1026648271E-05   0.1400766514E+00   0.3592025921E-01   0.0000000000E+00  -0.5271730765E-02   0.0000000000E+00   0.0000000000E+00   0.1293005737E-02  -0.6102736222E-04  -0.1370649999E-03  -0.5279907319E-03   0.0000000000E+00   0.0000000000E+00   0.1263174686E+00
   0.2912628524E+00   0.3677595839E-01   0.9141560164E-04  -0.1423234057E-06   0.7313248131E-03  -0.1138587246E-05   0.1368616611E+00   0.3433635013E-01   0.0000000000E+00  -0.8112887446E-02   0.0000000000E+00   0.0000000000E+00   0.1265607561E-02  -0.6722148197E-04  -0.2109350736E-03  -0.5135940337E-03   0.0000000000E+00   0.0000000000E+00   0.1240813318E+00
   0.3508999940E+00   0.2114703534E+00   0.1000000000E-03  -0.7567848025E-05   0.8000000000E-03  -0.6054278420E-04   0.2508198710E+00   0.2651071348E-02   0.0000000000E+00   0.6734506164E-03   0.0000000000E+00   0.0000000000E+00   0.2500245496E-02  -0.7259488995E-03   0.1750971603E-04  -0.7604128270E-03   0.0000000000E+00   0.0000000000E+00   0.2495060324E+00
   0.3317606363E+00   0.2119118396E+00   0.9469092110E-04  -0.7669373064E-05   0.7575273688E-03  -0.6135498451E-04   0.2512514288E+00   0.2471817305E-02   0.0000000000E+00  -0.2379964172E-02   0.0000000000E+00   0.0000000000E+00   0.2505098837E-02  -0.7290361135E-03  -0.6187906846E-04  -0.7611697385E-03   0.0000000000E+00   0.0000000000E+00   0.2500543051E+00
   0.3316975350E+00   0.1926461015E+00   0.9494488858E-04  -0.6170726622E-05   0.7595591086E-03  -0.4936581297E-04   0.2391408008E+00   0.4913629526E-02   0.0000000000E+00  -0.3075584232E-02   0.0000000000E+00   0.0000000000E+00   0.2376667120E-02  -0.6682861072E-03  -0.7996519002E-04  -0.7321632911E-03   0.0000000000E+00   0.0000000000E+00   0.2367744348E+00
   0.3508999940E+00   0.1922529754E+00   0.1000000000E-03  -0.6080064966E-05   0.8000000000E-03  -0.4864051973E-04   0.2388087990E+00   0.5203538868E-02   0.0000000000E+00   0.6316722817E-03   0.0000000000E+00   0.0000000000E+00   0.2372477374E-02  -0.6643910084E-03   0.1642347932E-04  -0.7320370137E-03   0.0000000000E+00   0.0000000000E+00   0.2362482794E+00
   0.2933181026E+00   0.2126093940E+00   0.8392773261E-04  -0.8295115917E-05   0.6714218609E-03  -0.6636092733E-04   0.2548228253E+00   0.1734941072E-02   0.0000000000E+00  -0.5863749495E-02   0.0000000000E+00   0.0000000000E+00   0.2543023430E-02  -0.7471190653E-03  -0.1524574869E-03  -0.7696732992E-03   0.0000000000E+00   0.0000000000E+00   0.2541606944E+00
   0.2742103446E+00   0.2130634738E+00   0.7849061712E-04  -0.8876686335E-05   0.6279249370E-03  -0.7101349068E-04   0.2576642165E+00   0.1030591312E-02   0.0000000000E+00  -0.7014410828E-02   0.0000000000E+00   0.0000000000E+00   0.2573550391E-02  -0.7626867363E-03  -0.1823746815E-03  -0.7760844234E-03   0.0000000000E+00   0.0000000000E+00   0.2574354426E+00
   0.2740711821E+00   0.1942065221E+00   0.7951868220E-04  -0.7331209604E-05   0.6361494576E-03  -0.5864967683E-04   0.2450995575E+00   0.2171807250E-02   0.0000000000E+00  -0.9397112905E-02   0.0000000000E+00   0.0000000000E+00   0.2444480153E-02  -0.7135806000E-03  -0.2443249355E-03  -0.7418140943E-03   0.0000000000E+00   0.0000000000E+00   0.2445676660E+00
   0.2931812748E+00   0.1933859802E+00   0.8470531593E-04  -0.6756086725E-05   0.6776425274E-03  -0.5404869380E-04   0.2424509091E+00   0.3281826416E-02   0.0000000000E+00  -0.7891876064E-02   0.0000000000E+00   0.0000000000E+00   0.2414663612E-02  -0.6945344632E-03  -0.2051887777E-03  -0.7371982067E-03   0.0000000000E+00   0.0000000000E+00   0.2412113645E+00
   0.1950974622E+00   0.5815970117E-01   0.7676090656E-04  -0.1157358415E-05   0.6140872525E-03  -0.9258867319E-05   0.1251755515E+00   0.2626084777E-02   0.0000000000E+00  -0.3937406589E-01   0.0000000000E+00   0.0000000000E+00   0.1243877261E-02  -0.3492658067E-03  -0.1023725713E-02  -0.3834049089E-03   0.0000000000E+00   0.0000000000E+00   0.1412613353E+00
   0.2148109549E+00   0.5660635157E-01   0.7967510152E-04  -0.8035031991E-06   0.6374008121E-03  -0.6428025593E-05   0.1289753404E+00   0.1186102399E-01   0.0000000000E+00  -0.3170192727E-01   0.0000000000E+00   0.0000000000E+00   0.1254170332E-02  -0.2683157811E-03  -0.8242501091E-03  -0.4225090930E-03   0.0000000000E+00   0.0000000000E+00   0.1351396024E+00
   0.7344265704E-01   0.1303645982E+00   0.2929863793E-04  -0.2527386271E-04   0.2343891034E-03  -0.2021909017E-03   0.3200356298E+00  -0.1178229508E-01   0.0000000000E+00   0.6985299973E-02   0.0000000000E+00   0.0000000000E+00   0.3235703183E-02  -0.1077929840E-02   0.1816177993E-03  -0.9247600041E-03   0.0000000000E+00   0.0000000000E+00   0.3260296341E+00
   0.5570908817E-01   0.1222171157E+00   0.2460739718E-04  -0.2870491898E-04   0.1968591774E-03  -0.2296393518E-03   0.3702646157E+00   0.2459898321E-01   0.0000000000E+00  -0.1137318281E-01   0.0000000000E+00   0.0000000000E+00   0.3628849208E-02  -0.8648040151E-03  -0.2957027531E-03  -0.1184590797E-02   0.0000000000E+00   0.0000000000E+00   0.3583012297E+00
   0.8109618210E-01   0.1170809037E+00   0.3544018882E-04  -0.2168703484E-04   0.2835215105E-03  -0.1734962787E-03   0.3067930233E+00  -0.2129518249E-01   0.0000000000E+00  -0.1282271184E-01   0.0000000000E+00   0.0000000000E+00   0.3131815780E-02  -0.1133330895E-02  -0.3333905078E-03  -0.8564935224E-03   0.0000000000E+00   0.0000000000E+00   0.3184770854E+00
   0.5843501993E-01   0.2496521831E+00   0.1129848072E-04  -0.3864632041E-04   0.9038784576E-04  -0.3091705633E-03   0.1993291504E+00  -0.1968712025E-02   0.0000000000E+00   0.5324829318E-02   0.0000000000E+00   0.0000000000E+00   0.1999197641E-02  -0.6176745716E-03   0.1384455623E-03  -0.5920813153E-03   0.0000000000E+00   0.0000000000E+00   0.2003570657E+00
   0.7837397565E-01   0.2131271272E+00   0.2059087172E-04  -0.3261142629E-04   0.1647269738E-03  -0.2608914103E-03   0.2519551668E+00  -0.6719622204E-03   0.0000000000E+00   0.2879008030E-01   0.0000000000E+00   0.0000000000E+00   0.2521567554E-02  -0.7625851225E-03   0.7485420877E-03  -0.7538496136E-03   0.0000000000E+00   0.0000000000E+00   0.2570358283E+00
   0.7819809264E-01   0.1931562464E+00   0.2239920479E-04  -0.3090295616E-04   0.1791936383E-03  -0.2472236493E-03   0.2696195245E+00  -0.1783941170E-02   0.0000000000E+00   0.3393475761E-01   0.0000000000E+00   0.0000000000E+00   0.2701547068E-02  -0.8266979851E-03   0.8823036979E-03  -0.8035067499E-03   0.0000000000E+00   0.0000000000E+00   0.2768215955E+00
   0.1772031858E+00   0.2156534733E+00   0.4963819535E-04  -0.1623629999E-04   0.3971055628E-03  -0.1298903999E-03   0.2722687415E+00  -0.4920267556E-02   0.0000000000E+00   0.1803565735E-02   0.0000000000E+00   0.0000000000E+00   0.2737448218E-02  -0.8660089001E-03   0.4689270910E-04  -0.8020454218E-03   0.0000000000E+00   0.0000000000E+00   0.2747852761E+00
   0.3123288691E+00   0.1536960466E+00   0.9107189544E-04  -0.3740042275E-05   0.7285751636E-03  -0.2992033820E-04   0.2129606380E+00   0.1089141248E-01   0.0000000000E+00  -0.7888614681E-02   0.0000000000E+00   0.0000000000E+00   0.2096932142E-02  -0.5299677891E-03  -0.2051039817E-03  -0.6715561513E-03   0.0000000000E+00   0.0000000000E+00   0.2081737445E+00
   0.3123105067E+00   0.1733932322E+00   0.9042240577E-04  -0.4987196300E-05   0.7233792462E-03  -0.3989757040E-04   0.2270199813E+00   0.7355486674E-02   0.0000000000E+00  -0.6871964671E-02   0.0000000000E+00   0.0000000000E+00   0.2248133353E-02  -0.6075050771E-03  -0.1786710814E-03  -0.7031264039E-03   0.0000000000E+00   0.0000000000E+00   0.2237454942E+00
   0.1169049445E+00   0.2497412053E+00   0.2647527911E-04  -0.2875496312E-04   0.2118022329E-03  -0.2300397049E-03   0.2659600099E+00  -0.1300769080E-03   0.0000000000E+00   0.4339779793E-02   0.0000000000E+00   0.0000000000E+00   0.2659990329E-02  -0.7991807987E-03   0.1128342746E-03  -0.7974897989E-03   0.0000000000E+00   0.0000000000E+00   0.2659967242E+00
   0.7120609261E-01   0.7051825422E-01   0.5504569043E-04  -0.2138079808E-04   0.4403655234E-03  -0.1710463846E-03   0.1272001240E+00   0.6408942361E-01   0.0000000000E+00  -0.8243013193E-01   0.0000000000E+00   0.0000000000E+00   0.1079732970E-02   0.2592938640E-03  -0.2143183430E-02  -0.5738686430E-03   0.0000000000E+00   0.0000000000E+00   0.1674311689E+00
   0.8435825432E-01   0.7951538769E-01   0.5169976838E-04  -0.1662003463E-04   0.4135981470E-03  -0.1329602771E-03   0.1736639607E+00  -0.6266936799E-02   0.0000000000E+00  -0.6938497697E-01   0.0000000000E+00   0.0000000000E+00   0.1755440418E-02  -0.5836612502E-03  -0.1804009401E-02  -0.5021910718E-03   0.0000000000E+00   0.0000000000E+00   0.2150805434E+00
   0.2355435473E+00   0.2142138617E+00   0.6723214812E-04  -0.1079358833E-04   0.5378571849E-03  -0.8634870661E-04   0.2644774835E+00  -0.9433653225E-03   0.0000000000E+00  -0.6895951742E-02   0.0000000000E+00   0.0000000000E+00   0.2647604931E-02  -0.8028661038E-03  -0.1792947453E-03  -0.7906023546E-03   0.0000000000E+00   0.0000000000E+00   0.2652243759E+00
   0.1779047316E+00   0.1997820219E+00   0.5173751222E-04  -0.1460722932E-04   0.4139000978E-03  -0.1168578346E-03   0.2649418748E+00  -0.9284708406E-02   0.0000000000E+00   0.2241151919E-04   0.0000000000E+00   0.0000000000E+00   0.2677272873E-02  -0.8876727084E-03   0.5826994988E-06  -0.7669714991E-03   0.0000000000E+00   0.0000000000E+00   0.2696969310E+00
   0.1589384387E+00   0.1996335766E+00   0.4609107313E-04  -0.1709570653E-04   0.3687285850E-03  -0.1367656522E-03   0.2674503662E+00  -0.1131226512E-01   0.0000000000E+00   0.6175500673E-02   0.0000000000E+00   0.0000000000E+00   0.2708440458E-02  -0.9154737500E-03   0.1605630175E-03  -0.7684143033E-03   0.0000000000E+00   0.0000000000E+00   0.2734734262E+00
   0.1601176690E+00   0.1837734924E+00   0.4846833163E-04  -0.1527984993E-04   0.3877466530E-03  -0.1222387995E-03   0.2633572061E+00  -0.1713149246E-01   0.0000000000E+00   0.2808483499E-02   0.0000000000E+00   0.0000000000E+00   0.2684966538E-02  -0.9613865429E-03   0.7302057098E-04  -0.7386771409E-03   0.0000000000E+00   0.0000000000E+00   0.2723324504E+00
   0.1782956429E+00   0.1844700297E+00   0.5373199084E-04  -0.1303502965E-04   0.4298559268E-03  -0.1042802372E-03   0.2586035274E+00  -0.1348492515E-01   0.0000000000E+00  -0.3326515915E-02   0.0000000000E+00   0.0000000000E+00   0.2626490050E-02  -0.9106598338E-03  -0.8648941379E-04  -0.7353558069E-03   0.0000000000E+00   0.0000000000E+00   0.2656401473E+00
   0.2549551053E+00   0.2136311071E+00   0.7292869793E-04  -0.9694212198E-05   0.5834295835E-03  -0.7755369758E-04   0.2608808667E+00   0.8872131086E-04   0.0000000000E+00  -0.7408934308E-02   0.0000000000E+00   0.0000000000E+00   0.2608542503E-02  -0.7817553869E-03  -0.1926322920E-03  -0.7829087640E-03   0.0000000000E+00   0.0000000000E+00   0.2611508977E+00
   0.3125154149E+00   0.2122613970E+00   0.8932498464E-04  -0.7903893900E-05   0.7145998771E-03  -0.6323115120E-04   0.2527291586E+00   0.2175423747E-02   0.0000000000E+00  -0.4155188753E-02   0.0000000000E+00   0.0000000000E+00   0.2520765315E-02  -0.7364332384E-03  -0.1080349076E-03  -0.7647137471E-03   0.0000000000E+00   0.0000000000E+00   0.2517526077E+00
   0.3124740806E+00   0.1929756894E+00   0.8985828391E-04  -0.6385507111E-05   0.7188662713E-03  -0.5108405689E-04   0.2404730144E+00   0.4390090582E-02   0.0000000000E+00  -0.5580752434E-02   0.0000000000E+00   0.0000000000E+00   0.2391559873E-02  -0.6775181375E-03  -0.1450995633E-03  -0.7345893151E-03   0.0000000000E+00   0.0000000000E+00   0.2385083889E+00
   0.6731362245E-01   0.1438174002E+00   0.2452356068E-04  -0.2821564280E-04   0.1961884855E-03  -0.2257251424E-03   0.3203976124E+00   0.1891502140E-02   0.0000000000E+00   0.2205573258E-01   0.0000000000E+00   0.0000000000E+00   0.3198301617E-02  -0.9422778157E-03   0.5734490471E-03  -0.9668673435E-03   0.0000000000E+00   0.0000000000E+00   0.3216501243E+00
   0.6230782665E-01   0.1543664386E+00   0.2130611710E-04  -0.3033326792E-04   0.1704489368E-03  -0.2426661434E-03   0.3142368788E+00   0.6927529783E-02   0.0000000000E+00   0.2799014833E-01   0.0000000000E+00   0.0000000000E+00   0.3121586199E-02  -0.8734353387E-03   0.7277438567E-03  -0.9634932259E-03   0.0000000000E+00   0.0000000000E+00   0.3143766363E+00
   0.1532092335E+00   0.3950263305E-01   0.7481638904E-04  -0.1453971864E-05   0.5985311124E-03  -0.1163177491E-04   0.7479511074E-01  -0.2297475000E-01   0.0000000000E+00  -0.4719988323E-01   0.0000000000E+00   0.0000000000E+00   0.8168753573E-03  -0.4541328322E-03  -0.1227196964E-02  -0.1554610822E-03   0.0000000000E+00   0.0000000000E+00   0.1194956576E+00
   0.1359997385E+00   0.4587239188E-01   0.7183838343E-04  -0.2927479599E-05   0.5747070674E-03  -0.2341983679E-04   0.7463915948E-01  -0.4497210651E-01   0.0000000000E+00  -0.6178289405E-01   0.0000000000E+00   0.0000000000E+00   0.8813079143E-03  -0.6736385435E-03  -0.1606355245E-02  -0.8900115890E-04   0.0000000000E+00   0.0000000000E+00   0.1455404442E+00
   0.1632097416E+00   0.0000000000E+00   0.7886084245E-04   0.0000000000E+00   0.6308867396E-03   0.0000000000E+00   0.4525999476E-01  -0.3697795544E-02   0.0000000000E+00  -0.8124447977E-02   0.0000000000E+00   0.0000000000E+00   0.4636933342E-03  -0.1727579397E-03  -0.2112356474E-03  -0.1246865976E-03   0.0000000000E+00   0.0000000000E+00   0.4644789333E-01
   0.1671349546E+00   0.1949508904E-01   0.7833362562E-04  -0.4074617144E-06   0.6266690050E-03  -0.3259693716E-05   0.6020436691E-01  -0.4089048880E-02   0.0000000000E+00  -0.1989261708E-01   0.0000000000E+00   0.0000000000E+00   0.6143108157E-03  -0.2215035895E-03  -0.5172080440E-03  -0.1683459541E-03   0.0000000000E+00   0.0000000000E+00   0.7187225768E-01
   0.2762207347E+00   0.9271253712E-01   0.8659185802E-04  -0.1291364420E-05   0.6927348642E-03  -0.1033091536E-04   0.1682507368E+00   0.1977070634E-01   0.0000000000E+00  -0.1820147157E-01   0.0000000000E+00   0.0000000000E+00   0.1623195249E-02  -0.3070451472E-03  -0.4732382609E-03  -0.5640643295E-03   0.0000000000E+00   0.0000000000E+00   0.1623395529E+00
   0.2944360934E+00   0.9348005322E-01   0.8983371345E-04  -0.1172753729E-05   0.7186697076E-03  -0.9382029830E-05   0.1693297210E+00   0.2255570892E-01   0.0000000000E+00  -0.1355848905E-01   0.0000000000E+00   0.0000000000E+00   0.1625630084E-02  -0.2824320739E-03  -0.3525207154E-03  -0.5756562899E-03   0.0000000000E+00   0.0000000000E+00   0.1609453024E+00
   0.2945702292E+00   0.1128319485E+00   0.8894580493E-04  -0.1873616552E-05   0.7115664394E-03  -0.1498893242E-04   0.1832383067E+00   0.1799447812E-01   0.0000000000E+00  -0.1359650110E-01   0.0000000000E+00   0.0000000000E+00   0.1778399633E-02  -0.3697701390E-03  -0.3535090286E-03  -0.6036983546E-03   0.0000000000E+00   0.0000000000E+00   0.1764813355E+00
   0.2766733070E+00   0.1113564039E+00   0.8549177317E-04  -0.2016228971E-05   0.6839341854E-03  -0.1612983176E-04   0.1829845531E+00   0.1517809644E-01   0.0000000000E+00  -0.1772202458E-01   0.0000000000E+00   0.0000000000E+00   0.1784311242E-02  -0.3971726950E-03  -0.4607726392E-03  -0.5944879488E-03   0.0000000000E+00   0.0000000000E+00   0.1785273854E+00
   0.2936898266E+00   0.7443263021E-01   0.9053062404E-04  -0.6701214141E-06   0.7242449923E-03  -0.5360971313E-05   0.1564687947E+00   0.2716250880E-01   0.0000000000E+00  -0.1273914809E-01   0.0000000000E+00   0.0000000000E+00   0.1483200420E-02  -0.1977812961E-03  -0.3312178504E-03  -0.5508939104E-03   0.0000000000E+00   0.0000000000E+00   0.1464416705E+00
   0.1717789148E+00   0.3887414509E-01   0.7665298276E-04  -0.8982681176E-06   0.6132238621E-03  -0.7186144941E-05   0.8248248769E-01  -0.5869986285E-02   0.0000000000E+00  -0.4087831448E-01   0.0000000000E+00   0.0000000000E+00   0.8424348357E-03  -0.3061473259E-03  -0.1062836176E-02  -0.2298375042E-03   0.0000000000E+00   0.0000000000E+00   0.1104675880E+00
   0.2937547044E+00   0.1327241473E+00   0.8778860259E-04  -0.2801853295E-05   0.7023088207E-03  -0.2241482636E-04   0.1985358330E+00   0.1290581962E-01   0.0000000000E+00  -0.1302852515E-01   0.0000000000E+00   0.0000000000E+00   0.1946640871E-02  -0.4665493028E-03  -0.3387416540E-03  -0.6343249578E-03   0.0000000000E+00   0.0000000000E+00   0.1937090979E+00
   0.5205340248E-01   0.1830563776E+00   0.1537006482E-04  -0.3467904239E-04   0.1229605185E-03  -0.2774323391E-03   0.2779822942E+00   0.1327970373E-01   0.0000000000E+00   0.3223172810E-01   0.0000000000E+00   0.0000000000E+00   0.2739983831E-02  -0.7011498453E-03   0.8380249307E-03  -0.8737859937E-03   0.0000000000E+00   0.0000000000E+00   0.2773357120E+00
   0.5056431704E-01   0.1682879287E+00   0.1599453814E-04  -0.3378969771E-04   0.1279563051E-03  -0.2703175817E-03   0.2961951085E+00   0.2030894692E-01   0.0000000000E+00   0.3327606146E-01   0.0000000000E+00   0.0000000000E+00   0.2901024244E-02  -0.6854958563E-03   0.8651775981E-03  -0.9495121662E-03   0.0000000000E+00   0.0000000000E+00   0.2922931669E+00
   0.2925593307E+00   0.5550279374E-01   0.9105985715E-04  -0.3366178336E-06   0.7284788572E-03  -0.2692942669E-05   0.1454268271E+00   0.3116069543E-01   0.0000000000E+00  -0.1085384369E-01   0.0000000000E+00   0.0000000000E+00   0.1360786185E-02  -0.1246735271E-03  -0.2821999360E-03  -0.5297625677E-03   0.0000000000E+00   0.0000000000E+00   0.1339177631E+00
   0.2924433905E+00   0.1532582889E+00   0.8645272272E-04  -0.3985792490E-05   0.6916217818E-03  -0.3188633992E-04   0.2138048766E+00   0.9299546258E-02   0.0000000000E+00  -0.1155669599E-01   0.0000000000E+00   0.0000000000E+00   0.2110150127E-02  -0.5484191673E-03  -0.3004740958E-03  -0.6693132686E-03   0.0000000000E+00   0.0000000000E+00   0.2102374794E+00
   0.2713645458E+00   0.3669102546E-01   0.8866253081E-04  -0.1679935044E-06   0.7093002465E-03  -0.1343948035E-05   0.1323280341E+00   0.3188061162E-01   0.0000000000E+00  -0.1130515817E-01   0.0000000000E+00   0.0000000000E+00   0.1227638506E-02  -0.7817798602E-04  -0.2939341123E-03  -0.4926259371E-03   0.0000000000E+00   0.0000000000E+00   0.1211284359E+00
   0.2514639070E+00   0.3681235402E-01   0.8599810729E-04  -0.2098423046E-06   0.6879848584E-03  -0.1678738437E-05   0.1263085403E+00   0.2838481796E-01   0.0000000000E+00  -0.1505981970E-01   0.0000000000E+00   0.0000000000E+00   0.1177930950E-02  -0.9507744145E-04  -0.3915553121E-03  -0.4640800749E-03   0.0000000000E+00   0.0000000000E+00   0.1175755227E+00
   0.2342774513E+00   0.5569480465E-01   0.8249214562E-04  -0.5971718062E-06   0.6599371649E-03  -0.4777374450E-05   0.1336126288E+00   0.1940554560E-01   0.0000000000E+00  -0.2514471012E-01   0.0000000000E+00   0.0000000000E+00   0.1277909651E-02  -0.2067824303E-03  -0.6537624632E-03  -0.4590545232E-03   0.0000000000E+00   0.0000000000E+00   0.1323655875E+00
   0.2538052225E+00   0.5532325679E-01   0.8532105636E-04  -0.4682784131E-06   0.6825684509E-03  -0.3746227305E-05   0.1381634690E+00   0.2466722667E-01   0.0000000000E+00  -0.1961545490E-01   0.0000000000E+00   0.0000000000E+00   0.1307633010E-02  -0.1678181404E-03  -0.5100018273E-03  -0.4884920871E-03   0.0000000000E+00   0.0000000000E+00   0.1320448428E+00
   0.2354837606E+00   0.1969710097E+00   0.6867395333E-04  -0.9282253084E-05   0.5493916267E-03  -0.7425802467E-04   0.2529837647E+00  -0.1902024001E-02   0.0000000000E+00  -0.9724904382E-02   0.0000000000E+00   0.0000000000E+00   0.2535543719E-02  -0.7779715341E-03  -0.2528475139E-03  -0.7532452221E-03   0.0000000000E+00   0.0000000000E+00   0.2545049207E+00
   0.2548885945E+00   0.1956016537E+00   0.7418461132E-04  -0.8166250899E-05   0.5934768905E-03  -0.6533000719E-04   0.2487791690E+00   0.1489755829E-03   0.0000000000E+00  -0.1023735331E-01   0.0000000000E+00   0.0000000000E+00   0.2487344764E-02  -0.7448477513E-03  -0.2661711861E-03  -0.7467844339E-03   0.0000000000E+00   0.0000000000E+00   0.2493425175E+00
   0.1601882771E+00   0.7266612969E-01   0.6887367324E-04  -0.3280879045E-05   0.5509893859E-03  -0.2624703236E-04   0.1442305635E+00  -0.2839553748E-01   0.0000000000E+00  -0.5586964242E-01   0.0000000000E+00   0.0000000000E+00   0.1527492247E-02  -0.7166470652E-03  -0.1452610703E-02  -0.3475050779E-03   0.0000000000E+00   0.0000000000E+00   0.1869539829E+00
   0.1743984801E+00   0.6064580198E-01   0.7350556963E-04  -0.1768468923E-05   0.5880445570E-03  -0.1414775138E-04   0.1233789281E+00  -0.1274131669E-01   0.0000000000E+00  -0.4967788928E-01   0.0000000000E+00   0.0000000000E+00   0.1272013231E-02  -0.4975499512E-03  -0.1291625121E-02  -0.3319128342E-03   0.0000000000E+00   0.0000000000E+00   0.1560559318E+00
   0.1847612110E+00   0.8231438415E-01   0.7130200213E-04  -0.2769450119E-05   0.5704160170E-03  -0.2215560095E-04   0.1616738354E+00  -0.1456191999E-01   0.0000000000E+00  -0.4699778416E-01   0.0000000000E+00   0.0000000000E+00   0.1660424114E-02  -0.6306407061E-03  -0.1221942388E-02  -0.4413357462E-03   0.0000000000E+00   0.0000000000E+00   0.1877479756E+00
   0.1700038619E+00   0.8991712520E-01   0.6704043776E-04  -0.4128244575E-05   0.5363235021E-03  -0.3302595660E-04   0.1751975725E+00  -0.2653193368E-01   0.0000000000E+00  -0.4759545712E-01   0.0000000000E+00   0.0000000000E+00   0.1831571526E-02  -0.7909120543E-03  -0.1237481885E-02  -0.4459969165E-03   0.0000000000E+00   0.0000000000E+00   0.2069513208E+00
   0.9907650544E-01   0.2139498722E+00   0.2640274942E-04  -0.2883397683E-04   0.2112219953E-03  -0.2306718147E-03   0.2603501553E+00  -0.4976791237E-02   0.0000000000E+00   0.2589670242E-01   0.0000000000E+00   0.0000000000E+00   0.2618431927E-02  -0.8308183782E-03   0.6733142629E-03  -0.7661200921E-03   0.0000000000E+00   0.0000000000E+00   0.2665485088E+00
   0.1401099400E+00   0.1992065689E+00   0.4046811105E-04  -0.1995512545E-04   0.3237448884E-03  -0.1596410036E-03   0.2690870479E+00  -0.1264594100E-01   0.0000000000E+00   0.1325823601E-01   0.0000000000E+00   0.0000000000E+00   0.2728808302E-02  -0.9337205537E-03   0.3447141362E-03  -0.7693233207E-03   0.0000000000E+00   0.0000000000E+00   0.2765613568E+00
   0.1212017003E+00   0.1984308268E+00   0.3483547830E-04  -0.2316246916E-04   0.2786838264E-03  -0.1852997533E-03   0.2695073315E+00  -0.1257010164E-01   0.0000000000E+00   0.2066062213E-01   0.0000000000E+00   0.0000000000E+00   0.2732783620E-02  -0.9342230110E-03   0.5371761754E-03  -0.7708116897E-03   0.0000000000E+00   0.0000000000E+00   0.2782947985E+00
   0.2188751348E+00   0.7552389079E-01   0.7819242233E-04  -0.1423034445E-05   0.6255393786E-03  -0.1138427556E-04   0.1502804359E+00   0.7297712061E-02   0.0000000000E+00  -0.3415817028E-01   0.0000000000E+00   0.0000000000E+00   0.1480911223E-02  -0.3778641870E-03  -0.8881124273E-03  -0.4727344438E-03   0.0000000000E+00   0.0000000000E+00   0.1581257592E+00
   0.8055572538E-01   0.1525589849E+00   0.2773887510E-04  -0.2623568214E-04   0.2219110008E-03  -0.2098854571E-03   0.3009490874E+00  -0.1316699492E-01   0.0000000000E+00   0.2516007778E-01   0.0000000000E+00   0.0000000000E+00   0.3048991858E-02  -0.1034517211E-02   0.6541620224E-03  -0.8633462773E-03   0.0000000000E+00   0.0000000000E+00   0.3106550533E+00
   0.7003767725E-01   0.1664712478E+00   0.2245101705E-04  -0.2995746485E-04   0.1796081364E-03  -0.2396597188E-03   0.2941101741E+00   0.1550404959E-02   0.0000000000E+00   0.3304870095E-01   0.0000000000E+00   0.0000000000E+00   0.2936450526E-02  -0.8668264726E-03   0.8592662246E-03  -0.8869817371E-03   0.0000000000E+00   0.0000000000E+00   0.2988823447E+00
   0.1418330513E+00   0.1829535765E+00   0.4307914021E-04  -0.1793650052E-04   0.3446331217E-03  -0.1434920041E-03   0.2678322822E+00  -0.1913362938E-01   0.0000000000E+00   0.1006669182E-01   0.0000000000E+00   0.0000000000E+00   0.2735723710E-02  -0.9948331403E-03   0.2617339874E-03  -0.7460959584E-03   0.0000000000E+00   0.0000000000E+00   0.2783875362E+00
   0.2732271586E+00   0.1744538682E+00   0.8051295416E-04  -0.5847976629E-05   0.6441036333E-03  -0.4678381303E-04   0.2323562479E+00   0.3654705785E-02   0.0000000000E+00  -0.1226955054E-01   0.0000000000E+00   0.0000000000E+00   0.2312598361E-02  -0.6605216858E-03  -0.3190083139E-03  -0.7080328610E-03   0.0000000000E+00   0.0000000000E+00   0.2315148351E+00
   0.2927125666E+00   0.1735813581E+00   0.8550917265E-04  -0.5306873992E-05   0.6840733812E-03  -0.4245499193E-04   0.2286297956E+00   0.5993752664E-02   0.0000000000E+00  -0.1008303700E-01   0.0000000000E+00   0.0000000000E+00   0.2268316698E-02  -0.6259518600E-03  -0.2621589619E-03  -0.7038706447E-03   0.0000000000E+00   0.0000000000E+00   0.2263695522E+00
   0.9454656562E-01   0.1608227433E+00   0.3121894712E-04  -0.2417196605E-04   0.2497515770E-03  -0.1933757284E-03   0.2904313372E+00  -0.1990607055E-01   0.0000000000E+00   0.2415778404E-01   0.0000000000E+00   0.0000000000E+00   0.2964031583E-02  -0.1070354717E-02   0.6281023852E-03  -0.8115757998E-03   0.0000000000E+00   0.0000000000E+00   0.3036731617E+00
   0.8742334333E-01   0.1752383570E+00   0.2708576978E-04  -0.2727567140E-04   0.2166861582E-03  -0.2182053712E-03   0.2847872074E+00  -0.1070480302E-01   0.0000000000E+00   0.3264970402E-01   0.0000000000E+00   0.0000000000E+00   0.2879986483E-02  -0.9614096524E-03   0.8488923045E-03  -0.8222472132E-03   0.0000000000E+00   0.0000000000E+00   0.2957417669E+00
   0.2748681012E+00   0.7396670636E-01   0.8746657741E-04  -0.7531043247E-06   0.6997326193E-03  -0.6024834597E-05   0.1544535968E+00   0.2432308648E-01   0.0000000000E+00  -0.1728098776E-01   0.0000000000E+00   0.0000000000E+00   0.1471566709E-02  -0.2201299257E-03  -0.4493056818E-03  -0.5363300500E-03   0.0000000000E+00   0.0000000000E+00   0.1468798774E+00
   0.2268255860E+00   0.1122723406E+00   0.7529955190E-04  -0.3178485994E-05   0.6023964152E-03  -0.2542788795E-04   0.1888607062E+00  -0.7768205484E-04   0.0000000000E+00  -0.2922063354E-01   0.0000000000E+00   0.0000000000E+00   0.1888840108E-02  -0.5673589391E-03  -0.7597364719E-03  -0.5663490724E-03   0.0000000000E+00   0.0000000000E+00   0.1955081778E+00
   0.2231353005E+00   0.9416455310E-01   0.7672361058E-04  -0.2224933280E-05   0.6137888846E-03  -0.1779946624E-04   0.1709326308E+00   0.3043936875E-02   0.0000000000E+00  -0.3276451946E-01   0.0000000000E+00   0.0000000000E+00   0.1700194497E-02  -0.4823585237E-03  -0.8518775061E-03  -0.5219297030E-03   0.0000000000E+00   0.0000000000E+00   0.1786184041E+00
   0.2731793192E+00   0.5525856624E-01   0.8816813139E-04  -0.3868401912E-06   0.7053450512E-03  -0.3094721530E-05   0.1421573358E+00   0.2850576593E-01   0.0000000000E+00  -0.1495919433E-01   0.0000000000E+00   0.0000000000E+00   0.1336056060E-02  -0.1414143481E-03  -0.3889390526E-03  -0.5119893052E-03   0.0000000000E+00   0.0000000000E+00   0.1327852100E+00
   0.1575226079E+00   0.5347528094E-01   0.7255420742E-04  -0.2111239807E-05   0.5804336593E-03  -0.1688991846E-04   0.1115327439E+00  -0.2461253143E-01   0.0000000000E+00  -0.5415976896E-01   0.0000000000E+00   0.0000000000E+00   0.1189165033E-02  -0.5807235460E-03  -0.1408153993E-02  -0.2607606374E-03   0.0000000000E+00   0.0000000000E+00   0.1569777804E+00
   0.1473802978E+00   0.6072823241E-01   0.6958897962E-04  -0.3182321472E-05   0.5567118370E-03  -0.2545857177E-04   0.1181758331E+00  -0.3267540560E-01   0.0000000000E+00  -0.5671843973E-01   0.0000000000E+00   0.0000000000E+00   0.1279784548E-02  -0.6812815553E-03  -0.1474679433E-02  -0.2565012826E-03   0.0000000000E+00   0.0000000000E+00   0.1697723838E+00
   0.1242496313E+00   0.1489534941E+00   0.4270859155E-04  -0.1679565105E-04   0.3416687324E-03  -0.1343652084E-03   0.2728503428E+00  -0.3564072465E-01   0.0000000000E+00   0.2287643928E-02   0.0000000000E+00   0.0000000000E+00   0.2835425602E-02  -0.1174958275E-02   0.5947874212E-04  -0.7116288544E-03   0.0000000000E+00   0.0000000000E+00   0.2921972150E+00
   0.1450440012E+00   0.1472402845E+00   0.4937935311E-04  -0.1319372648E-04   0.3950348249E-03  -0.1055498118E-03   0.2578772795E+00  -0.3453893716E-01   0.0000000000E+00  -0.9212335291E-02   0.0000000000E+00   0.0000000000E+00   0.2682389606E-02  -0.1119021210E-02  -0.2395207176E-03  -0.6700150270E-03   0.0000000000E+00   0.0000000000E+00   0.2772087313E+00
   0.1435784782E+00   0.1659916301E+00   0.4595446466E-04  -0.1571954883E-04   0.3676357173E-03  -0.1257563907E-03   0.2657112355E+00  -0.2752524335E-01   0.0000000000E+00   0.3075827760E-02   0.0000000000E+00   0.0000000000E+00   0.2739688085E-02  -0.1072386140E-02   0.7997152175E-04  -0.7145579765E-03   0.0000000000E+00   0.0000000000E+00   0.2804325363E+00
   0.1258489094E+00   0.1661448117E+00   0.4048703891E-04  -0.1869336493E-04   0.3238963113E-03  -0.1495469195E-03   0.2721779978E+00  -0.2833227695E-01   0.0000000000E+00   0.1051677300E-01   0.0000000000E+00   0.0000000000E+00   0.2806776808E-02  -0.1099856763E-02   0.2734360979E-03  -0.7315371624E-03   0.0000000000E+00   0.0000000000E+00   0.2879054487E+00
   0.6686633490E-01   0.1805992661E+00   0.2011454390E-04  -0.3183953944E-04   0.1609163512E-03  -0.2547163155E-03   0.2779564390E+00   0.2881733528E-02   0.0000000000E+00   0.3300772117E-01   0.0000000000E+00   0.0000000000E+00   0.2770919190E-02  -0.8050519819E-03   0.8582007505E-03  -0.8425145177E-03   0.0000000000E+00   0.0000000000E+00   0.2823019672E+00
   0.1098630299E+00   0.1659251852E+00   0.3547321319E-04  -0.2166019710E-04   0.2837857055E-03  -0.1732815768E-03   0.2815719768E+00  -0.2552353391E-01   0.0000000000E+00   0.1895383455E-01   0.0000000000E+00   0.0000000000E+00   0.2892290370E-02  -0.1099951270E-02   0.4927996982E-03  -0.7681453287E-03   0.0000000000E+00   0.0000000000E+00   0.2969818124E+00
   0.1057218887E+00   0.1803771708E+00   0.3226574442E-04  -0.2415312805E-04   0.2581259553E-03  -0.1932250244E-03   0.2771094975E+00  -0.1632364910E-01   0.0000000000E+00   0.2579078292E-01   0.0000000000E+00   0.0000000000E+00   0.2820065922E-02  -0.9945649835E-03   0.6705603559E-03  -0.7823575452E-03   0.0000000000E+00   0.0000000000E+00   0.2890127587E+00
   0.2152830942E+00   0.1815997140E+00   0.6454336076E-04  -0.9284216794E-05   0.5163468861E-03  -0.7427373435E-04   0.2471845119E+00  -0.6373527644E-02   0.0000000000E+00  -0.1156338182E-01   0.0000000000E+00   0.0000000000E+00   0.2490965702E-02  -0.8052888122E-03  -0.3006479274E-03  -0.7224329528E-03   0.0000000000E+00   0.0000000000E+00   0.2512328722E+00
   0.2345362803E+00   0.1797495889E+00   0.6997636434E-04  -0.7873235266E-05   0.5598109148E-03  -0.6298588212E-04   0.2416360514E+00  -0.2618643373E-02   0.0000000000E+00  -0.1309602396E-01   0.0000000000E+00   0.0000000000E+00   0.2424216444E-02  -0.7510945879E-03  -0.3404966230E-03  -0.7170522240E-03   0.0000000000E+00   0.0000000000E+00   0.2440184100E+00
   0.2759824084E+00   0.1304787497E+00   0.8409204709E-04  -0.2965918183E-05   0.6727363767E-03  -0.2372734546E-04   0.1970822379E+00   0.1062747877E-01   0.0000000000E+00  -0.1716153906E-01   0.0000000000E+00   0.0000000000E+00   0.1938939943E-02  -0.4849719259E-03  -0.4462000156E-03  -0.6231291500E-03   0.0000000000E+00   0.0000000000E+00   0.1942457969E+00
   0.2710538960E+00   0.1522471313E+00   0.8148455507E-04  -0.4352748803E-05   0.6518764406E-03  -0.3482199042E-04   0.2154230736E+00   0.5897104861E-02   0.0000000000E+00  -0.1559444350E-01   0.0000000000E+00   0.0000000000E+00   0.2136539422E-02  -0.5872981722E-03  -0.4054555311E-03  -0.6639605354E-03   0.0000000000E+00   0.0000000000E+00   0.2142458893E+00
   0.2539714887E+00   0.1774262653E+00   0.7533052124E-04  -0.6743409946E-05   0.6026441699E-03  -0.5394727956E-04   0.2358166013E+00   0.7780054526E-03   0.0000000000E+00  -0.1325826689E-01   0.0000000000E+00   0.0000000000E+00   0.2355831996E-02  -0.6996697493E-03  -0.3447149391E-03  -0.7097838202E-03   0.0000000000E+00   0.0000000000E+00   0.2365451505E+00
   0.1226629674E+00   0.5807912806E-01   0.6696815045E-04  -0.5385848395E-05   0.5357452036E-03  -0.4308678716E-04   0.9998172397E-01  -0.5945540677E-01   0.0000000000E+00  -0.6076206655E-01   0.0000000000E+00   0.0000000000E+00   0.1178183460E-02  -0.8944992396E-03  -0.1579813730E-02  -0.1215789516E-03   0.0000000000E+00   0.0000000000E+00   0.1768835851E+00
   0.1105793859E+00   0.7302209065E-01   0.5979421043E-04  -0.9052372307E-05   0.4783536834E-03  -0.7241897846E-04   0.1556973999E+00  -0.5793416353E-01   0.0000000000E+00  -0.6360378786E-01   0.0000000000E+00   0.0000000000E+00   0.1730776489E-02  -0.1046433835E-02  -0.1653698484E-02  -0.2932897090E-03   0.0000000000E+00   0.0000000000E+00   0.2201145858E+00
   0.1480430042E+00   0.8119063857E-01   0.6462602476E-04  -0.4952948205E-05   0.5170081981E-03  -0.3962358564E-04   0.1683755106E+00  -0.4051288570E-01   0.0000000000E+00  -0.5652351257E-01   0.0000000000E+00   0.0000000000E+00   0.1805293763E-02  -0.9102553888E-03  -0.1469611327E-02  -0.3835878747E-03   0.0000000000E+00   0.0000000000E+00   0.2155675017E+00
   0.1358200047E+00   0.7046258299E-01   0.6521940604E-04  -0.5040068168E-05   0.5217552484E-03  -0.4032054534E-04   0.1428265259E+00  -0.4656889484E-01   0.0000000000E+00  -0.6315342109E-01   0.0000000000E+00   0.0000000000E+00   0.1567971944E-02  -0.8941685263E-03  -0.1641988948E-02  -0.2887728933E-03   0.0000000000E+00   0.0000000000E+00   0.2020873227E+00
   0.1012427530E+00   0.1967259341E+00   0.2898800097E-04  -0.2674931905E-04   0.2319040077E-03  -0.2139945524E-03   0.2703951784E+00  -0.1024502802E-01   0.0000000000E+00   0.2826336807E-01   0.0000000000E+00   0.0000000000E+00   0.2734686868E-02  -0.9136358154E-03   0.7348475698E-03  -0.7804504511E-03   0.0000000000E+00   0.0000000000E+00   0.2799632978E+00
   0.1238701152E+00   0.1821783656E+00   0.3768124749E-04  -0.2092260133E-04   0.3014499799E-03  -0.1673808106E-03   0.2726906436E+00  -0.1957927060E-01   0.0000000000E+00   0.1809737594E-01   0.0000000000E+00   0.0000000000E+00   0.2785644248E-02  -0.1013864637E-02   0.4705317744E-03  -0.7593341191E-03   0.0000000000E+00   0.0000000000E+00   0.2846484838E+00
   0.1615707061E+00   0.1678336715E+00   0.5106712370E-04  -0.1334639187E-04   0.4085369896E-03  -0.1067711349E-03   0.2579159848E+00  -0.2272119686E-01   0.0000000000E+00  -0.3766939549E-02   0.0000000000E+00   0.0000000000E+00   0.2647323439E-02  -0.1000959923E-02  -0.9794042829E-04  -0.7055843639E-03   0.0000000000E+00   0.0000000000E+00   0.2700448062E+00
   0.1786474155E+00   0.1697456180E+00   0.5573716759E-04  -0.1149777937E-04   0.4458973407E-03  -0.9198223497E-04   0.2517339895E+00  -0.1743809598E-01   0.0000000000E+00  -0.8077800311E-02   0.0000000000E+00   0.0000000000E+00   0.2569654183E-02  -0.9295829284E-03  -0.2100228081E-03  -0.7028876807E-03   0.0000000000E+00   0.0000000000E+00   0.2612476642E+00
   0.8835184982E-01   0.1396252759E+00   0.3261826940E-04  -0.2290367640E-04   0.2609461552E-03  -0.1832294112E-03   0.3029271169E+00  -0.2453152178E-01   0.0000000000E+00   0.1161982099E-01   0.0000000000E+00   0.0000000000E+00   0.3102865734E-02  -0.1154096569E-02   0.3021153457E-03  -0.8351867854E-03   0.0000000000E+00   0.0000000000E+00   0.3165092237E+00
   0.9984973962E-01   0.8884581174E-01   0.5117240260E-04  -0.1332163962E-04   0.4093792208E-03  -0.1065731170E-03   0.2213328328E+00  -0.5203462928E-01   0.0000000000E+00  -0.5212586149E-01   0.0000000000E+00   0.0000000000E+00   0.2369432216E-02  -0.1184344791E-02  -0.1355272399E-02  -0.5078946107E-03   0.0000000000E+00   0.0000000000E+00   0.2644647461E+00
   0.9671915160E-01   0.1274782800E+00   0.3808635514E-04  -0.1938222648E-04   0.3046908411E-03  -0.1550578118E-03   0.2918467242E+00  -0.3764343433E-01   0.0000000000E+00  -0.2712627421E-02   0.0000000000E+00   0.0000000000E+00   0.3031397545E-02  -0.1251974516E-02  -0.7052831294E-04  -0.7626098695E-03   0.0000000000E+00   0.0000000000E+00   0.3117909292E+00
   0.2512201998E+00   0.1600461768E+00   0.7606587216E-04  -0.5538131684E-05   0.6085269773E-03  -0.4430505347E-04   0.2235183459E+00   0.5358490707E-03   0.0000000000E+00  -0.1644171953E-01   0.0000000000E+00   0.0000000000E+00   0.2233575912E-02  -0.6651965470E-03  -0.4274847077E-03  -0.6721625849E-03   0.0000000000E+00   0.0000000000E+00   0.2250547303E+00
   0.2600810663E+00   0.1275069234E+00   0.8086514634E-04  -0.3137843849E-05   0.6469211707E-03  -0.2510275079E-04   0.1983692604E+00   0.7945382994E-02   0.0000000000E+00  -0.2019947926E-01   0.0000000000E+00   0.0000000000E+00   0.1959856455E-02  -0.5156539513E-03  -0.5251864607E-03  -0.6189439302E-03   0.0000000000E+00   0.0000000000E+00   0.1976294704E+00
   0.1967089177E+00   0.1839448068E+00   0.5908974905E-04  -0.1104835360E-04   0.4727179924E-03  -0.8838682880E-04   0.2526476796E+00  -0.1007734283E-01   0.0000000000E+00  -0.8194430056E-02   0.0000000000E+00   0.0000000000E+00   0.2556708825E-02  -0.8587164672E-03  -0.2130551815E-03  -0.7277110104E-03   0.0000000000E+00   0.0000000000E+00   0.2582173742E+00
   0.2589998042E+00   0.1414685011E+00   0.7947391394E-04  -0.4022652311E-05   0.6357913115E-03  -0.3218121849E-04   0.2120216708E+00   0.6969314583E-02   0.0000000000E+00  -0.1796736932E-01   0.0000000000E+00   0.0000000000E+00   0.2099308764E-02  -0.5663718665E-03  -0.4671516024E-03  -0.6569729561E-03   0.0000000000E+00   0.0000000000E+00   0.2109079524E+00
   0.2466345737E+00   0.1446010234E+00   0.7631718782E-04  -0.4618627031E-05   0.6105375025E-03  -0.3694901625E-04   0.2129724929E+00   0.2116109002E-02   0.0000000000E+00  -0.1951583990E-01   0.0000000000E+00   0.0000000000E+00   0.2123376602E-02  -0.6177563887E-03  -0.5074118374E-03  -0.6452658057E-03   0.0000000000E+00   0.0000000000E+00   0.2145849222E+00
   0.1922242540E+00   0.1589078747E+00   0.6095122556E-04  -0.9076585807E-05   0.4876098045E-03  -0.7261268646E-04   0.2391084919E+00  -0.1389030804E-01   0.0000000000E+00  -0.1523490006E-01   0.0000000000E+00   0.0000000000E+00   0.2432755844E-02  -0.8562285563E-03  -0.3961074016E-03  -0.6756545517E-03   0.0000000000E+00   0.0000000000E+00   0.2477538653E+00
   0.1950488520E+00   0.1697015408E+00   0.6035111570E-04  -0.9840353973E-05   0.4828089256E-03  -0.7872283178E-04   0.2447070736E+00  -0.1314719809E-01   0.0000000000E+00  -0.1199882635E-01   0.0000000000E+00   0.0000000000E+00   0.2486512330E-02  -0.8655932017E-03  -0.3119694851E-03  -0.6946796266E-03   0.0000000000E+00   0.0000000000E+00   0.2523943757E+00
   0.1802957853E+00   0.1552076087E+00   0.5820280580E-04  -0.9829255749E-05   0.4656224464E-03  -0.7863404599E-04   0.2435222185E+00  -0.1943679882E-01   0.0000000000E+00  -0.1393248400E-01   0.0000000000E+00   0.0000000000E+00   0.2493532581E-02  -0.9249346436E-03  -0.3622445840E-03  -0.6722562590E-03   0.0000000000E+00   0.0000000000E+00   0.2548587243E+00
   0.1012984673E+00   0.1483767228E+00   0.3539036379E-04  -0.2119724464E-04   0.2831229103E-03  -0.1695779571E-03   0.2881750827E+00  -0.3045005597E-01   0.0000000000E+00   0.1299774738E-01   0.0000000000E+00   0.0000000000E+00   0.2973100995E-02  -0.1169025808E-02   0.3379414319E-03  -0.7731750801E-03   0.0000000000E+00   0.0000000000E+00   0.3053122255E+00
   0.2010582247E+00   0.7796308237E-01   0.7489662991E-04  -0.1935669970E-05   0.5991730392E-03  -0.1548535976E-04   0.1527020208E+00  -0.2206180733E-02   0.0000000000E+00  -0.4088157279E-01   0.0000000000E+00   0.0000000000E+00   0.1533638751E-02  -0.4801678699E-03  -0.1062920893E-02  -0.4514875203E-03   0.0000000000E+00   0.0000000000E+00   0.1692458313E+00
   0.2119957617E+00   0.1146355708E+00   0.7183140705E-04  -0.3910799307E-05   0.5746512564E-03  -0.3128639445E-04   0.1946323294E+00  -0.6843897914E-02   0.0000000000E+00  -0.3127479918E-01   0.0000000000E+00   0.0000000000E+00   0.1966854988E-02  -0.6523359675E-03  -0.8131447787E-03  -0.5633652946E-03   0.0000000000E+00   0.0000000000E+00   0.2053501087E+00
   0.2072373250E+00   0.9686953091E-01   0.7329955840E-04  -0.2873977121E-05   0.5863964672E-03  -0.2299181697E-04   0.1762709544E+00  -0.5835634856E-02   0.0000000000E+00  -0.3689314832E-01   0.0000000000E+00   0.0000000000E+00   0.1780216448E-02  -0.5871692117E-03  -0.9592218562E-03  -0.5113059586E-03   0.0000000000E+00   0.0000000000E+00   0.1902065858E+00
   0.9030742531E-01   0.1038398496E+00   0.4279981241E-04  -0.1763415735E-04   0.3423984993E-03  -0.1410732588E-03   0.2810637006E+00  -0.3584629310E-01   0.0000000000E+00  -0.3239970639E-01   0.0000000000E+00   0.0000000000E+00   0.2918175885E-02  -0.1201654033E-02  -0.8423923660E-03  -0.7356522225E-03   0.0000000000E+00   0.0000000000E+00   0.3036018874E+00
   0.1250085179E+00   0.8331673572E-01   0.5919088245E-04  -0.7828097979E-05   0.4735270596E-03  -0.6262478383E-04   0.1815387873E+00  -0.5549831696E-01   0.0000000000E+00  -0.5858412187E-01   0.0000000000E+00   0.0000000000E+00   0.1981882824E-02  -0.1099599531E-02  -0.1523187169E-02  -0.3781214110E-03   0.0000000000E+00   0.0000000000E+00   0.2371210183E+00
   0.1091615109E+00   0.1150574358E+00   0.4524565173E-04  -0.1491224784E-04   0.3619652138E-03  -0.1192979828E-03   0.2642980712E+00  -0.4841666088E-01   0.0000000000E+00  -0.2481113380E-01   0.0000000000E+00   0.0000000000E+00   0.2788230695E-02  -0.1277060822E-02  -0.6450894787E-03  -0.6476442310E-03   0.0000000000E+00   0.0000000000E+00   0.2949561503E+00
   0.2445132386E+00   0.1279573533E+00   0.7742095390E-04  -0.3593412316E-05   0.6193676312E-03  -0.2874729853E-04   0.1995317350E+00   0.3299249742E-02   0.0000000000E+00  -0.2322840471E-01   0.0000000000E+00   0.0000000000E+00   0.1985419601E-02  -0.5656027077E-03  -0.6039385225E-03  -0.6084929544E-03   0.0000000000E+00   0.0000000000E+00   0.2019113728E+00
   0.1994594276E+00   0.1516714121E+00   0.6381939550E-04  -0.7797992278E-05   0.5105551640E-03  -0.6238393822E-04   0.2317584922E+00  -0.1430402099E-01   0.0000000000E+00  -0.1865614715E-01   0.0000000000E+00   0.0000000000E+00   0.2360496985E-02  -0.8383156866E-03  -0.4850598260E-03  -0.6523634137E-03   0.0000000000E+00   0.0000000000E+00   0.2413777882E+00
   0.2059680011E+00   0.1443758088E+00   0.6645845401E-04  -0.6663239211E-05   0.5316676321E-03  -0.5330591368E-04   0.2242551477E+00  -0.1299887259E-01   0.0000000000E+00  -0.2202035233E-01   0.0000000000E+00   0.0000000000E+00   0.2281548095E-02  -0.8027541690E-03  -0.5725291606E-03  -0.6337688254E-03   0.0000000000E+00   0.0000000000E+00   0.2341595196E+00
   0.1930209331E+00   0.1007867475E+00   0.6981123402E-04  -0.3763169639E-05   0.5584898721E-03  -0.3010535711E-04   0.1843451072E+00  -0.1435030881E-01   0.0000000000E+00  -0.3872495377E-01   0.0000000000E+00   0.0000000000E+00   0.1886501999E-02  -0.6965384098E-03  -0.1006848798E-02  -0.5099843952E-03   0.0000000000E+00   0.0000000000E+00   0.2031556478E+00
   0.1421687283E+00   0.1241173424E+00   0.5294025939E-04  -0.1069839679E-04   0.4235220751E-03  -0.8558717433E-04   0.2421113257E+00  -0.4282956391E-01   0.0000000000E+00  -0.2559621187E-01   0.0000000000E+00   0.0000000000E+00   0.2549601949E-02  -0.1154629616E-02  -0.6655015087E-03  -0.5978452853E-03   0.0000000000E+00   0.0000000000E+00   0.2697149924E+00
   0.1463777734E+00   0.1118117359E+00   0.5678682019E-04  -0.8610229288E-05   0.4542945616E-03  -0.6888183430E-04   0.2244823780E+00  -0.4339903918E-01   0.0000000000E+00  -0.3688360935E-01   0.0000000000E+00   0.0000000000E+00   0.2375020897E-02  -0.1107437526E-02  -0.9589738432E-03  -0.5432500164E-03   0.0000000000E+00   0.0000000000E+00   0.2569786521E+00
   0.1591307969E+00   0.1175978747E+00   0.5888443231E-04  -0.7893810055E-05   0.4710754585E-03  -0.6315048044E-04   0.2223499080E+00  -0.3615212808E-01   0.0000000000E+00  -0.3381506978E-01   0.0000000000E+00   0.0000000000E+00   0.2331955464E-02  -0.1028571005E-02  -0.8791918142E-03  -0.5585933397E-03   0.0000000000E+00   0.0000000000E+00   0.2494794830E+00
   0.1545895405E+00   0.1312873994E+00   0.5500750060E-04  -0.1000329274E-04   0.4400600048E-03  -0.8002634192E-04   0.2378554286E+00  -0.3759285893E-01   0.0000000000E+00  -0.2440637869E-01   0.0000000000E+00   0.0000000000E+00   0.2491332863E-02  -0.1089494875E-02  -0.6345658460E-03  -0.6007877090E-03   0.0000000000E+00   0.0000000000E+00   0.2617871944E+00
   0.1642531190E+00   0.1518785840E+00   0.5421078151E-04  -0.1122844072E-04   0.4336862521E-03  -0.8982752579E-04   0.2485654219E+00  -0.2546440355E-01   0.0000000000E+00  -0.1225878862E-01   0.0000000000E+00   0.0000000000E+00   0.2562047430E-02  -0.1000340301E-02  -0.3187285042E-03  -0.6693030551E-03   0.0000000000E+00   0.0000000000E+00   0.2629592045E+00
   0.1117326083E+00   0.1547690141E+00   0.3776936647E-04  -0.1991498946E-04   0.3021549317E-03  -0.1593199157E-03   0.2841736594E+00  -0.2780620833E-01   0.0000000000E+00   0.1365860738E-01   0.0000000000E+00   0.0000000000E+00   0.2925155219E-02  -0.1130583062E-02   0.3551237919E-03  -0.7691023533E-03   0.0000000000E+00   0.0000000000E+00   0.2997997246E+00
   0.1377045273E+00   0.1346293249E+00   0.4950559298E-04  -0.1272879222E-04   0.3960447439E-03  -0.1018303378E-03   0.2634326597E+00  -0.3867594887E-01   0.0000000000E+00  -0.1397182410E-01   0.0000000000E+00   0.0000000000E+00   0.2750354443E-02  -0.1177057468E-02  -0.3632674266E-03  -0.6742701324E-03   0.0000000000E+00   0.0000000000E+00   0.2855380503E+00
   0.1810895988E+00   0.1056108487E+00   0.6640497960E-04  -0.4852702834E-05   0.5312398368E-03  -0.3882162267E-04   0.1930988697E+00  -0.2397013246E-01   0.0000000000E+00  -0.4039431988E-01   0.0000000000E+00   0.0000000000E+00   0.2002899094E-02  -0.8189979337E-03  -0.1050252317E-02  -0.5073862117E-03   0.0000000000E+00   0.0000000000E+00   0.2176169420E+00
   0.1515176001E+00   0.9997673811E-01   0.6078356384E-04  -0.6651988134E-05   0.4862685107E-03  -0.5321590507E-04   0.1998724939E+00  -0.4016016376E-01   0.0000000000E+00  -0.4561395691E-01   0.0000000000E+00   0.0000000000E+00   0.2119205430E-02  -0.1001219119E-02  -0.1185962880E-02  -0.4791369904E-03   0.0000000000E+00   0.0000000000E+00   0.2361259263E+00
   0.1386380642E+00   0.9233305535E-01   0.5966424814E-04  -0.7155116440E-05   0.4773139851E-03  -0.5724093152E-04   0.1963293932E+00  -0.4852451493E-01   0.0000000000E+00  -0.5235065859E-01   0.0000000000E+00   0.0000000000E+00   0.2108867477E-02  -0.1074233329E-02  -0.1361117123E-02  -0.4434146348E-03   0.0000000000E+00   0.0000000000E+00   0.2418953803E+00
   0.1563373260E+00   0.9049887376E-01   0.6406733224E-04  -0.5232603893E-05   0.5125386580E-03  -0.4186083114E-04   0.1789710933E+00  -0.4026383437E-01   0.0000000000E+00  -0.5447068802E-01   0.0000000000E+00   0.0000000000E+00   0.1910502436E-02  -0.9395516236E-03  -0.1416237888E-02  -0.4161217769E-03   0.0000000000E+00   0.0000000000E+00   0.2227138380E+00
   0.1277067254E+00   0.1184614836E+00   0.5003848720E-04  -0.1209293461E-04   0.4003078976E-03  -0.9674347686E-04   0.2535054434E+00  -0.4843696546E-01   0.0000000000E+00  -0.2666920334E-01   0.0000000000E+00   0.0000000000E+00   0.2680365331E-02  -0.1244885985E-02  -0.6933992867E-03  -0.6152054340E-03   0.0000000000E+00   0.0000000000E+00   0.2844186191E+00
   0.1263565535E+00   0.1330081473E+00   0.4634883648E-04  -0.1433385244E-04   0.3707906918E-03  -0.1146708196E-03   0.2629355133E+00  -0.4297209608E-01   0.0000000000E+00  -0.1295406288E-01   0.0000000000E+00   0.0000000000E+00   0.2758271422E-02  -0.1218527501E-02  -0.3368056350E-03  -0.6598902518E-03   0.0000000000E+00   0.0000000000E+00   0.2877460643E+00
   0.1148297896E+00   0.1295742542E+00   0.4351673439E-04  -0.1593264869E-04   0.3481338751E-03  -0.1274611895E-03   0.2688003573E+00  -0.4817036316E-01   0.0000000000E+00  -0.1175839985E-01   0.0000000000E+00   0.0000000000E+00   0.2832514663E-02  -0.1288104704E-02  -0.3057183962E-03  -0.6618899825E-03   0.0000000000E+00   0.0000000000E+00   0.2961552252E+00
   0.2296413480E+00   0.1294526970E+00   0.7393788436E-04  -0.4221227291E-05   0.5915030748E-03  -0.3376981833E-04   0.2040687986E+00  -0.1729084274E-02   0.0000000000E+00  -0.2488658602E-01   0.0000000000E+00   0.0000000000E+00   0.2045875239E-02  -0.6294972387E-03  -0.6470512365E-03  -0.6070191431E-03   0.0000000000E+00   0.0000000000E+00   0.2093874393E+00
   0.2017328040E+00   0.1331838510E+00   0.6692488986E-04  -0.5943996719E-05   0.5353991189E-03  -0.4755197375E-04   0.2167210465E+00  -0.1280897682E-01   0.0000000000E+00  -0.2574674423E-01   0.0000000000E+00   0.0000000000E+00   0.2205637395E-02  -0.7782529077E-03  -0.6694153501E-03  -0.6117362090E-03   0.0000000000E+00   0.0000000000E+00   0.2277723391E+00
   0.1981313753E+00   0.1180655430E+00   0.6824325849E-04  -0.4880998103E-05   0.5459460679E-03  -0.3904798482E-04   0.2031886083E+00  -0.1419248785E-01   0.0000000000E+00  -0.3191867163E-01   0.0000000000E+00   0.0000000000E+00   0.2074463547E-02  -0.7514907035E-03  -0.8298854625E-03  -0.5669883615E-03   0.0000000000E+00   0.0000000000E+00   0.2177344314E+00
   0.2155406509E+00   0.1311136553E+00   0.7048954508E-04  -0.4989522399E-05   0.5639163606E-03  -0.3991617919E-04   0.2086601999E+00  -0.7612490479E-02   0.0000000000E+00  -0.2607645778E-01   0.0000000000E+00   0.0000000000E+00   0.2109439471E-02  -0.7021055046E-03  -0.6779879022E-03  -0.6031431283E-03   0.0000000000E+00   0.0000000000E+00   0.2172887527E+00
   0.1089480799E+00   0.1383500414E+00   0.3977187697E-04  -0.1828517711E-04   0.3181750158E-03  -0.1462814168E-03   0.2830964798E+00  -0.3926461143E-01   0.0000000000E+00  -0.6791648647E-04   0.0000000000E+00   0.0000000000E+00   0.2948758633E-02  -0.1241935554E-02  -0.1765828648E-05  -0.7314956052E-03   0.0000000000E+00   0.0000000000E+00   0.3044777023E+00
   0.1692639445E+00   0.1364133730E+00   0.5810460941E-04  -0.8946446447E-05   0.4648368753E-03  -0.7157157158E-04   0.2345913620E+00  -0.2981753973E-01   0.0000000000E+00  -0.2272045117E-01   0.0000000000E+00   0.0000000000E+00   0.2435366239E-02  -0.1001949483E-02  -0.5907317305E-03  -0.6143214667E-03   0.0000000000E+00   0.0000000000E+00   0.2538190458E+00
   0.1868563576E+00   0.1395572214E+00   0.6225350949E-04  -0.7626728085E-05   0.4980280759E-03  -0.6101382468E-04   0.2275446583E+00  -0.2055534902E-01   0.0000000000E+00  -0.2303779391E-01   0.0000000000E+00   0.0000000000E+00   0.2337112630E-02  -0.8881874652E-03  -0.5989826417E-03  -0.6209679279E-03   0.0000000000E+00   0.0000000000E+00   0.2417453741E+00
   0.1632047507E+00   0.1046503883E+00   0.6254585496E-04  -0.6089298274E-05   0.5003668396E-03  -0.4871438619E-04   0.2059854447E+00  -0.3194455559E-01   0.0000000000E+00  -0.4027986101E-01   0.0000000000E+00   0.0000000000E+00   0.2155688114E-02  -0.9374018902E-03  -0.1047276386E-02  -0.5221226674E-03   0.0000000000E+00   0.0000000000E+00   0.2339800771E+00
   0.1849623101E+00   0.1214114368E+00   0.6461223077E-04  -0.6043136972E-05   0.5168978462E-03  -0.4834509578E-04   0.2115673178E+00  -0.2101651196E-01   0.0000000000E+00  -0.3115024758E-01   0.0000000000E+00   0.0000000000E+00   0.2178722714E-02  -0.8448670731E-03  -0.8099064371E-03  -0.5716524176E-03   0.0000000000E+00   0.0000000000E+00   0.2291165349E+00
   0.1720966050E+00   0.1217494072E+00   0.6140044005E-04  -0.7100531978E-05   0.4912035204E-03  -0.5680425582E-04   0.2175930801E+00  -0.2907862285E-01   0.0000000000E+00  -0.3158793506E-01   0.0000000000E+00   0.0000000000E+00   0.2263166670E-02  -0.9435654689E-03  -0.8212863115E-03  -0.5655433718E-03   0.0000000000E+00   0.0000000000E+00   0.2397173798E+00
   0.1160800123E+00   0.9804363096E-01   0.5230348274E-04  -0.1122687084E-04   0.4184278619E-03  -0.8981496672E-04   0.2254825733E+00  -0.5584500465E-01   0.0000000000E+00  -0.4617485117E-01   0.0000000000E+00   0.0000000000E+00   0.2422360747E-02  -0.1234897767E-02  -0.1200546130E-02  -0.5089127061E-03   0.0000000000E+00   0.0000000000E+00   0.2698965714E+00
   0.1319103305E+00   0.1052280659E+00   0.5453072436E-04  -0.9651905363E-05   0.4362457949E-03  -0.7721524290E-04   0.2278395763E+00  -0.5069333040E-01   0.0000000000E+00  -0.4053294220E-01   0.0000000000E+00   0.0000000000E+00   0.2430475754E-02  -0.1190452033E-02  -0.1053856497E-02  -0.5314387378E-03   0.0000000000E+00   0.0000000000E+00   0.2659534575E+00
   0.1724181744E+00   0.1102889311E+00   0.6358627006E-04  -0.5918427881E-05   0.5086901605E-03  -0.4734742305E-04   0.1992064105E+00  -0.2938397193E-01   0.0000000000E+00  -0.3881559153E-01   0.0000000000E+00   0.0000000000E+00   0.2080216021E-02  -0.8914589509E-03  -0.1009205380E-02  -0.5094673158E-03   0.0000000000E+00   0.0000000000E+00   0.2256134886E+00
           1           2           3           4
           5           6           7           8
           9          10          11          12
          13          14          15          16
          17          18          19          20
          21          22          23          24
          25          26          27          28
          29          30          31          32
          33          34           4           3
           2           1          35          36
          37          38          39          40
          41          42          36          35
          43          41          44          45
          46           9          47          48
          41          35          39          44
          49          50          51          52
          52          51          53          54
          55          56          57          58
          56          59          60          57
          61          62          63          64
          65          66          67          68
          69          70          71          72
          73          74          25          28
          27          75          76          28
          77          78          24          23
          79          80          81          82
          83          84          85          86
          87          88          89          90
          90          89          62          91
          61          92          91          62
          92          61          59          93
          56          94          93          59
          95          55          54          53
          46          96          10           9
          97          98          99         100
          12         101          98          97
          97         100         102          47
         103         104          31          30
         105         103          30         106
          73         107         108         109
         110         111         112         113
          32          31         114         115
         116         117         118         119
         120         121         122         123
         121          83          86         122
          80         124         125          81
         126         127         128         129
         130         101          12          11
         131          43         101         130
          34         129         132           4
          42          41          43         131
          35           1          40          39
         101          43          45          98
         133         134         109         108
         135         136          13          16
         137         138          65          68
          94          56          55          95
          58         137          54          55
          49          52          68          67
         139         140         141         142
         140         139          82          81
          88          87         142         141
         143         144         145         146
         147          26          25         148
         149         150         128         151
           5           8         152         102
         132         129         128         150
         153         100          99         154
          48          47         102         152
          59          61          64          60
         106         155         113         118
          62          89         156          63
          88         157         156          89
         123         116         119         120
          66          65         134         133
         144         143          84          83
           9          12          97          47
         104         158         114          31
         159         160         127         126
         119         112         161         120
         117         105         106         118
         162         163         164         165
          83         121         166         144
         167         168         141         140
         167         143         146         168
           6         114         158           7
          38          37         169         170
          40         132         150          37
         160         159          20          19
          78         171         172          24
          18          17          21          24
         173         174          78          77
         132          40           1           4
          28          76         107          73
         175         176         177         178
         176         179          57          60
         137          68          52          54
          60          64         177         176
         163         162         155          29
          75          27         174         173
         180         174          27          26
          64          63         181         177
          98          45         182          99
         183         182          45          44
          38         183          44          39
          58          57         179         184
         185         181          63         156
         134         186         187         109
         188          74         187         189
         138         186         134          65
          88         141         168         157
         166         121         120         161
         190         191         166         161
         155         106          30          29
         192         193         194         195
         118         113         112         119
         125          84         143         167
         124          85          84         125
           6         196         115         114
         196           6           5         153
         197          32         115         198
         111         190         161         112
         199         148         188         135
         170         169         200         201
         202         164         163         197
         203         204         146         145
         205         206         201         200
         187          74          73         109
         176         175         207         179
         208         209          16          15
         210         186         138         184
         184         138         137          58
         179         207         210         184
         211         212         172         171
          78         174         180         171
         125         167         140          81
          37         150         149         169
         213         214         215         216
         217         182         183         201
         170         201         183          38
         218         219         206         205
         111         220         221         190
         157         168         146         204
         177         181         222         178
         222         181         185         223
         186         210         189         187
         224         191         190         221
         100         153           5         102
         185         156         157         204
         113         155         162         110
          26         147         193         180
          29          32         197         163
         225         226          19          18
         144         166         191         145
         212         192         227         228
         198         115         196         229
         206         154         217         201
         153         154         229         196
         172         225          18          24
         148          25          74         188
          14          13         175         178
         207         175          13         136
         189         136         135         188
         230         202         197         198
         210         207         136         189
         165         164         231         232
         169         149         233         200
         234         160          19         226
         217         154          99         182
         203         145         191         224
         151         235         233         149
         236         223         203         224
         185         204         203         223
         178         222         237          14
         110         162         165         238
         239         223         236         240
         238         220         111         110
         219         230         198         229
         241         242         232         243
         242          69         220         238
          72          71         240         236
         244         205         200         233
         215         231         164         202
         211         171         180         193
         228         225         172         212
         194         193         147         245
         245         147         148         199
         135          16         209         199
         209         208         246         247
         127         160         234         248
         193         192         212         211
         226         225         228         249
         151         128         127         248
         248         250         235         151
          72         221         220          69
          14         237         251          15
          70          69         252         253
         206         219         229         154
         238         165         232         242
          72         236         224         221
         216         215         202         230
         245         247         254         194
         255         256         257         258
         230         219         218         216
         214         259         231         215
         216         218         260         213
         261         255         258         214
         239         237         222         223
         194         254         262         195
         263         264         227         265
         250         266         267         268
         199         209         247         245
         240          71         269         251
         270         271         246         272
         260         244         273         213
         237         239         240         251
         218         205         244         260
          70         272         269          71
         232         231         259         243
         274         275         243         259
         257         256         263         276
         277         275         274         278
         234         226         249         279
         271         277         262         254
         271         254         247         246
         246         208         269         272
         244         233         235         273
         251         269         208          15
         275         270         253         252
         234         279         250         248
         279         249         264         280
         259         214         258         274
         262         281         276         195
         195         276         263         265
         257         276         281         278
         278         274         258         257
         266         280         256         255
         261         214         213         267
         267         266         255         261
         266         250         279         280
         228         227         264         249
         256         280         264         263
         265         227         192         195
         281         262         277         278
         235         250         268         273
         273         268         267         213
         277         271         270         275
         253         270         272          70
         252          69         242         241
         243         275         252         241
 VARIABLES = X,Y,DU1,DU2,U1,U2,S11,S22,S33,S12,S13,S23,E11,E22,E12,E33,E13,E23,SMISES
 ZONE, T="0.1000D+02" F=FEPOINT, I=  281 J=  250
   0.1782675371E-01   0.1338750479E+00   0.7173700808E-05  -0.3627480944E-04   0.6456330727E-04  -0.3264732850E-03   0.4298113056E+00   0.8091668001E-01   0.0000000000E+00   0.6414525988E-02   0.0000000000E+00   0.0000000000E+00   0.4055363016E-02  -0.4802671166E-03   0.1667776757E-03  -0.1532183957E-02   0.0000000000E+00   0.0000000000E+00   0.3936106343E+00
   0.0000000000E+00   0.1329620966E+00   0.0000000000E+00  -0.3712433844E-04   0.0000000000E+00  -0.3341190460E-03   0.4336435997E+00   0.8629370251E-01   0.0000000000E+00   0.1215743930E-01   0.0000000000E+00   0.0000000000E+00   0.4077554889E-02  -0.4379937739E-03   0.3160934218E-03  -0.1559811907E-02   0.0000000000E+00   0.0000000000E+00   0.3975873831E+00
   0.0000000000E+00   0.1163069019E+00   0.0000000000E+00  -0.3597650796E-04   0.0000000000E+00  -0.3237885716E-03   0.5515689421E+00   0.4534239481E-01   0.0000000000E+00   0.1046502822E-01   0.0000000000E+00   0.0000000000E+00   0.5379662237E-02  -0.1201282878E-02   0.2720907338E-03  -0.1790734011E-02   0.0000000000E+00   0.0000000000E+00   0.5302451788E+00
   0.1925420761E-01   0.1159417109E+00   0.1000706109E-04  -0.3494770620E-04   0.9006354980E-04  -0.3145293558E-03   0.5054499995E+00   0.4474806890E-01   0.0000000000E+00  -0.4502547359E-01   0.0000000000E+00   0.0000000000E+00   0.4920255788E-02  -0.1068869309E-02  -0.1170662313E-02  -0.1650594205E-02   0.0000000000E+00   0.0000000000E+00   0.4936972143E+00
   0.7818665985E-01   0.2315347816E+00   0.1851606492E-04  -0.3416214462E-04   0.1666445843E-03  -0.3074593016E-03   0.2645003495E+00  -0.8420543003E-04   0.0000000000E+00   0.1821795984E-01   0.0000000000E+00   0.0000000000E+00   0.2645256111E-02  -0.7943431027E-03   0.4736669559E-03  -0.7932484321E-03   0.0000000000E+00   0.0000000000E+00   0.2665435598E+00
   0.9801678084E-01   0.2317491533E+00   0.2387809382E-04  -0.3061086520E-04   0.2149028444E-03  -0.2754977868E-03   0.2797315444E+00  -0.1387037986E-02   0.0000000000E+00   0.1659666511E-01   0.0000000000E+00   0.0000000000E+00   0.2801476557E-02  -0.8530650129E-03   0.4315132929E-03  -0.8350335191E-03   0.0000000000E+00   0.0000000000E+00   0.2819935751E+00
   0.9743161390E-01   0.2496778653E+00   0.2093899991E-04  -0.3221346831E-04   0.1884509992E-03  -0.2899212148E-03   0.2731044673E+00  -0.9915065997E-03   0.0000000000E+00   0.5855126702E-02   0.0000000000E+00   0.0000000000E+00   0.2734019193E-02  -0.8292284680E-03   0.1522332943E-03  -0.8163388822E-03   0.0000000000E+00   0.0000000000E+00   0.2735479898E+00
   0.7793646621E-01   0.2496440569E+00   0.1586856091E-04  -0.3559431363E-04   0.1428170482E-03  -0.3203488227E-03   0.2474155673E+00  -0.1536946896E-02   0.0000000000E+00   0.6478984011E-02   0.0000000000E+00   0.0000000000E+00   0.2478766514E-02  -0.7576161710E-03   0.1684535843E-03  -0.7376358614E-03   0.0000000000E+00   0.0000000000E+00   0.2481689820E+00
   0.1914013384E-01   0.2329057954E+00   0.4194324500E-05  -0.4170336085E-04   0.3774892050E-04  -0.3753302476E-03   0.2235752641E+00   0.5340376471E-02   0.0000000000E+00   0.5101693962E-02   0.0000000000E+00   0.0000000000E+00   0.2219731511E-02  -0.6173220275E-03   0.1326440430E-03  -0.6867469217E-03   0.0000000000E+00   0.0000000000E+00   0.2214921845E+00
   0.0000000000E+00   0.2329108013E+00   0.0000000000E+00  -0.4225327452E-04   0.0000000000E+00  -0.3802794706E-03   0.2199515558E+00   0.5708677966E-02   0.0000000000E+00   0.6447966377E-02   0.0000000000E+00   0.0000000000E+00   0.2182389524E-02  -0.6027678878E-03   0.1676471258E-03  -0.6769807014E-03   0.0000000000E+00   0.0000000000E+00   0.2173603539E+00
   0.0000000000E+00   0.2162545734E+00   0.0000000000E+00  -0.4120955512E-04   0.0000000000E+00  -0.3708859961E-03   0.2507606047E+00   0.1286201231E-01   0.0000000000E+00   0.6537352829E-02   0.0000000000E+00   0.0000000000E+00   0.2469020010E-02  -0.6236616911E-03   0.1699711736E-03  -0.7908678512E-03   0.0000000000E+00   0.0000000000E+00   0.2446951682E+00
   0.1857823777E-01   0.2163678541E+00   0.4594296533E-05  -0.4067589180E-04   0.4134866880E-04  -0.3660830262E-03   0.2531966658E+00   0.1181546340E-01   0.0000000000E+00   0.1023844522E-01   0.0000000000E+00   0.0000000000E+00   0.2496520268E-02  -0.6414353634E-03   0.2661995757E-03  -0.7950363876E-03   0.0000000000E+00   0.0000000000E+00   0.2484578911E+00
   0.2580387572E+00   0.9225946374E-01   0.8332712020E-04  -0.1480726220E-05   0.7499440818E-03  -0.1332653598E-04   0.1863962946E+00   0.1748904019E-01   0.0000000000E+00  -0.2548239298E-01   0.0000000000E+00   0.0000000000E+00   0.1811495825E-02  -0.3842984818E-03  -0.6625422174E-03  -0.6116560042E-03   0.0000000000E+00   0.0000000000E+00   0.1836320023E+00
   0.2594225947E+00   0.1102635211E+00   0.8213167433E-04  -0.2240886236E-05   0.7391850690E-03  -0.2016797613E-04   0.2035720993E+00   0.1290074377E-01   0.0000000000E+00  -0.2448721304E-01   0.0000000000E+00   0.0000000000E+00   0.1997018761E-02  -0.4817088601E-03  -0.6366675391E-03  -0.6494185291E-03   0.0000000000E+00   0.0000000000E+00   0.2019001326E+00
   0.2426427575E+00   0.1106504145E+00   0.7872254551E-04  -0.2625452180E-05   0.7085029096E-03  -0.2362906962E-04   0.2056351884E+00   0.6903282207E-02   0.0000000000E+00  -0.2883859442E-01   0.0000000000E+00   0.0000000000E+00   0.2035642037E-02  -0.5478727431E-03  -0.7498034548E-03  -0.6376154118E-03   0.0000000000E+00   0.0000000000E+00   0.2083069977E+00
   0.2401805494E+00   0.9266352433E-01   0.8004134111E-04  -0.1779416926E-05   0.7203720700E-03  -0.1601475233E-04   0.1869635381E+00   0.1120968037E-01   0.0000000000E+00  -0.3101872257E-01   0.0000000000E+00   0.0000000000E+00   0.1836006340E-02  -0.4487938106E-03  -0.8064867867E-03  -0.5945196554E-03   0.0000000000E+00   0.0000000000E+00   0.1893381626E+00
   0.9309967810E-01   0.3816081137E-01   0.7117262020E-04  -0.1075312325E-04   0.6405535818E-03  -0.9677810923E-04  -0.2335783728E-01  -0.1568528479E+00   0.0000000000E+00   0.2428165100E-01   0.0000000000E+00   0.0000000000E+00   0.2369801708E-03  -0.1498454967E-02   0.6313229261E-03   0.5406320554E-03   0.0000000000E+00   0.0000000000E+00   0.1399606186E+00
   0.1087415364E+00   0.4603127189E-01   0.6946764023E-04  -0.6726961335E-05   0.6252087621E-03  -0.6054265201E-04   0.5040675797E-01  -0.6981167314E-01   0.0000000000E+00  -0.3360238182E-01   0.0000000000E+00   0.0000000000E+00   0.7135025991E-03  -0.8493370053E-03  -0.8736619272E-03   0.5821474551E-04   0.0000000000E+00   0.0000000000E+00   0.1105917362E+00
   0.9672662441E-01   0.6342663134E-01   0.6155280127E-04  -0.1155633551E-04   0.5539752114E-03  -0.1040070196E-03   0.1043862381E+00  -0.4106354286E-01   0.0000000000E+00  -0.5036284467E-01   0.0000000000E+00   0.0000000000E+00   0.1167053010E-02  -0.7237941429E-03  -0.1309433961E-02  -0.1899680857E-03   0.0000000000E+00   0.0000000000E+00   0.1565175752E+00
   0.8379088790E-01   0.5539468880E-01   0.6439283980E-04  -0.1623348976E-04   0.5795355582E-03  -0.1461014078E-03   0.3028716456E-01  -0.3454667077E-01   0.0000000000E+00  -0.1549105701E-01   0.0000000000E+00   0.0000000000E+00   0.4065116579E-03  -0.4363282013E-03  -0.4027674823E-03   0.1277851863E-04   0.0000000000E+00   0.0000000000E+00   0.6612720475E-01
   0.9882894973E-01   0.1945593086E-01   0.7504231292E-04  -0.5310154320E-05   0.6753808163E-03  -0.4779138888E-04  -0.2321827724E-01  -0.2504457822E+00   0.0000000000E+00   0.3388808751E-01   0.0000000000E+00   0.0000000000E+00   0.5191545743E-03  -0.2434802991E-02   0.8810902754E-03   0.8209921785E-03   0.0000000000E+00   0.0000000000E+00   0.2382030126E+00
   0.1007668928E+00   0.0000000000E+00   0.7668918340E-04   0.0000000000E+00   0.6902026506E-03   0.0000000000E+00  -0.3262738724E-01  -0.2690911054E+00   0.0000000000E+00  -0.1845922648E-01   0.0000000000E+00   0.0000000000E+00   0.4809994438E-03  -0.2593028892E-02  -0.4799398886E-03   0.9051554779E-03   0.0000000000E+00   0.0000000000E+00   0.2550657825E+00
   0.1216102559E+00   0.0000000000E+00   0.7769259034E-04   0.0000000000E+00   0.6992333131E-03   0.0000000000E+00  -0.1710857757E-03  -0.9251262731E-01   0.0000000000E+00  -0.2068689335E-01   0.0000000000E+00   0.0000000000E+00   0.2758270242E-03  -0.9246130158E-03  -0.5378592272E-03   0.2780511393E-03   0.0000000000E+00   0.0000000000E+00   0.9681086688E-01
   0.1224846784E+00   0.2608787190E-01   0.7538143686E-04  -0.2443679755E-05   0.6784329317E-03  -0.2199311780E-04   0.2355796656E-01  -0.8711274379E-01   0.0000000000E+00  -0.2195919469E-01   0.0000000000E+00   0.0000000000E+00   0.4969178970E-03  -0.9418013376E-03  -0.5709390620E-03   0.1906643317E-03   0.0000000000E+00   0.0000000000E+00   0.1128009113E+00
   0.2113538634E+00   0.3762935607E-01   0.8097243763E-04  -0.3876730188E-06   0.7287519387E-03  -0.3489057169E-05   0.1213787771E+00   0.1859101657E-01   0.0000000000E+00  -0.2824219113E-01   0.0000000000E+00   0.0000000000E+00   0.1158014722E-02  -0.1782261657E-03  -0.7342969693E-03  -0.4199093811E-03   0.0000000000E+00   0.0000000000E+00   0.1229793168E+00
   0.1912445955E+00   0.3837677762E-01   0.7866855081E-04  -0.5722780739E-06   0.7080169573E-03  -0.5150502665E-05   0.1095244746E+00   0.7127708287E-02   0.0000000000E+00  -0.3635508235E-01   0.0000000000E+00   0.0000000000E+00   0.1073861621E-02  -0.2572963409E-03  -0.9452321410E-03  -0.3499565486E-03   0.0000000000E+00   0.0000000000E+00   0.1228591024E+00
   0.1875070902E+00   0.1901057094E-01   0.7989382484E-04  -0.2349657289E-06   0.7190444236E-03  -0.2114691560E-05   0.8661316795E-01   0.1137337666E-01   0.0000000000E+00  -0.1774933520E-01   0.0000000000E+00   0.0000000000E+00   0.8320115495E-03  -0.1461057372E-03  -0.4614827151E-03  -0.2939596338E-03   0.0000000000E+00   0.0000000000E+00   0.8788859207E-01
   0.2080501142E+00   0.1873656065E-01   0.8178322220E-04  -0.1463252366E-06   0.7360489998E-03  -0.1316927130E-05   0.1054831605E+00   0.2162032589E-01   0.0000000000E+00  -0.1407398091E-01   0.0000000000E+00   0.0000000000E+00   0.9899706274E-03  -0.1002462226E-03  -0.3659235036E-03  -0.3813104592E-03   0.0000000000E+00   0.0000000000E+00   0.9986421465E-01
   0.1578606766E+00   0.2157688236E+00   0.4373295765E-04  -0.1886243751E-04   0.3935966189E-03  -0.1697619376E-03   0.3024194348E+00  -0.6646188425E-02   0.0000000000E+00   0.7983564662E-02   0.0000000000E+00   0.0000000000E+00   0.3044132913E-02  -0.9737201885E-03   0.2075726812E-03  -0.8873197390E-03   0.0000000000E+00   0.0000000000E+00   0.3060919825E+00
   0.1568655913E+00   0.2323994454E+00   0.4129203372E-04  -0.2060565788E-04   0.3716283034E-03  -0.1854509209E-03   0.3099303410E+00  -0.2802237474E-02   0.0000000000E+00   0.4990252770E-02   0.0000000000E+00   0.0000000000E+00   0.3107710122E-02  -0.9578133976E-03   0.1297465720E-03  -0.9213843104E-03   0.0000000000E+00   0.0000000000E+00   0.3114868322E+00
   0.1373323065E+00   0.2323934605E+00   0.3529354858E-04  -0.2366734658E-04   0.3176419372E-03  -0.2130061192E-03   0.3034806143E+00  -0.2899803247E-02   0.0000000000E+00   0.8933159737E-02   0.0000000000E+00   0.0000000000E+00   0.3043505552E-02  -0.9394398753E-03   0.2322621532E-03  -0.9017424330E-03   0.0000000000E+00   0.0000000000E+00   0.3053694272E+00
   0.1385943083E+00   0.2155941865E+00   0.3791982871E-04  -0.2185864502E-04   0.3412784584E-03  -0.1967278052E-03   0.3001772596E+00  -0.7394214135E-02   0.0000000000E+00   0.1477779681E-01   0.0000000000E+00   0.0000000000E+00   0.3023955238E-02  -0.9744739201E-03   0.3842227170E-03  -0.8783491363E-03   0.0000000000E+00   0.0000000000E+00   0.3049613094E+00
   0.0000000000E+00   0.9966799297E-01   0.0000000000E+00  -0.3320080307E-04   0.0000000000E+00  -0.2988072276E-03   0.8210764044E+00   0.5706868121E-01   0.0000000000E+00   0.1152803953E-01   0.0000000000E+00   0.0000000000E+00   0.8039558000E-02  -0.1892542401E-02   0.2997290277E-03  -0.2634435257E-02   0.0000000000E+00   0.0000000000E+00   0.7882332716E+00
   0.1966375644E-01   0.9775648310E-01   0.1547240370E-04  -0.3220434981E-04   0.1392516333E-03  -0.2898391483E-03   0.7602026516E+00   0.5718136681E-01   0.0000000000E+00  -0.1141142076E+00   0.0000000000E+00   0.0000000000E+00   0.7430482415E-02  -0.1708794287E-02  -0.2966969397E-02  -0.2452152055E-02   0.0000000000E+00   0.0000000000E+00   0.7530658984E+00
   0.1685758274E-01   0.1509648403E+00   0.5852394331E-05  -0.3718747266E-04   0.5267154898E-04  -0.3346872539E-03   0.3675171764E+00   0.6222643242E-01   0.0000000000E+00   0.1106229289E-01   0.0000000000E+00   0.0000000000E+00   0.3488492467E-02  -0.4802872051E-03   0.2876196152E-03  -0.1289230826E-02   0.0000000000E+00   0.0000000000E+00   0.3423683844E+00
   0.0000000000E+00   0.1496219453E+00   0.0000000000E+00  -0.3780606723E-04   0.0000000000E+00  -0.3402546051E-03   0.3711268542E+00   0.7081500214E-01   0.0000000000E+00   0.9289379163E-02   0.0000000000E+00   0.0000000000E+00   0.3498823535E-02  -0.4052305411E-03   0.2415238582E-03  -0.1325825569E-02   0.0000000000E+00   0.0000000000E+00   0.3416530204E+00
   0.5124972353E-01   0.1383574433E+00   0.1954134279E-04  -0.3121966648E-04   0.1758720852E-03  -0.2809769983E-03   0.3798490579E+00   0.2416036489E-01   0.0000000000E+00   0.1912229159E-01   0.0000000000E+00   0.0000000000E+00   0.3726009484E-02  -0.8979435247E-03   0.4971795814E-03  -0.1212028268E-02   0.0000000000E+00   0.0000000000E+00   0.3696052281E+00
   0.4921527453E-01   0.1537310886E+00   0.1683707346E-04  -0.3288874068E-04   0.1515336611E-03  -0.2959986662E-03   0.3519226791E+00   0.2659599131E-01   0.0000000000E+00   0.3063745769E-01   0.0000000000E+00   0.0000000000E+00   0.3439438817E-02  -0.7898081242E-03   0.7965738998E-03  -0.1135556011E-02   0.0000000000E+00   0.0000000000E+00   0.3436028218E+00
   0.3329010337E-01   0.1523822367E+00   0.1146386679E-04  -0.3542183320E-04   0.1031748011E-03  -0.3187964988E-03   0.3616540173E+00   0.4711770955E-01   0.0000000000E+00   0.2333483478E-01   0.0000000000E+00   0.0000000000E+00   0.3475187044E-02  -0.6137849564E-03   0.6067057042E-03  -0.1226315181E-02   0.0000000000E+00   0.0000000000E+00   0.3443468869E+00
   0.3450750216E-01   0.1353984249E+00   0.1360255597E-04  -0.3413630513E-04   0.1224230038E-03  -0.3072267461E-03   0.3999968171E+00   0.4895033073E-01   0.0000000000E+00   0.2369035105E-01   0.0000000000E+00   0.0000000000E+00   0.3853117179E-02  -0.7104871442E-03   0.6159491272E-03  -0.1346841444E-02   0.0000000000E+00   0.0000000000E+00   0.3749580159E+00
   0.1673726376E-01   0.1674234397E+00   0.5259745871E-05  -0.3796982941E-04   0.4733771284E-04  -0.3417284647E-03   0.3319899499E+00   0.5147438382E-01   0.0000000000E+00   0.1361687679E-01   0.0000000000E+00   0.0000000000E+00   0.3165476348E-02  -0.4812260115E-03   0.3540387964E-03  -0.1150393001E-02   0.0000000000E+00   0.0000000000E+00   0.3105543684E+00
   0.0000000000E+00   0.1662817565E+00   0.0000000000E+00  -0.3849155194E-04   0.0000000000E+00  -0.3464239674E-03   0.3323183073E+00   0.5614048711E-01   0.0000000000E+00   0.7842628378E-02   0.0000000000E+00   0.0000000000E+00   0.3154761611E-02  -0.4355500508E-03   0.2039083378E-03  -0.1165376383E-02   0.0000000000E+00   0.0000000000E+00   0.3081505129E+00
   0.1714125365E-01   0.1837376183E+00   0.4979124603E-05  -0.3879096543E-04   0.4481212142E-04  -0.3491186889E-03   0.3034978134E+00   0.3629443515E-01   0.0000000000E+00   0.1334805736E-01   0.0000000000E+00   0.0000000000E+00   0.2926094828E-02  -0.5475490886E-03   0.3470494915E-03  -0.1019376746E-02   0.0000000000E+00   0.0000000000E+00   0.2883792357E+00
   0.3349578831E-01   0.1682432534E+00   0.1052775111E-04  -0.3636385582E-04   0.9474976002E-04  -0.3272747024E-03   0.3297279123E+00   0.3766170882E-01   0.0000000000E+00   0.2929458268E-01   0.0000000000E+00   0.0000000000E+00   0.3184293996E-02  -0.6125666486E-03   0.7616591498E-03  -0.1102168863E-02   0.0000000000E+00   0.0000000000E+00   0.3160859342E+00
   0.3461430209E-01   0.1839071195E+00   0.1009999946E-04  -0.3721135049E-04   0.9089999515E-04  -0.3349021544E-03   0.3045143373E+00   0.2764387829E-01   0.0000000000E+00   0.2826650696E-01   0.0000000000E+00   0.0000000000E+00   0.2962211738E-02  -0.6371042290E-03   0.7349291809E-03  -0.9964746468E-03   0.0000000000E+00   0.0000000000E+00   0.2957367394E+00
   0.1947943468E-01   0.2495732601E+00   0.3498958293E-05  -0.4267398575E-04   0.3149062464E-04  -0.3840658717E-03   0.1825981713E+00  -0.3228496915E-02   0.0000000000E+00   0.9250161054E-03   0.0000000000E+00   0.0000000000E+00   0.1835667204E-02  -0.5800794831E-03   0.2405041874E-04  -0.5381090232E-03   0.0000000000E+00   0.0000000000E+00   0.1845199392E+00
   0.3856389977E-01   0.2325437506E+00   0.8608407358E-05  -0.4005294358E-04   0.7747566622E-04  -0.3604764923E-03   0.2336927357E+00   0.4119392998E-02   0.0000000000E+00   0.1323809446E-01   0.0000000000E+00   0.0000000000E+00   0.2324569178E-02  -0.6598842770E-03   0.3441904558E-03  -0.7134363860E-03   0.0000000000E+00   0.0000000000E+00   0.2329342837E+00
   0.3896097106E-01   0.2495890863E+00   0.7208076002E-05  -0.4109136650E-04   0.6487268402E-04  -0.3698222985E-03   0.1984345817E+00  -0.2781059535E-02   0.0000000000E+00   0.5218526687E-02   0.0000000000E+00   0.0000000000E+00   0.1992688995E-02  -0.6231143404E-03   0.1356816939E-03  -0.5869605665E-03   0.0000000000E+00   0.0000000000E+00   0.2000216256E+00
   0.3301378314E+00   0.0000000000E+00   0.9711503874E-04   0.0000000000E+00   0.8740353487E-03   0.0000000000E+00   0.1510290186E+00   0.4367044303E-01   0.0000000000E+00  -0.4585638481E-03   0.0000000000E+00   0.0000000000E+00   0.1379278857E-02  -0.1638262541E-04  -0.1192266005E-04  -0.5840983848E-03   0.0000000000E+00   0.0000000000E+00   0.1346133098E+00
   0.3509999940E+00   0.0000000000E+00   0.1000000000E-03   0.0000000000E+00   0.9000000000E-03   0.0000000000E+00   0.1519153081E+00   0.4394259243E-01   0.0000000000E+00  -0.2758615538E-05   0.0000000000E+00   0.0000000000E+00   0.1387325304E-02  -0.1632000017E-04  -0.7172400398E-07  -0.5875737017E-03   0.0000000000E+00   0.0000000000E+00   0.1354015503E+00
   0.3509999940E+00   0.1923037716E-01   0.1000000000E-03  -0.3927361594E-07   0.9000000000E-03  -0.3534625434E-06   0.1535726878E+00   0.4320328993E-01   0.0000000000E+00  -0.5594989226E-06   0.0000000000E+00   0.0000000000E+00   0.1406117008E-02  -0.2868516398E-04  -0.1454697199E-07  -0.5903279331E-03   0.0000000000E+00   0.0000000000E+00   0.1371663859E+00
   0.3307343831E+00   0.1871416280E-01   0.9715960959E-04  -0.3825040932E-07   0.8744364863E-03  -0.3442536838E-06   0.1527753253E+00   0.4297118700E-01   0.0000000000E+00  -0.1405635098E-02   0.0000000000E+00   0.0000000000E+00   0.1398839692E-02  -0.2861410598E-04  -0.3654651256E-04  -0.5872395369E-03   0.0000000000E+00   0.0000000000E+00   0.1364798004E+00
   0.3509999940E+00   0.3846028059E-01   0.1000000000E-03  -0.1259314826E-06   0.9000000000E-03  -0.1133383343E-05   0.1586031905E+00   0.4104698232E-01   0.0000000000E+00   0.1575613225E-04   0.0000000000E+00   0.0000000000E+00   0.1462890958E-02  -0.6533974825E-04   0.4096594384E-06  -0.5989505184E-03   0.0000000000E+00   0.0000000000E+00   0.1425631747E+00
   0.3311769264E+00   0.3768180229E-01   0.9710983635E-04  -0.1230206226E-06   0.8739885272E-03  -0.1107185603E-05   0.1579465389E+00   0.4090290117E-01   0.0000000000E+00  -0.2924881546E-02   0.0000000000E+00   0.0000000000E+00   0.1456756686E-02  -0.6481060502E-04  -0.7604692020E-04  -0.5965483202E-03   0.0000000000E+00   0.0000000000E+00   0.1420524510E+00
   0.3315283465E+00   0.5675973790E-01   0.9698375451E-04  -0.2987199771E-06   0.8728537906E-03  -0.2688479794E-05   0.1662596992E+00   0.3759088937E-01   0.0000000000E+00  -0.3954741851E-02   0.0000000000E+00   0.0000000000E+00   0.1549824324E-02  -0.1228702039E-03  -0.1028232881E-03  -0.6115517657E-03   0.0000000000E+00   0.0000000000E+00   0.1511375216E+00
   0.3318056191E+00   0.7595060553E-01   0.9679521264E-04  -0.6044565700E-06   0.8711569137E-03  -0.5440109130E-05   0.1772443102E+00   0.3332092393E-01   0.0000000000E+00  -0.4703190948E-02   0.0000000000E+00   0.0000000000E+00   0.1672480331E-02  -0.1985236914E-03  -0.1222829646E-03  -0.6316957025E-03   0.0000000000E+00   0.0000000000E+00   0.1633183200E+00
   0.3127479438E+00   0.7513927911E-01   0.9364067592E-04  -0.6233693490E-06   0.8427660833E-03  -0.5610324141E-05   0.1756799013E+00   0.3216446954E-01   0.0000000000E+00  -0.9322018800E-02   0.0000000000E+00   0.0000000000E+00   0.1660305604E-02  -0.2053950084E-03  -0.2423724888E-03  -0.6235331125E-03   0.0000000000E+00   0.0000000000E+00   0.1627752521E+00
   0.3120849328E+00   0.5605010646E-01   0.9400147928E-04  -0.3092443953E-06   0.8460133135E-03  -0.2783199558E-05   0.1642870125E+00   0.3652553112E-01   0.0000000000E+00  -0.7891390296E-02   0.0000000000E+00   0.0000000000E+00   0.1533293532E-02  -0.1276057263E-03  -0.2051761477E-03  -0.6024376309E-03   0.0000000000E+00   0.0000000000E+00   0.1500040398E+00
   0.3319478108E+00   0.9524529029E-01   0.9654537556E-04  -0.1071050767E-05   0.8689083800E-03  -0.9639456902E-05   0.1903068944E+00   0.2839016242E-01   0.0000000000E+00  -0.5100550448E-02   0.0000000000E+00   0.0000000000E+00   0.1817898457E-02  -0.2870190590E-03  -0.1326143117E-03  -0.6560911705E-03   0.0000000000E+00   0.0000000000E+00   0.1779977433E+00
   0.3131202152E+00   0.9438959329E-01   0.9315601985E-04  -0.1102871346E-05   0.8384041786E-03  -0.9925842118E-05   0.1891690243E+00   0.2719995459E-01   0.0000000000E+00  -0.1003065893E-01   0.0000000000E+00   0.0000000000E+00   0.1810090380E-02  -0.2955075271E-03  -0.2607971321E-03  -0.6491069368E-03   0.0000000000E+00   0.0000000000E+00   0.1779578242E+00
   0.3319311730E+00   0.1146923462E+00   0.9623759778E-04  -0.1721778702E-05   0.8661383800E-03  -0.1549600832E-04   0.2048785532E+00   0.2317752850E-01   0.0000000000E+00  -0.5215246074E-02   0.0000000000E+00   0.0000000000E+00   0.1979252946E-02  -0.3828603746E-03  -0.1355963979E-03  -0.6841682451E-03   0.0000000000E+00   0.0000000000E+00   0.1945017602E+00
   0.3317865341E+00   0.1342493653E+00   0.9588511024E-04  -0.2566868807E-05   0.8629659922E-03  -0.2310181927E-04   0.2202996234E+00   0.1803137118E-01   0.0000000000E+00  -0.5015649241E-02   0.0000000000E+00   0.0000000000E+00   0.2148902121E-02  -0.4805851585E-03  -0.1304068803E-03  -0.7149929838E-03   0.0000000000E+00   0.0000000000E+00   0.2120068221E+00
   0.3127159122E+00   0.1337670976E+00   0.9180551823E-04  -0.2658444113E-05   0.8262496640E-03  -0.2392599702E-04   0.2202958440E+00   0.1676744750E-01   0.0000000000E+00  -0.9757692275E-02   0.0000000000E+00   0.0000000000E+00   0.2152656097E-02  -0.4932130570E-03  -0.2536999992E-03  -0.7111898745E-03   0.0000000000E+00   0.0000000000E+00   0.2130628633E+00
   0.3131114252E+00   0.1139177764E+00   0.9254222017E-04  -0.1774655076E-05   0.8328799816E-03  -0.1597189569E-04   0.2042433080E+00   0.2188956584E-01   0.0000000000E+00  -0.1015512527E-01   0.0000000000E+00   0.0000000000E+00   0.1976764382E-02  -0.3938342656E-03  -0.2640332571E-03  -0.6783986215E-03   0.0000000000E+00   0.0000000000E+00   0.1949952822E+00
   0.2899111830E+00   0.1826371006E-01   0.9156189856E-04  -0.4625408251E-07   0.8240570870E-03  -0.4162867426E-06   0.1459428744E+00   0.4032814787E-01   0.0000000000E+00  -0.4354605611E-02   0.0000000000E+00   0.0000000000E+00   0.1338444300E-02  -0.3454714446E-04  -0.1132197459E-03  -0.5588130667E-03   0.0000000000E+00   0.0000000000E+00   0.1307703311E+00
   0.2884147995E+00   0.0000000000E+00   0.9148055335E-04   0.0000000000E+00   0.8233249802E-03   0.0000000000E+00   0.1436240250E+00   0.4099883063E-01   0.0000000000E+00  -0.1440457461E-02   0.0000000000E+00   0.0000000000E+00   0.1313243758E-02  -0.2088376876E-04  -0.3745189398E-04  -0.5538685669E-03   0.0000000000E+00   0.0000000000E+00   0.1281212602E+00
   0.3092759721E+00   0.0000000000E+00   0.9426351416E-04   0.0000000000E+00   0.8483716274E-03   0.0000000000E+00   0.1483135326E+00   0.4270444129E-01   0.0000000000E+00  -0.9266826326E-03   0.0000000000E+00   0.0000000000E+00   0.1355022002E-02  -0.1789618479E-04  -0.2409374845E-04  -0.5730539216E-03   0.0000000000E+00   0.0000000000E+00   0.1322299211E+00
   0.3103309392E+00   0.1840584749E-01   0.9433151943E-04  -0.4058067522E-07   0.8489836749E-03  -0.3652260770E-06   0.1502202893E+00   0.4201653420E-01   0.0000000000E+00  -0.2819237112E-02   0.0000000000E+00   0.0000000000E+00   0.1376153290E-02  -0.3049552585E-04  -0.7330016492E-04  -0.5767104704E-03   0.0000000000E+00   0.0000000000E+00   0.1343292624E+00
   0.2128659188E+00   0.1636119955E+00   0.6587058204E-04  -0.7861648467E-05   0.5928352384E-03  -0.7075483620E-04   0.2621716253E+00  -0.9103207551E-02   0.0000000000E+00  -0.1761377944E-01   0.0000000000E+00   0.0000000000E+00   0.2649025875E-02  -0.8775469513E-03  -0.4579582654E-03  -0.7592052531E-03   0.0000000000E+00   0.0000000000E+00   0.2685531595E+00
   0.2169975938E+00   0.1467075309E+00   0.6891048186E-04  -0.6172413349E-05   0.6201943367E-03  -0.5555172014E-04   0.2452549926E+00  -0.9219231428E-02   0.0000000000E+00  -0.2410665107E-01   0.0000000000E+00   0.0000000000E+00   0.2480207621E-02  -0.8279572921E-03  -0.6267729279E-03  -0.7081072836E-03   0.0000000000E+00   0.0000000000E+00   0.2533837521E+00
   0.2316801563E+00   0.1466817905E+00   0.7251813074E-04  -0.5390745667E-05   0.6526631767E-03  -0.4851671101E-04   0.2426596424E+00  -0.3294973117E-02   0.0000000000E+00  -0.2261285789E-01   0.0000000000E+00   0.0000000000E+00   0.2436481343E-02  -0.7609286583E-03  -0.5879343051E-03  -0.7180940078E-03   0.0000000000E+00   0.0000000000E+00   0.2474269302E+00
   0.2328604549E+00   0.1630391248E+00   0.7113459479E-04  -0.6605018358E-05   0.6402113531E-03  -0.5944516522E-04   0.2564643425E+00  -0.3036379194E-02   0.0000000000E+00  -0.1800352873E-01   0.0000000000E+00   0.0000000000E+00   0.2573752563E-02  -0.7997568196E-03  -0.4680917470E-03  -0.7602838900E-03   0.0000000000E+00   0.0000000000E+00   0.2598662175E+00
   0.2286050158E+00   0.1845609863E-01   0.8395598345E-04  -0.9936692280E-07   0.7556038510E-03  -0.8943023052E-06   0.1199752156E+00   0.2899009289E-01   0.0000000000E+00  -0.1078974285E-01   0.0000000000E+00   0.0000000000E+00   0.1112781878E-02  -0.7002471794E-04  -0.2805333142E-03  -0.4468959255E-03   0.0000000000E+00   0.0000000000E+00   0.1101981630E+00
   0.2314525241E+00   0.3704540626E-01   0.8342411208E-04  -0.2758542324E-06   0.7508170088E-03  -0.2482688092E-05   0.1319673784E+00   0.2605163821E-01   0.0000000000E+00  -0.2178030096E-01   0.0000000000E+00   0.0000000000E+00   0.1241518870E-02  -0.1353857532E-03  -0.5662878251E-03  -0.4740570500E-03   0.0000000000E+00   0.0000000000E+00   0.1265640463E+00
   0.1841350659E+00   0.0000000000E+00   0.8017289214E-04   0.0000000000E+00   0.7215560292E-03   0.0000000000E+00   0.7740173413E-01   0.1118628192E-01   0.0000000000E+00  -0.6528480885E-02   0.0000000000E+00   0.0000000000E+00   0.7404584956E-03  -0.1203423832E-03  -0.1697405030E-03  -0.2657640481E-03   0.0000000000E+00   0.0000000000E+00   0.7258887467E-01
   0.2049856709E+00   0.0000000000E+00   0.8190049282E-04   0.0000000000E+00   0.7371044354E-03   0.0000000000E+00   0.9824089968E-01   0.2259401325E-01   0.0000000000E+00  -0.4902374759E-02   0.0000000000E+00   0.0000000000E+00   0.9146269571E-03  -0.6878256651E-04  -0.1274617437E-03  -0.3625047388E-03   0.0000000000E+00   0.0000000000E+00   0.8878733963E-01
   0.1424472934E+00   0.0000000000E+00   0.7806273548E-04   0.0000000000E+00   0.7025646193E-03   0.0000000000E+00   0.1576097772E-01  -0.3998529374E-01   0.0000000000E+00  -0.1568197995E-01   0.0000000000E+00   0.0000000000E+00   0.2775656584E-03  -0.4471358705E-03  -0.4077314786E-03   0.7267294804E-04   0.0000000000E+00   0.0000000000E+00   0.5538728932E-01
   0.1464397363E+00   0.2097328790E-01   0.7700522855E-04  -0.8273498823E-06   0.6930470569E-03  -0.7446148940E-05   0.3551448407E-01  -0.3285594145E-01   0.0000000000E+00  -0.2468575229E-01   0.0000000000E+00   0.0000000000E+00   0.4537126651E-03  -0.4351028667E-03  -0.6418295596E-03  -0.7975627876E-05   0.0000000000E+00   0.0000000000E+00   0.7446768554E-01
   0.3509999940E+00   0.2498913131E+00   0.1000000000E-03  -0.1086868525E-04   0.9000000000E-03  -0.9781816729E-04   0.2997103130E+00   0.9551967435E-03   0.0000000000E+00   0.8633634722E-03   0.0000000000E+00   0.0000000000E+00   0.2994237540E-02  -0.8895789717E-03   0.2244745028E-04  -0.9019965294E-03   0.0000000000E+00   0.0000000000E+00   0.2992374321E+00
   0.3314972869E+00   0.2498905472E+00   0.9417288591E-04  -0.1094527924E-04   0.8475559731E-03  -0.9850751319E-04   0.3005495032E+00   0.9635711401E-03   0.0000000000E+00  -0.6285078100E-03   0.0000000000E+00   0.0000000000E+00   0.3002604318E-02  -0.8920127982E-03  -0.1634120306E-04  -0.9045392230E-03   0.0000000000E+00   0.0000000000E+00   0.3000723091E+00
   0.3317327941E+00   0.2309540723E+00   0.9442411028E-04  -0.9269372719E-05   0.8498169925E-03  -0.8342435447E-04   0.2908083334E+00   0.6304752171E-03   0.0000000000E+00  -0.1500040872E-02   0.0000000000E+00   0.0000000000E+00   0.2906191909E-02  -0.8661202481E-03  -0.3900106266E-04  -0.8743164259E-03   0.0000000000E+00   0.0000000000E+00   0.2905072577E+00
   0.3509999940E+00   0.2306774822E+00   0.1000000000E-03  -0.9174980948E-05   0.9000000000E-03  -0.8257482854E-04   0.2902148507E+00   0.7169460131E-03   0.0000000000E+00   0.8002931388E-03   0.0000000000E+00   0.0000000000E+00   0.2899997669E-02  -0.8634750920E-03   0.2080762161E-04  -0.8727953901E-03   0.0000000000E+00   0.0000000000E+00   0.2898614158E+00
   0.2737937026E+00   0.2315604404E+00   0.7741206039E-04  -0.1050816389E-04   0.6967085435E-03  -0.9457347503E-04   0.2991484462E+00   0.9536240550E-05   0.0000000000E+00  -0.4044853655E-02   0.0000000000E+00   0.0000000000E+00   0.2991455853E-02  -0.8973499762E-03  -0.1051661950E-03  -0.8974739473E-03   0.0000000000E+00   0.0000000000E+00   0.2992382603E+00
   0.2930939374E+00   0.2313905472E+00   0.8313833859E-04  -0.9914081685E-05   0.7482450473E-03  -0.8922673517E-04   0.2955364458E+00   0.2926889788E-03   0.0000000000E+00  -0.3424669014E-02   0.0000000000E+00   0.0000000000E+00   0.2954486391E-02  -0.8836824476E-03  -0.8904139437E-04  -0.8874874043E-03   0.0000000000E+00   0.0000000000E+00   0.2954588183E+00
   0.2924905924E+00   0.2498840308E+00   0.8239353590E-04  -0.1159691782E-04   0.7415418231E-03  -0.1043722604E-03   0.3068530802E+00   0.1089099882E-02   0.0000000000E+00  -0.1031295856E-02   0.0000000000E+00   0.0000000000E+00   0.3065263502E-02  -0.9096682417E-03  -0.2681369225E-04  -0.9238265402E-03   0.0000000000E+00   0.0000000000E+00   0.3063116834E+00
   0.2729860936E+00   0.2498778546E+00   0.7638726341E-04  -0.1221453869E-04   0.6874853707E-03  -0.1099308482E-03   0.3118360877E+00   0.1202379709E-02   0.0000000000E+00  -0.1194735324E-02   0.0000000000E+00   0.0000000000E+00   0.3114753738E-02  -0.9234844659E-03  -0.3106311842E-04  -0.9391154022E-03   0.0000000000E+00   0.0000000000E+00   0.3112392788E+00
   0.3509999940E+00   0.1730295707E+00   0.1000000000E-03  -0.4735727678E-05   0.9000000000E-03  -0.4262154910E-04   0.2508626508E+00   0.9422216533E-02   0.0000000000E+00   0.6269346370E-03   0.0000000000E+00   0.0000000000E+00   0.2480359859E-02  -0.6583657872E-03   0.1630030056E-04  -0.7808546021E-03   0.0000000000E+00   0.0000000000E+00   0.2462791384E+00
   0.3317304047E+00   0.1732662476E+00   0.9522826733E-04  -0.4807041504E-05   0.8570544060E-03  -0.4326337354E-04   0.2511591907E+00   0.9042848576E-02   0.0000000000E+00  -0.4082457129E-02   0.0000000000E+00   0.0000000000E+00   0.2484463361E-02  -0.6630490863E-03  -0.1061438854E-03  -0.7806061178E-03   0.0000000000E+00   0.0000000000E+00   0.2468481687E+00
   0.3317251336E+00   0.1538113433E+00   0.9554456449E-04  -0.3600865664E-05   0.8599010804E-03  -0.3240779098E-04   0.2358909766E+00   0.1328653272E-01   0.0000000000E+00  -0.4653634801E-02   0.0000000000E+00   0.0000000000E+00   0.2319050168E-02  -0.5748076027E-03  -0.1209945048E-03  -0.7475325280E-03   0.0000000000E+00   0.0000000000E+00   0.2296549114E+00
   0.3509999940E+00   0.1538106315E+00   0.1000000000E-03  -0.3552845045E-05   0.9000000000E-03  -0.3197560541E-04   0.2356730908E+00   0.1363688327E-01   0.0000000000E+00   0.5549430157E-03   0.0000000000E+00   0.0000000000E+00   0.2315820258E-02  -0.5706504395E-03   0.1442851841E-04  -0.7479299221E-03   0.0000000000E+00   0.0000000000E+00   0.2291443420E+00
   0.3509999940E+00   0.1345899427E+00   0.1000000000E-03  -0.2544832685E-05   0.9000000000E-03  -0.2290349417E-04   0.2201734347E+00   0.1833966976E-01   0.0000000000E+00   0.4302226034E-03   0.0000000000E+00   0.0000000000E+00   0.2146715338E-02  -0.4771236064E-03   0.1118578769E-04  -0.7155393133E-03   0.0000000000E+00   0.0000000000E+00   0.2115788151E+00
   0.3509999940E+00   0.1153674220E+00   0.1000000000E-03  -0.1719395775E-05   0.9000000000E-03  -0.1547456197E-04   0.2049026498E+00   0.2335407111E-01   0.0000000000E+00   0.3310999716E-03   0.0000000000E+00   0.0000000000E+00   0.1978964285E-02  -0.3811672384E-03   0.8608599262E-05  -0.6847701628E-03   0.0000000000E+00   0.0000000000E+00   0.1942500688E+00
   0.3509999940E+00   0.9614306861E-01   0.1000000000E-03  -0.1077928826E-05   0.9000000000E-03  -0.9701359431E-05   0.1904719398E+00   0.2847245705E-01   0.0000000000E+00   0.2177951482E-03   0.0000000000E+00   0.0000000000E+00   0.1819302027E-02  -0.2866912489E-03   0.5662673853E-05  -0.6568331906E-03   0.0000000000E+00   0.0000000000E+00   0.1779155700E+00
   0.3509999940E+00   0.7691695669E-01   0.1000000000E-03  -0.6123112952E-06   0.9000000000E-03  -0.5510801657E-05   0.1775473794E+00   0.3335796781E-01   0.0000000000E+00   0.1276999789E-03   0.0000000000E+00   0.0000000000E+00   0.1675399891E-02  -0.1990624601E-03   0.3320199452E-05  -0.6327160416E-03   0.0000000000E+00   0.0000000000E+00   0.1634041722E+00
   0.3509999940E+00   0.5768926350E-01   0.1000000000E-03  -0.3044504355E-06   0.9000000000E-03  -0.2740053920E-05   0.1667390775E+00   0.3766567200E-01   0.0000000000E+00   0.5843268379E-04   0.0000000000E+00   0.0000000000E+00   0.1554393759E-02  -0.1235605124E-03   0.1519249778E-05  -0.6132142484E-03   0.0000000000E+00   0.0000000000E+00   0.1514291013E+00
   0.0000000000E+00   0.2495678078E+00   0.0000000000E+00  -0.4321922400E-04   0.0000000000E+00  -0.3889730160E-03   0.1769523701E+00  -0.3373894304E-02   0.0000000000E+00   0.6324252106E-02   0.0000000000E+00   0.0000000000E+00   0.1779645384E-02  -0.5645960535E-03   0.1644305548E-03  -0.5207354275E-03   0.0000000000E+00   0.0000000000E+00   0.1789872287E+00
   0.3768139303E-01   0.2158285778E+00   0.9435383102E-05  -0.3901022444E-04   0.8491844792E-04  -0.3510920200E-03   0.2595706283E+00   0.8973727370E-02   0.0000000000E+00   0.2286076652E-01   0.0000000000E+00   0.0000000000E+00   0.2568785101E-02  -0.6889746113E-03   0.5943799296E-03  -0.8056330671E-03   0.0000000000E+00   0.0000000000E+00   0.2581496260E+00
   0.3629193063E-01   0.1997240607E+00   0.9862313201E-05  -0.3806382529E-04   0.8876081881E-04  -0.3425744276E-03   0.2820885288E+00   0.1756096342E-01   0.0000000000E+00   0.2659655749E-01   0.0000000000E+00   0.0000000000E+00   0.2768202398E-02  -0.6706559523E-03   0.6915104946E-03  -0.8989484768E-03   0.0000000000E+00   0.0000000000E+00   0.2774637378E+00
   0.5573698354E-01   0.1982561357E+00   0.1540615401E-04  -0.3528882907E-04   0.1386553861E-03  -0.3175994617E-03   0.2900814827E+00   0.9875021474E-02   0.0000000000E+00   0.3526969874E-01   0.0000000000E+00   0.0000000000E+00   0.2871189762E-02  -0.7714942332E-03   0.9170121673E-03  -0.8998695124E-03   0.0000000000E+00   0.0000000000E+00   0.2918241348E+00
   0.5765428075E-01   0.2145629041E+00   0.1475406468E-04  -0.3624449171E-04   0.1327865821E-03  -0.3262004254E-03   0.2710048836E+00   0.4362305534E-02   0.0000000000E+00   0.2950206362E-01   0.0000000000E+00   0.0000000000E+00   0.2696961919E-02  -0.7693915954E-03   0.7670536542E-03  -0.8261015674E-03   0.0000000000E+00   0.0000000000E+00   0.2736106003E+00
   0.1785580616E-01   0.2000184489E+00   0.4813806206E-05  -0.3969240577E-04   0.4332425585E-04  -0.3572316519E-03   0.2787803564E+00   0.2347203328E-01   0.0000000000E+00   0.1236240470E-01   0.0000000000E+00   0.0000000000E+00   0.2717387464E-02  -0.6016207364E-03   0.3214225222E-03  -0.9067571690E-03   0.0000000000E+00   0.0000000000E+00   0.2689830016E+00
   0.5833206699E-01   0.2319437345E+00   0.1339390857E-04  -0.3743534535E-04   0.1205451772E-03  -0.3369181082E-03   0.2483186609E+00   0.2516719870E-02   0.0000000000E+00   0.1692132973E-01   0.0000000000E+00   0.0000000000E+00   0.2475636449E-02  -0.7197887840E-03   0.4399545731E-03  -0.7525061423E-03   0.0000000000E+00   0.0000000000E+00   0.2490319316E+00
   0.1559414732E+00   0.2497759240E+00   0.3859122364E-04  -0.2240760423E-04   0.3473210127E-03  -0.2016684381E-03   0.3238204678E+00   0.1000861976E-02   0.0000000000E+00   0.2067822795E-02   0.0000000000E+00   0.0000000000E+00   0.3235202093E-02  -0.9614527838E-03   0.5376339266E-04  -0.9744639895E-03   0.0000000000E+00   0.0000000000E+00   0.3233395191E+00
   0.1364350779E+00   0.2497456451E+00   0.3239678858E-04  -0.2543549050E-04   0.2915710972E-03  -0.2289194145E-03   0.3127192027E+00   0.4736354199E-03   0.0000000000E+00   0.3424643918E-02   0.0000000000E+00   0.0000000000E+00   0.3125771121E-02  -0.9334212539E-03   0.8904074186E-04  -0.9395785143E-03   0.0000000000E+00   0.0000000000E+00   0.3124824969E+00
   0.1754494202E+00   0.2498024280E+00   0.4494232407E-04  -0.1975719873E-04   0.4044809166E-03  -0.1778147886E-03   0.3292423925E+00   0.1300294665E-02   0.0000000000E+00   0.8837705637E-03   0.0000000000E+00   0.0000000000E+00   0.3288523041E-02  -0.9747242309E-03   0.2297803466E-04  -0.9916280615E-03   0.0000000000E+00   0.0000000000E+00   0.3286197702E+00
   0.1763980463E+00   0.2323167004E+00   0.4739093448E-04  -0.1794125539E-04   0.4265184103E-03  -0.1614712985E-03   0.3129299686E+00  -0.2477177278E-02   0.0000000000E+00   0.1578232361E-02   0.0000000000E+00   0.0000000000E+00   0.3136731218E-02  -0.9635616786E-03   0.4103404137E-04  -0.9313583740E-03   0.0000000000E+00   0.0000000000E+00   0.3142092707E+00
   0.2258395748E+00   0.0000000000E+00   0.8395808191E-04   0.0000000000E+00   0.7556227372E-03   0.0000000000E+00   0.1145748025E+00   0.2965084045E-01   0.0000000000E+00  -0.3696525468E-02   0.0000000000E+00   0.0000000000E+00   0.1056795504E-02  -0.4721600300E-04  -0.9610966217E-04  -0.4326769289E-03   0.0000000000E+00   0.0000000000E+00   0.1029064905E+00
   0.2466961400E+00   0.0000000000E+00   0.8628030067E-04   0.0000000000E+00   0.7765227061E-03   0.0000000000E+00   0.1272239298E+00   0.3479634149E-01   0.0000000000E+00  -0.2771607162E-02   0.0000000000E+00   0.0000000000E+00   0.1167850273E-02  -0.3370837442E-04  -0.7206178621E-04  -0.4860608138E-03   0.0000000000E+00   0.0000000000E+00   0.1138031829E+00
   0.2491097593E+00   0.1834170111E-01   0.8634173279E-04  -0.7267901072E-07   0.7770755951E-03  -0.6541110965E-06   0.1311954157E+00   0.3408990198E-01   0.0000000000E+00  -0.8211034077E-02   0.0000000000E+00   0.0000000000E+00   0.1209684451E-02  -0.5268722725E-04  -0.2134868860E-03  -0.4958559530E-03   0.0000000000E+00   0.0000000000E+00   0.1188428042E+00
   0.1971228133E+00   0.1993897643E+00   0.5742472998E-04  -0.1248186585E-04   0.5168225699E-03  -0.1123367926E-03   0.2904435267E+00  -0.7626689001E-02   0.0000000000E+00  -0.5330483970E-02   0.0000000000E+00   0.0000000000E+00   0.2927315334E-02  -0.9475974702E-03  -0.1385925832E-03  -0.8484505132E-03   0.0000000000E+00   0.0000000000E+00   0.2944789546E+00
   0.2161896928E+00   0.1982850692E+00   0.6305677502E-04  -0.1071878350E-04   0.5675109752E-03  -0.9646905152E-04   0.2858704507E+00  -0.4543341002E-02   0.0000000000E+00  -0.8848884034E-02   0.0000000000E+00   0.0000000000E+00   0.2872334530E-02  -0.9030447620E-03  -0.2300709849E-03  -0.8439813290E-03   0.0000000000E+00   0.0000000000E+00   0.2885760084E+00
   0.2161561656E+00   0.2150156041E+00   0.6141176059E-04  -0.1224439457E-04   0.5527058453E-03  -0.1101995511E-03   0.2976906811E+00  -0.2439001588E-02   0.0000000000E+00  -0.5924291728E-02   0.0000000000E+00   0.0000000000E+00   0.2984223816E-02  -0.9174620593E-03  -0.1540315849E-03  -0.8857550386E-03   0.0000000000E+00   0.0000000000E+00   0.2991057462E+00
   0.1967783169E+00   0.2154809711E+00   0.5556089056E-04  -0.1403508641E-04   0.5000480150E-03  -0.1263157777E-03   0.3008148362E+00  -0.4005451792E-02   0.0000000000E+00  -0.2685251239E-02   0.0000000000E+00   0.0000000000E+00   0.3020164718E-02  -0.9424990267E-03  -0.6981653222E-04  -0.8904281534E-03   0.0000000000E+00   0.0000000000E+00   0.3028860063E+00
   0.1178128043E+00   0.2321666664E+00   0.2949303427E-04  -0.2703336411E-04   0.2654373085E-03  -0.2433002770E-03   0.2931461525E+00  -0.2696496718E-02   0.0000000000E+00   0.1312646816E-01   0.0000000000E+00   0.0000000000E+00   0.2939551015E-02  -0.9064034247E-03   0.3412881722E-03  -0.8713489674E-03   0.0000000000E+00   0.0000000000E+00   0.2954444920E+00
   0.1192024691E+00   0.2149958498E+00   0.3218391309E-04  -0.2518562119E-04   0.2896552179E-03  -0.2266705908E-03   0.2959510453E+00  -0.7249503677E-02   0.0000000000E+00   0.2201784760E-01   0.0000000000E+00   0.0000000000E+00   0.2981258964E-02  -0.9603481726E-03   0.5724640375E-03  -0.8661046248E-03   0.0000000000E+00   0.0000000000E+00   0.3019421994E+00
   0.2144662948E+00   0.2498432352E+00   0.5774107983E-04  -0.1567647582E-04   0.5196697184E-03  -0.1410882824E-03   0.3275769917E+00   0.1486507012E-02   0.0000000000E+00  -0.6983908584E-03   0.0000000000E+00   0.0000000000E+00   0.3271310396E-02  -0.9678659049E-03  -0.1815816232E-04  -0.9871904960E-03   0.0000000000E+00   0.0000000000E+00   0.3268540818E+00
   0.1949579590E+00   0.2498248472E+00   0.5135110218E-04  -0.1751527602E-04   0.4621599197E-03  -0.1576374842E-03   0.3300925457E+00   0.1453536845E-02   0.0000000000E+00  -0.4023709811E-04   0.0000000000E+00   0.0000000000E+00   0.3296564846E-02  -0.9757422686E-03  -0.1046164551E-05  -0.9946382476E-03   0.0000000000E+00   0.0000000000E+00   0.3293919844E+00
   0.1959703681E+00   0.2322619958E+00   0.5352310967E-04  -0.1570632122E-04   0.4817079871E-03  -0.1413568910E-03   0.3129934990E+00  -0.1974400756E-02   0.0000000000E+00  -0.1092246436E-02   0.0000000000E+00   0.0000000000E+00   0.3135858192E-02  -0.9587245045E-03  -0.2839840734E-04  -0.9330572947E-03   0.0000000000E+00   0.0000000000E+00   0.3140116829E+00
   0.2155083894E+00   0.2321448413E+00   0.5962434494E-04  -0.1388846513E-04   0.5366191045E-03  -0.1249961862E-03   0.3108009314E+00  -0.1406680127E-02   0.0000000000E+00  -0.2933359654E-02   0.0000000000E+00   0.0000000000E+00   0.3112229354E-02  -0.9464695954E-03  -0.7626735100E-04  -0.9281827537E-03   0.0000000000E+00   0.0000000000E+00   0.3115670832E+00
   0.2349908010E+00   0.2318292130E+00   0.6566150025E-04  -0.1243630294E-04   0.5909535022E-03  -0.1119267265E-03   0.3072978061E+00  -0.8785473948E-03   0.0000000000E+00  -0.3967357145E-02   0.0000000000E+00   0.0000000000E+00   0.3075613703E-02  -0.9306788922E-03  -0.1031512858E-03  -0.9192577760E-03   0.0000000000E+00   0.0000000000E+00   0.3078330552E+00
   0.2544128477E+00   0.2317107607E+00   0.7158397292E-04  -0.1133393363E-04   0.6442557562E-03  -0.1020054027E-03   0.3031864717E+00  -0.3998569789E-03   0.0000000000E+00  -0.4292765981E-02   0.0000000000E+00   0.0000000000E+00   0.3033064288E-02  -0.9135579850E-03  -0.1116119155E-03  -0.9083598443E-03   0.0000000000E+00   0.0000000000E+00   0.3034939121E+00
   0.2534805629E+00   0.2498692878E+00   0.7027778630E-04  -0.1307121758E-04   0.6325000767E-03  -0.1176409582E-03   0.3174345917E+00   0.1328509494E-02   0.0000000000E+00  -0.1227668240E-02   0.0000000000E+00   0.0000000000E+00   0.3170360388E-02  -0.9390186800E-03  -0.3191937425E-04  -0.9562893035E-03   0.0000000000E+00   0.0000000000E+00   0.3167771366E+00
   0.2339739263E+00   0.2498578956E+00   0.6405923486E-04  -0.1421043871E-04   0.5765331137E-03  -0.1278939484E-03   0.3229744729E+00   0.1431393710E-02   0.0000000000E+00  -0.1080262810E-02   0.0000000000E+00   0.0000000000E+00   0.3225450548E-02  -0.9546094817E-03  -0.2808683305E-04  -0.9732175999E-03   0.0000000000E+00   0.0000000000E+00   0.3222708535E+00
   0.3119942597E+00   0.2498881732E+00   0.8831377352E-04  -0.1118267779E-04   0.7948239617E-03  -0.1006441001E-03   0.3029922409E+00   0.1002634509E-02   0.0000000000E+00  -0.6794190326E-03   0.0000000000E+00   0.0000000000E+00   0.3026914506E-02  -0.8989503777E-03  -0.1766489485E-04  -0.9119846264E-03   0.0000000000E+00   0.0000000000E+00   0.3024945022E+00
   0.3123905050E+00   0.2311771283E+00   0.8879889990E-04  -0.9509266283E-05   0.7991900991E-03  -0.8558339654E-04   0.2926966945E+00   0.5211617868E-03   0.0000000000E+00  -0.2388456383E-02   0.0000000000E+00   0.0000000000E+00   0.2925403460E-02  -0.8728784656E-03  -0.6209986595E-04  -0.8796535688E-03   0.0000000000E+00   0.0000000000E+00   0.2924744841E+00
   0.5599144392E-01   0.8288852425E-01   0.4344202196E-04  -0.2584352481E-04   0.3909781977E-03  -0.2325917233E-03   0.3581497521E+00   0.1219091115E+00   0.0000000000E+00  -0.1814119190E+00   0.0000000000E+00   0.0000000000E+00   0.3215770186E-02   0.1446418589E-03  -0.4716709893E-02  -0.1440176591E-02   0.0000000000E+00   0.0000000000E+00   0.4321541909E+00
   0.7234157838E-01   0.9392631018E-01   0.4116541761E-04  -0.2148080201E-04   0.3704887585E-03  -0.1933272181E-03   0.2874247617E+00  -0.6338050592E-02   0.0000000000E+00  -0.7568589295E-01   0.0000000000E+00   0.0000000000E+00   0.2893261769E-02  -0.9256547909E-03  -0.1967833217E-02  -0.8432601333E-03   0.0000000000E+00   0.0000000000E+00   0.3178625557E+00
   0.6231132717E-01   0.1067326011E+00   0.3232192675E-04  -0.2558068784E-04   0.2908973408E-03  -0.2302261905E-03   0.3492048393E+00   0.3842335451E-02   0.0000000000E+00  -0.4567222972E-01   0.0000000000E+00   0.0000000000E+00   0.3480521387E-02  -0.1009191164E-02  -0.1187477973E-02  -0.1059141524E-02   0.0000000000E+00   0.0000000000E+00   0.3522299948E+00
   0.3856342031E-01   0.9208678672E-01   0.2950777079E-04  -0.3011651786E-04   0.2655699371E-03  -0.2710486608E-03   0.5234903504E+00   0.8994188796E-01   0.0000000000E+00  -0.1363350750E+00   0.0000000000E+00   0.0000000000E+00   0.4965077840E-02  -0.6710521716E-03  -0.3544711951E-02  -0.1840296715E-02   0.0000000000E+00   0.0000000000E+00   0.5315089522E+00
   0.0000000000E+00   0.1995980182E+00   0.0000000000E+00  -0.4019847649E-04   0.0000000000E+00  -0.3617862884E-03   0.2773178793E+00   0.2551939825E-01   0.0000000000E+00   0.6653051470E-02   0.0000000000E+00   0.0000000000E+00   0.2696620598E-02  -0.5767596554E-03   0.1729793382E-03  -0.9085118326E-03   0.0000000000E+00   0.0000000000E+00   0.2654999062E+00
   0.0000000000E+00   0.1829405032E+00   0.0000000000E+00  -0.3928337785E-04   0.0000000000E+00  -0.3535504006E-03   0.3029578544E+00   0.3988844821E-01   0.0000000000E+00   0.7024958859E-02   0.0000000000E+00   0.0000000000E+00   0.2909913199E-02  -0.5099890811E-03   0.1826489303E-03  -0.1028538908E-02   0.0000000000E+00   0.0000000000E+00   0.2851425488E+00
   0.3668558345E-01   0.1165441805E+00   0.1789455522E-04  -0.3232355351E-04   0.1610509970E-03  -0.2909119816E-03   0.4723580323E+00   0.6237927778E-01   0.0000000000E+00  -0.4976224904E-01   0.0000000000E+00   0.0000000000E+00   0.4536442490E-02  -0.7932813191E-03  -0.1293818475E-02  -0.1604211930E-02   0.0000000000E+00   0.0000000000E+00   0.4576274241E+00
   0.2675547310E+00   0.0000000000E+00   0.8880500343E-04   0.0000000000E+00   0.7992450308E-03   0.0000000000E+00   0.1367086295E+00   0.3842485856E-01   0.0000000000E+00  -0.2053629691E-02   0.0000000000E+00   0.0000000000E+00   0.1251811720E-02  -0.2587730299E-04  -0.5339437198E-04  -0.5254004643E-03   0.0000000000E+00   0.0000000000E+00   0.1220810726E+00
   0.2695148190E+00   0.1829094641E-01   0.8888740044E-04  -0.5641924454E-07   0.7999866040E-03  -0.5077732009E-06   0.1397015578E+00   0.3775862585E-01   0.0000000000E+00  -0.6115420907E-02   0.0000000000E+00   0.0000000000E+00   0.1283739700E-02  -0.4151841478E-04  -0.1590009436E-03  -0.5323805509E-03   0.0000000000E+00   0.0000000000E+00   0.1256556947E+00
   0.2373376176E+00   0.7430522176E-01   0.8132145904E-04  -0.1097434428E-05   0.7318931314E-03  -0.9876909853E-05   0.1674746079E+00   0.1626657382E-01   0.0000000000E+00  -0.3101558843E-01   0.0000000000E+00   0.0000000000E+00   0.1625946358E-02  -0.3397580855E-03  -0.8064052991E-03  -0.5512235452E-03   0.0000000000E+00   0.0000000000E+00   0.1686640158E+00
   0.2560605632E+00   0.7382902636E-01   0.8439942041E-04  -0.8864840720E-06   0.7595947837E-03  -0.7978356648E-05   0.1693287258E+00   0.2251219740E-01   0.0000000000E+00  -0.2479820914E-01   0.0000000000E+00   0.0000000000E+00   0.1625750666E-02  -0.2828642033E-03  -0.6447534376E-03  -0.5755227695E-03   0.0000000000E+00   0.0000000000E+00   0.1648956533E+00
   0.3112778525E+00   0.3712567879E-01   0.9423954925E-04  -0.1283310338E-06   0.8481559432E-03  -0.1154979304E-05   0.1556407238E+00   0.3991139912E-01   0.0000000000E+00  -0.5857478628E-02   0.0000000000E+00   0.0000000000E+00   0.1436673041E-02  -0.6780818025E-04  -0.1522944443E-03  -0.5866563688E-03   0.0000000000E+00   0.0000000000E+00   0.1403527429E+00
   0.2913542680E+00   0.3677581607E-01   0.9141560164E-04  -0.1423234057E-06   0.8227404147E-03  -0.1280910652E-05   0.1520685123E+00   0.3815150015E-01   0.0000000000E+00  -0.9014319384E-02   0.0000000000E+00   0.0000000000E+00   0.1406230623E-02  -0.7469053552E-04  -0.2343723040E-03  -0.5706600374E-03   0.0000000000E+00   0.0000000000E+00   0.1378681464E+00
   0.3509999940E+00   0.2114627855E+00   0.1000000000E-03  -0.7567848025E-05   0.9000000000E-03  -0.6811063223E-04   0.2786887455E+00   0.2945634832E-02   0.0000000000E+00   0.7482784627E-03   0.0000000000E+00   0.0000000000E+00   0.2778050551E-02  -0.8066098883E-03   0.1945524003E-04  -0.8449031411E-03   0.0000000000E+00   0.0000000000E+00   0.2772289249E+00
   0.3318553272E+00   0.2119041703E+00   0.9469092110E-04  -0.7669373064E-05   0.8522182899E-03  -0.6902435758E-04   0.2791682543E+00   0.2746463673E-02   0.0000000000E+00  -0.2644404635E-02   0.0000000000E+00   0.0000000000E+00   0.2783443152E-02  -0.8100401261E-03  -0.6875452051E-04  -0.8457441538E-03   0.0000000000E+00   0.0000000000E+00   0.2778381168E+00
   0.3317924799E+00   0.1926399307E+00   0.9494488858E-04  -0.6170726622E-05   0.8545039972E-03  -0.5553653960E-04   0.2657120009E+00   0.5459588363E-02   0.0000000000E+00  -0.3417315813E-02   0.0000000000E+00   0.0000000000E+00   0.2640741244E-02  -0.7425401192E-03  -0.8885021114E-04  -0.8135147679E-03   0.0000000000E+00   0.0000000000E+00   0.2630827054E+00
   0.3509999940E+00   0.1922468954E+00   0.1000000000E-03  -0.6080064966E-05   0.9000000000E-03  -0.5472058469E-04   0.2653431100E+00   0.5781709853E-02   0.0000000000E+00   0.7018580907E-03   0.0000000000E+00   0.0000000000E+00   0.2636085971E-02  -0.7382122316E-03   0.1824831036E-04  -0.8133744597E-03   0.0000000000E+00   0.0000000000E+00   0.2624980883E+00
   0.2934020303E+00   0.2126010988E+00   0.8392773261E-04  -0.8295115917E-05   0.7553495935E-03  -0.7465604325E-04   0.2831364726E+00   0.1927712302E-02   0.0000000000E+00  -0.6515277217E-02   0.0000000000E+00   0.0000000000E+00   0.2825581589E-02  -0.8301322948E-03  -0.1693972076E-03  -0.8551925547E-03   0.0000000000E+00   0.0000000000E+00   0.2824007715E+00
   0.2742888352E+00   0.2130545971E+00   0.7849061712E-04  -0.8876686335E-05   0.7064155541E-03  -0.7989017702E-04   0.2862935739E+00   0.1145101458E-02   0.0000000000E+00  -0.7793789809E-02   0.0000000000E+00   0.0000000000E+00   0.2859500434E-02  -0.8474297071E-03  -0.2026385350E-03  -0.8623160260E-03   0.0000000000E+00   0.0000000000E+00   0.2860393807E+00
   0.2741507008E+00   0.1941991909E+00   0.7951868220E-04  -0.7331209604E-05   0.7156681398E-03  -0.6598088644E-04   0.2723328417E+00   0.2413119167E-02   0.0000000000E+00  -0.1044123656E-01   0.0000000000E+00   0.0000000000E+00   0.2716089059E-02  -0.7928673333E-03  -0.2714721506E-03  -0.8242378825E-03   0.0000000000E+00   0.0000000000E+00   0.2717418511E+00
   0.2932659802E+00   0.1933792241E+00   0.8470531593E-04  -0.6756086725E-05   0.7623478434E-03  -0.6080478052E-04   0.2693898990E+00   0.3646473795E-02   0.0000000000E+00  -0.8768751182E-02   0.0000000000E+00   0.0000000000E+00   0.2682959569E-02  -0.7717049592E-03  -0.2279875307E-03  -0.8191091185E-03   0.0000000000E+00   0.0000000000E+00   0.2680126272E+00
   0.1951742231E+00   0.5815854382E-01   0.7676090656E-04  -0.1157358415E-05   0.6908481590E-03  -0.1041622573E-04   0.1390839461E+00   0.2917871975E-02   0.0000000000E+00  -0.4374896211E-01   0.0000000000E+00   0.0000000000E+00   0.1382085845E-02  -0.3880731186E-03  -0.1137473015E-02  -0.4260054543E-03   0.0000000000E+00   0.0000000000E+00   0.1569570392E+00
   0.2148906300E+00   0.5660554807E-01   0.7967510152E-04  -0.8035031991E-06   0.7170759136E-03  -0.7231528792E-05   0.1433059337E+00   0.1317891555E-01   0.0000000000E+00  -0.3522436364E-01   0.0000000000E+00   0.0000000000E+00   0.1393522591E-02  -0.2981286457E-03  -0.9158334546E-03  -0.4694545478E-03   0.0000000000E+00   0.0000000000E+00   0.1501551138E+00
   0.7347195568E-01   0.1303393244E+00   0.2929863793E-04  -0.2527386271E-04   0.2636877413E-03  -0.2274647644E-03   0.3555951442E+00  -0.1309143898E-01   0.0000000000E+00   0.7761444414E-02   0.0000000000E+00   0.0000000000E+00   0.3595225759E-02  -0.1197699822E-02   0.2017975548E-03  -0.1027511116E-02   0.0000000000E+00   0.0000000000E+00   0.3622551490E+00
   0.5573369557E-01   0.1221884108E+00   0.2460739718E-04  -0.2870491898E-04   0.2214665746E-03  -0.2583442708E-03   0.4114051286E+00   0.2733220357E-01   0.0000000000E+00  -0.1263686979E-01   0.0000000000E+00   0.0000000000E+00   0.4032054675E-02  -0.9608933501E-03  -0.3285586146E-03  -0.1316211996E-02   0.0000000000E+00   0.0000000000E+00   0.3981124775E+00
   0.8113162229E-01   0.1170592167E+00   0.3544018882E-04  -0.2168703484E-04   0.3189616994E-03  -0.1951833135E-03   0.3408811370E+00  -0.2366131388E-01   0.0000000000E+00  -0.1424745760E-01   0.0000000000E+00   0.0000000000E+00   0.3479795312E-02  -0.1259256550E-02  -0.3704338976E-03  -0.9516594694E-03   0.0000000000E+00   0.0000000000E+00   0.3538634283E+00
   0.5844631841E-01   0.2496135368E+00   0.1129848072E-04  -0.3864632041E-04   0.1016863265E-03  -0.3478168837E-03   0.2214768338E+00  -0.2187457806E-02   0.0000000000E+00   0.5916477020E-02   0.0000000000E+00   0.0000000000E+00   0.2221330712E-02  -0.6863050796E-03   0.1538284025E-03  -0.6578681281E-03   0.0000000000E+00   0.0000000000E+00   0.2226189619E+00
   0.7839456652E-01   0.2130945157E+00   0.2059087172E-04  -0.3261142629E-04   0.1853178455E-03  -0.2935028366E-03   0.2799501853E+00  -0.7466246893E-03   0.0000000000E+00   0.3198897811E-01   0.0000000000E+00   0.0000000000E+00   0.2801741727E-02  -0.8473168028E-03   0.8317134308E-03  -0.8376106818E-03   0.0000000000E+00   0.0000000000E+00   0.2855953648E+00
   0.7822049185E-01   0.1931253434E+00   0.2239920479E-04  -0.3090295616E-04   0.2015928431E-03  -0.2781266054E-03   0.2995772494E+00  -0.1982156855E-02   0.0000000000E+00   0.3770528624E-01   0.0000000000E+00   0.0000000000E+00   0.3001718965E-02  -0.9185533168E-03   0.9803374421E-03  -0.8927852777E-03   0.0000000000E+00   0.0000000000E+00   0.3075795506E+00
   0.1772528240E+00   0.2156372370E+00   0.4963819535E-04  -0.1623629999E-04   0.4467437581E-03  -0.1461266999E-03   0.3025208239E+00  -0.5466963951E-02   0.0000000000E+00   0.2003961927E-02   0.0000000000E+00   0.0000000000E+00   0.3041609131E-02  -0.9622321112E-03   0.5210301011E-04  -0.8911615798E-03   0.0000000000E+00   0.0000000000E+00   0.3053169734E+00
   0.3124199410E+00   0.1536923066E+00   0.9107189544E-04  -0.3740042275E-05   0.8196470590E-03  -0.3366038048E-04   0.2366229311E+00   0.1210156942E-01   0.0000000000E+00  -0.8765127423E-02   0.0000000000E+00   0.0000000000E+00   0.2329924602E-02  -0.5888530990E-03  -0.2278933130E-03  -0.7461735015E-03   0.0000000000E+00   0.0000000000E+00   0.2313041606E+00
   0.3124009291E+00   0.1733882450E+00   0.9042240577E-04  -0.4987196300E-05   0.8138016520E-03  -0.4488476670E-04   0.2522444237E+00   0.8172762971E-02   0.0000000000E+00  -0.7635516301E-02   0.0000000000E+00   0.0000000000E+00   0.2497925948E-02  -0.6750056412E-03  -0.1985234238E-03  -0.7812515599E-03   0.0000000000E+00   0.0000000000E+00   0.2486061047E+00
   0.1169314198E+00   0.2497124504E+00   0.2647527911E-04  -0.2875496312E-04   0.2382775120E-03  -0.2587946680E-03   0.2955111221E+00  -0.1445298978E-03   0.0000000000E+00   0.4821977548E-02   0.0000000000E+00   0.0000000000E+00   0.2955544810E-02  -0.8879786652E-03   0.1253714163E-03  -0.8860997765E-03   0.0000000000E+00   0.0000000000E+00   0.2955519157E+00
   0.7126113830E-01   0.7049687342E-01   0.5504569043E-04  -0.2138079808E-04   0.4954112139E-03  -0.1924271827E-03   0.1413334712E+00   0.7121047068E-01   0.0000000000E+00  -0.9158903547E-01   0.0000000000E+00   0.0000000000E+00   0.1199703300E-02   0.2881042933E-03  -0.2381314922E-02  -0.6376318255E-03   0.0000000000E+00   0.0000000000E+00   0.1860346321E+00
   0.8440995408E-01   0.7949876765E-01   0.5169976838E-04  -0.1662003463E-04   0.4652979154E-03  -0.1495803117E-03   0.1929599564E+00  -0.6963263110E-02   0.0000000000E+00  -0.7709441885E-01   0.0000000000E+00   0.0000000000E+00   0.1950489353E-02  -0.6485125002E-03  -0.2004454890E-02  -0.5579900798E-03   0.0000000000E+00   0.0000000000E+00   0.2389783816E+00
   0.2356107795E+00   0.2142030681E+00   0.6723214812E-04  -0.1079358833E-04   0.6050893331E-03  -0.9714229493E-04   0.2938638706E+00  -0.1048183692E-02   0.0000000000E+00  -0.7662168602E-02   0.0000000000E+00   0.0000000000E+00   0.2941783257E-02  -0.8920734487E-03  -0.1992163837E-03  -0.8784470607E-03   0.0000000000E+00   0.0000000000E+00   0.2946937510E+00
   0.1779564691E+00   0.1997674147E+00   0.5173751222E-04  -0.1460722932E-04   0.4656376100E-03  -0.1314650639E-03   0.2943798609E+00  -0.1031634267E-01   0.0000000000E+00   0.2490168798E-04   0.0000000000E+00   0.0000000000E+00   0.2974747637E-02  -0.9863030093E-03   0.6474438876E-06  -0.8521905545E-03   0.0000000000E+00   0.0000000000E+00   0.2996632566E+00
   0.1589845297E+00   0.1996164809E+00   0.4609107313E-04  -0.1709570653E-04   0.4148196582E-03  -0.1538613588E-03   0.2971670736E+00  -0.1256918347E-01   0.0000000000E+00   0.6861667414E-02   0.0000000000E+00   0.0000000000E+00   0.3009378286E-02  -0.1017193056E-02   0.1784033528E-03  -0.8537936704E-03   0.0000000000E+00   0.0000000000E+00   0.3038593625E+00
   0.1601661373E+00   0.1837582125E+00   0.4846833163E-04  -0.1527984993E-04   0.4362149846E-03  -0.1375186494E-03   0.2926191179E+00  -0.1903499162E-01   0.0000000000E+00   0.3120537221E-02   0.0000000000E+00   0.0000000000E+00   0.2983296154E-02  -0.1068207270E-02   0.8113396775E-04  -0.8207523788E-03   0.0000000000E+00   0.0000000000E+00   0.3025916116E+00
   0.1783493749E+00   0.1844569947E+00   0.5373199084E-04  -0.1303502965E-04   0.4835879176E-03  -0.1173152668E-03   0.2873372527E+00  -0.1498325017E-01   0.0000000000E+00  -0.3696128794E-02   0.0000000000E+00   0.0000000000E+00   0.2918322278E-02  -0.1011844260E-02  -0.9609934866E-04  -0.8170620076E-03   0.0000000000E+00   0.0000000000E+00   0.2951557192E+00
   0.2550280340E+00   0.2136214129E+00   0.7292869793E-04  -0.9694212198E-05   0.6563582814E-03  -0.8724790978E-04   0.2898676296E+00   0.9857923429E-04   0.0000000000E+00  -0.8232149231E-02   0.0000000000E+00   0.0000000000E+00   0.2898380559E-02  -0.8686170966E-03  -0.2140358800E-03  -0.8698986266E-03   0.0000000000E+00   0.0000000000E+00   0.2901676641E+00
   0.3126047398E+00   0.2122534931E+00   0.8932498464E-04  -0.7903893900E-05   0.8039248618E-03  -0.7113504510E-04   0.2808101763E+00   0.2417137497E-02   0.0000000000E+00  -0.4616876392E-02   0.0000000000E+00   0.0000000000E+00   0.2800850350E-02  -0.8182591538E-03  -0.1200387862E-03  -0.8496819412E-03   0.0000000000E+00   0.0000000000E+00   0.2797251197E+00
   0.3125639388E+00   0.1929693039E+00   0.8985828391E-04  -0.6385507111E-05   0.8087245552E-03  -0.5746956400E-04   0.2671922383E+00   0.4877878425E-02   0.0000000000E+00  -0.6200836037E-02   0.0000000000E+00   0.0000000000E+00   0.2657288748E-02  -0.7527979306E-03  -0.1612217370E-03  -0.8162103501E-03   0.0000000000E+00   0.0000000000E+00   0.2650093210E+00
   0.6733814601E-01   0.1437891846E+00   0.2452356068E-04  -0.2821564280E-04   0.2207120462E-03  -0.2539407852E-03   0.3559973471E+00   0.2101669044E-02   0.0000000000E+00   0.2450636954E-01   0.0000000000E+00   0.0000000000E+00   0.3553668464E-02  -0.1046975351E-02   0.6371656079E-03  -0.1074297048E-02   0.0000000000E+00   0.0000000000E+00   0.3573890270E+00
   0.6232913277E-01   0.1543361053E+00   0.2130611710E-04  -0.3033326792E-04   0.1917550539E-03  -0.2729994113E-03   0.3491520876E+00   0.7697255314E-02   0.0000000000E+00   0.3110016482E-01   0.0000000000E+00   0.0000000000E+00   0.3468429110E-02  -0.9704837097E-03   0.8086042852E-03  -0.1070548029E-02   0.0000000000E+00   0.0000000000E+00   0.3493073736E+00
   0.1532840499E+00   0.3950117908E-01   0.7481638904E-04  -0.1453971864E-05   0.6733475014E-03  -0.1308574678E-04   0.8310567859E-01  -0.2552750000E-01   0.0000000000E+00  -0.5244431470E-01   0.0000000000E+00   0.0000000000E+00   0.9076392859E-03  -0.5045920357E-03  -0.1363552182E-02  -0.1727345358E-03   0.0000000000E+00   0.0000000000E+00   0.1327729529E+00
   0.1360715768E+00   0.4586946440E-01   0.7183838343E-04  -0.2927479599E-05   0.6465454508E-03  -0.2634731639E-04   0.8293239942E-01  -0.4996900723E-01   0.0000000000E+00  -0.6864766005E-01   0.0000000000E+00   0.0000000000E+00   0.9792310159E-03  -0.7484872706E-03  -0.1784839161E-02  -0.9889017655E-04   0.0000000000E+00   0.0000000000E+00   0.1617116046E+00
   0.1632886024E+00   0.0000000000E+00   0.7886084245E-04   0.0000000000E+00   0.7097475820E-03   0.0000000000E+00   0.5028888306E-01  -0.4108661716E-02   0.0000000000E+00  -0.9027164419E-02   0.0000000000E+00   0.0000000000E+00   0.5152148158E-03  -0.1919532663E-03  -0.2347062749E-03  -0.1385406640E-03   0.0000000000E+00   0.0000000000E+00   0.5160877037E-01
   0.1672132883E+00   0.1949468158E-01   0.7833362562E-04  -0.4074617144E-06   0.7050026306E-03  -0.3667155430E-05   0.6689374101E-01  -0.4543387645E-02   0.0000000000E+00  -0.2210290786E-01   0.0000000000E+00   0.0000000000E+00   0.6825675730E-03  -0.2461150995E-03  -0.5746756044E-03  -0.1870510601E-03   0.0000000000E+00   0.0000000000E+00   0.7985806409E-01
   0.2763073266E+00   0.9271124576E-01   0.8659185802E-04  -0.1291364420E-05   0.7793267222E-03  -0.1162227978E-04   0.1869452632E+00   0.2196745148E-01   0.0000000000E+00  -0.2022385730E-01   0.0000000000E+00   0.0000000000E+00   0.1803550277E-02  -0.3411612746E-03  -0.5258202899E-03  -0.6267381439E-03   0.0000000000E+00   0.0000000000E+00   0.1803772810E+00
   0.2945259271E+00   0.9347888046E-01   0.8983371345E-04  -0.1172753729E-05   0.8085034211E-03  -0.1055478356E-04   0.1881441345E+00   0.2506189880E-01   0.0000000000E+00  -0.1506498784E-01   0.0000000000E+00   0.0000000000E+00   0.1806255649E-02  -0.3138134155E-03  -0.3916896837E-03  -0.6396180999E-03   0.0000000000E+00   0.0000000000E+00   0.1788281138E+00
   0.2946591750E+00   0.1128300748E+00   0.8894580493E-04  -0.1873616552E-05   0.8005122444E-03  -0.1686254897E-04   0.2035981186E+00   0.1999386458E-01   0.0000000000E+00  -0.1510722344E-01   0.0000000000E+00   0.0000000000E+00   0.1975999592E-02  -0.4108557100E-03  -0.3927878095E-03  -0.6707759495E-03   0.0000000000E+00   0.0000000000E+00   0.1960903728E+00
   0.2767587987E+00   0.1113543877E+00   0.8549177317E-04  -0.2016228971E-05   0.7694259585E-03  -0.1814606074E-04   0.2033161702E+00   0.1686455160E-01   0.0000000000E+00  -0.1969113843E-01   0.0000000000E+00   0.0000000000E+00   0.1982568047E-02  -0.4413029944E-03  -0.5119695991E-03  -0.6605421653E-03   0.0000000000E+00   0.0000000000E+00   0.1983637616E+00
   0.2937803572E+00   0.7443196009E-01   0.9053062404E-04  -0.6701214141E-06   0.8147756164E-03  -0.6031092727E-05   0.1738542163E+00   0.3018056533E-01   0.0000000000E+00  -0.1415460899E-01   0.0000000000E+00   0.0000000000E+00   0.1648000467E-02  -0.2197569956E-03  -0.3680198338E-03  -0.6121043449E-03   0.0000000000E+00   0.0000000000E+00   0.1627129672E+00
   0.1718555678E+00   0.3887324682E-01   0.7665298276E-04  -0.8982681176E-06   0.6898768449E-03  -0.8084413058E-05   0.9164720854E-01  -0.6522206984E-02   0.0000000000E+00  -0.4542034942E-01   0.0000000000E+00   0.0000000000E+00   0.9360387064E-03  -0.3401636955E-03  -0.1180929085E-02  -0.2553750047E-03   0.0000000000E+00   0.0000000000E+00   0.1227417644E+00
   0.2938424930E+00   0.1327213455E+00   0.8778860259E-04  -0.2801853295E-05   0.7900974233E-03  -0.2521667965E-04   0.2205953700E+00   0.1433979957E-01   0.0000000000E+00  -0.1447613906E-01   0.0000000000E+00   0.0000000000E+00   0.2162934301E-02  -0.5183881142E-03  -0.3763796155E-03  -0.7048055086E-03   0.0000000000E+00   0.0000000000E+00   0.2152323310E+00
   0.5206877255E-01   0.1830216986E+00   0.1537006482E-04  -0.3467904239E-04   0.1383305834E-03  -0.3121113815E-03   0.3088692157E+00   0.1475522636E-01   0.0000000000E+00   0.3581303122E-01   0.0000000000E+00   0.0000000000E+00   0.3044426478E-02  -0.7790553836E-03   0.9311388118E-03  -0.9708733263E-03   0.0000000000E+00   0.0000000000E+00   0.3081507911E+00
   0.5058031158E-01   0.1682541390E+00   0.1599453814E-04  -0.3378969771E-04   0.1439508432E-03  -0.3041072794E-03   0.3291056761E+00   0.2256549657E-01   0.0000000000E+00   0.3697340163E-01   0.0000000000E+00   0.0000000000E+00   0.3223360271E-02  -0.7616620625E-03   0.9613084423E-03  -0.1055013518E-02   0.0000000000E+00   0.0000000000E+00   0.3247701854E+00
   0.2926503906E+00   0.5550245712E-01   0.9105985715E-04  -0.3366178336E-06   0.8195387143E-03  -0.3029560503E-05   0.1615853635E+00   0.3462299492E-01   0.0000000000E+00  -0.1205982633E-01   0.0000000000E+00   0.0000000000E+00   0.1511984650E-02  -0.1385261412E-03  -0.3135554845E-03  -0.5886250752E-03   0.0000000000E+00   0.0000000000E+00   0.1487975146E+00
   0.2925298432E+00   0.1532543031E+00   0.8645272272E-04  -0.3985792490E-05   0.7780745045E-03  -0.3587213241E-04   0.2375609740E+00   0.1033282918E-01   0.0000000000E+00  -0.1284077332E-01   0.0000000000E+00   0.0000000000E+00   0.2344611253E-02  -0.6093546303E-03  -0.3338601064E-03  -0.7436814096E-03   0.0000000000E+00   0.0000000000E+00   0.2335971993E+00
   0.2714532083E+00   0.3669085746E-01   0.8866253081E-04  -0.1679935044E-06   0.7979627773E-03  -0.1511941539E-05   0.1470311490E+00   0.3542290180E-01   0.0000000000E+00  -0.1256128685E-01   0.0000000000E+00   0.0000000000E+00   0.1364042784E-02  -0.8686442891E-04  -0.3265934582E-03  -0.5473621523E-03   0.0000000000E+00   0.0000000000E+00   0.1345871510E+00
   0.2515499051E+00   0.3681214418E-01   0.8599810729E-04  -0.2098423046E-06   0.7739829656E-03  -0.1888580741E-05   0.1403428226E+00   0.3153868662E-01   0.0000000000E+00  -0.1673313300E-01   0.0000000000E+00   0.0000000000E+00   0.1308812166E-02  -0.1056416016E-03  -0.4350614579E-03  -0.5156445277E-03   0.0000000000E+00   0.0000000000E+00   0.1306394697E+00
   0.2343599435E+00   0.5569420748E-01   0.8249214562E-04  -0.5971718062E-06   0.7424293106E-03  -0.5374546256E-05   0.1484584764E+00   0.2156171734E-01   0.0000000000E+00  -0.2793856680E-01   0.0000000000E+00   0.0000000000E+00   0.1419899612E-02  -0.2297582559E-03  -0.7264027369E-03  -0.5100605813E-03   0.0000000000E+00   0.0000000000E+00   0.1470728750E+00
   0.2538905436E+00   0.5532278852E-01   0.8532105636E-04  -0.4682784131E-06   0.7678895073E-03  -0.4214505718E-05   0.1535149656E+00   0.2740802964E-01   0.0000000000E+00  -0.2179494989E-01   0.0000000000E+00   0.0000000000E+00   0.1452925567E-02  -0.1864646004E-03  -0.5666686970E-03  -0.5427689857E-03   0.0000000000E+00   0.0000000000E+00   0.1467164920E+00
   0.2355524345E+00   0.1969617275E+00   0.6867395333E-04  -0.9282253084E-05   0.6180655800E-03  -0.8354027775E-04   0.2810930719E+00  -0.2113360001E-02   0.0000000000E+00  -0.1080544931E-01   0.0000000000E+00   0.0000000000E+00   0.2817270799E-02  -0.8644128157E-03  -0.2809416821E-03  -0.8369391357E-03   0.0000000000E+00   0.0000000000E+00   0.2827832452E+00
   0.2549627791E+00   0.1955934875E+00   0.7418461132E-04  -0.8166250899E-05   0.6676615019E-03  -0.7349625809E-04   0.2764212989E+00   0.1655284255E-03   0.0000000000E+00  -0.1137483701E-01   0.0000000000E+00   0.0000000000E+00   0.2763716404E-02  -0.8276086126E-03  -0.2957457623E-03  -0.8297604821E-03   0.0000000000E+00   0.0000000000E+00   0.2770472417E+00
   0.1602571507E+00   0.7266284881E-01   0.6887367324E-04  -0.3280879045E-05   0.6198630592E-03  -0.2952791140E-04   0.1602561816E+00  -0.3155059720E-01   0.0000000000E+00  -0.6207738047E-01   0.0000000000E+00   0.0000000000E+00   0.1697213608E-02  -0.7962745169E-03  -0.1614011892E-02  -0.3861167533E-03   0.0000000000E+00   0.0000000000E+00   0.2077266477E+00
   0.1744719857E+00   0.6064403351E-01   0.7350556963E-04  -0.1768468923E-05   0.6615501266E-03  -0.1591622031E-04   0.1370876979E+00  -0.1415701855E-01   0.0000000000E+00  -0.5519765476E-01   0.0000000000E+00   0.0000000000E+00   0.1413348034E-02  -0.5528332791E-03  -0.1435139024E-02  -0.3687920380E-03   0.0000000000E+00   0.0000000000E+00   0.1733954798E+00
   0.1848325130E+00   0.8231161470E-01   0.7130200213E-04  -0.2769450119E-05   0.6417180191E-03  -0.2492505107E-04   0.1796375949E+00  -0.1617991110E-01   0.0000000000E+00  -0.5221976018E-01   0.0000000000E+00   0.0000000000E+00   0.1844915682E-02  -0.7007118956E-03  -0.1357713765E-02  -0.4903730513E-03   0.0000000000E+00   0.0000000000E+00   0.2086088618E+00
   0.1700709024E+00   0.8991299695E-01   0.6704043776E-04  -0.4128244575E-05   0.6033639399E-03  -0.3715420118E-04   0.1946639695E+00  -0.2947992631E-01   0.0000000000E+00  -0.5288384124E-01   0.0000000000E+00   0.0000000000E+00   0.2035079474E-02  -0.8787911714E-03  -0.1374979872E-02  -0.4955521295E-03   0.0000000000E+00   0.0000000000E+00   0.2299459120E+00
   0.9910290819E-01   0.2139210382E+00   0.2640274942E-04  -0.2883397683E-04   0.2376247447E-03  -0.2595057915E-03   0.2892779503E+00  -0.5529768041E-02   0.0000000000E+00   0.2877411380E-01   0.0000000000E+00   0.0000000000E+00   0.2909368807E-02  -0.9231315314E-03   0.7481269588E-03  -0.8512445468E-03   0.0000000000E+00   0.0000000000E+00   0.2961650098E+00
   0.1401504081E+00   0.1991866137E+00   0.4046811105E-04  -0.1995512545E-04   0.3642129994E-03  -0.1795961290E-03   0.2989856088E+00  -0.1405104556E-01   0.0000000000E+00   0.1473137334E-01   0.0000000000E+00   0.0000000000E+00   0.3032009225E-02  -0.1037467282E-02   0.3830157069E-03  -0.8548036897E-03   0.0000000000E+00   0.0000000000E+00   0.3072903964E+00
   0.1212365358E+00   0.1984076643E+00   0.3483547830E-04  -0.2316246916E-04   0.3135193047E-03  -0.2084622224E-03   0.2994525906E+00  -0.1396677960E-01   0.0000000000E+00   0.2295624681E-01   0.0000000000E+00   0.0000000000E+00   0.3036426245E-02  -0.1038025568E-02   0.5968624171E-03  -0.8564574330E-03   0.0000000000E+00   0.0000000000E+00   0.3092164428E+00
   0.2189533272E+00   0.7552246776E-01   0.7819242233E-04  -0.1423034445E-05   0.7037318010E-03  -0.1280731001E-04   0.1669782621E+00   0.8108568956E-02   0.0000000000E+00  -0.3795352253E-01   0.0000000000E+00   0.0000000000E+00   0.1645456914E-02  -0.4198490967E-03  -0.9867915859E-03  -0.5252604931E-03   0.0000000000E+00   0.0000000000E+00   0.1756952880E+00
   0.8058346425E-01   0.1525327492E+00   0.2773887510E-04  -0.2623568214E-04   0.2496498759E-03  -0.2361211392E-03   0.3343878748E+00  -0.1462999436E-01   0.0000000000E+00   0.2795564198E-01   0.0000000000E+00   0.0000000000E+00   0.3387768731E-02  -0.1149463568E-02   0.7268466916E-03  -0.9592736415E-03   0.0000000000E+00   0.0000000000E+00   0.3451722815E+00
   0.7006012827E-01   0.1664412904E+00   0.2245101705E-04  -0.2995746485E-04   0.2020591534E-03  -0.2696171837E-03   0.3267890823E+00   0.1722672177E-02   0.0000000000E+00   0.3672077883E-01   0.0000000000E+00   0.0000000000E+00   0.3262722806E-02  -0.9631405251E-03   0.9547402496E-03  -0.9855352634E-03   0.0000000000E+00   0.0000000000E+00   0.3320914941E+00
   0.1418761304E+00   0.1829356400E+00   0.4307914021E-04  -0.1793650052E-04   0.3877122619E-03  -0.1614285047E-03   0.2975914246E+00  -0.2125958820E-01   0.0000000000E+00   0.1118521314E-01   0.0000000000E+00   0.0000000000E+00   0.3039693011E-02  -0.1105370156E-02   0.2908155415E-03  -0.8289955093E-03   0.0000000000E+00   0.0000000000E+00   0.3093194847E+00
   0.2733076715E+00   0.1744480202E+00   0.8051295416E-04  -0.5847976629E-05   0.7246165875E-03  -0.5263178966E-04   0.2581736087E+00   0.4060784205E-02   0.0000000000E+00  -0.1363283393E-01   0.0000000000E+00   0.0000000000E+00   0.2569553735E-02  -0.7339129842E-03  -0.3544536821E-03  -0.7867031789E-03   0.0000000000E+00   0.0000000000E+00   0.2572387057E+00
   0.2927980757E+00   0.1735760513E+00   0.8550917265E-04  -0.5306873992E-05   0.7695825539E-03  -0.4776186592E-04   0.2540331062E+00   0.6659725182E-02   0.0000000000E+00  -0.1120337444E-01   0.0000000000E+00   0.0000000000E+00   0.2520351886E-02  -0.6955020667E-03  -0.2912877354E-03  -0.7820784941E-03   0.0000000000E+00   0.0000000000E+00   0.2515217247E+00
   0.9457778457E-01   0.1607985713E+00   0.3121894712E-04  -0.2417196605E-04   0.2809705241E-03  -0.2175476944E-03   0.3227014857E+00  -0.2211785617E-01   0.0000000000E+00   0.2684198227E-01   0.0000000000E+00   0.0000000000E+00   0.3293368426E-02  -0.1189283019E-02   0.6978915391E-03  -0.9017508887E-03   0.0000000000E+00   0.0000000000E+00   0.3374146241E+00
   0.8745042910E-01   0.1752110813E+00   0.2708576978E-04  -0.2727567140E-04   0.2437719280E-03  -0.2454810426E-03   0.3164302305E+00  -0.1189422557E-01   0.0000000000E+00   0.3627744891E-01   0.0000000000E+00   0.0000000000E+00   0.3199984981E-02  -0.1068232947E-02   0.9432136717E-03  -0.9136080147E-03   0.0000000000E+00   0.0000000000E+00   0.3286019633E+00
   0.2749555678E+00   0.7396595326E-01   0.8746657741E-04  -0.7531043247E-06   0.7871991967E-03  -0.6777938922E-05   0.1716151076E+00   0.2702565165E-01   0.0000000000E+00  -0.1920109751E-01   0.0000000000E+00   0.0000000000E+00   0.1635074121E-02  -0.2445888063E-03  -0.4992285354E-03  -0.5959222778E-03   0.0000000000E+00   0.0000000000E+00   0.1631998638E+00
   0.2269008855E+00   0.1122691621E+00   0.7529955190E-04  -0.3178485994E-05   0.6776959671E-03  -0.2860637395E-04   0.2098452291E+00  -0.8631339426E-04   0.0000000000E+00  -0.3246737059E-01   0.0000000000E+00   0.0000000000E+00   0.2098711231E-02  -0.6303988212E-03  -0.8441516355E-03  -0.6292767471E-03   0.0000000000E+00   0.0000000000E+00   0.2172313087E+00
   0.2232120241E+00   0.9416232817E-01   0.7672361058E-04  -0.2224933280E-05   0.6905124952E-03  -0.2002439952E-04   0.1899251453E+00   0.3382152084E-02   0.0000000000E+00  -0.3640502163E-01   0.0000000000E+00   0.0000000000E+00   0.1889104997E-02  -0.5359539152E-03  -0.9465305623E-03  -0.5799218923E-03   0.0000000000E+00   0.0000000000E+00   0.1984648934E+00
   0.2732674873E+00   0.5525817940E-01   0.8816813139E-04  -0.3868401912E-06   0.7935131826E-03  -0.3481561721E-05   0.1579525953E+00   0.3167307326E-01   0.0000000000E+00  -0.1662132703E-01   0.0000000000E+00   0.0000000000E+00   0.1484506734E-02  -0.1571270534E-03  -0.4321545028E-03  -0.5688770058E-03   0.0000000000E+00   0.0000000000E+00   0.1475391222E+00
   0.1575951621E+00   0.5347316970E-01   0.7255420742E-04  -0.2111239807E-05   0.6529878668E-03  -0.1900115826E-04   0.1239252710E+00  -0.2734725715E-01   0.0000000000E+00  -0.6017752106E-01   0.0000000000E+00   0.0000000000E+00   0.1321294481E-02  -0.6452483845E-03  -0.1564615548E-02  -0.2897340415E-03   0.0000000000E+00   0.0000000000E+00   0.1744197560E+00
   0.1474498868E+00   0.6072505009E-01   0.6958897962E-04  -0.3182321472E-05   0.6263008166E-03  -0.2864089324E-04   0.1313064812E+00  -0.3630600622E-01   0.0000000000E+00  -0.6302048859E-01   0.0000000000E+00   0.0000000000E+00   0.1421982831E-02  -0.7569795059E-03  -0.1638532703E-02  -0.2850014251E-03   0.0000000000E+00   0.0000000000E+00   0.1886359820E+00
   0.1242923399E+00   0.1489366985E+00   0.4270859155E-04  -0.1679565105E-04   0.3843773240E-03  -0.1511608595E-03   0.3031670475E+00  -0.3960080517E-01   0.0000000000E+00   0.2541826586E-02   0.0000000000E+00   0.0000000000E+00   0.3150472891E-02  -0.1305509194E-02   0.6608749124E-04  -0.7906987271E-03   0.0000000000E+00   0.0000000000E+00   0.3246635722E+00
   0.1450933805E+00   0.1472270907E+00   0.4937935311E-04  -0.1319372648E-04   0.4444141780E-03  -0.1187435383E-03   0.2865303106E+00  -0.3837659685E-01   0.0000000000E+00  -0.1023592810E-01   0.0000000000E+00   0.0000000000E+00   0.2980432896E-02  -0.1243356900E-02  -0.2661341306E-03  -0.7444611411E-03   0.0000000000E+00   0.0000000000E+00   0.3080097015E+00
   0.1436244326E+00   0.1659759105E+00   0.4595446466E-04  -0.1571954883E-04   0.4135901819E-03  -0.1414759395E-03   0.2952347061E+00  -0.3058360372E-01   0.0000000000E+00   0.3417586400E-02   0.0000000000E+00   0.0000000000E+00   0.3044097872E-02  -0.1191540156E-02   0.8885724639E-04  -0.7939533072E-03   0.0000000000E+00   0.0000000000E+00   0.3115917070E+00
   0.1258893964E+00   0.1661261184E+00   0.4048703891E-04  -0.1869336493E-04   0.3643833502E-03  -0.1682402844E-03   0.3024199975E+00  -0.3148030772E-01   0.0000000000E+00   0.1168530333E-01   0.0000000000E+00   0.0000000000E+00   0.3118640898E-02  -0.1222063070E-02   0.3038178866E-03  -0.8128190694E-03   0.0000000000E+00   0.0000000000E+00   0.3198949430E+00
   0.6688644944E-01   0.1805674266E+00   0.2011454390E-04  -0.3183953944E-04   0.1810308951E-03  -0.2865558549E-03   0.3088404878E+00   0.3201926142E-02   0.0000000000E+00   0.3667524575E-01   0.0000000000E+00   0.0000000000E+00   0.3078799100E-02  -0.8945022021E-03   0.9535563894E-03  -0.9361272419E-03   0.0000000000E+00   0.0000000000E+00   0.3136688525E+00
   0.1098985031E+00   0.1659035250E+00   0.3547321319E-04  -0.2166019710E-04   0.3192589187E-03  -0.1949417739E-03   0.3128577520E+00  -0.2835948212E-01   0.0000000000E+00   0.2105981616E-01   0.0000000000E+00   0.0000000000E+00   0.3213655967E-02  -0.1222168077E-02   0.5475552203E-03  -0.8534948097E-03   0.0000000000E+00   0.0000000000E+00   0.3299797916E+00
   0.1057541544E+00   0.1803530177E+00   0.3226574442E-04  -0.2415312805E-04   0.2903916998E-03  -0.2173781524E-03   0.3078994417E+00  -0.1813738789E-01   0.0000000000E+00   0.2865642546E-01   0.0000000000E+00   0.0000000000E+00   0.3133406580E-02  -0.1105072204E-02   0.7450670621E-03  -0.8692861613E-03   0.0000000000E+00   0.0000000000E+00   0.3211252874E+00
   0.2153476376E+00   0.1815904298E+00   0.6454336076E-04  -0.9284216794E-05   0.5808902469E-03  -0.8355795115E-04   0.2746494577E+00  -0.7081697383E-02   0.0000000000E+00  -0.1284820202E-01   0.0000000000E+00   0.0000000000E+00   0.2767739669E-02  -0.8947653469E-03  -0.3340532526E-03  -0.8027032809E-03   0.0000000000E+00   0.0000000000E+00   0.2791476358E+00
   0.2346062566E+00   0.1797417156E+00   0.6997636434E-04  -0.7873235266E-05   0.6297872791E-03  -0.7085911739E-04   0.2684845015E+00  -0.2909603748E-02   0.0000000000E+00  -0.1455113773E-01   0.0000000000E+00   0.0000000000E+00   0.2693573827E-02  -0.8345495421E-03  -0.3783295811E-03  -0.7967246934E-03   0.0000000000E+00   0.0000000000E+00   0.2711315667E+00
   0.2760665005E+00   0.1304757838E+00   0.8409204709E-04  -0.2965918183E-05   0.7568284238E-03  -0.2669326365E-04   0.2189802643E+00   0.1180830975E-01   0.0000000000E+00  -0.1906837674E-01   0.0000000000E+00   0.0000000000E+00   0.2154377714E-02  -0.5388576955E-03  -0.4957777952E-03  -0.6923657222E-03   0.0000000000E+00   0.0000000000E+00   0.2158286632E+00
   0.2711353806E+00   0.1522427785E+00   0.8148455507E-04  -0.4352748803E-05   0.7333609956E-03  -0.3917473923E-04   0.2393589707E+00   0.6552338735E-02   0.0000000000E+00  -0.1732715945E-01   0.0000000000E+00   0.0000000000E+00   0.2373932691E-02  -0.6525535247E-03  -0.4505061456E-03  -0.7377339283E-03   0.0000000000E+00   0.0000000000E+00   0.2380509881E+00
   0.2540468192E+00   0.1774195219E+00   0.7533052124E-04  -0.6743409946E-05   0.6779746911E-03  -0.6069068951E-04   0.2620184459E+00   0.8644505028E-03   0.0000000000E+00  -0.1473140766E-01   0.0000000000E+00   0.0000000000E+00   0.2617591107E-02  -0.7774108326E-03  -0.3830165990E-03  -0.7886486891E-03   0.0000000000E+00   0.0000000000E+00   0.2628279450E+00
   0.1227299355E+00   0.5807374222E-01   0.6696815045E-04  -0.5385848395E-05   0.6027133540E-03  -0.4847263555E-04   0.1110908044E+00  -0.6606156308E-01   0.0000000000E+00  -0.6751340728E-01   0.0000000000E+00   0.0000000000E+00   0.1309092733E-02  -0.9938880440E-03  -0.1755348589E-02  -0.1350877240E-03   0.0000000000E+00   0.0000000000E+00   0.1965373168E+00
   0.1106391801E+00   0.7301303828E-01   0.5979421043E-04  -0.9052372307E-05   0.5381478939E-03  -0.8147135076E-04   0.1729971110E+00  -0.6437129281E-01   0.0000000000E+00  -0.7067087539E-01   0.0000000000E+00   0.0000000000E+00   0.1923084988E-02  -0.1162704261E-02  -0.1837442760E-02  -0.3258774545E-03   0.0000000000E+00   0.0000000000E+00   0.2445717620E+00
   0.1481076302E+00   0.8118568562E-01   0.6462602476E-04  -0.4952948205E-05   0.5816342229E-03  -0.4457653385E-04   0.1870839007E+00  -0.4501431745E-01   0.0000000000E+00  -0.6280390286E-01   0.0000000000E+00   0.0000000000E+00   0.2005881959E-02  -0.1011394876E-02  -0.1632901474E-02  -0.4262087497E-03   0.0000000000E+00   0.0000000000E+00   0.2395194463E+00
   0.1358852241E+00   0.7045754292E-01   0.6521940604E-04  -0.5040068168E-05   0.5869746544E-03  -0.4536061351E-04   0.1586961399E+00  -0.5174321649E-01   0.0000000000E+00  -0.7017046788E-01   0.0000000000E+00   0.0000000000E+00   0.1742191049E-02  -0.9935205848E-03  -0.1824432165E-02  -0.3208587703E-03   0.0000000000E+00   0.0000000000E+00   0.2245414696E+00
   0.1012717410E+00   0.1966991848E+00   0.2898800097E-04  -0.2674931905E-04   0.2608920087E-03  -0.2407438714E-03   0.3004390871E+00  -0.1138336447E-01   0.0000000000E+00   0.3140374230E-01   0.0000000000E+00   0.0000000000E+00   0.3038540964E-02  -0.1015150906E-02   0.8164972998E-03  -0.8671671679E-03   0.0000000000E+00   0.0000000000E+00   0.3110703309E+00
   0.1239077965E+00   0.1821574430E+00   0.3768124749E-04  -0.2092260133E-04   0.3391312274E-03  -0.1883034119E-03   0.3029896040E+00  -0.2175474511E-01   0.0000000000E+00   0.2010819549E-01   0.0000000000E+00   0.0000000000E+00   0.3095160276E-02  -0.1126516263E-02   0.5228130827E-03  -0.8437045768E-03   0.0000000000E+00   0.0000000000E+00   0.3162760931E+00
   0.1616217732E+00   0.1678203251E+00   0.5106712370E-04  -0.1334639187E-04   0.4596041133E-03  -0.1201175268E-03   0.2865733165E+00  -0.2524577428E-01   0.0000000000E+00  -0.4185488388E-02   0.0000000000E+00   0.0000000000E+00   0.2941470488E-02  -0.1112177692E-02  -0.1088226981E-03  -0.7839826266E-03   0.0000000000E+00   0.0000000000E+00   0.3000497846E+00
   0.1787031527E+00   0.1697341202E+00   0.5573716759E-04  -0.1149777937E-04   0.5016345083E-03  -0.1034800143E-03   0.2797044328E+00  -0.1937566220E-01   0.0000000000E+00  -0.8975333679E-02   0.0000000000E+00   0.0000000000E+00   0.2855171315E-02  -0.1032869920E-02  -0.2333586757E-03  -0.7809863119E-03   0.0000000000E+00   0.0000000000E+00   0.2902751825E+00
   0.8838446809E-01   0.1396023722E+00   0.3261826940E-04  -0.2290367640E-04   0.2935644246E-03  -0.2061330876E-03   0.3365856855E+00  -0.2725724643E-01   0.0000000000E+00   0.1291091221E-01   0.0000000000E+00   0.0000000000E+00   0.3447628594E-02  -0.1282329521E-02   0.3356837175E-03  -0.9279853171E-03   0.0000000000E+00   0.0000000000E+00   0.3516769152E+00
   0.9990091203E-01   0.8883249010E-01   0.5117240260E-04  -0.1332163962E-04   0.4605516234E-03  -0.1198947566E-03   0.2459253698E+00  -0.5781625475E-01   0.0000000000E+00  -0.5791762388E-01   0.0000000000E+00   0.0000000000E+00   0.2632702462E-02  -0.1315938657E-02  -0.1505858221E-02  -0.5643273452E-03   0.0000000000E+00   0.0000000000E+00   0.2938497179E+00
   0.9675723795E-01   0.1274588977E+00   0.3808635514E-04  -0.1938222648E-04   0.3427771963E-03  -0.1744400383E-03   0.3242741379E+00  -0.4182603815E-01   0.0000000000E+00  -0.3014030467E-02   0.0000000000E+00   0.0000000000E+00   0.3368219494E-02  -0.1391082795E-02  -0.7836479215E-04  -0.8473442994E-03   0.0000000000E+00   0.0000000000E+00   0.3464343658E+00
   0.2512962657E+00   0.1600406387E+00   0.7606587216E-04  -0.5538131684E-05   0.6845928495E-03  -0.4984318515E-04   0.2483537177E+00   0.5953878564E-03   0.0000000000E+00  -0.1826857725E-01   0.0000000000E+00   0.0000000000E+00   0.2481751013E-02  -0.7391072744E-03  -0.4749830086E-03  -0.7468473166E-03   0.0000000000E+00   0.0000000000E+00   0.2500608114E+00
   0.2601619315E+00   0.1275037856E+00   0.8086514634E-04  -0.3137843849E-05   0.7277863170E-03  -0.2824059464E-04   0.2204102894E+00   0.8828203326E-02   0.0000000000E+00  -0.2244386584E-01   0.0000000000E+00   0.0000000000E+00   0.2177618284E-02  -0.5729488348E-03  -0.5835405119E-03  -0.6877154781E-03   0.0000000000E+00   0.0000000000E+00   0.2195883005E+00
   0.1967680075E+00   0.1839337585E+00   0.5908974905E-04  -0.1104835360E-04   0.5318077414E-03  -0.9943518240E-04   0.2807196440E+00  -0.1119704759E-01   0.0000000000E+00  -0.9104922285E-02   0.0000000000E+00   0.0000000000E+00   0.2840787583E-02  -0.9541294080E-03  -0.2367279794E-03  -0.8085677893E-03   0.0000000000E+00   0.0000000000E+00   0.2869081935E+00
   0.2590792781E+00   0.1414644785E+00   0.7947391394E-04  -0.4022652311E-05   0.7152652255E-03  -0.3620387080E-04   0.2355796342E+00   0.7743682870E-02   0.0000000000E+00  -0.1996374369E-01   0.0000000000E+00   0.0000000000E+00   0.2332565293E-02  -0.6293020739E-03  -0.5190573360E-03  -0.7299699512E-03   0.0000000000E+00   0.0000000000E+00   0.2343421693E+00
   0.2467108909E+00   0.1445964047E+00   0.7631718782E-04  -0.4618627031E-05   0.6868546903E-03  -0.4156764328E-04   0.2366361032E+00   0.2351232225E-02   0.0000000000E+00  -0.2168426656E-01   0.0000000000E+00   0.0000000000E+00   0.2359307336E-02  -0.6863959874E-03  -0.5637909305E-03  -0.7169620064E-03   0.0000000000E+00   0.0000000000E+00   0.2384276914E+00
   0.1922852053E+00   0.1588987981E+00   0.6095122556E-04  -0.9076585807E-05   0.5485610301E-03  -0.8168927227E-04   0.2656761022E+00  -0.1543367560E-01   0.0000000000E+00  -0.1692766673E-01   0.0000000000E+00   0.0000000000E+00   0.2703062048E-02  -0.9513650625E-03  -0.4401193351E-03  -0.7507272797E-03   0.0000000000E+00   0.0000000000E+00   0.2752820725E+00
   0.1951092032E+00   0.1696917005E+00   0.6035111570E-04  -0.9840353973E-05   0.5431600413E-03  -0.8856318575E-04   0.2718967485E+00  -0.1460799788E-01   0.0000000000E+00  -0.1333202928E-01   0.0000000000E+00   0.0000000000E+00   0.2762791478E-02  -0.9617702241E-03  -0.3466327612E-03  -0.7718662517E-03   0.0000000000E+00   0.0000000000E+00   0.2804381952E+00
   0.1803539881E+00   0.1551977794E+00   0.5820280580E-04  -0.9829255749E-05   0.5238252522E-03  -0.8846330174E-04   0.2705802428E+00  -0.2159644313E-01   0.0000000000E+00  -0.1548053778E-01   0.0000000000E+00   0.0000000000E+00   0.2770591757E-02  -0.1027705160E-02  -0.4024939822E-03  -0.7469513989E-03   0.0000000000E+00   0.0000000000E+00   0.2831763604E+00
   0.1013338576E+00   0.1483555256E+00   0.3539036379E-04  -0.2119724464E-04   0.3185132741E-03  -0.1907752017E-03   0.3201945363E+00  -0.3383339552E-01   0.0000000000E+00   0.1444194153E-01   0.0000000000E+00   0.0000000000E+00   0.3303445550E-02  -0.1298917564E-02   0.3754904799E-03  -0.8590834223E-03   0.0000000000E+00   0.0000000000E+00   0.3392358061E+00
   0.2011331213E+00   0.7796114670E-01   0.7489662991E-04  -0.1935669970E-05   0.6740696692E-03  -0.1742102973E-04   0.1696689120E+00  -0.2451311926E-02   0.0000000000E+00  -0.4542396977E-01   0.0000000000E+00   0.0000000000E+00   0.1704043056E-02  -0.5335198554E-03  -0.1181023214E-02  -0.5016528004E-03   0.0000000000E+00   0.0000000000E+00   0.1880509237E+00
   0.2120675931E+00   0.1146316600E+00   0.7183140705E-04  -0.3910799307E-05   0.6464826635E-03  -0.3519719376E-04   0.2162581438E+00  -0.7604331016E-02   0.0000000000E+00  -0.3474977687E-01   0.0000000000E+00   0.0000000000E+00   0.2185394431E-02  -0.7248177416E-03  -0.9034941986E-03  -0.6259614384E-03   0.0000000000E+00   0.0000000000E+00   0.2281667875E+00
   0.2073106246E+00   0.9686665693E-01   0.7329955840E-04  -0.2873977121E-05   0.6596960256E-03  -0.2586579409E-04   0.1958566160E+00  -0.6484038728E-02   0.0000000000E+00  -0.4099238702E-01   0.0000000000E+00   0.0000000000E+00   0.1978018276E-02  -0.6524102352E-03  -0.1065802062E-02  -0.5681177317E-03   0.0000000000E+00   0.0000000000E+00   0.2113406509E+00
   0.9035022512E-01   0.1038222154E+00   0.4279981241E-04  -0.1763415735E-04   0.3851983117E-03  -0.1587074162E-03   0.3122930007E+00  -0.3982921456E-01   0.0000000000E+00  -0.3599967376E-01   0.0000000000E+00   0.0000000000E+00   0.3242417650E-02  -0.1335171148E-02  -0.9359915178E-03  -0.8173913583E-03   0.0000000000E+00   0.0000000000E+00   0.3373354305E+00
   0.1250677088E+00   0.8330890762E-01   0.5919088245E-04  -0.7828097979E-05   0.5327179421E-03  -0.7045288181E-04   0.2017097636E+00  -0.6166479662E-01   0.0000000000E+00  -0.6509346874E-01   0.0000000000E+00   0.0000000000E+00   0.2202092026E-02  -0.1221777257E-02  -0.1692430187E-02  -0.4201349011E-03   0.0000000000E+00   0.0000000000E+00   0.2634677981E+00
   0.1092067565E+00   0.1150425235E+00   0.4524565173E-04  -0.1491224784E-04   0.4072108655E-03  -0.1342102306E-03   0.2936645236E+00  -0.5379628987E-01   0.0000000000E+00  -0.2756792644E-01   0.0000000000E+00   0.0000000000E+00   0.3098034105E-02  -0.1418956469E-02  -0.7167660874E-03  -0.7196047011E-03   0.0000000000E+00   0.0000000000E+00   0.3277290559E+00
   0.2445906595E+00   0.1279537599E+00   0.7742095390E-04  -0.3593412316E-05   0.6967885851E-03  -0.3234071085E-04   0.2217019278E+00   0.3665833047E-02   0.0000000000E+00  -0.2580933857E-01   0.0000000000E+00   0.0000000000E+00   0.2206021779E-02  -0.6284474530E-03  -0.6710428028E-03  -0.6761032826E-03   0.0000000000E+00   0.0000000000E+00   0.2243459697E+00
   0.1995232470E+00   0.1516636141E+00   0.6381939550E-04  -0.7797992278E-05   0.5743745595E-03  -0.7018193050E-04   0.2575094358E+00  -0.1589335665E-01   0.0000000000E+00  -0.2072905239E-01   0.0000000000E+00   0.0000000000E+00   0.2622774428E-02  -0.9314618739E-03  -0.5389553622E-03  -0.7248482374E-03   0.0000000000E+00   0.0000000000E+00   0.2681975424E+00
   0.2060344595E+00   0.1443691456E+00   0.6645845401E-04  -0.6663239211E-05   0.5981260861E-03  -0.5996915290E-04   0.2491723864E+00  -0.1444319176E-01   0.0000000000E+00  -0.2446705815E-01   0.0000000000E+00   0.0000000000E+00   0.2535053439E-02  -0.8919490767E-03  -0.6361435118E-03  -0.7041875838E-03   0.0000000000E+00   0.0000000000E+00   0.2601772440E+00
   0.1930907443E+00   0.1007829843E+00   0.6981123402E-04  -0.3763169639E-05   0.6283011062E-03  -0.3386852675E-04   0.2048278969E+00  -0.1594478757E-01   0.0000000000E+00  -0.4302772642E-01   0.0000000000E+00   0.0000000000E+00   0.2096113332E-02  -0.7739315664E-03  -0.1118720887E-02  -0.5666493280E-03   0.0000000000E+00   0.0000000000E+00   0.2257284975E+00
   0.1422216686E+00   0.1241066440E+00   0.5294025939E-04  -0.1069839679E-04   0.4764623345E-03  -0.9628557112E-04   0.2690125841E+00  -0.4758840434E-01   0.0000000000E+00  -0.2844023542E-01   0.0000000000E+00   0.0000000000E+00   0.2832891054E-02  -0.1282921796E-02  -0.7394461208E-03  -0.6642725392E-03   0.0000000000E+00   0.0000000000E+00   0.2996833249E+00
   0.1464345602E+00   0.1118031257E+00   0.5678682019E-04  -0.8610229288E-05   0.5110813818E-03  -0.7749206359E-04   0.2494248644E+00  -0.4822115464E-01   0.0000000000E+00  -0.4098178817E-01   0.0000000000E+00   0.0000000000E+00   0.2638912108E-02  -0.1230486140E-02  -0.1065526492E-02  -0.6036111293E-03   0.0000000000E+00   0.0000000000E+00   0.2855318357E+00
   0.1591896813E+00   0.1175899809E+00   0.5888443231E-04  -0.7893810055E-05   0.5299598908E-03  -0.7104429050E-04   0.2470554533E+00  -0.4016903120E-01   0.0000000000E+00  -0.3757229975E-01   0.0000000000E+00   0.0000000000E+00   0.2591061627E-02  -0.1142856672E-02  -0.9768797936E-03  -0.6206592663E-03   0.0000000000E+00   0.0000000000E+00   0.2771994256E+00
   0.1546445480E+00   0.1312773961E+00   0.5500750060E-04  -0.1000329274E-04   0.4950675054E-03  -0.9002963466E-04   0.2642838095E+00  -0.4176984326E-01   0.0000000000E+00  -0.2711819855E-01   0.0000000000E+00   0.0000000000E+00   0.2768147625E-02  -0.1210549861E-02  -0.7050731622E-03  -0.6675418989E-03   0.0000000000E+00   0.0000000000E+00   0.2908746604E+00
   0.1643073298E+00   0.1518673556E+00   0.5421078151E-04  -0.1122844072E-04   0.4878970336E-03  -0.1010559665E-03   0.2761838021E+00  -0.2829378173E-01   0.0000000000E+00  -0.1362087625E-01   0.0000000000E+00   0.0000000000E+00   0.2846719367E-02  -0.1111489224E-02  -0.3541427825E-03  -0.7436700612E-03   0.0000000000E+00   0.0000000000E+00   0.2921768939E+00
   0.1117703777E+00   0.1547490991E+00   0.3776936647E-04  -0.1991498946E-04   0.3399242982E-03  -0.1792349051E-03   0.3157485105E+00  -0.3089578703E-01   0.0000000000E+00   0.1517623043E-01   0.0000000000E+00   0.0000000000E+00   0.3250172466E-02  -0.1256203402E-02   0.3945819911E-03  -0.8545581703E-03   0.0000000000E+00   0.0000000000E+00   0.3331108052E+00
   0.1377540329E+00   0.1346165961E+00   0.4950559298E-04  -0.1272879222E-04   0.4455503369E-03  -0.1145591300E-03   0.2927029552E+00  -0.4297327652E-01   0.0000000000E+00  -0.1552424900E-01   0.0000000000E+00   0.0000000000E+00   0.3055949382E-02  -0.1307841631E-02  -0.4036304740E-03  -0.7491890360E-03   0.0000000000E+00   0.0000000000E+00   0.3172645004E+00
   0.1811560038E+00   0.1056059960E+00   0.6640497960E-04  -0.4852702834E-05   0.5976448164E-03  -0.4367432551E-04   0.2145542997E+00  -0.2663348051E-01   0.0000000000E+00  -0.4488257764E-01   0.0000000000E+00   0.0000000000E+00   0.2225443438E-02  -0.9099977041E-03  -0.1166947019E-02  -0.5637624574E-03   0.0000000000E+00   0.0000000000E+00   0.2417966022E+00
   0.1515783836E+00   0.9997008612E-01   0.6078356384E-04  -0.6651988134E-05   0.5470520745E-03  -0.5986789320E-04   0.2220805488E+00  -0.4462240417E-01   0.0000000000E+00  -0.5068217434E-01   0.0000000000E+00   0.0000000000E+00   0.2354672700E-02  -0.1112465688E-02  -0.1317736533E-02  -0.5323744337E-03   0.0000000000E+00   0.0000000000E+00   0.2623621403E+00
   0.1386977285E+00   0.9232590024E-01   0.5966424814E-04  -0.7155116440E-05   0.5369782333E-03  -0.6439604796E-04   0.2181437702E+00  -0.5391612770E-01   0.0000000000E+00  -0.5816739843E-01   0.0000000000E+00   0.0000000000E+00   0.2343186085E-02  -0.1193592588E-02  -0.1512352359E-02  -0.4926829275E-03   0.0000000000E+00   0.0000000000E+00   0.2687726448E+00
   0.1564013933E+00   0.9049364116E-01   0.6406733224E-04  -0.5232603893E-05   0.5766059902E-03  -0.4709343503E-04   0.1988567704E+00  -0.4473759374E-01   0.0000000000E+00  -0.6052298669E-01   0.0000000000E+00   0.0000000000E+00   0.2122780485E-02  -0.1043946248E-02  -0.1573597654E-02  -0.4623575298E-03   0.0000000000E+00   0.0000000000E+00   0.2474598201E+00
   0.1277567639E+00   0.1184493907E+00   0.5003848720E-04  -0.1209293461E-04   0.4503463848E-03  -0.1088364115E-03   0.2816727149E+00  -0.5381885051E-01   0.0000000000E+00  -0.2963244815E-01   0.0000000000E+00   0.0000000000E+00   0.2978183701E-02  -0.1383206650E-02  -0.7704436519E-03  -0.6835615933E-03   0.0000000000E+00   0.0000000000E+00   0.3160206879E+00
   0.1264029024E+00   0.1329938135E+00   0.4634883648E-04  -0.1433385244E-04   0.4171395283E-03  -0.1290046720E-03   0.2921505704E+00  -0.4774677342E-01   0.0000000000E+00  -0.1439340321E-01   0.0000000000E+00   0.0000000000E+00   0.3064746024E-02  -0.1353919445E-02  -0.3742284833E-03  -0.7332113909E-03   0.0000000000E+00   0.0000000000E+00   0.3197178492E+00
   0.1148733063E+00   0.1295583215E+00   0.4351673439E-04  -0.1593264869E-04   0.3916506095E-03  -0.1433938382E-03   0.2986670637E+00  -0.5352262573E-01   0.0000000000E+00  -0.1306488873E-01   0.0000000000E+00   0.0000000000E+00   0.3147238514E-02  -0.1431227448E-02  -0.3396871069E-03  -0.7354333139E-03   0.0000000000E+00   0.0000000000E+00   0.3290613613E+00
   0.2297152858E+00   0.1294484757E+00   0.7393788436E-04  -0.4221227291E-05   0.6654409592E-03  -0.3799104562E-04   0.2267431096E+00  -0.1921204749E-02   0.0000000000E+00  -0.2765176224E-01   0.0000000000E+00   0.0000000000E+00   0.2273194710E-02  -0.6994413763E-03  -0.7189458183E-03  -0.6744657146E-03   0.0000000000E+00   0.0000000000E+00   0.2326527103E+00
   0.2017997289E+00   0.1331779070E+00   0.6692488986E-04  -0.5943996719E-05   0.6023240088E-03  -0.5349597047E-04   0.2408011628E+00  -0.1423219647E-01   0.0000000000E+00  -0.2860749359E-01   0.0000000000E+00   0.0000000000E+00   0.2450708217E-02  -0.8647254531E-03  -0.7437948334E-03  -0.6797068989E-03   0.0000000000E+00   0.0000000000E+00   0.2530803768E+00
   0.1981996186E+00   0.1180606620E+00   0.6824325849E-04  -0.4880998103E-05   0.6141893264E-03  -0.4392898292E-04   0.2257651204E+00  -0.1576943094E-01   0.0000000000E+00  -0.3546519070E-01   0.0000000000E+00   0.0000000000E+00   0.2304959497E-02  -0.8349896706E-03  -0.9220949583E-03  -0.6299870683E-03   0.0000000000E+00   0.0000000000E+00   0.2419271459E+00
   0.2156111405E+00   0.1311086658E+00   0.7048954508E-04  -0.4989522399E-05   0.6344059057E-03  -0.4490570159E-04   0.2318446666E+00  -0.8458322755E-02   0.0000000000E+00  -0.2897384198E-01   0.0000000000E+00   0.0000000000E+00   0.2343821634E-02  -0.7801172273E-03  -0.7533198914E-03  -0.6701590315E-03   0.0000000000E+00   0.0000000000E+00   0.2414319474E+00
   0.1089878518E+00   0.1383317562E+00   0.3977187697E-04  -0.1828517711E-04   0.3579468928E-03  -0.1645665939E-03   0.3145516443E+00  -0.4362734604E-01   0.0000000000E+00  -0.7546276274E-04   0.0000000000E+00   0.0000000000E+00   0.3276398481E-02  -0.1379928393E-02  -0.1962031831E-05  -0.8127728946E-03   0.0000000000E+00   0.0000000000E+00   0.3383085581E+00
   0.1693220491E+00   0.1364044265E+00   0.5810460941E-04  -0.8946446447E-05   0.5229414847E-03  -0.8051801802E-04   0.2606570689E+00  -0.3313059970E-01   0.0000000000E+00  -0.2524494575E-01   0.0000000000E+00   0.0000000000E+00   0.2705962488E-02  -0.1113277204E-02  -0.6563685894E-03  -0.6825794075E-03   0.0000000000E+00   0.0000000000E+00   0.2820211620E+00
   0.1869186111E+00   0.1395495947E+00   0.6225350949E-04  -0.7626728085E-05   0.5602815854E-03  -0.6864055276E-04   0.2528273981E+00  -0.2283927669E-01   0.0000000000E+00  -0.2559754879E-01   0.0000000000E+00   0.0000000000E+00   0.2596791811E-02  -0.9868749614E-03  -0.6655362685E-03  -0.6899643643E-03   0.0000000000E+00   0.0000000000E+00   0.2686059712E+00
   0.1632672965E+00   0.1046442990E+00   0.6254585496E-04  -0.6089298274E-05   0.5629126946E-03  -0.5480368447E-04   0.2288727164E+00  -0.3549395066E-01   0.0000000000E+00  -0.4475540112E-01   0.0000000000E+00   0.0000000000E+00   0.2395209016E-02  -0.1041557656E-02  -0.1163640429E-02  -0.5801362972E-03   0.0000000000E+00   0.0000000000E+00   0.2599778635E+00
   0.1850269223E+00   0.1214053936E+00   0.6461223077E-04  -0.6043136972E-05   0.5815100769E-03  -0.5438823275E-04   0.2350747976E+00  -0.2335167996E-01   0.0000000000E+00  -0.3461138620E-01   0.0000000000E+00   0.0000000000E+00   0.2420803016E-02  -0.9387411923E-03  -0.8998960412E-03  -0.6351693529E-03   0.0000000000E+00   0.0000000000E+00   0.2545739277E+00
   0.1721580054E+00   0.1217423067E+00   0.6140044005E-04  -0.7100531978E-05   0.5526039604E-03  -0.6390478780E-04   0.2417700890E+00  -0.3230958095E-01   0.0000000000E+00  -0.3509770562E-01   0.0000000000E+00   0.0000000000E+00   0.2514629633E-02  -0.1048406077E-02  -0.9125403461E-03  -0.6283815242E-03   0.0000000000E+00   0.0000000000E+00   0.2663526442E+00
   0.1161323158E+00   0.9803240409E-01   0.5230348274E-04  -0.1122687084E-04   0.4707313446E-03  -0.1010418376E-03   0.2505361926E+00  -0.6205000517E-01   0.0000000000E+00  -0.5130539019E-01   0.0000000000E+00   0.0000000000E+00   0.2691511942E-02  -0.1372108629E-02  -0.1333940145E-02  -0.5654585623E-03   0.0000000000E+00   0.0000000000E+00   0.2998850794E+00
   0.1319648612E+00   0.1052184139E+00   0.5453072436E-04  -0.9651905363E-05   0.4907765192E-03  -0.8686714827E-04   0.2531550848E+00  -0.5632592266E-01   0.0000000000E+00  -0.4503660244E-01   0.0000000000E+00   0.0000000000E+00   0.2700528616E-02  -0.1322724481E-02  -0.1170951663E-02  -0.5904874864E-03   0.0000000000E+00   0.0000000000E+00   0.2955038416E+00
   0.1724817607E+00   0.1102830127E+00   0.6358627006E-04  -0.5918427881E-05   0.5722764305E-03  -0.5326585093E-04   0.2213404561E+00  -0.3264885770E-01   0.0000000000E+00  -0.4312843503E-01   0.0000000000E+00   0.0000000000E+00   0.2311351135E-02  -0.9905099454E-03  -0.1121339311E-02  -0.5660747953E-03   0.0000000000E+00   0.0000000000E+00   0.2506816540E+00
           1           2           3           4
           5           6           7           8
           9          10          11          12
          13          14          15          16
          17          18          19          20
          21          22          23          24
          25          26          27          28
          29          30          31          32
          33          34           4           3
           2           1          35          36
          37          38          39          40
          41          42          36          35
          43          41          44          45
          46           9          47          48
          41          35          39          44
          49          50          51          52
          52          51          53          54
          55          56          57          58
          56          59          60          57
          61          62          63          64
          65          66          67          68
          69          70          71          72
          73          74          25          28
          27          75          76          28
          77          78          24          23
          79          80          81          82
          83          84          85          86
          87          88          89          90
          90          89          62          91
          61          92          91          62
          92          61          59          93
          56          94          93          59
          95          55          54          53
          46          96          10           9
          97          98          99         100
          12         101          98          97
          97         100         102          47
         103         104          31          30
         105         103          30         106
          73         107         108         109
         110         111         112         113
          32          31         114         115
         116         117         118         119
         120         121         122         123
         121          83          86         122
          80         124         125          81
         126         127         128         129
         130         101          12          11
         131          43         101         130
          34         129         132           4
          42          41          43         131
          35           1          40          39
         101          43          45          98
         133         134         109         108
         135         136          13          16
         137         138          65          68
          94          56          55          95
          58         137          54          55
          49          52          68          67
         139         140         141         142
         140         139          82          81
          88          87         142         141
         143         144         145         146
         147          26          25         148
         149         150         128         151
           5           8         152         102
         132         129         128         150
         153         100          99         154
          48          47         102         152
          59          61          64          60
         106         155         113         118
          62          89         156          63
          88         157         156          89
         123         116         119         120
          66          65         134         133
         144         143          84          83
           9          12          97          47
         104         158         114          31
         159         160         127         126
         119         112         161         120
         117         105         106         118
         162         163         164         165
          83         121         166         144
         167         168         141         140
         167         143         146         168
           6         114         158           7
          38          37         169         170
          40         132         150          37
         160         159          20          19
          78         171         172          24
          18          17          21          24
         173         174          78          77
         132          40           1           4
          28          76         107          73
         175         176         177         178
         176         179          57          60
         137          68          52          54
          60          64         177         176
         163         162         155          29
          75          27         174         173
         180         174          27          26
          64          63         181         177
          98          45         182          99
         183         182          45          44
          38         183          44          39
          58          57         179         184
         185         181          63         156
         134         186         187         109
         188          74         187         189
         138         186         134          65
          88         141         168         157
         166         121         120         161
         190         191         166         161
         155         106          30          29
         192         193         194         195
         118         113         112         119
         125          84         143         167
         124          85          84         125
           6         196         115         114
         196           6           5         153
         197          32         115         198
         111         190         161         112
         199         148         188         135
         170         169         200         201
         202         164         163         197
         203         204         146         145
         205         206         201         200
         187          74          73         109
         176         175         207         179
         208         209          16          15
         210         186         138         184
         184         138         137          58
         179         207         210         184
         211         212         172         171
          78         174         180         171
         125         167         140          81
          37         150         149         169
         213         214         215         216
         217         182         183         201
         170         201         183          38
         218         219         206         205
         111         220         221         190
         157         168         146         204
         177         181         222         178
         222         181         185         223
         186         210         189         187
         224         191         190         221
         100         153           5         102
         185         156         157         204
         113         155         162         110
          26         147         193         180
          29          32         197         163
         225         226          19          18
         144         166         191         145
         212         192         227         228
         198         115         196         229
         206         154         217         201
         153         154         229         196
         172         225          18          24
         148          25          74         188
          14          13         175         178
         207         175          13         136
         189         136         135         188
         230         202         197         198
         210         207         136         189
         165         164         231         232
         169         149         233         200
         234         160          19         226
         217         154          99         182
         203         145         191         224
         151         235         233         149
         236         223         203         224
         185         204         203         223
         178         222         237          14
         110         162         165         238
         239         223         236         240
         238         220         111         110
         219         230         198         229
         241         242         232         243
         242          69         220         238
          72          71         240         236
         244         205         200         233
         215         231         164         202
         211         171         180         193
         228         225         172         212
         194         193         147         245
         245         147         148         199
         135          16         209         199
         209         208         246         247
         127         160         234         248
         193         192         212         211
         226         225         228         249
         151         128         127         248
         248         250         235         151
          72         221         220          69
          14         237         251          15
          70          69         252         253
         206         219         229         154
         238         165         232         242
          72         236         224         221
         216         215         202         230
         245         247         254         194
         255         256         257         258
         230         219         218         216
         214         259         231         215
         216         218         260         213
         261         255         258         214
         239         237         222         223
         194         254         262         195
         263         264         227         265
         250         266         267         268
         199         209         247         245
         240          71         269         251
         270         271         246         272
         260         244         273         213
         237         239         240         251
         218         205         244         260
          70         272         269          71
         232         231         259         243
         274         275         243         259
         257         256         263         276
         277         275         274         278
         234         226         249         279
         271         277         262         254
         271         254         247         246
         246         208         269         272
         244         233         235         273
         251         269         208          15
         275         270         253         252
         234         279         250         248
         279         249         264         280
         259         214         258         274
         262         281         276         195
         195         276         263         265
         257         276         281         278
         278         274         258         257
         266         280         256         255
         261         214         213         267
         267         266         255         261
         266         250         279         280
         228         227         264         249
         256         280         264         263
         265         227         192         195
         281         262         277         278
         235         250         268         273
         273         268         267         213
         277         271         270         275
         253         270         272          70
         252          69         242         241
         243         275         252         241
