 VARIABLES = X,Y,Z,DU1,DU2,DU3,U1,U2,U3,S11,S22,S33,S12,S13,S23,E11,E22,E33,E12,E13,E23,SMISES
 ZONE, T="0.5000D-01" F=FEPOINT, I=   12 J=    2 ET=BRICK
   0.0000000000E+00   0.0000000000E+00   0.0000000000E+00   0.0000000000E+00   0.0000000000E+00   0.0000000000E+00   0.0000000000E+00   0.0000000000E+00   0.0000000000E+00   0.6250000010E+00   0.1403880394E-15   0.4727790626E-16   0.2024690672E-16  -0.6547995757E-16   0.1694456755E-15   0.1250000002E-02  -0.3750000006E-03  -0.3750000006E-03   0.1196683748E-18  -0.6922786736E-18   0.1581597100E-17   0.6250000010E+00
   0.1001250000E+01   0.0000000000E+00  -0.8861552815E-18   0.1250000000E-02   0.0000000000E+00  -0.8861552815E-18   0.0000000000E+00   0.0000000000E+00   0.0000000000E+00   0.6250000010E+00  -0.5501294861E-16  -0.2686240778E-15   0.1275116905E-15   0.8216048826E-16   0.3638684701E-16   0.1250000002E-02  -0.3750000006E-03  -0.3750000006E-03   0.1507920499E-17   0.1005305777E-17   0.3301428298E-18   0.6250000010E+00
   0.1001250000E+01   0.9996250000E+00  -0.6674214306E-18   0.1250000000E-02  -0.3750000000E-03  -0.6674214306E-18   0.0000000000E+00   0.0000000000E+00   0.0000000000E+00   0.6250000009E+00   0.2973760231E-15  -0.1238322251E-16   0.7971812699E-16   0.6001782610E-16  -0.1365973033E-15   0.1250000002E-02  -0.3750000005E-03  -0.3750000005E-03   0.9231412917E-18   0.1481382510E-18  -0.1373789310E-17   0.6250000009E+00
   0.0000000000E+00   0.9996250000E+00   0.8458947467E-18   0.0000000000E+00  -0.3750000000E-03   0.8458947467E-18   0.0000000000E+00   0.0000000000E+00   0.0000000000E+00   0.6250000009E+00  -0.2744509590E-15  -0.5373148867E-15   0.5324882157E-16  -0.2146090331E-15  -0.4895461084E-17   0.1250000002E-02  -0.3750000005E-03  -0.3750000005E-03   0.5067513608E-18  -0.2233251430E-17   0.1706568077E-18   0.6250000009E+00
   0.0000000000E+00   0.0000000000E+00   0.9996250000E+00   0.0000000000E+00   0.0000000000E+00  -0.3750000000E-03   0.0000000000E+00   0.0000000000E+00   0.0000000000E+00   0.6250000009E+00   0.2101416892E-15   0.4028026369E-15  -0.3375664357E-16  -0.1784225249E-15   0.6361446144E-16   0.1250000002E-02  -0.3750000005E-03  -0.3750000005E-03   0.5920961274E-19  -0.1635207258E-17   0.7249755543E-18   0.6250000009E+00
   0.1001250000E+01   0.0000000000E+00   0.9996250000E+00   0.1250000000E-02   0.0000000000E+00  -0.3750000000E-03   0.0000000000E+00   0.0000000000E+00   0.0000000000E+00   0.6250000009E+00   0.1065743505E-16   0.8784815478E-16   0.1581647380E-15   0.1339559004E-15   0.4506866992E-16   0.1250000002E-02  -0.3750000005E-03  -0.3750000005E-03   0.8243558286E-18   0.9179995236E-18   0.3122459859E-18   0.6250000009E+00
   0.1001250000E+01   0.9996250000E+00   0.9996250000E+00   0.1250000000E-02  -0.3750000000E-03  -0.3750000000E-03   0.0000000000E+00   0.0000000000E+00   0.0000000000E+00   0.6250000008E+00  -0.4213153585E-16   0.1247665939E-15   0.4061282471E-16  -0.5657019558E-16  -0.1295504609E-15   0.1250000002E-02  -0.3750000005E-03  -0.3750000005E-03   0.6120271167E-18   0.8713452618E-18  -0.1239148700E-17   0.6250000008E+00
   0.0000000000E+00   0.9996250000E+00   0.9996250000E+00   0.0000000000E+00  -0.3750000000E-03  -0.3750000000E-03   0.0000000000E+00   0.0000000000E+00   0.0000000000E+00   0.6250000008E+00   0.3198028811E-15   0.3289657484E-15  -0.5167623818E-17  -0.2140280008E-15  -0.9512867358E-16   0.1250000002E-02  -0.3750000005E-03  -0.3750000005E-03  -0.1485701535E-18  -0.2891597594E-17  -0.7880093316E-18   0.6250000008E+00
   0.2002500000E+01   0.0000000000E+00  -0.4263775515E-17   0.2500000000E-02   0.0000000000E+00  -0.4263775515E-17   0.0000000000E+00   0.0000000000E+00   0.0000000000E+00   0.6250000009E+00  -0.4169473764E-15  -0.5188556620E-15   0.5421617291E-15   0.2150048350E-15   0.7988560804E-16   0.1250000002E-02  -0.3750000006E-03  -0.3750000006E-03   0.5615512848E-17   0.3171226089E-17   0.7781388598E-18   0.6250000009E+00
   0.2002500000E+01   0.9996250000E+00  -0.3827596305E-17   0.2500000000E-02  -0.3750000000E-03  -0.3827596305E-17   0.0000000000E+00   0.0000000000E+00   0.0000000000E+00   0.6250000009E+00   0.3919139672E-15   0.4726408672E-15   0.3607171423E-15  -0.2832000887E-15   0.4028711840E-17   0.1250000002E-02  -0.3750000005E-03  -0.3750000005E-03   0.3753405417E-17  -0.3600769119E-17   0.2450306805E-18   0.6250000009E+00
   0.2002500000E+01   0.0000000000E+00   0.9996250000E+00   0.2500000000E-02   0.0000000000E+00  -0.3750000000E-03   0.0000000000E+00   0.0000000000E+00   0.0000000000E+00   0.6250000009E+00   0.1785880773E-19   0.1493196708E-15  -0.1301342398E-15   0.3599670147E-15   0.1007740957E-15   0.1250000002E-02  -0.3750000005E-03  -0.3750000005E-03  -0.1282108567E-17   0.1162721346E-17   0.1321236722E-17   0.6250000009E+00
   0.2002500000E+01   0.9996250000E+00   0.9996250000E+00   0.2500000000E-02  -0.3750000000E-03  -0.3750000000E-03   0.0000000000E+00   0.0000000000E+00   0.0000000000E+00   0.6250000008E+00  -0.2375325346E-15  -0.9702887510E-16  -0.1318195906E-15  -0.1111223166E-15   0.3993192823E-16   0.1250000002E-02  -0.3750000005E-03  -0.3750000005E-03  -0.1417136859E-17  -0.2195410811E-17  -0.2483820677E-18   0.6250000008E+00
     1     2     3     4     5     6     7     8
     2     9    10     3     6    11    12     7
 VARIABLES = X,Y,Z,DU1,DU2,DU3,U1,U2,U3,S11,S22,S33,S12,S13,S23,E11,E22,E33,E12,E13,E23,SMISES
 ZONE, T="0.1000D+00" F=FEPOINT, I=   12 J=    2 ET=BRICK
   0.0000000000E+00   0.0000000000E+00   0.0000000000E+00   0.0000000000E+00   0.0000000000E+00   0.0000000000E+00   0.0000000000E+00   0.0000000000E+00   0.0000000000E+00   0.1250000002E+01   0.2081667985E-15   0.1263946424E-15   0.2248535260E-16  -0.2172766619E-16   0.1155884943E-16   0.2500000004E-02  -0.7500000012E-03  -0.7500000012E-03   0.1635010664E-18  -0.4391088020E-18  -0.5264857909E-19   0.1250000002E+01
   0.1002500000E+01   0.0000000000E+00  -0.1343838928E-18   0.1250000000E-02   0.0000000000E+00   0.7517713887E-18   0.1250000000E-02   0.0000000000E+00  -0.8861552815E-18   0.1250000002E+01   0.1618185163E-15   0.1858555427E-15   0.2667439009E-16   0.1518533131E-16  -0.5244970884E-17   0.2500000004E-02  -0.7500000012E-03  -0.7500000012E-03   0.4181068643E-18   0.4718972205E-18  -0.4595312775E-19   0.1250000002E+01
   0.1002500000E+01   0.9992500000E+00  -0.1137201146E-18   0.1250000000E-02  -0.3750000000E-03   0.5537013160E-18   0.1250000000E-02  -0.3750000000E-03  -0.6674214306E-18   0.1250000002E+01   0.3047773819E-16   0.6440711781E-17   0.3907298793E-16  -0.3533287187E-17   0.1578699605E-16   0.2500000004E-02  -0.7500000011E-03  -0.7500000011E-03   0.5196708039E-18   0.4269772075E-18   0.8476577809E-19   0.1250000002E+01
   0.0000000000E+00   0.9992500000E+00  -0.1073576653E-19   0.0000000000E+00  -0.3750000000E-03  -0.8566305133E-18   0.0000000000E+00  -0.3750000000E-03   0.8458947467E-18   0.1250000002E+01  -0.1008630320E-15  -0.1087983083E-15   0.1360560420E-16   0.2667842668E-16  -0.6691169848E-16   0.2500000004E-02  -0.7500000011E-03  -0.7500000011E-03   0.8484242140E-19  -0.4112998075E-18  -0.4875488487E-18   0.1250000002E+01
   0.0000000000E+00   0.0000000000E+00   0.9992500000E+00   0.0000000000E+00   0.0000000000E+00  -0.3750000000E-03   0.0000000000E+00   0.0000000000E+00  -0.3750000000E-03   0.1250000002E+01   0.1759633688E-16  -0.1849926531E-15  -0.3528866352E-16   0.2040483709E-16   0.1947984916E-16   0.2500000004E-02  -0.7500000011E-03  -0.7500000011E-03  -0.2224859738E-19  -0.1989683415E-18   0.2938237973E-18   0.1250000002E+01
   0.1002500000E+01   0.0000000000E+00   0.9992500000E+00   0.1250000000E-02   0.0000000000E+00  -0.3750000000E-03   0.1250000000E-02   0.0000000000E+00  -0.3750000000E-03   0.1250000002E+01  -0.1008630399E-15  -0.1905704554E-15   0.1568945952E-15   0.4468449048E-16   0.7146174318E-17   0.2500000004E-02  -0.7500000011E-03  -0.7500000011E-03   0.9421967538E-18   0.8176027663E-18  -0.1711786558E-18   0.1250000002E+01
   0.1002500000E+01   0.9992500000E+00   0.9992500000E+00   0.1250000000E-02  -0.3750000000E-03  -0.3750000000E-03   0.1250000000E-02  -0.3750000000E-03  -0.3750000000E-03   0.1250000002E+01   0.1008630399E-15   0.1905704554E-15   0.3759852242E-16  -0.8729120265E-16  -0.2619398283E-16   0.2500000003E-02  -0.7500000010E-03  -0.7500000010E-03   0.5447352393E-18   0.4015436045E-18  -0.1408396980E-18   0.1250000002E+01
   0.0000000000E+00   0.9992500000E+00   0.9992500000E+00   0.0000000000E+00  -0.3750000000E-03  -0.3750000000E-03   0.0000000000E+00  -0.3750000000E-03  -0.3750000000E-03   0.1250000002E+01   0.9442234657E-16   0.1545149216E-15   0.4406487722E-16  -0.9507655327E-17   0.6060336456E-16   0.2500000003E-02  -0.7500000010E-03  -0.7500000010E-03   0.3814194233E-18  -0.4685110468E-18   0.8001983997E-18   0.1250000002E+01
   0.2005000000E+01   0.0000000000E+00  -0.7517419480E-18   0.2500000000E-02   0.0000000000E+00   0.3512033567E-17   0.2500000000E-02   0.0000000000E+00  -0.4263775515E-17   0.1250000002E+01   0.8970740860E-16   0.1585981627E-15   0.9331932886E-16  -0.2282340265E-16  -0.4127510182E-17   0.2500000004E-02  -0.7500000011E-03  -0.7500000011E-03   0.6850662809E-18  -0.1824223496E-17  -0.1603061457E-18   0.1250000002E+01
   0.2005000000E+01   0.9992500000E+00  -0.7469635466E-18   0.2500000000E-02  -0.3750000000E-03   0.3080632758E-17   0.2500000000E-02  -0.3750000000E-03  -0.3827596305E-17   0.1250000002E+01  -0.1970111751E-15  -0.1761944969E-15  -0.2430184006E-16  -0.4678567659E-16   0.1288541379E-16   0.2500000003E-02  -0.7500000010E-03  -0.7500000010E-03  -0.2074471044E-18  -0.2196359170E-17   0.4369159781E-18   0.1250000002E+01
   0.2005000000E+01   0.0000000000E+00   0.9992500000E+00   0.2500000000E-02   0.0000000000E+00  -0.3750000000E-03   0.2500000000E-02   0.0000000000E+00  -0.3750000000E-03   0.1250000002E+01  -0.2450852423E-15   0.5577800538E-17  -0.3384992853E-16  -0.2525729753E-16  -0.6213169997E-16   0.2500000003E-02  -0.7500000010E-03  -0.7500000010E-03   0.7446958140E-18  -0.4880045553E-17  -0.1584368126E-18   0.1250000002E+01
   0.2005000000E+01   0.9992500000E+00   0.9992500000E+00   0.2500000000E-02  -0.3750000000E-03  -0.3750000000E-03   0.2500000000E-02  -0.3750000000E-03  -0.3750000000E-03   0.1250000002E+01  -0.2515259502E-15  -0.3596925780E-15   0.5559376015E-16   0.1344223132E-15  -0.3643695090E-16   0.2500000003E-02  -0.7500000010E-03  -0.7500000010E-03   0.2731713444E-18   0.6055699822E-18  -0.1196196324E-17   0.1250000002E+01
     1     2     3     4     5     6     7     8
     2     9    10     3     6    11    12     7
 VARIABLES = X,Y,Z,DU1,DU2,DU3,U1,U2,U3,S11,S22,S33,S12,S13,S23,E11,E22,E33,E12,E13,E23,SMISES
 ZONE, T="0.1500D+00" F=FEPOINT, I=   12 J=    2 ET=BRICK
   0.0000000000E+00   0.0000000000E+00   0.0000000000E+00   0.0000000000E+00   0.0000000000E+00   0.0000000000E+00   0.0000000000E+00   0.0000000000E+00   0.0000000000E+00   0.1875000003E+01   0.5551113884E-16   0.7310746494E-16   0.2216380958E-16  -0.8923831970E-16   0.2272800131E-16   0.3750000006E-02  -0.1125000002E-02  -0.1125000002E-02   0.2505496712E-18  -0.1310938074E-18  -0.6985236033E-19   0.1875000003E+01
   0.1003750000E+01   0.0000000000E+00  -0.5425809176E-18   0.1250000000E-02   0.0000000000E+00  -0.4081970248E-18   0.2500000000E-02   0.0000000000E+00  -0.1343838928E-18   0.1875000003E+01   0.5551113884E-16   0.5551113884E-16  -0.6083532275E-16   0.3523995822E-16   0.2737465927E-17   0.3750000006E-02  -0.1125000002E-02  -0.1125000002E-02  -0.1492837074E-17  -0.8389760189E-18  -0.9833090571E-19   0.1875000003E+01
   0.1003750000E+01   0.9988750000E+00  -0.4132315135E-18   0.1250000000E-02  -0.3750000000E-03  -0.2995113990E-18   0.2500000000E-02  -0.7500000000E-03  -0.1137201146E-18   0.1875000003E+01  -0.2775557191E-15  -0.2775557191E-15  -0.4170163575E-16  -0.7622267113E-17   0.1002586962E-15   0.3750000005E-02  -0.1125000002E-02  -0.1125000002E-02  -0.2190197547E-17   0.1702905824E-17   0.7811149837E-18   0.1875000003E+01
   0.0000000000E+00   0.9988750000E+00  -0.7283294488E-19   0.0000000000E+00  -0.3750000000E-03  -0.6209717835E-19   0.0000000000E+00  -0.7500000000E-03  -0.1073576653E-19   0.1875000003E+01  -0.1719777680E-15  -0.2376481596E-15  -0.1636943661E-16   0.3096412625E-16  -0.1280574786E-15   0.3750000005E-02  -0.1125000002E-02  -0.1125000002E-02   0.1579918128E-18  -0.8376996850E-18  -0.9571735431E-18   0.1875000003E+01
   0.0000000000E+00   0.0000000000E+00   0.9988750000E+00   0.0000000000E+00   0.0000000000E+00  -0.3750000000E-03   0.0000000000E+00   0.0000000000E+00  -0.7500000000E-03   0.1875000003E+01   0.3319989868E-16   0.2848497793E-16  -0.3994761398E-16  -0.5742528884E-16  -0.2235612298E-16   0.3750000005E-02  -0.1125000002E-02  -0.1125000002E-02  -0.1572998924E-18  -0.1640132491E-18   0.5881806702E-18   0.1875000003E+01
   0.1003750000E+01   0.0000000000E+00   0.9988750000E+00   0.1250000000E-02   0.0000000000E+00  -0.3750000000E-03   0.2500000000E-02   0.0000000000E+00  -0.7500000000E-03   0.1875000003E+01  -0.1110222902E-15  -0.1110222902E-15   0.9396711774E-16   0.1157534107E-15   0.1190942198E-16   0.3750000005E-02  -0.1125000002E-02  -0.1125000002E-02   0.1037205422E-17  -0.5671329619E-18  -0.1983109403E-19   0.1875000003E+01
   0.1003750000E+01   0.9988750000E+00   0.9988750000E+00   0.1250000000E-02  -0.3750000000E-03  -0.3750000000E-03   0.2500000000E-02  -0.7500000000E-03  -0.7500000000E-03   0.1875000002E+01   0.2220445678E-15   0.2220445678E-15  -0.1240693635E-16  -0.9669256187E-16   0.8891891561E-17   0.3750000005E-02  -0.1125000001E-02  -0.1125000001E-02   0.7628076123E-18   0.9413741684E-18   0.7203039311E-18   0.1875000002E+01
   0.0000000000E+00   0.9988750000E+00   0.9988750000E+00   0.0000000000E+00  -0.3750000000E-03  -0.3750000000E-03   0.0000000000E+00  -0.7500000000E-03  -0.7500000000E-03   0.1875000003E+01  -0.2775557210E-16  -0.1015924600E-16   0.1037616425E-15  -0.6760067731E-16   0.6575163686E-16   0.3750000005E-02  -0.1125000002E-02  -0.1125000002E-02   0.1370464535E-17  -0.5588676065E-18  -0.8062035503E-18   0.1875000003E+01
   0.2007500000E+01   0.0000000000E+00  -0.1743531786E-17   0.2500000000E-02   0.0000000000E+00  -0.9917898380E-18   0.5000000000E-02   0.0000000000E+00  -0.7517419480E-18   0.1875000003E+01   0.3885779968E-15   0.3709816707E-15  -0.9475997537E-16  -0.3219812327E-15  -0.8221185830E-16   0.3750000006E-02  -0.1125000002E-02  -0.1125000002E-02  -0.1765914366E-17  -0.5820734129E-17  -0.9065649389E-18   0.1875000003E+01
   0.2007500000E+01   0.9988750000E+00  -0.2131053715E-17   0.2500000000E-02  -0.3750000000E-03  -0.1384090169E-17   0.5000000000E-02  -0.7500000000E-03  -0.7469635466E-18   0.1875000003E+01  -0.5006681226E-16   0.1560357927E-16  -0.1145313318E-15   0.1486297984E-15  -0.2344876003E-16   0.3750000005E-02  -0.1125000002E-02  -0.1125000002E-02  -0.1334683414E-17   0.1006222362E-17   0.3801115398E-19   0.1875000003E+01
   0.2007500000E+01   0.0000000000E+00   0.9988750000E+00   0.2500000000E-02   0.0000000000E+00  -0.3750000000E-03   0.5000000000E-02   0.0000000000E+00  -0.7500000000E-03   0.1875000003E+01  -0.5883113369E-15  -0.5835964162E-15   0.1523352984E-15  -0.2309439161E-15  -0.1918099360E-16   0.3750000005E-02  -0.1125000002E-02  -0.1125000002E-02   0.4215686966E-17  -0.4939378003E-17  -0.3106123025E-18   0.1875000003E+01
   0.2007500000E+01   0.9988750000E+00   0.9988750000E+00   0.2500000000E-02  -0.3750000000E-03  -0.3750000000E-03   0.5000000000E-02  -0.7500000000E-03  -0.7500000000E-03   0.1875000002E+01   0.1387778498E-15   0.1211815237E-15   0.2580000576E-15   0.3965248567E-15   0.3301090237E-16   0.3750000005E-02  -0.1125000001E-02  -0.1125000001E-02   0.3942941941E-17   0.6339912707E-17   0.5455106847E-18   0.1875000002E+01
     1     2     3     4     5     6     7     8
     2     9    10     3     6    11    12     7
 VARIABLES = X,Y,Z,DU1,DU2,DU3,U1,U2,U3,S11,S22,S33,S12,S13,S23,E11,E22,E33,E12,E13,E23,SMISES
 ZONE, T="0.2000D+00" F=FEPOINT, I=   12 J=    2 ET=BRICK
   0.0000000000E+00   0.0000000000E+00   0.0000000000E+00   0.0000000000E+00   0.0000000000E+00   0.0000000000E+00   0.0000000000E+00   0.0000000000E+00   0.0000000000E+00   0.2500000004E+01  -0.6158717716E-16  -0.1063073942E-15   0.1401685855E-16  -0.1373796437E-15  -0.3162705566E-17   0.5000000008E-02  -0.1500000002E-02  -0.1500000002E-02  -0.5347840945E-19  -0.1261806129E-17  -0.6024249565E-18   0.2500000004E+01
   0.1005000000E+01   0.0000000000E+00  -0.7770318051E-18   0.1250000000E-02   0.0000000000E+00  -0.2344508875E-18   0.3750000000E-02   0.0000000000E+00  -0.5425809176E-18   0.2500000004E+01  -0.1746999098E-15  -0.1719777495E-15  -0.1682984024E-15   0.6830161204E-16  -0.6253512083E-17   0.5000000008E-02  -0.1500000002E-02  -0.1500000002E-02  -0.2893625117E-17  -0.1724952534E-17   0.2095193124E-18   0.2500000004E+01
   0.1005000000E+01   0.9985000000E+00  -0.7037358453E-18   0.1250000000E-02  -0.3750000000E-03  -0.2905043318E-18   0.3750000000E-02  -0.1125000000E-02  -0.4132315135E-18   0.2500000004E+01  -0.6567040213E-16   0.2031848342E-16  -0.1260797380E-15   0.5697469508E-16   0.3920836965E-16   0.5000000007E-02  -0.1500000002E-02  -0.1500000002E-02  -0.2398007211E-17   0.7229491284E-18   0.2762763537E-18   0.2500000004E+01
   0.0000000000E+00   0.9985000000E+00  -0.1531832935E-18   0.0000000000E+00  -0.3750000000E-03  -0.8035034862E-19   0.0000000000E+00  -0.1125000000E-02  -0.7283294488E-19   0.2500000004E+01  -0.4878130105E-15  -0.3689889284E-15   0.9643904368E-17  -0.7306894823E-17  -0.1382762640E-15   0.5000000007E-02  -0.1500000002E-02  -0.1500000002E-02  -0.6148312152E-18  -0.1621618039E-18   0.5318595734E-19   0.2500000004E+01
   0.0000000000E+00   0.0000000000E+00   0.9985000000E+00   0.0000000000E+00   0.0000000000E+00  -0.3750000000E-03   0.0000000000E+00   0.0000000000E+00  -0.1125000000E-02   0.2500000004E+01  -0.2466870303E-16  -0.8525946620E-16  -0.4157504969E-16  -0.7081144970E-16   0.1788120138E-16   0.5000000007E-02  -0.1500000002E-02  -0.1500000002E-02   0.5484094090E-18  -0.3700320488E-18   0.8331807048E-18   0.2500000004E+01
   0.1005000000E+01   0.0000000000E+00   0.9985000000E+00   0.1250000000E-02   0.0000000000E+00  -0.3750000000E-03   0.3750000000E-02   0.0000000000E+00  -0.1125000000E-02   0.2500000004E+01   0.1618185032E-15   0.1516592615E-15   0.3359551050E-16   0.1363043840E-15   0.4271647432E-16   0.5000000007E-02  -0.1500000002E-02  -0.1500000002E-02  -0.1117849856E-17  -0.1162632679E-17   0.9158311943E-19   0.2500000004E+01
   0.1005000000E+01   0.9985000000E+00   0.9985000000E+00   0.1250000000E-02  -0.3750000000E-03  -0.3750000000E-03   0.3750000000E-02  -0.1125000000E-02  -0.1125000000E-02   0.2500000003E+01  -0.7855178250E-16   0.5551115586E-16   0.2219967054E-17  -0.8631670669E-16  -0.4683287197E-16   0.5000000007E-02  -0.1500000002E-02  -0.1500000002E-02   0.1850964638E-17   0.1856829487E-17   0.1462535465E-18   0.2500000003E+01
   0.0000000000E+00   0.9985000000E+00   0.9985000000E+00   0.0000000000E+00  -0.3750000000E-03  -0.3750000000E-03   0.0000000000E+00  -0.1125000000E-02  -0.1125000000E-02   0.2500000003E+01   0.1178276682E-15   0.2958814425E-15   0.2527978906E-16  -0.9362498055E-16   0.7598164906E-16   0.5000000007E-02  -0.1500000002E-02  -0.1500000002E-02  -0.4117313617E-18  -0.1418911623E-17  -0.4866352103E-18   0.2500000003E+01
   0.2010000000E+01   0.0000000000E+00  -0.2238130216E-17   0.2500000000E-02   0.0000000000E+00  -0.4945984303E-18   0.7500000000E-02   0.0000000000E+00  -0.1743531786E-17   0.2500000004E+01   0.3852241836E-15   0.2173296627E-15  -0.1150002447E-15  -0.2422546275E-15  -0.1045117374E-15   0.5000000008E-02  -0.1500000002E-02  -0.1500000002E-02  -0.2540353767E-17   0.5425664799E-17  -0.1163833160E-17   0.2500000004E+01
   0.2010000000E+01   0.9985000000E+00  -0.2728197107E-17   0.2500000000E-02  -0.3750000000E-03  -0.5971433911E-18   0.7500000000E-02  -0.1125000000E-02  -0.2131053715E-17   0.2500000003E+01   0.3307094455E-15   0.2877149856E-15  -0.1055855278E-15   0.1501256726E-15   0.4047442023E-16   0.5000000007E-02  -0.1500000002E-02  -0.1500000002E-02  -0.2248789140E-17  -0.5525705255E-17  -0.1447865650E-18   0.2500000003E+01
   0.2010000000E+01   0.0000000000E+00   0.9985000000E+00   0.2500000000E-02   0.0000000000E+00  -0.3750000000E-03   0.7500000000E-02   0.0000000000E+00  -0.1125000000E-02   0.2500000003E+01  -0.1052390919E-16  -0.6639977829E-16  -0.2450148440E-15   0.3008121889E-16  -0.4873570042E-16   0.5000000007E-02  -0.1500000002E-02  -0.1500000002E-02  -0.5264544519E-18  -0.4128774422E-17  -0.4064192312E-19   0.2500000003E+01
   0.2010000000E+01   0.9985000000E+00   0.9985000000E+00   0.2500000000E-02  -0.3750000000E-03  -0.3750000000E-03   0.7500000000E-02  -0.1125000000E-02  -0.1125000000E-02   0.2500000003E+01   0.3981055928E-15  -0.6294822121E-16   0.2341617419E-16   0.1731194837E-15   0.5967536852E-16   0.5000000006E-02  -0.1500000002E-02  -0.1500000002E-02   0.1554031771E-17   0.5570272271E-17   0.1697291102E-17   0.2500000003E+01
     1     2     3     4     5     6     7     8
     2     9    10     3     6    11    12     7
 VARIABLES = X,Y,Z,DU1,DU2,DU3,U1,U2,U3,S11,S22,S33,S12,S13,S23,E11,E22,E33,E12,E13,E23,SMISES
 ZONE, T="0.2500D+00" F=FEPOINT, I=   12 J=    2 ET=BRICK
   0.0000000000E+00   0.0000000000E+00   0.0000000000E+00   0.0000000000E+00   0.0000000000E+00   0.0000000000E+00   0.0000000000E+00   0.0000000000E+00   0.0000000000E+00   0.3125000005E+01  -0.6634115559E-15  -0.1006103734E-14   0.1171219290E-16  -0.4017769992E-15   0.1536988987E-15   0.6250000010E-02  -0.1875000003E-02  -0.1875000003E-02  -0.6560760280E-18  -0.3496546448E-17   0.7246831660E-18   0.3125000005E+01
   0.1006250000E+01   0.0000000000E+00  -0.2807827995E-17   0.1250000000E-02   0.0000000000E+00  -0.2030796190E-17   0.5000000000E-02   0.0000000000E+00  -0.7770318051E-18   0.3125000005E+01  -0.5444320501E-17  -0.4549778108E-15   0.1829532628E-15   0.3835186050E-15   0.1516950948E-15   0.6250000010E-02  -0.1875000003E-02  -0.1875000003E-02   0.1509580610E-17   0.5085054676E-18   0.1416186907E-17   0.3125000005E+01
   0.1006250000E+01   0.9981250000E+00  -0.1932849527E-17   0.1250000000E-02  -0.3750000000E-03  -0.1229113682E-17   0.5000000000E-02  -0.1500000000E-02  -0.7037358453E-18   0.3125000004E+01   0.9070378513E-16  -0.1219109528E-15   0.1416366941E-15  -0.1442904572E-15  -0.6551540997E-16   0.6250000009E-02  -0.1875000003E-02  -0.1875000003E-02  -0.1321229437E-18   0.1843066766E-17   0.1588448826E-18   0.3125000004E+01
   0.0000000000E+00   0.9981250000E+00   0.7127400521E-18   0.0000000000E+00  -0.3750000000E-03   0.8659233456E-18   0.0000000000E+00  -0.1500000000E-02  -0.1531832935E-18   0.3125000005E+01   0.1658040116E-15  -0.3399700315E-15   0.2561403598E-16  -0.2405457967E-15  -0.2564945780E-15   0.6250000009E-02  -0.1875000003E-02  -0.1875000003E-02  -0.2600864239E-19  -0.3998178303E-17  -0.2101965581E-17   0.3125000005E+01
   0.0000000000E+00   0.0000000000E+00   0.9981250000E+00   0.0000000000E+00   0.0000000000E+00  -0.3750000000E-03   0.0000000000E+00   0.0000000000E+00  -0.1500000000E-02   0.3125000005E+01   0.6465446438E-15   0.1006103742E-14  -0.4376540609E-16  -0.2590434146E-15   0.7581693212E-16   0.6250000009E-02  -0.1875000003E-02  -0.1875000003E-02   0.4757925217E-19  -0.5270344008E-17   0.1823697128E-17   0.3125000005E+01
   0.1006250000E+01   0.0000000000E+00   0.9981250000E+00   0.1250000000E-02   0.0000000000E+00  -0.3750000000E-03   0.5000000000E-02   0.0000000000E+00  -0.1500000000E-02   0.3125000004E+01   0.2830000396E-15   0.6472740653E-15  -0.1392714651E-15   0.4066079598E-15   0.9795864003E-16   0.6250000009E-02  -0.1875000003E-02  -0.1875000003E-02  -0.2120356591E-17   0.8569653883E-17   0.1777380700E-17   0.3125000004E+01
   0.1006250000E+01   0.9981250000E+00   0.9981250000E+00   0.1250000000E-02  -0.3750000000E-03  -0.3750000000E-03   0.5000000000E-02  -0.1500000000E-02  -0.1500000000E-02   0.3125000004E+01  -0.4088964802E-15   0.3142072073E-15  -0.1495629204E-15  -0.1971013334E-15  -0.2214595833E-15   0.6250000008E-02  -0.1875000002E-02  -0.1875000002E-02  -0.1752281358E-17  -0.3960032556E-17  -0.3024310739E-17   0.3125000004E+01
   0.0000000000E+00   0.9981250000E+00   0.9981250000E+00   0.0000000000E+00  -0.3750000000E-03  -0.3750000000E-03   0.0000000000E+00  -0.1500000000E-02  -0.1500000000E-02   0.3125000004E+01  -0.1286186124E-15   0.2180590977E-15   0.6399039418E-16  -0.2979008393E-15  -0.1945630826E-15   0.6250000008E-02  -0.1875000003E-02  -0.1875000003E-02   0.1181398194E-17  -0.1695977938E-17  -0.1174045977E-17   0.3125000004E+01
   0.2012500000E+01   0.0000000000E+00  -0.9244043798E-17   0.2500000000E-02   0.0000000000E+00  -0.7005913582E-17   0.1000000000E-01   0.0000000000E+00  -0.2238130216E-17   0.3125000005E+01   0.3791480666E-16  -0.2884443965E-15   0.1458162482E-15  -0.7562804315E-16   0.1489604058E-16   0.6250000009E-02  -0.1875000003E-02  -0.1875000003E-02  -0.2368250800E-17  -0.2667545630E-17   0.4788479426E-18   0.3125000005E+01
   0.2012500000E+01   0.9981250000E+00  -0.9092865536E-17   0.2500000000E-02  -0.3750000000E-03  -0.6364668430E-17   0.1000000000E-01  -0.1500000000E-02  -0.2728197107E-17   0.3125000004E+01  -0.1766926526E-15  -0.2884443830E-15  -0.2660021933E-17  -0.5615889136E-16   0.7687975410E-16   0.6250000009E-02  -0.1875000003E-02  -0.1875000003E-02  -0.3475284156E-17   0.3274029295E-17   0.2683122439E-18   0.3125000004E+01
   0.2012500000E+01   0.0000000000E+00   0.9981250000E+00   0.2500000000E-02   0.0000000000E+00  -0.3750000000E-03   0.1000000000E-01   0.0000000000E+00  -0.1500000000E-02   0.3125000004E+01  -0.2728407757E-15  -0.9614812031E-16  -0.4132976559E-15   0.4350380737E-15   0.1288437697E-15   0.6250000009E-02  -0.1875000003E-02  -0.1875000003E-02   0.8501211939E-18  -0.4118351803E-17   0.1856704212E-17   0.3125000004E+01
   0.2012500000E+01   0.9981250000E+00   0.9981250000E+00   0.2500000000E-02  -0.3750000000E-03  -0.3750000000E-03   0.1000000000E-01  -0.1500000000E-02  -0.1500000000E-02   0.3125000004E+01   0.6946186916E-15   0.2576280786E-16  -0.5179845159E-16   0.2285598391E-15   0.1107632263E-15   0.6250000008E-02  -0.1875000002E-02  -0.1875000002E-02   0.2484263059E-17   0.8468585398E-17   0.3742449621E-17   0.3125000004E+01
     1     2     3     4     5     6     7     8
     2     9    10     3     6    11    12     7
 VARIABLES = X,Y,Z,DU1,DU2,DU3,U1,U2,U3,S11,S22,S33,S12,S13,S23,E11,E22,E33,E12,E13,E23,SMISES
 ZONE, T="0.3000D+00" F=FEPOINT, I=   12 J=    2 ET=BRICK
   0.0000000000E+00   0.0000000000E+00   0.0000000000E+00   0.0000000000E+00   0.0000000000E+00   0.0000000000E+00   0.0000000000E+00   0.0000000000E+00   0.0000000000E+00   0.3750000006E+01  -0.5848597384E-15  -0.1942890235E-15  -0.1283860729E-16   0.3813001390E-17   0.3305492439E-17   0.7500000012E-02  -0.2250000004E-02  -0.2250000004E-02   0.5502531455E-20   0.5283511730E-18  -0.7795377426E-18   0.3750000006E+01
   0.1007500000E+01   0.0000000000E+00  -0.1035704345E-18   0.1250000000E-02   0.0000000000E+00   0.2704257561E-17   0.6250000000E-02   0.0000000000E+00  -0.2807827995E-17   0.3750000006E+01   0.8127394277E-16  -0.5402372754E-15  -0.9692176119E-16  -0.2670703188E-16  -0.3664968558E-16   0.7500000012E-02  -0.2250000003E-02  -0.2250000003E-02  -0.2606113596E-17  -0.9722852818E-18   0.7589183259E-18   0.3750000006E+01
   0.1007500000E+01   0.9977500000E+00  -0.1992912487E-18   0.1250000000E-02  -0.3750000000E-03   0.1733558278E-17   0.6250000000E-02  -0.1875000000E-02  -0.1932849527E-17   0.3750000005E+01   0.5551114474E-15   0.5808742513E-15  -0.1646961457E-15   0.3262207252E-16  -0.1448215200E-16   0.7500000011E-02  -0.2250000003E-02  -0.2250000003E-02  -0.3229737063E-17  -0.2334961140E-17  -0.1563675837E-17   0.3750000005E+01
   0.0000000000E+00   0.9977500000E+00  -0.9006804309E-19   0.0000000000E+00  -0.3750000000E-03  -0.8028080952E-18   0.0000000000E+00  -0.1875000000E-02   0.7127400521E-18   0.3750000005E+01   0.5551111078E-16  -0.2552444822E-15   0.9695121566E-16  -0.6797125019E-17  -0.9892161474E-16   0.7500000011E-02  -0.2250000003E-02  -0.2250000003E-02   0.9273844769E-18   0.1421082008E-17   0.2318475722E-18   0.3750000005E+01
   0.0000000000E+00   0.0000000000E+00   0.9977500000E+00   0.0000000000E+00   0.0000000000E+00  -0.3750000000E-03   0.0000000000E+00   0.0000000000E+00  -0.1875000000E-02   0.3750000005E+01   0.7731704696E-15  -0.3718541748E-16  -0.2992869049E-16   0.1092238076E-15   0.3207587419E-16   0.7500000011E-02  -0.2250000003E-02  -0.2250000003E-02  -0.2499392767E-18  -0.7513223227E-18   0.2854715374E-18   0.3750000005E+01
   0.1007500000E+01   0.0000000000E+00   0.9977500000E+00   0.1250000000E-02   0.0000000000E+00  -0.3750000000E-03   0.6250000000E-02   0.0000000000E+00  -0.1875000000E-02   0.3750000005E+01   0.2974833490E-16   0.3885779968E-15  -0.7630817470E-16   0.1086344413E-15  -0.1145648730E-15   0.7500000011E-02  -0.2250000003E-02  -0.2250000003E-02  -0.7219985200E-18   0.1749952062E-17  -0.1466557204E-17   0.3750000005E+01
   0.1007500000E+01   0.9977500000E+00   0.9977500000E+00   0.1250000000E-02  -0.3750000000E-03  -0.3750000000E-03   0.6250000000E-02  -0.1875000000E-02  -0.1875000000E-02   0.3750000005E+01  -0.5848597732E-15  -0.1556447664E-15  -0.1803345499E-15  -0.1013454980E-15  -0.2242173529E-15   0.7500000010E-02  -0.2250000003E-02  -0.2250000003E-02  -0.4440691452E-19   0.4337067209E-17  -0.4182024079E-18   0.3750000005E+01
   0.0000000000E+00   0.9977500000E+00   0.9977500000E+00   0.0000000000E+00  -0.3750000000E-03  -0.3750000000E-03   0.0000000000E+00  -0.1875000000E-02  -0.1875000000E-02   0.3750000005E+01  -0.6175257193E-15  -0.5351839755E-16   0.3218533358E-16  -0.1605648454E-15   0.1289109409E-15   0.7500000010E-02  -0.2250000003E-02  -0.2250000003E-02  -0.2963974319E-18  -0.2887030286E-17  -0.2442160765E-20   0.3750000005E+01
   0.2015000000E+01   0.0000000000E+00  -0.1075727572E-17   0.2500000000E-02   0.0000000000E+00   0.8168316226E-17   0.1250000000E-01   0.0000000000E+00  -0.9244043798E-17   0.3750000006E+01  -0.1354044740E-14  -0.1270778036E-14   0.9423228021E-15   0.2357823455E-15   0.1193343128E-15   0.7500000011E-02  -0.2250000003E-02  -0.2250000003E-02   0.4376006707E-17  -0.9387470951E-18   0.1002932428E-17   0.3750000006E+01
   0.2015000000E+01   0.9977500000E+00  -0.4257258195E-18   0.2500000000E-02  -0.3750000000E-03   0.8667139717E-17   0.1250000000E-01  -0.1875000000E-02  -0.9092865536E-17   0.3750000005E+01   0.7731704907E-15   0.1032400476E-14   0.7756881858E-15  -0.5822725146E-15   0.2316310649E-15   0.7500000010E-02  -0.2250000003E-02  -0.2250000003E-02  -0.1237780937E-18   0.5124528918E-17   0.2413517309E-17   0.3750000005E+01
   0.2015000000E+01   0.0000000000E+00   0.9977500000E+00   0.2500000000E-02   0.0000000000E+00  -0.3750000000E-03   0.1250000000E-01   0.0000000000E+00  -0.1875000000E-02   0.3750000005E+01   0.3370523389E-15   0.4297489021E-15  -0.7881419077E-15   0.9615464292E-15   0.1115633223E-15   0.7500000010E-02  -0.2250000003E-02  -0.2250000003E-02  -0.6778771092E-17   0.5464996094E-17   0.1056301956E-17   0.3750000005E+01
   0.2015000000E+01   0.9977500000E+00   0.9977500000E+00   0.2500000000E-02  -0.3750000000E-03  -0.3750000000E-03   0.1250000000E-01  -0.1875000000E-02  -0.1875000000E-02   0.3750000005E+01   0.1088867316E-16  -0.6423636441E-15  -0.5935245341E-15  -0.2815562777E-15   0.1946070267E-15   0.7500000010E-02  -0.2250000003E-02  -0.2250000003E-02  -0.4855735911E-17  -0.6521940802E-17   0.3712459091E-17   0.3750000005E+01
     1     2     3     4     5     6     7     8
     2     9    10     3     6    11    12     7
 VARIABLES = X,Y,Z,DU1,DU2,DU3,U1,U2,U3,S11,S22,S33,S12,S13,S23,E11,E22,E33,E12,E13,E23,SMISES
 ZONE, T="0.3500D+00" F=FEPOINT, I=   12 J=    2 ET=BRICK
   0.0000000000E+00   0.0000000000E+00   0.0000000000E+00   0.0000000000E+00   0.0000000000E+00   0.0000000000E+00   0.0000000000E+00   0.0000000000E+00   0.0000000000E+00   0.4375000007E+01  -0.1087911558E-14  -0.8798160601E-16  -0.2176555616E-16  -0.5799734180E-17   0.1110026736E-16   0.8750000014E-02  -0.2625000004E-02  -0.2625000004E-02   0.3967353073E-18   0.2064010745E-17  -0.1113678532E-17   0.4375000007E+01
   0.1008750000E+01   0.0000000000E+00   0.2916527003E-18   0.1250000000E-02   0.0000000000E+00   0.3952231347E-18   0.7500000000E-02   0.0000000000E+00  -0.1035704345E-18   0.4375000007E+01   0.2478073843E-15  -0.1055779572E-15   0.3445503499E-15   0.2009927619E-15  -0.1476304593E-16   0.8750000013E-02  -0.2625000004E-02  -0.2625000004E-02  -0.3930850381E-19  -0.1884203270E-17   0.4113187620E-18   0.4375000007E+01
   0.1008750000E+01   0.9973750000E+00   0.3339285859E-18   0.1250000000E-02  -0.3750000000E-03   0.5332198346E-18   0.7500000000E-02  -0.2250000000E-02  -0.1992912487E-18   0.4375000006E+01   0.3885780309E-15   0.2017260969E-15   0.2407411169E-15  -0.1681883008E-15   0.1830268998E-15   0.8750000012E-02  -0.2625000004E-02  -0.2625000004E-02   0.2491708708E-20   0.4056526136E-17   0.1726321756E-17   0.4375000006E+01
   0.0000000000E+00   0.9973750000E+00  -0.1075953031E-18   0.0000000000E+00  -0.3750000000E-03  -0.1752725999E-19   0.0000000000E+00  -0.2250000000E-02  -0.9006804309E-19   0.4375000006E+01   0.1128548593E-14   0.3025891211E-15   0.4643165752E-16   0.5219533920E-16  -0.9888495480E-16   0.8750000013E-02  -0.2625000004E-02  -0.2625000004E-02   0.3198857255E-18  -0.1368039978E-17   0.1089367124E-17   0.4375000006E+01
   0.0000000000E+00   0.0000000000E+00   0.9973750000E+00   0.0000000000E+00   0.0000000000E+00  -0.3750000000E-03   0.0000000000E+00   0.0000000000E+00  -0.2250000000E-02   0.4375000006E+01   0.1224696716E-14   0.5112183549E-15  -0.2864690570E-16   0.1152909184E-15  -0.1138707926E-15   0.8750000013E-02  -0.2625000004E-02  -0.2625000004E-02   0.2376232514E-18  -0.2130498904E-17   0.1631739234E-18   0.4375000006E+01
   0.1008750000E+01   0.0000000000E+00   0.9973750000E+00   0.1250000000E-02   0.0000000000E+00  -0.3750000000E-03   0.7500000000E-02   0.0000000000E+00  -0.2250000000E-02   0.4375000006E+01   0.1962817763E-15   0.2721113986E-15   0.9763665294E-17   0.2271370060E-15  -0.2199300541E-15   0.8750000012E-02  -0.2625000004E-02  -0.2625000004E-02   0.1073732348E-17   0.8735590059E-18  -0.2219976340E-17   0.4375000006E+01
   0.1008750000E+01   0.9973750000E+00   0.9973750000E+00   0.1250000000E-02  -0.3750000000E-03  -0.3750000000E-03   0.7500000000E-02  -0.2250000000E-02  -0.2250000000E-02   0.4375000006E+01  -0.4183263317E-15  -0.2978742117E-15  -0.1010703532E-15  -0.1827333143E-15  -0.1906711046E-15   0.8750000011E-02  -0.2625000003E-02  -0.2625000003E-02   0.1360620738E-17   0.3238343330E-17  -0.9658881622E-18   0.4375000006E+01
   0.0000000000E+00   0.9973750000E+00   0.9973750000E+00   0.0000000000E+00  -0.3750000000E-03  -0.3750000000E-03   0.0000000000E+00  -0.2250000000E-02  -0.2250000000E-02   0.4375000006E+01  -0.5436887834E-15  -0.2356553660E-15   0.1967561294E-15  -0.1909251992E-15   0.6507957074E-16   0.8750000012E-02  -0.2625000004E-02  -0.2625000004E-02   0.3026767206E-17  -0.2458643141E-17  -0.1617848285E-17   0.4375000006E+01
   0.2017500000E+01   0.0000000000E+00   0.9189328191E-18   0.2500000000E-02   0.0000000000E+00   0.1994660391E-17   0.1500000000E-01   0.0000000000E+00  -0.1075727572E-17   0.4375000007E+01  -0.5179260374E-15  -0.3154705196E-15   0.1108924576E-14  -0.2822482337E-15   0.1643334953E-15   0.8750000013E-02  -0.2625000004E-02  -0.2625000004E-02   0.1058712118E-16   0.1015860527E-16   0.1808545648E-17   0.4375000007E+01
   0.2017500000E+01   0.9973750000E+00   0.1812138956E-17   0.2500000000E-02  -0.3750000000E-03   0.2237864775E-17   0.1500000000E-01  -0.2250000000E-02  -0.4257258195E-18   0.4375000006E+01   0.3319989137E-16   0.8185223964E-15   0.9253389737E-15  -0.5566085928E-15   0.3563119986E-15   0.8750000012E-02  -0.2625000004E-02  -0.2625000004E-02   0.9902519408E-17  -0.3140572811E-17   0.4268527845E-17   0.4375000006E+01
   0.2017500000E+01   0.0000000000E+00   0.9973750000E+00   0.2500000000E-02   0.0000000000E+00  -0.3750000000E-03   0.1500000000E-01   0.0000000000E+00  -0.2250000000E-02   0.4375000006E+01  -0.4475407408E-15   0.8453005020E-16  -0.3983765373E-15   0.8340983130E-15  -0.4591658905E-17   0.8750000012E-02  -0.2625000004E-02  -0.2625000004E-02  -0.2326397711E-18   0.8494763840E-17  -0.3799466689E-18   0.4375000006E+01
   0.2017500000E+01   0.9973750000E+00   0.9973750000E+00   0.2500000000E-02  -0.3750000000E-03  -0.3750000000E-03   0.1500000000E-01  -0.2250000000E-02  -0.2250000000E-02   0.4375000006E+01   0.2701186201E-15  -0.5523892686E-15  -0.3941628391E-15  -0.5015750349E-15   0.1573351507E-15   0.8750000011E-02  -0.2625000003E-02  -0.2625000003E-02  -0.1602955172E-17   0.1629561633E-17   0.4498643645E-17   0.4375000006E+01
     1     2     3     4     5     6     7     8
     2     9    10     3     6    11    12     7
 VARIABLES = X,Y,Z,DU1,DU2,DU3,U1,U2,U3,S11,S22,S33,S12,S13,S23,E11,E22,E33,E12,E13,E23,SMISES
 ZONE, T="0.4000D+00" F=FEPOINT, I=   12 J=    2 ET=BRICK
   0.0000000000E+00   0.0000000000E+00   0.0000000000E+00   0.0000000000E+00   0.0000000000E+00   0.0000000000E+00   0.0000000000E+00   0.0000000000E+00   0.0000000000E+00   0.5000000008E+01  -0.1055441116E-14  -0.9070381637E-16  -0.4285048655E-16   0.3148958601E-16  -0.5402268512E-16   0.1000000002E-01  -0.3000000005E-02  -0.3000000005E-02  -0.1518021270E-17  -0.7567923566E-18  -0.1494562316E-17   0.5000000008E+01
   0.1010000000E+01   0.0000000000E+00   0.6080620854E-18   0.1250000000E-02   0.0000000000E+00   0.3164093852E-18   0.8750000000E-02   0.0000000000E+00   0.2916527003E-18   0.5000000008E+01   0.6095545937E-16  -0.2924298820E-15  -0.2727068071E-15  -0.2819440991E-15  -0.6318515114E-16   0.1000000002E-01  -0.3000000005E-02  -0.3000000005E-02  -0.4625286579E-17  -0.2509053265E-17   0.2010239193E-18   0.5000000008E+01
   0.1010000000E+01   0.9970000000E+00   0.3731409338E-18   0.1250000000E-02  -0.3750000000E-03   0.3921234795E-19   0.8750000000E-02  -0.2625000000E-02   0.3339285859E-18   0.5000000007E+01   0.2274889099E-15   0.3033185322E-15  -0.3093564387E-15   0.1658723661E-15   0.8630097350E-16   0.1000000001E-01  -0.3000000004E-02  -0.3000000004E-02  -0.7200700484E-17   0.7351736344E-18  -0.8423730030E-19   0.5000000007E+01
   0.0000000000E+00   0.9970000000E+00  -0.4084961783E-18   0.0000000000E+00  -0.3750000000E-03  -0.3009008752E-18   0.0000000000E+00  -0.2625000000E-02  -0.1075953031E-18   0.5000000007E+01   0.7704482961E-15  -0.5551116533E-16   0.1459222319E-15   0.7871273216E-16  -0.7148383882E-16   0.1000000001E-01  -0.3000000004E-02  -0.3000000004E-02   0.1741627008E-17   0.2686055562E-17  -0.2120855296E-17   0.5000000007E+01
   0.0000000000E+00   0.0000000000E+00   0.9970000000E+00   0.0000000000E+00   0.0000000000E+00  -0.3750000000E-03   0.0000000000E+00   0.0000000000E+00  -0.2625000000E-02   0.5000000007E+01   0.3764259561E-15  -0.3276225637E-15  -0.3520281841E-18   0.2888780661E-15   0.4740589645E-16   0.1000000001E-01  -0.3000000004E-02  -0.3000000004E-02   0.4614035821E-18  -0.1723669033E-18   0.1171820179E-17   0.5000000007E+01
   0.1010000000E+01   0.0000000000E+00   0.9970000000E+00   0.1250000000E-02   0.0000000000E+00  -0.3750000000E-03   0.8750000000E-02   0.0000000000E+00  -0.2625000000E-02   0.5000000007E+01   0.1055779571E-15   0.1814075794E-15   0.4140173929E-16  -0.1490352575E-15  -0.1359241705E-15   0.1000000001E-01  -0.3000000004E-02  -0.3000000004E-02  -0.7107353145E-19  -0.1826330733E-17  -0.8761562336E-18   0.5000000007E+01
   0.1010000000E+01   0.9970000000E+00   0.9970000000E+00   0.1250000000E-02  -0.3750000000E-03  -0.3750000000E-03   0.8750000000E-02  -0.2625000000E-02  -0.2625000000E-02   0.5000000007E+01  -0.2721113986E-15  -0.2220445803E-15   0.9798578992E-16   0.7035279982E-16  -0.1547811515E-15   0.1000000001E-01  -0.3000000004E-02  -0.3000000004E-02   0.2290388874E-17   0.4315181802E-17  -0.7715216069E-18   0.5000000007E+01
   0.0000000000E+00   0.9970000000E+00   0.9970000000E+00   0.0000000000E+00  -0.3750000000E-03  -0.3750000000E-03   0.0000000000E+00  -0.2625000000E-02  -0.2625000000E-02   0.5000000007E+01  -0.6777517634E-15  -0.3697183488E-15   0.1441965534E-15  -0.4284075457E-16   0.2891315468E-15   0.1000000001E-01  -0.3000000004E-02  -0.3000000004E-02   0.1388388672E-17  -0.7919718328E-19   0.3920008134E-17   0.5000000007E+01
   0.2020000000E+01   0.0000000000E+00   0.2488282923E-17   0.2500000000E-02   0.0000000000E+00   0.1569350104E-17   0.1750000000E-01   0.0000000000E+00   0.9189328191E-18   0.5000000008E+01  -0.6567040170E-16  -0.3533853442E-15   0.6702263582E-15  -0.1400191443E-15   0.9837660588E-16   0.1000000002E-01  -0.3000000005E-02  -0.3000000005E-02   0.3639337120E-17  -0.1066513971E-16   0.1709401907E-17   0.5000000008E+01
   0.2020000000E+01   0.9970000000E+00   0.3046330998E-17   0.2500000000E-02  -0.3750000000E-03   0.1234192043E-17   0.1750000000E-01  -0.2625000000E-02   0.1812138956E-17   0.5000000007E+01   0.1759633863E-16   0.8029188331E-15   0.6474623488E-15  -0.2193396239E-15   0.2658008699E-15   0.1000000001E-01  -0.3000000004E-02  -0.3000000004E-02   0.2587958495E-17   0.1521010495E-16   0.2443320202E-17   0.5000000007E+01
   0.2020000000E+01   0.0000000000E+00   0.9970000000E+00   0.2500000000E-02   0.0000000000E+00  -0.3750000000E-03   0.1750000000E-01   0.0000000000E+00  -0.2625000000E-02   0.5000000007E+01  -0.4983369429E-15   0.1650746101E-15  -0.5360070782E-15   0.7608141075E-15  -0.1020700406E-15   0.1000000001E-01  -0.3000000004E-02  -0.3000000004E-02  -0.3583709458E-17   0.1642712706E-17   0.1418528123E-18   0.5000000007E+01
   0.2020000000E+01   0.9970000000E+00   0.9970000000E+00   0.2500000000E-02  -0.3750000000E-03  -0.3750000000E-03   0.1750000000E-01  -0.2625000000E-02  -0.2625000000E-02   0.5000000006E+01   0.2227739617E-15  -0.5997339242E-15  -0.4430122664E-15  -0.5577630220E-15   0.4511334787E-16   0.1000000001E-01  -0.3000000004E-02  -0.3000000004E-02  -0.3203082381E-17  -0.2491858652E-17  -0.3104985134E-18   0.5000000006E+01
     1     2     3     4     5     6     7     8
     2     9    10     3     6    11    12     7
 VARIABLES = X,Y,Z,DU1,DU2,DU3,U1,U2,U3,S11,S22,S33,S12,S13,S23,E11,E22,E33,E12,E13,E23,SMISES
 ZONE, T="0.4500D+00" F=FEPOINT, I=   12 J=    2 ET=BRICK
   0.0000000000E+00   0.0000000000E+00   0.0000000000E+00   0.0000000000E+00   0.0000000000E+00   0.0000000000E+00   0.0000000000E+00   0.0000000000E+00   0.0000000000E+00   0.5625000009E+01  -0.1341163310E-14  -0.6472740239E-15  -0.4805352962E-16  -0.1222058483E-15   0.1112677913E-15   0.1125000002E-01  -0.3375000005E-02  -0.3375000005E-02   0.2610648787E-18  -0.2675951070E-17   0.7515596037E-18   0.5625000009E+01
   0.1011250000E+01   0.0000000000E+00  -0.7840257806E-18   0.1250000000E-02   0.0000000000E+00  -0.1392087866E-17   0.1000000000E-01   0.0000000000E+00   0.6080620854E-18   0.5625000009E+01  -0.1487417200E-16  -0.4034521689E-15  -0.4118008853E-16   0.1838082276E-15  -0.6044792666E-16   0.1125000002E-01  -0.3375000005E-02  -0.3375000005E-02  -0.4463968110E-17   0.1696741162E-17  -0.1195604957E-17   0.5625000009E+01
   0.1011250000E+01   0.9966250000E+00  -0.9810946566E-18   0.1250000000E-02  -0.3750000000E-03  -0.1354235590E-17   0.1000000000E-01  -0.3000000000E-02   0.3731409338E-18   0.5625000008E+01   0.1962817764E-15   0.2111559393E-15  -0.1993523556E-15   0.2900263073E-15  -0.1597145371E-15   0.1125000002E-01  -0.3375000005E-02  -0.3375000005E-02  -0.2404891420E-17  -0.8265786252E-18  -0.1831763611E-17   0.5625000008E+01
   0.0000000000E+00   0.9966250000E+00   0.3537491613E-18   0.0000000000E+00  -0.3750000000E-03   0.7622453396E-18   0.0000000000E+00  -0.3000000000E-02  -0.4084961783E-18   0.5625000008E+01   0.1083926076E-14   0.2111559051E-15   0.1053710161E-15  -0.2745297331E-15  -0.1792565679E-15   0.1125000002E-01  -0.3375000005E-02  -0.3375000005E-02  -0.4124738811E-19  -0.9257820895E-18  -0.1709123552E-17   0.5625000008E+01
   0.0000000000E+00   0.0000000000E+00   0.9966250000E+00   0.0000000000E+00   0.0000000000E+00  -0.3750000000E-03   0.0000000000E+00   0.0000000000E+00  -0.3000000000E-02   0.5625000008E+01   0.7156665546E-15   0.7949478170E-15   0.6657284249E-17   0.1877206127E-16   0.6699309015E-16   0.1125000002E-01  -0.3375000005E-02  -0.3375000005E-02  -0.5145044067E-18  -0.3552453177E-17   0.2160403822E-17   0.5625000008E+01
   0.1011250000E+01   0.0000000000E+00   0.9966250000E+00   0.1250000000E-02   0.0000000000E+00  -0.3750000000E-03   0.1000000000E-01   0.0000000000E+00  -0.3000000000E-02   0.5625000008E+01   0.2666670781E-15   0.9288153063E-15  -0.1045411401E-15   0.1300866115E-15  -0.1092774827E-15   0.1125000002E-01  -0.3375000005E-02  -0.3375000005E-02  -0.2178537452E-17   0.8648470035E-18   0.4891747979E-18   0.5625000008E+01
   0.1011250000E+01   0.9966250000E+00   0.9966250000E+00   0.1250000000E-02  -0.3750000000E-03  -0.3750000000E-03   0.1000000000E-01  -0.3000000000E-02  -0.3000000000E-02   0.5625000007E+01  -0.6106225862E-15  -0.2111559143E-15   0.6158613094E-16   0.8148793394E-16  -0.3791397066E-15   0.1125000001E-01  -0.3375000004E-02  -0.3375000004E-02   0.6839390019E-18   0.2966254224E-17  -0.9050062867E-18   0.5625000007E+01
   0.0000000000E+00   0.9966250000E+00   0.9966250000E+00   0.0000000000E+00  -0.3750000000E-03  -0.3750000000E-03   0.0000000000E+00  -0.3000000000E-02  -0.3000000000E-02   0.5625000008E+01  -0.2552444297E-15   0.1665334805E-15  -0.4246376170E-16  -0.3897310214E-15   0.1761726796E-15   0.1125000002E-01  -0.3375000005E-02  -0.3375000005E-02   0.4477575356E-18  -0.4334394842E-17  -0.8307596200E-18   0.5625000008E+01
   0.2022500000E+01   0.0000000000E+00  -0.2773687294E-17   0.2500000000E-02   0.0000000000E+00  -0.5261970217E-17   0.2000000000E-01   0.0000000000E+00   0.2488282923E-17   0.5625000009E+01   0.1199182240E-15  -0.9288152455E-15   0.1136138173E-14   0.3682370201E-15   0.1713367103E-15   0.1125000002E-01  -0.3375000005E-02  -0.3375000005E-02   0.6756985619E-17  -0.4499988241E-17   0.2688356187E-17   0.5625000009E+01
   0.2022500000E+01   0.9966250000E+00  -0.1870627907E-17   0.2500000000E-02  -0.3750000000E-03  -0.4916958906E-17   0.2000000000E-01  -0.3000000000E-02   0.3046330998E-17   0.5625000008E+01   0.6031855207E-15   0.1261882112E-14   0.9077825284E-15  -0.8076862235E-15   0.4890447702E-15   0.1125000002E-01  -0.3375000005E-02  -0.3375000005E-02   0.3899955138E-17   0.1071867930E-16   0.5308351392E-17   0.5625000008E+01
   0.2022500000E+01   0.0000000000E+00   0.9966250000E+00   0.2500000000E-02   0.0000000000E+00  -0.3750000000E-03   0.2000000000E-01   0.0000000000E+00  -0.3000000000E-02   0.5625000008E+01   0.4460819298E-15   0.7811415022E-15  -0.1410920057E-14   0.1311244847E-14   0.1455887632E-15   0.1125000002E-01  -0.3375000005E-02  -0.3375000005E-02  -0.1086790402E-16  -0.9943167835E-17   0.1012063050E-17   0.5625000008E+01
   0.2022500000E+01   0.9966250000E+00   0.9966250000E+00   0.2500000000E-02  -0.3750000000E-03  -0.3750000000E-03   0.2000000000E-01  -0.3000000000E-02  -0.3000000000E-02   0.5625000007E+01  -0.1590963369E-15  -0.1358030241E-14  -0.8759919460E-15  -0.1181036625E-14   0.4673017666E-15   0.1125000001E-01  -0.3375000004E-02  -0.3375000004E-02  -0.5495559304E-17   0.8113599771E-17   0.5780227339E-17   0.5625000007E+01
     1     2     3     4     5     6     7     8
     2     9    10     3     6    11    12     7
 VARIABLES = X,Y,Z,DU1,DU2,DU3,U1,U2,U3,S11,S22,S33,S12,S13,S23,E11,E22,E33,E12,E13,E23,SMISES
 ZONE, T="0.5000D+00" F=FEPOINT, I=   12 J=    2 ET=BRICK
   0.0000000000E+00   0.0000000000E+00   0.0000000000E+00   0.0000000000E+00   0.0000000000E+00   0.0000000000E+00   0.0000000000E+00   0.0000000000E+00   0.0000000000E+00   0.6250000010E+01  -0.1596407755E-14  -0.1542355424E-14  -0.3103081101E-16  -0.2813166458E-15   0.2394081982E-15   0.1250000002E-01  -0.3750000006E-02  -0.3750000006E-02   0.1273207156E-17  -0.8990065788E-18   0.5908873347E-18   0.6250000010E+01
   0.1012500000E+01   0.0000000000E+00  -0.1668138154E-17   0.1250000000E-02   0.0000000000E+00  -0.8841123734E-18   0.1125000000E-01   0.0000000000E+00  -0.7840257806E-18   0.6250000010E+01   0.4063696684E-16  -0.1705189475E-15   0.5936207367E-16   0.2262587990E-15  -0.6054946660E-16   0.1250000002E-01  -0.3750000006E-02  -0.3750000006E-02  -0.4057682213E-17  -0.5488102051E-17   0.6512683700E-19   0.6250000010E+01
   0.1012500000E+01   0.9962500000E+00  -0.1837791070E-17   0.1250000000E-02  -0.3750000000E-03  -0.8566964136E-18   0.1125000000E-01  -0.3375000000E-02  -0.9810946566E-18   0.6250000009E+01  -0.1088864105E-16   0.3925635528E-15  -0.1531851609E-15   0.2648410940E-15  -0.5706432838E-16   0.1250000002E-01  -0.3750000005E-02  -0.3750000005E-02  -0.4189185502E-17   0.1079586886E-16  -0.2012085408E-17   0.6250000009E+01
   0.0000000000E+00   0.9962500000E+00   0.1076244910E-17   0.0000000000E+00  -0.3750000000E-03   0.7224957487E-18   0.0000000000E+00  -0.3375000000E-02   0.3537491613E-18   0.6250000009E+01   0.1337711741E-14   0.1745044037E-15   0.3271856051E-16  -0.5079267835E-15  -0.1349752139E-15   0.1250000002E-01  -0.3750000005E-02  -0.3750000005E-02   0.1253421020E-17  -0.7578469677E-17   0.2061088748E-17   0.6250000009E+01
   0.0000000000E+00   0.0000000000E+00   0.9962500000E+00   0.0000000000E+00   0.0000000000E+00  -0.3750000000E-03   0.0000000000E+00   0.0000000000E+00  -0.3375000000E-02   0.6250000009E+01   0.1318852079E-14   0.2360148478E-14   0.6061520553E-17  -0.2401600477E-15  -0.1916089798E-16   0.1250000002E-01  -0.3750000005E-02  -0.3750000005E-02   0.1342251359E-18  -0.2371788447E-17   0.3362202886E-17   0.6250000009E+01
   0.1012500000E+01   0.0000000000E+00   0.9962500000E+00   0.1250000000E-02   0.0000000000E+00  -0.3750000000E-03   0.1125000000E-01   0.0000000000E+00  -0.3375000000E-02   0.6250000009E+01   0.5144744714E-15   0.6363854583E-15   0.9411944142E-16   0.2669679003E-15  -0.3071041384E-16   0.1250000002E-01  -0.3750000005E-02  -0.3750000005E-02   0.1499625540E-17   0.2995122039E-17  -0.1315898756E-17   0.6250000009E+01
   0.1012500000E+01   0.9962500000E+00   0.9962500000E+00   0.1250000000E-02  -0.3750000000E-03  -0.3750000000E-03   0.1125000000E-01  -0.3375000000E-02  -0.3375000000E-02   0.6250000008E+01  -0.6254967491E-15   0.3548441649E-15   0.2950058174E-15   0.2271343267E-15  -0.2505136964E-15   0.1250000002E-01  -0.3750000005E-02  -0.3750000005E-02   0.4017650862E-17   0.4353931293E-17   0.1334085758E-17   0.6250000008E+01
   0.0000000000E+00   0.9962500000E+00   0.9962500000E+00   0.0000000000E+00  -0.3750000000E-03  -0.3750000000E-03   0.0000000000E+00  -0.3375000000E-02  -0.3375000000E-02   0.6250000008E+01  -0.3533852841E-15  -0.6512594584E-15   0.1015420523E-15  -0.3393567501E-15  -0.1441618321E-16   0.1250000002E-01  -0.3750000005E-02  -0.3750000005E-02   0.7316488717E-18  -0.4093637656E-17  -0.5569331406E-17   0.6250000008E+01
   0.2025000000E+01   0.0000000000E+00  -0.4748210635E-17   0.2500000000E-02   0.0000000000E+00  -0.1974523341E-17   0.2250000000E-01   0.0000000000E+00  -0.2773687294E-17   0.6250000009E+01  -0.3917816557E-16  -0.5551112734E-16   0.6081810415E-15  -0.1279285833E-15  -0.1156743699E-15   0.1250000002E-01  -0.3750000006E-02  -0.3750000006E-02   0.2218158089E-17   0.1374047993E-16  -0.2269807044E-17   0.6250000009E+01
   0.2025000000E+01   0.9962500000E+00  -0.5316953622E-17   0.2500000000E-02  -0.3750000000E-03  -0.3446325715E-17   0.2250000000E-01  -0.3375000000E-02  -0.1870627907E-17   0.6250000009E+01   0.7582962467E-16   0.3290813220E-15   0.2998964906E-15  -0.6977654841E-15   0.2700462840E-15   0.1250000002E-01  -0.3750000005E-02  -0.3750000005E-02  -0.4286901341E-17  -0.2545955919E-17   0.3694483281E-17   0.6250000009E+01
   0.2025000000E+01   0.0000000000E+00   0.9962500000E+00   0.2500000000E-02   0.0000000000E+00  -0.3750000000E-03   0.2250000000E-01   0.0000000000E+00  -0.3375000000E-02   0.6250000009E+01  -0.1868519203E-15  -0.3665150865E-16  -0.8473913890E-15   0.8245378957E-15   0.7661687475E-16   0.1250000002E-01  -0.3750000005E-02  -0.3750000005E-02  -0.6752071133E-17   0.1226190530E-16   0.3209766746E-17   0.6250000009E+01
   0.2025000000E+01   0.9962500000E+00   0.9962500000E+00   0.2500000000E-02  -0.3750000000E-03  -0.3750000000E-03   0.2250000000E-01  -0.3375000000E-02  -0.3375000000E-02   0.6250000008E+01   0.5006679506E-16  -0.1228148300E-14  -0.4009822166E-15  -0.8591344933E-15   0.5101897012E-15   0.1250000002E-01  -0.3750000005E-02  -0.3750000005E-02  -0.2800762761E-17  -0.2326943092E-16   0.3819475065E-17   0.6250000008E+01
     1     2     3     4     5     6     7     8
     2     9    10     3     6    11    12     7
 VARIABLES = X,Y,Z,DU1,DU2,DU3,U1,U2,U3,S11,S22,S33,S12,S13,S23,E11,E22,E33,E12,E13,E23,SMISES
 ZONE, T="0.5500D+00" F=FEPOINT, I=   12 J=    2 ET=BRICK
   0.0000000000E+00   0.0000000000E+00   0.0000000000E+00   0.0000000000E+00   0.0000000000E+00   0.0000000000E+00   0.0000000000E+00   0.0000000000E+00   0.0000000000E+00   0.6875000011E+01  -0.1631600400E-14  -0.1561215096E-14  -0.4436776962E-16  -0.1095244629E-16   0.6404979271E-17   0.1375000002E-01  -0.4125000006E-02  -0.4125000006E-02  -0.4121355098E-19   0.7150034026E-17  -0.2491875860E-17   0.6875000011E+01
   0.1013750000E+01   0.0000000000E+00   0.4286641178E-18   0.1250000000E-02   0.0000000000E+00   0.2096802272E-17   0.1250000000E-01   0.0000000000E+00  -0.1668138154E-17   0.6875000011E+01   0.1110222594E-15  -0.1705189475E-15  -0.2370790265E-15  -0.1277913888E-15  -0.7556562516E-16   0.1375000002E-01  -0.4125000006E-02  -0.4125000006E-02  -0.4823362310E-17  -0.1089358854E-16   0.2588539256E-18   0.6875000011E+01
   0.1013750000E+01   0.9958750000E+00   0.2124506197E-18   0.1250000000E-02  -0.3750000000E-03   0.2050241690E-17   0.1250000000E-01  -0.3750000000E-02  -0.1837791070E-17   0.6875000010E+01  -0.2735701632E-15   0.2517929493E-15  -0.3436070172E-15   0.3911640143E-15   0.2251021718E-15   0.1375000002E-01  -0.4125000006E-02  -0.4125000006E-02   0.9132899116E-19   0.1043552379E-16   0.1442382015E-17   0.6875000010E+01
   0.0000000000E+00   0.9958750000E+00  -0.1818770180E-18   0.0000000000E+00  -0.3750000000E-03  -0.1258121928E-17   0.0000000000E+00  -0.3750000000E-02   0.1076244910E-17   0.6875000010E+01   0.1469052496E-14   0.1469052475E-14   0.1331945384E-16   0.3002585739E-16  -0.4413179191E-16   0.1375000002E-01  -0.4125000006E-02  -0.4125000006E-02  -0.9542282238E-18  -0.7370057989E-17   0.3526968045E-17   0.6875000010E+01
   0.0000000000E+00   0.0000000000E+00   0.9958750000E+00   0.0000000000E+00   0.0000000000E+00  -0.3750000000E-03   0.0000000000E+00   0.0000000000E+00  -0.3750000000E-02   0.6875000010E+01   0.1379807536E-14   0.1642489060E-14   0.2563482096E-16   0.4218575821E-16  -0.2917339223E-16   0.1375000002E-01  -0.4125000006E-02  -0.4125000006E-02  -0.1380951034E-17  -0.2055669139E-17   0.2064226616E-17   0.6875000010E+01
   0.1013750000E+01   0.0000000000E+00   0.9958750000E+00   0.1250000000E-02   0.0000000000E+00  -0.3750000000E-03   0.1250000000E-01   0.0000000000E+00  -0.3750000000E-02   0.6875000010E+01   0.3925635527E-15   0.3925635527E-15   0.1334511246E-15  -0.6202486041E-16  -0.1522909474E-15   0.1375000002E-01  -0.4125000006E-02  -0.4125000006E-02   0.7414539321E-17  -0.2485037296E-17  -0.9243114903E-18   0.6875000010E+01
   0.1013750000E+01   0.9958750000E+00   0.9958750000E+00   0.1250000000E-02  -0.3750000000E-03  -0.3750000000E-03   0.1250000000E-01  -0.3750000000E-02  -0.3750000000E-02   0.6875000009E+01  -0.1705189475E-15  -0.2974834404E-16   0.1979140301E-15   0.2319837662E-15  -0.1167769812E-15   0.1375000002E-01  -0.4125000005E-02  -0.4125000005E-02  -0.2401891432E-18   0.4020645540E-17  -0.2238643840E-17   0.6875000009E+01
   0.0000000000E+00   0.9958750000E+00   0.9958750000E+00   0.0000000000E+00  -0.3750000000E-03  -0.3750000000E-03   0.0000000000E+00  -0.3750000000E-02  -0.3750000000E-02   0.6875000009E+01  -0.5808741752E-15  -0.1631600394E-14   0.1079815083E-15  -0.1424808216E-15   0.3240689461E-15   0.1375000002E-01  -0.4125000006E-02  -0.4125000006E-02   0.2756695685E-17  -0.9782232163E-18   0.3742008496E-17   0.6875000009E+01
   0.2027500000E+01   0.0000000000E+00   0.2761362948E-17   0.2500000000E-02   0.0000000000E+00   0.7509573583E-17   0.2500000000E-01   0.0000000000E+00  -0.4748210635E-17   0.6875000010E+01  -0.2478073582E-15   0.7325335624E-15   0.1548839515E-16  -0.7064943613E-15  -0.2758954235E-15   0.1375000002E-01  -0.4125000006E-02  -0.4125000006E-02  -0.6034144744E-17   0.9670232019E-18  -0.2747738650E-17   0.6875000010E+01
   0.2027500000E+01   0.9958750000E+00   0.1354462145E-17   0.2500000000E-02  -0.3750000000E-03   0.6671415768E-17   0.2500000000E-01  -0.3750000000E-02  -0.5316953622E-17   0.6875000010E+01   0.8544444724E-15   0.8544444935E-15  -0.1927575798E-15  -0.2420831071E-15  -0.1875647391E-16   0.1375000002E-01  -0.4125000006E-02  -0.4125000006E-02  -0.6234988579E-17  -0.2004083752E-16  -0.8446064287E-18   0.6875000010E+01
   0.2027500000E+01   0.0000000000E+00   0.9958750000E+00   0.2500000000E-02   0.0000000000E+00  -0.3750000000E-03   0.2500000000E-01   0.0000000000E+00  -0.3750000000E-02   0.6875000010E+01  -0.3885779988E-15  -0.3697183158E-15  -0.2755698649E-15   0.3643742841E-15  -0.4049579340E-16   0.1375000002E-01  -0.4125000006E-02  -0.4125000006E-02  -0.2708596533E-17   0.1287999033E-16   0.1190293578E-17   0.6875000010E+01
   0.2027500000E+01   0.9958750000E+00   0.9958750000E+00   0.2500000000E-02  -0.3750000000E-03  -0.3750000000E-03   0.2500000000E-01  -0.3750000000E-02  -0.3750000000E-02   0.6875000009E+01   0.8029188667E-15  -0.2478073638E-15  -0.2749777208E-16  -0.5915786619E-16   0.3118489280E-15   0.1375000002E-01  -0.4125000005E-02  -0.4125000005E-02   0.9848135608E-18  -0.6612735877E-17   0.5396448151E-17   0.6875000009E+01
     1     2     3     4     5     6     7     8
     2     9    10     3     6    11    12     7
 VARIABLES = X,Y,Z,DU1,DU2,DU3,U1,U2,U3,S11,S22,S33,S12,S13,S23,E11,E22,E33,E12,E13,E23,SMISES
 ZONE, T="0.6000D+00" F=FEPOINT, I=   12 J=    2 ET=BRICK
   0.0000000000E+00   0.0000000000E+00   0.0000000000E+00   0.0000000000E+00   0.0000000000E+00   0.0000000000E+00   0.0000000000E+00   0.0000000000E+00   0.0000000000E+00   0.7500000012E+01  -0.1409555814E-14  -0.3370523223E-15  -0.5451607701E-16   0.2415616633E-15   0.5389587909E-16   0.1500000002E-01  -0.4500000007E-02  -0.4500000007E-02  -0.6961869389E-18   0.5964722863E-18   0.9193054992E-18   0.7500000012E+01
   0.1015000000E+01   0.0000000000E+00   0.1287929710E-17   0.1250000000E-02   0.0000000000E+00   0.8592655922E-18   0.1375000000E-01   0.0000000000E+00   0.4286641178E-18   0.7500000012E+01   0.5152560787E-16  -0.6958820418E-15  -0.1417425974E-15  -0.4180496115E-15   0.4930900954E-17   0.1500000002E-01  -0.4500000007E-02  -0.4500000007E-02  -0.1376232574E-17   0.6357149644E-18   0.2652662905E-18   0.7500000012E+01
   0.1015000000E+01   0.9955000000E+00   0.1539075558E-17   0.1250000000E-02  -0.3750000000E-03   0.1326624938E-17   0.1375000000E-01  -0.4125000000E-02   0.2124506197E-18   0.7500000011E+01   0.7176594102E-15   0.6363853902E-15  -0.2737254704E-15   0.3334859247E-15   0.1031695924E-15   0.1500000002E-01  -0.4500000006E-02  -0.4500000006E-02  -0.4475996357E-18   0.7900023830E-17   0.1364853316E-17   0.7500000011E+01
   0.0000000000E+00   0.9955000000E+00   0.1469619555E-19   0.0000000000E+00  -0.3750000000E-03   0.1965732136E-18   0.0000000000E+00  -0.4125000000E-02  -0.1818770180E-18   0.7500000011E+01   0.1165733993E-14   0.1084460043E-14   0.2990113671E-15   0.2203495507E-15  -0.1476482532E-16   0.1500000002E-01  -0.4500000007E-02  -0.4500000007E-02   0.5749724935E-17   0.2650025171E-18   0.1258062113E-17   0.7500000011E+01
   0.0000000000E+00   0.0000000000E+00   0.9955000000E+00   0.0000000000E+00   0.0000000000E+00  -0.3750000000E-03   0.0000000000E+00   0.0000000000E+00  -0.4125000000E-02   0.7500000011E+01   0.1217259641E-14   0.1257896628E-14   0.3974067692E-16   0.2565238938E-15   0.1322472967E-16   0.1500000002E-01  -0.4500000007E-02  -0.4500000007E-02   0.9473613459E-18   0.5144098738E-17   0.2282039445E-17   0.7500000011E+01
   0.1015000000E+01   0.0000000000E+00   0.9955000000E+00   0.1250000000E-02   0.0000000000E+00  -0.3750000000E-03   0.1375000000E-01   0.0000000000E+00  -0.4125000000E-02   0.7500000011E+01   0.6146081081E-15   0.7771559936E-15   0.2076667249E-15  -0.2758663527E-15  -0.2303773819E-15   0.1500000002E-01  -0.4500000006E-02  -0.4500000006E-02   0.3570307321E-17  -0.5618471303E-17  -0.2594916906E-17   0.7500000011E+01
   0.1015000000E+01   0.9955000000E+00   0.9955000000E+00   0.1250000000E-02  -0.3750000000E-03  -0.3750000000E-03   0.1375000000E-01  -0.4125000000E-02  -0.4125000000E-02   0.7500000010E+01  -0.2300155991E-15  -0.5551114383E-15   0.7207719522E-16   0.2434579026E-16  -0.4329665801E-15   0.1500000002E-01  -0.4500000006E-02  -0.4500000006E-02   0.4569479288E-17   0.5602808175E-17  -0.3427065536E-17   0.7500000010E+01
   0.0000000000E+00   0.9955000000E+00   0.9955000000E+00   0.0000000000E+00  -0.3750000000E-03  -0.3750000000E-03   0.0000000000E+00  -0.4125000000E-02  -0.4125000000E-02   0.7500000010E+01  -0.6026514720E-15  -0.1561215132E-14   0.1276521452E-15  -0.1589700806E-15   0.4315831121E-15   0.1500000002E-01  -0.4500000006E-02  -0.4500000006E-02  -0.8705253459E-18  -0.5879287729E-17   0.7758124374E-17   0.7500000010E+01
   0.2030000000E+01   0.0000000000E+00   0.3068155825E-17   0.2500000000E-02   0.0000000000E+00   0.3067928763E-18   0.2750000000E-01   0.0000000000E+00   0.2761362948E-17   0.7500000011E+01  -0.2127215284E-14  -0.7731705543E-15   0.1827258389E-14   0.3758503947E-15   0.2334048043E-15   0.1500000002E-01  -0.4500000007E-02  -0.4500000007E-02   0.8011059785E-17  -0.1316710896E-16   0.3045348937E-17   0.7500000011E+01
   0.2030000000E+01   0.9955000000E+00   0.4255564366E-17   0.2500000000E-02  -0.3750000000E-03   0.2901102220E-17   0.2750000000E-01  -0.4125000000E-02   0.1354462145E-17   0.7500000010E+01   0.1601852087E-14   0.4698519438E-15   0.1267108232E-14  -0.7314327363E-15   0.2018800121E-15   0.1500000002E-01  -0.4500000006E-02  -0.4500000006E-02   0.2165520421E-17  -0.5850661602E-17   0.2058734448E-17   0.7500000010E+01
   0.2030000000E+01   0.0000000000E+00   0.9955000000E+00   0.2500000000E-02   0.0000000000E+00  -0.3750000000E-03   0.2750000000E-01   0.0000000000E+00  -0.4125000000E-02   0.7500000010E+01  -0.1320311030E-14  -0.7543108656E-15  -0.3570044070E-15   0.1344600396E-14   0.5672518691E-16   0.1500000002E-01  -0.4500000006E-02  -0.4500000006E-02  -0.6138241303E-17  -0.4020960477E-17   0.1991055235E-17   0.7500000010E+01
   0.2030000000E+01   0.9955000000E+00   0.9955000000E+00   0.2500000000E-02  -0.3750000000E-03  -0.3750000000E-03   0.2750000000E-01  -0.4125000000E-02  -0.4125000000E-02   0.7500000010E+01  -0.8326671755E-15  -0.5997339698E-15  -0.5231153357E-15  -0.7316247867E-15   0.1554097144E-15   0.1500000002E-01  -0.4500000006E-02  -0.4500000006E-02  -0.8790056644E-17  -0.6372679110E-17   0.2109051906E-17   0.7500000010E+01
     1     2     3     4     5     6     7     8
     2     9    10     3     6    11    12     7
 VARIABLES = X,Y,Z,DU1,DU2,DU3,U1,U2,U3,S11,S22,S33,S12,S13,S23,E11,E22,E33,E12,E13,E23,SMISES
 ZONE, T="0.6500D+00" F=FEPOINT, I=   12 J=    2 ET=BRICK
   0.0000000000E+00   0.0000000000E+00   0.0000000000E+00   0.0000000000E+00   0.0000000000E+00   0.0000000000E+00   0.0000000000E+00   0.0000000000E+00   0.0000000000E+00   0.8125000013E+01  -0.1864533614E-14  -0.1794148310E-14  -0.5944520163E-16  -0.3608599384E-15  -0.4591555263E-17   0.1625000003E-01  -0.4875000008E-02  -0.4875000008E-02   0.2601892509E-17   0.1584849062E-17   0.8897342684E-18   0.8125000013E+01
   0.1016250000E+01   0.0000000000E+00  -0.7728641209E-18   0.1250000000E-02   0.0000000000E+00  -0.2060793831E-17   0.1500000000E-01   0.0000000000E+00   0.1287929710E-17   0.8125000013E+01   0.7176593239E-15   0.4361181169E-15   0.2077700115E-15   0.3654624574E-15   0.4869377401E-16   0.1625000003E-01  -0.4875000008E-02  -0.4875000008E-02  -0.5027865823E-18  -0.1739191456E-17   0.1230218149E-17   0.8125000013E+01
   0.1016250000E+01   0.9951250000E+00  -0.2728352879E-18   0.1250000000E-02  -0.3750000000E-03  -0.1811910846E-17   0.1500000000E-01  -0.4500000000E-02   0.1539075558E-17   0.8125000012E+01  -0.8584299273E-15  -0.3330668148E-15   0.1461368729E-15  -0.6284012733E-16   0.3511015355E-15   0.1625000002E-01  -0.4875000007E-02  -0.4875000007E-02   0.4928722975E-17   0.1127641913E-16   0.2695588422E-17   0.8125000012E+01
   0.0000000000E+00   0.9951250000E+00  -0.3322826146E-18   0.0000000000E+00  -0.3750000000E-03  -0.3469788102E-18   0.0000000000E+00  -0.4500000000E-02   0.1469619555E-19   0.8125000012E+01   0.2164934542E-14   0.2164934520E-14  -0.2206826174E-15  -0.2533426897E-16  -0.5573648493E-15   0.1625000002E-01  -0.4875000007E-02  -0.4875000007E-02  -0.4048351131E-18  -0.5529228427E-17  -0.3963047999E-17   0.8125000012E+01
   0.0000000000E+00   0.0000000000E+00   0.9951250000E+00   0.0000000000E+00   0.0000000000E+00  -0.3750000000E-03   0.0000000000E+00   0.0000000000E+00  -0.4500000000E-02   0.8125000012E+01   0.1095348655E-14   0.1358030179E-14   0.3517078405E-16  -0.1576306608E-16   0.9079827866E-16   0.1625000002E-01  -0.4875000007E-02  -0.4875000007E-02  -0.1042259171E-17  -0.1026933482E-17  -0.6536435435E-18   0.8125000012E+01
   0.1016250000E+01   0.0000000000E+00   0.9951250000E+00   0.1250000000E-02   0.0000000000E+00  -0.3750000000E-03   0.1500000000E-01   0.0000000000E+00  -0.4500000000E-02   0.8125000012E+01  -0.5152560789E-16  -0.5152560788E-16  -0.2456320816E-15   0.6174759783E-15   0.4620351675E-16   0.1625000002E-01  -0.4875000007E-02  -0.4875000007E-02  -0.9657978282E-19   0.1098808190E-16  -0.1170560991E-17   0.8125000012E+01
   0.1016250000E+01   0.9951250000E+00   0.9951250000E+00   0.1250000000E-02  -0.3750000000E-03  -0.3750000000E-03   0.1500000000E-01  -0.4500000000E-02  -0.4500000000E-02   0.8125000011E+01   0.1922962113E-15   0.3330668148E-15   0.8059611221E-16  -0.7477594404E-16   0.4759256624E-16   0.1625000002E-01  -0.4875000006E-02  -0.4875000006E-02   0.4076197349E-17  -0.8072070257E-17  -0.5981644344E-18   0.8125000011E+01
   0.0000000000E+00   0.9951250000E+00   0.9951250000E+00   0.0000000000E+00  -0.3750000000E-03  -0.3750000000E-03   0.0000000000E+00  -0.4500000000E-02  -0.4500000000E-02   0.8125000011E+01  -0.1358030186E-14  -0.2408756405E-14   0.3819911823E-15  -0.2997796280E-16   0.8681451450E-16   0.1625000002E-01  -0.4875000007E-02  -0.4875000007E-02   0.2938112664E-17   0.2512383079E-17   0.6208872980E-17   0.8125000011E+01
   0.2032500000E+01   0.0000000000E+00   0.2897746807E-17   0.2500000000E-02   0.0000000000E+00  -0.1704090178E-18   0.3000000000E-01   0.0000000000E+00   0.3068155825E-17   0.8125000012E+01   0.1479941192E-14   0.2460282112E-14  -0.1243380171E-14  -0.1847471257E-14  -0.4405335572E-15   0.1625000002E-01  -0.4875000007E-02  -0.4875000007E-02  -0.1501328776E-16  -0.4045182486E-17  -0.5517493667E-17   0.8125000012E+01
   0.2032500000E+01   0.9951250000E+00   0.6360163268E-18   0.2500000000E-02  -0.3750000000E-03  -0.3619548039E-17   0.3000000000E-01  -0.4500000000E-02   0.4255564366E-17   0.8125000011E+01  -0.7296158939E-15  -0.7296158728E-15  -0.1205672975E-14   0.6108347647E-15   0.2386890879E-16   0.1625000002E-01  -0.4875000007E-02  -0.4875000007E-02  -0.1974093799E-16   0.3620942880E-17   0.1699808977E-17   0.8125000011E+01
   0.2032500000E+01   0.0000000000E+00   0.9951250000E+00   0.2500000000E-02   0.0000000000E+00  -0.3750000000E-03   0.3000000000E-01   0.0000000000E+00  -0.4500000000E-02   0.8125000011E+01  -0.2043023664E-14  -0.2024163981E-14   0.7417762940E-15  -0.5089139840E-15  -0.3844371818E-15   0.1625000002E-01  -0.4875000007E-02  -0.4875000007E-02  -0.1588283304E-17  -0.2894254753E-16  -0.2752053518E-18   0.8125000011E+01
   0.2032500000E+01   0.9951250000E+00   0.9951250000E+00   0.2500000000E-02  -0.3750000000E-03  -0.3750000000E-03   0.3000000000E-01  -0.4500000000E-02  -0.4500000000E-02   0.8125000010E+01   0.1254978970E-14   0.2042527398E-15   0.1335137990E-14   0.3051132209E-15   0.1683098102E-15   0.1625000002E-01  -0.4875000006E-02  -0.4875000006E-02   0.4460744712E-17   0.1592559078E-17   0.3334998913E-17   0.8125000010E+01
     1     2     3     4     5     6     7     8
     2     9    10     3     6    11    12     7
 VARIABLES = X,Y,Z,DU1,DU2,DU3,U1,U2,U3,S11,S22,S33,S12,S13,S23,E11,E22,E33,E12,E13,E23,SMISES
 ZONE, T="0.7000D+00" F=FEPOINT, I=   12 J=    2 ET=BRICK
   0.0000000000E+00   0.0000000000E+00   0.0000000000E+00   0.0000000000E+00   0.0000000000E+00   0.0000000000E+00   0.0000000000E+00   0.0000000000E+00   0.0000000000E+00   0.8750000014E+01  -0.1811549194E-14  -0.1180608058E-14  -0.4606288738E-16  -0.1690932598E-15  -0.3031544334E-15   0.1750000003E-01  -0.5250000008E-02  -0.5250000008E-02  -0.2197013468E-17  -0.3346858437E-17  -0.4111030768E-17   0.8750000014E+01
   0.1017500000E+01   0.0000000000E+00   0.7277678047E-18   0.1250000000E-02   0.0000000000E+00   0.1500631926E-17   0.1625000000E-01   0.0000000000E+00  -0.7728641209E-18   0.8750000013E+01   0.6770223571E-15   0.3250958392E-15   0.1872847883E-15   0.7146523654E-15   0.2761168237E-16   0.1750000003E-01  -0.5250000008E-02  -0.5250000008E-02   0.1162034230E-16   0.2228445352E-16  -0.2158322324E-18   0.8750000013E+01
   0.1017500000E+01   0.9947500000E+00   0.1163247869E-17   0.1250000000E-02  -0.3750000000E-03   0.1436083156E-17   0.1625000000E-01  -0.4875000000E-02  -0.2728352879E-18   0.8750000012E+01  -0.4629487772E-15   0.8127402001E-16   0.4872789865E-16  -0.2064092074E-15   0.5008942165E-15   0.1750000002E-01  -0.5250000007E-02  -0.5250000007E-02   0.8880014795E-17  -0.9660929513E-17   0.4529729642E-17   0.8750000012E+01
   0.0000000000E+00   0.9947500000E+00  -0.1926971613E-17   0.0000000000E+00  -0.3750000000E-03  -0.1594688998E-17   0.0000000000E+00  -0.4875000000E-02  -0.3322826146E-18   0.8750000013E+01   0.1845283018E-14   0.2605038161E-14   0.5362876282E-16   0.4700579121E-15  -0.5687709562E-15   0.1750000003E-01  -0.5250000008E-02  -0.5250000008E-02   0.4728430590E-17   0.7100650204E-17   0.1547777652E-17   0.8750000013E+01
   0.0000000000E+00   0.0000000000E+00   0.9947500000E+00   0.0000000000E+00   0.0000000000E+00  -0.3750000000E-03   0.0000000000E+00   0.0000000000E+00  -0.4875000000E-02   0.8750000013E+01   0.1141429961E-14   0.2253111611E-14   0.2710442322E-16  -0.2996559589E-16  -0.2440248819E-16   0.1750000003E-01  -0.5250000008E-02  -0.5250000008E-02   0.1200650605E-17  -0.1187480675E-17   0.3273869943E-17   0.8750000013E+01
   0.1017500000E+01   0.0000000000E+00   0.9947500000E+00   0.1250000000E-02   0.0000000000E+00  -0.3750000000E-03   0.1625000000E-01   0.0000000000E+00  -0.4875000000E-02   0.8750000012E+01   0.1001336366E-15  -0.5471403946E-15  -0.1028851510E-14   0.7534763644E-15  -0.9805059544E-16   0.1750000002E-01  -0.5250000007E-02  -0.5250000007E-02  -0.1071874308E-16   0.1763386348E-16  -0.2869474772E-17   0.8750000012E+01
   0.1017500000E+01   0.9947500000E+00   0.9947500000E+00   0.1250000000E-02  -0.3750000000E-03  -0.3750000000E-03   0.1625000000E-01  -0.4875000000E-02  -0.4875000000E-02   0.8750000011E+01   0.5362517535E-15   0.3628151406E-15  -0.9384617149E-15  -0.7002335780E-15   0.3469635472E-16   0.1750000002E-01  -0.5250000007E-02  -0.5250000007E-02  -0.9326366059E-17  -0.9254808966E-17   0.3230589167E-17   0.8750000011E+01
   0.0000000000E+00   0.9947500000E+00   0.9947500000E+00   0.0000000000E+00  -0.3750000000E-03  -0.3750000000E-03   0.0000000000E+00  -0.4875000000E-02  -0.4875000000E-02   0.8750000012E+01  -0.1984985778E-14  -0.3263200846E-14   0.4599822069E-15  -0.7857552953E-16   0.2476288858E-15   0.1750000002E-01  -0.5250000007E-02  -0.5250000007E-02   0.4459276706E-17  -0.1879650111E-17   0.4460955562E-17   0.8750000012E+01
   0.2035000000E+01   0.0000000000E+00   0.7388536138E-17   0.2500000000E-02   0.0000000000E+00   0.4490789331E-17   0.3250000000E-01   0.0000000000E+00   0.2897746807E-17   0.8750000013E+01   0.9610902417E-15   0.2675423530E-14   0.1495749931E-15  -0.1938445873E-14  -0.1077018835E-15   0.1750000003E-01  -0.5250000008E-02  -0.5250000008E-02  -0.1509421141E-16  -0.4489069083E-17  -0.1248700011E-17   0.8750000013E+01
   0.2035000000E+01   0.9947500000E+00   0.6821608132E-17   0.2500000000E-02  -0.3750000000E-03   0.6185591805E-17   0.3250000000E-01  -0.4875000000E-02   0.6360163268E-18   0.8750000012E+01  -0.4912383035E-15  -0.6225790509E-15  -0.2534294962E-15   0.5211666948E-15   0.3127088835E-15   0.1750000002E-01  -0.5250000007E-02  -0.5250000007E-02  -0.1997473826E-16  -0.7782838289E-17   0.5516236113E-17   0.8750000012E+01
   0.2035000000E+01   0.0000000000E+00   0.9947500000E+00   0.2500000000E-02   0.0000000000E+00  -0.3750000000E-03   0.3250000000E-01   0.0000000000E+00  -0.4875000000E-02   0.8750000012E+01  -0.3990290147E-14  -0.2859748761E-14   0.1756918132E-14  -0.1268767464E-15  -0.5434212915E-15   0.1750000002E-01  -0.5250000007E-02  -0.5250000007E-02   0.1298551330E-16  -0.2727736925E-16  -0.3283990726E-17   0.8750000012E+01
   0.2035000000E+01   0.9947500000E+00   0.9947500000E+00   0.2500000000E-02  -0.3750000000E-03  -0.3750000000E-03   0.3250000000E-01  -0.4875000000E-02  -0.4875000000E-02   0.8750000011E+01   0.2185253051E-14   0.8366526249E-15   0.1759859117E-14   0.6592936907E-16   0.1252335356E-16   0.1750000002E-01  -0.5250000007E-02  -0.5250000007E-02   0.1049517051E-16   0.2216013932E-16  -0.2542261628E-17   0.8750000011E+01
     1     2     3     4     5     6     7     8
     2     9    10     3     6    11    12     7
 VARIABLES = X,Y,Z,DU1,DU2,DU3,U1,U2,U3,S11,S22,S33,S12,S13,S23,E11,E22,E33,E12,E13,E23,SMISES
 ZONE, T="0.7500D+00" F=FEPOINT, I=   12 J=    2 ET=BRICK
   0.0000000000E+00   0.0000000000E+00   0.0000000000E+00   0.0000000000E+00   0.0000000000E+00   0.0000000000E+00   0.0000000000E+00   0.0000000000E+00   0.0000000000E+00   0.9375000015E+01  -0.3263200894E-14  -0.2319511394E-14  -0.4955405885E-16  -0.5246439166E-15  -0.6481573384E-16   0.1875000003E-01  -0.5625000009E-02  -0.5625000009E-02  -0.3070122795E-17  -0.6956367014E-17  -0.3313181946E-17   0.9375000015E+01
   0.1018750000E+01   0.0000000000E+00  -0.1334817008E-17   0.1250000000E-02   0.0000000000E+00  -0.2062584813E-17   0.1750000000E-01   0.0000000000E+00   0.7277678047E-18   0.9375000014E+01   0.1272770762E-14   0.5768887204E-15   0.7814229082E-15   0.1024551494E-14   0.6644562773E-16   0.1875000003E-01  -0.5625000009E-02  -0.5625000009E-02   0.1976185451E-16   0.1736554667E-16  -0.2308320014E-18   0.9375000014E+01
   0.1018750000E+01   0.9943750000E+00  -0.7081968267E-18   0.1250000000E-02  -0.3750000000E-03  -0.1871444695E-17   0.1750000000E-01  -0.5250000000E-02   0.1163247869E-17   0.9375000013E+01  -0.1494815317E-14  -0.4738374183E-15   0.7900521925E-15  -0.3191025310E-15   0.3478825793E-15   0.1875000003E-01  -0.5625000008E-02  -0.5625000008E-02   0.2030689879E-16   0.2581933088E-17   0.2976463875E-17   0.9375000013E+01
   0.0000000000E+00   0.9943750000E+00  -0.7296352290E-18   0.0000000000E+00  -0.3750000000E-03   0.1197336384E-17   0.0000000000E+00  -0.5250000000E-02  -0.1926971613E-17   0.9375000014E+01   0.2361216266E-14   0.2357230734E-14  -0.2963969760E-15   0.1510520959E-16  -0.5552403432E-15   0.1875000003E-01  -0.5625000008E-02  -0.5625000008E-02  -0.3313752176E-18   0.7503639602E-18   0.1028141260E-17   0.9375000014E+01
   0.0000000000E+00   0.0000000000E+00   0.9943750000E+00   0.0000000000E+00   0.0000000000E+00  -0.3750000000E-03   0.0000000000E+00   0.0000000000E+00  -0.5250000000E-02   0.9375000014E+01   0.1343156016E-14   0.2479141681E-14   0.3115967351E-16  -0.2582565029E-15  -0.1055737896E-15   0.1875000003E-01  -0.5625000008E-02  -0.5625000008E-02  -0.1684035340E-18  -0.4956605725E-17   0.3730645357E-17   0.9375000014E+01
   0.1018750000E+01   0.0000000000E+00   0.9943750000E+00   0.1250000000E-02   0.0000000000E+00  -0.3750000000E-03   0.1750000000E-01   0.0000000000E+00  -0.5250000000E-02   0.9375000013E+01  -0.3033184890E-15  -0.7176593238E-15  -0.5240022728E-15   0.7882862751E-15   0.1758692924E-15   0.1875000003E-01  -0.5625000008E-02  -0.5625000008E-02  -0.8712147741E-18   0.2113481862E-16   0.4040918466E-17   0.9375000013E+01
   0.1018750000E+01   0.9943750000E+00   0.9943750000E+00   0.1250000000E-02  -0.3750000000E-03  -0.3750000000E-03   0.1750000000E-01  -0.5250000000E-02  -0.5250000000E-02   0.9375000012E+01   0.7474076496E-15   0.1383793040E-14  -0.3835312586E-15  -0.4485738106E-15   0.1284076200E-15   0.1875000002E-01  -0.5625000007E-02  -0.5625000007E-02   0.2472547061E-17   0.5462152685E-17   0.5275859265E-17   0.9375000012E+01
   0.0000000000E+00   0.9943750000E+00   0.9943750000E+00   0.0000000000E+00  -0.3750000000E-03  -0.3750000000E-03   0.0000000000E+00  -0.5250000000E-02  -0.5250000000E-02   0.9375000013E+01  -0.9367862107E-15  -0.3145275398E-14   0.1795180902E-15   0.2786979361E-16   0.5923709449E-16   0.1875000003E-01  -0.5625000008E-02  -0.5625000008E-02   0.1017225247E-17  -0.5188518877E-17   0.3011524230E-17   0.9375000013E+01
   0.2037500000E+01   0.0000000000E+00   0.2299378195E-17   0.2500000000E-02   0.0000000000E+00  -0.5089157944E-17   0.3500000000E-01   0.0000000000E+00   0.7388536138E-17   0.9375000014E+01   0.3988831348E-14   0.3548727611E-14  -0.2025156937E-14  -0.1892494799E-14  -0.6833033567E-15   0.1875000003E-01  -0.5625000009E-02  -0.5625000009E-02  -0.3117520497E-16  -0.1202389453E-16  -0.7492844108E-17   0.9375000014E+01
   0.2037500000E+01   0.9943750000E+00  -0.1303179383E-17   0.2500000000E-02  -0.3750000000E-03  -0.8124787515E-17   0.3500000000E-01  -0.5250000000E-02   0.6821608132E-17   0.9375000013E+01  -0.2198668398E-14  -0.2254179518E-14  -0.1857656499E-14   0.7974523800E-15  -0.5288399414E-15   0.1875000003E-01  -0.5625000008E-02  -0.5625000008E-02  -0.2581779675E-16  -0.1144317916E-16  -0.4973267569E-17   0.9375000013E+01
   0.2037500000E+01   0.0000000000E+00   0.9943750000E+00   0.2500000000E-02   0.0000000000E+00  -0.3750000000E-03   0.3500000000E-01   0.0000000000E+00  -0.5250000000E-02   0.9375000013E+01  -0.2794416787E-14  -0.4196001708E-14   0.6342188388E-15  -0.9109659809E-15   0.6920319557E-16   0.1875000003E-01  -0.5625000008E-02  -0.5625000008E-02   0.6798203836E-17  -0.4002514087E-16   0.1751112751E-17   0.9375000013E+01
   0.2037500000E+01   0.9943750000E+00   0.9943750000E+00   0.2500000000E-02  -0.3750000000E-03  -0.3750000000E-03   0.3500000000E-01  -0.5250000000E-02  -0.5250000000E-02   0.9375000012E+01   0.1943957871E-14   0.1991497957E-14   0.1229087267E-14   0.7090722808E-15   0.4138443534E-15   0.1875000002E-01  -0.5625000007E-02  -0.5625000007E-02   0.8566966328E-17   0.1182075231E-16   0.4717424147E-17   0.9375000012E+01
     1     2     3     4     5     6     7     8
     2     9    10     3     6    11    12     7
 VARIABLES = X,Y,Z,DU1,DU2,DU3,U1,U2,U3,S11,S22,S33,S12,S13,S23,E11,E22,E33,E12,E13,E23,SMISES
 ZONE, T="0.8000D+00" F=FEPOINT, I=   12 J=    2 ET=BRICK
   0.0000000000E+00   0.0000000000E+00   0.0000000000E+00   0.0000000000E+00   0.0000000000E+00   0.0000000000E+00   0.0000000000E+00   0.0000000000E+00   0.0000000000E+00   0.1000000002E+02   0.1630141680E-14   0.2843415817E-14  -0.5568085361E-16  -0.3485196601E-15  -0.6089361177E-16   0.2000000003E-01  -0.6000000009E-02  -0.6000000009E-02  -0.9898223260E-18  -0.2464584303E-17  -0.6218497142E-18   0.1000000002E+02
   0.1020000000E+01   0.0000000000E+00  -0.1008119435E-17   0.1250000000E-02   0.0000000000E+00   0.3266975736E-18   0.1875000000E-01   0.0000000000E+00  -0.1334817008E-17   0.1000000002E+02   0.5957484051E-15  -0.2924298480E-15  -0.7800380947E-15  -0.5816874914E-15  -0.6896698500E-16   0.2000000003E-01  -0.6000000009E-02  -0.6000000009E-02   0.2764091218E-18  -0.1342175445E-17   0.9239266167E-18   0.1000000002E+02
   0.1020000000E+01   0.9940000000E+00  -0.1080415703E-17   0.1250000000E-02  -0.3750000000E-03  -0.3722188766E-18   0.1875000000E-01  -0.5625000000E-02  -0.7081968267E-18   0.1000000001E+02  -0.1219109187E-15   0.5660000793E-15  -0.5862121177E-15   0.8245563460E-15   0.2783991672E-15   0.2000000003E-01  -0.6000000009E-02  -0.6000000009E-02   0.2697300369E-18   0.1580484564E-16  -0.2676630216E-19   0.1000000001E+02
   0.0000000000E+00   0.9940000000E+00  -0.6270697467E-18   0.0000000000E+00  -0.3750000000E-03   0.1025654823E-18   0.0000000000E+00  -0.5625000000E-02  -0.7296352290E-18   0.1000000001E+02  -0.1008630408E-14  -0.8272228027E-15  -0.2000514097E-16  -0.8347415781E-16  -0.3250709878E-15   0.2000000003E-01  -0.6000000009E-02  -0.6000000009E-02   0.3313541793E-17  -0.4435221048E-17  -0.1493494514E-17   0.1000000001E+02
   0.0000000000E+00   0.0000000000E+00   0.9940000000E+00   0.0000000000E+00   0.0000000000E+00  -0.3750000000E-03   0.0000000000E+00   0.0000000000E+00  -0.5625000000E-02   0.1000000001E+02  -0.7786148503E-15  -0.6487328814E-15   0.4537371299E-16   0.3007776055E-15   0.3142783690E-15   0.2000000003E-01  -0.6000000009E-02  -0.6000000009E-02   0.1122879475E-17   0.3602255760E-17   0.2172810605E-17   0.1000000001E+02
   0.1020000000E+01   0.0000000000E+00   0.9940000000E+00   0.1250000000E-02   0.0000000000E+00  -0.3750000000E-03   0.1875000000E-01   0.0000000000E+00  -0.5625000000E-02   0.1000000001E+02  -0.1069585842E-14  -0.7662673526E-15   0.4951187255E-15  -0.2971896747E-15  -0.1123207009E-15   0.2000000003E-01  -0.6000000009E-02  -0.6000000009E-02   0.9143193554E-17  -0.1249591782E-17  -0.3747449870E-17   0.1000000001E+02
   0.1020000000E+01   0.9940000000E+00   0.9940000000E+00   0.1250000000E-02  -0.3750000000E-03  -0.3750000000E-03   0.1875000000E-01  -0.5625000000E-02  -0.5625000000E-02   0.1000000001E+02   0.1121111518E-14   0.1180608187E-14   0.7389275093E-15   0.6803293607E-15  -0.1105258788E-15   0.2000000003E-01  -0.6000000008E-02  -0.6000000008E-02   0.1209252836E-16   0.1647950857E-16   0.6851351254E-17   0.1000000001E+02
   0.0000000000E+00   0.9940000000E+00   0.9940000000E+00   0.0000000000E+00  -0.3750000000E-03  -0.3750000000E-03   0.0000000000E+00  -0.5625000000E-02  -0.5625000000E-02   0.1000000001E+02  -0.4524511206E-15  -0.2442881307E-14   0.3209217976E-15  -0.2382706304E-15   0.6471118161E-15   0.2000000003E-01  -0.6000000008E-02  -0.6000000008E-02   0.3590763418E-17  -0.6548415633E-17   0.1067030226E-16   0.1000000001E+02
   0.2040000000E+01   0.0000000000E+00   0.2136411632E-18   0.2500000000E-02   0.0000000000E+00  -0.2085737032E-17   0.3750000000E-01   0.0000000000E+00   0.2299378195E-17   0.1000000002E+02  -0.5416960850E-15  -0.9760701966E-16  -0.7189107602E-16  -0.9384169137E-15  -0.2953572563E-15   0.2000000003E-01  -0.6000000009E-02  -0.6000000009E-02   0.4838112973E-17   0.4952025512E-17  -0.1781252169E-17   0.1000000002E+02
   0.2040000000E+01   0.9940000000E+00  -0.1387441705E-17   0.2500000000E-02  -0.3750000000E-03  -0.8426232217E-19   0.3750000000E-01  -0.5625000000E-02  -0.1303179383E-17   0.1000000001E+02  -0.1515133870E-14  -0.1859089343E-14   0.1800471265E-15  -0.2598080673E-15  -0.1748143648E-15   0.2000000003E-01  -0.6000000008E-02  -0.6000000008E-02   0.6440168260E-17  -0.1399084552E-16  -0.1626438280E-17   0.1000000001E+02
   0.2040000000E+01   0.0000000000E+00   0.9940000000E+00   0.2500000000E-02   0.0000000000E+00  -0.3750000000E-03   0.3750000000E-01   0.0000000000E+00  -0.5625000000E-02   0.1000000001E+02   0.1688570453E-14   0.6269555993E-15  -0.1536262421E-15   0.7162228229E-15  -0.1882334819E-15   0.2000000003E-01  -0.6000000008E-02  -0.6000000008E-02  -0.5172520925E-17   0.2395822644E-16  -0.1187398816E-17   0.1000000001E+02
   0.2040000000E+01   0.9940000000E+00   0.9940000000E+00   0.2500000000E-02  -0.3750000000E-03  -0.3750000000E-03   0.3750000000E-01  -0.5625000000E-02  -0.5625000000E-02   0.1000000001E+02   0.1259355508E-14   0.1473429015E-14   0.5613041797E-15  -0.2734470500E-15   0.1202549673E-15   0.2000000003E-01  -0.6000000008E-02  -0.6000000008E-02  -0.2090424996E-17  -0.4049839565E-16   0.7380482630E-17   0.1000000001E+02
     1     2     3     4     5     6     7     8
     2     9    10     3     6    11    12     7
 VARIABLES = X,Y,Z,DU1,DU2,DU3,U1,U2,U3,S11,S22,S33,S12,S13,S23,E11,E22,E33,E12,E13,E23,SMISES
 ZONE, T="0.8500D+00" F=FEPOINT, I=   12 J=    2 ET=BRICK
   0.0000000000E+00   0.0000000000E+00   0.0000000000E+00   0.0000000000E+00   0.0000000000E+00   0.0000000000E+00   0.0000000000E+00   0.0000000000E+00   0.0000000000E+00   0.1062498783E+02   0.6092277600E-05   0.6092277600E-05   0.7641752866E-17  -0.4253350541E-15  -0.5214633540E-15   0.3423658679E-01  -0.1286829339E-01  -0.1286829339E-01   0.1867217073E-17  -0.1788110440E-17  -0.8562401081E-17   0.1062498174E+02
   0.1034236587E+01   0.0000000000E+00  -0.2956353834E-17   0.1423658673E-01   0.0000000000E+00  -0.1948234399E-17   0.2000000000E-01   0.0000000000E+00  -0.1008119435E-17   0.1062498783E+02   0.6092277594E-05   0.6092277594E-05  -0.1034317968E-14  -0.4798422735E-16  -0.3437046941E-15   0.3423658679E-01  -0.1286829339E-01  -0.1286829339E-01  -0.1050411358E-16  -0.1985312533E-17  -0.4381811349E-17   0.1062498174E+02
   0.1034236587E+01   0.9871317066E+00  -0.6605107874E-17   0.1423658673E-01  -0.6868293366E-02  -0.5524692171E-17   0.2000000000E-01  -0.6000000000E-02  -0.1080415703E-17   0.1062498783E+02   0.6092277597E-05   0.6092277599E-05  -0.4257518580E-15   0.2271991129E-15  -0.2158154922E-15   0.3423658678E-01  -0.1286829338E-01  -0.1286829338E-01   0.1422208611E-17   0.5865873532E-17  -0.6466572017E-17   0.1062498174E+02
   0.0000000000E+00   0.9871317066E+00  -0.4760003182E-17   0.0000000000E+00  -0.6868293366E-02  -0.4132933435E-17   0.0000000000E+00  -0.6000000000E-02  -0.6270697467E-18   0.1062498783E+02   0.6092277593E-05   0.6092277594E-05   0.3991717087E-15  -0.4548300329E-15  -0.3023944978E-15   0.3423658678E-01  -0.1286829339E-01  -0.1286829339E-01   0.1087983760E-16  -0.1256348140E-16  -0.4058497922E-17   0.1062498174E+02
   0.0000000000E+00   0.0000000000E+00   0.9871317066E+00   0.0000000000E+00   0.0000000000E+00  -0.6868293366E-02   0.0000000000E+00   0.0000000000E+00  -0.6000000000E-02   0.1062498783E+02   0.6092277597E-05   0.6092277595E-05  -0.6004886950E-16   0.9076322051E-15   0.4218484012E-15   0.3423658678E-01  -0.1286829339E-01  -0.1286829339E-01  -0.2687697652E-17   0.1270092215E-16   0.7839658295E-17   0.1062498174E+02
   0.1034236587E+01   0.0000000000E+00   0.9871317066E+00   0.1423658673E-01   0.0000000000E+00  -0.6868293366E-02   0.2000000000E-01   0.0000000000E+00  -0.6000000000E-02   0.1062498783E+02   0.6092277596E-05   0.6092277596E-05  -0.1024818804E-14   0.3789224808E-15  -0.2247463831E-15   0.3423658678E-01  -0.1286829338E-01  -0.1286829338E-01  -0.1356145736E-16   0.1795805995E-16  -0.4207246644E-17   0.1062498174E+02
   0.1034236587E+01   0.9871317066E+00   0.9871317066E+00   0.1423658673E-01  -0.6868293366E-02  -0.6868293366E-02   0.2000000000E-01  -0.6000000000E-02  -0.6000000000E-02   0.1062498783E+02   0.6092277593E-05   0.6092277593E-05  -0.2138376275E-15   0.3882560313E-15  -0.2580200383E-15   0.3423658678E-01  -0.1286829338E-01  -0.1286829338E-01  -0.4065325746E-17   0.6198002657E-17  -0.1535280862E-17   0.1062498174E+02
   0.0000000000E+00   0.9871317066E+00   0.9871317066E+00   0.0000000000E+00  -0.6868293366E-02  -0.6868293366E-02   0.0000000000E+00  -0.6000000000E-02  -0.6000000000E-02   0.1062498783E+02   0.6092277593E-05   0.6092277593E-05   0.5685736559E-15  -0.1101777690E-15   0.9121481124E-15   0.3423658678E-01  -0.1286829338E-01  -0.1286829338E-01   0.8519282799E-17   0.1313450244E-17   0.1489195778E-16   0.1062498174E+02
   0.2068473173E+01   0.0000000000E+00  -0.1025431894E-17   0.2847317347E-01   0.0000000000E+00  -0.1239073058E-17   0.4000000000E-01   0.0000000000E+00   0.2136411632E-18   0.1062498783E+02   0.6092277593E-05   0.6092277592E-05  -0.1897312815E-15  -0.7832557188E-15  -0.1449095097E-15   0.3423658678E-01  -0.1286829339E-01  -0.1286829339E-01   0.1281523160E-16   0.7681790756E-18  -0.4629802193E-17   0.1062498174E+02
   0.2068473173E+01   0.9871317066E+00  -0.2020085068E-17   0.2847317347E-01  -0.6868293366E-02  -0.6326433636E-18   0.4000000000E-01  -0.6000000000E-02  -0.1387441705E-17   0.1062498783E+02   0.6092277598E-05   0.6092277597E-05   0.9547798451E-15  -0.8055572198E-15   0.9125155655E-17   0.3423658678E-01  -0.1286829338E-01  -0.1286829338E-01   0.3495339517E-16  -0.3039190512E-16   0.8244868542E-17   0.1062498174E+02
   0.2068473173E+01   0.0000000000E+00   0.9871317066E+00   0.2847317347E-01   0.0000000000E+00  -0.6868293366E-02   0.4000000000E-01   0.0000000000E+00  -0.6000000000E-02   0.1062498783E+02   0.6092277600E-05   0.6092277599E-05  -0.2020496747E-14   0.1059812258E-14   0.3613058321E-15   0.3423658678E-01  -0.1286829338E-01  -0.1286829338E-01  -0.3869226773E-16  -0.3927819032E-16   0.1409209822E-16   0.1062498174E+02
   0.2068473173E+01   0.9871317066E+00   0.9871317066E+00   0.2847317347E-01  -0.6868293366E-02  -0.6868293366E-02   0.4000000000E-01  -0.6000000000E-02  -0.6000000000E-02   0.1062498783E+02   0.6092277592E-05   0.6092277591E-05  -0.9266281633E-15  -0.1200523736E-14   0.9147729733E-15   0.3423658678E-01  -0.1286829338E-01  -0.1286829338E-01  -0.1966527028E-16   0.3624909466E-17   0.1815752576E-16   0.1062498174E+02
     1     2     3     4     5     6     7     8
     2     9    10     3     6    11    12     7
 VARIABLES = X,Y,Z,DU1,DU2,DU3,U1,U2,U3,S11,S22,S33,S12,S13,S23,E11,E22,E33,E12,E13,E23,SMISES
 ZONE, T="0.9000D+00" F=FEPOINT, I=   12 J=    2 ET=BRICK
   0.0000000000E+00   0.0000000000E+00   0.0000000000E+00   0.0000000000E+00   0.0000000000E+00   0.0000000000E+00   0.0000000000E+00   0.0000000000E+00   0.0000000000E+00   0.1124997832E+02   0.1084676903E-04   0.1084676903E-04   0.1279391494E-16   0.1164488034E-15  -0.6054052763E-15   0.4899973868E-01  -0.1999986933E-01  -0.1999986933E-01  -0.2686993226E-17  -0.3145855207E-17  -0.1246050815E-16   0.1124996748E+02
   0.1048999739E+01   0.0000000000E+00   0.2403964415E-17   0.1476315187E-01   0.0000000000E+00   0.5360318249E-17   0.3423658673E-01   0.0000000000E+00  -0.2956353834E-17   0.1124997832E+02   0.1084676902E-04   0.1084676902E-04   0.6318242272E-15   0.1753730428E-15   0.3308808071E-16   0.4899973868E-01  -0.1999986933E-01  -0.1999986933E-01   0.1810953413E-16   0.8986127578E-17  -0.2906414809E-18   0.1124996748E+02
   0.1048999739E+01   0.9800001307E+00   0.1255187210E-17   0.1476315187E-01  -0.7131575934E-02   0.7860295084E-17   0.3423658673E-01  -0.1286829337E-01  -0.6605107874E-17   0.1124997832E+02   0.1084676902E-04   0.1084676902E-04   0.4011390125E-15  -0.3450425621E-15   0.6281084946E-15   0.4899973867E-01  -0.1999986933E-01  -0.1999986933E-01   0.1538481836E-16   0.9579637084E-17   0.1655315861E-16   0.1124996748E+02
   0.0000000000E+00   0.9800001307E+00  -0.7861137990E-17   0.0000000000E+00  -0.7131575934E-02  -0.3101134809E-17   0.0000000000E+00  -0.1286829337E-01  -0.4760003182E-17   0.1124997832E+02   0.1084676902E-04   0.1084676902E-04   0.4282875742E-15   0.9616734629E-15   0.4211745088E-15   0.4899973867E-01  -0.1999986933E-01  -0.1999986933E-01   0.1915065896E-16   0.8722840257E-17  -0.1171172777E-16   0.1124996748E+02
   0.0000000000E+00   0.0000000000E+00   0.9800001307E+00   0.0000000000E+00   0.0000000000E+00  -0.7131575934E-02   0.0000000000E+00   0.0000000000E+00  -0.1286829337E-01   0.1124997832E+02   0.1084676902E-04   0.1084676902E-04  -0.2750286223E-16   0.3331314125E-15  -0.4294577681E-15   0.4899973867E-01  -0.1999986933E-01  -0.1999986933E-01  -0.4872910728E-18   0.1455514785E-16  -0.1087201252E-16   0.1124996748E+02
   0.1048999739E+01   0.0000000000E+00   0.9800001307E+00   0.1476315187E-01   0.0000000000E+00  -0.7131575934E-02   0.3423658673E-01   0.0000000000E+00  -0.1286829337E-01   0.1124997832E+02   0.1084676902E-04   0.1084676902E-04   0.6374775890E-16   0.1872984171E-15  -0.4871507407E-15   0.4899973867E-01  -0.1999986933E-01  -0.1999986933E-01  -0.3138909614E-17   0.1203966821E-16  -0.1016621632E-16   0.1124996748E+02
   0.1048999739E+01   0.9800001307E+00   0.9800001307E+00   0.1476315187E-01  -0.7131575934E-02  -0.7131575934E-02   0.3423658673E-01  -0.1286829337E-01  -0.1286829337E-01   0.1124997832E+02   0.1084676902E-04   0.1084676902E-04  -0.5733765454E-15  -0.7718266101E-15   0.2419177715E-16   0.4899973866E-01  -0.1999986933E-01  -0.1999986933E-01  -0.1500221649E-17  -0.1402321981E-16  -0.1187226803E-16   0.1124996747E+02
   0.0000000000E+00   0.9800001307E+00   0.9800001307E+00   0.0000000000E+00  -0.7131575934E-02  -0.7131575934E-02   0.0000000000E+00  -0.1286829337E-01  -0.1286829337E-01   0.1124997832E+02   0.1084676902E-04   0.1084676902E-04  -0.1198902274E-15   0.5566112765E-15   0.2408328778E-15   0.4899973867E-01  -0.1999986933E-01  -0.1999986933E-01  -0.1285648799E-17   0.1002536833E-16   0.2539073105E-16   0.1124996747E+02
   0.2097999477E+01   0.0000000000E+00   0.1767595923E-16   0.2952630373E-01   0.0000000000E+00   0.1870139113E-16   0.6847317347E-01   0.0000000000E+00  -0.1025431894E-17   0.1124997832E+02   0.1084676902E-04   0.1084676902E-04  -0.3084652145E-16  -0.9459174634E-15  -0.2622357348E-15   0.4899973867E-01  -0.1999986933E-01  -0.1999986933E-01  -0.1240073494E-16  -0.7227945714E-17  -0.4126582266E-17   0.1124996748E+02
   0.2097999477E+01   0.9800001307E+00   0.1398859163E-16   0.2952630373E-01  -0.7131575934E-02   0.1600867670E-16   0.6847317347E-01  -0.1286829337E-01  -0.2020085068E-17   0.1124997832E+02   0.1084676902E-04   0.1084676902E-04  -0.4570975327E-15   0.5711332780E-15  -0.5073066312E-15   0.4899973867E-01  -0.1999986933E-01  -0.1999986933E-01  -0.2048710501E-17   0.3976911090E-16  -0.9913769095E-17   0.1124996748E+02
   0.2097999477E+01   0.0000000000E+00   0.9800001307E+00   0.2952630373E-01   0.0000000000E+00  -0.7131575934E-02   0.6847317347E-01   0.0000000000E+00  -0.1286829337E-01   0.1124997832E+02   0.1084676902E-04   0.1084676902E-04   0.8726628873E-15  -0.8931252816E-15   0.1911611975E-15   0.4899973867E-01  -0.1999986933E-01  -0.1999986933E-01   0.6562631857E-17  -0.6262444272E-16  -0.2175932070E-17   0.1124996748E+02
   0.2097999477E+01   0.9800001307E+00   0.9800001307E+00   0.2952630373E-01  -0.7131575934E-02  -0.7131575934E-02   0.6847317347E-01  -0.1286829337E-01  -0.1286829337E-01   0.1124997832E+02   0.1084676902E-04   0.1084676902E-04   0.3231079593E-15   0.1031304696E-14   0.6068545460E-15   0.4899973866E-01  -0.1999986933E-01  -0.1999986933E-01   0.7151620714E-17   0.6238533496E-16   0.4111066963E-16   0.1124996747E+02
     1     2     3     4     5     6     7     8
     2     9    10     3     6    11    12     7
 VARIABLES = X,Y,Z,DU1,DU2,DU3,U1,U2,U3,S11,S22,S33,S12,S13,S23,E11,E22,E33,E12,E13,E23,SMISES
 ZONE, T="0.9500D+00" F=FEPOINT, I=   12 J=    2 ET=BRICK
   0.0000000000E+00   0.0000000000E+00   0.0000000000E+00   0.0000000000E+00   0.0000000000E+00   0.0000000000E+00   0.0000000000E+00   0.0000000000E+00   0.0000000000E+00   0.1187491393E+02   0.4304437584E-04   0.4304437584E-04  -0.3134383111E-16  -0.3401997851E-16  -0.5237523763E-15   0.6433177864E-01  -0.2741588931E-01  -0.2741588931E-01  -0.3408426688E-17   0.5363664810E-18  -0.2134786018E-16   0.1187487089E+02
   0.1064331779E+01   0.0000000000E+00   0.2569116923E-17   0.1533203994E-01   0.0000000000E+00   0.1651525087E-18   0.4899973860E-01   0.0000000000E+00   0.2403964415E-17   0.1187491393E+02   0.4304437584E-04   0.4304437584E-04   0.6434794123E-15   0.3848318944E-15  -0.1306716634E-15   0.6433177864E-01  -0.2741588931E-01  -0.2741588931E-01   0.1668208448E-16  -0.4826851885E-17   0.1651591610E-18   0.1187487089E+02
   0.1064331779E+01   0.9725841107E+00  -0.9713063672E-18   0.1533203994E-01  -0.7416019968E-02  -0.2226493577E-17   0.4899973860E-01  -0.1999986930E-01   0.1255187210E-17   0.1187491393E+02   0.4304437583E-04   0.4304437583E-04   0.7087147366E-15  -0.1523195980E-15   0.5338665608E-15   0.6433177863E-01  -0.2741588931E-01  -0.2741588931E-01   0.3426607214E-16   0.2562539590E-16  -0.9695098861E-17   0.1187487088E+02
   0.0000000000E+00   0.9725841107E+00  -0.1002646311E-16   0.0000000000E+00  -0.7416019968E-02  -0.2165325116E-17   0.0000000000E+00  -0.1999986930E-01  -0.7861137990E-17   0.1187491393E+02   0.4304437583E-04   0.4304437583E-04   0.9936633222E-16   0.4087674408E-15   0.3107259774E-15   0.6433177863E-01  -0.2741588931E-01  -0.2741588931E-01   0.1693676779E-16   0.1815471138E-17   0.2172239992E-16   0.1187487088E+02
   0.0000000000E+00   0.0000000000E+00   0.9725841107E+00   0.0000000000E+00   0.0000000000E+00  -0.7416019968E-02   0.0000000000E+00   0.0000000000E+00  -0.1999986930E-01   0.1187491393E+02   0.4304437583E-04   0.4304437583E-04  -0.5879289667E-16   0.1281923865E-15  -0.6854160350E-15   0.6433177863E-01  -0.2741588931E-01  -0.2741588931E-01   0.6902167258E-18   0.7683099161E-18  -0.2144015153E-16   0.1187487088E+02
   0.1064331779E+01   0.0000000000E+00   0.9725841107E+00   0.1533203994E-01   0.0000000000E+00  -0.7416019968E-02   0.4899973860E-01   0.0000000000E+00  -0.1999986930E-01   0.1187491393E+02   0.4304437583E-04   0.4304437583E-04   0.3998693557E-15   0.1843527906E-15  -0.4313224970E-15   0.6433177863E-01  -0.2741588931E-01  -0.2741588931E-01  -0.3387843697E-17   0.1965826052E-16  -0.2224615461E-16   0.1187487088E+02
   0.1064331779E+01   0.9725841107E+00   0.9725841107E+00   0.1533203994E-01  -0.7416019968E-02  -0.7416019968E-02   0.4899973860E-01  -0.1999986930E-01  -0.1999986930E-01   0.1187491393E+02   0.4304437583E-04   0.4304437583E-04   0.2136178906E-16  -0.2521611820E-15   0.2016616371E-15   0.6433177862E-01  -0.2741588930E-01  -0.2741588930E-01  -0.1162353454E-16  -0.1190234258E-16   0.1107296270E-16   0.1187487088E+02
   0.0000000000E+00   0.9725841107E+00   0.9725841107E+00   0.0000000000E+00  -0.7416019968E-02  -0.7416019968E-02   0.0000000000E+00  -0.1999986930E-01  -0.1999986930E-01   0.1187491393E+02   0.4304437582E-04   0.4304437582E-04  -0.1322718095E-15   0.2956435579E-15   0.1221875684E-14   0.6433177862E-01  -0.2741588930E-01  -0.2741588930E-01  -0.7725448187E-17   0.1025961101E-17   0.5527113951E-17   0.1187487088E+02
   0.2128663557E+01   0.0000000000E+00   0.2578253096E-16   0.3066407987E-01   0.0000000000E+00   0.8106571725E-17   0.9799947720E-01   0.0000000000E+00   0.1767595923E-16   0.1187491393E+02   0.4304437583E-04   0.4304437583E-04  -0.6177828347E-15   0.3025850957E-15  -0.8413481787E-15   0.6433177863E-01  -0.2741588931E-01  -0.2741588931E-01  -0.2706660664E-16   0.1421195331E-16  -0.2237257643E-16   0.1187487088E+02
   0.2128663557E+01   0.9725841107E+00   0.1575537010E-16   0.3066407987E-01  -0.7416019968E-02   0.1766778464E-17   0.9799947720E-01  -0.1999986930E-01   0.1398859163E-16   0.1187491393E+02   0.4304437583E-04   0.4304437583E-04  -0.2466891061E-15  -0.4535812605E-15  -0.6617037347E-15   0.6433177863E-01  -0.2741588931E-01  -0.2741588931E-01  -0.2897055454E-16   0.1909770966E-16  -0.4008771571E-17   0.1187487088E+02
   0.2128663557E+01   0.0000000000E+00   0.9725841107E+00   0.3066407987E-01   0.0000000000E+00  -0.7416019968E-02   0.9799947720E-01   0.0000000000E+00  -0.1999986930E-01   0.1187491393E+02   0.4304437584E-04   0.4304437584E-04   0.5928039841E-15  -0.2164034488E-14  -0.3126816797E-16   0.6433177863E-01  -0.2741588931E-01  -0.2741588931E-01   0.1740091415E-17  -0.1023780051E-15   0.1285782857E-16   0.1187487088E+02
   0.2128663557E+01   0.9725841107E+00   0.9725841107E+00   0.3066407987E-01  -0.7416019968E-02  -0.7416019968E-02   0.9799947720E-01  -0.1999986930E-01  -0.1999986930E-01   0.1187491393E+02   0.4304437582E-04   0.4304437582E-04   0.2605207317E-15   0.1273798129E-14   0.7903741540E-15   0.6433177862E-01  -0.2741588930E-01  -0.2741588930E-01   0.1301318821E-16   0.1062568552E-15  -0.7158583474E-17   0.1187487088E+02
     1     2     3     4     5     6     7     8
     2     9    10     3     6    11    12     7
 VARIABLES = X,Y,Z,DU1,DU2,DU3,U1,U2,U3,S11,S22,S33,S12,S13,S23,E11,E22,E33,E12,E13,E23,SMISES
 ZONE, T="0.1000D+01" F=FEPOINT, I=   12 J=    2 ET=BRICK
   0.0000000000E+00   0.0000000000E+00   0.0000000000E+00   0.0000000000E+00   0.0000000000E+00   0.0000000000E+00   0.0000000000E+00   0.0000000000E+00   0.0000000000E+00   0.1249997861E+02   0.1070580659E-04   0.1070580659E-04  -0.2707514626E-16  -0.8484550932E-15  -0.6994379539E-15   0.8029007855E-01  -0.3514503927E-01  -0.3514503927E-01  -0.6036822511E-17  -0.1275963432E-16  -0.2109451395E-16   0.1249996790E+02
   0.1080290078E+01   0.0000000000E+00  -0.8127786814E-17   0.1595829989E-01   0.0000000000E+00  -0.1069690374E-16   0.6433177854E-01   0.0000000000E+00   0.2569116923E-17   0.1249997861E+02   0.1070580658E-04   0.1070580658E-04  -0.2188232440E-14  -0.9495407767E-15   0.3487890521E-15   0.8029007855E-01  -0.3514503927E-01  -0.3514503927E-01  -0.4570186280E-16  -0.5170933557E-16  -0.1555213558E-17   0.1249996790E+02
   0.1080290078E+01   0.9648549608E+00  -0.7071064245E-17   0.1595829989E-01  -0.7729149944E-02  -0.6099757878E-17   0.6433177854E-01  -0.2741588927E-01  -0.9713063672E-18   0.1249997861E+02   0.1070580659E-04   0.1070580658E-04  -0.1388044073E-14   0.8982578312E-15   0.4947286832E-16   0.8029007854E-01  -0.3514503926E-01  -0.3514503926E-01  -0.4793334633E-16   0.1607379941E-16   0.2100358060E-16   0.1249996790E+02
   0.0000000000E+00   0.9648549608E+00  -0.1382815289E-16   0.0000000000E+00  -0.7729149944E-02  -0.3801689786E-17   0.0000000000E+00  -0.2741588927E-01  -0.1002646311E-16   0.1249997861E+02   0.1070580658E-04   0.1070580659E-04   0.5439313945E-15   0.4451237706E-15  -0.9948148803E-15   0.8029007854E-01  -0.3514503926E-01  -0.3514503926E-01   0.2703913148E-16   0.2158948361E-16  -0.9194927548E-17   0.1249996790E+02
   0.0000000000E+00   0.0000000000E+00   0.9648549608E+00   0.0000000000E+00   0.0000000000E+00  -0.7729149944E-02   0.0000000000E+00   0.0000000000E+00  -0.2741588927E-01   0.1249997861E+02   0.1070580658E-04   0.1070580658E-04  -0.4422840449E-16  -0.1462155881E-15   0.8667397846E-15   0.8029007854E-01  -0.3514503926E-01  -0.3514503926E-01   0.5621280632E-17   0.1004453902E-16  -0.1952986054E-17   0.1249996790E+02
   0.1080290078E+01   0.0000000000E+00   0.9648549608E+00   0.1595829989E-01   0.0000000000E+00  -0.7729149944E-02   0.6433177854E-01   0.0000000000E+00  -0.2741588927E-01   0.1249997861E+02   0.1070580658E-04   0.1070580658E-04  -0.9789196232E-15   0.2017076534E-15   0.2878780366E-15   0.8029007854E-01  -0.3514503926E-01  -0.3514503926E-01  -0.3140788696E-16  -0.3337852194E-17  -0.8521535586E-17   0.1249996790E+02
   0.1080290078E+01   0.9648549608E+00   0.9648549608E+00   0.1595829989E-01  -0.7729149944E-02  -0.7729149944E-02   0.6433177854E-01  -0.2741588927E-01  -0.2741588927E-01   0.1249997860E+02   0.1070580658E-04   0.1070580658E-04  -0.8810845920E-15   0.2135226319E-15  -0.1929350857E-15   0.8029007853E-01  -0.3514503926E-01  -0.3514503926E-01  -0.1514416726E-16   0.6814933663E-17  -0.1024937521E-16   0.1249996790E+02
   0.0000000000E+00   0.9648549608E+00   0.9648549608E+00   0.0000000000E+00  -0.7729149944E-02  -0.7729149944E-02   0.0000000000E+00  -0.2741588927E-01  -0.2741588927E-01   0.1249997861E+02   0.1070580657E-04   0.1070580658E-04   0.5570047339E-15  -0.5827101297E-15   0.1879799945E-14   0.8029007853E-01  -0.3514503926E-01  -0.3514503926E-01   0.9689562888E-17  -0.1413813445E-16   0.7626206304E-16   0.1249996790E+02
   0.2160580157E+01   0.0000000000E+00  -0.6313027955E-17   0.3191659978E-01   0.0000000000E+00  -0.3209555892E-16   0.1286635571E+00   0.0000000000E+00   0.2578253096E-16   0.1249997861E+02   0.1070580658E-04   0.1070580657E-04  -0.2066618188E-14   0.1303913494E-15   0.4685629491E-15   0.8029007855E-01  -0.3514503927E-01  -0.3514503927E-01  -0.8484565550E-16  -0.1243805033E-16  -0.5186557151E-17   0.1249996790E+02
   0.2160580157E+01   0.9648549608E+00  -0.7354417486E-17   0.3191659978E-01  -0.7729149944E-02  -0.2310978758E-16   0.1286635571E+00  -0.2741588927E-01   0.1575537010E-16   0.1249997861E+02   0.1070580659E-04   0.1070580658E-04  -0.9444664821E-15   0.2220669346E-14  -0.6092125128E-15   0.8029007854E-01  -0.3514503926E-01  -0.3514503926E-01  -0.6487892927E-16   0.1358626728E-15  -0.2151760461E-16   0.1249996790E+02
   0.2160580157E+01   0.0000000000E+00   0.9648549608E+00   0.3191659978E-01   0.0000000000E+00  -0.7729149944E-02   0.1286635571E+00   0.0000000000E+00  -0.2741588927E-01   0.1249997861E+02   0.1070580659E-04   0.1070580659E-04   0.5178770212E-16  -0.7370702786E-15  -0.5203720004E-15   0.8029007854E-01  -0.3514503926E-01  -0.3514503926E-01  -0.1041015967E-16  -0.6315328445E-16   0.1415970734E-17   0.1249996790E+02
   0.2160580157E+01   0.9648549608E+00   0.9648549608E+00   0.3191659978E-01  -0.7729149944E-02  -0.7729149944E-02   0.1286635571E+00  -0.2741588927E-01  -0.2741588927E-01   0.1249997860E+02   0.1070580658E-04   0.1070580658E-04   0.1056018823E-14   0.9413939865E-15  -0.8698678583E-15   0.8029007853E-01  -0.3514503926E-01  -0.3514503926E-01   0.1583765277E-16   0.1072900307E-15   0.1385499444E-16   0.1249996790E+02
     1     2     3     4     5     6     7     8
     2     9    10     3     6    11    12     7
 VARIABLES = X,Y,Z,DU1,DU2,DU3,U1,U2,U3,S11,S22,S33,S12,S13,S23,E11,E22,E33,E12,E13,E23,SMISES
 ZONE, T="0.1050D+01" F=FEPOINT, I=   12 J=    2 ET=BRICK
   0.0000000000E+00   0.0000000000E+00   0.0000000000E+00   0.0000000000E+00   0.0000000000E+00   0.0000000000E+00   0.0000000000E+00   0.0000000000E+00   0.0000000000E+00   0.1137500002E+02  -0.2362418738E-15  -0.2252435027E-14  -0.2734609846E-16  -0.1130983912E-14   0.1403203017E-14   0.7804013422E-01  -0.3447006710E-01  -0.3447006710E-01   0.7820522658E-17  -0.3443271243E-16  -0.8746337146E-17   0.1137500002E+02
   0.1078040134E+01   0.0000000000E+00  -0.2134969577E-16  -0.2249944330E-02   0.0000000000E+00  -0.1322190895E-16   0.8029007842E-01   0.0000000000E+00  -0.8127786814E-17   0.1137500002E+02  -0.4104906827E-14  -0.9659720982E-14   0.4945045071E-15   0.6087167109E-15   0.4677961344E-17   0.7804013422E-01  -0.3447006710E-01  -0.3447006710E-01  -0.4961684779E-16   0.5491713813E-16   0.1727708093E-17   0.1137500002E+02
   0.1078040134E+01   0.9655299330E+00  -0.2208228371E-16  -0.2249944330E-02   0.6749721649E-03  -0.1501121946E-16   0.8029007842E-01  -0.3514503921E-01  -0.7071064245E-17   0.1137500002E+02   0.9053084067E-14   0.3498269912E-14   0.3231507882E-15   0.2066375237E-14  -0.2291826485E-14   0.7804013421E-01  -0.3447006710E-01  -0.3447006710E-01  -0.5164497336E-16   0.2998880971E-16  -0.3392217775E-16   0.1137500002E+02
   0.0000000000E+00   0.9655299330E+00  -0.2881305000E-17   0.0000000000E+00   0.6749721649E-03   0.1094684789E-16   0.0000000000E+00  -0.3514503921E-01  -0.1382815289E-16   0.1137500002E+02  -0.4971412927E-14  -0.6499962310E-14   0.1530401947E-14  -0.3300151994E-14  -0.1579035174E-14   0.7804013421E-01  -0.3447006710E-01  -0.3447006710E-01   0.5602557649E-16  -0.1289128086E-16   0.2111965583E-16   0.1137500002E+02
   0.0000000000E+00   0.0000000000E+00   0.9655299330E+00   0.0000000000E+00   0.0000000000E+00   0.6749721649E-03   0.0000000000E+00   0.0000000000E+00  -0.3514503921E-01   0.1137500002E+02   0.9709111335E-15   0.3550968418E-14  -0.5430725067E-16  -0.2247529855E-14   0.1218173094E-14   0.7804013421E-01  -0.3447006710E-01  -0.3447006710E-01   0.7602300200E-17   0.1266049096E-16   0.2491420866E-16   0.1137500002E+02
   0.1078040134E+01   0.0000000000E+00   0.9655299330E+00  -0.2249944330E-02   0.0000000000E+00   0.6749721649E-03   0.8029007842E-01   0.0000000000E+00  -0.3514503921E-01   0.1137500002E+02   0.5066388374E-14   0.5139691250E-14   0.1678973013E-14   0.1117927629E-14  -0.4785495169E-16   0.7804013421E-01  -0.3447006710E-01  -0.3447006710E-01  -0.2620584398E-17   0.2152921720E-17  -0.2262266481E-16   0.1137500002E+02
   0.1078040134E+01   0.9655299330E+00   0.9655299330E+00  -0.2249944330E-02   0.6749721649E-03   0.6749721649E-03   0.8029007842E-01  -0.3514503921E-01  -0.3514503921E-01   0.1137500001E+02   0.2302501825E-14   0.2375804702E-14   0.1145464370E-14   0.2082154892E-14  -0.2532749997E-14   0.7804013420E-01  -0.3447006709E-01  -0.3447006709E-01   0.1379733297E-16   0.1983902288E-16  -0.3095943161E-16   0.1137500001E+02
   0.0000000000E+00   0.9655299330E+00   0.9655299330E+00   0.0000000000E+00   0.6749721649E-03   0.6749721649E-03   0.0000000000E+00  -0.3514503921E-01  -0.3514503921E-01   0.1137500002E+02  -0.3374614158E-14   0.5377106120E-15   0.2367883164E-14  -0.4184528897E-14  -0.5003679125E-15   0.7804013420E-01  -0.3447006709E-01  -0.3447006709E-01   0.7532435625E-17  -0.5055006833E-16   0.2162958841E-16   0.1137500002E+02
   0.2156080268E+01   0.0000000000E+00  -0.7972859530E-16  -0.4499888660E-02   0.0000000000E+00  -0.7341556734E-16   0.1605801568E+00   0.0000000000E+00  -0.6313027955E-17   0.1137500002E+02  -0.1169623210E-13  -0.1337935829E-13   0.7309179047E-14   0.2324619930E-14   0.1606901391E-14   0.7804013421E-01  -0.3447006710E-01  -0.3447006710E-01   0.8840754482E-17  -0.5055664968E-16   0.4008571877E-17   0.1137500002E+02
   0.2156080268E+01   0.9655299330E+00  -0.7488938909E-16  -0.4499888660E-02   0.6749721649E-03  -0.6753497160E-16   0.1605801568E+00  -0.3514503921E-01  -0.7354417486E-17   0.1137500002E+02   0.1548878192E-13   0.1331801197E-13   0.5487792799E-14  -0.4135368511E-14  -0.1507597423E-14   0.7804013420E-01  -0.3447006710E-01  -0.3447006710E-01  -0.2289904480E-16   0.5997787640E-16   0.8738247919E-17   0.1137500002E+02
   0.2156080268E+01   0.0000000000E+00   0.9655299330E+00  -0.4499888660E-02   0.0000000000E+00   0.6749721649E-03   0.1605801568E+00   0.0000000000E+00  -0.3514503921E-01   0.1137500002E+02   0.2905333907E-14   0.9214458781E-14  -0.1224587693E-14   0.1639144838E-14   0.2167553253E-14   0.7804013420E-01  -0.3447006710E-01  -0.3447006710E-01  -0.1360565010E-16  -0.7637734368E-16   0.1502122999E-16   0.1137500002E+02
   0.2156080268E+01   0.9655299330E+00   0.9655299330E+00  -0.4499888660E-02   0.6749721649E-03   0.6749721649E-03   0.1605801568E+00  -0.3514503921E-01  -0.3514503921E-01   0.1137500001E+02  -0.9065716834E-14  -0.4088859446E-14  -0.3558066332E-14  -0.3219925167E-14  -0.2148777195E-15   0.7804013419E-01  -0.3447006709E-01  -0.3447006709E-01  -0.4362730767E-16   0.1953354097E-15   0.1439600983E-16   0.1137500001E+02
     1     2     3     4     5     6     7     8
     2     9    10     3     6    11    12     7
 VARIABLES = X,Y,Z,DU1,DU2,DU3,U1,U2,U3,S11,S22,S33,S12,S13,S23,E11,E22,E33,E12,E13,E23,SMISES
 ZONE, T="0.1100D+01" F=FEPOINT, I=   12 J=    2 ET=BRICK
   0.0000000000E+00   0.0000000000E+00   0.0000000000E+00   0.0000000000E+00   0.0000000000E+00   0.0000000000E+00   0.0000000000E+00   0.0000000000E+00   0.0000000000E+00   0.1025000002E+02   0.1335185203E-14   0.9099557241E-15  -0.1293775876E-16  -0.8430106729E-15  -0.6433873739E-15   0.7579013421E-01  -0.3379506710E-01  -0.3379506710E-01   0.3391435629E-17  -0.6074641205E-17  -0.1325447841E-16   0.1025000002E+02
   0.1075790134E+01   0.0000000000E+00  -0.7670388433E-17  -0.2250000000E-02   0.0000000000E+00   0.1367930733E-16   0.7804013409E-01   0.0000000000E+00  -0.2134969577E-16   0.1025000002E+02  -0.3168120713E-14  -0.3612209873E-14   0.2112191650E-15   0.1219266751E-15   0.2029374175E-15   0.7579013421E-01  -0.3379506710E-01  -0.3379506710E-01  -0.3715582057E-16  -0.1561501381E-16  -0.1202056853E-16   0.1025000002E+02
   0.1075790134E+01   0.9662049330E+00  -0.7347808503E-17  -0.2250000000E-02   0.6750000000E-03   0.1473447520E-16   0.7804013409E-01  -0.3447006705E-01  -0.2208228371E-16   0.1025000001E+02   0.2339439093E-14   0.2176891139E-14   0.6129180449E-15   0.2702183404E-15   0.3068036371E-15   0.7579013420E-01  -0.3379506710E-01  -0.3379506710E-01  -0.3237760795E-16   0.8951070519E-16   0.3585899786E-16   0.1025000001E+02
   0.0000000000E+00   0.9662049330E+00  -0.1360333356E-16   0.0000000000E+00   0.6750000000E-03  -0.1072202856E-16   0.0000000000E+00  -0.3447006705E-01  -0.2881305000E-17   0.1025000001E+02   0.1026031257E-14   0.2190697394E-14  -0.5990046778E-16   0.3189367474E-15  -0.4076026052E-15   0.7579013420E-01  -0.3379506710E-01  -0.3379506710E-01   0.2777803922E-16   0.1699219437E-17  -0.3600591140E-16   0.1025000001E+02
   0.0000000000E+00   0.0000000000E+00   0.9662049330E+00   0.0000000000E+00   0.0000000000E+00   0.6750000000E-03   0.0000000000E+00   0.0000000000E+00  -0.3447006705E-01   0.1025000001E+02   0.2827082793E-14   0.1351127053E-14  -0.7664572298E-16  -0.4678647405E-15  -0.1619858899E-15   0.7579013421E-01  -0.3379506710E-01  -0.3379506710E-01  -0.1482878613E-16   0.9329928105E-17   0.1935100265E-16   0.1025000001E+02
   0.1075790134E+01   0.0000000000E+00   0.9662049330E+00  -0.2250000000E-02   0.0000000000E+00   0.6750000000E-03   0.7804013409E-01   0.0000000000E+00  -0.3447006705E-01   0.1025000001E+02   0.1532534773E-14   0.2523764347E-14   0.6389173301E-16   0.7942732748E-15  -0.1272359723E-15   0.7579013420E-01  -0.3379506710E-01  -0.3379506710E-01   0.5467732292E-17   0.9099139659E-16   0.2607165399E-17   0.1025000001E+02
   0.1075790134E+01   0.9662049330E+00   0.9662049330E+00  -0.2250000000E-02   0.6750000000E-03   0.6750000000E-03   0.7804013409E-01  -0.3447006705E-01  -0.3447006705E-01   0.1025000001E+02  -0.6443564522E-15  -0.7038531038E-15  -0.4520519865E-15   0.4155668864E-16  -0.2233426864E-15   0.7579013419E-01  -0.3379506709E-01  -0.3379506709E-01  -0.3398635241E-16   0.6488118089E-17  -0.3351690354E-16   0.1025000001E+02
   0.0000000000E+00   0.9662049330E+00   0.9662049330E+00   0.0000000000E+00   0.6750000000E-03   0.6750000000E-03   0.0000000000E+00  -0.3447006705E-01  -0.3447006705E-01   0.1025000001E+02  -0.5207940660E-14  -0.5159332641E-14  -0.2972384413E-15  -0.3879098038E-15   0.1400034278E-14   0.7579013420E-01  -0.3379506709E-01  -0.3379506709E-01   0.5884242783E-17  -0.1212802888E-17   0.8509275192E-16   0.1025000001E+02
   0.2151580268E+01   0.0000000000E+00  -0.3841839969E-17  -0.4500000000E-02   0.0000000000E+00   0.7588675533E-16   0.1560802682E+00   0.0000000000E+00  -0.7972859530E-16   0.1025000002E+02  -0.4931452816E-14  -0.6163586676E-14  -0.1800976429E-14  -0.9906145027E-16   0.5373134337E-16   0.7579013421E-01  -0.3379506710E-01  -0.3379506710E-01  -0.1111595120E-15   0.4403599484E-16  -0.1067435076E-16   0.1025000002E+02
   0.2151580268E+01   0.9662049330E+00  -0.7115427752E-17  -0.4500000000E-02   0.6750000000E-03   0.6777396134E-16   0.1560802682E+00  -0.3447006705E-01  -0.7488938909E-16   0.1025000001E+02   0.4346592998E-14   0.2087645935E-14  -0.9556668969E-15   0.8833072586E-15  -0.6919926389E-15   0.7579013420E-01  -0.3379506709E-01  -0.3379506709E-01  -0.1107959105E-15  -0.2667196500E-16   0.1134561954E-16   0.1025000001E+02
   0.2151580268E+01   0.0000000000E+00   0.9662049330E+00  -0.4500000000E-02   0.0000000000E+00   0.6750000000E-03   0.1560802682E+00   0.0000000000E+00  -0.3447006705E-01   0.1025000001E+02   0.4928535119E-14   0.7617764987E-14  -0.6210196783E-15  -0.1568831472E-14   0.1318299899E-15   0.7579013420E-01  -0.3379506709E-01  -0.3379506709E-01   0.1766598921E-16  -0.3402469085E-16   0.5330543214E-17   0.1025000001E+02
   0.2151580268E+01   0.9662049330E+00   0.9662049330E+00  -0.4500000000E-02   0.6750000000E-03   0.6750000000E-03   0.1560802682E+00  -0.3447006705E-01  -0.3447006705E-01   0.1025000001E+02  -0.2666670455E-14  -0.3603456795E-14  -0.4585569622E-16   0.5147173355E-15   0.8663433798E-16   0.7579013419E-01  -0.3379506709E-01  -0.3379506709E-01   0.3584194024E-16   0.3804722371E-16   0.4352009937E-16   0.1025000001E+02
     1     2     3     4     5     6     7     8
     2     9    10     3     6    11    12     7
 VARIABLES = X,Y,Z,DU1,DU2,DU3,U1,U2,U3,S11,S22,S33,S12,S13,S23,E11,E22,E33,E12,E13,E23,SMISES
 ZONE, T="0.1150D+01" F=FEPOINT, I=   12 J=    2 ET=BRICK
   0.0000000000E+00   0.0000000000E+00   0.0000000000E+00   0.0000000000E+00   0.0000000000E+00   0.0000000000E+00   0.0000000000E+00   0.0000000000E+00   0.0000000000E+00   0.9125000014E+01   0.1694014900E-14   0.1819911404E-14  -0.2261190274E-16  -0.9131155115E-15  -0.9510143855E-15   0.7354013421E-01  -0.3312006710E-01  -0.3312006710E-01  -0.4184809831E-17  -0.2091631923E-16  -0.2517544290E-16   0.9125000014E+01
   0.1073540134E+01   0.0000000000E+00  -0.6958977334E-17  -0.2250000000E-02   0.0000000000E+00   0.7114110989E-18   0.7579013409E-01   0.0000000000E+00  -0.7670388433E-17   0.9125000014E+01  -0.3501187596E-14  -0.3086846761E-14   0.1647979565E-15  -0.4890013132E-16   0.1924121174E-15   0.7354013421E-01  -0.3312006710E-01  -0.3312006710E-01  -0.2367885387E-16   0.2956198526E-16  -0.2216560098E-17   0.9125000014E+01
   0.1073540134E+01   0.9668799330E+00  -0.6672135605E-17  -0.2250000000E-02   0.6750000000E-03   0.6756728983E-18   0.7579013409E-01  -0.3379506705E-01  -0.7347808503E-17   0.9125000013E+01   0.3057098435E-14   0.2561483648E-14   0.7320963403E-15   0.2334556004E-15   0.4456698730E-15   0.7354013420E-01  -0.3312006709E-01  -0.3312006709E-01  -0.2357364666E-16   0.5764238980E-16   0.2363100347E-16   0.9125000013E+01
   0.0000000000E+00   0.9668799330E+00  -0.1530576738E-16   0.0000000000E+00   0.6750000000E-03  -0.1702433820E-17   0.0000000000E+00  -0.3379506705E-01  -0.1360333356E-16   0.9125000013E+01   0.8594978629E-15   0.2837971502E-14   0.2297228064E-15   0.7031854364E-15  -0.3872608117E-15   0.7354013420E-01  -0.3312006710E-01  -0.3312006710E-01   0.2842197722E-16   0.1830607040E-16  -0.2390022117E-16   0.9125000013E+01
   0.0000000000E+00   0.0000000000E+00   0.9668799330E+00   0.0000000000E+00   0.0000000000E+00   0.6750000000E-03   0.0000000000E+00   0.0000000000E+00  -0.3379506705E-01   0.9125000013E+01   0.3064001554E-14   0.1351127091E-14  -0.7891676733E-16  -0.8399227377E-16  -0.7261753303E-16   0.7354013420E-01  -0.3312006710E-01  -0.3312006710E-01   0.4653549332E-17   0.2097977093E-16  -0.3206198685E-17   0.9125000013E+01
   0.1073540134E+01   0.0000000000E+00   0.9668799330E+00  -0.2250000000E-02   0.0000000000E+00   0.6750000000E-03   0.7579013409E-01   0.0000000000E+00  -0.3379506705E-01   0.9125000013E+01   0.9556459849E-15   0.1895349932E-14   0.5636365918E-16   0.8187180691E-15  -0.3921619217E-15   0.7354013420E-01  -0.3312006709E-01  -0.3312006709E-01  -0.3358570106E-17   0.9248738524E-17  -0.9053933693E-17   0.9125000013E+01
   0.1073540134E+01   0.9668799330E+00   0.9668799330E+00  -0.2250000000E-02   0.6750000000E-03   0.6750000000E-03   0.7579013409E-01  -0.3379506705E-01  -0.3379506705E-01   0.9125000012E+01  -0.1502786448E-14  -0.2139171838E-14  -0.4138224213E-15   0.2628572710E-15  -0.3603204672E-15   0.7354013419E-01  -0.3312006709E-01  -0.3312006709E-01   0.1948447167E-16   0.6227970289E-16  -0.5037794808E-17   0.9125000012E+01
   0.0000000000E+00   0.9668799330E+00   0.9668799330E+00   0.0000000000E+00   0.6750000000E-03   0.6750000000E-03   0.0000000000E+00  -0.3379506705E-01  -0.3379506705E-01   0.9125000012E+01  -0.4830251302E-14  -0.4666635474E-14  -0.2774726320E-15  -0.5519654510E-15   0.1839246749E-14   0.7354013419E-01  -0.3312006709E-01  -0.3312006709E-01  -0.1271252559E-16  -0.1749632008E-16   0.7433547765E-16   0.9125000012E+01
   0.2147080268E+01   0.0000000000E+00   0.1595425053E-17  -0.4500000000E-02   0.0000000000E+00   0.5437265022E-17   0.1515802682E+00   0.0000000000E+00  -0.3841839969E-17   0.9125000014E+01  -0.6237957485E-14  -0.6867439751E-14  -0.8080412949E-15  -0.3956849944E-15   0.1309538979E-16   0.7354013421E-01  -0.3312006710E-01  -0.3312006710E-01  -0.1197839324E-15   0.9451043598E-16   0.1083669432E-17   0.9125000014E+01
   0.2147080268E+01   0.9668799330E+00  -0.1781376316E-17  -0.4500000000E-02   0.6750000000E-03   0.5334051437E-17   0.1515802682E+00  -0.3379506705E-01  -0.7115427752E-17   0.9125000013E+01   0.5666903869E-14   0.4029468089E-14   0.1070999593E-15   0.1162743645E-15  -0.5831853064E-15   0.7354013420E-01  -0.3312006709E-01  -0.3312006709E-01  -0.1440510508E-15   0.3444534394E-16  -0.6770365750E-18   0.9125000013E+01
   0.2147080268E+01   0.0000000000E+00   0.9668799330E+00  -0.4500000000E-02   0.0000000000E+00   0.6750000000E-03   0.1515802682E+00   0.0000000000E+00  -0.3379506705E-01   0.9125000013E+01   0.4588565006E-14   0.6848579932E-14  -0.4938258995E-15  -0.1473581352E-14   0.2449201614E-15   0.7354013420E-01  -0.3312006709E-01  -0.3312006709E-01   0.1918938394E-16   0.1106250667E-15  -0.1010038295E-17   0.9125000013E+01
   0.2147080268E+01   0.9668799330E+00   0.9668799330E+00  -0.4500000000E-02   0.6750000000E-03   0.6750000000E-03   0.1515802682E+00  -0.3379506705E-01  -0.3379506705E-01   0.9125000012E+01  -0.3710493579E-14  -0.3814612755E-14   0.1109698610E-15   0.6556631281E-16   0.2099021842E-15   0.7354013419E-01  -0.3312006709E-01  -0.3312006709E-01   0.5315330809E-16  -0.1449137258E-17   0.1821233488E-16   0.9125000012E+01
     1     2     3     4     5     6     7     8
     2     9    10     3     6    11    12     7
 VARIABLES = X,Y,Z,DU1,DU2,DU3,U1,U2,U3,S11,S22,S33,S12,S13,S23,E11,E22,E33,E12,E13,E23,SMISES
 ZONE, T="0.1200D+01" F=FEPOINT, I=   12 J=    2 ET=BRICK
   0.0000000000E+00   0.0000000000E+00   0.0000000000E+00   0.0000000000E+00   0.0000000000E+00   0.0000000000E+00   0.0000000000E+00   0.0000000000E+00   0.0000000000E+00   0.8000000013E+01   0.1561215305E-14   0.3330669522E-15  -0.1365656435E-16  -0.1320248735E-14  -0.7918034946E-15   0.7129013421E-01  -0.3244506710E-01  -0.3244506710E-01   0.8891959242E-18  -0.1086324442E-16  -0.3636388086E-16   0.8000000013E+01
   0.1071290134E+01   0.0000000000E+00  -0.1128693629E-16  -0.2250000000E-02   0.0000000000E+00  -0.4327958951E-17   0.7354013409E-01   0.0000000000E+00  -0.6958977334E-17   0.8000000012E+01  -0.4107824660E-14  -0.3715261175E-14   0.8425175786E-15  -0.3241025977E-15   0.5240791577E-15   0.7129013420E-01  -0.3244506710E-01  -0.3244506710E-01  -0.5050443177E-16  -0.4459985768E-16  -0.3891153563E-17   0.8000000012E+01
   0.1071290134E+01   0.9675549330E+00  -0.9338301327E-17  -0.2250000000E-02   0.6750000000E-03  -0.2666165722E-17   0.7354013409E-01  -0.3312006705E-01  -0.6672135605E-17   0.8000000011E+01   0.2835053880E-14   0.1651528027E-14   0.1177493695E-14  -0.1357268714E-15   0.2441821451E-15   0.7129013420E-01  -0.3244506709E-01  -0.3244506709E-01  -0.1189165168E-16   0.6335540609E-16   0.1595618127E-16   0.8000000011E+01
   0.0000000000E+00   0.9675549330E+00  -0.1439071494E-16   0.0000000000E+00   0.6750000000E-03   0.9150524409E-18   0.0000000000E+00  -0.3312006705E-01  -0.1530576738E-16   0.8000000012E+01   0.1932001416E-14   0.2556430225E-14   0.1248151628E-15   0.4871030317E-15  -0.7213257841E-15   0.7129013420E-01  -0.3244506709E-01  -0.3244506709E-01   0.2209850737E-16   0.2343812488E-16   0.8525138491E-17   0.8000000012E+01
   0.0000000000E+00   0.0000000000E+00   0.9675549330E+00   0.0000000000E+00   0.0000000000E+00   0.6750000000E-03   0.0000000000E+00   0.0000000000E+00  -0.3312006705E-01   0.8000000012E+01   0.2476224168E-14   0.3192604903E-15  -0.8424339766E-16  -0.4425638898E-15   0.1984652932E-15   0.7129013420E-01  -0.3244506709E-01  -0.3244506709E-01   0.3886688530E-17   0.2973644639E-16   0.1006608718E-16   0.8000000012E+01
   0.1071290134E+01   0.0000000000E+00   0.9675549330E+00  -0.2250000000E-02   0.0000000000E+00   0.6750000000E-03   0.7354013409E-01   0.0000000000E+00  -0.3312006705E-01   0.8000000011E+01   0.1258964542E-14   0.1998401234E-14   0.4711885847E-15   0.9603960354E-15  -0.1042437675E-16   0.7129013420E-01  -0.3244506709E-01  -0.3244506709E-01  -0.2524437074E-17   0.1152806780E-16   0.1974431576E-17   0.8000000011E+01
   0.1071290134E+01   0.9675549330E+00   0.9675549330E+00  -0.2250000000E-02   0.6750000000E-03   0.6750000000E-03   0.7354013409E-01  -0.3312006705E-01  -0.3312006705E-01   0.8000000010E+01  -0.1487416655E-15  -0.3192605947E-15  -0.1756841806E-15  -0.1780333821E-15  -0.5370015337E-15   0.7129013419E-01  -0.3244506709E-01  -0.3244506709E-01  -0.2207934247E-16   0.7408566749E-16  -0.1690552334E-16   0.8000000010E+01
   0.0000000000E+00   0.9675549330E+00   0.9675549330E+00   0.0000000000E+00   0.6750000000E-03   0.6750000000E-03   0.0000000000E+00  -0.3312006705E-01  -0.3312006705E-01   0.8000000011E+01  -0.4545792384E-14  -0.3916310170E-14  -0.4264705742E-15  -0.5464439640E-15   0.1469272339E-14   0.7129013419E-01  -0.3244506709E-01  -0.3244506709E-01   0.1507019775E-16  -0.1465923724E-16   0.5243583198E-16   0.8000000011E+01
   0.2142580268E+01   0.0000000000E+00  -0.1514364323E-16  -0.4500000000E-02   0.0000000000E+00  -0.1673906828E-16   0.1470802682E+00   0.0000000000E+00   0.1595425053E-17   0.8000000012E+01  -0.5704623380E-14  -0.6355882922E-14  -0.1180559479E-14  -0.4310289645E-17   0.2385146860E-15   0.7129013420E-01  -0.3244506710E-01  -0.3244506710E-01  -0.1134274991E-15   0.1212460878E-15   0.1264770469E-17   0.8000000012E+01
   0.2142580268E+01   0.9675549330E+00  -0.1737993060E-16  -0.4500000000E-02   0.6750000000E-03  -0.1559855428E-16   0.1470802682E+00  -0.3312006705E-01  -0.1781376316E-17   0.8000000011E+01   0.4431852413E-14   0.1440371898E-14  -0.4071606505E-15   0.1551837940E-14  -0.1150721208E-14   0.7129013419E-01  -0.3244506709E-01  -0.3244506709E-01  -0.9212247880E-16   0.6502150849E-16   0.2062569807E-16   0.8000000011E+01
   0.2142580268E+01   0.0000000000E+00   0.9675549330E+00  -0.4500000000E-02   0.0000000000E+00   0.6750000000E-03   0.1470802682E+00   0.0000000000E+00  -0.3312006705E-01   0.8000000011E+01   0.4732253282E-14   0.8368090343E-14  -0.3445014444E-16  -0.1392114150E-14   0.4732575772E-15   0.7129013419E-01  -0.3244506709E-01  -0.3244506709E-01  -0.1053421292E-16   0.1123320122E-15  -0.8140094378E-17   0.8000000011E+01
   0.2142580268E+01   0.9675549330E+00   0.9675549330E+00  -0.4500000000E-02   0.6750000000E-03   0.6750000000E-03   0.1470802682E+00  -0.3312006705E-01  -0.3312006705E-01   0.8000000010E+01  -0.3669856589E-14  -0.1975841799E-14   0.2649765169E-15   0.1032990733E-14  -0.2033382140E-15   0.7129013419E-01  -0.3244506709E-01  -0.3244506709E-01   0.2023333153E-16   0.9214189825E-16   0.3547348012E-16   0.8000000010E+01
     1     2     3     4     5     6     7     8
     2     9    10     3     6    11    12     7
 VARIABLES = X,Y,Z,DU1,DU2,DU3,U1,U2,U3,S11,S22,S33,S12,S13,S23,E11,E22,E33,E12,E13,E23,SMISES
 ZONE, T="0.1250D+01" F=FEPOINT, I=   12 J=    2 ET=BRICK
   0.0000000000E+00   0.0000000000E+00   0.0000000000E+00   0.0000000000E+00   0.0000000000E+00   0.0000000000E+00   0.0000000000E+00   0.0000000000E+00   0.0000000000E+00   0.6875000011E+01   0.1375822181E-14   0.6581628480E-15   0.6587914880E-17  -0.1436000440E-14  -0.8947514797E-15   0.6904013420E-01  -0.3177006710E-01  -0.3177006710E-01  -0.6852208937E-17  -0.1856453585E-16  -0.2503102472E-16   0.6875000011E+01
   0.1069040134E+01   0.0000000000E+00  -0.1064552741E-16  -0.2250000000E-02   0.0000000000E+00   0.6414088707E-18   0.7129013409E-01   0.0000000000E+00  -0.1128693629E-16   0.6875000011E+01  -0.3774757827E-14  -0.3249394715E-14   0.9581558504E-15   0.4638871222E-15   0.6048354750E-15   0.6904013420E-01  -0.3177006710E-01  -0.3177006710E-01  -0.3042990734E-16  -0.4074087974E-17   0.8349955543E-17   0.6875000011E+01
   0.1069040134E+01   0.9682299330E+00  -0.8307977567E-17  -0.2250000000E-02   0.6750000000E-03   0.1030323760E-17   0.7129013409E-01  -0.3244506705E-01  -0.9338301327E-17   0.6875000010E+01   0.1976623884E-14   0.1732801979E-14   0.1389988069E-14  -0.3808257854E-15   0.4903557556E-15   0.6904013419E-01  -0.3177006709E-01  -0.3177006709E-01  -0.5517689878E-17   0.6468331123E-16   0.1202135475E-16   0.6875000010E+01
   0.0000000000E+00   0.9682299330E+00  -0.1481913921E-16   0.0000000000E+00   0.6750000000E-03  -0.4284242721E-18   0.0000000000E+00  -0.3244506705E-01  -0.1439071494E-16   0.6875000010E+01   0.1521646041E-14   0.2675423531E-14   0.1316202980E-15   0.7018333293E-15  -0.6510093402E-15   0.6904013420E-01  -0.3177006709E-01  -0.3177006709E-01   0.1080400805E-16   0.2551990812E-16   0.1089451067E-16   0.6875000010E+01
   0.0000000000E+00   0.0000000000E+00   0.9682299330E+00   0.0000000000E+00   0.0000000000E+00   0.6750000000E-03   0.0000000000E+00   0.0000000000E+00  -0.3244506705E-01   0.6875000010E+01   0.3219646304E-14   0.1854712852E-14  -0.7777950066E-16  -0.5569108643E-15  -0.2924435252E-16   0.6904013420E-01  -0.3177006709E-01  -0.3177006709E-01  -0.1417129870E-17   0.3997373427E-17  -0.2577800062E-17   0.6875000010E+01
   0.1069040134E+01   0.0000000000E+00   0.9682299330E+00  -0.2250000000E-02   0.0000000000E+00   0.6750000000E-03   0.7129013409E-01   0.0000000000E+00  -0.3244506705E-01   0.6875000010E+01   0.4005345467E-15   0.1554312074E-14  -0.3619403216E-15   0.1553037528E-14  -0.4064221688E-16   0.6904013419E-01  -0.3177006709E-01  -0.3177006709E-01  -0.1988270191E-16   0.5771436483E-16  -0.1257405075E-17   0.6875000010E+01
   0.1069040134E+01   0.9682299330E+00   0.9682299330E+00  -0.2250000000E-02   0.6750000000E-03   0.6750000000E-03   0.7129013409E-01  -0.3244506705E-01  -0.3244506705E-01   0.6875000009E+01  -0.2002673414E-15  -0.4818085484E-15  -0.8412963255E-15  -0.6948789903E-15  -0.4181644333E-15   0.6904013419E-01  -0.3177006709E-01  -0.3177006709E-01  -0.1704902222E-17   0.6151319515E-16   0.2135179099E-16   0.6875000009E+01
   0.0000000000E+00   0.9682299330E+00   0.9682299330E+00   0.0000000000E+00   0.6750000000E-03   0.6750000000E-03   0.0000000000E+00  -0.3244506705E-01  -0.3244506705E-01   0.6875000009E+01  -0.5448844889E-14  -0.5340740218E-14  -0.4534300582E-15  -0.3269194417E-15   0.1413055950E-14   0.6904013419E-01  -0.3177006709E-01  -0.3177006709E-01   0.8425584838E-17   0.1000088762E-16   0.4303787476E-16   0.6875000009E+01
   0.2138080268E+01   0.0000000000E+00  -0.9396690927E-17  -0.4500000000E-02   0.0000000000E+00   0.5746952301E-17   0.1425802682E+00   0.0000000000E+00  -0.1514364323E-16   0.6875000010E+01  -0.4083911573E-14  -0.5467704689E-14  -0.2337085922E-14  -0.8737489657E-15  -0.1431484449E-15   0.6904013420E-01  -0.3177006710E-01  -0.3177006710E-01  -0.1180126534E-15  -0.5827646152E-16  -0.2264615437E-17   0.6875000010E+01
   0.2138080268E+01   0.9682299330E+00  -0.1360557690E-16  -0.4500000000E-02   0.6750000000E-03   0.3774353702E-17   0.1425802682E+00  -0.3244506705E-01  -0.1737993060E-16   0.6875000010E+01   0.3894532815E-14   0.4332002705E-15  -0.1384581341E-14   0.1839056525E-14  -0.1171666462E-14   0.6904013419E-01  -0.3177006709E-01  -0.3177006709E-01  -0.1007091579E-15   0.1160995675E-15  -0.6978293428E-17   0.6875000010E+01
   0.2138080268E+01   0.0000000000E+00   0.9682299330E+00  -0.4500000000E-02   0.0000000000E+00   0.6750000000E-03   0.1425802682E+00   0.0000000000E+00  -0.3244506705E-01   0.6875000010E+01   0.3041156173E-14   0.6226000867E-14   0.3355408063E-15  -0.2194644075E-14   0.3018184316E-15   0.6904013419E-01  -0.3177006709E-01  -0.3177006709E-01   0.2695371841E-16   0.4545903423E-16   0.1229838594E-18   0.6875000010E+01
   0.2138080268E+01   0.9682299330E+00   0.9682299330E+00  -0.4500000000E-02   0.6750000000E-03   0.6750000000E-03   0.1425802682E+00  -0.3244506705E-01  -0.3244506705E-01   0.6875000009E+01  -0.2100670419E-14  -0.1927233882E-14   0.9415620102E-15   0.1214016744E-14  -0.3826160458E-16   0.6904013418E-01  -0.3177006709E-01  -0.3177006709E-01   0.3775682882E-16   0.2739463385E-15   0.2271449788E-16   0.6875000009E+01
     1     2     3     4     5     6     7     8
     2     9    10     3     6    11    12     7
 VARIABLES = X,Y,Z,DU1,DU2,DU3,U1,U2,U3,S11,S22,S33,S12,S13,S23,E11,E22,E33,E12,E13,E23,SMISES
 ZONE, T="0.1300D+01" F=FEPOINT, I=   12 J=    2 ET=BRICK
   0.0000000000E+00   0.0000000000E+00   0.0000000000E+00   0.0000000000E+00   0.0000000000E+00   0.0000000000E+00   0.0000000000E+00   0.0000000000E+00   0.0000000000E+00   0.5750000009E+01   0.2035248252E-14   0.1730666396E-14   0.9879767853E-17  -0.1074035090E-14  -0.1097062882E-14   0.6679013420E-01  -0.3109506710E-01  -0.3109506710E-01  -0.1029609665E-16  -0.4710489437E-16  -0.3688865492E-16   0.5750000009E+01
   0.1066790134E+01   0.0000000000E+00  -0.6819395670E-17  -0.2250000000E-02   0.0000000000E+00   0.3826131744E-17   0.6904013409E-01   0.0000000000E+00  -0.1064552741E-16   0.5750000009E+01  -0.2992157454E-14  -0.2158031455E-14   0.9855280958E-15   0.3616198751E-15   0.4491512604E-15   0.6679013420E-01  -0.3109506710E-01  -0.3109506710E-01  -0.3741141451E-16   0.6574172722E-16  -0.4916593258E-17   0.5750000009E+01
   0.1066790134E+01   0.9689049330E+00  -0.5154261413E-17  -0.2250000000E-02   0.6750000000E-03   0.3153716154E-17   0.6904013409E-01  -0.3177006705E-01  -0.8307977567E-17   0.5750000008E+01   0.2048468044E-14   0.2279942432E-14   0.1244889838E-14  -0.3510955966E-15   0.9547308651E-15   0.6679013419E-01  -0.3109506709E-01  -0.3109506709E-01  -0.5222032726E-16   0.6332870773E-16   0.4752371024E-16   0.5750000008E+01
   0.0000000000E+00   0.9689049330E+00  -0.1583296631E-16   0.0000000000E+00   0.6750000000E-03  -0.1013827096E-17   0.0000000000E+00  -0.3177006705E-01  -0.1481913921E-16   0.5750000008E+01   0.1992227457E-14   0.3520438218E-14  -0.5099629295E-16   0.1221250179E-14  -0.5181581563E-15   0.6679013419E-01  -0.3109506709E-01  -0.3109506709E-01   0.3877485811E-16   0.2394659526E-16   0.1060594822E-17   0.5750000008E+01
   0.0000000000E+00   0.0000000000E+00   0.9689049330E+00   0.0000000000E+00   0.0000000000E+00   0.6750000000E-03   0.0000000000E+00   0.0000000000E+00  -0.3177006705E-01   0.5750000008E+01   0.2325294285E-14   0.5656090858E-15  -0.9701855296E-16  -0.3144948619E-15  -0.2031441595E-15   0.6679013419E-01  -0.3109506709E-01  -0.3109506709E-01   0.1101131877E-16   0.1658501276E-16   0.3200321994E-16   0.5750000008E+01
   0.1066790134E+01   0.0000000000E+00   0.9689049330E+00  -0.2250000000E-02   0.0000000000E+00   0.6750000000E-03   0.6904013409E-01   0.0000000000E+00  -0.3177006705E-01   0.5750000008E+01   0.2285568005E-15   0.1088445604E-14  -0.5962072913E-17   0.1325903591E-14  -0.2599696027E-15   0.6679013419E-01  -0.3109506709E-01  -0.3109506709E-01  -0.1930881849E-16   0.3378547698E-16   0.3865922091E-17   0.5750000008E+01
   0.1066790134E+01   0.9689049330E+00   0.9689049330E+00  -0.2250000000E-02   0.6750000000E-03   0.6750000000E-03   0.6904013409E-01  -0.3177006705E-01  -0.3177006705E-01   0.5750000008E+01   0.1273552209E-15  -0.1069585928E-14  -0.6237410949E-15  -0.5965149859E-15  -0.6830392236E-16   0.6679013418E-01  -0.3109506709E-01  -0.3109506709E-01   0.3321084968E-16   0.8015688836E-16   0.8594666340E-18   0.5750000008E+01
   0.0000000000E+00   0.9689049330E+00   0.9689049330E+00   0.0000000000E+00   0.6750000000E-03   0.6750000000E-03   0.0000000000E+00  -0.3177006705E-01  -0.3177006705E-01   0.5750000008E+01  -0.5138818678E-14  -0.5281243594E-14  -0.2808496779E-15  -0.9516230977E-16   0.1465125042E-14   0.6679013418E-01  -0.3109506709E-01  -0.3109506709E-01  -0.1251996018E-16   0.8010725594E-17   0.6326876544E-16   0.5750000008E+01
   0.2133580268E+01   0.0000000000E+00   0.6742302341E-17  -0.4500000000E-02   0.0000000000E+00   0.1613899327E-16   0.1380802682E+00   0.0000000000E+00  -0.9396690927E-17   0.5750000009E+01  -0.3511203798E-14  -0.4254430501E-14  -0.2872583910E-14  -0.1730198679E-14  -0.5578043857E-15   0.6679013420E-01  -0.3109506709E-01  -0.3109506709E-01  -0.1261617034E-15   0.1366429371E-15  -0.2501212269E-16   0.5750000009E+01
   0.2133580268E+01   0.9689049330E+00   0.2926990483E-18  -0.4500000000E-02   0.6750000000E-03   0.1389827594E-16   0.1380802682E+00  -0.3177006705E-01  -0.1360557690E-16   0.5750000008E+01   0.3656884713E-14   0.9640077840E-15  -0.2014288738E-14   0.2207214267E-14  -0.1177975891E-14   0.6679013419E-01  -0.3109506709E-01  -0.3109506709E-01  -0.1134715242E-15   0.7303686073E-16   0.2998625527E-16   0.5750000008E+01
   0.2133580268E+01   0.0000000000E+00   0.9689049330E+00  -0.4500000000E-02   0.0000000000E+00   0.6750000000E-03   0.1380802682E+00   0.0000000000E+00  -0.3177006705E-01   0.5750000008E+01   0.2348530263E-14   0.5532645555E-14   0.1194253478E-14  -0.3080317414E-14  -0.1083458726E-15   0.6679013419E-01  -0.3109506709E-01  -0.3109506709E-01   0.8981911243E-17   0.2521510897E-16   0.1288400230E-16   0.5750000008E+01
   0.2133580268E+01   0.9689049330E+00   0.9689049330E+00  -0.4500000000E-02   0.6750000000E-03   0.6750000000E-03   0.1380802682E+00  -0.3177006705E-01  -0.3177006705E-01   0.5750000007E+01  -0.1422384690E-14  -0.1726966618E-14   0.1552171020E-14   0.1315786529E-14   0.4185516462E-16   0.6679013418E-01  -0.3109506709E-01  -0.3109506709E-01   0.2316137932E-16   0.1707747965E-15  -0.1504258256E-17   0.5750000007E+01
     1     2     3     4     5     6     7     8
     2     9    10     3     6    11    12     7
 VARIABLES = X,Y,Z,DU1,DU2,DU3,U1,U2,U3,S11,S22,S33,S12,S13,S23,E11,E22,E33,E12,E13,E23,SMISES
 ZONE, T="0.1350D+01" F=FEPOINT, I=   12 J=    2 ET=BRICK
   0.0000000000E+00   0.0000000000E+00   0.0000000000E+00   0.0000000000E+00   0.0000000000E+00   0.0000000000E+00   0.0000000000E+00   0.0000000000E+00   0.0000000000E+00   0.4625000007E+01   0.2674355732E-14   0.2010214777E-14  -0.4353711661E-17  -0.1118781761E-14  -0.9589528399E-15   0.6454013420E-01  -0.3042006710E-01  -0.3042006710E-01  -0.8472955500E-17  -0.1750379177E-17  -0.1449990467E-16   0.4625000007E+01
   0.1064540134E+01   0.0000000000E+00  -0.8620180564E-17  -0.2250000000E-02   0.0000000000E+00  -0.1800784893E-17   0.6679013409E-01   0.0000000000E+00  -0.6819395670E-17   0.4625000007E+01  -0.4078076316E-14  -0.3608224342E-14   0.5324575066E-15  -0.5348944127E-16   0.4209795917E-15   0.6454013419E-01  -0.3042006709E-01  -0.3042006709E-01  -0.4851707061E-16   0.1499295647E-16  -0.1715367810E-17   0.4625000007E+01
   0.1064540134E+01   0.9695799330E+00  -0.7048233827E-17  -0.2250000000E-02   0.6750000000E-03  -0.1893972414E-17   0.6679013409E-01  -0.3109506705E-01  -0.5154261413E-17   0.4625000007E+01   0.2967853439E-14   0.2738905697E-14   0.9469130909E-15  -0.2340626060E-15   0.5756913358E-15   0.6454013419E-01  -0.3042006709E-01  -0.3042006709E-01  -0.3835182343E-16   0.1221078328E-15   0.1922675624E-16   0.4625000007E+01
   0.0000000000E+00   0.9695799330E+00  -0.1516473388E-16   0.0000000000E+00   0.6750000000E-03   0.6682324330E-18   0.0000000000E+00  -0.3109506705E-01  -0.1583296631E-16   0.4625000007E+01   0.2637494648E-15   0.1890830498E-14   0.1773805732E-15   0.8670552724E-15  -0.5534819644E-15   0.6454013419E-01  -0.3042006709E-01  -0.3042006709E-01   0.2509780870E-16  -0.2956511399E-17  -0.1117590590E-18   0.4625000007E+01
   0.0000000000E+00   0.0000000000E+00   0.9695799330E+00   0.0000000000E+00   0.0000000000E+00   0.6750000000E-03   0.0000000000E+00   0.0000000000E+00  -0.3109506705E-01   0.4625000007E+01   0.1891364406E-14   0.6401605234E-16  -0.1064744147E-15  -0.3189895977E-15  -0.1780488570E-16   0.6454013419E-01  -0.3042006709E-01  -0.3042006709E-01   0.1248512579E-16  -0.1043572699E-16  -0.6032816214E-17   0.4625000007E+01
   0.1064540134E+01   0.0000000000E+00   0.9695799330E+00  -0.2250000000E-02   0.0000000000E+00   0.6750000000E-03   0.6679013409E-01   0.0000000000E+00  -0.3109506705E-01   0.4625000007E+01   0.6225790838E-15   0.1598934519E-14  -0.1093930037E-15   0.1144237854E-14  -0.2030096236E-15   0.6454013419E-01  -0.3042006709E-01  -0.3042006709E-01  -0.1693414847E-16   0.7061490877E-16   0.1608358466E-17   0.4625000007E+01
   0.1064540134E+01   0.9695799330E+00   0.9695799330E+00  -0.2250000000E-02   0.6750000000E-03   0.6750000000E-03   0.6679013409E-01  -0.3109506705E-01  -0.3109506705E-01   0.4625000006E+01  -0.5035858304E-15  -0.1225230685E-14  -0.7165920332E-15  -0.2996971885E-15  -0.4074136607E-15   0.6454013418E-01  -0.3042006709E-01  -0.3042006709E-01  -0.1684760647E-16   0.7801551654E-16   0.1495689805E-16   0.4625000006E+01
   0.0000000000E+00   0.9695799330E+00   0.9695799330E+00   0.0000000000E+00   0.6750000000E-03   0.6750000000E-03   0.0000000000E+00  -0.3109506705E-01  -0.3109506705E-01   0.4625000006E+01  -0.4849111035E-14  -0.4617102681E-14  -0.1771264688E-15  -0.4262345125E-15   0.1552670406E-14   0.6454013418E-01  -0.3042006709E-01  -0.3042006709E-01   0.1609445697E-17   0.2120081250E-16   0.7861506092E-16   0.4625000006E+01
   0.2129080268E+01   0.0000000000E+00  -0.2795417600E-17  -0.4500000000E-02   0.0000000000E+00  -0.9537719941E-17   0.1335802682E+00   0.0000000000E+00   0.6742302341E-17   0.4625000007E+01  -0.5219897256E-14  -0.5999046011E-14  -0.1329108932E-14  -0.8795332120E-15  -0.5027313543E-16   0.6454013419E-01  -0.3042006709E-01  -0.3042006709E-01  -0.8009002064E-16   0.7835184374E-16  -0.2008868947E-16   0.4625000007E+01
   0.2129080268E+01   0.9695799330E+00  -0.6573947736E-17  -0.4500000000E-02   0.6750000000E-03  -0.6866646784E-17   0.1335802682E+00  -0.3109506705E-01   0.2926990483E-18   0.4625000006E+01   0.5596518638E-14   0.2460815894E-14  -0.5333366613E-15   0.1708295062E-14  -0.9138457118E-15   0.6454013418E-01  -0.3042006709E-01  -0.3042006709E-01  -0.7995743012E-16   0.1657997132E-15   0.3472773922E-16   0.4625000006E+01
   0.2129080268E+01   0.0000000000E+00   0.9695799330E+00  -0.4500000000E-02   0.0000000000E+00   0.6750000000E-03   0.1335802682E+00   0.0000000000E+00  -0.3109506705E-01   0.4625000006E+01   0.3275157281E-14   0.7336757713E-14   0.8412802322E-16  -0.1753948480E-14   0.1763887551E-15   0.6454013418E-01  -0.3042006709E-01  -0.3042006709E-01   0.1094400849E-16   0.1108693410E-15   0.2568661154E-16   0.4625000006E+01
   0.2129080268E+01   0.9695799330E+00   0.9695799330E+00  -0.4500000000E-02   0.6750000000E-03   0.6750000000E-03   0.1335802682E+00  -0.3109506705E-01  -0.3109506705E-01   0.4625000006E+01  -0.2537856405E-14  -0.2599345830E-14   0.7615335196E-15   0.6741986705E-15   0.1196899279E-16   0.6454013418E-01  -0.3042006709E-01  -0.3042006709E-01   0.2047159545E-16   0.1856538313E-15  -0.9169119088E-17   0.4625000006E+01
     1     2     3     4     5     6     7     8
     2     9    10     3     6    11    12     7
 VARIABLES = X,Y,Z,DU1,DU2,DU3,U1,U2,U3,S11,S22,S33,S12,S13,S23,E11,E22,E33,E12,E13,E23,SMISES
 ZONE, T="0.1400D+01" F=FEPOINT, I=   12 J=    2 ET=BRICK
   0.0000000000E+00   0.0000000000E+00   0.0000000000E+00   0.0000000000E+00   0.0000000000E+00   0.0000000000E+00   0.0000000000E+00   0.0000000000E+00   0.0000000000E+00   0.3500000005E+01   0.3331789056E-14   0.2599255577E-14  -0.1379752268E-16  -0.1104034717E-14  -0.9839863632E-15   0.6229013419E-01  -0.2974506709E-01  -0.2974506709E-01  -0.5872477437E-17  -0.5092245444E-16  -0.3889033128E-16   0.3500000005E+01
   0.1062290134E+01   0.0000000000E+00  -0.8587573796E-17  -0.2250000000E-02   0.0000000000E+00   0.3260676780E-19   0.6454013409E-01   0.0000000000E+00  -0.8620180564E-17   0.3500000005E+01  -0.4149920416E-14  -0.3350987107E-14   0.7884048195E-15   0.1185509484E-15   0.4920384245E-15   0.6229013419E-01  -0.2974506709E-01  -0.2974506709E-01  -0.3822392236E-16   0.7074454494E-16  -0.3447330822E-17   0.3500000005E+01
   0.1062290134E+01   0.9702549330E+00  -0.6608083901E-17  -0.2250000000E-02   0.6750000000E-03   0.4401499258E-18   0.6454013409E-01  -0.3042006705E-01  -0.7048233827E-17   0.3500000005E+01   0.2921772100E-14   0.2304246369E-14   0.1067746519E-14  -0.3170218643E-15   0.6928247275E-15   0.6229013418E-01  -0.2974506709E-01  -0.2974506709E-01  -0.1947170672E-16   0.6436283448E-16   0.2989186029E-16   0.3500000005E+01
   0.0000000000E+00   0.9702549330E+00  -0.1516178416E-16   0.0000000000E+00   0.6750000000E-03   0.2949719501E-20   0.0000000000E+00  -0.3042006705E-01  -0.1516473388E-16   0.3500000005E+01   0.3314126807E-15   0.2248930810E-14   0.1691120536E-15   0.9998885554E-15  -0.5368047050E-15   0.6229013419E-01  -0.2974506709E-01  -0.2974506709E-01   0.6910269943E-17   0.2487860374E-16   0.6856380732E-17   0.3500000005E+01
   0.0000000000E+00   0.0000000000E+00   0.9702549330E+00   0.0000000000E+00   0.0000000000E+00   0.6750000000E-03   0.0000000000E+00   0.0000000000E+00  -0.3042006705E-01   0.3500000005E+01   0.2317857307E-14   0.5792199769E-15  -0.1299940002E-15  -0.2655841077E-15  -0.5439816945E-16   0.6229013419E-01  -0.2974506709E-01  -0.2974506709E-01   0.1955993996E-17   0.2242815543E-16   0.4202532245E-16   0.3500000005E+01
   0.1062290134E+01   0.0000000000E+00   0.9702549330E+00  -0.2250000000E-02   0.0000000000E+00   0.6750000000E-03   0.6454013409E-01   0.0000000000E+00  -0.3042006705E-01   0.3500000005E+01   0.1012615904E-14   0.2003845512E-14  -0.1815664532E-16   0.1137550999E-14  -0.2814357639E-15   0.6229013418E-01  -0.2974506709E-01  -0.2974506709E-01  -0.6638933963E-18   0.6337786585E-16   0.1914511407E-17   0.3500000005E+01
   0.1062290134E+01   0.9702549330E+00   0.9702549330E+00  -0.2250000000E-02   0.6750000000E-03   0.6750000000E-03   0.6454013409E-01  -0.3042006705E-01  -0.3042006705E-01   0.3500000005E+01  -0.7865858360E-15  -0.1301060307E-14  -0.7307374090E-15  -0.4489675382E-15  -0.4730899483E-15   0.6229013418E-01  -0.2974506709E-01  -0.2974506709E-01   0.4700741853E-17   0.8370977081E-16  -0.1251551435E-16   0.3500000005E+01
   0.0000000000E+00   0.9702549330E+00   0.9702549330E+00   0.0000000000E+00   0.6750000000E-03   0.6750000000E-03   0.0000000000E+00  -0.3042006705E-01  -0.3042006705E-01   0.3500000005E+01  -0.4086099763E-14  -0.4438417215E-14  -0.2891306872E-15  -0.3950001321E-15   0.1395368050E-14   0.6229013418E-01  -0.2974506709E-01  -0.2974506709E-01   0.5403116778E-17  -0.2467489832E-16   0.4700035690E-16   0.3500000005E+01
   0.2124580268E+01   0.0000000000E+00  -0.2485453353E-17  -0.4500000000E-02   0.0000000000E+00   0.3099642472E-18   0.1290802682E+00   0.0000000000E+00  -0.2795417600E-17   0.3500000005E+01  -0.5866441957E-14  -0.6547449844E-14  -0.1424943014E-14  -0.4543508641E-15  -0.2320479681E-15   0.6229013419E-01  -0.2974506709E-01  -0.2974506709E-01  -0.1200359065E-15   0.6451927780E-16  -0.9375140409E-17   0.3500000005E+01
   0.2124580268E+01   0.9702549330E+00  -0.7153518721E-17  -0.4500000000E-02   0.6750000000E-03  -0.5795709846E-18   0.1290802682E+00  -0.3042006705E-01  -0.6573947736E-17   0.3500000005E+01   0.4193670393E-14   0.1181871320E-14  -0.8092054694E-15   0.1637711361E-14  -0.8499087374E-15   0.6229013418E-01  -0.2974506709E-01  -0.2974506709E-01  -0.1077722589E-15   0.1610248862E-15   0.1754006194E-16   0.3500000005E+01
   0.2124580268E+01   0.0000000000E+00   0.9702549330E+00  -0.4500000000E-02   0.0000000000E+00   0.6750000000E-03   0.1290802682E+00   0.0000000000E+00  -0.3042006705E-01   0.3500000005E+01   0.3717983103E-14   0.6913716449E-14   0.7377401492E-17  -0.1679245551E-14   0.1527005795E-15   0.6229013418E-01  -0.2974506709E-01  -0.2974506709E-01   0.1050204916E-16   0.7352240404E-16   0.3121385444E-17   0.3500000005E+01
   0.2124580268E+01   0.9702549330E+00   0.9702549330E+00  -0.4500000000E-02   0.6750000000E-03   0.6750000000E-03   0.1290802682E+00  -0.3042006705E-01  -0.3042006705E-01   0.3500000004E+01  -0.1713889717E-14  -0.2071260613E-14   0.6470350232E-15   0.2728254213E-15   0.2011027387E-15   0.6229013417E-01  -0.2974506709E-01  -0.2974506709E-01   0.3493818313E-16   0.1785109468E-15   0.5604269691E-16   0.3500000004E+01
     1     2     3     4     5     6     7     8
     2     9    10     3     6    11    12     7
 VARIABLES = X,Y,Z,DU1,DU2,DU3,U1,U2,U3,S11,S22,S33,S12,S13,S23,E11,E22,E33,E12,E13,E23,SMISES
 ZONE, T="0.1450D+01" F=FEPOINT, I=   12 J=    2 ET=BRICK
   0.0000000000E+00   0.0000000000E+00   0.0000000000E+00   0.0000000000E+00   0.0000000000E+00   0.0000000000E+00   0.0000000000E+00   0.0000000000E+00   0.0000000000E+00   0.2375000004E+01   0.2876179559E-14   0.1874523820E-14   0.9555699806E-17  -0.1035569138E-14  -0.1077027594E-14   0.6004013419E-01  -0.2907006709E-01  -0.2907006709E-01   0.1375048023E-16  -0.4071398444E-16  -0.2713211611E-16   0.2375000004E+01
   0.1060040134E+01   0.0000000000E+00  -0.8521265069E-17  -0.2250000000E-02   0.0000000000E+00   0.6630872640E-19   0.6229013409E-01   0.0000000000E+00  -0.8587573796E-17   0.2375000004E+01  -0.4202709390E-14  -0.3381464853E-14   0.8953834163E-15   0.1358550580E-15   0.4680386404E-15   0.6004013419E-01  -0.2907006709E-01  -0.2907006709E-01  -0.7706209054E-16   0.4262665357E-16  -0.5246024512E-17   0.2375000004E+01
   0.1060040134E+01   0.9709299330E+00  -0.6695071469E-17  -0.2250000000E-02   0.6750000000E-03  -0.8698756812E-19   0.6229013409E-01  -0.2974506705E-01  -0.6608083901E-17   0.2375000003E+01   0.2942820004E-14   0.2347605522E-14   0.1267653410E-14  -0.3393625766E-15   0.6665121837E-15   0.6004013418E-01  -0.2907006709E-01  -0.2907006709E-01  -0.5922015918E-16   0.3656097839E-16   0.1830807547E-16   0.2375000003E+01
   0.0000000000E+00   0.9709299330E+00  -0.1568945978E-16   0.0000000000E+00   0.6750000000E-03  -0.5276756263E-18   0.0000000000E+00  -0.2974506705E-01  -0.1516178416E-16   0.2375000003E+01   0.6492406501E-15   0.2791258547E-14   0.1671558763E-15   0.9731263751E-15  -0.6077034073E-15   0.6004013418E-01  -0.2907006709E-01  -0.2907006709E-01   0.2876589283E-16   0.4477418607E-16   0.3704134073E-17   0.2375000003E+01
   0.0000000000E+00   0.0000000000E+00   0.9709299330E+00   0.0000000000E+00   0.0000000000E+00   0.6750000000E-03   0.0000000000E+00   0.0000000000E+00  -0.2974506705E-01   0.2375000003E+01   0.2127918491E-14   0.2690959818E-15  -0.1262609130E-15  -0.2511975689E-15   0.1034255992E-17   0.6004013418E-01  -0.2907006709E-01  -0.2907006709E-01  -0.5511599113E-18   0.3570656160E-16   0.6936279646E-17   0.2375000003E+01
   0.1060040134E+01   0.0000000000E+00   0.9709299330E+00  -0.2250000000E-02   0.0000000000E+00   0.6750000000E-03   0.6229013409E-01   0.0000000000E+00  -0.2974506705E-01   0.2375000003E+01   0.1017330808E-14   0.1566464029E-14  -0.2407097327E-15   0.1403366798E-14  -0.2468380703E-15   0.6004013418E-01  -0.2907006709E-01  -0.2907006709E-01   0.7588664059E-17   0.3048647658E-16  -0.3446370788E-18   0.2375000003E+01
   0.1060040134E+01   0.9709299330E+00   0.9709299330E+00  -0.2250000000E-02   0.6750000000E-03   0.6750000000E-03   0.6229013409E-01  -0.2974506705E-01  -0.2974506705E-01   0.2375000003E+01  -0.6024560793E-15  -0.1104049149E-14  -0.1029940944E-14  -0.6799790820E-15  -0.4260179847E-15   0.6004013417E-01  -0.2907006709E-01  -0.2907006709E-01   0.2481184314E-16   0.7143170588E-16   0.1349471589E-16   0.2375000003E+01
   0.0000000000E+00   0.9709299330E+00   0.9709299330E+00   0.0000000000E+00   0.6750000000E-03   0.6750000000E-03   0.0000000000E+00  -0.2974506705E-01  -0.2974506705E-01   0.2375000003E+01  -0.4660168621E-14  -0.4760960135E-14  -0.1673258241E-15  -0.3869874276E-15   0.1446942450E-14   0.6004013418E-01  -0.2907006709E-01  -0.2907006709E-01  -0.7932801501E-17  -0.6057568986E-17   0.5294930484E-16   0.2375000003E+01
   0.2120080268E+01   0.0000000000E+00  -0.2044512023E-17  -0.4500000000E-02   0.0000000000E+00   0.4409413302E-18   0.1245802682E+00   0.0000000000E+00  -0.2485453353E-17   0.2375000004E+01  -0.4946424841E-14  -0.5717140130E-14  -0.1685221209E-14  -0.8163049923E-15  -0.5528363275E-16   0.6004013419E-01  -0.2907006709E-01  -0.2907006709E-01  -0.7151253797E-16   0.7129877121E-16  -0.8009229961E-17   0.2375000004E+01
   0.2120080268E+01   0.9709299330E+00  -0.5767119790E-17  -0.4500000000E-02   0.6750000000E-03   0.1386398931E-17   0.1245802682E+00  -0.2974506705E-01  -0.7153518721E-17   0.2375000003E+01   0.4366012889E-14   0.1014706250E-14  -0.9622717964E-15   0.2066884953E-14  -0.8970825614E-15   0.6004013418E-01  -0.2907006709E-01  -0.2907006709E-01  -0.9995404121E-16   0.2212764247E-15   0.1664300739E-16   0.2375000003E+01
   0.2120080268E+01   0.0000000000E+00   0.9709299330E+00  -0.4500000000E-02   0.0000000000E+00   0.6750000000E-03   0.1245802682E+00   0.0000000000E+00  -0.2974506705E-01   0.2375000003E+01   0.2700092095E-14   0.6637521838E-14   0.3831487613E-15  -0.1656465574E-14   0.2157091316E-15   0.6004013418E-01  -0.2907006709E-01  -0.2907006709E-01  -0.2768573523E-16   0.5597131954E-16   0.1644064007E-16   0.2375000003E+01
   0.2120080268E+01   0.9709299330E+00   0.9709299330E+00  -0.4500000000E-02   0.6750000000E-03   0.6750000000E-03   0.1245802682E+00  -0.2974506705E-01  -0.2974506705E-01   0.2375000003E+01  -0.1533843211E-14  -0.1521228783E-14   0.7693356087E-15   0.7504953248E-15   0.4832586318E-16   0.6004013417E-01  -0.2907006708E-01  -0.2907006708E-01   0.7005380829E-18   0.2423680077E-15   0.3782394497E-16   0.2375000003E+01
     1     2     3     4     5     6     7     8
     2     9    10     3     6    11    12     7
 VARIABLES = X,Y,Z,DU1,DU2,DU3,U1,U2,U3,S11,S22,S33,S12,S13,S23,E11,E22,E33,E12,E13,E23,SMISES
 ZONE, T="0.1500D+01" F=FEPOINT, I=   12 J=    2 ET=BRICK
   0.0000000000E+00   0.0000000000E+00   0.0000000000E+00   0.0000000000E+00   0.0000000000E+00   0.0000000000E+00   0.0000000000E+00   0.0000000000E+00   0.0000000000E+00   0.1250000002E+01   0.2828786021E-14   0.1942867506E-14  -0.1815083727E-16  -0.1026533072E-14  -0.1008467898E-14   0.5779013419E-01  -0.2839506709E-01  -0.2839506709E-01  -0.7574851421E-17  -0.4167073883E-16  -0.4156075222E-16   0.1250000002E+01
   0.1057790134E+01   0.0000000000E+00  -0.8569488526E-17  -0.2250000000E-02   0.0000000000E+00  -0.4822345660E-19   0.6004013409E-01   0.0000000000E+00  -0.8521265069E-17   0.1250000002E+01  -0.4155996407E-14  -0.3097103708E-14   0.8686984376E-15  -0.1433102611E-15   0.4818859124E-15   0.5779013418E-01  -0.2839506709E-01  -0.2839506709E-01  -0.4147831457E-16   0.5842705663E-16   0.4756590014E-17   0.1250000002E+01
   0.1057790134E+01   0.9716049330E+00  -0.6613257584E-17  -0.2250000000E-02   0.6750000000E-03   0.8181388572E-19   0.6004013409E-01  -0.2907006705E-01  -0.6695071469E-17   0.1250000002E+01   0.2790796021E-14   0.2398037051E-14   0.1217190435E-14  -0.1839564192E-15   0.6706363114E-15   0.5779013418E-01  -0.2839506709E-01  -0.2839506709E-01  -0.4643129822E-16   0.8141651190E-16   0.1239830040E-16   0.1250000002E+01
   0.0000000000E+00   0.9716049330E+00  -0.1521457220E-16   0.0000000000E+00   0.6750000000E-03   0.4748875787E-18   0.0000000000E+00  -0.2907006705E-01  -0.1568945978E-16   0.1250000002E+01   0.4818931864E-15   0.2518600101E-14   0.3596484794E-16   0.9068892277E-15  -0.4568347441E-15   0.5779013418E-01  -0.2839506709E-01  -0.2839506709E-01   0.2889126826E-16   0.3350298248E-16   0.3600400297E-16   0.1250000002E+01
   0.0000000000E+00   0.0000000000E+00   0.9716049330E+00   0.0000000000E+00   0.0000000000E+00   0.6750000000E-03   0.0000000000E+00   0.0000000000E+00  -0.2907006705E-01   0.1250000002E+01   0.2028598876E-14   0.2655598043E-15  -0.1207118007E-15  -0.2433753352E-15  -0.1754696366E-16   0.5779013418E-01  -0.2839506709E-01  -0.2839506709E-01  -0.1069448666E-17   0.4305327119E-16   0.4149003408E-16   0.1250000002E+01
   0.1057790134E+01   0.0000000000E+00   0.9716049330E+00  -0.2250000000E-02   0.0000000000E+00   0.6750000000E-03   0.6004013409E-01   0.0000000000E+00  -0.2907006705E-01   0.1250000002E+01   0.9567400401E-15   0.1761117748E-14   0.2953286218E-16   0.1147006554E-14  -0.2210476926E-15   0.5779013418E-01  -0.2839506709E-01  -0.2839506709E-01   0.6472424935E-17   0.2751613288E-16  -0.1019673402E-16   0.1250000002E+01
   0.1057790134E+01   0.9716049330E+00   0.9716049330E+00  -0.2250000000E-02   0.6750000000E-03   0.6750000000E-03   0.6004013409E-01  -0.2907006705E-01  -0.2907006705E-01   0.1250000002E+01  -0.9755282557E-15  -0.1173802774E-14  -0.7665004658E-15  -0.6287210137E-15  -0.4275870047E-15   0.5779013417E-01  -0.2839506708E-01  -0.2839506708E-01   0.5123831804E-17   0.1263723776E-15   0.2121491932E-16   0.1250000002E+01
   0.0000000000E+00   0.9716049330E+00   0.9716049330E+00   0.0000000000E+00   0.6750000000E-03   0.6750000000E-03   0.0000000000E+00  -0.2907006705E-01  -0.2907006705E-01   0.1250000002E+01  -0.4322969664E-14  -0.4537870319E-14  -0.3521003680E-15  -0.3214606202E-15   0.1324581787E-14   0.5779013417E-01  -0.2839506709E-01  -0.2839506709E-01  -0.5864251543E-19  -0.2705732283E-16   0.1360031860E-16   0.1250000002E+01
   0.2115580268E+01   0.0000000000E+00  -0.1751181336E-17  -0.4500000000E-02   0.0000000000E+00   0.2933306870E-18   0.1200802682E+00   0.0000000000E+00  -0.2044512023E-17   0.1250000002E+01  -0.4347175948E-14  -0.5396176378E-14  -0.2230317537E-14  -0.8408798597E-15  -0.2132343362E-15   0.5779013418E-01  -0.2839506709E-01  -0.2839506709E-01  -0.1313007415E-15   0.6773403794E-16  -0.8621832963E-17   0.1250000002E+01
   0.2115580268E+01   0.9716049330E+00  -0.6263522172E-17  -0.4500000000E-02   0.6750000000E-03  -0.4964023828E-18   0.1200802682E+00  -0.2907006705E-01  -0.5767119790E-17   0.1250000002E+01   0.4460252891E-14   0.1147857445E-14  -0.1378394998E-14   0.1968556691E-14  -0.9861618048E-15   0.5779013418E-01  -0.2839506709E-01  -0.2839506709E-01  -0.1134912302E-15   0.2107856844E-15   0.2514120604E-16   0.1250000002E+01
   0.2115580268E+01   0.0000000000E+00   0.9716049330E+00  -0.4500000000E-02   0.0000000000E+00   0.6750000000E-03   0.1200802682E+00   0.0000000000E+00  -0.2907006705E-01   0.1250000002E+01   0.3408770965E-14   0.6789995147E-14   0.6056240350E-16  -0.1998877800E-14   0.2299648388E-15   0.5779013418E-01  -0.2839506709E-01  -0.2839506709E-01   0.3005242268E-17   0.7570793476E-16   0.8480013421E-18   0.1250000002E+01
   0.2115580268E+01   0.9716049330E+00   0.9716049330E+00  -0.4500000000E-02   0.6750000000E-03   0.6750000000E-03   0.1200802682E+00  -0.2907006705E-01  -0.2907006705E-01   0.1250000002E+01  -0.1825690275E-14  -0.1896707274E-14   0.6931012274E-15   0.3503348539E-15   0.7913810121E-16   0.5779013417E-01  -0.2839506708E-01  -0.2839506708E-01   0.2200089027E-16   0.1441659581E-15   0.3479186796E-16   0.1250000002E+01
     1     2     3     4     5     6     7     8
     2     9    10     3     6    11    12     7
 VARIABLES = X,Y,Z,DU1,DU2,DU3,U1,U2,U3,S11,S22,S33,S12,S13,S23,E11,E22,E33,E12,E13,E23,SMISES
 ZONE, T="0.1550D+01" F=FEPOINT, I=   12 J=    2 ET=BRICK
   0.0000000000E+00   0.0000000000E+00   0.0000000000E+00   0.0000000000E+00   0.0000000000E+00   0.0000000000E+00   0.0000000000E+00   0.0000000000E+00   0.0000000000E+00   0.1250000002E+00   0.2555343659E-14   0.1546193041E-14  -0.2812354623E-16  -0.1053566775E-14  -0.1010804320E-14   0.5554013418E-01  -0.2772006709E-01  -0.2772006709E-01   0.1348582355E-16  -0.4022727081E-16  -0.2985165719E-16   0.1250000002E+00
   0.1055540134E+01   0.0000000000E+00  -0.8318693933E-17  -0.2250000000E-02   0.0000000000E+00   0.2507945926E-18   0.5779013409E-01   0.0000000000E+00  -0.8569488526E-17   0.1250000002E+00  -0.4114520964E-14  -0.3003586577E-14   0.1068480375E-14   0.1099021549E-15   0.4871408576E-15   0.5554013418E-01  -0.2772006709E-01  -0.2772006709E-01  -0.8466750518E-16   0.3701977992E-16   0.2184653215E-17   0.1250000002E+00
   0.1055540134E+01   0.9722799330E+00  -0.6324033581E-17  -0.2250000000E-02   0.6750000000E-03   0.2892240031E-18   0.5779013409E-01  -0.2839506705E-01  -0.6613257584E-17   0.1250000002E+00   0.2553172311E-14   0.2064696653E-14   0.1420940029E-14  -0.4237792406E-15   0.7312926111E-15   0.5554013417E-01  -0.2772006709E-01  -0.2772006709E-01  -0.6964631735E-16   0.3323872751E-16   0.1151827331E-16   0.1250000002E+00
   0.0000000000E+00   0.9722799330E+00  -0.1531729668E-16   0.0000000000E+00   0.6750000000E-03  -0.1027244781E-18   0.0000000000E+00  -0.2839506705E-01  -0.1521457220E-16   0.1250000002E+00   0.9374660091E-15   0.2901961704E-14   0.3821390591E-16   0.1022123956E-14  -0.5238674613E-15   0.5554013418E-01  -0.2772006709E-01  -0.2772006709E-01   0.2794066139E-16   0.4735408273E-16   0.1333598598E-16   0.1250000002E+00
   0.0000000000E+00   0.0000000000E+00   0.9722799330E+00   0.0000000000E+00   0.0000000000E+00   0.6750000000E-03   0.0000000000E+00   0.0000000000E+00  -0.2839506705E-01   0.1250000002E+00   0.2321132158E-14   0.4696221862E-15  -0.1136183024E-15  -0.2208225846E-15  -0.2671874434E-16   0.5554013418E-01  -0.2772006709E-01  -0.2772006709E-01  -0.3440955576E-17   0.5483138080E-16   0.1838576417E-16   0.1250000002E+00
   0.1055540134E+01   0.0000000000E+00   0.9722799330E+00  -0.2250000000E-02   0.0000000000E+00   0.6750000000E-03   0.5779013409E-01   0.0000000000E+00  -0.2839506705E-01   0.1250000002E+00   0.1243300714E-14   0.1938764490E-14  -0.1604028757E-15   0.1377351119E-14  -0.2552421171E-15   0.5554013417E-01  -0.2772006709E-01  -0.2772006709E-01   0.1439692274E-16   0.9141264575E-18   0.8879566772E-17   0.1250000002E+00
   0.1055540134E+01   0.9722799330E+00   0.9722799330E+00  -0.2250000000E-02   0.6750000000E-03   0.6750000000E-03   0.5779013409E-01  -0.2839506705E-01  -0.2839506705E-01   0.1250000002E+00  -0.7598999490E-15  -0.1214846774E-14  -0.9454364608E-15  -0.7666399441E-15  -0.3892982256E-15   0.5554013417E-01  -0.2772006708E-01  -0.2772006708E-01   0.1779812782E-16   0.1069449199E-15   0.3537433410E-17   0.1250000002E+00
   0.0000000000E+00   0.9722799330E+00   0.9722799330E+00   0.0000000000E+00   0.6750000000E-03   0.6750000000E-03   0.0000000000E+00  -0.2839506705E-01  -0.2839506705E-01   0.1250000002E+00  -0.4614913549E-14  -0.4867264221E-14  -0.2700660558E-15  -0.3321901612E-15   0.1381583559E-14   0.5554013417E-01  -0.2772006708E-01  -0.2772006708E-01  -0.2247642696E-16  -0.3493344154E-16   0.5260709021E-16   0.1250000002E+00
   0.2111080268E+01   0.0000000000E+00  -0.8926616688E-18  -0.4500000000E-02   0.0000000000E+00   0.8585196673E-18   0.1155802682E+00   0.0000000000E+00  -0.1751181336E-17   0.1250000002E+00  -0.3942939871E-14  -0.5021497333E-14  -0.2063820646E-14  -0.6976585278E-15  -0.1793104786E-15   0.5554013418E-01  -0.2772006709E-01  -0.2772006709E-01  -0.7114776908E-16   0.8657594171E-16  -0.3065814904E-17   0.1250000002E+00
   0.2111080268E+01   0.9722799330E+00  -0.5205041953E-17  -0.4500000000E-02   0.6750000000E-03   0.1058480219E-17   0.1155802682E+00  -0.2839506705E-01  -0.6263522172E-17   0.1250000002E+00   0.3868708978E-14   0.5549190793E-15  -0.1277039080E-14   0.2272255029E-14  -0.9067902975E-15   0.5554013417E-01  -0.2772006709E-01  -0.2772006709E-01  -0.5421603193E-16   0.1305735813E-15   0.6894668644E-17   0.1250000002E+00
   0.2111080268E+01   0.0000000000E+00   0.9722799330E+00  -0.4500000000E-02   0.0000000000E+00   0.6750000000E-03   0.1155802682E+00   0.0000000000E+00  -0.2839506705E-01   0.1250000002E+00   0.2821268001E-14   0.6315862994E-14   0.5581507326E-16  -0.1559396479E-14   0.2702997998E-15   0.5554013417E-01  -0.2772006709E-01  -0.2772006709E-01  -0.2965682431E-16   0.9755966867E-16   0.9413077532E-17   0.1250000002E+00
   0.2111080268E+01   0.9722799330E+00   0.9722799330E+00  -0.4500000000E-02   0.6750000000E-03   0.6750000000E-03   0.1155802682E+00  -0.2839506705E-01  -0.2839506705E-01   0.1250000002E+00  -0.1679147306E-14  -0.1608630912E-14   0.6219964616E-15   0.6508638334E-15   0.5463569737E-16   0.5554013417E-01  -0.2772006708E-01  -0.2772006708E-01  -0.1768567533E-16   0.1286770658E-15   0.2610044900E-16   0.1250000002E+00
     1     2     3     4     5     6     7     8
     2     9    10     3     6    11    12     7
 VARIABLES = X,Y,Z,DU1,DU2,DU3,U1,U2,U3,S11,S22,S33,S12,S13,S23,E11,E22,E33,E12,E13,E23,SMISES
 ZONE, T="0.1600D+01" F=FEPOINT, I=   12 J=    2 ET=BRICK
   0.0000000000E+00   0.0000000000E+00   0.0000000000E+00   0.0000000000E+00   0.0000000000E+00   0.0000000000E+00   0.0000000000E+00   0.0000000000E+00   0.0000000000E+00  -0.1000000002E+01   0.2853503598E-14   0.1780234961E-14   0.2349446203E-17  -0.9660151001E-15  -0.9372019095E-15   0.5329013418E-01  -0.2704506709E-01  -0.2704506709E-01   0.9235568302E-17  -0.1896611169E-16  -0.2877019244E-16   0.1000000002E+01
   0.1053290134E+01   0.0000000000E+00  -0.8017742143E-17  -0.2250000000E-02   0.0000000000E+00   0.3009517905E-18   0.5554013409E-01   0.0000000000E+00  -0.8318693933E-17  -0.1000000002E+01  -0.4258220527E-14  -0.3301916673E-14   0.7829496262E-15  -0.4006398055E-16   0.4083060505E-15   0.5329013418E-01  -0.2704506709E-01  -0.2704506709E-01  -0.6749009278E-16   0.2893832882E-17  -0.2276789832E-17   0.1000000002E+01
   0.1053290134E+01   0.9729549330E+00  -0.6368791855E-17  -0.2250000000E-02   0.6750000000E-03  -0.4475827435E-19   0.5554013409E-01  -0.2772006705E-01  -0.6324033581E-17  -0.1000000001E+01   0.2904905182E-14   0.2278216599E-14   0.1166284954E-14  -0.4203510234E-15   0.5485798561E-15   0.5329013417E-01  -0.2704506709E-01  -0.2704506709E-01  -0.3019766535E-16   0.9119544076E-16   0.1328516196E-16   0.1000000001E+01
   0.0000000000E+00   0.9729549330E+00  -0.1495155460E-16   0.0000000000E+00   0.6750000000E-03   0.3657420835E-18   0.0000000000E+00  -0.2772006705E-01  -0.1531729668E-16  -0.1000000001E+01   0.6898776195E-15   0.2604904793E-14   0.1128399100E-15   0.1037803881E-14  -0.5171822879E-15   0.5329013417E-01  -0.2704506709E-01  -0.2704506709E-01   0.2998546652E-17   0.1509012373E-16   0.5096098760E-17   0.1000000001E+01
   0.0000000000E+00   0.0000000000E+00   0.9729549330E+00   0.0000000000E+00   0.0000000000E+00   0.6750000000E-03   0.0000000000E+00   0.0000000000E+00  -0.2772006705E-01  -0.1000000001E+01   0.2021975814E-14   0.3471495827E-15  -0.1021918168E-15  -0.1255686403E-15  -0.1468849472E-16   0.5329013417E-01  -0.2704506709E-01  -0.2704506709E-01  -0.7981113368E-17   0.3821603767E-16   0.2776571934E-16   0.1000000001E+01
   0.1053290134E+01   0.0000000000E+00   0.9729549330E+00  -0.2250000000E-02   0.0000000000E+00   0.6750000000E-03   0.5554013409E-01   0.0000000000E+00  -0.2772006705E-01  -0.1000000001E+01   0.1045086375E-14   0.1711682598E-14  -0.1228761081E-15   0.9972829573E-15  -0.1923197583E-15   0.5329013417E-01  -0.2704506709E-01  -0.2704506709E-01   0.1392883519E-16   0.3780554511E-16  -0.2103865816E-17   0.1000000001E+01
   0.1053290134E+01   0.9729549330E+00   0.9729549330E+00  -0.2250000000E-02   0.6750000000E-03   0.6750000000E-03   0.5554013409E-01  -0.2772006705E-01  -0.2772006705E-01  -0.1000000001E+01  -0.7013263668E-15  -0.1024500969E-14  -0.8983198982E-15  -0.5990110448E-15  -0.4996254290E-15   0.5329013416E-01  -0.2704506708E-01  -0.2704506708E-01  -0.9501601000E-17   0.7610913533E-16   0.1592830555E-16   0.1000000001E+01
   0.0000000000E+00   0.9729549330E+00   0.9729549330E+00   0.0000000000E+00   0.6750000000E-03   0.6750000000E-03   0.0000000000E+00  -0.2772006705E-01  -0.2772006705E-01  -0.1000000001E+01  -0.4827698444E-14  -0.4960826959E-14  -0.2434644830E-15  -0.3384673213E-15   0.1303425624E-14   0.5329013417E-01  -0.2704506708E-01  -0.2704506708E-01  -0.6517717285E-17  -0.1586503280E-17   0.6916740374E-16   0.1000000001E+01
   0.2106580268E+01   0.0000000000E+00  -0.2439391627E-17  -0.4500000000E-02   0.0000000000E+00  -0.1546729958E-17   0.1110802682E+00   0.0000000000E+00  -0.8926616688E-18  -0.1000000002E+01  -0.4448452585E-14  -0.5559903038E-14  -0.1506327461E-14  -0.7989334365E-15  -0.1710272468E-15   0.5329013418E-01  -0.2704506709E-01  -0.2704506709E-01  -0.9965688296E-16   0.9624667396E-16  -0.1907179768E-16   0.1000000002E+01
   0.2106580268E+01   0.9729549330E+00  -0.6641817759E-17  -0.4500000000E-02   0.6750000000E-03  -0.1436775806E-17   0.1110802682E+00  -0.2772006705E-01  -0.5205041953E-17  -0.1000000001E+01   0.4380887076E-14   0.1299200887E-14  -0.9080920314E-15   0.1910049204E-14  -0.8067129098E-15   0.5329013417E-01  -0.2704506709E-01  -0.2704506709E-01  -0.9397042516E-16   0.1482068401E-15   0.3012641106E-16   0.1000000001E+01
   0.2106580268E+01   0.0000000000E+00   0.9729549330E+00  -0.4500000000E-02   0.0000000000E+00   0.6750000000E-03   0.1110802682E+00   0.0000000000E+00  -0.2772006705E-01  -0.1000000001E+01   0.2826353277E-14   0.6420690390E-14   0.6438426487E-16  -0.1173797777E-14   0.3350488267E-15   0.5329013417E-01  -0.2704506709E-01  -0.2704506709E-01   0.4855660193E-17   0.7416464348E-16   0.5033314156E-17   0.1000000001E+01
   0.2106580268E+01   0.9729549330E+00   0.9729549330E+00  -0.4500000000E-02   0.6750000000E-03   0.6750000000E-03   0.1110802682E+00  -0.2772006705E-01  -0.2772006705E-01  -0.1000000001E+01  -0.1477335683E-14  -0.1258413726E-14   0.7194703297E-15   0.3038736115E-15   0.1972918526E-15   0.5329013416E-01  -0.2704506708E-01  -0.2704506708E-01   0.4368112395E-16   0.1575214922E-15   0.3114406333E-16   0.1000000001E+01
     1     2     3     4     5     6     7     8
     2     9    10     3     6    11    12     7
 VARIABLES = X,Y,Z,DU1,DU2,DU3,U1,U2,U3,S11,S22,S33,S12,S13,S23,E11,E22,E33,E12,E13,E23,SMISES
 ZONE, T="0.1650D+01" F=FEPOINT, I=   12 J=    2 ET=BRICK
   0.0000000000E+00   0.0000000000E+00   0.0000000000E+00   0.0000000000E+00   0.0000000000E+00   0.0000000000E+00   0.0000000000E+00   0.0000000000E+00   0.0000000000E+00  -0.2125000003E+01   0.2973324058E-14   0.1896835074E-14  -0.2658816182E-16  -0.9314884447E-15  -0.9192128418E-15   0.5104013417E-01  -0.2637006709E-01  -0.2637006709E-01  -0.1690474497E-18  -0.4237321253E-16  -0.3615273747E-16   0.2125000003E+01
   0.1051040134E+01   0.0000000000E+00  -0.8024825141E-17  -0.2250000000E-02   0.0000000000E+00  -0.7082998129E-20   0.5329013409E-01   0.0000000000E+00  -0.8017742143E-17  -0.2125000003E+01  -0.4755828051E-14  -0.3547998265E-14   0.1156498506E-14   0.1770078439E-15   0.3531888276E-15   0.5104013417E-01  -0.2637006709E-01  -0.2637006709E-01  -0.4562742249E-16   0.3244184029E-16   0.4213926476E-17   0.2125000003E+01
   0.1051040134E+01   0.9736299330E+00  -0.6672775956E-17  -0.2250000000E-02   0.6750000000E-03  -0.3039841008E-18   0.5329013409E-01  -0.2704506705E-01  -0.6368791855E-17  -0.2125000003E+01   0.3081597842E-14   0.2478946296E-14   0.1418470660E-14  -0.5159262178E-15   0.5056651340E-15   0.5104013417E-01  -0.2637006708E-01  -0.2637006708E-01  -0.3177699145E-16   0.9447208576E-16   0.1357872351E-16   0.2125000003E+01
   0.0000000000E+00   0.9736299330E+00  -0.1481401858E-16   0.0000000000E+00   0.6750000000E-03   0.1375360219E-18   0.0000000000E+00  -0.2704506705E-01  -0.1495155460E-16  -0.2125000003E+01   0.1127526101E-14   0.2831166121E-14   0.1195599440E-15   0.8346672400E-15  -0.4660640955E-15   0.5104013417E-01  -0.2637006709E-01  -0.2637006709E-01   0.1345250388E-16   0.2218537860E-16  -0.9051424058E-17   0.2125000003E+01
   0.0000000000E+00   0.0000000000E+00   0.9736299330E+00   0.0000000000E+00   0.0000000000E+00   0.6750000000E-03   0.0000000000E+00   0.0000000000E+00  -0.2704506705E-01  -0.2125000003E+01   0.2264970588E-14   0.6502369226E-15  -0.9089947289E-16  -0.1800014235E-15  -0.4369593329E-16   0.5104013417E-01  -0.2637006709E-01  -0.2637006709E-01   0.5546846768E-17   0.4840635267E-16   0.2739388608E-16   0.2125000003E+01
   0.1051040134E+01   0.0000000000E+00   0.9736299330E+00  -0.2250000000E-02   0.0000000000E+00   0.6750000000E-03   0.5329013409E-01   0.0000000000E+00  -0.2704506705E-01  -0.2125000003E+01   0.1383597552E-14   0.1925293708E-14  -0.3159064369E-15   0.1255517759E-14  -0.2495460680E-15   0.5104013417E-01  -0.2637006708E-01  -0.2637006708E-01  -0.8561262473E-17   0.3300853851E-16  -0.5797189333E-17   0.2125000003E+01
   0.1051040134E+01   0.9736299330E+00   0.9736299330E+00  -0.2250000000E-02   0.6750000000E-03   0.6750000000E-03   0.5329013409E-01  -0.2704506705E-01  -0.2704506705E-01  -0.2125000003E+01  -0.7873152308E-15  -0.1068856481E-14  -0.1044338511E-14  -0.8528999787E-15  -0.4460485147E-15   0.5104013416E-01  -0.2637006708E-01  -0.2637006708E-01   0.1078411975E-16   0.7161788423E-16   0.2166147842E-16   0.2125000003E+01
   0.0000000000E+00   0.9736299330E+00   0.9736299330E+00   0.0000000000E+00   0.6750000000E-03   0.6750000000E-03   0.0000000000E+00  -0.2704506705E-01  -0.2704506705E-01  -0.2125000003E+01  -0.4730820892E-14  -0.5050667848E-14  -0.2187782593E-15  -0.3189728960E-15   0.1225072268E-14   0.5104013416E-01  -0.2637006708E-01  -0.2637006708E-01  -0.1318305530E-16  -0.2547550506E-16   0.5326112915E-16   0.2125000003E+01
   0.2102080268E+01   0.0000000000E+00  -0.2414554076E-17  -0.4500000000E-02   0.0000000000E+00   0.2483755098E-19   0.1065802682E+00   0.0000000000E+00  -0.2439391627E-17  -0.2125000003E+01  -0.4451806457E-14  -0.5476769836E-14  -0.1307191213E-14  -0.5295962096E-15  -0.8899355930E-16   0.5104013417E-01  -0.2637006709E-01  -0.2637006709E-01  -0.1356275521E-15   0.4856423207E-16  -0.1395113505E-16   0.2125000003E+01
   0.2102080268E+01   0.9736299330E+00  -0.6264447292E-17  -0.4500000000E-02   0.6750000000E-03   0.3773704666E-18   0.1065802682E+00  -0.2704506705E-01  -0.6641817759E-17  -0.2125000003E+01   0.4043372248E-14   0.9232730583E-15  -0.7046589645E-15   0.1628647957E-14  -0.6665057325E-15   0.5104013417E-01  -0.2637006708E-01  -0.2637006708E-01  -0.1163947458E-15   0.1801197885E-15   0.2844062784E-16   0.2125000003E+01
   0.2102080268E+01   0.0000000000E+00   0.9736299330E+00  -0.4500000000E-02   0.0000000000E+00   0.6750000000E-03   0.1065802682E+00   0.0000000000E+00  -0.2704506705E-01  -0.2125000003E+01   0.2840595761E-14   0.6326766233E-14  -0.1704459785E-15  -0.9151731463E-15   0.3443308020E-15   0.5104013417E-01  -0.2637006708E-01  -0.2637006708E-01  -0.9853303873E-17   0.2617412599E-16   0.2107049224E-16   0.2125000003E+01
   0.2102080268E+01   0.9736299330E+00   0.9736299330E+00  -0.4500000000E-02   0.6750000000E-03   0.6750000000E-03   0.1065802682E+00  -0.2704506705E-01  -0.2704506705E-01  -0.2125000003E+01  -0.1800243329E-14  -0.1564587938E-14   0.2317668611E-15   0.1069414615E-15   0.3142245125E-15   0.5104013416E-01  -0.2637006708E-01  -0.2637006708E-01   0.3707855308E-17   0.1842593452E-15   0.1063957963E-16   0.2125000003E+01
     1     2     3     4     5     6     7     8
     2     9    10     3     6    11    12     7
 VARIABLES = X,Y,Z,DU1,DU2,DU3,U1,U2,U3,S11,S22,S33,S12,S13,S23,E11,E22,E33,E12,E13,E23,SMISES
 ZONE, T="0.1700D+01" F=FEPOINT, I=   12 J=    2 ET=BRICK
   0.0000000000E+00   0.0000000000E+00   0.0000000000E+00   0.0000000000E+00   0.0000000000E+00   0.0000000000E+00   0.0000000000E+00   0.0000000000E+00   0.0000000000E+00  -0.3250000005E+01   0.2175484839E-14   0.1407029311E-14  -0.9377504756E-18  -0.1070756680E-14  -0.1063727249E-14   0.4879013417E-01  -0.2569506709E-01  -0.2569506709E-01  -0.4023858595E-17  -0.3538405384E-16  -0.4027323200E-16   0.3250000005E+01
   0.1048790134E+01   0.0000000000E+00  -0.8674090539E-17  -0.2250000000E-02   0.0000000000E+00  -0.6492653982E-18   0.5104013409E-01   0.0000000000E+00  -0.8024825141E-17  -0.3250000005E+01  -0.4675283520E-14  -0.3260283312E-14   0.8644125513E-15  -0.2710692187E-16   0.4435172822E-15   0.4879013417E-01  -0.2569506709E-01  -0.2569506709E-01  -0.6076051722E-16   0.2774607173E-16   0.4717392655E-18   0.3250000005E+01
   0.1048790134E+01   0.9743049330E+00  -0.6911893638E-17  -0.2250000000E-02   0.6750000000E-03  -0.2391176826E-18   0.5104013409E-01  -0.2637006705E-01  -0.6672775956E-17  -0.3250000005E+01   0.2588705208E-14   0.1824964553E-14   0.1275684900E-14  -0.2805506944E-15   0.5477173461E-15   0.4879013416E-01  -0.2569506708E-01  -0.2569506708E-01  -0.2950315995E-16   0.1092752586E-15   0.2403680009E-16   0.3250000005E+01
   0.0000000000E+00   0.9743049330E+00  -0.1544542050E-16   0.0000000000E+00   0.6750000000E-03  -0.6314019205E-18   0.0000000000E+00  -0.2637006705E-01  -0.1481401858E-16  -0.3250000005E+01   0.1032739014E-14   0.2917786651E-14   0.1587951332E-15   0.9087583378E-15  -0.5201476065E-15   0.4879013417E-01  -0.2569506708E-01  -0.2569506708E-01   0.1406818550E-16   0.1594393807E-16  -0.6769038438E-17   0.3250000005E+01
   0.0000000000E+00   0.0000000000E+00   0.9743049330E+00   0.0000000000E+00   0.0000000000E+00   0.6750000000E-03   0.0000000000E+00   0.0000000000E+00  -0.2637006705E-01  -0.3250000005E+01   0.2852650219E-14   0.4952238103E-15  -0.8504738757E-16  -0.4238179590E-16   0.6007812953E-16   0.4879013417E-01  -0.2569506708E-01  -0.2569506708E-01   0.2714818909E-17   0.3433061232E-16   0.3947885818E-16   0.3250000005E+01
   0.1048790134E+01   0.0000000000E+00   0.9743049330E+00  -0.2250000000E-02   0.0000000000E+00   0.6750000000E-03   0.5104013409E-01   0.0000000000E+00  -0.2637006705E-01  -0.3250000005E+01   0.1012615870E-14   0.2120312110E-14  -0.3125605511E-15   0.1096765357E-14  -0.2533781880E-15   0.4879013416E-01  -0.2569506708E-01  -0.2569506708E-01  -0.4950214213E-17   0.3700003475E-16  -0.3490940691E-17   0.3250000005E+01
   0.1048790134E+01   0.9743049330E+00   0.9743049330E+00  -0.2250000000E-02   0.6750000000E-03   0.6750000000E-03   0.5104013409E-01  -0.2637006705E-01  -0.2637006705E-01  -0.3250000004E+01  -0.8381114779E-15  -0.1210356513E-14  -0.1051422297E-14  -0.7731504438E-15  -0.4316006527E-15   0.4879013416E-01  -0.2569506708E-01  -0.2569506708E-01   0.3425852117E-17   0.7711184806E-16   0.2069939968E-16   0.3250000004E+01
   0.0000000000E+00   0.9743049330E+00   0.9743049330E+00   0.0000000000E+00   0.6750000000E-03   0.6750000000E-03   0.0000000000E+00  -0.2637006705E-01  -0.2637006705E-01  -0.3250000004E+01  -0.4780523004E-14  -0.4931843785E-14  -0.2544611346E-15  -0.2626760079E-15   0.1384856082E-14   0.4879013416E-01  -0.2569506708E-01  -0.2569506708E-01  -0.9589833380E-17  -0.9290687394E-17   0.5218748543E-16   0.3250000004E+01
   0.2097580268E+01   0.0000000000E+00  -0.2800020973E-17  -0.4500000000E-02   0.0000000000E+00  -0.3854668973E-18   0.1020802682E+00   0.0000000000E+00  -0.2414554076E-17  -0.3250000005E+01  -0.3274819074E-14  -0.4981519777E-14  -0.1949357223E-14  -0.8759435931E-15  -0.1284518143E-15   0.4879013417E-01  -0.2569506709E-01  -0.2569506709E-01  -0.1183445340E-15  -0.1531777132E-16  -0.3705867670E-17   0.3250000005E+01
   0.2097580268E+01   0.9743049330E+00  -0.6936404242E-17  -0.4500000000E-02   0.6750000000E-03  -0.6719569492E-18   0.1020802682E+00  -0.2637006705E-01  -0.6264447292E-17  -0.3250000005E+01   0.3492344077E-14   0.1690599549E-15  -0.1116740592E-14   0.2070479988E-14  -0.7702535760E-15   0.4879013416E-01  -0.2569506708E-01  -0.2569506708E-01  -0.1054398316E-15   0.2271017219E-15   0.1088601650E-16   0.3250000005E+01
   0.2097580268E+01   0.0000000000E+00   0.9743049330E+00  -0.4500000000E-02   0.0000000000E+00   0.6750000000E-03   0.1020802682E+00   0.0000000000E+00  -0.2637006705E-01  -0.3250000005E+01   0.2517056494E-14   0.5846852773E-14   0.1633468394E-15  -0.1534292717E-14   0.2202969653E-15   0.4879013416E-01  -0.2569506708E-01  -0.2569506708E-01   0.1145214121E-16  -0.3203122351E-16   0.1677128875E-17   0.3250000005E+01
   0.2097580268E+01   0.9743049330E+00   0.9743049330E+00  -0.4500000000E-02   0.6750000000E-03   0.6750000000E-03   0.1020802682E+00  -0.2637006705E-01  -0.2637006705E-01  -0.3250000004E+01  -0.1301007751E-14  -0.1204130244E-14   0.6802450774E-15   0.4767984654E-15   0.1444969775E-15   0.4879013416E-01  -0.2569506708E-01  -0.2569506708E-01   0.4318034443E-16   0.2245450227E-15   0.3739966568E-16   0.3250000004E+01
     1     2     3     4     5     6     7     8
     2     9    10     3     6    11    12     7
 VARIABLES = X,Y,Z,DU1,DU2,DU3,U1,U2,U3,S11,S22,S33,S12,S13,S23,E11,E22,E33,E12,E13,E23,SMISES
 ZONE, T="0.1750D+01" F=FEPOINT, I=   12 J=    2 ET=BRICK
   0.0000000000E+00   0.0000000000E+00   0.0000000000E+00   0.0000000000E+00   0.0000000000E+00   0.0000000000E+00   0.0000000000E+00   0.0000000000E+00   0.0000000000E+00  -0.4375000007E+01   0.2069906891E-14   0.1336644012E-14  -0.3337667229E-16  -0.1015252192E-14  -0.1035203086E-14   0.4654013417E-01  -0.2502006709E-01  -0.2502006709E-01  -0.1016558280E-16  -0.4603447959E-16  -0.2465356635E-16   0.4375000007E+01
   0.1046540134E+01   0.0000000000E+00  -0.8073554018E-17  -0.2250000000E-02   0.0000000000E+00   0.6005365211E-18   0.4879013409E-01   0.0000000000E+00  -0.8674090539E-17  -0.4375000007E+01  -0.4745668822E-14  -0.3785646425E-14   0.1506924593E-14   0.7202858816E-15   0.3433803581E-15   0.4654013417E-01  -0.2502006709E-01  -0.2502006709E-01  -0.2492272149E-16   0.5270924990E-16   0.6028982098E-17   0.4375000007E+01
   0.1046540134E+01   0.9749799330E+00  -0.6727654439E-17  -0.2250000000E-02   0.6750000000E-03   0.1842391991E-18   0.4879013409E-01  -0.2569506705E-01  -0.6911893638E-17  -0.4375000006E+01   0.3639431433E-14   0.2420712967E-14   0.1836990605E-14  -0.8600793399E-15   0.4089635069E-15   0.4654013416E-01  -0.2502006708E-01  -0.2502006708E-01  -0.3053082245E-16   0.5907052871E-16   0.4722017812E-17   0.4375000006E+01
   0.0000000000E+00   0.9749799330E+00  -0.1524660724E-16   0.0000000000E+00   0.6750000000E-03   0.1988132589E-18   0.0000000000E+00  -0.2569506705E-01  -0.1544542050E-16  -0.4375000006E+01   0.1032739014E-14   0.2952979301E-14   0.3107583117E-15   0.8836112908E-15  -0.6514922082E-15   0.4654013416E-01  -0.2502006708E-01  -0.2502006708E-01   0.5435374598E-17   0.4782977475E-16   0.3126405132E-17   0.4375000006E+01
   0.0000000000E+00   0.0000000000E+00   0.9749799330E+00   0.0000000000E+00   0.0000000000E+00   0.6750000000E-03   0.0000000000E+00   0.0000000000E+00  -0.2569506705E-01  -0.4375000006E+01   0.3265532198E-14   0.1257505649E-14  -0.7667172933E-16  -0.1487546049E-16  -0.2680863965E-16   0.4654013416E-01  -0.2502006708E-01  -0.2502006708E-01   0.8939907026E-19   0.3185144067E-16   0.2551902852E-16   0.4375000006E+01
   0.1046540134E+01   0.0000000000E+00   0.9749799330E+00  -0.2250000000E-02   0.0000000000E+00   0.6750000000E-03   0.4879013409E-01   0.0000000000E+00  -0.2569506705E-01  -0.4375000006E+01   0.7499343139E-15   0.1928015855E-14  -0.9912745241E-15   0.1665207356E-14  -0.2590231099E-15   0.4654013416E-01  -0.2502006708E-01  -0.2502006708E-01  -0.1146894061E-16   0.5572672673E-16  -0.1117926322E-16   0.4375000006E+01
   0.1046540134E+01   0.9749799330E+00   0.9749799330E+00  -0.2250000000E-02   0.6750000000E-03   0.6750000000E-03   0.4879013409E-01  -0.2569506705E-01  -0.2569506705E-01  -0.4375000006E+01  -0.9788820814E-15  -0.1280741815E-14  -0.1747538518E-14  -0.1213371493E-14  -0.5920360097E-15   0.4654013416E-01  -0.2502006708E-01  -0.2502006708E-01  -0.8873860828E-17   0.8237028711E-16   0.3603164869E-16   0.4375000006E+01
   0.0000000000E+00   0.9749799330E+00   0.9749799330E+00   0.0000000000E+00   0.6750000000E-03   0.6750000000E-03   0.0000000000E+00  -0.2569506705E-01  -0.2569506705E-01  -0.4375000006E+01  -0.5760863930E-14  -0.5562784851E-14  -0.3271278760E-16  -0.3477270119E-15   0.1175048371E-14   0.4654013416E-01  -0.2502006708E-01  -0.2502006708E-01   0.3381379244E-17  -0.1910764489E-16   0.2579643693E-16   0.4375000006E+01
   0.2093080268E+01   0.0000000000E+00  -0.2131238044E-17  -0.4500000000E-02   0.0000000000E+00   0.6687829292E-18   0.9758026819E-01   0.0000000000E+00  -0.2800020973E-17  -0.4375000007E+01  -0.4219967351E-14  -0.5436497591E-14  -0.5651031274E-15   0.1577966819E-15   0.8047772521E-16   0.4654013417E-01  -0.2502006709E-01  -0.2502006709E-01  -0.1232744973E-15   0.9528787263E-16  -0.1455382163E-16   0.4375000007E+01
   0.2093080268E+01   0.9749799330E+00  -0.5265056094E-17  -0.4500000000E-02   0.6750000000E-03   0.1671348148E-17   0.9758026819E-01  -0.2569506705E-01  -0.6936404242E-17  -0.4375000006E+01   0.3351573474E-14   0.5184598146E-15  -0.1354206981E-15   0.1207341037E-14  -0.3565746674E-15   0.4654013416E-01  -0.2502006708E-01  -0.2502006708E-01  -0.9058433444E-16   0.1754169958E-15   0.2301786428E-16   0.4375000006E+01
   0.2093080268E+01   0.0000000000E+00   0.9749799330E+00  -0.4500000000E-02   0.0000000000E+00   0.6750000000E-03   0.9758026819E-01   0.0000000000E+00  -0.2569506705E-01  -0.4375000006E+01   0.2667256929E-14   0.5891475253E-14  -0.5551666357E-15  -0.6031195148E-15   0.3970477508E-15   0.4654013416E-01  -0.2502006708E-01  -0.2502006708E-01  -0.1491379548E-16   0.8550324186E-16   0.2263078623E-16   0.4375000006E+01
   0.2093080268E+01   0.9749799330E+00   0.9749799330E+00  -0.4500000000E-02   0.6750000000E-03   0.6750000000E-03   0.9758026819E-01  -0.2569506705E-01  -0.2569506705E-01  -0.4375000006E+01  -0.8460299374E-15  -0.8547303843E-15   0.1449516336E-15  -0.1285635190E-15   0.6901117465E-15   0.4654013415E-01  -0.2502006708E-01  -0.2502006708E-01   0.2145704732E-16   0.1602498303E-15   0.2463868709E-16   0.4375000006E+01
     1     2     3     4     5     6     7     8
     2     9    10     3     6    11    12     7
 VARIABLES = X,Y,Z,DU1,DU2,DU3,U1,U2,U3,S11,S22,S33,S12,S13,S23,E11,E22,E33,E12,E13,E23,SMISES
 ZONE, T="0.1800D+01" F=FEPOINT, I=   12 J=    2 ET=BRICK
   0.0000000000E+00   0.0000000000E+00   0.0000000000E+00   0.0000000000E+00   0.0000000000E+00   0.0000000000E+00   0.0000000000E+00   0.0000000000E+00   0.0000000000E+00  -0.5500000009E+01   0.2296666418E-14   0.2071899729E-14  -0.1134127675E-16  -0.8195547660E-15  -0.1065223548E-14   0.4429013416E-01  -0.2434506709E-01  -0.2434506709E-01  -0.5164129737E-17  -0.3058374036E-16  -0.2712119898E-16   0.5500000009E+01
   0.1044290134E+01   0.0000000000E+00  -0.6290559999E-17  -0.2250000000E-02   0.0000000000E+00   0.1782994019E-17   0.4654013409E-01   0.0000000000E+00  -0.8073554018E-17  -0.5500000008E+01  -0.4392283446E-14  -0.3032794377E-14   0.1379887739E-14   0.2735280659E-15   0.3119701041E-15   0.4429013416E-01  -0.2434506708E-01  -0.2434506708E-01  -0.4085459416E-16   0.2960976905E-16   0.7494993457E-17   0.5500000008E+01
   0.1044290134E+01   0.9756549330E+00  -0.5063323206E-17  -0.2250000000E-02   0.6750000000E-03   0.1664331233E-17   0.4654013409E-01  -0.2502006705E-01  -0.6727654439E-17  -0.5500000008E+01   0.3300920245E-14   0.2218986895E-14   0.1817404599E-14  -0.8322609834E-15   0.6291194709E-15   0.4429013416E-01  -0.2434506708E-01  -0.2434506708E-01  -0.3797515881E-16   0.8384293696E-16   0.1126537484E-16   0.5500000008E+01
   0.0000000000E+00   0.9756549330E+00  -0.1545567491E-16   0.0000000000E+00   0.6750000000E-03  -0.2090676739E-18   0.0000000000E+00  -0.2502006705E-01  -0.1524660724E-16  -0.5500000008E+01   0.1516201821E-14   0.3332856906E-14   0.6360427764E-16   0.1169559816E-14  -0.5219872019E-15   0.4429013416E-01  -0.2434506708E-01  -0.2434506708E-01   0.1503184411E-16   0.2824097738E-16  -0.3064468737E-17   0.5500000008E+01
   0.0000000000E+00   0.0000000000E+00   0.9756549330E+00   0.0000000000E+00   0.0000000000E+00   0.6750000000E-03   0.0000000000E+00   0.0000000000E+00  -0.2502006705E-01  -0.5500000008E+01   0.3444217648E-14   0.9385835577E-15  -0.8324483547E-16   0.2429811554E-15  -0.2007589343E-15   0.4429013416E-01  -0.2434506708E-01  -0.2434506708E-01   0.6277516574E-17   0.3636813575E-16   0.2689250161E-16   0.5500000008E+01
   0.1044290134E+01   0.0000000000E+00   0.9756549330E+00  -0.2250000000E-02   0.0000000000E+00   0.6750000000E-03   0.4654013409E-01   0.0000000000E+00  -0.2502006705E-01  -0.5500000008E+01   0.5333340790E-15   0.1726289783E-14  -0.4804700007E-15   0.1103099121E-14  -0.2630959047E-15   0.4429013416E-01  -0.2434506708E-01  -0.2434506708E-01  -0.8925546908E-17   0.3866415314E-16  -0.2419632020E-16   0.5500000008E+01
   0.1044290134E+01   0.9756549330E+00   0.9756549330E+00  -0.2250000000E-02   0.6750000000E-03   0.6750000000E-03   0.4654013409E-01  -0.2502006705E-01  -0.2502006705E-01  -0.5500000007E+01  -0.6770223570E-15  -0.1226689484E-14  -0.1458802025E-14  -0.1192547406E-14  -0.3410754360E-15   0.4429013415E-01  -0.2434506708E-01  -0.2434506708E-01   0.9796277920E-17   0.5702650502E-16   0.2211745835E-16   0.5500000007E+01
   0.0000000000E+00   0.9756549330E+00   0.9756549330E+00   0.0000000000E+00   0.6750000000E-03   0.6750000000E-03   0.0000000000E+00  -0.2502006705E-01  -0.2502006705E-01  -0.5500000007E+01  -0.5508341579E-14  -0.5631906802E-14  -0.5211696691E-16   0.6757121463E-16   0.1269848998E-14   0.4429013415E-01  -0.2434506708E-01  -0.2434506708E-01   0.8063737142E-17   0.5273448057E-17   0.4369266768E-16   0.5500000007E+01
   0.2088580268E+01   0.0000000000E+00   0.4166330825E-17  -0.4500000000E-02   0.0000000000E+00   0.6297568869E-17   0.9308026819E-01   0.0000000000E+00  -0.2131238044E-17  -0.5500000008E+01  -0.2496933691E-14  -0.3948389890E-14  -0.1763428460E-14  -0.7878076078E-15  -0.1588319047E-15   0.4429013416E-01  -0.2434506708E-01  -0.2434506708E-01  -0.1265659147E-15   0.3244251356E-16  -0.1517680737E-16   0.5500000008E+01
   0.2088580268E+01   0.9756549330E+00  -0.2389383180E-18  -0.4500000000E-02   0.6750000000E-03   0.5026117776E-17   0.9308026819E-01  -0.2502006705E-01  -0.5265056094E-17  -0.5500000008E+01   0.1858021477E-14  -0.4571661458E-15  -0.1062338752E-14   0.1992187091E-14  -0.7287778487E-15   0.4429013416E-01  -0.2434506708E-01  -0.2434506708E-01  -0.1059564550E-15   0.1736151136E-15   0.2828796668E-16   0.5500000008E+01
   0.2088580268E+01   0.0000000000E+00   0.9756549330E+00  -0.4500000000E-02   0.0000000000E+00   0.6750000000E-03   0.9308026819E-01   0.0000000000E+00  -0.2502006705E-01  -0.5500000008E+01   0.2388437910E-14   0.5614648989E-14   0.1649650602E-15  -0.1147942171E-14   0.2030306781E-15   0.4429013416E-01  -0.2434506708E-01  -0.2434506708E-01   0.1676060500E-16   0.6350232102E-16   0.1674193779E-16   0.5500000008E+01
   0.2088580268E+01   0.9756549330E+00   0.9756549330E+00  -0.4500000000E-02   0.6750000000E-03   0.6750000000E-03   0.9308026819E-01  -0.2502006705E-01  -0.2502006705E-01  -0.5500000007E+01  -0.5840778359E-15  -0.6259781641E-15   0.5800103248E-15   0.4956181231E-15   0.3760013516E-15   0.4429013415E-01  -0.2434506708E-01  -0.2434506708E-01   0.5014147699E-16   0.1641215962E-15   0.1339821170E-16   0.5500000007E+01
     1     2     3     4     5     6     7     8
     2     9    10     3     6    11    12     7
 VARIABLES = X,Y,Z,DU1,DU2,DU3,U1,U2,U3,S11,S22,S33,S12,S13,S23,E11,E22,E33,E12,E13,E23,SMISES
 ZONE, T="0.1850D+01" F=FEPOINT, I=   12 J=    2 ET=BRICK
   0.0000000000E+00   0.0000000000E+00   0.0000000000E+00   0.0000000000E+00   0.0000000000E+00   0.0000000000E+00   0.0000000000E+00   0.0000000000E+00   0.0000000000E+00  -0.6625000010E+01   0.3928266847E-14   0.2927607507E-14  -0.3260247601E-16  -0.1024060835E-14  -0.8802520045E-15   0.4204013416E-01  -0.2367006708E-01  -0.2367006708E-01   0.3840974559E-18  -0.2331107038E-16  -0.3386916691E-16   0.6625000010E+01
   0.1042040134E+01   0.0000000000E+00  -0.7968437336E-17  -0.2250000000E-02   0.0000000000E+00  -0.1677877337E-17   0.4429013409E-01   0.0000000000E+00  -0.6290559999E-17  -0.6625000010E+01  -0.4958283525E-14  -0.3341557221E-14   0.3382247368E-15  -0.2968354952E-15   0.3475608934E-15   0.4204013416E-01  -0.2367006708E-01  -0.2367006708E-01  -0.6348980342E-16   0.1857909004E-16   0.4987985325E-17   0.6625000010E+01
   0.1042040134E+01   0.9763299330E+00  -0.6484806676E-17  -0.2250000000E-02   0.6750000000E-03  -0.1421483470E-17   0.4429013409E-01  -0.2434506705E-01  -0.5063323206E-17  -0.6625000009E+01   0.3522964791E-14   0.2461349925E-14   0.7739578844E-15   0.2611758016E-15   0.4749090848E-15   0.4204013415E-01  -0.2367006708E-01  -0.2367006708E-01  -0.4440460428E-16   0.8958818544E-16   0.2753387225E-16   0.6625000009E+01
   0.0000000000E+00   0.9763299330E+00  -0.1441808462E-16   0.0000000000E+00   0.6750000000E-03   0.1037590291E-17   0.0000000000E+00  -0.2434506705E-01  -0.1545567491E-16  -0.6625000010E+01  -0.6868430550E-15   0.1715401221E-14   0.1107760283E-15   0.7413196495E-15  -0.3688826976E-15   0.4204013416E-01  -0.2367006708E-01  -0.2367006708E-01  -0.5542875290E-17   0.3183433131E-16  -0.1222629249E-16   0.6625000010E+01
   0.0000000000E+00   0.0000000000E+00   0.9763299330E+00   0.0000000000E+00   0.0000000000E+00   0.6750000000E-03   0.0000000000E+00   0.0000000000E+00  -0.2434506705E-01  -0.6625000010E+01   0.3497202150E-14   0.8946905423E-15  -0.5816547525E-16   0.1397598269E-15   0.2299849524E-15   0.4204013416E-01  -0.2367006708E-01  -0.2367006708E-01   0.1393373601E-18   0.3016497504E-16   0.3703067852E-16   0.6625000010E+01
   0.1042040134E+01   0.0000000000E+00   0.9763299330E+00  -0.2250000000E-02   0.0000000000E+00   0.6750000000E-03   0.4429013409E-01   0.0000000000E+00  -0.2434506705E-01  -0.6625000009E+01   0.6146080218E-15   0.2282860020E-14   0.3279757738E-16   0.5434212732E-15  -0.2101131882E-15   0.4204013415E-01  -0.2367006708E-01  -0.2367006708E-01   0.2241806745E-17   0.5318892642E-16  -0.1373838883E-16   0.6625000009E+01
   0.1042040134E+01   0.9763299330E+00   0.9763299330E+00  -0.2250000000E-02   0.6750000000E-03   0.6750000000E-03   0.4429013409E-01  -0.2434506705E-01  -0.2434506705E-01  -0.6625000009E+01  -0.7176593238E-15  -0.1483926676E-14  -0.8601897371E-15  -0.4534866629E-15  -0.5004943581E-15   0.4204013415E-01  -0.2367006708E-01  -0.2367006708E-01   0.2215393065E-16   0.7140441897E-16   0.1840848294E-17   0.6625000009E+01
   0.0000000000E+00   0.9763299330E+00   0.9763299330E+00   0.0000000000E+00   0.6750000000E-03   0.6750000000E-03   0.0000000000E+00  -0.2434506705E-01  -0.2434506705E-01  -0.6625000009E+01  -0.5049378323E-14  -0.4680050907E-14  -0.1511997553E-15  -0.3821696680E-15   0.1578951326E-14   0.4204013415E-01  -0.2367006708E-01  -0.2367006708E-01   0.7024896598E-17  -0.2454809659E-17   0.5568056022E-16   0.6625000009E+01
   0.2084080268E+01   0.0000000000E+00  -0.1811560996E-17  -0.4500000000E-02   0.0000000000E+00  -0.5977891821E-17   0.8858026819E-01   0.0000000000E+00   0.4166330825E-17  -0.6625000010E+01  -0.3825215631E-14  -0.5510868437E-14  -0.1333632850E-14  -0.7123565577E-15  -0.1878603338E-15   0.4204013416E-01  -0.2367006708E-01  -0.2367006708E-01  -0.8697202410E-16   0.1143586828E-15  -0.1467841102E-16   0.6625000010E+01
   0.2084080268E+01   0.9763299330E+00  -0.6154359286E-17  -0.4500000000E-02   0.6750000000E-03  -0.5915420968E-17   0.8858026819E-01  -0.2434506705E-01  -0.2389383180E-18  -0.6625000009E+01   0.3454429307E-14   0.1581713424E-15  -0.6364346082E-15   0.1817374915E-14  -0.7519817087E-15   0.4204013415E-01  -0.2367006708E-01  -0.2367006708E-01  -0.7629790836E-16   0.1690367584E-15  -0.8537389941E-17   0.6625000009E+01
   0.2084080268E+01   0.0000000000E+00   0.9763299330E+00  -0.4500000000E-02   0.0000000000E+00   0.6750000000E-03   0.8858026819E-01   0.0000000000E+00  -0.2434506705E-01  -0.6625000009E+01   0.2779542586E-14   0.5950971939E-14   0.5219697302E-16  -0.1029624050E-14   0.2019035187E-15   0.4204013415E-01  -0.2367006708E-01  -0.2367006708E-01  -0.1649708057E-16   0.6717046965E-16   0.3362141238E-16   0.6625000009E+01
   0.2084080268E+01   0.9763299330E+00   0.9763299330E+00  -0.4500000000E-02   0.6750000000E-03   0.6750000000E-03   0.8858026819E-01  -0.2434506705E-01  -0.2434506705E-01  -0.6625000008E+01  -0.1021263810E-14  -0.8492860941E-15   0.5356930946E-15   0.1705446943E-16   0.1950895922E-15   0.4204013415E-01  -0.2367006708E-01  -0.2367006708E-01   0.3055251495E-16   0.1826867619E-15   0.2530107752E-16   0.6625000008E+01
     1     2     3     4     5     6     7     8
     2     9    10     3     6    11    12     7
 VARIABLES = X,Y,Z,DU1,DU2,DU3,U1,U2,U3,S11,S22,S33,S12,S13,S23,E11,E22,E33,E12,E13,E23,SMISES
 ZONE, T="0.1900D+01" F=FEPOINT, I=   12 J=    2 ET=BRICK
   0.0000000000E+00   0.0000000000E+00   0.0000000000E+00   0.0000000000E+00   0.0000000000E+00   0.0000000000E+00   0.0000000000E+00   0.0000000000E+00   0.0000000000E+00  -0.7749969524E+01  -0.1524404506E-04  -0.1524404506E-04   0.2745455607E-16  -0.1865457267E-15  -0.1149444477E-14   0.3538630953E-01  -0.2079315477E-01  -0.2079315477E-01   0.7466689129E-18  -0.1468824547E-16  -0.3289865621E-16   0.7749954280E+01
   0.1035386309E+01   0.0000000000E+00  -0.4323707161E-18  -0.6653824621E-02   0.0000000000E+00   0.7536066620E-17   0.4204013409E-01   0.0000000000E+00  -0.7968437336E-17  -0.7749969524E+01  -0.1524404507E-04  -0.1524404507E-04   0.1522351015E-14   0.5730494776E-15   0.1475690503E-16   0.3538630953E-01  -0.2079315477E-01  -0.2079315477E-01  -0.5075635735E-16   0.2043721580E-16  -0.3933814871E-17   0.7749954280E+01
   0.1035386309E+01   0.9792068453E+00  -0.9731584663E-18  -0.6653824621E-02   0.2876912310E-02   0.5511648210E-17   0.4204013409E-01  -0.2367006705E-01  -0.6484806676E-17  -0.7749969523E+01  -0.1524404506E-04  -0.1524404506E-04   0.1609526628E-14  -0.4396812923E-15   0.1286651023E-14   0.3538630952E-01  -0.2079315477E-01  -0.2079315477E-01  -0.4278332646E-16   0.1145518902E-15   0.3362187781E-16   0.7749954279E+01
   0.0000000000E+00   0.9792068453E+00  -0.1680925258E-16   0.0000000000E+00   0.2876912310E-02  -0.2391167957E-17   0.0000000000E+00  -0.2367006705E-01  -0.1441808462E-16  -0.7749969523E+01  -0.1524404506E-04  -0.1524404506E-04  -0.8305706512E-15   0.1393913689E-14   0.2940572139E-15   0.3538630953E-01  -0.2079315477E-01  -0.2079315477E-01  -0.5931793483E-17   0.2309199400E-16  -0.4369546044E-17   0.7749954279E+01
   0.0000000000E+00   0.0000000000E+00   0.9792068453E+00   0.0000000000E+00   0.0000000000E+00   0.2876912310E-02   0.0000000000E+00   0.0000000000E+00  -0.2367006705E-01  -0.7749969523E+01  -0.1524404506E-04  -0.1524404507E-04  -0.4329781750E-16   0.1067329072E-15  -0.8209906684E-15   0.3538630953E-01  -0.2079315477E-01  -0.2079315477E-01  -0.3602117819E-17   0.3681286187E-16   0.2058424062E-16   0.7749954279E+01
   0.1035386309E+01   0.0000000000E+00   0.9792068453E+00  -0.6653824621E-02   0.0000000000E+00   0.2876912310E-02   0.4204013409E-01   0.0000000000E+00  -0.2367006705E-01  -0.7749969523E+01  -0.1524404507E-04  -0.1524404507E-04   0.1809649451E-16   0.6862344405E-15  -0.5575810290E-15   0.3538630952E-01  -0.2079315477E-01  -0.2079315477E-01   0.8796739811E-17   0.4384758430E-16  -0.2059845929E-16   0.7749954279E+01
   0.1035386309E+01   0.9792068453E+00   0.9792068453E+00  -0.6653824621E-02   0.2876912310E-02   0.2876912310E-02   0.4204013409E-01  -0.2367006705E-01  -0.2367006705E-01  -0.7749969522E+01  -0.1524404506E-04  -0.1524404506E-04  -0.1100904254E-14  -0.1387231286E-14   0.4549313108E-15   0.3538630952E-01  -0.2079315476E-01  -0.2079315476E-01   0.5702518663E-17   0.5987496316E-16   0.1897160541E-16   0.7749954278E+01
   0.0000000000E+00   0.9792068453E+00   0.9792068453E+00   0.0000000000E+00   0.2876912310E-02   0.2876912310E-02   0.0000000000E+00  -0.2367006705E-01  -0.2367006705E-01  -0.7749969522E+01  -0.1524404507E-04  -0.1524404507E-04  -0.4009352624E-15   0.6509817105E-15   0.1032358364E-14   0.3538630952E-01  -0.2079315476E-01  -0.2079315476E-01  -0.1193392407E-16   0.5248103763E-17   0.5128016508E-16   0.7749954278E+01
   0.2070772619E+01   0.0000000000E+00   0.2894545842E-16  -0.1330764924E-01   0.0000000000E+00   0.3075701941E-16   0.8408026819E-01   0.0000000000E+00  -0.1811560996E-17  -0.7749969524E+01  -0.1524404506E-04  -0.1524404507E-04  -0.3057042351E-14  -0.1839783915E-14  -0.1537453896E-14   0.3538630953E-01  -0.2079315477E-01  -0.2079315477E-01  -0.1224695394E-15   0.5510236162E-16  -0.2100828638E-16   0.7749954280E+01
   0.2070772619E+01   0.9792068453E+00   0.1603433851E-16  -0.1330764924E-01   0.2876912310E-02   0.2218869780E-16   0.8408026819E-01  -0.2367006705E-01  -0.6154359286E-17  -0.7749969523E+01  -0.1524404506E-04  -0.1524404506E-04  -0.2693891439E-14   0.2235457447E-14  -0.1057473258E-14   0.3538630952E-01  -0.2079315477E-01  -0.2079315477E-01  -0.1152040773E-15   0.1882624429E-15   0.1122550878E-16   0.7749954279E+01
   0.2070772619E+01   0.0000000000E+00   0.9792068453E+00  -0.1330764924E-01   0.0000000000E+00   0.2876912310E-02   0.8408026819E-01   0.0000000000E+00  -0.2367006705E-01  -0.7749969523E+01  -0.1524404506E-04  -0.1524404506E-04   0.5808608121E-15  -0.3013989344E-14   0.9471022032E-16   0.3538630952E-01  -0.2079315477E-01  -0.2079315477E-01  -0.1112101436E-16  -0.2638972721E-16   0.1828732742E-16   0.7749954279E+01
   0.2070772619E+01   0.9792068453E+00   0.9792068453E+00  -0.1330764924E-01   0.2876912310E-02   0.2876912310E-02   0.8408026819E-01  -0.2367006705E-01  -0.2367006705E-01  -0.7749969522E+01  -0.1524404506E-04  -0.1524404506E-04   0.5533698596E-15   0.7715550785E-15   0.9755136296E-15   0.3538630952E-01  -0.2079315476E-01  -0.2079315476E-01   0.5988678092E-16   0.2064155185E-15   0.2562307951E-16   0.7749954278E+01
     1     2     3     4     5     6     7     8
     2     9    10     3     6    11    12     7
 VARIABLES = X,Y,Z,DU1,DU2,DU3,U1,U2,U3,S11,S22,S33,S12,S13,S23,E11,E22,E33,E12,E13,E23,SMISES
 ZONE, T="0.1950D+01" F=FEPOINT, I=   12 J=    2 ET=BRICK
   0.0000000000E+00   0.0000000000E+00   0.0000000000E+00   0.0000000000E+00   0.0000000000E+00   0.0000000000E+00   0.0000000000E+00   0.0000000000E+00   0.0000000000E+00  -0.8875009449E+01   0.4717547729E-05   0.4717547731E-05   0.9118431933E-16  -0.2153173541E-15  -0.8928504254E-15   0.1205778359E-01  -0.9578891800E-02  -0.9578891800E-02   0.9277925026E-17  -0.1266584241E-16  -0.3816035701E-16   0.8875014167E+01
   0.1012057784E+01   0.0000000000E+00   0.1399917071E-17  -0.2332852590E-01   0.0000000000E+00   0.1832287788E-17   0.3538630947E-01   0.0000000000E+00  -0.4323707161E-18  -0.8875009449E+01   0.4717547720E-05   0.4717547721E-05  -0.3801379858E-15  -0.2294916530E-15  -0.2565396227E-15   0.1205778359E-01  -0.9578891799E-02  -0.9578891799E-02  -0.8014662905E-16   0.2533440554E-16   0.3712642752E-17   0.8875014166E+01
   0.1012057784E+01   0.9904211082E+00  -0.1159057989E-17  -0.2332852590E-01   0.1121426295E-01  -0.1858995229E-18   0.3538630947E-01  -0.2079315474E-01  -0.9731584663E-18  -0.8875009448E+01   0.4717547726E-05   0.4717547728E-05  -0.2668235146E-15   0.6391975727E-15   0.9107926251E-15   0.1205778359E-01  -0.9578891798E-02  -0.9578891798E-02  -0.6114894780E-16   0.1107217993E-15   0.2375987910E-16   0.8875014165E+01
   0.0000000000E+00   0.9904211082E+00  -0.1905417906E-16   0.0000000000E+00   0.1121426295E-01  -0.2244926483E-17   0.0000000000E+00  -0.2079315474E-01  -0.1680925258E-16  -0.8875009448E+01   0.4717547721E-05   0.4717547723E-05  -0.3524925119E-15   0.9523002674E-15   0.5721406752E-15   0.1205778359E-01  -0.9578891799E-02  -0.9578891799E-02  -0.4556504589E-18   0.3523679504E-16   0.1350794170E-16   0.8875014166E+01
   0.0000000000E+00   0.0000000000E+00   0.9904211082E+00   0.0000000000E+00   0.0000000000E+00   0.1121426295E-01   0.0000000000E+00   0.0000000000E+00  -0.2079315474E-01  -0.8875009448E+01   0.4717547723E-05   0.4717547720E-05  -0.9112358362E-17  -0.1067148885E-15  -0.1839859682E-15   0.1205778359E-01  -0.9578891799E-02  -0.9578891799E-02  -0.4280524572E-17   0.4222844371E-16   0.1605750409E-16   0.8875014166E+01
   0.1012057784E+01   0.0000000000E+00   0.9904211082E+00  -0.2332852590E-01   0.0000000000E+00   0.1121426295E-01   0.3538630947E-01   0.0000000000E+00  -0.2079315474E-01  -0.8875009448E+01   0.4717547724E-05   0.4717547723E-05   0.8178519569E-15   0.3723198002E-16  -0.3535153572E-15   0.1205778359E-01  -0.9578891798E-02  -0.9578891798E-02   0.2642731559E-16   0.9320153722E-17  -0.1071583422E-16   0.8875014165E+01
   0.1012057784E+01   0.9904211082E+00   0.9904211082E+00  -0.2332852590E-01   0.1121426295E-01   0.1121426295E-01   0.3538630947E-01  -0.2079315474E-01  -0.2079315474E-01  -0.8875009447E+01   0.4717547723E-05   0.4717547721E-05   0.3238611943E-15   0.1525137595E-15   0.7058885917E-15   0.1205778359E-01  -0.9578891797E-02  -0.9578891797E-02   0.3079206917E-16   0.1348062626E-15   0.2306469543E-16   0.8875014164E+01
   0.0000000000E+00   0.9904211082E+00   0.9904211082E+00   0.0000000000E+00   0.1121426295E-01   0.1121426295E-01   0.0000000000E+00  -0.2079315474E-01  -0.2079315474E-01  -0.8875009447E+01   0.4717547725E-05   0.4717547724E-05  -0.6994980658E-15   0.1903441781E-15   0.1270064962E-14   0.1205778359E-01  -0.9578891797E-02  -0.9578891797E-02  -0.2941513908E-16  -0.1279761115E-16   0.6322313394E-16   0.8875014165E+01
   0.2024115567E+01   0.0000000000E+00   0.3859717177E-16  -0.4665705181E-01   0.0000000000E+00   0.9651713351E-17   0.7077261895E-01   0.0000000000E+00   0.2894545842E-16  -0.8875009449E+01   0.4717547723E-05   0.4717547723E-05  -0.2724925053E-14  -0.1719940461E-14  -0.1192673596E-14   0.1205778359E-01  -0.9578891799E-02  -0.9578891799E-02  -0.1565824386E-15   0.5393409146E-16  -0.3063107458E-16   0.8875014166E+01
   0.2024115567E+01   0.9904211082E+00   0.2051304749E-16  -0.4665705181E-01   0.1121426295E-01   0.4478708977E-17   0.7077261895E-01  -0.2079315474E-01   0.1603433851E-16  -0.8875009447E+01   0.4717547728E-05   0.4717547726E-05  -0.2459378952E-14   0.2037687764E-14  -0.8223585518E-15   0.1205778359E-01  -0.9578891798E-02  -0.9578891798E-02  -0.1468731225E-15   0.1426488411E-15   0.4126801037E-17   0.8875014165E+01
   0.2024115567E+01   0.0000000000E+00   0.9904211082E+00  -0.4665705181E-01   0.0000000000E+00   0.1121426295E-01   0.7077261895E-01   0.0000000000E+00  -0.2079315474E-01  -0.8875009447E+01   0.4717547734E-05   0.4717547734E-05  -0.1317423588E-15  -0.1458903496E-14  -0.4691296496E-15   0.1205778359E-01  -0.9578891798E-02  -0.9578891798E-02  -0.1473324853E-16   0.2522791270E-16  -0.1359342716E-16   0.8875014165E+01
   0.2024115567E+01   0.9904211082E+00   0.9904211082E+00  -0.4665705181E-01   0.1121426295E-01   0.1121426295E-01   0.7077261895E-01  -0.2079315474E-01  -0.2079315474E-01  -0.8875009446E+01   0.4717547712E-05   0.4717547713E-05  -0.3273420291E-16  -0.6714391604E-15   0.4959842174E-15   0.1205778358E-01  -0.9578891797E-02  -0.9578891797E-02   0.1942026503E-16   0.1077771878E-15   0.3397919705E-16   0.8875014164E+01
     1     2     3     4     5     6     7     8
     2     9    10     3     6    11    12     7
 VARIABLES = X,Y,Z,DU1,DU2,DU3,U1,U2,U3,S11,S22,S33,S12,S13,S23,E11,E22,E33,E12,E13,E23,SMISES
 ZONE, T="0.2000D+01" F=FEPOINT, I=   12 J=    2 ET=BRICK
   0.0000000000E+00   0.0000000000E+00   0.0000000000E+00   0.0000000000E+00   0.0000000000E+00   0.0000000000E+00   0.0000000000E+00   0.0000000000E+00   0.0000000000E+00  -0.1000000550E+02   0.2740786194E-05   0.2740786195E-05   0.2274714345E-15  -0.2433578006E-15  -0.6287868585E-15  -0.1269209868E-01   0.2346049332E-02   0.2346049332E-02   0.4985262151E-17  -0.1239689525E-16  -0.4073985500E-16   0.1000000824E+02
   0.9873079013E+00   0.0000000000E+00   0.9120630599E-19  -0.2474988223E-01   0.0000000000E+00  -0.1308710765E-17   0.1205778357E-01   0.0000000000E+00   0.1399917071E-17  -0.1000000550E+02   0.2740786176E-05   0.2740786176E-05   0.3922481968E-16   0.5424734711E-15  -0.1116735846E-15  -0.1269209868E-01   0.2346049332E-02   0.2346049332E-02  -0.5634018138E-16   0.4857065661E-16  -0.2764132362E-17   0.1000000824E+02
   0.9873079013E+00   0.1002346049E+01  -0.3611590143E-17  -0.2474988223E-01   0.1192494111E-01  -0.2452532154E-17   0.1205778357E-01  -0.9578891785E-02  -0.1159057989E-17  -0.1000000550E+02   0.2740786185E-05   0.2740786185E-05  -0.2130797990E-15  -0.7435294968E-15   0.5139323167E-15  -0.1269209868E-01   0.2346049332E-02   0.2346049332E-02  -0.5761403948E-16   0.1127554705E-15   0.1368748236E-16   0.1000000824E+02
   0.0000000000E+00   0.1002346049E+01  -0.1815593554E-16   0.0000000000E+00   0.1192494111E-01   0.8982435225E-18   0.0000000000E+00  -0.9578891785E-02  -0.1905417906E-16  -0.1000000550E+02   0.2740786177E-05   0.2740786177E-05  -0.3150439907E-15   0.3172527097E-15  -0.8006610929E-16  -0.1269209868E-01   0.2346049332E-02   0.2346049332E-02  -0.6678438258E-17   0.2002063183E-16   0.5083048581E-17   0.1000000824E+02
   0.0000000000E+00   0.0000000000E+00   0.1002346049E+01   0.0000000000E+00   0.0000000000E+00   0.1192494111E-01   0.0000000000E+00   0.0000000000E+00  -0.9578891785E-02  -0.1000000550E+02   0.2740786178E-05   0.2740786178E-05  -0.1155486049E-15   0.2813700034E-15  -0.1802100621E-15  -0.1269209868E-01   0.2346049332E-02   0.2346049332E-02  -0.2651674767E-17   0.3957213413E-16   0.8967799768E-17   0.1000000824E+02
   0.9873079013E+00   0.0000000000E+00   0.1002346049E+01  -0.2474988223E-01   0.0000000000E+00   0.1192494111E-01   0.1205778357E-01   0.0000000000E+00  -0.9578891785E-02  -0.1000000550E+02   0.2740786180E-05   0.2740786180E-05   0.2984828170E-15  -0.1467061734E-16  -0.5394323893E-15  -0.1269209868E-01   0.2346049332E-02   0.2346049332E-02   0.1981173138E-16   0.2758724592E-16  -0.1746615222E-16   0.1000000824E+02
   0.9873079013E+00   0.1002346049E+01   0.1002346049E+01  -0.2474988223E-01   0.1192494111E-01   0.1192494111E-01   0.1205778357E-01  -0.9578891785E-02  -0.9578891785E-02  -0.1000000549E+02   0.2740786182E-05   0.2740786181E-05   0.2746509146E-15   0.1269896067E-15  -0.2611545384E-15  -0.1269209867E-01   0.2346049332E-02   0.2346049332E-02   0.2556055643E-16   0.9909841493E-16   0.3500368610E-16   0.1000000824E+02
   0.0000000000E+00   0.1002346049E+01   0.1002346049E+01   0.0000000000E+00   0.1192494111E-01   0.1192494111E-01   0.0000000000E+00  -0.9578891785E-02  -0.9578891785E-02  -0.1000000549E+02   0.2740786181E-05   0.2740786182E-05   0.1687065790E-15  -0.3062769808E-15   0.2674586404E-17  -0.1269209867E-01   0.2346049332E-02   0.2346049332E-02  -0.9840476225E-17   0.1967688332E-17   0.2929945347E-16   0.1000000824E+02
   0.1974615803E+01   0.0000000000E+00   0.4011209928E-16  -0.4949976445E-01   0.0000000000E+00   0.1514927513E-17   0.2411556714E-01   0.0000000000E+00   0.3859717177E-16  -0.1000000550E+02   0.2740786167E-05   0.2740786167E-05   0.2235922819E-15   0.5349453889E-15  -0.1259032268E-14  -0.1269209868E-01   0.2346049332E-02   0.2346049332E-02  -0.1093418709E-15   0.7999148631E-16  -0.4910676916E-16   0.1000000824E+02
   0.1974615803E+01   0.1002346049E+01   0.1552653742E-16  -0.4949976445E-01   0.1192494111E-01  -0.4986510064E-17   0.2411556714E-01  -0.9578891785E-02   0.2051304749E-16  -0.1000000550E+02   0.2740786185E-05   0.2740786186E-05  -0.3635787016E-15  -0.1404483026E-15   0.2588588993E-15  -0.1269209867E-01   0.2346049332E-02   0.2346049332E-02  -0.1100326999E-15   0.1453861851E-15   0.3505507039E-16   0.1000000824E+02
   0.1974615803E+01   0.0000000000E+00   0.1002346049E+01  -0.4949976445E-01   0.0000000000E+00   0.1192494111E-01   0.2411556714E-01   0.0000000000E+00  -0.9578891785E-02  -0.1000000550E+02   0.2740786190E-05   0.2740786188E-05   0.1268152336E-14  -0.1493780661E-14  -0.1920817271E-15  -0.1269209867E-01   0.2346049332E-02   0.2346049332E-02   0.8266017986E-17   0.2575452404E-16  -0.7829518387E-17   0.1000000824E+02
   0.1974615803E+01   0.1002346049E+01   0.1002346049E+01  -0.4949976445E-01   0.1192494111E-01   0.1192494111E-01   0.2411556714E-01  -0.9578891785E-02  -0.9578891785E-02  -0.1000000549E+02   0.2740786173E-05   0.2740786172E-05  -0.2713722418E-15   0.7575601956E-15   0.1748263843E-14  -0.1269209867E-01   0.2346049331E-02   0.2346049331E-02   0.3122985251E-16   0.1634298133E-15   0.6231318417E-16   0.1000000824E+02
     1     2     3     4     5     6     7     8
     2     9    10     3     6    11    12     7
 VARIABLES = X,Y,Z,DU1,DU2,DU3,U1,U2,U3,S11,S22,S33,S12,S13,S23,E11,E22,E33,E12,E13,E23,SMISES
 ZONE, T="0.2050D+01" F=FEPOINT, I=   12 J=    2 ET=BRICK
   0.0000000000E+00   0.0000000000E+00   0.0000000000E+00   0.0000000000E+00   0.0000000000E+00   0.0000000000E+00   0.0000000000E+00   0.0000000000E+00   0.0000000000E+00  -0.8875000014E+01   0.4223113958E-15  -0.4221764996E-14   0.2462431322E-15  -0.7339693413E-14  -0.9289338130E-14  -0.1044208442E-01   0.1671042205E-02   0.1671042205E-02   0.2010109737E-17  -0.9240704282E-16  -0.1274108999E-15   0.8875000014E+01
   0.9895579156E+00   0.0000000000E+00  -0.1616763598E-16   0.2250014252E-02   0.0000000000E+00  -0.1625884228E-16  -0.1269209866E-01   0.0000000000E+00   0.9120630599E-19  -0.8875000014E+01  -0.1754579510E-14   0.6857333031E-14  -0.1334369510E-14  -0.1328064360E-14  -0.1517674615E-15  -0.1044208442E-01   0.1671042205E-02   0.1671042205E-02  -0.6409991456E-16   0.2511038233E-16  -0.7643168892E-17   0.8875000014E+01
   0.9895579156E+00   0.1001671042E+01  -0.2009170259E-16   0.2250014252E-02  -0.6750071260E-03  -0.1648011244E-16  -0.1269209866E-01   0.2346049328E-02  -0.3611590143E-17  -0.8875000013E+01  -0.4240624382E-14   0.4398176897E-15   0.6519663074E-15  -0.1512787920E-14   0.4453498359E-14  -0.1044208442E-01   0.1671042205E-02   0.1671042205E-02  -0.4685163805E-16   0.9104671283E-16   0.7229254920E-16   0.8875000013E+01
   0.0000000000E+00   0.1001671042E+01  -0.6314273732E-16   0.0000000000E+00  -0.6750071260E-03  -0.4498680178E-16   0.0000000000E+00   0.2346049328E-02  -0.1815593554E-16  -0.8875000013E+01  -0.4062134567E-14   0.5422014220E-14   0.5896201278E-15   0.4245985740E-14  -0.4348324817E-14  -0.1044208442E-01   0.1671042205E-02   0.1671042205E-02   0.2528356623E-17   0.7233356901E-16  -0.4512455495E-16   0.8875000013E+01
   0.0000000000E+00   0.0000000000E+00   0.1001671042E+01   0.0000000000E+00   0.0000000000E+00  -0.6750071260E-03   0.0000000000E+00   0.0000000000E+00   0.2346049328E-02  -0.8875000013E+01  -0.7368890087E-14  -0.2087240039E-13  -0.1288465640E-15   0.3056003543E-14  -0.1574957830E-14  -0.1044208442E-01   0.1671042205E-02   0.1671042205E-02  -0.2283229726E-18   0.6719051812E-16  -0.3000423229E-17   0.8875000013E+01
   0.9895579156E+00   0.0000000000E+00   0.1001671042E+01   0.2250014252E-02   0.0000000000E+00  -0.6750071260E-03  -0.1269209866E-01   0.0000000000E+00   0.2346049328E-02  -0.8875000013E+01   0.6533181962E-16   0.1191496611E-14  -0.3647121708E-14   0.1765804344E-14  -0.2508293194E-14  -0.1044208442E-01   0.1671042205E-02   0.1671042205E-02  -0.2741968518E-16   0.5088871541E-16  -0.3863618258E-16   0.8875000013E+01
   0.9895579156E+00   0.1001671042E+01   0.1001671042E+01   0.2250014252E-02  -0.6750071260E-03  -0.6750071260E-03  -0.1269209866E-01   0.2346049328E-02   0.2346049328E-02  -0.8875000012E+01   0.3396000313E-14  -0.2382993788E-14  -0.3266213177E-14  -0.1147577614E-14   0.1692329085E-14  -0.1044208442E-01   0.1671042205E-02   0.1671042205E-02  -0.1075377284E-16   0.7950199739E-16   0.4166321189E-16   0.8875000012E+01
   0.0000000000E+00   0.1001671042E+01   0.1001671042E+01   0.0000000000E+00  -0.6750071260E-03  -0.6750071260E-03   0.0000000000E+00   0.2346049328E-02   0.2346049328E-02  -0.8875000012E+01  -0.3729067777E-14  -0.2039820615E-14   0.1430015519E-14   0.1673237899E-14   0.3020112371E-14  -0.1044208442E-01   0.1671042205E-02   0.1671042205E-02   0.2816236414E-17   0.1921895154E-16   0.7723582880E-16   0.8875000012E+01
   0.1979115831E+01   0.0000000000E+00   0.8971419549E-16   0.4500028504E-02   0.0000000000E+00   0.4960209621E-16  -0.2538419731E-01   0.0000000000E+00   0.4011209928E-16  -0.8875000013E+01  -0.5529757600E-15   0.9941472824E-15  -0.1170654134E-13  -0.4069273891E-14  -0.2220960632E-14  -0.1044208442E-01   0.1671042205E-02   0.1671042205E-02  -0.2291524074E-15   0.4321764308E-16  -0.6006651360E-16   0.8875000013E+01
   0.1979115831E+01   0.1001671042E+01   0.6009780752E-16   0.4500028504E-02  -0.6750071260E-03   0.4457127010E-16  -0.2538419731E-01   0.2346049328E-02   0.1552653742E-16  -0.8875000012E+01  -0.2729867130E-14  -0.3808205844E-14  -0.8954288727E-14   0.7719402853E-14   0.3176891585E-15  -0.1044208442E-01   0.1671042205E-02   0.1671042205E-02  -0.2069067022E-15   0.2641452867E-15   0.2405996374E-16   0.8875000012E+01
   0.1979115831E+01   0.0000000000E+00   0.1001671042E+01   0.4500028504E-02   0.0000000000E+00  -0.6750071260E-03  -0.2538419731E-01   0.0000000000E+00   0.2346049328E-02  -0.8875000012E+01   0.1195196202E-14  -0.1323514596E-14   0.5178913158E-14  -0.8976111504E-14  -0.2548163461E-14  -0.1044208442E-01   0.1671042205E-02   0.1671042205E-02   0.3580625124E-16  -0.4789869170E-16  -0.3292060399E-16   0.8875000012E+01
   0.1979115831E+01   0.1001671042E+01   0.1001671042E+01   0.4500028504E-02  -0.6750071260E-03  -0.6750071260E-03  -0.2538419731E-01   0.2346049328E-02   0.2346049328E-02  -0.8875000011E+01  -0.2087646124E-14  -0.5013508984E-14   0.3568912219E-14   0.9609092459E-14   0.4138516416E-15  -0.1044208442E-01   0.1671042205E-02   0.1671042205E-02   0.6851553273E-16   0.2200407047E-15   0.4919469225E-16   0.8875000011E+01
     1     2     3     4     5     6     7     8
     2     9    10     3     6    11    12     7
 VARIABLES = X,Y,Z,DU1,DU2,DU3,U1,U2,U3,S11,S22,S33,S12,S13,S23,E11,E22,E33,E12,E13,E23,SMISES
 ZONE, T="0.2100D+01" F=FEPOINT, I=   12 J=    2 ET=BRICK
   0.0000000000E+00   0.0000000000E+00   0.0000000000E+00   0.0000000000E+00   0.0000000000E+00   0.0000000000E+00   0.0000000000E+00   0.0000000000E+00   0.0000000000E+00  -0.7750000012E+01   0.9266766256E-14   0.8920284022E-14   0.2467312769E-15  -0.1468343581E-14  -0.1625982326E-14  -0.8192084418E-02   0.9960422040E-03   0.9960422040E-03  -0.3611221823E-18  -0.3447583020E-16  -0.4668555666E-16   0.7750000012E+01
   0.9918079156E+00   0.0000000000E+00  -0.5209161658E-17   0.2250000000E-02   0.0000000000E+00   0.1095847432E-16  -0.1044208440E-01   0.0000000000E+00  -0.1616763598E-16  -0.7750000012E+01  -0.4451780184E-14  -0.3411942514E-14  -0.5946751151E-15  -0.2013359982E-16   0.4484527940E-15  -0.8192084417E-02   0.9960422040E-03   0.9960422040E-03  -0.5565370170E-16   0.4214421764E-16  -0.1959215194E-17   0.7750000012E+01
   0.9918079156E+00   0.1000996042E+01  -0.5912766764E-17   0.2250000000E-02  -0.6750000000E-03   0.1417893582E-16  -0.1044208440E-01   0.1671042202E-02  -0.2009170259E-16  -0.7750000011E+01   0.2927216473E-14   0.2686312146E-14   0.1774315033E-15  -0.6534192424E-15   0.1092690703E-14  -0.8192084417E-02   0.9960422038E-03   0.9960422038E-03  -0.5156781585E-16   0.1005394446E-15   0.3657447284E-16   0.7750000011E+01
   0.0000000000E+00   0.1000996042E+01  -0.2330490466E-16   0.0000000000E+00  -0.6750000000E-03   0.3983783266E-16   0.0000000000E+00   0.1671042202E-02  -0.6314273732E-16  -0.7750000011E+01  -0.6389225673E-14  -0.4186180694E-14   0.6604722328E-15   0.1064342409E-14  -0.1094938145E-15  -0.8192084417E-02   0.9960422039E-03   0.9960422039E-03   0.3160416394E-17   0.3601818346E-16  -0.3089963208E-17   0.7750000011E+01
   0.0000000000E+00   0.0000000000E+00   0.1000996042E+01   0.0000000000E+00   0.0000000000E+00  -0.6750000000E-03   0.0000000000E+00   0.0000000000E+00   0.1671042202E-02  -0.7750000011E+01  -0.2950452430E-14  -0.5752163323E-14  -0.1384014684E-15   0.9360180231E-15   0.2901211603E-15  -0.8192084417E-02   0.9960422039E-03   0.9960422039E-03   0.1384052613E-18   0.4506910389E-16   0.1628258117E-16   0.7750000011E+01
   0.9918079156E+00   0.0000000000E+00   0.1000996042E+01   0.2250000000E-02   0.0000000000E+00  -0.6750000000E-03  -0.1044208440E-01   0.0000000000E+00   0.1671042202E-02  -0.7750000011E+01  -0.1416459031E-14   0.5848596961E-15  -0.3743109843E-15   0.5866711702E-15  -0.5145764124E-15  -0.8192084417E-02   0.9960422038E-03   0.9960422038E-03   0.7450769216E-17   0.4300722385E-16  -0.1694546862E-16   0.7750000011E+01
   0.9918079156E+00   0.1000996042E+01   0.1000996042E+01   0.2250000000E-02  -0.6750000000E-03  -0.6750000000E-03  -0.1044208440E-01   0.1671042202E-02   0.1671042202E-02  -0.7750000010E+01   0.2031067071E-14  -0.4658664428E-15  -0.4972343446E-15   0.1718910048E-15  -0.3735681024E-15  -0.8192084416E-02   0.9960422037E-03   0.9960422037E-03   0.1402275603E-16   0.8791932167E-16   0.1942850751E-16   0.7750000010E+01
   0.0000000000E+00   0.1000996042E+01   0.1000996042E+01   0.0000000000E+00  -0.6750000000E-03  -0.6750000000E-03   0.0000000000E+00   0.1671042202E-02   0.1671042202E-02  -0.7750000010E+01   0.3871190235E-15   0.1321378539E-14   0.3012617743E-15  -0.3839188545E-15   0.1511136937E-14  -0.8192084416E-02   0.9960422037E-03   0.9960422037E-03  -0.8840776445E-17  -0.2886381418E-18   0.6087425894E-16   0.7750000010E+01
   0.1983615831E+01   0.0000000000E+00   0.3327414738E-16   0.4500000000E-02   0.0000000000E+00  -0.5644004811E-16  -0.2088416881E-01   0.0000000000E+00   0.8971419549E-16  -0.7750000012E+01  -0.8665964436E-14  -0.7544462025E-14  -0.8206539457E-15  -0.8422541911E-15  -0.5178283310E-15  -0.8192084417E-02   0.9960422039E-03   0.9960422039E-03  -0.1205479936E-15   0.8576604593E-16  -0.4121788397E-16   0.7750000012E+01
   0.1983615831E+01   0.1000996042E+01   0.1259878064E-16   0.4500000000E-02  -0.6750000000E-03  -0.4749902688E-16  -0.2088416881E-01   0.1671042202E-02   0.6009780752E-16  -0.7750000011E+01   0.8556009969E-14   0.6125085276E-14  -0.4306830969E-15   0.3224921250E-15  -0.9894262231E-16  -0.8192084416E-02   0.9960422038E-03   0.9960422038E-03  -0.1244002593E-15   0.1685382650E-15   0.2052152157E-16   0.7750000011E+01
   0.1983615831E+01   0.0000000000E+00   0.1000996042E+01   0.4500000000E-02   0.0000000000E+00  -0.6750000000E-03  -0.2088416881E-01   0.0000000000E+00   0.1671042202E-02  -0.7750000011E+01   0.8420292606E-14   0.8817232733E-14   0.2050587736E-14  -0.2308126194E-14  -0.7448696001E-15  -0.8192084416E-02   0.9960422038E-03   0.9960422038E-03   0.6823315852E-17   0.3263220612E-16  -0.1567883313E-16   0.7750000011E+01
   0.1983615831E+01   0.1000996042E+01   0.1000996042E+01   0.4500000000E-02  -0.6750000000E-03  -0.6750000000E-03  -0.2088416881E-01   0.1671042202E-02   0.1671042202E-02  -0.7750000010E+01  -0.8136901604E-14  -0.7376078720E-14   0.4957083260E-15   0.2350345288E-14   0.7993491701E-16  -0.8192084415E-02   0.9960422037E-03   0.9960422037E-03   0.4153505627E-16   0.1544318679E-15   0.4377316646E-16   0.7750000010E+01
     1     2     3     4     5     6     7     8
     2     9    10     3     6    11    12     7
 VARIABLES = X,Y,Z,DU1,DU2,DU3,U1,U2,U3,S11,S22,S33,S12,S13,S23,E11,E22,E33,E12,E13,E23,SMISES
 ZONE, T="0.2150D+01" F=FEPOINT, I=   12 J=    2 ET=BRICK
   0.0000000000E+00   0.0000000000E+00   0.0000000000E+00   0.0000000000E+00   0.0000000000E+00   0.0000000000E+00   0.0000000000E+00   0.0000000000E+00   0.0000000000E+00  -0.6625000010E+01   0.9096247367E-14   0.8485624810E-14   0.2441021628E-15  -0.1634150783E-14  -0.1620688607E-14  -0.5942084414E-02   0.3210422029E-03   0.3210422029E-03  -0.2570504140E-18  -0.3603690333E-16  -0.4641450623E-16   0.6625000010E+01
   0.9940579156E+00   0.0000000000E+00  -0.5292629458E-17   0.2250000000E-02   0.0000000000E+00  -0.8346780020E-19  -0.8192084405E-02   0.0000000000E+00  -0.5209161658E-17  -0.6625000010E+01  -0.3623098515E-14  -0.2542623877E-14   0.3218182334E-15   0.1004152090E-14   0.5679432576E-15  -0.5942084414E-02   0.3210422029E-03   0.3210422029E-03  -0.4494685121E-16   0.5385311169E-16  -0.1744784575E-18   0.6625000010E+01
   0.9940579156E+00   0.1000321042E+01  -0.5391592979E-17   0.2250000000E-02  -0.6750000000E-03   0.5211737843E-18  -0.8192084405E-02   0.9960422024E-03  -0.5912766764E-17  -0.6625000009E+01   0.2705171917E-14   0.2837971459E-14   0.8868593099E-15  -0.1007887865E-14   0.1103508479E-14  -0.5942084413E-02   0.3210422029E-03   0.3210422029E-03  -0.4632659716E-16   0.1015070607E-15   0.3695604137E-16   0.6625000009E+01
   0.0000000000E+00   0.1000321042E+01  -0.2327249891E-16   0.0000000000E+00  -0.6750000000E-03   0.3240574975E-19   0.0000000000E+00   0.9960422024E-03  -0.2330490466E-16  -0.6625000010E+01  -0.5368247785E-14  -0.3352054743E-14   0.2908367161E-15   0.1149878903E-14  -0.3081700074E-15  -0.5942084413E-02   0.3210422029E-03   0.3210422029E-03   0.3688105014E-18   0.3517943103E-16  -0.4936409969E-17   0.6625000010E+01
   0.0000000000E+00   0.0000000000E+00   0.1000321042E+01   0.0000000000E+00   0.0000000000E+00  -0.6750000000E-03   0.0000000000E+00   0.0000000000E+00   0.9960422024E-03  -0.6625000010E+01  -0.1910614880E-14  -0.3726540538E-14  -0.1452239198E-15   0.6041519609E-15   0.1332305638E-15  -0.5942084413E-02   0.3210422029E-03   0.3210422029E-03   0.3257846640E-18   0.4022139988E-16   0.1486792762E-16   0.6625000010E+01
   0.9940579156E+00   0.0000000000E+00   0.1000321042E+01   0.2250000000E-02   0.0000000000E+00  -0.6750000000E-03  -0.8192084405E-02   0.0000000000E+00   0.9960422024E-03  -0.6625000009E+01  -0.2163866699E-14  -0.3142072163E-15  -0.6838030107E-15   0.1216852142E-14  -0.3212261653E-15  -0.5942084413E-02   0.3210422029E-03   0.3210422029E-03   0.2711682204E-17   0.5130620160E-16  -0.1581312830E-16   0.6625000009E+01
   0.9940579156E+00   0.1000321042E+01   0.1000321042E+01   0.2250000000E-02  -0.6750000000E-03  -0.6750000000E-03  -0.8192084405E-02   0.9960422024E-03   0.9960422024E-03  -0.6625000009E+01   0.2231334326E-14   0.1596302881E-15  -0.9598989890E-15  -0.3376382144E-15  -0.2858463759E-15  -0.5942084413E-02   0.3210422028E-03   0.3210422028E-03   0.1031188711E-16   0.7870887405E-16   0.2132609637E-16   0.6625000009E+01
   0.0000000000E+00   0.1000321042E+01   0.1000321042E+01   0.0000000000E+00  -0.6750000000E-03  -0.6750000000E-03   0.0000000000E+00   0.9960422024E-03   0.9960422024E-03  -0.6625000009E+01  -0.3791482993E-15   0.3424965300E-15   0.4438018593E-16  -0.2696410061E-15   0.1174627214E-14  -0.5942084413E-02   0.3210422028E-03   0.3210422028E-03  -0.1088291807E-16   0.3540560478E-17   0.5793468615E-16   0.6625000009E+01
   0.1988115831E+01   0.0000000000E+00   0.3585164142E-16   0.4500000000E-02   0.0000000000E+00   0.2577494037E-17  -0.1638416881E-01   0.0000000000E+00   0.3327414738E-16  -0.6625000010E+01  -0.5787355982E-14  -0.5474216755E-14  -0.2179009729E-14  -0.1283007526E-14  -0.7656842070E-15  -0.5942084414E-02   0.3210422029E-03   0.3210422029E-03  -0.1419646067E-15   0.7667127623E-16  -0.4403746837E-16   0.6625000010E+01
   0.1988115831E+01   0.1000321042E+01   0.1393740013E-16   0.4500000000E-02  -0.6750000000E-03   0.1338619491E-17  -0.1638416881E-01   0.9960422024E-03   0.1259878064E-16  -0.6625000009E+01   0.6809401763E-14   0.4646602941E-14  -0.1835219527E-14   0.1058312722E-14  -0.3801227246E-15  -0.5942084413E-02   0.3210422029E-03   0.3210422029E-03  -0.1431288177E-15   0.1707699095E-15   0.1716220116E-16   0.6625000009E+01
   0.1988115831E+01   0.0000000000E+00   0.1000321042E+01   0.4500000000E-02   0.0000000000E+00  -0.6750000000E-03  -0.1638416881E-01   0.0000000000E+00   0.9960422024E-03  -0.6625000009E+01   0.6936365945E-14   0.6710335977E-14   0.2378188280E-14  -0.3592088493E-14  -0.5881384118E-15  -0.5942084413E-02   0.3210422029E-03   0.3210422029E-03   0.1117953612E-16  -0.6962946719E-17  -0.1413951371E-16   0.6625000009E+01
   0.1988115831E+01   0.1000321042E+01   0.1000321042E+01   0.4500000000E-02  -0.6750000000E-03  -0.6750000000E-03  -0.1638416881E-01   0.9960422024E-03   0.9960422024E-03  -0.6625000008E+01  -0.7251640978E-14  -0.6581521897E-14   0.8560327066E-15   0.2776794358E-14   0.1377335913E-15  -0.5942084412E-02   0.3210422028E-03   0.3210422028E-03   0.4132384161E-16   0.1677342411E-15   0.4492553537E-16   0.6625000008E+01
     1     2     3     4     5     6     7     8
     2     9    10     3     6    11    12     7
 VARIABLES = X,Y,Z,DU1,DU2,DU3,U1,U2,U3,S11,S22,S33,S12,S13,S23,E11,E22,E33,E12,E13,E23,SMISES
 ZONE, T="0.2200D+01" F=FEPOINT, I=   12 J=    2 ET=BRICK
   0.0000000000E+00   0.0000000000E+00   0.0000000000E+00   0.0000000000E+00   0.0000000000E+00   0.0000000000E+00   0.0000000000E+00   0.0000000000E+00   0.0000000000E+00  -0.5500000009E+01   0.8448973283E-14   0.6772020929E-14   0.2472598741E-15  -0.2074573586E-14  -0.1735593179E-14  -0.3692084411E-02  -0.3539577981E-03  -0.3539577981E-03  -0.4664477705E-18  -0.4010337002E-16  -0.4742319175E-16   0.5500000009E+01
   0.9963079156E+00   0.0000000000E+00  -0.8279534142E-17   0.2250000000E-02   0.0000000000E+00  -0.2986904684E-17  -0.5942084405E-02   0.0000000000E+00  -0.5292629458E-17  -0.5500000008E+01  -0.3956165373E-14  -0.2825623951E-14   0.3974969291E-15   0.1199484904E-14   0.6927920933E-15  -0.3692084411E-02  -0.3539577981E-03  -0.3539577981E-03  -0.4499164148E-16   0.5404700865E-16   0.8647781809E-18   0.5500000008E+01
   0.9963079156E+00   0.9996460422E+00  -0.7729114220E-17   0.2250000000E-02  -0.6750000000E-03  -0.2337521240E-17  -0.5942084405E-02   0.3210422024E-03  -0.5391592979E-17  -0.5500000008E+01   0.2512875663E-14   0.2266527025E-14   0.1154469182E-14  -0.1248380754E-14   0.1046953980E-14  -0.3692084410E-02  -0.3539577981E-03  -0.3539577981E-03  -0.4353816174E-16   0.9579083319E-16   0.3684803364E-16   0.5500000008E+01
   0.0000000000E+00   0.9996460422E+00  -0.2377463559E-16   0.0000000000E+00  -0.6750000000E-03  -0.5021366735E-18   0.0000000000E+00   0.3210422024E-03  -0.2327249891E-16  -0.5500000008E+01  -0.5419773452E-14  -0.3178813697E-14   0.2960111524E-15   0.9744627455E-15  -0.5814913773E-15  -0.3692084410E-02  -0.3539577981E-03  -0.3539577981E-03   0.1354963949E-18   0.3446710630E-16  -0.8166488512E-17   0.5500000008E+01
   0.0000000000E+00   0.0000000000E+00   0.9996460422E+00   0.0000000000E+00   0.0000000000E+00  -0.6750000000E-03   0.0000000000E+00   0.0000000000E+00   0.3210422024E-03  -0.5500000008E+01  -0.2077148332E-14  -0.3870033354E-14  -0.1026262276E-15   0.5573940310E-15   0.3813157021E-15  -0.3692084410E-02  -0.3539577981E-03  -0.3539577981E-03   0.7485213866E-18   0.3861102852E-16   0.1769733941E-16   0.5500000008E+01
   0.9963079156E+00   0.0000000000E+00   0.9996460422E+00   0.2250000000E-02   0.0000000000E+00  -0.6750000000E-03  -0.5942084405E-02   0.0000000000E+00   0.3210422024E-03  -0.5500000008E+01  -0.1638503586E-14   0.4792817821E-15  -0.1168986489E-14   0.1427497846E-14  -0.3004214228E-15  -0.3692084410E-02  -0.3539577981E-03  -0.3539577981E-03  -0.2028187100E-17   0.5536842390E-16  -0.1562789935E-16   0.5500000008E+01
   0.9963079156E+00   0.9996460422E+00   0.9996460422E+00   0.2250000000E-02  -0.6750000000E-03  -0.6750000000E-03  -0.5942084405E-02   0.3210422024E-03   0.3210422024E-03  -0.5500000007E+01   0.2231334326E-14   0.1204521199E-15  -0.1259747422E-14  -0.5651380479E-15  -0.3942815527E-15  -0.3692084410E-02  -0.3539577980E-03  -0.3539577980E-03   0.8667179039E-17   0.7892528627E-16   0.1975106358E-16   0.5500000007E+01
   0.0000000000E+00   0.9996460422E+00   0.9996460422E+00   0.0000000000E+00  -0.6750000000E-03  -0.6750000000E-03   0.0000000000E+00   0.3210422024E-03   0.3210422024E-03  -0.5500000007E+01  -0.6160670500E-15   0.5707148404E-15   0.1462768082E-15  -0.5967265908E-15   0.1121004499E-14  -0.3692084410E-02  -0.3539577981E-03  -0.3539577981E-03  -0.1029163788E-16  -0.7191376258E-18   0.5657682960E-16   0.5500000007E+01
   0.1992615831E+01   0.0000000000E+00   0.2635094164E-16   0.4500000000E-02   0.0000000000E+00  -0.9500699775E-17  -0.1188416881E-01   0.0000000000E+00   0.3585164142E-16  -0.5500000008E+01  -0.5140081898E-14  -0.5569635459E-14  -0.2007891447E-14  -0.1155758977E-14  -0.4580158568E-15  -0.3692084410E-02  -0.3539577981E-03  -0.3539577981E-03  -0.1382031871E-15   0.7831251135E-16  -0.4056309826E-16   0.5500000008E+01
   0.1992615831E+01   0.9996460422E+00   0.6001529160E-17   0.4500000000E-02  -0.6750000000E-03  -0.7935870972E-17  -0.1188416881E-01   0.3210422024E-03   0.1393740013E-16  -0.5500000008E+01   0.7142468636E-14   0.4329673558E-14  -0.1371074765E-14   0.8345705606E-15  -0.4148876616E-15  -0.3692084410E-02  -0.3539577981E-03  -0.3539577981E-03  -0.1377306102E-15   0.1658921906E-15   0.1547497114E-16   0.5500000008E+01
   0.1992615831E+01   0.0000000000E+00   0.9996460422E+00   0.4500000000E-02   0.0000000000E+00  -0.6750000000E-03  -0.1188416881E-01   0.0000000000E+00   0.3210422024E-03  -0.5500000008E+01   0.7487491906E-14   0.7441606173E-14   0.1939774579E-14  -0.3049343262E-14  -0.3693129028E-15  -0.3692084410E-02  -0.3539577981E-03  -0.3539577981E-03   0.3467168122E-17  -0.7730064695E-17  -0.1233809057E-16   0.5500000008E+01
   0.1992615831E+01   0.9996460422E+00   0.9996460422E+00   0.4500000000E-02  -0.6750000000E-03  -0.6750000000E-03  -0.1188416881E-01   0.3210422024E-03   0.3210422024E-03  -0.5500000007E+01  -0.7680855943E-14  -0.6798851548E-14   0.3760262126E-15   0.2581582506E-14   0.1195342639E-15  -0.3692084410E-02  -0.3539577980E-03  -0.3539577980E-03   0.3278043830E-16   0.1672352700E-15   0.4550939358E-16   0.5500000007E+01
     1     2     3     4     5     6     7     8
     2     9    10     3     6    11    12     7
 VARIABLES = X,Y,Z,DU1,DU2,DU3,U1,U2,U3,S11,S22,S33,S12,S13,S23,E11,E22,E33,E12,E13,E23,SMISES
 ZONE, T="0.2250D+01" F=FEPOINT, I=   12 J=    2 ET=BRICK
   0.0000000000E+00   0.0000000000E+00   0.0000000000E+00   0.0000000000E+00   0.0000000000E+00   0.0000000000E+00   0.0000000000E+00   0.0000000000E+00   0.0000000000E+00  -0.4375000007E+01   0.8490339695E-14   0.7296120721E-14   0.2129794165E-15  -0.1626027867E-14  -0.1756250068E-14  -0.1442084407E-02  -0.1028957799E-02  -0.1028957799E-02  -0.4200400536E-18  -0.3405813247E-16  -0.4805016051E-16   0.4375000007E+01
   0.9985579156E+00   0.0000000000E+00  -0.6461243152E-17   0.2250000000E-02   0.0000000000E+00   0.1818290990E-17  -0.3692084405E-02   0.0000000000E+00  -0.8279534142E-17  -0.4375000007E+01  -0.4198528445E-14  -0.3053112861E-14   0.5934614383E-15   0.9539163304E-15   0.5532804699E-15  -0.1442084407E-02  -0.1028957799E-02  -0.1028957799E-02  -0.4349196739E-16   0.4863206026E-16  -0.1880793894E-18   0.4375000007E+01
   0.9985579156E+00   0.9989710422E+00  -0.6644132249E-17   0.2250000000E-02  -0.6750000000E-03   0.1084981971E-17  -0.3692084405E-02  -0.3539577976E-03  -0.7729114220E-17  -0.4375000006E+01   0.2648201946E-14   0.2346342169E-14   0.1370762766E-14  -0.1561506588E-14   0.8905658410E-15  -0.1442084407E-02  -0.1028957799E-02  -0.1028957799E-02  -0.4177923307E-16   0.9680511950E-16   0.3462009402E-16   0.4375000006E+01
   0.0000000000E+00   0.9989710422E+00  -0.2385817736E-16   0.0000000000E+00  -0.6750000000E-03  -0.8354176980E-19   0.0000000000E+00  -0.3539577976E-03  -0.2377463559E-16  -0.4375000006E+01  -0.5189562399E-14  -0.3052187838E-14   0.4145979050E-15   0.1170360818E-14  -0.3838620632E-15  -0.1442084407E-02  -0.1028957799E-02  -0.1028957799E-02   0.1790125760E-17   0.3523496230E-16  -0.4998985289E-17   0.4375000006E+01
   0.0000000000E+00   0.0000000000E+00   0.9989710422E+00   0.0000000000E+00   0.0000000000E+00  -0.6750000000E-03   0.0000000000E+00   0.0000000000E+00  -0.3539577976E-03  -0.4375000006E+01  -0.1408292459E-14  -0.3339955324E-14  -0.8186106821E-16   0.8296540235E-15   0.1858594700E-15  -0.1442084407E-02  -0.1028957799E-02  -0.1028957799E-02   0.2636766825E-18   0.4305235314E-16   0.1543374215E-16   0.4375000006E+01
   0.9985579156E+00   0.0000000000E+00   0.9989710422E+00   0.2250000000E-02   0.0000000000E+00  -0.6750000000E-03  -0.3692084405E-02   0.0000000000E+00  -0.3539577976E-03  -0.4375000006E+01  -0.1714333208E-14   0.4183263228E-15  -0.1341116302E-14   0.1298526552E-14  -0.3820030602E-15  -0.1442084407E-02  -0.1028957799E-02  -0.1028957799E-02  -0.3136867736E-17   0.5048427748E-16  -0.1617382808E-16   0.4375000006E+01
   0.9985579156E+00   0.9989710422E+00   0.9989710422E+00   0.2250000000E-02  -0.6750000000E-03  -0.6750000000E-03  -0.3692084405E-02  -0.3539577976E-03  -0.3539577976E-03  -0.4375000006E+01   0.1988971253E-14  -0.1774220917E-15  -0.1249234043E-14  -0.6760066928E-15  -0.4853522307E-15  -0.1442084407E-02  -0.1028957799E-02  -0.1028957799E-02   0.9396580891E-17   0.7834234833E-16   0.1897382940E-16   0.4375000006E+01
   0.0000000000E+00   0.9989710422E+00   0.9989710422E+00   0.0000000000E+00  -0.6750000000E-03  -0.6750000000E-03   0.0000000000E+00  -0.3539577976E-03  -0.3539577976E-03  -0.4375000006E+01  -0.1273500335E-14  -0.2377022956E-16  -0.6886660588E-16  -0.3280920939E-15   0.1189513702E-14  -0.1442084407E-02  -0.1028957799E-02  -0.1028957799E-02  -0.1247534440E-16   0.1206949323E-17   0.5714792515E-16   0.4375000006E+01
   0.1997115831E+01   0.0000000000E+00   0.2906319752E-16   0.4500000000E-02   0.0000000000E+00   0.2712255877E-17  -0.7384168810E-02   0.0000000000E+00   0.2635094164E-16  -0.4375000007E+01  -0.5473878158E-14  -0.6497187376E-14  -0.1857788371E-14  -0.8234926522E-15  -0.4396158771E-15  -0.1442084407E-02  -0.1028957799E-02  -0.1028957799E-02  -0.1353699293E-15   0.8396698868E-16  -0.4068222053E-16   0.4375000007E+01
   0.1997115831E+01   0.9989710422E+00   0.8776625714E-17   0.4500000000E-02  -0.6750000000E-03   0.2775096553E-17  -0.7384168810E-02  -0.3539577976E-03   0.6001529160E-17  -0.4375000006E+01   0.6952894550E-14   0.4658025501E-14  -0.1106933228E-14   0.7441269018E-15  -0.4109133605E-15  -0.1442084407E-02  -0.1028957799E-02  -0.1028957799E-02  -0.1339237788E-15   0.1616821942E-15   0.1695345685E-16   0.4375000006E+01
   0.1997115831E+01   0.0000000000E+00   0.9989710422E+00   0.4500000000E-02   0.0000000000E+00  -0.6750000000E-03  -0.7384168810E-02   0.0000000000E+00  -0.3539577976E-03  -0.4375000006E+01   0.8435362337E-14   0.8417232170E-14   0.1432959347E-14  -0.2873243111E-14  -0.9888524936E-16  -0.1442084407E-02  -0.1028957799E-02  -0.1028957799E-02  -0.6224196517E-19   0.6433319154E-18  -0.9582739316E-17   0.4375000006E+01
   0.1997115831E+01   0.9989710422E+00   0.9989710422E+00   0.4500000000E-02  -0.6750000000E-03  -0.6750000000E-03  -0.7384168810E-02  -0.3539577976E-03  -0.3539577976E-03  -0.4375000006E+01  -0.7315852506E-14  -0.6082455491E-14   0.3309758754E-16   0.2677048054E-14   0.4597101116E-15  -0.1442084407E-02  -0.1028957799E-02  -0.1028957799E-02   0.3005216363E-16   0.1602048372E-15   0.4820274244E-16   0.4375000006E+01
     1     2     3     4     5     6     7     8
     2     9    10     3     6    11    12     7
 VARIABLES = X,Y,Z,DU1,DU2,DU3,U1,U2,U3,S11,S22,S33,S12,S13,S23,E11,E22,E33,E12,E13,E23,SMISES
 ZONE, T="0.2300D+01" F=FEPOINT, I=   12 J=    2 ET=BRICK
   0.0000000000E+00   0.0000000000E+00   0.0000000000E+00   0.0000000000E+00   0.0000000000E+00   0.0000000000E+00   0.0000000000E+00   0.0000000000E+00   0.0000000000E+00  -0.3250000005E+01   0.8497047356E-14   0.6436231903E-14   0.2156833356E-15  -0.1942035917E-14  -0.1640359917E-14   0.8079155964E-03  -0.1703957800E-02  -0.1703957800E-02   0.3014714066E-18  -0.3687536916E-16  -0.4629502272E-16   0.3250000005E+01
   0.1000807916E+01   0.0000000000E+00  -0.8252482848E-17   0.2250000000E-02   0.0000000000E+00  -0.1791239697E-17  -0.1442084405E-02   0.0000000000E+00  -0.6461243152E-17  -0.3250000005E+01  -0.4455765672E-14  -0.3204772140E-14   0.6998532328E-15   0.9295679018E-15   0.7145774316E-15   0.8079155964E-03  -0.1703957800E-02  -0.1703957800E-02  -0.4431200312E-16   0.4852494161E-16   0.1428461681E-17   0.3250000005E+01
   0.1000807916E+01   0.9982960422E+00  -0.7614170692E-17   0.2250000000E-02  -0.6750000000E-03  -0.9700384428E-18  -0.1442084405E-02  -0.1028957798E-02  -0.6644132249E-17  -0.3250000005E+01   0.3012475937E-14   0.2386979145E-14   0.1268872932E-14  -0.1254697969E-14   0.8298712541E-15   0.8079155963E-03  -0.1703957800E-02  -0.1703957800E-02  -0.4374366669E-16   0.9772513109E-16   0.3337010957E-16   0.3250000005E+01
   0.0000000000E+00   0.9982960422E+00  -0.2321032100E-16   0.0000000000E+00  -0.6750000000E-03   0.6478563541E-18   0.0000000000E+00  -0.1028957798E-02  -0.2385817736E-16  -0.3250000005E+01  -0.4916721552E-14  -0.2976358209E-14   0.3703035168E-15   0.9139648499E-15  -0.4917886649E-15   0.8079155963E-03  -0.1703957800E-02  -0.1703957800E-02   0.2130112437E-17   0.3345940014E-16  -0.6290540644E-17   0.3250000005E+01
   0.0000000000E+00   0.0000000000E+00   0.9982960422E+00   0.0000000000E+00   0.0000000000E+00  -0.6750000000E-03   0.0000000000E+00   0.0000000000E+00  -0.1028957798E-02  -0.3250000005E+01  -0.1939829285E-14  -0.3719103509E-14  -0.9563012931E-16   0.6149297317E-15   0.3728962080E-15   0.8079155963E-03  -0.1703957800E-02  -0.1703957800E-02  -0.2079074212E-18   0.4078057800E-16   0.1706030474E-16   0.3250000005E+01
   0.1000807916E+01   0.0000000000E+00   0.9982960422E+00   0.2250000000E-02   0.0000000000E+00  -0.6750000000E-03  -0.1442084405E-02   0.0000000000E+00  -0.1028957798E-02  -0.3250000005E+01  -0.1805037028E-14   0.4589632987E-15  -0.8570291313E-15   0.1331985884E-14  -0.2484640225E-15   0.8079155963E-03  -0.1703957800E-02  -0.1703957800E-02   0.3229425945E-17   0.4978793290E-16  -0.1496100150E-16   0.3250000005E+01
   0.1000807916E+01   0.9982960422E+00   0.9982960422E+00   0.2250000000E-02  -0.6750000000E-03  -0.6750000000E-03  -0.1442084405E-02  -0.1028957798E-02  -0.1028957798E-02  -0.3250000004E+01   0.2064800884E-14   0.5551113871E-16  -0.7361108708E-15  -0.4108660632E-15  -0.5130598263E-15   0.8079155962E-03  -0.1703957800E-02  -0.1703957800E-02   0.1294889052E-16   0.8198852997E-16   0.1907800300E-16   0.3250000004E+01
   0.0000000000E+00   0.9982960422E+00   0.9982960422E+00   0.0000000000E+00  -0.6750000000E-03  -0.6750000000E-03   0.0000000000E+00  -0.1028957798E-02  -0.1028957798E-02  -0.3250000004E+01  -0.7345263992E-15   0.5328000309E-15  -0.9301910087E-16  -0.4096222928E-15   0.1103951414E-14   0.8079155962E-03  -0.1703957800E-02  -0.1703957800E-02  -0.1244182978E-16   0.2425232778E-18   0.5682619782E-16   0.3250000004E+01
   0.2001615831E+01   0.0000000000E+00   0.2493757790E-16   0.4500000000E-02   0.0000000000E+00  -0.4125619618E-17  -0.2884168810E-02   0.0000000000E+00   0.2906319752E-16  -0.3250000005E+01  -0.5521222854E-14  -0.6325209625E-14  -0.1945516593E-14  -0.3471159367E-15  -0.5372436497E-15   0.8079155964E-03  -0.1703957800E-02  -0.1703957800E-02  -0.1371954405E-15   0.8495703060E-16  -0.4215444640E-16   0.3250000005E+01
   0.2001615831E+01   0.9982960422E+00   0.4131718200E-17   0.4500000000E-02  -0.6750000000E-03  -0.4644907514E-17  -0.2884168810E-02  -0.1028957798E-02   0.8776625714E-17  -0.3250000005E+01   0.6306349854E-14   0.4278877315E-14  -0.1341809286E-14   0.6227918037E-15  -0.5472597872E-15   0.8079155963E-03  -0.1703957800E-02  -0.1703957800E-02  -0.1375402167E-15   0.1595885952E-15   0.1677818028E-16   0.3250000005E+01
   0.2001615831E+01   0.0000000000E+00   0.9982960422E+00   0.4500000000E-02   0.0000000000E+00  -0.6750000000E-03  -0.2884168810E-02   0.0000000000E+00  -0.1028957798E-02  -0.3250000005E+01   0.8349373409E-14   0.8493061798E-14   0.1820213150E-14  -0.2946368171E-14  -0.2094929375E-15   0.8079155963E-03  -0.1703957800E-02  -0.1703957800E-02   0.4930994146E-17   0.9555494019E-17  -0.9620750299E-17   0.3250000005E+01
   0.2001615831E+01   0.9982960422E+00   0.9982960422E+00   0.4500000000E-02  -0.6750000000E-03  -0.6750000000E-03  -0.2884168810E-02  -0.1028957798E-02  -0.1028957798E-02  -0.3250000004E+01  -0.8561597193E-14  -0.6557751800E-14   0.3894970786E-15   0.2884816311E-14   0.2572212147E-15   0.8079155962E-03  -0.1703957800E-02  -0.1703957800E-02   0.3578909149E-16   0.1596522782E-15   0.4332287337E-16   0.3250000004E+01
     1     2     3     4     5     6     7     8
     2     9    10     3     6    11    12     7
 VARIABLES = X,Y,Z,DU1,DU2,DU3,U1,U2,U3,S11,S22,S33,S12,S13,S23,E11,E22,E33,E12,E13,E23,SMISES
 ZONE, T="0.2350D+01" F=FEPOINT, I=   12 J=    2 ET=BRICK
   0.0000000000E+00   0.0000000000E+00   0.0000000000E+00   0.0000000000E+00   0.0000000000E+00   0.0000000000E+00   0.0000000000E+00   0.0000000000E+00   0.0000000000E+00  -0.2125000003E+01   0.8352193493E-14   0.6619098326E-14   0.2213593896E-15  -0.1794241242E-14  -0.1814385939E-14   0.3057915600E-02  -0.2378957801E-02  -0.2378957801E-02   0.6877532452E-19  -0.3514729325E-16  -0.4825605555E-16   0.2125000003E+01
   0.1003057916E+01   0.0000000000E+00  -0.6921267265E-17   0.2250000000E-02   0.0000000000E+00   0.1331215584E-17   0.8079155952E-03   0.0000000000E+00  -0.8252482848E-17  -0.2125000003E+01  -0.4771236207E-14  -0.3275157441E-14   0.4622564855E-15   0.9605180908E-15   0.5669032993E-15   0.3057915600E-02  -0.2378957801E-02  -0.2378957801E-02  -0.4646276220E-16   0.4812555238E-16   0.1505597547E-18   0.2125000003E+01
   0.1003057916E+01   0.9976210422E+00  -0.7021868311E-17   0.2250000000E-02  -0.6750000000E-03   0.5923023812E-18   0.8079155952E-03  -0.1703957798E-02  -0.7614170692E-17  -0.2125000003E+01   0.3042953684E-14   0.2544082748E-14   0.1043363247E-14  -0.1364557803E-14   0.1000022827E-14   0.3057915600E-02  -0.2378957801E-02  -0.2378957801E-02  -0.4482779253E-16   0.9774025423E-16   0.3435578726E-16   0.2125000003E+01
   0.0000000000E+00   0.9976210422E+00  -0.2406669629E-16   0.0000000000E+00  -0.6750000000E-03  -0.8563752906E-18   0.0000000000E+00  -0.1703957798E-02  -0.2321032100E-16  -0.2125000003E+01  -0.5062037883E-14  -0.2590502366E-14   0.4527172141E-15   0.1063320820E-14  -0.4590054604E-15   0.3057915600E-02  -0.2378957801E-02  -0.2378957801E-02   0.2441665319E-17   0.3475577297E-16  -0.5893119458E-17   0.2125000003E+01
   0.0000000000E+00   0.0000000000E+00   0.9976210422E+00   0.0000000000E+00   0.0000000000E+00  -0.6750000000E-03   0.0000000000E+00   0.0000000000E+00  -0.1703957798E-02  -0.2125000003E+01  -0.1575190582E-14  -0.3675744363E-14  -0.1012915479E-15   0.7599261605E-15   0.2880874503E-15   0.3057915600E-02  -0.2378957801E-02  -0.2378957801E-02   0.2148763710E-19   0.4225914986E-16   0.1696980513E-16   0.2125000003E+01
   0.1003057916E+01   0.0000000000E+00   0.9976210422E+00   0.2250000000E-02   0.0000000000E+00  -0.6750000000E-03   0.8079155952E-03   0.0000000000E+00  -0.1703957798E-02  -0.2125000003E+01  -0.1274958994E-14   0.6349265530E-15  -0.1198805291E-14   0.1265393007E-14  -0.4530924200E-15   0.3057915600E-02  -0.2378957801E-02  -0.2378957801E-02  -0.4142325162E-18   0.4970652871E-16  -0.1686613850E-16   0.2125000003E+01
   0.1003057916E+01   0.9976210422E+00   0.9976210422E+00   0.2250000000E-02  -0.6750000000E-03  -0.6750000000E-03   0.8079155952E-03  -0.1703957798E-02  -0.1703957798E-02  -0.2125000003E+01   0.2335648938E-14  -0.2071704175E-15  -0.1060390167E-14  -0.4443299343E-15  -0.4660663003E-15   0.3057915599E-02  -0.2378957801E-02  -0.2378957801E-02   0.8974389627E-17   0.8276459714E-16   0.1878478442E-16   0.2125000003E+01
   0.0000000000E+00   0.9976210422E+00   0.9976210422E+00   0.0000000000E+00  -0.6750000000E-03  -0.6750000000E-03   0.0000000000E+00  -0.1703957798E-02  -0.1703957798E-02  -0.2125000003E+01  -0.1460983922E-14   0.1130148807E-15   0.8121586938E-16  -0.4720387018E-15   0.1308293960E-14   0.3057915599E-02  -0.2378957801E-02  -0.2378957801E-02  -0.1123250236E-16  -0.1764964112E-17   0.5728845079E-16   0.2125000003E+01
   0.2006115831E+01   0.0000000000E+00   0.2947627664E-16   0.4500000000E-02   0.0000000000E+00   0.4538698740E-17   0.1615831190E-02   0.0000000000E+00   0.2493757790E-16  -0.2125000003E+01  -0.6084598515E-14  -0.6648846652E-14  -0.1245904760E-14  -0.4337973305E-15  -0.4213489444E-15   0.3057915600E-02  -0.2378957801E-02  -0.2378957801E-02  -0.1275671100E-15   0.8847332567E-16  -0.4069454674E-16   0.2125000003E+01
   0.2006115831E+01   0.9976210422E+00   0.9335507008E-17   0.4500000000E-02  -0.6750000000E-03   0.5203788808E-17   0.1615831190E-02  -0.1703957798E-02   0.4131718200E-17  -0.2125000003E+01   0.7223377849E-14   0.5206429253E-14  -0.6266483055E-15   0.4971283235E-15  -0.2405334125E-15   0.3057915599E-02  -0.2378957801E-02  -0.2378957801E-02  -0.1280267854E-15   0.1550602323E-15   0.1837162642E-16   0.2125000003E+01
   0.2006115831E+01   0.0000000000E+00   0.9976210422E+00   0.4500000000E-02   0.0000000000E+00  -0.6750000000E-03   0.1615831190E-02   0.0000000000E+00  -0.1703957798E-02  -0.2125000003E+01   0.7757245795E-14   0.7802428587E-14   0.1996694803E-14  -0.2665089073E-14  -0.2636662231E-15   0.3057915599E-02  -0.2378957801E-02  -0.2378957801E-02   0.4528608939E-17   0.1156366535E-16  -0.1035984888E-16   0.2125000003E+01
   0.2006115831E+01   0.9976210422E+00   0.9976210422E+00   0.4500000000E-02  -0.6750000000E-03  -0.6750000000E-03   0.1615831190E-02  -0.1703957798E-02  -0.1703957798E-02  -0.2125000003E+01  -0.8369932591E-14  -0.6663329762E-14   0.3333706761E-15   0.2309336007E-14   0.3619205946E-15   0.3057915599E-02  -0.2378957801E-02  -0.2378957801E-02   0.3471716953E-16   0.1551265419E-15   0.4621259205E-16   0.2125000003E+01
     1     2     3     4     5     6     7     8
     2     9    10     3     6    11    12     7
 VARIABLES = X,Y,Z,DU1,DU2,DU3,U1,U2,U3,S11,S22,S33,S12,S13,S23,E11,E22,E33,E12,E13,E23,SMISES
 ZONE, T="0.2400D+01" F=FEPOINT, I=   12 J=    2 ET=BRICK
   0.0000000000E+00   0.0000000000E+00   0.0000000000E+00   0.0000000000E+00   0.0000000000E+00   0.0000000000E+00   0.0000000000E+00   0.0000000000E+00   0.0000000000E+00  -0.1000000002E+01   0.8640090820E-14   0.6814383715E-14   0.2131459993E-15  -0.1718295480E-14  -0.1603221387E-14   0.5307915604E-02  -0.3053957802E-02  -0.3053957802E-02   0.6085325896E-19  -0.3485216349E-16  -0.4551673766E-16   0.1000000002E+01
   0.1005307916E+01   0.0000000000E+00  -0.7175348474E-17   0.2250000000E-02   0.0000000000E+00  -0.2540812094E-18   0.3057915595E-02   0.0000000000E+00  -0.6921267265E-17  -0.1000000002E+01  -0.4498030698E-14  -0.3214201976E-14   0.3961543433E-15   0.7669729817E-15   0.6082050426E-15   0.5307915603E-02  -0.3053957802E-02  -0.3053957802E-02  -0.4729901043E-16   0.4405118393E-16   0.6057439297E-19   0.1000000002E+01
   0.1005307916E+01   0.9969460422E+00  -0.7062331060E-17   0.2250000000E-02  -0.6750000000E-03  -0.4046274885E-19   0.3057915595E-02  -0.2378957798E-02  -0.7021868311E-17  -0.1000000001E+01   0.3117422237E-14   0.2386979156E-14   0.9049841864E-15  -0.1228917841E-14   0.9012991906E-15   0.5307915603E-02  -0.3053957802E-02  -0.3053957802E-02  -0.4637157155E-16   0.1024860512E-15   0.3372706278E-16   0.1000000001E+01
   0.0000000000E+00   0.9969460422E+00  -0.2301720531E-16   0.0000000000E+00  -0.6750000000E-03   0.1049490978E-17   0.0000000000E+00  -0.2378957798E-02  -0.2406669629E-16  -0.1000000001E+01  -0.5007838941E-14  -0.2816265490E-14   0.4601951717E-15   0.8724765317E-15  -0.4534741700E-15   0.5307915603E-02  -0.3053957802E-02  -0.3053957802E-02   0.2458236205E-17   0.3222830450E-16  -0.5808049955E-17   0.1000000001E+01
   0.0000000000E+00   0.0000000000E+00   0.9969460422E+00   0.0000000000E+00   0.0000000000E+00  -0.6750000000E-03   0.0000000000E+00   0.0000000000E+00  -0.2378957798E-02  -0.1000000001E+01  -0.1754289584E-14  -0.3498686985E-14  -0.8776140561E-16   0.6608308998E-15   0.3123030044E-15   0.5307915603E-02  -0.3053957802E-02  -0.3053957802E-02   0.7487176194E-19   0.4128252934E-16   0.1568936399E-16   0.1000000001E+01
   0.1005307916E+01   0.0000000000E+00   0.9969460422E+00   0.2250000000E-02   0.0000000000E+00  -0.6750000000E-03   0.3057915595E-02   0.0000000000E+00  -0.2378957798E-02  -0.1000000001E+01  -0.1432694259E-14   0.5821375876E-15  -0.9509829358E-15   0.1036675938E-14  -0.4015296096E-15   0.5307915603E-02  -0.3053957802E-02  -0.3053957802E-02   0.1826921239E-17   0.4631748400E-16  -0.1710429393E-16   0.1000000001E+01
   0.1005307916E+01   0.9969460422E+00   0.9969460422E+00   0.2250000000E-02  -0.6750000000E-03  -0.6750000000E-03   0.3057915595E-02  -0.2378957798E-02  -0.2378957798E-02  -0.1000000001E+01   0.2176187874E-14  -0.1063073884E-15  -0.7424257281E-15  -0.3123527847E-15  -0.5694241293E-15   0.5307915602E-02  -0.3053957802E-02  -0.3053957802E-02   0.1184754418E-16   0.8549167007E-16   0.1810931918E-16   0.1000000001E+01
   0.0000000000E+00   0.9969460422E+00   0.9969460422E+00   0.0000000000E+00  -0.6750000000E-03  -0.6750000000E-03   0.0000000000E+00  -0.2378957798E-02  -0.2378957798E-02  -0.1000000001E+01  -0.1472686602E-14   0.3854633379E-16   0.2388586498E-16  -0.5015605112E-15   0.1197204573E-14   0.5307915602E-02  -0.3053957802E-02  -0.3053957802E-02  -0.1223364905E-16  -0.2614022905E-17   0.5905460064E-16   0.1000000001E+01
   0.2010615831E+01   0.0000000000E+00   0.2689411870E-16   0.4500000000E-02   0.0000000000E+00  -0.2582157938E-17   0.6115831190E-02   0.0000000000E+00   0.2947627664E-16  -0.1000000002E+01  -0.5970307005E-14  -0.6546257811E-14  -0.1389469586E-14  -0.5593062341E-15  -0.3808539439E-15   0.5307915603E-02  -0.3053957802E-02  -0.3053957802E-02  -0.1298768273E-15   0.8543489226E-16  -0.4039919164E-16   0.1000000002E+01
   0.2010615831E+01   0.9969460422E+00   0.6900752128E-17   0.4500000000E-02  -0.6750000000E-03  -0.2434754881E-17   0.6115831190E-02  -0.2378957798E-02   0.9335507008E-17  -0.1000000001E+01   0.6901782429E-14   0.5038170021E-14  -0.8228472298E-15   0.3986911688E-15  -0.2833785744E-15   0.5307915603E-02  -0.3053957802E-02  -0.3053957802E-02  -0.1339892240E-15   0.1541604771E-15   0.1983674665E-16   0.1000000001E+01
   0.2010615831E+01   0.0000000000E+00   0.9969460422E+00   0.4500000000E-02   0.0000000000E+00  -0.6750000000E-03   0.6115831190E-02   0.0000000000E+00  -0.2378957798E-02  -0.1000000001E+01   0.8037207829E-14   0.8272645252E-14   0.2070927642E-14  -0.2611163979E-14  -0.2644236510E-15   0.5307915603E-02  -0.3053957802E-02  -0.3053957802E-02   0.7156319592E-17   0.1162717857E-16  -0.1025794238E-16   0.1000000001E+01
   0.2010615831E+01   0.9969460422E+00   0.9969460422E+00   0.4500000000E-02  -0.6750000000E-03  -0.6750000000E-03   0.6115831190E-02  -0.2378957798E-02  -0.2378957798E-02  -0.1000000001E+01  -0.8821374219E-14  -0.7043839004E-14   0.2726720629E-15   0.2299811343E-14   0.3741364881E-15   0.5307915602E-02  -0.3053957801E-02  -0.3053957801E-02   0.3551366883E-16   0.1547802087E-15   0.4631717323E-16   0.1000000001E+01
     1     2     3     4     5     6     7     8
     2     9    10     3     6    11    12     7
 VARIABLES = X,Y,Z,DU1,DU2,DU3,U1,U2,U3,S11,S22,S33,S12,S13,S23,E11,E22,E33,E12,E13,E23,SMISES
 ZONE, T="0.2450D+01" F=FEPOINT, I=   12 J=    2 ET=BRICK
   0.0000000000E+00   0.0000000000E+00   0.0000000000E+00   0.0000000000E+00   0.0000000000E+00   0.0000000000E+00   0.0000000000E+00   0.0000000000E+00   0.0000000000E+00   0.1250000002E+00   0.8416004631E-14   0.6655536473E-14   0.1861904244E-15  -0.1726295403E-14  -0.1641016881E-14   0.7557915607E-02  -0.3728957803E-02  -0.3728957803E-02  -0.6020658896E-18  -0.3433141837E-16  -0.4526474259E-16   0.1250000002E+00
   0.1007557916E+01   0.0000000000E+00  -0.7362824125E-17   0.2250000000E-02   0.0000000000E+00  -0.1874756505E-18   0.5307915595E-02   0.0000000000E+00  -0.7175348474E-17   0.1250000002E+00  -0.4650984313E-14  -0.3372733401E-14   0.3512981513E-15   0.8225149048E-15   0.5833577955E-15   0.7557915607E-02  -0.3728957803E-02  -0.3728957803E-02  -0.4566181607E-16   0.4733637851E-16  -0.8938119014E-18   0.1250000002E+00
   0.1007557916E+01   0.9962710422E+00  -0.7299353569E-17   0.2250000000E-02  -0.6750000000E-03  -0.2370225093E-18   0.5307915595E-02  -0.3053957798E-02  -0.7062331060E-17   0.1250000002E+00   0.3058690738E-14   0.2444033733E-14   0.8665054145E-15  -0.1322397015E-14   0.9559763654E-15   0.7557915606E-02  -0.3728957803E-02  -0.3728957803E-02  -0.4647205526E-16   0.1020603016E-15   0.3598799957E-16   0.1250000002E+00
   0.0000000000E+00   0.9962710422E+00  -0.2328510748E-16   0.0000000000E+00  -0.6750000000E-03  -0.2679021678E-18   0.0000000000E+00  -0.3053957798E-02  -0.2301720531E-16   0.1250000002E+00  -0.5003862369E-14  -0.2676706968E-14   0.4436214517E-15   0.9500029512E-15  -0.4549420259E-15   0.7557915606E-02  -0.3728957803E-02  -0.3728957803E-02   0.3050982520E-17   0.3254692189E-16  -0.6533941255E-17   0.1250000002E+00
   0.0000000000E+00   0.0000000000E+00   0.9962710422E+00   0.0000000000E+00   0.0000000000E+00  -0.6750000000E-03   0.0000000000E+00   0.0000000000E+00  -0.3053957798E-02   0.1250000002E+00  -0.1166588758E-14  -0.3009765269E-14  -0.7573402709E-16   0.6417383257E-15   0.3297786951E-15   0.7557915606E-02  -0.3728957803E-02  -0.3728957803E-02   0.2935815786E-18   0.3987044607E-16   0.1613305900E-16   0.1250000002E+00
   0.1007557916E+01   0.0000000000E+00   0.9962710422E+00   0.2250000000E-02   0.0000000000E+00  -0.6750000000E-03   0.5307915595E-02   0.0000000000E+00  -0.3053957798E-02   0.1250000002E+00  -0.1568093851E-14   0.3822463335E-15  -0.1145856936E-14   0.1126726437E-14  -0.4055890646E-15   0.7557915606E-02  -0.3728957803E-02  -0.3728957803E-02  -0.2312506104E-18   0.4901348928E-16  -0.1748843719E-16   0.1250000002E+00
   0.1007557916E+01   0.9962710422E+00   0.9962710422E+00   0.2250000000E-02  -0.6750000000E-03  -0.6750000000E-03   0.5307915595E-02  -0.3053957798E-02  -0.3053957798E-02   0.1250000002E+00   0.2330727228E-14   0.1051041901E-15  -0.9852196469E-15  -0.1163583796E-15  -0.5844013421E-15   0.7557915605E-02  -0.3728957802E-02  -0.3728957802E-02   0.8785977192E-17   0.8289323487E-16   0.1667785939E-16   0.1250000002E+00
   0.0000000000E+00   0.9962710422E+00   0.9962710422E+00   0.0000000000E+00  -0.6750000000E-03  -0.6750000000E-03   0.0000000000E+00  -0.3053957798E-02  -0.3053957798E-02   0.1250000002E+00  -0.1418873513E-14   0.6392331486E-16  -0.1262388818E-16  -0.5924396672E-15   0.1240721772E-14   0.7557915605E-02  -0.3728957803E-02  -0.3728957803E-02  -0.1260615291E-16  -0.9117579279E-18   0.5891651761E-16   0.1250000002E+00
   0.2015115831E+01   0.0000000000E+00   0.2632127150E-16   0.4500000000E-02   0.0000000000E+00  -0.5728471980E-18   0.1061583119E-01   0.0000000000E+00   0.2689411870E-16   0.1250000002E+00  -0.5881827206E-14  -0.6553494700E-14  -0.1452554105E-14  -0.3539054659E-15  -0.4258328170E-15   0.7557915607E-02  -0.3728957803E-02  -0.3728957803E-02  -0.1328586048E-15   0.8363562347E-16  -0.4033907014E-16   0.1250000002E+00
   0.2015115831E+01   0.9962710422E+00   0.6044141893E-17   0.4500000000E-02  -0.6750000000E-03  -0.8566102344E-18   0.1061583119E-01  -0.3053957798E-02   0.6900752128E-17   0.1250000002E+00   0.6759210357E-14   0.4847365961E-14  -0.8351262692E-15   0.3765750950E-15  -0.3409098694E-15   0.7557915606E-02  -0.3728957803E-02  -0.3728957803E-02  -0.1352124750E-15   0.1478843553E-15   0.1772302450E-16   0.1250000002E+00
   0.2015115831E+01   0.0000000000E+00   0.9962710422E+00   0.4500000000E-02   0.0000000000E+00  -0.6750000000E-03   0.1061583119E-01   0.0000000000E+00  -0.3053957798E-02   0.1250000002E+00   0.7428192140E-14   0.7489203158E-14   0.2261256751E-14  -0.2479053752E-14  -0.2707137683E-15   0.7557915606E-02  -0.3728957803E-02  -0.3728957803E-02   0.6701431794E-17  -0.4889326474E-17  -0.9426527595E-17   0.1250000002E+00
   0.2015115831E+01   0.9962710422E+00   0.9962710422E+00   0.4500000000E-02  -0.6750000000E-03  -0.6750000000E-03   0.1061583119E-01  -0.3053957798E-02  -0.3053957798E-02   0.1250000002E+00  -0.8291724368E-14  -0.6641130858E-14   0.5216865706E-15   0.1886351699E-14   0.4487413354E-15   0.7557915605E-02  -0.3728957802E-02  -0.3728957802E-02   0.3809054410E-16   0.1672320784E-15   0.4686297743E-16   0.1250000002E+00
     1     2     3     4     5     6     7     8
     2     9    10     3     6    11    12     7
 VARIABLES = X,Y,Z,DU1,DU2,DU3,U1,U2,U3,S11,S22,S33,S12,S13,S23,E11,E22,E33,E12,E13,E23,SMISES
 ZONE, T="0.2500D+01" F=FEPOINT, I=   12 J=    2 ET=BRICK
   0.0000000000E+00   0.0000000000E+00   0.0000000000E+00   0.0000000000E+00   0.0000000000E+00   0.0000000000E+00   0.0000000000E+00   0.0000000000E+00   0.0000000000E+00   0.1250000002E+01   0.8338133387E-14   0.6599278058E-14   0.1509895984E-15  -0.1731985339E-14  -0.1620046551E-14   0.9807915611E-02  -0.4403957804E-02  -0.4403957804E-02  -0.1273495716E-17  -0.3926136862E-16  -0.4674435744E-16   0.1250000002E+01
   0.1009807916E+01   0.0000000000E+00  -0.7310013335E-17   0.2250000000E-02   0.0000000000E+00   0.5281078949E-19   0.7557915595E-02   0.0000000000E+00  -0.7362824125E-17   0.1250000002E+01  -0.4510912092E-14  -0.3099461132E-14   0.4918904512E-15   0.7676943730E-15   0.5797114647E-15   0.9807915610E-02  -0.4403957804E-02  -0.4403957804E-02  -0.4551398242E-16   0.5496651877E-16  -0.3345314756E-19   0.1250000002E+01
   0.1009807916E+01   0.9955960422E+00  -0.7183350600E-17   0.2250000000E-02  -0.6750000000E-03   0.1160029685E-18   0.7557915595E-02  -0.3728957798E-02  -0.7299353569E-17   0.1250000002E+01   0.3135018581E-14   0.2466527348E-14   0.1028453883E-14  -0.1423910533E-14   0.1026035668E-14   0.9807915609E-02  -0.4403957804E-02  -0.4403957804E-02  -0.4305875931E-16   0.9150747841E-16   0.3420668729E-16   0.1250000002E+01
   0.0000000000E+00   0.9955960422E+00  -0.2320400001E-16   0.0000000000E+00  -0.6750000000E-03   0.8110747458E-19   0.0000000000E+00  -0.3728957798E-02  -0.2328510748E-16   0.1250000002E+01  -0.4731012628E-14  -0.2419752208E-14   0.4098196228E-15   0.9808669919E-15  -0.4812510886E-15   0.9807915609E-02  -0.4403957804E-02  -0.4403957804E-02   0.1718263252E-17   0.3684526952E-16  -0.2593238476E-17   0.1250000002E+01
   0.0000000000E+00   0.0000000000E+00   0.9955960422E+00   0.0000000000E+00   0.0000000000E+00  -0.6750000000E-03   0.0000000000E+00   0.0000000000E+00  -0.3728957798E-02   0.1250000002E+01  -0.1088787517E-14  -0.2951510808E-14  -0.4981440863E-16   0.6852833974E-15   0.3161593095E-15   0.9807915609E-02  -0.4403957804E-02  -0.4403957804E-02   0.1471828354E-17   0.4086866212E-16   0.1790901384E-16   0.1250000002E+01
   0.1009807916E+01   0.0000000000E+00   0.9955960422E+00   0.2250000000E-02   0.0000000000E+00  -0.6750000000E-03   0.7557915595E-02   0.0000000000E+00  -0.3728957798E-02   0.1250000002E+01  -0.1266160811E-14   0.6488043673E-15  -0.1126246302E-14   0.1230278809E-14  -0.4827592819E-15   0.9807915609E-02  -0.4403957804E-02  -0.4403957804E-02  -0.1888310124E-17   0.5011429928E-16  -0.1603480758E-16   0.1250000002E+01
   0.1009807916E+01   0.9955960422E+00   0.9955960422E+00   0.2250000000E-02  -0.6750000000E-03  -0.6750000000E-03   0.7557915595E-02  -0.3728957798E-02  -0.3728957798E-02   0.1250000002E+01   0.2456465774E-14   0.8433454943E-17  -0.9792279636E-15  -0.2234303519E-15  -0.6235485066E-15   0.9807915608E-02  -0.4403957803E-02  -0.4403957803E-02   0.8513590722E-17   0.7883214065E-16   0.1440358245E-16   0.1250000002E+01
   0.0000000000E+00   0.9955960422E+00   0.9955960422E+00   0.0000000000E+00  -0.6750000000E-03  -0.6750000000E-03   0.0000000000E+00  -0.3728957798E-02  -0.3728957798E-02   0.1250000002E+01  -0.1571823827E-14  -0.1460815877E-15   0.8783450830E-16  -0.6210715629E-15   0.1253152225E-14   0.9807915608E-02  -0.4403957803E-02  -0.4403957803E-02  -0.1418726822E-16   0.1391369212E-17   0.5717475106E-16   0.1250000002E+01
   0.2019615831E+01   0.0000000000E+00   0.2637866590E-16   0.4500000000E-02   0.0000000000E+00   0.5739439805E-19   0.1511583119E-01   0.0000000000E+00   0.2632127150E-16   0.1250000002E+01  -0.5396238154E-14  -0.6005522340E-14  -0.1602294347E-14  -0.1441307362E-15  -0.3346290984E-15   0.9807915610E-02  -0.4403957804E-02  -0.4403957804E-02  -0.1327705970E-15   0.8336305614E-16  -0.3943358407E-16   0.1250000002E+01
   0.2019615831E+01   0.9955960422E+00   0.6499111956E-17   0.4500000000E-02  -0.6750000000E-03   0.4549700628E-18   0.1511583119E-01  -0.3728957798E-02   0.6044141893E-17   0.1250000002E+01   0.6958023011E-14   0.5063434680E-14  -0.9248732474E-15   0.4529333066E-15  -0.3713526993E-15   0.9807915609E-02  -0.4403957804E-02  -0.4403957804E-02  -0.1363018755E-15   0.1604351918E-15   0.1792932368E-16   0.1250000002E+01
   0.2019615831E+01   0.0000000000E+00   0.9955960422E+00   0.4500000000E-02   0.0000000000E+00  -0.6750000000E-03   0.1511583119E-01   0.0000000000E+00  -0.3728957798E-02   0.1250000002E+01   0.7503046578E-14   0.7788417332E-14   0.2238155185E-14  -0.2924507013E-14  -0.2382273090E-15   0.9807915609E-02  -0.4403957804E-02  -0.4403957804E-02   0.5401572435E-17   0.3287835461E-17  -0.1150943157E-16   0.1250000002E+01
   0.2019615831E+01   0.9955960422E+00   0.9955960422E+00   0.4500000000E-02  -0.6750000000E-03  -0.6750000000E-03   0.1511583119E-01  -0.3728957798E-02  -0.3728957798E-02   0.1250000002E+01  -0.8363407273E-14  -0.6533581269E-14   0.3918417817E-15   0.2337685113E-14   0.4045049472E-15   0.9807915608E-02  -0.4403957803E-02  -0.4403957803E-02   0.3507650627E-16   0.1658613645E-15   0.4352267248E-16   0.1250000002E+01
     1     2     3     4     5     6     7     8
     2     9    10     3     6    11    12     7
 VARIABLES = X,Y,Z,DU1,DU2,DU3,U1,U2,U3,S11,S22,S33,S12,S13,S23,E11,E22,E33,E12,E13,E23,SMISES
 ZONE, T="0.2550D+01" F=FEPOINT, I=   12 J=    2 ET=BRICK
   0.0000000000E+00   0.0000000000E+00   0.0000000000E+00   0.0000000000E+00   0.0000000000E+00   0.0000000000E+00   0.0000000000E+00   0.0000000000E+00   0.0000000000E+00   0.2375000004E+01   0.8261489695E-14   0.6424444623E-14   0.1571454615E-15  -0.1761583035E-14  -0.1684747185E-14   0.1205791561E-01  -0.5078957806E-02  -0.5078957806E-02   0.2456268623E-18  -0.3563412243E-16  -0.4608699876E-16   0.2375000004E+01
   0.1012057916E+01   0.0000000000E+00  -0.7496128629E-17   0.2250000000E-02   0.0000000000E+00  -0.1861152938E-18   0.9807915595E-02   0.0000000000E+00  -0.7310013335E-17   0.2375000004E+01  -0.4528873139E-14  -0.3042953619E-14   0.3339324639E-15   0.6000255127E-15   0.5885451921E-15   0.1205791561E-01  -0.5078957805E-02  -0.5078957805E-02  -0.4641989782E-16   0.4555294433E-16   0.1284242175E-17   0.2375000004E+01
   0.1012057916E+01   0.9949210422E+00  -0.7242625528E-17   0.2250000000E-02  -0.6750000000E-03  -0.5927492743E-19   0.9807915595E-02  -0.4403957798E-02  -0.7183350600E-17   0.2375000003E+01   0.2952249894E-14   0.2298997532E-14   0.9121869831E-15  -0.1238203083E-14   0.1021305277E-14   0.1205791561E-01  -0.5078957805E-02  -0.5078957805E-02  -0.4548969892E-16   0.9603779858E-16   0.3402214388E-16   0.2375000003E+01
   0.0000000000E+00   0.9949210422E+00  -0.2340480795E-16   0.0000000000E+00  -0.6750000000E-03  -0.2008079462E-18   0.0000000000E+00  -0.4403957798E-02  -0.2320400001E-16   0.2375000003E+01  -0.5191385919E-14  -0.2690733750E-14   0.4893939990E-15   0.9883724535E-15  -0.4559429077E-15   0.1205791561E-01  -0.5078957805E-02  -0.5078957805E-02   0.4706704233E-17   0.3392109652E-16  -0.5147805476E-17   0.2375000003E+01
   0.0000000000E+00   0.0000000000E+00   0.9949210422E+00   0.0000000000E+00   0.0000000000E+00  -0.6750000000E-03   0.0000000000E+00   0.0000000000E+00  -0.4403957798E-02   0.2375000003E+01  -0.1350423853E-14  -0.3290520199E-14  -0.3766680843E-16   0.6599787039E-15   0.3928696224E-15   0.1205791561E-01  -0.5078957805E-02  -0.5078957805E-02   0.9383329898E-18   0.4028117054E-16   0.1670172150E-16   0.2375000003E+01
   0.1012057916E+01   0.0000000000E+00   0.9949210422E+00   0.2250000000E-02   0.0000000000E+00  -0.6750000000E-03   0.9807915595E-02   0.0000000000E+00  -0.4403957798E-02   0.2375000003E+01  -0.1497003562E-14   0.4507968134E-15  -0.1168114734E-14   0.1150451920E-14  -0.4345512493E-15   0.1205791561E-01  -0.5078957805E-02  -0.5078957805E-02  -0.2045344564E-17   0.4743182678E-16  -0.1872576754E-16   0.2375000003E+01
   0.1012057916E+01   0.9949210422E+00   0.9949210422E+00   0.2250000000E-02  -0.6750000000E-03  -0.6750000000E-03   0.9807915595E-02  -0.4403957798E-02  -0.4403957798E-02   0.2375000003E+01   0.2613204657E-14   0.1915668335E-15  -0.9715810307E-15  -0.2829632412E-15  -0.6133056683E-15   0.1205791561E-01  -0.5078957804E-02  -0.5078957804E-02   0.8515402555E-17   0.7946388886E-16   0.1459874991E-16   0.2375000003E+01
   0.0000000000E+00   0.9949210422E+00   0.9949210422E+00   0.0000000000E+00  -0.6750000000E-03  -0.6750000000E-03   0.0000000000E+00  -0.4403957798E-02  -0.4403957798E-02   0.2375000003E+01  -0.1796772951E-14  -0.4299459155E-16   0.8854729229E-16  -0.5336741922E-15   0.1305054574E-14   0.1205791561E-01  -0.5078957804E-02  -0.5078957804E-02  -0.1385864225E-16  -0.5572375221E-19   0.6026576564E-16   0.2375000003E+01
   0.2024115831E+01   0.0000000000E+00   0.2581833430E-16   0.4500000000E-02   0.0000000000E+00  -0.5603316053E-18   0.1961583119E-01   0.0000000000E+00   0.2637866590E-16   0.2375000004E+01  -0.5438783280E-14  -0.5752866552E-14  -0.1594703684E-14   0.4920493752E-16  -0.3073598854E-15   0.1205791561E-01  -0.5078957805E-02  -0.5078957805E-02  -0.1279399085E-15   0.6783035109E-16  -0.3887265680E-16   0.2375000004E+01
   0.2024115831E+01   0.9949210422E+00   0.6115552602E-17   0.4500000000E-02  -0.6750000000E-03  -0.3835593539E-18   0.1961583119E-01  -0.4403957798E-02   0.6499111956E-17   0.2375000003E+01   0.6908636749E-14   0.4842253008E-14  -0.9868317564E-15   0.2626323984E-15  -0.2285471674E-15   0.1205791561E-01  -0.5078957805E-02  -0.5078957805E-02  -0.1354495467E-15   0.1570320002E-15   0.1712707852E-16   0.2375000003E+01
   0.2024115831E+01   0.0000000000E+00   0.9949210422E+00   0.4500000000E-02   0.0000000000E+00  -0.6750000000E-03   0.1961583119E-01   0.0000000000E+00  -0.4403957798E-02   0.2375000003E+01   0.7158775233E-14   0.7407774605E-14   0.2396940611E-14  -0.2898206885E-14  -0.4006102300E-15   0.1205791561E-01  -0.5078957805E-02  -0.5078957805E-02   0.6354763130E-17   0.7842182935E-17  -0.1366971158E-16   0.2375000003E+01
   0.2024115831E+01   0.9949210422E+00   0.9949210422E+00   0.4500000000E-02  -0.6750000000E-03  -0.6750000000E-03   0.1961583119E-01  -0.4403957798E-02  -0.4403957798E-02   0.2375000003E+01  -0.7741713680E-14  -0.6139060751E-14   0.6525986739E-15   0.2460835104E-14   0.2476205186E-15   0.1205791561E-01  -0.5078957804E-02  -0.5078957804E-02   0.4039237615E-16   0.1715092015E-15   0.3975166866E-16   0.2375000003E+01
     1     2     3     4     5     6     7     8
     2     9    10     3     6    11    12     7
 VARIABLES = X,Y,Z,DU1,DU2,DU3,U1,U2,U3,S11,S22,S33,S12,S13,S23,E11,E22,E33,E12,E13,E23,SMISES
 ZONE, T="0.2600D+01" F=FEPOINT, I=   12 J=    2 ET=BRICK
   0.0000000000E+00   0.0000000000E+00   0.0000000000E+00   0.0000000000E+00   0.0000000000E+00   0.0000000000E+00   0.0000000000E+00   0.0000000000E+00   0.0000000000E+00   0.3500000005E+01   0.8354283970E-14   0.6692205786E-14   0.1451942891E-15  -0.1621094019E-14  -0.1558366126E-14   0.1430791562E-01  -0.5753957807E-02  -0.5753957807E-02  -0.6383567970E-18  -0.3743916075E-16  -0.4390984292E-16   0.3500000005E+01
   0.1014307916E+01   0.0000000000E+00  -0.7164160548E-17   0.2250000000E-02   0.0000000000E+00   0.3319680809E-18   0.1205791560E-01   0.0000000000E+00  -0.7496128629E-17   0.3500000005E+01  -0.4592550754E-14  -0.3280601762E-14   0.3682574839E-15   0.5154499244E-15   0.5519378037E-15   0.1430791562E-01  -0.5753957806E-02  -0.5753957806E-02  -0.4787115557E-16   0.4855599560E-16  -0.5960327550E-18   0.3500000005E+01
   0.1014307916E+01   0.9942460422E+00  -0.7169600355E-17   0.2250000000E-02  -0.6750000000E-03   0.7302517296E-19   0.1205791560E-01  -0.5078957798E-02  -0.7242625528E-17   0.3500000005E+01   0.2472238653E-14   0.1881934516E-14   0.1029032757E-14  -0.1330199286E-14   0.9558615094E-15   0.1430791562E-01  -0.5753957806E-02  -0.5753957806E-02  -0.4864186352E-16   0.9513043603E-16   0.3732881024E-16   0.3500000005E+01
   0.0000000000E+00   0.9942460422E+00  -0.2273532048E-16   0.0000000000E+00  -0.6750000000E-03   0.6694874745E-18   0.0000000000E+00  -0.5078957798E-02  -0.2340480795E-16   0.3500000005E+01  -0.5012335769E-14  -0.2871509658E-14   0.2905320032E-15   0.9277301824E-15  -0.3688943939E-15   0.1430791562E-01  -0.5753957806E-02  -0.5753957806E-02   0.4108161699E-17   0.3234508260E-16  -0.9321139958E-17   0.3500000005E+01
   0.0000000000E+00   0.0000000000E+00   0.9942460422E+00   0.0000000000E+00   0.0000000000E+00  -0.6750000000E-03   0.0000000000E+00   0.0000000000E+00  -0.5078957798E-02   0.3500000005E+01  -0.1249925491E-14  -0.3142944157E-14  -0.1744224893E-16   0.6510983218E-15   0.3571309098E-15   0.1430791562E-01  -0.5753957806E-02  -0.5753957806E-02   0.2372504053E-17   0.4134517787E-16   0.1596243721E-16   0.3500000005E+01
   0.1014307916E+01   0.0000000000E+00   0.9942460422E+00   0.2250000000E-02   0.0000000000E+00  -0.6750000000E-03   0.1205791560E-01   0.0000000000E+00  -0.5078957798E-02   0.3500000005E+01  -0.1364933389E-14   0.4088964804E-15  -0.1118837724E-14   0.1103338059E-14  -0.3758452574E-15   0.1430791562E-01  -0.5753957806E-02  -0.5753957806E-02  -0.1875925140E-17   0.4398009971E-16  -0.1662442917E-16   0.3500000005E+01
   0.1014307916E+01   0.9942460422E+00   0.9942460422E+00   0.2250000000E-02  -0.6750000000E-03  -0.6750000000E-03   0.1205791560E-01  -0.5078957798E-02  -0.5078957798E-02   0.3500000005E+01   0.2523764217E-14   0.4535189779E-15  -0.9114375986E-15  -0.3363280196E-15  -0.5525367567E-15   0.1430791561E-01  -0.5753957805E-02  -0.5753957805E-02   0.7352606686E-17   0.8315484018E-16   0.1475699585E-16   0.3500000005E+01
   0.0000000000E+00   0.9942460422E+00   0.9942460422E+00   0.0000000000E+00  -0.6750000000E-03  -0.6750000000E-03   0.0000000000E+00  -0.5078957798E-02  -0.5078957798E-02   0.3500000005E+01  -0.1630141793E-14   0.9687737981E-16   0.4817781136E-16  -0.4399498543E-15   0.1199771223E-14   0.1430791561E-01  -0.5753957805E-02  -0.5753957805E-02  -0.1468658575E-16  -0.3780038200E-17   0.5838597032E-16   0.3500000005E+01
   0.2028615831E+01   0.0000000000E+00   0.2514709663E-16   0.4500000000E-02   0.0000000000E+00  -0.6712376696E-18   0.2411583119E-01   0.0000000000E+00   0.2581833430E-16   0.3500000005E+01  -0.4075940380E-14  -0.4823686600E-14  -0.2170197863E-14  -0.2914340369E-15  -0.3226641627E-15   0.1430791562E-01  -0.5753957806E-02  -0.5753957806E-02  -0.1364778126E-15   0.7454910789E-16  -0.4062019411E-16   0.3500000005E+01
   0.2028615831E+01   0.9942460422E+00   0.5471490467E-17   0.4500000000E-02  -0.6750000000E-03  -0.6440621347E-18   0.2411583119E-01  -0.5078957798E-02   0.6115552602E-17   0.3500000005E+01   0.5743801398E-14   0.3497006407E-14  -0.1403213836E-14   0.8598928249E-15  -0.2421020462E-15   0.1430791562E-01  -0.5753957806E-02  -0.5753957806E-02  -0.1458382081E-15   0.1577490279E-15   0.1646148912E-16   0.3500000005E+01
   0.2028615831E+01   0.0000000000E+00   0.9942460422E+00   0.4500000000E-02   0.0000000000E+00  -0.6750000000E-03   0.2411583119E-01   0.0000000000E+00  -0.5078957798E-02   0.3500000005E+01   0.6963587640E-14   0.7483701994E-14   0.2144319962E-14  -0.2929447522E-14  -0.4027491656E-15   0.1430791562E-01  -0.5753957806E-02  -0.5753957806E-02   0.5130204604E-17   0.1806242192E-17  -0.1246314771E-16   0.3500000005E+01
   0.2028615831E+01   0.9942460422E+00   0.9942460422E+00   0.4500000000E-02  -0.6750000000E-03  -0.6750000000E-03   0.2411583119E-01  -0.5078957798E-02  -0.5078957798E-02   0.3500000004E+01  -0.7170367031E-14  -0.6081192182E-14   0.7025108165E-15   0.2422881578E-14   0.1022876633E-15   0.1430791561E-01  -0.5753957805E-02  -0.5753957805E-02   0.4095410404E-16   0.1728629710E-15   0.4425979587E-16   0.3500000004E+01
     1     2     3     4     5     6     7     8
     2     9    10     3     6    11    12     7
 VARIABLES = X,Y,Z,DU1,DU2,DU3,U1,U2,U3,S11,S22,S33,S12,S13,S23,E11,E22,E33,E12,E13,E23,SMISES
 ZONE, T="0.2650D+01" F=FEPOINT, I=   12 J=    2 ET=BRICK
   0.0000000000E+00   0.0000000000E+00   0.0000000000E+00   0.0000000000E+00   0.0000000000E+00   0.0000000000E+00   0.0000000000E+00   0.0000000000E+00   0.0000000000E+00   0.4625000007E+01   0.8414510045E-14   0.7316439185E-14   0.1510075355E-15  -0.1441923138E-14  -0.1633004935E-14   0.1655791562E-01  -0.6428957808E-02  -0.6428957808E-02  -0.1061985499E-17  -0.3078150831E-16  -0.4536812425E-16   0.4625000007E+01
   0.1016557916E+01   0.0000000000E+00  -0.5795396899E-17   0.2250000000E-02   0.0000000000E+00   0.1368763649E-17   0.1430791560E-01   0.0000000000E+00  -0.7164160548E-17   0.4625000007E+01  -0.4187639795E-14  -0.2901453607E-14   0.2784314757E-15   0.2240079753E-15   0.5135646987E-15   0.1655791562E-01  -0.6428957807E-02  -0.6428957807E-02  -0.4770048718E-16   0.3918519068E-16  -0.1499884660E-18   0.4625000007E+01
   0.1016557916E+01   0.9935710422E+00  -0.6013868910E-17   0.2250000000E-02  -0.6750000000E-03   0.1155731445E-17   0.1430791560E-01  -0.5753957798E-02  -0.7169600355E-17   0.4625000007E+01   0.3114068407E-14   0.2286845517E-14   0.9141969433E-15  -0.1093755339E-14   0.9846075107E-15   0.1655791562E-01  -0.6428957807E-02  -0.6428957807E-02  -0.4948592925E-16   0.9836677086E-16   0.3404196410E-16   0.4625000007E+01
   0.0000000000E+00   0.9935710422E+00  -0.2321942677E-16   0.0000000000E+00  -0.6750000000E-03  -0.4841062865E-18   0.0000000000E+00  -0.5753957798E-02  -0.2273532048E-16   0.4625000007E+01  -0.5281724989E-14  -0.2804380428E-14   0.4633105891E-15   0.1100716752E-14  -0.2861213831E-15   0.1655791562E-01  -0.6428957807E-02  -0.6428957807E-02   0.8817304176E-17   0.3749311936E-16  -0.1333337451E-17   0.4625000007E+01
   0.0000000000E+00   0.0000000000E+00   0.9935710422E+00   0.0000000000E+00   0.0000000000E+00  -0.6750000000E-03   0.0000000000E+00   0.0000000000E+00  -0.5753957798E-02   0.4625000007E+01  -0.1666988493E-14  -0.4239022285E-14  -0.1636956071E-16   0.7246040520E-15   0.3129986997E-15   0.1655791562E-01  -0.6428957807E-02  -0.6428957807E-02   0.1438670350E-17   0.3955849320E-16   0.1410250730E-16   0.4625000007E+01
   0.1016557916E+01   0.0000000000E+00   0.9935710422E+00   0.2250000000E-02   0.0000000000E+00  -0.6750000000E-03   0.1430791560E-01   0.0000000000E+00  -0.5753957798E-02   0.4625000007E+01  -0.1825355511E-14  -0.7728848887E-16  -0.7820721499E-15   0.1104972784E-14  -0.4976509685E-15   0.1655791562E-01  -0.6428957807E-02  -0.6428957807E-02   0.2932855119E-17   0.5299934952E-16  -0.1974879863E-16   0.4625000007E+01
   0.1016557916E+01   0.9935710422E+00   0.9935710422E+00   0.2250000000E-02  -0.6750000000E-03  -0.6750000000E-03   0.1430791560E-01  -0.5753957798E-02  -0.5753957798E-02   0.4625000006E+01   0.2332926761E-14  -0.2180590926E-15  -0.6100177767E-15  -0.1480249247E-15  -0.6222056616E-15   0.1655791562E-01  -0.6428957806E-02  -0.6428957806E-02   0.1145372773E-16   0.8192904712E-16   0.1590098844E-16   0.4625000006E+01
   0.0000000000E+00   0.9935710422E+00   0.9935710422E+00   0.0000000000E+00  -0.6750000000E-03  -0.6750000000E-03   0.0000000000E+00  -0.5753957798E-02  -0.5753957798E-02   0.4625000006E+01  -0.1393952465E-14   0.5476741721E-15   0.6229306861E-16  -0.3958393762E-15   0.1366127581E-14   0.1655791562E-01  -0.6428957806E-02  -0.6428957806E-02  -0.1417567795E-16   0.2177799904E-18   0.6408654076E-16   0.4625000006E+01
   0.2033115831E+01   0.0000000000E+00   0.3104206728E-16   0.4500000000E-02   0.0000000000E+00   0.5894970654E-17   0.2861583119E-01   0.0000000000E+00   0.2514709663E-16   0.4625000007E+01  -0.5863915019E-14  -0.6214187333E-14  -0.1379281644E-14  -0.1940229190E-15  -0.3732437230E-15   0.1655791562E-01  -0.6428957807E-02  -0.6428957807E-02  -0.1276940155E-15   0.7979173852E-16  -0.4222949244E-16   0.4625000007E+01
   0.2033115831E+01   0.9935710422E+00   0.1108434902E-16   0.4500000000E-02  -0.6750000000E-03   0.5612858549E-17   0.2861583119E-01  -0.5753957798E-02   0.5471490467E-17   0.4625000006E+01   0.6823012535E-14   0.4957358504E-14  -0.9496417988E-15   0.7008946794E-15  -0.1034132987E-15   0.1655791562E-01  -0.6428957807E-02  -0.6428957807E-02  -0.1318748249E-15   0.1619424994E-15   0.1642294315E-16   0.4625000006E+01
   0.2033115831E+01   0.0000000000E+00   0.9935710422E+00   0.4500000000E-02   0.0000000000E+00  -0.6750000000E-03   0.2861583119E-01   0.0000000000E+00  -0.5753957798E-02   0.4625000006E+01   0.7318236240E-14   0.7658935792E-14   0.2103168426E-14  -0.2936673108E-14  -0.3652936674E-15   0.1655791562E-01  -0.6428957807E-02  -0.6428957807E-02  -0.4127428553E-17  -0.6236861947E-17  -0.1075097252E-16   0.4625000006E+01
   0.2033115831E+01   0.9935710422E+00   0.9935710422E+00   0.4500000000E-02  -0.6750000000E-03  -0.6750000000E-03   0.2861583119E-01  -0.5753957798E-02  -0.5753957798E-02   0.4625000006E+01  -0.8327400602E-14  -0.6735173894E-14   0.6197891582E-15   0.2410768723E-14   0.3137123584E-15   0.1655791562E-01  -0.6428957806E-02  -0.6428957806E-02   0.2346735967E-16   0.1404194570E-15   0.4261441400E-16   0.4625000006E+01
     1     2     3     4     5     6     7     8
     2     9    10     3     6    11    12     7
 VARIABLES = X,Y,Z,DU1,DU2,DU3,U1,U2,U3,S11,S22,S33,S12,S13,S23,E11,E22,E33,E12,E13,E23,SMISES
 ZONE, T="0.2700D+01" F=FEPOINT, I=   12 J=    2 ET=BRICK
   0.0000000000E+00   0.0000000000E+00   0.0000000000E+00   0.0000000000E+00   0.0000000000E+00   0.0000000000E+00   0.0000000000E+00   0.0000000000E+00   0.0000000000E+00   0.5750000009E+01   0.7176931932E-14   0.5929194529E-14   0.1423746698E-15  -0.1929611206E-14  -0.1628185550E-14   0.1880791562E-01  -0.7103957809E-02  -0.7103957809E-02   0.3361662930E-18  -0.3605741814E-16  -0.4440298829E-16   0.5750000009E+01
   0.1018807916E+01   0.0000000000E+00  -0.9117648020E-17   0.2250000000E-02   0.0000000000E+00  -0.3322251121E-17   0.1655791560E-01   0.0000000000E+00  -0.5795396899E-17   0.5750000009E+01  -0.4461210002E-14  -0.3382194231E-14   0.1342184564E-14   0.1454467276E-14   0.6657360484E-15   0.1880791562E-01  -0.7103957809E-02  -0.7103957809E-02  -0.3826848817E-16   0.5098459755E-16  -0.1661013172E-17   0.5750000009E+01
   0.1018807916E+01   0.9928960422E+00  -0.8468412274E-17   0.2250000000E-02  -0.6750000000E-03  -0.2454543364E-17   0.1655791560E-01  -0.6428957798E-02  -0.6013868910E-17   0.5750000008E+01   0.2577816644E-14   0.1806104893E-14   0.1845276332E-14  -0.1981677092E-14   0.9426450442E-15   0.1880791562E-01  -0.7103957808E-02  -0.7103957808E-02  -0.4247840443E-16   0.8695928247E-16   0.3823487962E-16   0.5750000008E+01
   0.0000000000E+00   0.9928960422E+00  -0.2317049056E-16   0.0000000000E+00  -0.6750000000E-03   0.4893620536E-19   0.0000000000E+00  -0.6428957798E-02  -0.2321942677E-16   0.5750000008E+01  -0.4223027775E-14  -0.2648201752E-14   0.2172325944E-15   0.8138487895E-15  -0.7230363474E-15   0.1880791562E-01  -0.7103957808E-02  -0.7103957808E-02   0.4536567510E-17   0.2852406571E-16  -0.9558685725E-17   0.5750000008E+01
   0.0000000000E+00   0.0000000000E+00   0.9928960422E+00   0.0000000000E+00   0.0000000000E+00  -0.6750000000E-03   0.0000000000E+00   0.0000000000E+00  -0.6428957798E-02   0.5750000008E+01  -0.3035139059E-15  -0.2807155140E-14  -0.5898334031E-17   0.3641206660E-15   0.2529499642E-15   0.1880791562E-01  -0.7103957808E-02  -0.7103957808E-02   0.1419978850E-17   0.3725104727E-16   0.1273210806E-16   0.5750000008E+01
   0.1018807916E+01   0.0000000000E+00   0.9928960422E+00   0.2250000000E-02   0.0000000000E+00  -0.6750000000E-03   0.1655791560E-01   0.0000000000E+00  -0.6428957798E-02   0.5750000008E+01  -0.1329740699E-14   0.5957484144E-15  -0.1861038266E-14   0.2119864599E-14  -0.2847754083E-15   0.1880791562E-01  -0.7103957808E-02  -0.7103957808E-02  -0.7976700868E-17   0.5151184692E-16  -0.1601304788E-16   0.5750000008E+01
   0.1018807916E+01   0.9928960422E+00   0.9928960422E+00   0.2250000000E-02  -0.6750000000E-03  -0.6750000000E-03   0.1655791560E-01  -0.6428957798E-02  -0.6428957798E-02   0.5750000008E+01   0.2898926874E-14   0.7880446686E-15  -0.1535257798E-14  -0.1083864523E-14  -0.6038494987E-15   0.1880791562E-01  -0.7103957807E-02  -0.7103957807E-02   0.6722114448E-17   0.6473332634E-16   0.1898673605E-16   0.5750000008E+01
   0.0000000000E+00   0.9928960422E+00   0.9928960422E+00   0.0000000000E+00  -0.6750000000E-03  -0.6750000000E-03   0.0000000000E+00  -0.6428957798E-02  -0.6428957798E-02   0.5750000008E+01  -0.2108694141E-14  -0.6348230927E-16   0.1606960164E-16  -0.4154759624E-15   0.8386007290E-15   0.1880791562E-01  -0.7103957807E-02  -0.7103957807E-02  -0.1379477370E-16   0.3899694666E-17   0.5179282148E-16   0.5750000008E+01
   0.2037615831E+01   0.0000000000E+00   0.2060897949E-16   0.4500000000E-02   0.0000000000E+00  -0.1043308779E-16   0.3311583119E-01   0.0000000000E+00   0.3104206728E-16   0.5750000009E+01  -0.4648114206E-14  -0.5506882718E-14  -0.1717215518E-14  -0.3679270874E-15  -0.2857855429E-15   0.1880791562E-01  -0.7103957808E-02  -0.7103957808E-02  -0.1468902232E-15   0.8952570474E-16  -0.3807652603E-16   0.5750000009E+01
   0.2037615831E+01   0.9928960422E+00   0.1112729948E-17   0.4500000000E-02  -0.6750000000E-03  -0.9971619068E-17   0.3311583119E-01  -0.6428957798E-02   0.1108434902E-16   0.5750000008E+01   0.5217174909E-14   0.3455106071E-14  -0.1233995886E-14   0.8168880418E-15  -0.1404626222E-15   0.1880791562E-01  -0.7103957808E-02  -0.7103957808E-02  -0.1507218574E-15   0.1644976564E-15   0.1484609975E-16   0.5750000008E+01
   0.2037615831E+01   0.0000000000E+00   0.9928960422E+00   0.4500000000E-02   0.0000000000E+00  -0.6750000000E-03   0.3311583119E-01   0.0000000000E+00  -0.6428957798E-02   0.5750000008E+01   0.6805220672E-14   0.7188549944E-14   0.1912206812E-14  -0.2553034463E-14  -0.1652855180E-15   0.1880791562E-01  -0.7103957808E-02  -0.7103957808E-02   0.2306713458E-17   0.1380636188E-16  -0.1182433010E-16   0.5750000008E+01
   0.2037615831E+01   0.9928960422E+00   0.9928960422E+00   0.4500000000E-02  -0.6750000000E-03  -0.6750000000E-03   0.3311583119E-01  -0.6428957798E-02  -0.6428957798E-02   0.5750000007E+01  -0.6621429304E-14  -0.5162536116E-14   0.5629129403E-15   0.2290988474E-14   0.4548064852E-15   0.1880791562E-01  -0.7103957807E-02  -0.7103957807E-02   0.2951109116E-16   0.1668379761E-15   0.4399070255E-16   0.5750000007E+01
     1     2     3     4     5     6     7     8
     2     9    10     3     6    11    12     7
 VARIABLES = X,Y,Z,DU1,DU2,DU3,U1,U2,U3,S11,S22,S33,S12,S13,S23,E11,E22,E33,E12,E13,E23,SMISES
 ZONE, T="0.2750D+01" F=FEPOINT, I=   12 J=    2 ET=BRICK
   0.0000000000E+00   0.0000000000E+00   0.0000000000E+00   0.0000000000E+00   0.0000000000E+00   0.0000000000E+00   0.0000000000E+00   0.0000000000E+00   0.0000000000E+00   0.6875000011E+01   0.8792928764E-14   0.7660928589E-14   0.1078900244E-15  -0.1613427802E-14  -0.1590743871E-14   0.2105791563E-01  -0.7778957810E-02  -0.7778957810E-02  -0.2623163637E-18  -0.3753862952E-16  -0.4728257597E-16   0.6875000011E+01
   0.1021057916E+01   0.0000000000E+00  -0.8284550363E-17   0.2250000000E-02   0.0000000000E+00   0.8330976567E-18   0.1880791560E-01   0.0000000000E+00  -0.9117648020E-17   0.6875000011E+01  -0.4977143229E-14  -0.3726149730E-14   0.2638672577E-15  -0.4770503327E-16   0.7218199362E-15   0.2105791563E-01  -0.7778957810E-02  -0.7778957810E-02  -0.4491833222E-16   0.3099451525E-16   0.3667640442E-17   0.6875000011E+01
   0.1021057916E+01   0.9922210422E+00  -0.7347151590E-17   0.2250000000E-02  -0.6750000000E-03   0.1121260684E-17   0.1880791560E-01  -0.7103957798E-02  -0.8468412274E-17   0.6875000010E+01   0.3977942679E-14   0.2179808718E-14   0.8456828708E-15  -0.9841830054E-15   0.7847975439E-15   0.2105791563E-01  -0.7778957809E-02  -0.7778957809E-02  -0.3610070434E-16   0.9316811857E-16   0.3040400056E-16   0.6875000010E+01
   0.0000000000E+00   0.9922210422E+00  -0.2305450504E-16   0.0000000000E+00  -0.6750000000E-03   0.1159855174E-18   0.0000000000E+00  -0.7103957798E-02  -0.2317049056E-16   0.6875000010E+01  -0.6473417225E-14  -0.4106365581E-14   0.7818895033E-15   0.9730886346E-15  -0.3505891150E-15   0.2105791563E-01  -0.7778957809E-02  -0.7778957809E-02   0.1590657422E-17   0.3765221158E-16  -0.9715968918E-18   0.6875000010E+01
   0.0000000000E+00   0.0000000000E+00   0.9922210422E+00   0.0000000000E+00   0.0000000000E+00  -0.6750000000E-03   0.0000000000E+00   0.0000000000E+00  -0.7103957798E-02   0.6875000010E+01  -0.1740095874E-14  -0.4851637555E-14   0.1601149630E-16   0.6811874777E-15   0.4555435007E-15   0.2105791563E-01  -0.7778957809E-02  -0.7778957809E-02  -0.2769033858E-18   0.4106989318E-16   0.1813360909E-16   0.6875000010E+01
   0.1021057916E+01   0.0000000000E+00   0.9922210422E+00   0.2250000000E-02   0.0000000000E+00  -0.6750000000E-03   0.1880791560E-01   0.0000000000E+00  -0.7103957798E-02   0.6875000010E+01  -0.6472740310E-15   0.1232133795E-14  -0.8868360935E-15   0.9497908630E-15  -0.4316382211E-15   0.2105791563E-01  -0.7778957809E-02  -0.7778957809E-02   0.7630720476E-17   0.4069537009E-16  -0.2009838826E-16   0.6875000010E+01
   0.1021057916E+01   0.9922210422E+00   0.9922210422E+00   0.2250000000E-02  -0.6750000000E-03  -0.6750000000E-03   0.1880791560E-01  -0.7103957798E-02  -0.7103957798E-02   0.6875000009E+01   0.2556430251E-14   0.2329332644E-15  -0.7735150515E-15  -0.3720243401E-15  -0.9402551275E-15   0.2105791562E-01  -0.7778957808E-02  -0.7778957808E-02   0.9226869167E-17   0.6577640695E-16   0.6010398049E-17   0.6875000009E+01
   0.0000000000E+00   0.9922210422E+00   0.9922210422E+00   0.0000000000E+00  -0.6750000000E-03  -0.6750000000E-03   0.0000000000E+00  -0.7103957798E-02  -0.7103957798E-02   0.6875000009E+01  -0.3682596757E-15   0.1863074687E-14  -0.9807397145E-16  -0.5168529891E-15   0.1473781955E-14   0.2105791562E-01  -0.7778957808E-02  -0.7778957808E-02  -0.9759601082E-17   0.5644526304E-19   0.6388843943E-16   0.6875000009E+01
   0.2042115831E+01   0.0000000000E+00   0.2064554283E-16   0.4500000000E-02   0.0000000000E+00   0.3656334349E-19   0.3761583119E-01   0.0000000000E+00   0.2060897949E-16   0.6875000010E+01  -0.7910585773E-14  -0.8348839673E-14   0.1236140815E-15   0.6030444039E-15  -0.1464707644E-16   0.2105791563E-01  -0.7778957809E-02  -0.7778957809E-02  -0.1209947300E-15   0.8625389819E-16  -0.3797074575E-16   0.6875000010E+01
   0.2042115831E+01   0.9922210422E+00   0.2652727762E-17   0.4500000000E-02  -0.6750000000E-03   0.1539997814E-17   0.3761583119E-01  -0.7103957798E-02   0.1112729948E-17   0.6875000010E+01   0.7101831620E-14   0.5416855730E-14   0.2578270326E-15   0.2647903718E-15  -0.1403342033E-15   0.2105791562E-01  -0.7778957808E-02  -0.7778957808E-02  -0.1311265105E-15   0.1967046590E-15   0.1869683073E-16   0.6875000010E+01
   0.2042115831E+01   0.0000000000E+00   0.9922210422E+00   0.4500000000E-02   0.0000000000E+00  -0.6750000000E-03   0.3761583119E-01   0.0000000000E+00  -0.7103957798E-02   0.6875000010E+01   0.7773018600E-14   0.9595847586E-14   0.2034761472E-14  -0.1613426085E-14  -0.1297169538E-15   0.2105791562E-01  -0.7778957808E-02  -0.7778957808E-02   0.4634851079E-17   0.1800387499E-16  -0.9212382879E-17   0.6875000010E+01
   0.2042115831E+01   0.9922210422E+00   0.9922210422E+00   0.4500000000E-02  -0.6750000000E-03  -0.6750000000E-03   0.3761583119E-01  -0.7103957798E-02  -0.7103957798E-02   0.6875000009E+01  -0.7663064148E-14  -0.6623226670E-14   0.4114993339E-15   0.2050583690E-14   0.6907725025E-16   0.2105791562E-01  -0.7778957808E-02  -0.7778957808E-02   0.3456384508E-16   0.1642063246E-15   0.3893946579E-16   0.6875000009E+01
     1     2     3     4     5     6     7     8
     2     9    10     3     6    11    12     7
 VARIABLES = X,Y,Z,DU1,DU2,DU3,U1,U2,U3,S11,S22,S33,S12,S13,S23,E11,E22,E33,E12,E13,E23,SMISES
 ZONE, T="0.2800D+01" F=FEPOINT, I=   12 J=    2 ET=BRICK
   0.0000000000E+00   0.0000000000E+00   0.0000000000E+00   0.0000000000E+00   0.0000000000E+00   0.0000000000E+00   0.0000000000E+00   0.0000000000E+00   0.0000000000E+00   0.8000000013E+01   0.8504484422E-14   0.7387358409E-14   0.8893451463E-16  -0.1648860052E-14  -0.1496087570E-14   0.2330791563E-01  -0.8453957811E-02  -0.8453957811E-02   0.1123754123E-17  -0.3583632235E-16  -0.4602830673E-16   0.8000000013E+01
   0.1023307916E+01   0.0000000000E+00  -0.7584476860E-17   0.2250000000E-02   0.0000000000E+00   0.7000735032E-18   0.2105791560E-01   0.0000000000E+00  -0.8284550363E-17   0.8000000012E+01  -0.4259483905E-14  -0.3038238732E-14   0.5957908522E-16   0.3093900716E-15   0.5790817971E-15   0.2330791563E-01  -0.8453957811E-02  -0.8453957811E-02  -0.4972126589E-16   0.3913332628E-16   0.7972223374E-18   0.8000000012E+01
   0.1023307916E+01   0.9915460422E+00  -0.7340328679E-17   0.2250000000E-02  -0.6750000000E-03   0.6822911225E-20   0.2105791560E-01  -0.7778957798E-02  -0.7347151590E-17   0.8000000011E+01   0.3785646468E-14   0.1957764181E-14   0.5195228708E-15  -0.6875369080E-15   0.7824346236E-15   0.2330791563E-01  -0.8453957810E-02  -0.8453957810E-02  -0.5384652689E-16   0.1008908857E-15   0.3477199699E-16   0.8000000011E+01
   0.0000000000E+00   0.9915460422E+00  -0.2247059060E-16   0.0000000000E+00  -0.6750000000E-03   0.5839144421E-18   0.0000000000E+00  -0.7778957798E-02  -0.2305450504E-16   0.8000000012E+01  -0.6639950689E-14  -0.4258024883E-14   0.5144008093E-15   0.6994135886E-15  -0.4406934873E-15   0.2330791563E-01  -0.8453957810E-02  -0.8453957810E-02   0.6307598385E-17   0.3401519755E-16   0.7273979258E-18   0.8000000012E+01
   0.0000000000E+00   0.0000000000E+00   0.9915460422E+00   0.0000000000E+00   0.0000000000E+00  -0.6750000000E-03   0.0000000000E+00   0.0000000000E+00  -0.7778957798E-02   0.8000000012E+01  -0.1470511209E-14  -0.4637564027E-14   0.9142719647E-17   0.6355430487E-15   0.5384052280E-15   0.2330791563E-01  -0.8453957810E-02  -0.8453957810E-02   0.3294258410E-18   0.4021951484E-16   0.2229451029E-16   0.8000000012E+01
   0.1023307916E+01   0.0000000000E+00   0.9915460422E+00   0.2250000000E-02   0.0000000000E+00  -0.6750000000E-03   0.2105791560E-01   0.0000000000E+00  -0.7778957798E-02   0.8000000011E+01  -0.1224162751E-14   0.7662673528E-15  -0.7644888239E-15   0.1103181375E-14  -0.4181236761E-15   0.2330791563E-01  -0.8453957810E-02  -0.8453957810E-02   0.5747763263E-17   0.3924875797E-16  -0.2031020537E-16   0.8000000011E+01
   0.1023307916E+01   0.9915460422E+00   0.9915460422E+00   0.2250000000E-02  -0.6750000000E-03  -0.6750000000E-03   0.2105791560E-01  -0.7778957798E-02  -0.7778957798E-02   0.8000000010E+01   0.2223363350E-14   0.1088864088E-16  -0.6041163570E-15   0.1779750413E-15  -0.8186892418E-15   0.2330791563E-01  -0.8453957809E-02  -0.8453957809E-02   0.2469912560E-16   0.8723914166E-16   0.1278292377E-16   0.8000000010E+01
   0.0000000000E+00   0.9915460422E+00   0.9915460422E+00   0.0000000000E+00  -0.6750000000E-03  -0.6750000000E-03   0.0000000000E+00  -0.7778957798E-02  -0.7778957798E-02   0.8000000011E+01  -0.1313409278E-15   0.2044482299E-14   0.5678828142E-16  -0.7472101856E-15   0.1296697619E-14   0.2330791563E-01  -0.8453957809E-02  -0.8453957809E-02  -0.1594923180E-16  -0.3939324441E-17   0.4910642470E-16   0.8000000011E+01
   0.2046615831E+01   0.0000000000E+00   0.2516476042E-16   0.4500000000E-02   0.0000000000E+00   0.4519217592E-17   0.4211583119E-01   0.0000000000E+00   0.2064554283E-16   0.8000000012E+01  -0.8288275060E-14  -0.8519358567E-14  -0.6686064307E-16   0.2294853866E-15  -0.2455682018E-15   0.2330791563E-01  -0.8453957810E-02  -0.8453957810E-02  -0.1244076013E-15   0.9096587075E-16  -0.3949371001E-16   0.8000000012E+01
   0.2046615831E+01   0.9915460422E+00   0.5932264508E-17   0.4500000000E-02  -0.6750000000E-03   0.3279536746E-17   0.4211583119E-01  -0.7778957798E-02   0.2652727762E-17   0.8000000011E+01   0.8422142525E-14   0.6944337029E-14   0.5879104903E-16  -0.2658137641E-15   0.1656657080E-16   0.2330791563E-01  -0.8453957809E-02  -0.8453957809E-02  -0.1249383292E-15   0.1741625715E-15   0.1774838879E-16   0.8000000011E+01
   0.2046615831E+01   0.0000000000E+00   0.9915460422E+00   0.4500000000E-02   0.0000000000E+00  -0.6750000000E-03   0.4211583119E-01   0.0000000000E+00  -0.7778957798E-02   0.8000000011E+01   0.7888026357E-14   0.8937684811E-14   0.1819848844E-14  -0.1904656803E-14  -0.2287051065E-15   0.2330791563E-01  -0.8453957809E-02  -0.8453957809E-02  -0.7496515675E-17   0.3890062305E-16  -0.1151247906E-16   0.8000000011E+01
   0.2046615831E+01   0.9915460422E+00   0.9915460422E+00   0.4500000000E-02  -0.6750000000E-03  -0.6750000000E-03   0.4211583119E-01  -0.7778957798E-02  -0.7778957798E-02   0.8000000010E+01  -0.8003034112E-14  -0.7736367166E-14   0.1325358586E-15   0.1220435662E-14   0.3413669446E-15   0.2330791562E-01  -0.8453957808E-02  -0.8453957808E-02   0.1642044358E-16   0.1301947796E-15   0.4531897995E-16   0.8000000010E+01
     1     2     3     4     5     6     7     8
     2     9    10     3     6    11    12     7
 VARIABLES = X,Y,Z,DU1,DU2,DU3,U1,U2,U3,S11,S22,S33,S12,S13,S23,E11,E22,E33,E12,E13,E23,SMISES
 ZONE, T="0.2850D+01" F=FEPOINT, I=   12 J=    2 ET=BRICK
   0.0000000000E+00   0.0000000000E+00   0.0000000000E+00   0.0000000000E+00   0.0000000000E+00   0.0000000000E+00   0.0000000000E+00   0.0000000000E+00   0.0000000000E+00   0.9125000014E+01   0.8474736091E-14   0.7381914085E-14   0.5777070165E-16  -0.1212146871E-14  -0.1350021741E-14   0.2555791564E-01  -0.9128957812E-02  -0.9128957812E-02  -0.1813597185E-17  -0.3707260790E-16  -0.4670156787E-16   0.9125000014E+01
   0.1025557916E+01   0.0000000000E+00  -0.5525853549E-17   0.2250000000E-02   0.0000000000E+00   0.2058623310E-17   0.2330791560E-01   0.0000000000E+00  -0.7584476860E-17   0.9125000014E+01  -0.4481528510E-14  -0.3411942600E-14   0.3028083609E-15  -0.1182960148E-15   0.5634504661E-15   0.2555791563E-01  -0.9128957812E-02  -0.9128957812E-02  -0.4379171380E-16   0.4005892872E-16   0.3729627615E-17   0.9125000014E+01
   0.1025557916E+01   0.9908710422E+00  -0.5387402300E-17   0.2250000000E-02  -0.6750000000E-03   0.1952926378E-17   0.2330791560E-01  -0.8453957798E-02  -0.7340328679E-17   0.9125000013E+01   0.2897468147E-14   0.1776356611E-14   0.7166699854E-15  -0.7949106912E-15   0.7985559496E-15   0.2555791563E-01  -0.9128957811E-02  -0.9128957811E-02  -0.5493447563E-16   0.9642576289E-16   0.2517287014E-16   0.9125000013E+01
   0.0000000000E+00   0.9908710422E+00  -0.2169500810E-16   0.0000000000E+00  -0.6750000000E-03   0.7755824994E-18   0.0000000000E+00  -0.8453957798E-02  -0.2247059060E-16   0.9125000013E+01  -0.5182854719E-14  -0.2962018012E-14   0.1705377551E-15   0.8675476147E-15  -0.2818996571E-15   0.2555791563E-01  -0.9128957811E-02  -0.9128957811E-02   0.9386289751E-17   0.3882203280E-16   0.4340007730E-17   0.9125000013E+01
   0.0000000000E+00   0.0000000000E+00   0.9908710422E+00   0.0000000000E+00   0.0000000000E+00  -0.6750000000E-03   0.0000000000E+00   0.0000000000E+00  -0.8453957798E-02   0.9125000013E+01  -0.2410215221E-14  -0.5456815931E-14   0.1765191809E-16   0.6829444535E-15   0.4309355005E-15   0.2555791563E-01  -0.9128957811E-02  -0.9128957811E-02  -0.1724171890E-17   0.4277887636E-16   0.1607806745E-16   0.9125000013E+01
   0.1025557916E+01   0.0000000000E+00   0.9908710422E+00   0.2250000000E-02   0.0000000000E+00  -0.6750000000E-03   0.2330791560E-01   0.0000000000E+00  -0.8453957798E-02   0.9125000013E+01  -0.1446207357E-14   0.2002672735E-15  -0.3216053502E-15   0.6011312892E-15  -0.2337394215E-15   0.2555791563E-01  -0.9128957811E-02  -0.9128957811E-02   0.1497922711E-16   0.3986744030E-16  -0.2024714891E-16   0.9125000013E+01
   0.1025557916E+01   0.9908710422E+00   0.9908710422E+00   0.2250000000E-02  -0.6750000000E-03  -0.6750000000E-03   0.2330791560E-01  -0.8453957798E-02  -0.8453957798E-02   0.9125000012E+01   0.2667452461E-14   0.1213274110E-14  -0.3597624454E-15   0.4671669586E-17  -0.5140298699E-15   0.2555791563E-01  -0.9128957810E-02  -0.9128957810E-02   0.1941291457E-16   0.7875502013E-16   0.1936569886E-16   0.9125000012E+01
   0.0000000000E+00   0.9908710422E+00   0.9908710422E+00   0.0000000000E+00  -0.6750000000E-03  -0.6750000000E-03   0.0000000000E+00  -0.8453957798E-02  -0.8453957798E-02   0.9125000012E+01  -0.1404111730E-14   0.5848595950E-15  -0.4754214350E-16  -0.2207070960E-15   0.1145534417E-14   0.2555791563E-01  -0.9128957810E-02  -0.9128957810E-02  -0.1458620834E-16  -0.3182983282E-17   0.6244201870E-16   0.9125000012E+01
   0.2051115831E+01   0.0000000000E+00   0.2919710408E-16   0.4500000000E-02   0.0000000000E+00   0.4032343658E-17   0.4661583119E-01   0.0000000000E+00   0.2516476042E-16   0.9125000014E+01  -0.7370348508E-14  -0.8032105762E-14  -0.1302665688E-14  -0.1068803170E-15  -0.3435167193E-15   0.2555791563E-01  -0.9128957811E-02  -0.9128957811E-02  -0.1294013064E-15   0.9126896237E-16  -0.4268887453E-16   0.9125000014E+01
   0.2051115831E+01   0.9908710422E+00   0.9498459621E-17   0.4500000000E-02  -0.6750000000E-03   0.3566195113E-17   0.4661583119E-01  -0.8453957798E-02   0.5932264508E-17   0.9125000013E+01   0.6520957345E-14   0.5670107440E-14  -0.8574610089E-15   0.7265079475E-15  -0.5311961508E-15   0.2555791563E-01  -0.9128957810E-02  -0.9128957810E-02  -0.1352342808E-15   0.1752115464E-15   0.1647631791E-16   0.9125000013E+01
   0.2051115831E+01   0.0000000000E+00   0.9908710422E+00   0.4500000000E-02   0.0000000000E+00  -0.6750000000E-03   0.4661583119E-01   0.0000000000E+00  -0.8453957798E-02   0.9125000013E+01   0.7051373727E-14   0.9009528979E-14   0.2251353022E-14  -0.2234478566E-14  -0.1580332489E-15   0.2555791563E-01  -0.9128957810E-02  -0.9128957810E-02  -0.6820710466E-17   0.1113790048E-16  -0.1461904229E-16   0.9125000013E+01
   0.2051115831E+01   0.9908710422E+00   0.9908710422E+00   0.4500000000E-02  -0.6750000000E-03  -0.6750000000E-03   0.4661583119E-01  -0.8453957798E-02  -0.8453957798E-02   0.9125000012E+01  -0.7174352520E-14  -0.6639559603E-14   0.1045237013E-15   0.2151992268E-14  -0.6848687223E-16   0.2555791563E-01  -0.9128957809E-02  -0.9128957809E-02   0.9252013037E-17   0.1592677098E-15   0.3288809111E-16   0.9125000012E+01
     1     2     3     4     5     6     7     8
     2     9    10     3     6    11    12     7
 VARIABLES = X,Y,Z,DU1,DU2,DU3,U1,U2,U3,S11,S22,S33,S12,S13,S23,E11,E22,E33,E12,E13,E23,SMISES
 ZONE, T="0.2900D+01" F=FEPOINT, I=   12 J=    2 ET=BRICK
   0.0000000000E+00   0.0000000000E+00   0.0000000000E+00   0.0000000000E+00   0.0000000000E+00   0.0000000000E+00   0.0000000000E+00   0.0000000000E+00   0.0000000000E+00   0.1024999970E+02   0.1560719358E-06   0.1560719366E-06   0.1039505428E-15  -0.6516403118E-17  -0.2218713564E-14   0.3288421427E-01  -0.1234210713E-01  -0.1234210713E-01  -0.1985105844E-17  -0.2240695333E-16  -0.5952964998E-16   0.1024999955E+02
   0.1032884214E+01   0.0000000000E+00   0.5279033451E-17   0.7326298626E-02   0.0000000000E+00   0.1080488700E-16   0.2555791560E-01   0.0000000000E+00  -0.5525853549E-17   0.1024999970E+02   0.1560719181E-06   0.1560719205E-06  -0.7196639922E-15  -0.1154116014E-14  -0.5361407066E-15   0.3288421427E-01  -0.1234210713E-01  -0.1234210713E-01  -0.6037589919E-16   0.3015062339E-16  -0.1066972124E-16   0.1024999955E+02
   0.1032884214E+01   0.9876578929E+00  -0.1462273441E-17   0.7326298626E-02  -0.3213149313E-02   0.3925128859E-17   0.2555791560E-01  -0.9128957798E-02  -0.5387402300E-17   0.1024999970E+02   0.1560719247E-06   0.1560719267E-06   0.4184454557E-15  -0.2326789872E-15   0.1209228963E-14   0.3288421427E-01  -0.1234210713E-01  -0.1234210713E-01  -0.5196947483E-16   0.9881173994E-16   0.3880090960E-16   0.1024999955E+02
   0.0000000000E+00   0.9876578929E+00  -0.2951475116E-16   0.0000000000E+00  -0.3213149313E-02  -0.7819743063E-17   0.0000000000E+00  -0.9128957798E-02  -0.2169500810E-16   0.1024999970E+02   0.1560719147E-06   0.1560719190E-06   0.3851517732E-15   0.1408423714E-14   0.9565172398E-15   0.3288421427E-01  -0.1234210713E-01  -0.1234210713E-01   0.8443224319E-17   0.5018830845E-16   0.1295999884E-16   0.1024999955E+02
   0.0000000000E+00   0.0000000000E+00   0.9876578929E+00   0.0000000000E+00   0.0000000000E+00  -0.3213149313E-02   0.0000000000E+00   0.0000000000E+00  -0.9128957798E-02   0.1024999970E+02   0.1560719165E-06   0.1560719133E-06  -0.6808452568E-16   0.1516388905E-14  -0.7067121999E-15   0.3288421427E-01  -0.1234210713E-01  -0.1234210713E-01  -0.2798666981E-17   0.7034230442E-16   0.3786443248E-17   0.1024999955E+02
   0.1032884214E+01   0.0000000000E+00   0.9876578929E+00   0.7326298626E-02   0.0000000000E+00  -0.3213149313E-02   0.2555791560E-01   0.0000000000E+00  -0.9128957798E-02   0.1024999970E+02   0.1560719191E-06   0.1560719184E-06  -0.5244186715E-15   0.3710046933E-15  -0.9972873351E-15   0.3288421427E-01  -0.1234210713E-01  -0.1234210713E-01   0.1386235494E-16   0.1090395926E-16  -0.3308492686E-16   0.1024999955E+02
   0.1032884214E+01   0.9876578929E+00   0.9876578929E+00   0.7326298626E-02  -0.3213149313E-02  -0.3213149313E-02   0.2555791560E-01  -0.9128957798E-02  -0.9128957798E-02   0.1024999970E+02   0.1560719224E-06   0.1560719206E-06  -0.6244236315E-15  -0.9592885096E-16   0.3610545541E-15   0.3288421426E-01  -0.1234210713E-01  -0.1234210713E-01   0.1229350799E-16   0.1164349181E-15   0.1604021953E-16   0.1024999955E+02
   0.0000000000E+00   0.9876578929E+00   0.9876578929E+00   0.0000000000E+00  -0.3213149313E-02  -0.3213149313E-02   0.0000000000E+00  -0.9128957798E-02  -0.9128957798E-02   0.1024999970E+02   0.1560719208E-06   0.1560719203E-06  -0.2900423268E-15   0.1223249679E-14   0.2532448447E-14   0.3288421426E-01  -0.1234210713E-01  -0.1234210713E-01  -0.1934333510E-16   0.9157139242E-18   0.8577203068E-16   0.1024999955E+02
   0.2065768428E+01   0.0000000000E+00   0.7324480807E-16   0.1465259725E-01   0.0000000000E+00   0.4404770399E-16   0.5111583119E-01   0.0000000000E+00   0.2919710408E-16   0.1024999970E+02   0.1560719152E-06   0.1560719148E-06  -0.1381891682E-14   0.3910605422E-15  -0.1048643828E-14   0.3288421427E-01  -0.1234210713E-01  -0.1234210713E-01  -0.1511976038E-15   0.7586405317E-16  -0.5012536089E-16   0.1024999955E+02
   0.2065768428E+01   0.9876578929E+00   0.4885118216E-16   0.1465259725E-01  -0.3213149313E-02   0.3935272254E-16   0.5111583119E-01  -0.9128957798E-02   0.9498459621E-17   0.1024999970E+02   0.1560719295E-06   0.1560719302E-06   0.1522304072E-15  -0.4758926952E-15   0.2914793393E-15   0.3288421427E-01  -0.1234210713E-01  -0.1234210713E-01  -0.1504331030E-15   0.1455594526E-15   0.2344859179E-16   0.1024999955E+02
   0.2065768428E+01   0.0000000000E+00   0.9876578929E+00   0.1465259725E-01   0.0000000000E+00  -0.3213149313E-02   0.5111583119E-01   0.0000000000E+00  -0.9128957798E-02   0.1024999970E+02   0.1560719299E-06   0.1560719286E-06  -0.1082551431E-15  -0.1928313601E-14  -0.5245633859E-15   0.3288421427E-01  -0.1234210713E-01  -0.1234210713E-01  -0.1208120065E-16   0.3155556732E-16  -0.1855848845E-16   0.1024999955E+02
   0.2065768428E+01   0.9876578929E+00   0.9876578929E+00   0.1465259725E-01  -0.3213149313E-02  -0.3213149313E-02   0.5111583119E-01  -0.9128957798E-02  -0.9128957798E-02   0.1024999970E+02   0.1560719121E-06   0.1560719114E-06  -0.5010611803E-15   0.1276168176E-14   0.8874167825E-15   0.3288421426E-01  -0.1234210713E-01  -0.1234210713E-01   0.2922614273E-16   0.1341996367E-15   0.5271570657E-16   0.1024999954E+02
     1     2     3     4     5     6     7     8
     2     9    10     3     6    11    12     7
 VARIABLES = X,Y,Z,DU1,DU2,DU3,U1,U2,U3,S11,S22,S33,S12,S13,S23,E11,E22,E33,E12,E13,E23,SMISES
 ZONE, T="0.2950D+01" F=FEPOINT, I=   12 J=    2 ET=BRICK
   0.0000000000E+00   0.0000000000E+00   0.0000000000E+00   0.0000000000E+00   0.0000000000E+00   0.0000000000E+00   0.0000000000E+00   0.0000000000E+00   0.0000000000E+00   0.1137499452E+02   0.2751246707E-05   0.2751246707E-05  -0.5782038359E-16  -0.5449410165E-15  -0.1517506811E-14   0.5965717863E-01  -0.2527858931E-01  -0.2527858931E-01  -0.1701911945E-17  -0.2768111428E-16  -0.6783966969E-16   0.1137499176E+02
   0.1059657179E+01   0.0000000000E+00  -0.6013986275E-17   0.2677296432E-01   0.0000000000E+00  -0.1129301973E-16   0.3288421422E-01   0.0000000000E+00   0.5279033451E-17   0.1137499452E+02   0.2751246698E-05   0.2751246697E-05   0.8204476257E-15  -0.4799126986E-15   0.2842713551E-15   0.5965717863E-01  -0.2527858931E-01  -0.2527858931E-01  -0.4305910206E-16   0.5222788007E-17   0.2298135481E-17   0.1137499176E+02
   0.1059657179E+01   0.9747214107E+00  -0.7145008491E-17   0.2677296432E-01  -0.1293648216E-01  -0.5682735049E-17   0.3288421422E-01  -0.1234210711E-01  -0.1462273441E-17   0.1137499451E+02   0.2751246698E-05   0.2751246699E-05   0.1064115039E-14  -0.7247194412E-15   0.5461361691E-15   0.5965717863E-01  -0.2527858931E-01  -0.2527858931E-01  -0.2909008519E-16   0.1120654036E-15   0.3352870727E-16   0.1137499176E+02
   0.0000000000E+00   0.9747214107E+00  -0.3252476529E-16   0.0000000000E+00  -0.1293648216E-01  -0.3010014123E-17   0.0000000000E+00  -0.1234210711E-01  -0.2951475116E-16   0.1137499451E+02   0.2751246698E-05   0.2751246700E-05   0.6022580123E-15   0.8023605777E-15  -0.1016952773E-15   0.5965717863E-01  -0.2527858931E-01  -0.2527858931E-01   0.1549124341E-16   0.4039114676E-16  -0.1575203773E-17   0.1137499176E+02
   0.0000000000E+00   0.0000000000E+00   0.9747214107E+00   0.0000000000E+00   0.0000000000E+00  -0.1293648216E-01   0.0000000000E+00   0.0000000000E+00  -0.1234210711E-01   0.1137499451E+02   0.2751246695E-05   0.2751246695E-05   0.1508380190E-16   0.4769880025E-15  -0.1842785886E-15   0.5965717863E-01  -0.2527858931E-01  -0.2527858931E-01  -0.7416408494E-17   0.5505122648E-16   0.2386736095E-16   0.1137499176E+02
   0.1059657179E+01   0.0000000000E+00   0.9747214107E+00   0.2677296432E-01   0.0000000000E+00  -0.1293648216E-01   0.3288421422E-01   0.0000000000E+00  -0.1234210711E-01   0.1137499451E+02   0.2751246697E-05   0.2751246699E-05  -0.1429808566E-14   0.1084053497E-14  -0.2476619372E-15   0.5965717863E-01  -0.2527858931E-01  -0.2527858931E-01  -0.1744577536E-17   0.3303209976E-16  -0.4494826576E-16   0.1137499176E+02
   0.1059657179E+01   0.9747214107E+00   0.9747214107E+00   0.2677296432E-01  -0.1293648216E-01  -0.1293648216E-01   0.3288421422E-01  -0.1234210711E-01  -0.1234210711E-01   0.1137499451E+02   0.2751246704E-05   0.2751246702E-05  -0.1072725115E-14  -0.8127285017E-15  -0.5210222990E-16   0.5965717862E-01  -0.2527858930E-01  -0.2527858930E-01  -0.2584328493E-17   0.5890773921E-16   0.2722301536E-16   0.1137499176E+02
   0.0000000000E+00   0.9747214107E+00   0.9747214107E+00   0.0000000000E+00  -0.1293648216E-01  -0.1293648216E-01   0.0000000000E+00  -0.1234210711E-01  -0.1234210711E-01   0.1137499451E+02   0.2751246693E-05   0.2751246693E-05   0.1266645096E-15   0.4968771586E-15   0.1224848968E-14   0.5965717862E-01  -0.2527858930E-01  -0.2527858930E-01  -0.1471656345E-16   0.1666438373E-16   0.7441903827E-16   0.1137499176E+02
   0.2119314357E+01   0.0000000000E+00   0.3980622930E-16   0.5354592864E-01   0.0000000000E+00  -0.3343857877E-16   0.6576842844E-01   0.0000000000E+00   0.7324480807E-16   0.1137499451E+02   0.2751246696E-05   0.2751246697E-05  -0.2086845915E-14   0.2177957679E-15  -0.4774255859E-15   0.5965717863E-01  -0.2527858931E-01  -0.2527858931E-01  -0.1743464020E-15   0.7992932377E-16  -0.4862292458E-16   0.1137499176E+02
   0.2119314357E+01   0.9747214107E+00   0.1645103546E-16   0.5354592864E-01  -0.1293648216E-01  -0.3240014670E-16   0.6576842844E-01  -0.1234210711E-01   0.4885118216E-16   0.1137499451E+02   0.2751246701E-05   0.2751246701E-05  -0.1932214045E-14   0.1091707875E-14  -0.1790808735E-15   0.5965717862E-01  -0.2527858931E-01  -0.2527858931E-01  -0.2024505523E-15   0.2087676385E-15   0.1644474762E-16   0.1137499176E+02
   0.2119314357E+01   0.0000000000E+00   0.9747214107E+00   0.5354592864E-01   0.0000000000E+00  -0.1293648216E-01   0.6576842844E-01   0.0000000000E+00  -0.1234210711E-01   0.1137499451E+02   0.2751246704E-05   0.2751246703E-05   0.1108277896E-14  -0.3133567627E-14   0.8214821619E-16   0.5965717862E-01  -0.2527858931E-01  -0.2527858931E-01   0.2867111977E-16  -0.2640908468E-16   0.1451674424E-17   0.1137499176E+02
   0.2119314357E+01   0.9747214107E+00   0.9747214107E+00   0.5354592864E-01  -0.1293648216E-01  -0.1293648216E-01   0.6576842844E-01  -0.1234210711E-01  -0.1234210711E-01   0.1137499451E+02   0.2751246701E-05   0.2751246702E-05   0.1394997463E-14   0.1237097731E-14   0.5708285551E-15   0.5965717862E-01  -0.2527858930E-01  -0.2527858930E-01   0.7769444998E-16   0.2463866000E-15   0.5369345550E-16   0.1137499176E+02
     1     2     3     4     5     6     7     8
     2     9    10     3     6    11    12     7
 VARIABLES = X,Y,Z,DU1,DU2,DU3,U1,U2,U3,S11,S22,S33,S12,S13,S23,E11,E22,E33,E12,E13,E23,SMISES
 ZONE, T="0.3000D+01" F=FEPOINT, I=   12 J=    2 ET=BRICK
   0.0000000000E+00   0.0000000000E+00   0.0000000000E+00   0.0000000000E+00   0.0000000000E+00   0.0000000000E+00   0.0000000000E+00   0.0000000000E+00   0.0000000000E+00   0.1249998835E+02   0.5835708254E-05   0.5835708254E-05  -0.2560757731E-16  -0.6726622240E-15  -0.1799310278E-14   0.8837750044E-01  -0.3918875021E-01  -0.3918875021E-01  -0.4976823759E-17  -0.3215277098E-16  -0.8924862044E-16   0.1249998251E+02
   0.1088377500E+01   0.0000000000E+00   0.3193866839E-17   0.2872032176E-01   0.0000000000E+00   0.9207853114E-17   0.5965717854E-01   0.0000000000E+00  -0.6013986275E-17   0.1249998835E+02   0.5835708246E-05   0.5835708249E-05   0.6982767191E-15   0.1109573539E-14  -0.4357457636E-15   0.8837750043E-01  -0.3918875021E-01  -0.3918875021E-01  -0.3443791686E-16   0.4886093166E-16  -0.2951500310E-16   0.1249998251E+02
   0.1088377500E+01   0.9608112499E+00  -0.5323478331E-17   0.2872032176E-01  -0.1391016088E-01   0.1821530160E-17   0.5965717854E-01  -0.2527858927E-01  -0.7145008491E-17   0.1249998835E+02   0.5835708245E-05   0.5835708245E-05   0.6141493427E-15  -0.2651119369E-15   0.1086882199E-14   0.8837750042E-01  -0.3918875020E-01  -0.3918875020E-01  -0.4558952698E-16   0.8891214105E-16   0.6594299314E-16   0.1249998251E+02
   0.0000000000E+00   0.9608112499E+00  -0.4204854384E-16   0.0000000000E+00  -0.1391016088E-01  -0.9523778551E-17   0.0000000000E+00  -0.2527858927E-01  -0.3252476529E-16   0.1249998835E+02   0.5835708242E-05   0.5835708245E-05  -0.1022873244E-16   0.1020684838E-14   0.1060190010E-14   0.8837750043E-01  -0.3918875021E-01  -0.3918875021E-01   0.2711042013E-16   0.6080085615E-16   0.4435930870E-16   0.1249998251E+02
   0.0000000000E+00   0.0000000000E+00   0.9608112499E+00   0.0000000000E+00   0.0000000000E+00  -0.1391016088E-01   0.0000000000E+00   0.0000000000E+00  -0.2527858927E-01   0.1249998835E+02   0.5835708239E-05   0.5835708236E-05   0.4599022110E-16   0.8994935427E-15  -0.6749390795E-15   0.8837750043E-01  -0.3918875021E-01  -0.3918875021E-01  -0.8396089360E-18   0.6971146344E-16  -0.7496640987E-17   0.1249998251E+02
   0.1088377500E+01   0.0000000000E+00   0.9608112499E+00   0.2872032176E-01   0.0000000000E+00  -0.1391016088E-01   0.5965717854E-01   0.0000000000E+00  -0.2527858927E-01   0.1249998835E+02   0.5835708243E-05   0.5835708243E-05  -0.5849848626E-15   0.5415528206E-15  -0.1272189658E-14   0.8837750042E-01  -0.3918875020E-01  -0.3918875020E-01  -0.1519991144E-16   0.4658296742E-16  -0.4576358035E-16   0.1249998251E+02
   0.1088377500E+01   0.9608112499E+00   0.9608112499E+00   0.2872032176E-01  -0.1391016088E-01  -0.1391016088E-01   0.5965717854E-01  -0.2527858927E-01  -0.2527858927E-01   0.1249998834E+02   0.5835708242E-05   0.5835708242E-05  -0.5187578926E-15   0.4521663338E-15   0.4035651754E-15   0.8837750041E-01  -0.3918875020E-01  -0.3918875020E-01  -0.2162732777E-17   0.9214956784E-16   0.1783826108E-16   0.1249998251E+02
   0.0000000000E+00   0.9608112499E+00   0.9608112499E+00   0.0000000000E+00  -0.1391016088E-01  -0.1391016088E-01   0.0000000000E+00  -0.2527858927E-01  -0.2527858927E-01   0.1249998835E+02   0.5835708245E-05   0.5835708242E-05   0.3794278473E-17  -0.4205075826E-16   0.7656869141E-15   0.8837750042E-01  -0.3918875020E-01  -0.3918875020E-01  -0.6377689447E-17   0.9665881366E-17   0.5047079726E-16   0.1249998251E+02
   0.2176755001E+01   0.0000000000E+00   0.9731690183E-16   0.5744064351E-01   0.0000000000E+00   0.5751067253E-16   0.1193143571E+00   0.0000000000E+00   0.3980622930E-16   0.1249998835E+02   0.5835708243E-05   0.5835708241E-05  -0.3243775124E-15  -0.3125206737E-15  -0.1332175213E-14   0.8837750043E-01  -0.3918875021E-01  -0.3918875021E-01  -0.1493293979E-15   0.5535215062E-16  -0.6862254898E-16   0.1249998251E+02
   0.2176755001E+01   0.9608112499E+00   0.6202592555E-16   0.5744064351E-01  -0.1391016088E-01   0.4557489009E-16   0.1193143571E+00  -0.2527858927E-01   0.1645103546E-16   0.1249998835E+02   0.5835708253E-05   0.5835708257E-05  -0.5981100035E-15   0.8078648705E-15   0.6663699291E-15   0.8837750042E-01  -0.3918875020E-01  -0.3918875020E-01  -0.1639867838E-15   0.1938638870E-15   0.4727119168E-16   0.1249998251E+02
   0.2176755001E+01   0.0000000000E+00   0.9608112499E+00   0.5744064351E-01   0.0000000000E+00  -0.1391016088E-01   0.1193143571E+00   0.0000000000E+00  -0.2527858927E-01   0.1249998835E+02   0.5835708247E-05   0.5835708244E-05  -0.2500954458E-15  -0.1534821326E-14  -0.1671778762E-15   0.8837750042E-01  -0.3918875020E-01  -0.3918875020E-01   0.2101961503E-16  -0.1104739385E-15  -0.3062903346E-17   0.1249998251E+02
   0.2176755001E+01   0.9608112499E+00   0.9608112499E+00   0.5744064351E-01  -0.1391016088E-01  -0.1391016088E-01   0.1193143571E+00  -0.2527858927E-01  -0.2527858927E-01   0.1249998834E+02   0.5835708235E-05   0.5835708233E-05  -0.1519867795E-15  -0.6131076917E-15   0.1585804537E-14   0.8837750041E-01  -0.3918875020E-01  -0.3918875020E-01   0.5518285307E-16   0.2146025030E-15   0.5377466963E-16   0.1249998251E+02
     1     2     3     4     5     6     7     8
     2     9    10     3     6    11    12     7
 VARIABLES = X,Y,Z,DU1,DU2,DU3,U1,U2,U3,S11,S22,S33,S12,S13,S23,E11,E22,E33,E12,E13,E23,SMISES
 ZONE, T="0.3050D+01" F=FEPOINT, I=   12 J=    2 ET=BRICK
   0.0000000000E+00   0.0000000000E+00   0.0000000000E+00   0.0000000000E+00   0.0000000000E+00   0.0000000000E+00   0.0000000000E+00   0.0000000000E+00   0.0000000000E+00   0.1137500002E+02   0.6364530965E-14   0.2419930928E-14   0.7323697223E-17  -0.3470254590E-14   0.5740207232E-15   0.8612753078E-01  -0.3851376538E-01  -0.3851376538E-01  -0.3762874442E-17  -0.8779371612E-16  -0.5197331808E-16   0.1137500002E+02
   0.1086127531E+01   0.0000000000E+00  -0.2975172170E-16  -0.2249969654E-02   0.0000000000E+00  -0.3294558854E-16   0.8837750030E-01   0.0000000000E+00   0.3193866839E-17   0.1137500002E+02  -0.4086829149E-14  -0.6694785282E-14   0.2640089111E-14   0.3781779751E-15   0.7790229741E-15   0.8612753078E-01  -0.3851376538E-01  -0.3851376538E-01  -0.2064213462E-16   0.1175109462E-15  -0.7136252426E-17   0.1137500002E+02
   0.1086127531E+01   0.9614862347E+00  -0.3187221824E-16  -0.2249969654E-02   0.6749848272E-03  -0.2654873991E-16   0.8837750030E-01  -0.3918875015E-01  -0.5323478331E-17   0.1137500002E+02   0.2588314490E-14  -0.2069568225E-14   0.1296893051E-14   0.1107742696E-14  -0.1678651768E-14   0.8612753077E-01  -0.3851376538E-01  -0.3851376538E-01  -0.3893660800E-16   0.9987104770E-16   0.2211170148E-16   0.1137500002E+02
   0.0000000000E+00   0.9614862347E+00  -0.2968583807E-16   0.0000000000E+00   0.6749848272E-03   0.1236270577E-16   0.0000000000E+00  -0.3918875015E-01  -0.4204854384E-16   0.1137500002E+02  -0.4990557954E-14  -0.7089484210E-14  -0.8624181746E-15  -0.3597597649E-14   0.1101052203E-14   0.8612753077E-01  -0.3851376538E-01  -0.3851376538E-01   0.7592349110E-17   0.2069233692E-16   0.3461046822E-16   0.1137500002E+02
   0.0000000000E+00   0.0000000000E+00   0.9614862347E+00   0.0000000000E+00   0.0000000000E+00   0.6749848272E-03   0.0000000000E+00   0.0000000000E+00  -0.3918875015E-01   0.1137500002E+02   0.1961073559E-14   0.2366331999E-15   0.1539686892E-16  -0.4052563251E-14   0.1378405159E-14   0.8612753077E-01  -0.3851376538E-01  -0.3851376538E-01   0.2556081087E-17   0.3315051136E-16  -0.1327143609E-16   0.1137500002E+02
   0.1086127531E+01   0.0000000000E+00   0.9614862347E+00  -0.2249969654E-02   0.0000000000E+00   0.6749848272E-03   0.8837750030E-01   0.0000000000E+00  -0.3918875015E-01   0.1137500002E+02   0.1781410170E-14   0.3427884806E-14   0.3450996581E-14  -0.8969471907E-15   0.6929689503E-16   0.8612753077E-01  -0.3851376538E-01  -0.3851376538E-01   0.1598977168E-16   0.5008137980E-16  -0.2669036671E-16   0.1137500002E+02
   0.1086127531E+01   0.9614862347E+00   0.9614862347E+00  -0.2249969654E-02   0.6749848272E-03   0.6749848272E-03   0.8837750030E-01  -0.3918875015E-01  -0.3918875015E-01   0.1137500001E+02  -0.1378527571E-15   0.2676205539E-14   0.1759458256E-14   0.1724544404E-14  -0.2212353628E-14   0.8612753076E-01  -0.3851376537E-01  -0.3851376537E-01   0.2671792703E-16   0.1134651589E-15   0.3015910255E-17   0.1137500001E+02
   0.0000000000E+00   0.9614862347E+00   0.9614862347E+00   0.0000000000E+00   0.6749848272E-03   0.6749848272E-03   0.0000000000E+00  -0.3918875015E-01  -0.3918875015E-01   0.1137500002E+02   0.1739074926E-13   0.1401798468E-13  -0.3132248499E-14  -0.6315823519E-14   0.3555521872E-15   0.8612753076E-01  -0.3851376537E-01  -0.3851376537E-01  -0.5805745836E-16  -0.4709769622E-16   0.8240106599E-16   0.1137500002E+02
   0.2172255061E+01   0.0000000000E+00  -0.4106855183E-16  -0.4499939309E-02   0.0000000000E+00  -0.1383854537E-15   0.1767550006E+00   0.0000000000E+00   0.9731690183E-16   0.1137500002E+02  -0.1163993884E-13  -0.1398958956E-13   0.9111226700E-14   0.5411526122E-14   0.1067624323E-14   0.8612753077E-01  -0.3851376538E-01  -0.3851376538E-01  -0.2279127400E-16  -0.1133974457E-16  -0.5944925861E-16   0.1137500002E+02
   0.2172255061E+01   0.9614862347E+00  -0.6390069805E-16  -0.4499939309E-02   0.6749848272E-03  -0.1259266236E-15   0.1767550006E+00  -0.3918875015E-01   0.6202592555E-16   0.1137500002E+02   0.1586063571E-13   0.1932954826E-13   0.6935152379E-14  -0.2660769034E-14   0.5881242819E-16   0.8612753076E-01  -0.3851376538E-01  -0.3851376538E-01  -0.4477209097E-16   0.1329844928E-15   0.6216590634E-16   0.1137500002E+02
   0.2172255061E+01   0.0000000000E+00   0.9614862347E+00  -0.4499939309E-02   0.0000000000E+00   0.6749848272E-03   0.1767550006E+00   0.0000000000E+00  -0.3918875015E-01   0.1137500002E+02   0.1129199785E-13   0.1100793002E-13  -0.1644335799E-14   0.4261965039E-14   0.3175004168E-14   0.8612753076E-01  -0.3851376538E-01  -0.3851376538E-01  -0.1672764473E-16   0.7339525486E-16  -0.7207642548E-18   0.1137500002E+02
   0.2172255061E+01   0.9614862347E+00   0.9614862347E+00  -0.4499939309E-02   0.6749848272E-03   0.6749848272E-03   0.1767550006E+00  -0.3918875015E-01  -0.3918875015E-01   0.1137500001E+02  -0.1210366948E-13  -0.8177929096E-14  -0.1626364784E-14  -0.2587098522E-14   0.1880767680E-14   0.8612753075E-01  -0.3851376537E-01  -0.3851376537E-01   0.1106085080E-16   0.1640382030E-15   0.1140603296E-15   0.1137500001E+02
     1     2     3     4     5     6     7     8
     2     9    10     3     6    11    12     7
 VARIABLES = X,Y,Z,DU1,DU2,DU3,U1,U2,U3,S11,S22,S33,S12,S13,S23,E11,E22,E33,E12,E13,E23,SMISES
 ZONE, T="0.3100D+01" F=FEPOINT, I=   12 J=    2 ET=BRICK
   0.0000000000E+00   0.0000000000E+00   0.0000000000E+00   0.0000000000E+00   0.0000000000E+00   0.0000000000E+00   0.0000000000E+00   0.0000000000E+00   0.0000000000E+00   0.1025000002E+02   0.8554551225E-14   0.8360796276E-14   0.1335379971E-16  -0.9254536619E-15  -0.1351952728E-14   0.8387753077E-01  -0.3783876538E-01  -0.3783876538E-01   0.1103717587E-16  -0.5109129444E-16  -0.6304338013E-16   0.1025000002E+02
   0.1083877531E+01   0.0000000000E+00  -0.1832446327E-17  -0.2250000000E-02   0.0000000000E+00   0.2791927537E-16   0.8612753064E-01   0.0000000000E+00  -0.2975172170E-16   0.1025000002E+02  -0.7851269694E-15   0.1178472456E-14   0.2282510758E-15   0.3044271687E-15  -0.2907796053E-15   0.8387753077E-01  -0.3783876538E-01  -0.3783876538E-01  -0.7213236086E-16   0.5417469849E-16  -0.2176977067E-16   0.1025000002E+02
   0.1083877531E+01   0.9621612347E+00  -0.9527587331E-17  -0.2250000000E-02   0.6750000000E-03   0.2234463091E-16   0.8612753064E-01  -0.3851376532E-01  -0.3187221824E-16   0.1025000001E+02  -0.8127395178E-16   0.4985326068E-15   0.2546122743E-17   0.4724285814E-15   0.9911301898E-15   0.8387753076E-01  -0.3783876538E-01  -0.3783876538E-01  -0.5176671038E-16   0.1116392969E-15   0.8271301909E-16   0.1025000001E+02
   0.0000000000E+00   0.9621612347E+00  -0.3971255353E-16   0.0000000000E+00   0.6750000000E-03  -0.1002671547E-16   0.0000000000E+00  -0.3851376532E-01  -0.2968583807E-16   0.1025000001E+02  -0.4096935683E-14  -0.1624306185E-14  -0.2692336559E-15   0.3940553262E-15   0.9237602292E-15   0.8387753077E-01  -0.3783876538E-01  -0.3783876538E-01   0.1364104760E-16   0.6255503117E-16  -0.1174485608E-16   0.1025000001E+02
   0.0000000000E+00   0.0000000000E+00   0.9621612347E+00   0.0000000000E+00   0.0000000000E+00   0.6750000000E-03   0.0000000000E+00   0.0000000000E+00  -0.3851376532E-01   0.1025000001E+02  -0.5437956035E-14  -0.7060126846E-14   0.3541261482E-16  -0.1591405580E-15  -0.5090025277E-16   0.8387753077E-01  -0.3783876538E-01  -0.3783876538E-01  -0.7171020941E-17   0.6540599226E-16  -0.3154158304E-16   0.1025000001E+02
   0.1083877531E+01   0.0000000000E+00   0.9621612347E+00  -0.2250000000E-02   0.0000000000E+00   0.6750000000E-03   0.8612753064E-01   0.0000000000E+00  -0.3851376532E-01   0.1025000001E+02  -0.3250958573E-15  -0.2118176354E-14   0.7123303298E-15   0.8371072059E-16  -0.5966213260E-15   0.8387753076E-01  -0.3783876538E-01  -0.3783876538E-01  -0.9022930851E-17   0.9099552577E-16  -0.3323280964E-16   0.1025000001E+02
   0.1083877531E+01   0.9621612347E+00   0.9621612347E+00  -0.2250000000E-02   0.6750000000E-03   0.6750000000E-03   0.8612753064E-01  -0.3851376532E-01  -0.3851376532E-01   0.1025000001E+02  -0.2873765562E-15   0.4193940402E-15   0.8747593337E-15   0.9587588446E-15   0.9164760278E-15   0.8387753075E-01  -0.3783876537E-01  -0.3783876537E-01  -0.4817449177E-17   0.7751886538E-16   0.1629907766E-16   0.1025000001E+02
   0.0000000000E+00   0.9621612347E+00   0.9621612347E+00   0.0000000000E+00   0.6750000000E-03   0.6750000000E-03   0.0000000000E+00  -0.3851376532E-01  -0.3851376532E-01   0.1025000001E+02   0.4308873562E-14   0.1526022352E-14   0.1958377431E-15  -0.5664726081E-15   0.6448771680E-15   0.8387753076E-01  -0.3783876537E-01  -0.3783876537E-01  -0.7850462745E-17   0.1254645209E-16   0.1393048733E-15   0.1025000001E+02
   0.2167755061E+01   0.0000000000E+00   0.7383690734E-16  -0.4500000000E-02   0.0000000000E+00   0.1149054592E-15   0.1722550613E+00   0.0000000000E+00  -0.4106855183E-16   0.1025000002E+02  -0.2206639174E-14  -0.9839351093E-15  -0.2203229955E-14  -0.2140789125E-14  -0.1781744052E-14   0.8387753077E-01  -0.3783876538E-01  -0.3783876538E-01  -0.1801965584E-15   0.5616269791E-16  -0.8207609217E-16   0.1025000002E+02
   0.2167755061E+01   0.9621612347E+00   0.3609737469E-16  -0.4500000000E-02   0.6750000000E-03   0.9999807274E-16   0.1722550613E+00  -0.3851376532E-01  -0.6390069805E-16   0.1025000001E+02   0.6523484040E-14   0.1007950584E-13  -0.2724571968E-14   0.1522639097E-14   0.2941285701E-15   0.8387753076E-01  -0.3783876537E-01  -0.3783876537E-01  -0.2017888114E-15   0.2947549362E-15   0.4761417291E-16   0.1025000001E+02
   0.2167755061E+01   0.0000000000E+00   0.9621612347E+00  -0.4500000000E-02   0.0000000000E+00   0.6750000000E-03   0.1722550613E+00   0.0000000000E+00  -0.3851376532E-01   0.1025000001E+02   0.6044593148E-14   0.2288303992E-14   0.1346226630E-14  -0.2165950995E-14  -0.1284532856E-14   0.8387753076E-01  -0.3783876537E-01  -0.3783876537E-01   0.5559436655E-16   0.1605192458E-15  -0.3399896455E-16   0.1025000001E+02
   0.2167755061E+01   0.9621612347E+00   0.9621612347E+00  -0.4500000000E-02   0.6750000000E-03   0.6750000000E-03   0.1722550613E+00  -0.3851376532E-01  -0.3851376532E-01   0.1025000001E+02  -0.8955867572E-14  -0.1032225977E-13   0.1544050149E-14   0.2533761897E-15   0.5312081703E-15   0.8387753075E-01  -0.3783876537E-01  -0.3783876537E-01   0.9151247531E-16   0.1233541375E-15   0.9049717757E-16   0.1025000001E+02
     1     2     3     4     5     6     7     8
     2     9    10     3     6    11    12     7
 VARIABLES = X,Y,Z,DU1,DU2,DU3,U1,U2,U3,S11,S22,S33,S12,S13,S23,E11,E22,E33,E12,E13,E23,SMISES
 ZONE, T="0.3150D+01" F=FEPOINT, I=   12 J=    2 ET=BRICK
   0.0000000000E+00   0.0000000000E+00   0.0000000000E+00   0.0000000000E+00   0.0000000000E+00   0.0000000000E+00   0.0000000000E+00   0.0000000000E+00   0.0000000000E+00   0.9125000014E+01   0.7394261527E-14   0.8084699369E-14  -0.2128953044E-16  -0.1020177468E-14  -0.1682896732E-14   0.8162753077E-01  -0.3716376538E-01  -0.3716376538E-01  -0.2254131896E-17  -0.2906116185E-16  -0.1021858674E-15   0.9125000014E+01
   0.1081627531E+01   0.0000000000E+00  -0.2547492366E-17  -0.2250000000E-02   0.0000000000E+00  -0.7150460387E-18   0.8387753064E-01   0.0000000000E+00  -0.1832446327E-17   0.9125000014E+01  -0.3598975617E-15   0.1411405653E-14  -0.4538437455E-15  -0.9823964776E-16  -0.1545455668E-15   0.8162753077E-01  -0.3716376538E-01  -0.3716376538E-01  -0.6972446238E-16   0.4172807702E-16  -0.1677945043E-16   0.9125000014E+01
   0.1081627531E+01   0.9628362347E+00  -0.9515680572E-17  -0.2250000000E-02   0.6750000000E-03   0.1190675898E-19   0.8387753064E-01  -0.3783876532E-01  -0.9527587331E-17   0.9125000013E+01  -0.4767550836E-15  -0.2300154262E-15  -0.2023292248E-15   0.1475765094E-15   0.8511725559E-15   0.8162753076E-01  -0.3716376537E-01  -0.3716376537E-01  -0.8565684317E-16   0.9320579333E-16   0.7386755239E-16   0.9125000013E+01
   0.0000000000E+00   0.9628362347E+00  -0.4137233780E-16   0.0000000000E+00   0.6750000000E-03  -0.1659784264E-17   0.0000000000E+00  -0.3783876532E-01  -0.3971255353E-16   0.9125000013E+01  -0.4668380262E-14  -0.1574239447E-14   0.3927631383E-15   0.8112023261E-15   0.8755069634E-15   0.8162753076E-01  -0.3716376538E-01  -0.3716376538E-01   0.4547271067E-16   0.5454671146E-16   0.5513801632E-16   0.9125000013E+01
   0.0000000000E+00   0.0000000000E+00   0.9628362347E+00   0.0000000000E+00   0.0000000000E+00   0.6750000000E-03   0.0000000000E+00   0.0000000000E+00  -0.3783876532E-01   0.9125000013E+01  -0.4977534050E-14  -0.7343126965E-14   0.3584479865E-16   0.3774516152E-15   0.9780097277E-16   0.8162753076E-01  -0.3716376538E-01  -0.3716376538E-01   0.6813426264E-17   0.5837500264E-16   0.2370752229E-16   0.9125000013E+01
   0.1081627531E+01   0.0000000000E+00   0.9628362347E+00  -0.2250000000E-02   0.0000000000E+00   0.6750000000E-03   0.8387753064E-01   0.0000000000E+00  -0.3783876532E-01   0.9125000013E+01  -0.4767550836E-15  -0.1692946860E-14  -0.3566595608E-15  -0.5980329795E-16  -0.6877432383E-15   0.8162753076E-01  -0.3716376537E-01  -0.3716376537E-01  -0.3526896582E-16   0.8495229439E-16  -0.3157804805E-16   0.9125000013E+01
   0.1081627531E+01   0.9628362347E+00   0.9628362347E+00  -0.2250000000E-02   0.6750000000E-03   0.6750000000E-03   0.8387753064E-01  -0.3783876532E-01  -0.3783876532E-01   0.9125000012E+01  -0.5282808644E-15   0.1269641241E-15  -0.5010521239E-16   0.5708545335E-15   0.5860017015E-15   0.8162753075E-01  -0.3716376537E-01  -0.3716376537E-01  -0.9296717443E-17   0.4018921802E-16   0.3890104206E-16   0.9125000012E+01
   0.0000000000E+00   0.9628362347E+00   0.9628362347E+00   0.0000000000E+00   0.6750000000E-03   0.6750000000E-03   0.0000000000E+00  -0.3783876532E-01  -0.3783876532E-01   0.9125000012E+01   0.1840229431E-14  -0.1288142868E-15   0.2858457198E-15  -0.4032097589E-15   0.1003564654E-14   0.8162753075E-01  -0.3716376537E-01  -0.3716376537E-01  -0.1728780461E-16   0.4150561631E-16   0.1093863669E-15   0.9125000012E+01
   0.2163255061E+01   0.0000000000E+00   0.7088240884E-16  -0.4500000000E-02   0.0000000000E+00  -0.2954498498E-17   0.1677550613E+00   0.0000000000E+00   0.7383690734E-16   0.9125000014E+01  -0.3451120378E-14  -0.1677290457E-14  -0.1720726948E-14  -0.1237010383E-14  -0.1210094711E-14   0.8162753077E-01  -0.3716376538E-01  -0.3716376538E-01  -0.1451379787E-15   0.1836814157E-16  -0.7611517040E-16   0.9125000014E+01
   0.2163255061E+01   0.9628362347E+00   0.3600733310E-16  -0.4500000000E-02   0.6750000000E-03  -0.9004158494E-19   0.1677550613E+00  -0.3783876532E-01   0.3609737469E-16   0.9125000013E+01   0.7176202416E-14   0.8956935462E-14  -0.1968873445E-14   0.1647946491E-14   0.4379664203E-15   0.8162753076E-01  -0.3716376537E-01  -0.3716376537E-01  -0.1346135266E-15   0.3348894464E-15   0.5650881134E-16   0.9125000013E+01
   0.2163255061E+01   0.0000000000E+00   0.9628362347E+00  -0.4500000000E-02   0.0000000000E+00   0.6750000000E-03   0.1677550613E+00   0.0000000000E+00  -0.3783876532E-01   0.9125000013E+01   0.7485356204E-14   0.3806355521E-14   0.4547097777E-15  -0.1334181412E-14  -0.1047120286E-14   0.8162753076E-01  -0.3716376537E-01  -0.3716376537E-01   0.3490811833E-16   0.4743388671E-16  -0.5329743850E-16   0.9125000013E+01
   0.2163255061E+01   0.9628362347E+00   0.9628362347E+00  -0.4500000000E-02   0.6750000000E-03   0.6750000000E-03   0.1677550613E+00  -0.3783876532E-01  -0.3783876532E-01   0.9125000012E+01  -0.7559726911E-14  -0.9355334177E-14   0.1154449059E-14   0.4458693076E-15   0.4532302017E-15   0.8162753075E-01  -0.3716376537E-01  -0.3716376537E-01   0.5072110761E-16   0.1660024997E-15   0.8102373431E-16   0.9125000012E+01
     1     2     3     4     5     6     7     8
     2     9    10     3     6    11    12     7
 VARIABLES = X,Y,Z,DU1,DU2,DU3,U1,U2,U3,S11,S22,S33,S12,S13,S23,E11,E22,E33,E12,E13,E23,SMISES
 ZONE, T="0.3200D+01" F=FEPOINT, I=   12 J=    2 ET=BRICK
   0.0000000000E+00   0.0000000000E+00   0.0000000000E+00   0.0000000000E+00   0.0000000000E+00   0.0000000000E+00   0.0000000000E+00   0.0000000000E+00   0.0000000000E+00   0.8000000013E+01   0.5560935148E-14   0.6604758301E-14   0.1406348894E-18  -0.1101930225E-14  -0.1808943863E-14   0.7937753077E-01  -0.3648876538E-01  -0.3648876538E-01   0.1106349448E-16  -0.3468664623E-16  -0.8413341332E-16   0.8000000013E+01
   0.1079377531E+01   0.0000000000E+00  -0.2339188649E-17  -0.2250000000E-02   0.0000000000E+00   0.2083037171E-18   0.8162753064E-01   0.0000000000E+00  -0.2547492366E-17   0.8000000012E+01  -0.1269643835E-15   0.1603701864E-14   0.1108928884E-14   0.1405263407E-14  -0.1756217949E-15   0.7937753077E-01  -0.3648876538E-01  -0.3648876538E-01  -0.5431963874E-16   0.5622225107E-16  -0.8371019742E-17   0.8000000012E+01
   0.1079377531E+01   0.9635112347E+00  -0.9429362997E-17  -0.2250000000E-02   0.6750000000E-03   0.8631757546E-19   0.8162753064E-01  -0.3716376532E-01  -0.9515680572E-17   0.8000000011E+01  -0.4361180304E-15  -0.3771912851E-16   0.1115699165E-14  -0.8388880055E-15   0.9275143294E-15   0.7937753076E-01  -0.3648876537E-01  -0.3648876537E-01  -0.1412113362E-16   0.1326506340E-15   0.5704483854E-16   0.8000000011E+01
   0.0000000000E+00   0.9635112347E+00  -0.4205655180E-16   0.0000000000E+00   0.6750000000E-03  -0.6842140069E-18   0.0000000000E+00  -0.3716376532E-01  -0.4137233780E-16   0.8000000012E+01  -0.1254978886E-14   0.7641317059E-15   0.2119498064E-15   0.9075385069E-15   0.6208787774E-15   0.7937753076E-01  -0.3648876537E-01  -0.3648876537E-01   0.3952624667E-17   0.3509114498E-16   0.5689172475E-16   0.8000000012E+01
   0.0000000000E+00   0.0000000000E+00   0.9635112347E+00   0.0000000000E+00   0.0000000000E+00   0.6750000000E-03   0.0000000000E+00   0.0000000000E+00  -0.3716376532E-01   0.8000000012E+01  -0.2159881108E-14  -0.4601303657E-14   0.1002973252E-16   0.4361277750E-16  -0.2104658184E-15   0.7937753076E-01  -0.3648876537E-01  -0.3648876537E-01  -0.1447643727E-16   0.8585823568E-16  -0.9580775297E-17   0.8000000012E+01
   0.1079377531E+01   0.0000000000E+00   0.9635112347E+00  -0.2250000000E-02   0.0000000000E+00   0.6750000000E-03   0.8162753064E-01   0.0000000000E+00  -0.3716376532E-01   0.8000000011E+01  -0.1064532445E-14  -0.2795198692E-14  -0.1251699307E-14   0.1129664032E-14  -0.6762208577E-15   0.7937753076E-01  -0.3648876537E-01  -0.3648876537E-01  -0.1838203865E-16   0.6016316683E-16  -0.8030122551E-16   0.8000000011E+01
   0.1079377531E+01   0.9635112347E+00   0.9635112347E+00  -0.2250000000E-02   0.6750000000E-03   0.6750000000E-03   0.8162753064E-01  -0.3716376532E-01  -0.3716376532E-01   0.8000000010E+01   0.8924482277E-16   0.8446234479E-15  -0.1135163595E-14  -0.4905933961E-15   0.7378812583E-15   0.7937753075E-01  -0.3648876537E-01  -0.3648876537E-01  -0.2569214495E-16   0.1239568367E-15   0.7702816984E-16   0.8000000010E+01
   0.0000000000E+00   0.9635112347E+00   0.9635112347E+00   0.0000000000E+00   0.6750000000E-03   0.6750000000E-03   0.0000000000E+00  -0.3716376532E-01  -0.3716376532E-01   0.8000000011E+01   0.5842868892E-16  -0.1627615016E-14   0.3573690629E-15  -0.3609528164E-15   0.5995602331E-15   0.7937753075E-01  -0.3648876537E-01  -0.3648876537E-01   0.1405983278E-17  -0.9697346952E-17   0.5307642897E-16   0.8000000011E+01
   0.2158755061E+01   0.0000000000E+00   0.7302767043E-16  -0.4500000000E-02   0.0000000000E+00   0.2145261589E-17   0.1632550613E+00   0.0000000000E+00   0.7088240884E-16   0.8000000012E+01  -0.3074889929E-14  -0.3004006049E-15  -0.1183378909E-14  -0.1424595096E-14  -0.1252941281E-14   0.7937753076E-01  -0.3648876538E-01  -0.3648876538E-01  -0.1391511083E-15  -0.1864878170E-16  -0.6184478725E-16   0.8000000012E+01
   0.2158755061E+01   0.9635112347E+00   0.3790151629E-16  -0.4500000000E-02   0.6750000000E-03   0.1894183183E-17   0.1632550613E+00  -0.3716376532E-01   0.3600733310E-16   0.8000000011E+01   0.6048578640E-14   0.7490800542E-14  -0.1812622330E-14   0.1435910517E-14   0.3678777540E-15   0.7937753075E-01  -0.3648876537E-01  -0.3648876537E-01  -0.1409492429E-15   0.1803093864E-15   0.2886774031E-16   0.8000000011E+01
   0.2158755061E+01   0.0000000000E+00   0.9635112347E+00  -0.4500000000E-02   0.0000000000E+00   0.6750000000E-03   0.1632550613E+00   0.0000000000E+00  -0.3716376532E-01   0.8000000011E+01   0.4364384600E-14   0.6799396178E-15   0.1084084946E-14  -0.1552545827E-14  -0.7501203594E-15   0.7937753075E-01  -0.3648876537E-01  -0.3648876537E-01   0.5679600747E-16   0.3522670040E-16  -0.4572714304E-16   0.8000000011E+01
   0.2158755061E+01   0.9635112347E+00   0.9635112347E+00  -0.4500000000E-02   0.6750000000E-03   0.6750000000E-03   0.1632550613E+00  -0.3716376532E-01  -0.3716376532E-01   0.8000000010E+01  -0.6465837081E-14  -0.8241125870E-14   0.1490178101E-14   0.2833599127E-15   0.8505000730E-15   0.7937753074E-01  -0.3648876537E-01  -0.3648876537E-01   0.3867525629E-16   0.1226698612E-15   0.6912226585E-16   0.8000000010E+01
     1     2     3     4     5     6     7     8
     2     9    10     3     6    11    12     7
 VARIABLES = X,Y,Z,DU1,DU2,DU3,U1,U2,U3,S11,S22,S33,S12,S13,S23,E11,E22,E33,E12,E13,E23,SMISES
 ZONE, T="0.3250D+01" F=FEPOINT, I=   12 J=    2 ET=BRICK
   0.0000000000E+00   0.0000000000E+00   0.0000000000E+00   0.0000000000E+00   0.0000000000E+00   0.0000000000E+00   0.0000000000E+00   0.0000000000E+00   0.0000000000E+00   0.6875000011E+01   0.6510068836E-14   0.6704891828E-14   0.9196824693E-17  -0.1197588344E-14  -0.1384751144E-14   0.7712753076E-01  -0.3581376538E-01  -0.3581376538E-01  -0.3566973797E-17  -0.2125364829E-16  -0.7261126330E-16   0.6875000011E+01
   0.1077127531E+01   0.0000000000E+00  -0.4871773486E-17  -0.2250000000E-02   0.0000000000E+00  -0.2532584837E-17   0.7937753064E-01   0.0000000000E+00  -0.2339188649E-17   0.6875000011E+01  -0.1077556972E-14   0.3904276853E-15   0.1016500585E-14   0.9081032537E-15  -0.8854453694E-16   0.7712753076E-01  -0.3581376538E-01  -0.3581376538E-01  -0.2388939893E-16   0.1045315002E-15  -0.2619516028E-16   0.6875000011E+01
   0.1077127531E+01   0.9641862347E+00  -0.1148982204E-16  -0.2250000000E-02   0.6750000000E-03  -0.2060459039E-17   0.7937753064E-01  -0.3648876532E-01  -0.9429362997E-17   0.6875000010E+01  -0.1436881824E-15  -0.5949647865E-16   0.8782807238E-15  -0.4311637015E-15   0.5714485647E-15   0.7712753075E-01  -0.3581376537E-01  -0.3581376537E-01  -0.2580262028E-16   0.1058149354E-15   0.9414944825E-16   0.6875000010E+01
   0.0000000000E+00   0.9641862347E+00  -0.3996350220E-16   0.0000000000E+00   0.6750000000E-03   0.2093049604E-17   0.0000000000E+00  -0.3648876532E-01  -0.4205655180E-16   0.6875000010E+01  -0.3169579339E-14  -0.1640639289E-14   0.3906805438E-15   0.3922845460E-15   0.6943715746E-15   0.7712753076E-01  -0.3581376537E-01  -0.3581376537E-01   0.1446808949E-16   0.5280264018E-16   0.1499225809E-16   0.6875000010E+01
   0.0000000000E+00   0.0000000000E+00   0.9641862347E+00   0.0000000000E+00   0.0000000000E+00   0.6750000000E-03   0.0000000000E+00   0.0000000000E+00  -0.3648876532E-01   0.6875000010E+01  -0.3375681841E-14  -0.5275408369E-14  -0.6640002905E-17  -0.4343856843E-16   0.1594610220E-16   0.7712753076E-01  -0.3581376537E-01  -0.3581376537E-01   0.3317757188E-17   0.5643178924E-16  -0.1931479291E-16   0.6875000010E+01
   0.1077127531E+01   0.0000000000E+00   0.9641862347E+00  -0.2250000000E-02   0.0000000000E+00   0.6750000000E-03   0.7937753064E-01   0.0000000000E+00  -0.3648876532E-01   0.6875000010E+01   0.1378530245E-15  -0.1663198515E-14  -0.2223397800E-15   0.5563340652E-15  -0.7596451235E-15   0.7712753075E-01  -0.3581376537E-01  -0.3581376537E-01  -0.2803207854E-16   0.1022952627E-15  -0.2503201477E-16   0.6875000010E+01
   0.1077127531E+01   0.9641862347E+00   0.9641862347E+00  -0.2250000000E-02   0.6750000000E-03   0.6750000000E-03   0.7937753064E-01  -0.3648876532E-01  -0.3648876532E-01   0.6875000009E+01  -0.3737039545E-15   0.5035855894E-15  -0.3122312361E-15   0.5911910796E-16   0.1419232443E-15   0.7712753074E-01  -0.3581376537E-01  -0.3581376537E-01  -0.1818475031E-16   0.1335536326E-15   0.8110317623E-17   0.6875000009E+01
   0.0000000000E+00   0.9641862347E+00   0.9641862347E+00   0.0000000000E+00   0.6750000000E-03   0.6750000000E-03   0.0000000000E+00  -0.3648876532E-01  -0.3648876532E-01   0.6875000009E+01   0.2583651737E-14   0.1001335066E-15   0.3225840446E-15  -0.9667241974E-15   0.6023424901E-15   0.7712753075E-01  -0.3581376537E-01  -0.3581376537E-01   0.3712537836E-17  -0.5060261620E-17   0.9187903209E-16   0.6875000009E+01
   0.2154255061E+01   0.0000000000E+00   0.5940468066E-16  -0.4500000000E-02   0.0000000000E+00  -0.1362298977E-16   0.1587550613E+00   0.0000000000E+00   0.7302767043E-16   0.6875000010E+01  -0.6872883804E-14  -0.4159349920E-14   0.4928007234E-15  -0.6166865574E-15  -0.8683371171E-15   0.7712753076E-01  -0.3581376538E-01  -0.3581376538E-01  -0.1531786647E-15   0.6057532763E-16  -0.5858174497E-16   0.6875000010E+01
   0.2154255061E+01   0.9641862347E+00   0.2624903524E-16  -0.4500000000E-02   0.6750000000E-03  -0.1165248104E-16   0.1587550613E+00  -0.3648876532E-01   0.3790151629E-16   0.6875000010E+01   0.8444987572E-14   0.9852016836E-14  -0.5919204756E-15   0.8287747823E-15   0.3452694619E-15   0.7712753075E-01  -0.3581376537E-01  -0.3581376537E-01  -0.1197271802E-15   0.1367001820E-15   0.2078788402E-16   0.6875000010E+01
   0.2154255061E+01   0.0000000000E+00   0.9641862347E+00  -0.4500000000E-02   0.0000000000E+00   0.6750000000E-03   0.1587550613E+00   0.0000000000E+00  -0.3648876532E-01   0.6875000010E+01   0.6549637625E-14   0.3618044684E-14   0.3770810108E-15  -0.3545994484E-15  -0.2396346516E-15   0.7712753075E-01  -0.3581376537E-01  -0.3581376537E-01   0.3780384043E-16   0.4048814885E-16  -0.3848624578E-16   0.6875000010E+01
   0.2154255061E+01   0.9641862347E+00   0.9641862347E+00  -0.4500000000E-02   0.6750000000E-03   0.6750000000E-03   0.1587550613E+00  -0.3648876532E-01  -0.3648876532E-01   0.6875000009E+01  -0.8200097829E-14  -0.9318682678E-14   0.5855530669E-15   0.1310608143E-15   0.1067088370E-14   0.7712753074E-01  -0.3581376537E-01  -0.3581376537E-01   0.4393230265E-16   0.1570090010E-15   0.7214403125E-16   0.6875000009E+01
     1     2     3     4     5     6     7     8
     2     9    10     3     6    11    12     7
 VARIABLES = X,Y,Z,DU1,DU2,DU3,U1,U2,U3,S11,S22,S33,S12,S13,S23,E11,E22,E33,E12,E13,E23,SMISES
 ZONE, T="0.3300D+01" F=FEPOINT, I=   12 J=    2 ET=BRICK
   0.0000000000E+00   0.0000000000E+00   0.0000000000E+00   0.0000000000E+00   0.0000000000E+00   0.0000000000E+00   0.0000000000E+00   0.0000000000E+00   0.0000000000E+00   0.5750000009E+01   0.6282046014E-14   0.6675143564E-14  -0.7431947885E-17  -0.1227742879E-14  -0.1671208663E-14   0.7487753076E-01  -0.3513876538E-01  -0.3513876538E-01   0.5426581929E-17  -0.4072550101E-16  -0.7060518711E-16   0.5750000009E+01
   0.1074877531E+01   0.0000000000E+00  -0.4309803058E-17  -0.2250000000E-02   0.0000000000E+00   0.5619704274E-18   0.7712753064E-01   0.0000000000E+00  -0.4871773486E-17   0.5750000009E+01  -0.6077049982E-15   0.8860424970E-15   0.1096149083E-14   0.1223374833E-14  -0.8834360203E-16   0.7487753076E-01  -0.3513876538E-01  -0.3513876538E-01  -0.4041023042E-16   0.9461961233E-16  -0.5972868357E-17   0.5750000009E+01
   0.1074877531E+01   0.9648612347E+00  -0.1091143829E-16  -0.2250000000E-02   0.6750000000E-03   0.5783837416E-18   0.7712753064E-01  -0.3581376532E-01  -0.1148982204E-16   0.5750000008E+01  -0.8464733865E-15   0.5152582393E-16   0.1218636269E-14  -0.1108316763E-14   0.5962405342E-15   0.7487753075E-01  -0.3513876537E-01  -0.3513876537E-01  -0.2548903185E-16   0.1295040174E-15   0.6417458641E-16   0.5750000008E+01
   0.0000000000E+00   0.9648612347E+00  -0.4148743641E-16   0.0000000000E+00   0.6750000000E-03  -0.1523934215E-17   0.0000000000E+00  -0.3581376532E-01  -0.3996350220E-16   0.5750000008E+01  -0.2388971792E-14  -0.4788907460E-15   0.3264904017E-15   0.7723988297E-15   0.4171329924E-15   0.7487753075E-01  -0.3513876537E-01  -0.3513876537E-01   0.2934469074E-16   0.5637300476E-16   0.6232815060E-17   0.5750000008E+01
   0.0000000000E+00   0.0000000000E+00   0.9648612347E+00   0.0000000000E+00   0.0000000000E+00   0.6750000000E-03   0.0000000000E+00   0.0000000000E+00  -0.3581376532E-01   0.5750000008E+01  -0.2909281483E-14  -0.4645926101E-14  -0.5254389090E-17   0.4125829580E-16  -0.8333518404E-16   0.7487753075E-01  -0.3513876537E-01  -0.3513876537E-01  -0.4222075382E-17   0.7687913880E-16  -0.5159352516E-16   0.5750000008E+01
   0.1074877531E+01   0.0000000000E+00   0.9648612347E+00  -0.2250000000E-02   0.0000000000E+00   0.6750000000E-03   0.7712753064E-01   0.0000000000E+00  -0.3581376532E-01   0.5750000008E+01  -0.1803396706E-15  -0.1885243071E-14  -0.1139929666E-14   0.8613247847E-15  -0.5298484149E-15   0.7487753075E-01  -0.3513876537E-01  -0.3513876537E-01  -0.3126650521E-16   0.8706665124E-16  -0.7218795767E-16   0.5750000008E+01
   0.1074877531E+01   0.9648612347E+00   0.9648612347E+00  -0.2250000000E-02   0.6750000000E-03   0.6750000000E-03   0.7712753064E-01  -0.3581376532E-01  -0.3581376532E-01   0.5750000008E+01  -0.8653332533E-15   0.5630822410E-15  -0.1040333043E-14  -0.5379681447E-15   0.3792111835E-15   0.7487753074E-01  -0.3513876537E-01  -0.3513876537E-01  -0.3449047126E-16   0.1267228248E-15   0.1885440965E-16   0.5750000008E+01
   0.0000000000E+00   0.9648612347E+00   0.9648612347E+00   0.0000000000E+00   0.6750000000E-03   0.6750000000E-03   0.0000000000E+00  -0.3581376532E-01  -0.3581376532E-01   0.5750000008E+01   0.1560681079E-14  -0.4103553830E-15   0.2520472661E-15  -0.5154766043E-15   0.6047064973E-15   0.7487753074E-01  -0.3513876537E-01  -0.3513876537E-01  -0.1019719753E-16  -0.1320751217E-16   0.1350109328E-15   0.5750000008E+01
   0.2149755061E+01   0.0000000000E+00   0.6331754453E-16  -0.4500000000E-02   0.0000000000E+00   0.3912863874E-17   0.1542550613E+00   0.0000000000E+00   0.5940468066E-16   0.5750000009E+01  -0.4551379507E-14  -0.2472238318E-14  -0.1025999615E-14  -0.9648982793E-15  -0.8889851501E-15   0.7487753076E-01  -0.3513876537E-01  -0.3513876537E-01  -0.1585445249E-15   0.1517965856E-15  -0.4903820374E-16   0.5750000009E+01
   0.2149755061E+01   0.9648612347E+00   0.3012605101E-16  -0.4500000000E-02   0.6750000000E-03   0.3877015763E-17   0.1542550613E+00  -0.3581376532E-01   0.2624903524E-16   0.5750000008E+01   0.7412587145E-14   0.8246179183E-14  -0.1576678137E-14   0.1058077655E-14   0.3525203034E-15   0.7487753075E-01  -0.3513876537E-01  -0.3513876537E-01  -0.1487661235E-15   0.2479100238E-15   0.1052974276E-16   0.5750000008E+01
   0.2149755061E+01   0.0000000000E+00   0.9648612347E+00  -0.4500000000E-02   0.0000000000E+00   0.6750000000E-03   0.1542550613E+00   0.0000000000E+00  -0.3581376532E-01   0.5750000008E+01   0.6600629403E-14   0.3210607021E-14  -0.3841767727E-15  -0.6236531387E-15  -0.3756170531E-15   0.7487753075E-01  -0.3513876537E-01  -0.3513876537E-01   0.1367696139E-16   0.7007735811E-16  -0.4463313372E-16   0.5750000008E+01
   0.2149755061E+01   0.9648612347E+00   0.9648612347E+00  -0.4500000000E-02   0.6750000000E-03   0.6750000000E-03   0.1542550613E+00  -0.3581376532E-01  -0.3581376532E-01   0.5750000007E+01  -0.7006608241E-14  -0.9355334201E-14   0.4332416204E-15   0.3422988565E-15   0.9203059169E-15   0.7487753074E-01  -0.3513876537E-01  -0.3513876537E-01   0.7135284091E-16   0.2749636846E-15   0.1041730224E-15   0.5750000007E+01
     1     2     3     4     5     6     7     8
     2     9    10     3     6    11    12     7
 VARIABLES = X,Y,Z,DU1,DU2,DU3,U1,U2,U3,S11,S22,S33,S12,S13,S23,E11,E22,E33,E12,E13,E23,SMISES
 ZONE, T="0.3350D+01" F=FEPOINT, I=   12 J=    2 ET=BRICK
   0.0000000000E+00   0.0000000000E+00   0.0000000000E+00   0.0000000000E+00   0.0000000000E+00   0.0000000000E+00   0.0000000000E+00   0.0000000000E+00   0.0000000000E+00   0.4625000007E+01   0.5764119940E-14   0.5740154487E-14   0.2616888963E-16  -0.1419389133E-14  -0.1507250700E-14   0.7262753076E-01  -0.3446376538E-01  -0.3446376538E-01   0.5972197585E-17  -0.5260134164E-16  -0.1011020933E-15   0.4625000007E+01
   0.1072627531E+01   0.0000000000E+00  -0.5979199621E-17  -0.2250000000E-02   0.0000000000E+00  -0.1669396563E-17   0.7487753064E-01   0.0000000000E+00  -0.4309803058E-17   0.4625000007E+01  -0.2191269673E-15   0.1198790872E-14   0.8896231775E-15   0.1325532749E-14   0.2704412206E-16   0.7262753076E-01  -0.3446376537E-01  -0.3446376537E-01  -0.4323503656E-16   0.1166222201E-15  -0.5775344614E-17   0.4625000007E+01
   0.1072627531E+01   0.9655362347E+00  -0.1206789869E-16  -0.2250000000E-02   0.6750000000E-03  -0.1156460399E-17   0.7487753064E-01  -0.3513876532E-01  -0.1091143829E-16   0.4625000007E+01  -0.4767550495E-15  -0.1341515727E-16   0.9056920786E-15  -0.6897134633E-15   0.5505809232E-15   0.7262753075E-01  -0.3446376537E-01  -0.3446376537E-01  -0.2561695181E-16   0.1360273011E-15   0.7434747978E-16   0.4625000007E+01
   0.0000000000E+00   0.9655362347E+00  -0.4071711490E-16   0.0000000000E+00   0.6750000000E-03   0.7703215129E-18   0.0000000000E+00  -0.3513876532E-01  -0.4148743641E-16   0.4625000007E+01  -0.3064001429E-14  -0.1391568562E-14   0.1861104776E-15   0.4375431346E-15   0.1702461291E-15   0.7262753075E-01  -0.3446376537E-01  -0.3446376537E-01   0.1392842590E-16   0.5018059210E-16   0.3003659775E-16   0.4625000007E+01
   0.0000000000E+00   0.0000000000E+00   0.9655362347E+00   0.0000000000E+00   0.0000000000E+00   0.6750000000E-03   0.0000000000E+00   0.0000000000E+00  -0.3513876532E-01   0.4625000007E+01  -0.3138763159E-14  -0.4763656097E-14  -0.3309281057E-16  -0.1670046019E-15   0.1298830620E-15   0.7262753075E-01  -0.3446376537E-01  -0.3446376537E-01  -0.1004471663E-16   0.6987229834E-16   0.1048647722E-16   0.4625000007E+01
   0.1072627531E+01   0.0000000000E+00   0.9655362347E+00  -0.2250000000E-02   0.0000000000E+00   0.6750000000E-03   0.7487753064E-01   0.0000000000E+00  -0.3513876532E-01   0.4625000007E+01  -0.4578953989E-15  -0.2142480307E-14  -0.1076924552E-14   0.1124552250E-14  -0.4867486551E-15   0.7262753075E-01  -0.3446376537E-01  -0.3446376537E-01   0.1439568343E-18   0.1104248369E-15  -0.4932154264E-16   0.4625000007E+01
   0.1072627531E+01   0.9655362347E+00   0.9655362347E+00  -0.2250000000E-02   0.6750000000E-03   0.6750000000E-03   0.7487753064E-01  -0.3513876532E-01  -0.3513876532E-01   0.4625000006E+01  -0.7394367787E-15   0.8054453138E-15  -0.1025268923E-14  -0.3100176039E-15   0.3281186067E-15   0.7262753074E-01  -0.3446376537E-01  -0.3446376537E-01  -0.1894770584E-16   0.1000269412E-15   0.5381745695E-16   0.4625000006E+01
   0.0000000000E+00   0.9655362347E+00   0.9655362347E+00   0.0000000000E+00   0.6750000000E-03   0.6750000000E-03   0.0000000000E+00  -0.3513876532E-01  -0.3513876532E-01   0.4625000006E+01   0.1750984532E-14  -0.1563743001E-15   0.4408887170E-15  -0.9095003420E-15   0.5008482860E-15   0.7262753074E-01  -0.3446376537E-01  -0.3446376537E-01   0.4537206491E-17   0.1903494492E-16   0.5540457798E-16   0.4625000006E+01
   0.2145255061E+01   0.0000000000E+00   0.5881611364E-16  -0.4500000000E-02   0.0000000000E+00  -0.4501430891E-17   0.1497550613E+00   0.0000000000E+00   0.6331754453E-16   0.4625000007E+01  -0.3397068061E-14  -0.1244819393E-14  -0.1192681486E-14  -0.1295636135E-14  -0.8764688788E-15   0.7262753075E-01  -0.3446376537E-01  -0.3446376537E-01  -0.1555099281E-15   0.7484952634E-16  -0.5381435594E-16   0.4625000007E+01
   0.2145255061E+01   0.9655362347E+00   0.2579832859E-16  -0.4500000000E-02   0.6750000000E-03  -0.4327722420E-17   0.1497550613E+00  -0.3513876532E-01   0.3012605101E-16   0.4625000006E+01   0.7532505411E-14   0.8452086316E-14  -0.1897230958E-14   0.1068472409E-14   0.4389421114E-15   0.7262753074E-01  -0.3446376537E-01  -0.3446376537E-01  -0.1199996801E-15   0.2714884631E-15   0.1089628412E-16   0.4625000006E+01
   0.2145255061E+01   0.0000000000E+00   0.9655362347E+00  -0.4500000000E-02   0.0000000000E+00   0.6750000000E-03   0.1497550613E+00   0.0000000000E+00  -0.3513876532E-01   0.4625000006E+01   0.5646585295E-14   0.2236973825E-14   0.2636875455E-15  -0.1074731070E-14  -0.5196845130E-15   0.7262753074E-01  -0.3446376537E-01  -0.3446376537E-01   0.3648516994E-16   0.8788902936E-16  -0.3609808279E-16   0.4625000006E+01
   0.2145255061E+01   0.9655362347E+00   0.9655362347E+00  -0.4500000000E-02   0.6750000000E-03   0.6750000000E-03   0.1497550613E+00  -0.3513876532E-01  -0.3513876532E-01   0.4625000006E+01  -0.6419755720E-14  -0.8791522324E-14   0.1086862370E-14   0.5600361041E-15   0.8494250692E-15   0.7262753074E-01  -0.3446376537E-01  -0.3446376537E-01   0.7575119571E-16   0.2423471222E-15   0.8540941669E-16   0.4625000006E+01
     1     2     3     4     5     6     7     8
     2     9    10     3     6    11    12     7
 VARIABLES = X,Y,Z,DU1,DU2,DU3,U1,U2,U3,S11,S22,S33,S12,S13,S23,E11,E22,E33,E12,E13,E23,SMISES
 ZONE, T="0.3400D+01" F=FEPOINT, I=   12 J=    2 ET=BRICK
   0.0000000000E+00   0.0000000000E+00   0.0000000000E+00   0.0000000000E+00   0.0000000000E+00   0.0000000000E+00   0.0000000000E+00   0.0000000000E+00   0.0000000000E+00   0.3500000005E+01   0.6382909026E-14   0.7041410313E-14   0.1801457406E-16  -0.9664367734E-15  -0.1562331426E-14   0.7037753075E-01  -0.3378876537E-01  -0.3378876537E-01  -0.8002496243E-18  -0.3440927776E-16  -0.7709194077E-16   0.3500000005E+01
   0.1070377531E+01   0.0000000000E+00  -0.2502269963E-17  -0.2250000000E-02   0.0000000000E+00   0.3476929658E-17   0.7262753064E-01   0.0000000000E+00  -0.5979199621E-17   0.3500000005E+01  -0.1432973451E-15   0.1992279886E-14   0.6406960709E-15   0.7651972341E-15  -0.1110011667E-15   0.7037753075E-01  -0.3378876537E-01  -0.3378876537E-01  -0.5024246910E-16   0.1020052687E-15  -0.2235963779E-16   0.3500000005E+01
   0.1070377531E+01   0.9662112347E+00  -0.9257683517E-17  -0.2250000000E-02   0.6750000000E-03   0.2810215176E-17   0.7262753064E-01  -0.3446376532E-01  -0.1206789869E-16   0.3500000005E+01  -0.7597550892E-15   0.1585626387E-15   0.7434365727E-15  -0.7023510546E-15   0.8755388517E-15   0.7037753074E-01  -0.3378876537E-01  -0.3378876537E-01  -0.4202233438E-16   0.2096570198E-15   0.8172315122E-16   0.3500000005E+01
   0.0000000000E+00   0.9662112347E+00  -0.4116023476E-16   0.0000000000E+00   0.6750000000E-03  -0.4431198567E-18   0.0000000000E+00  -0.3446376532E-01  -0.4071711490E-16   0.3500000005E+01  -0.2521575915E-14  -0.6568467583E-15   0.4533986969E-16   0.8800889981E-15   0.4734614800E-15   0.7037753075E-01  -0.3378876537E-01  -0.3378876537E-01  -0.2463436557E-17   0.2867144517E-16   0.6030565596E-17   0.3500000005E+01
   0.0000000000E+00   0.0000000000E+00   0.9662112347E+00   0.0000000000E+00   0.0000000000E+00   0.6750000000E-03   0.0000000000E+00   0.0000000000E+00  -0.3446376532E-01   0.3500000005E+01  -0.3836833448E-14  -0.5644592775E-14  -0.2096284504E-16   0.1298673478E-15  -0.1338615712E-15   0.7037753075E-01  -0.3378876537E-01  -0.3378876537E-01   0.5018366493E-17   0.4233320534E-16  -0.9562540416E-17   0.3500000005E+01
   0.1070377531E+01   0.0000000000E+00   0.9662112347E+00  -0.2250000000E-02   0.0000000000E+00   0.6750000000E-03   0.7262753064E-01   0.0000000000E+00  -0.3446376532E-01   0.3500000005E+01  -0.8112807402E-15  -0.2688161878E-14  -0.6566394972E-15   0.5299969467E-15  -0.5908223491E-15   0.7037753074E-01  -0.3378876537E-01  -0.3378876537E-01  -0.2730414878E-16   0.1457763571E-15  -0.2044944329E-16   0.3500000005E+01
   0.1070377531E+01   0.9662112347E+00   0.9662112347E+00  -0.2250000000E-02   0.6750000000E-03   0.6750000000E-03   0.7262753064E-01  -0.3446376532E-01  -0.3446376532E-01   0.3500000005E+01  -0.3305402985E-15   0.1092430866E-14  -0.7157778341E-15  -0.3485834166E-15   0.6716798307E-15   0.7037753074E-01  -0.3378876537E-01  -0.3378876537E-01  -0.3325733400E-16   0.1238284321E-15   0.2186058958E-16   0.3500000005E+01
   0.0000000000E+00   0.9662112347E+00   0.9662112347E+00   0.0000000000E+00   0.6750000000E-03   0.6750000000E-03   0.0000000000E+00  -0.3446376532E-01  -0.3446376532E-01   0.3500000005E+01   0.1626351441E-14  -0.3325330201E-15   0.4943611321E-15  -0.3720060849E-15   0.6646555027E-15   0.7037753074E-01  -0.3378876537E-01  -0.3378876537E-01   0.3853752919E-18  -0.1922065605E-17   0.1064512059E-15   0.3500000005E+01
   0.2140755061E+01   0.0000000000E+00   0.7006534011E-16  -0.4500000000E-02   0.0000000000E+00   0.1124922647E-16   0.1452550613E+00   0.0000000000E+00   0.5881611364E-16   0.3500000005E+01  -0.3390360398E-14  -0.1010622798E-14  -0.1921467805E-14  -0.1596238817E-14  -0.1169702565E-14   0.7037753075E-01  -0.3378876537E-01  -0.3378876537E-01  -0.1649551565E-15   0.1392624471E-15  -0.6246969682E-16   0.3500000005E+01
   0.2140755061E+01   0.9662112347E+00   0.3552531107E-16  -0.4500000000E-02   0.6750000000E-03   0.9726982482E-17   0.1452550613E+00  -0.3446376532E-01   0.2579832859E-16   0.3500000005E+01   0.6475605426E-14   0.7587482600E-14  -0.2301201422E-14   0.1687689836E-14   0.2057604559E-15   0.7037753074E-01  -0.3378876537E-01  -0.3378876537E-01  -0.1479643554E-15   0.1313289984E-15   0.1046322262E-16   0.3500000005E+01
   0.2140755061E+01   0.0000000000E+00   0.9662112347E+00  -0.4500000000E-02   0.0000000000E+00   0.6750000000E-03   0.1452550613E+00   0.0000000000E+00  -0.3446376532E-01   0.3500000005E+01   0.6355544225E-14   0.2884977288E-14   0.1034136994E-14  -0.1620322799E-14  -0.8250516588E-15   0.7037753074E-01  -0.3378876537E-01  -0.3378876537E-01   0.7792861110E-16   0.9862426965E-16  -0.4400139519E-16   0.3500000005E+01
   0.2140755061E+01   0.9662112347E+00   0.9662112347E+00  -0.4500000000E-02   0.6750000000E-03   0.6750000000E-03   0.1452550613E+00  -0.3446376532E-01  -0.3446376532E-01   0.3500000004E+01  -0.6335759595E-14  -0.8759051823E-14   0.1579434456E-14   0.1062093816E-14   0.6124575537E-15   0.7037753073E-01  -0.3378876536E-01  -0.3378876536E-01   0.1098233777E-15   0.2098426083E-15   0.8291266349E-16   0.3500000004E+01
     1     2     3     4     5     6     7     8
     2     9    10     3     6    11    12     7
 VARIABLES = X,Y,Z,DU1,DU2,DU3,U1,U2,U3,S11,S22,S33,S12,S13,S23,E11,E22,E33,E12,E13,E23,SMISES
 ZONE, T="0.3450D+01" F=FEPOINT, I=   12 J=    2 ET=BRICK
   0.0000000000E+00   0.0000000000E+00   0.0000000000E+00   0.0000000000E+00   0.0000000000E+00   0.0000000000E+00   0.0000000000E+00   0.0000000000E+00   0.0000000000E+00   0.2375000004E+01   0.5899810939E-14   0.6570197224E-14   0.4698666861E-16  -0.1051764694E-14  -0.1479013321E-14   0.6812753075E-01  -0.3311376537E-01  -0.3311376537E-01  -0.5660971109E-17  -0.4056032711E-16  -0.8223217821E-16   0.2375000004E+01
   0.1068127531E+01   0.0000000000E+00  -0.3399188631E-17  -0.2250000000E-02   0.0000000000E+00  -0.8969186679E-18   0.7037753064E-01   0.0000000000E+00  -0.2502269963E-17   0.2375000004E+01  -0.4716492989E-15   0.1368046461E-14   0.4682340880E-15   0.9918661424E-15  -0.1217526778E-15   0.6812753075E-01  -0.3311376537E-01  -0.3311376537E-01  -0.4918105804E-16   0.7840787216E-16   0.1270482205E-17   0.2375000004E+01
   0.1068127531E+01   0.9668862347E+00  -0.1020249177E-16  -0.2250000000E-02   0.6750000000E-03  -0.9448082530E-18   0.7037753064E-01  -0.3378876532E-01  -0.9257683517E-17   0.2375000003E+01  -0.3481364271E-15   0.2039145064E-15   0.4945840745E-15  -0.3584902765E-15   0.8027346143E-15   0.6812753074E-01  -0.3311376537E-01  -0.3311376537E-01  -0.9861946223E-16   0.1491856807E-15   0.2735735904E-16   0.2375000003E+01
   0.0000000000E+00   0.9668862347E+00  -0.4071459075E-16   0.0000000000E+00   0.6750000000E-03   0.4456440117E-18   0.0000000000E+00  -0.3378876532E-01  -0.4116023476E-16   0.2375000003E+01  -0.3269081344E-14  -0.1728985610E-14   0.8771961471E-16   0.6660155748E-15   0.4437696255E-15   0.6812753074E-01  -0.3311376537E-01  -0.3311376537E-01   0.1910910391E-16   0.7102483672E-16   0.1454476401E-16   0.2375000003E+01
   0.0000000000E+00   0.0000000000E+00   0.9668862347E+00   0.0000000000E+00   0.0000000000E+00   0.6750000000E-03   0.0000000000E+00   0.0000000000E+00  -0.3378876532E-01   0.2375000003E+01  -0.3089328011E-14  -0.5003661685E-14  -0.6927640784E-17  -0.7515742056E-16  -0.1101601903E-15   0.6812753074E-01  -0.3311376537E-01  -0.3311376537E-01   0.1254458557E-16   0.7619485912E-16  -0.1463245754E-16   0.2375000003E+01
   0.1068127531E+01   0.0000000000E+00   0.9668862347E+00  -0.2250000000E-02   0.0000000000E+00   0.6750000000E-03   0.7037753064E-01   0.0000000000E+00  -0.3378876532E-01   0.2375000003E+01  -0.6271509835E-15  -0.2607617359E-14  -0.6605361248E-15   0.8078755136E-15  -0.6473465006E-15   0.6812753074E-01  -0.3311376537E-01  -0.3311376537E-01  -0.2461859914E-16   0.8892159250E-16  -0.5475485984E-16   0.2375000003E+01
   0.1068127531E+01   0.9668862347E+00   0.9668862347E+00  -0.2250000000E-02   0.6750000000E-03   0.6750000000E-03   0.7037753064E-01  -0.3378876532E-01  -0.3378876532E-01   0.2375000003E+01  -0.3446850450E-15   0.6158712195E-15  -0.7320243938E-15   0.1398570380E-15   0.5539298616E-15   0.6812753073E-01  -0.3311376536E-01  -0.3311376536E-01   0.4409698433E-16   0.1664492658E-15   0.8394189121E-16   0.2375000003E+01
   0.0000000000E+00   0.9668862347E+00   0.9668862347E+00   0.0000000000E+00   0.6750000000E-03   0.6750000000E-03   0.0000000000E+00  -0.3378876532E-01  -0.3378876532E-01   0.2375000003E+01   0.2078971797E-14   0.2152390451E-15   0.6089034216E-15  -0.8464753238E-15   0.6033261754E-15   0.6812753073E-01  -0.3311376537E-01  -0.3311376537E-01  -0.2899283321E-16  -0.5466652941E-17   0.7440710153E-16   0.2375000003E+01
   0.2136255061E+01   0.0000000000E+00   0.6684984780E-16  -0.4500000000E-02   0.0000000000E+00  -0.3215492316E-17   0.1407550613E+00   0.0000000000E+00   0.7006534011E-16   0.2375000004E+01  -0.4377773691E-14  -0.1973269661E-14  -0.1039983121E-14  -0.1501342142E-14  -0.1113294869E-14   0.6812753075E-01  -0.3311376537E-01  -0.3311376537E-01  -0.1542826802E-15   0.1109958825E-15  -0.8030635323E-16   0.2375000004E+01
   0.2136255061E+01   0.9668862347E+00   0.3266327232E-16  -0.4500000000E-02   0.6750000000E-03  -0.2862038746E-17   0.1407550613E+00  -0.3378876532E-01   0.3552531107E-16   0.2375000003E+01   0.7687518473E-14   0.9109154892E-14  -0.1671531741E-14   0.9746212001E-15   0.4312485686E-15   0.6812753074E-01  -0.3311376537E-01  -0.3311376537E-01  -0.1205458732E-15   0.2432942219E-15   0.4469064347E-16   0.2375000003E+01
   0.2136255061E+01   0.0000000000E+00   0.9668862347E+00  -0.4500000000E-02   0.0000000000E+00   0.6750000000E-03   0.1407550613E+00   0.0000000000E+00  -0.3378876532E-01   0.2375000003E+01   0.5950535454E-14   0.2430898082E-14   0.8457261508E-15  -0.1208436588E-14  -0.7037764030E-15   0.6812753074E-01  -0.3311376537E-01  -0.3311376537E-01   0.6012253475E-16   0.1125544838E-15  -0.1791542408E-16   0.2375000003E+01
   0.2136255061E+01   0.9668862347E+00   0.9668862347E+00  -0.4500000000E-02   0.6750000000E-03   0.6750000000E-03   0.1407550613E+00  -0.3378876532E-01  -0.3378876532E-01   0.2375000003E+01  -0.6964343201E-14  -0.9113068851E-14   0.1298673960E-14   0.2485899690E-15   0.7207027971E-15   0.6812753073E-01  -0.3311376536E-01  -0.3311376536E-01   0.1043333708E-15   0.2344209230E-15   0.5405909995E-16   0.2375000003E+01
     1     2     3     4     5     6     7     8
     2     9    10     3     6    11    12     7
 VARIABLES = X,Y,Z,DU1,DU2,DU3,U1,U2,U3,S11,S22,S33,S12,S13,S23,E11,E22,E33,E12,E13,E23,SMISES
 ZONE, T="0.3500D+01" F=FEPOINT, I=   12 J=    2 ET=BRICK
   0.0000000000E+00   0.0000000000E+00   0.0000000000E+00   0.0000000000E+00   0.0000000000E+00   0.0000000000E+00   0.0000000000E+00   0.0000000000E+00   0.0000000000E+00   0.1250000002E+01   0.6094829366E-14   0.6763174028E-14   0.4105318048E-16  -0.1084431963E-14  -0.1462733560E-14   0.6587753075E-01  -0.3243876537E-01  -0.3243876537E-01   0.5919742771E-17  -0.2830970262E-16  -0.8370828904E-16   0.1250000002E+01
   0.1065877531E+01   0.0000000000E+00  -0.3480033328E-17  -0.2250000000E-02   0.0000000000E+00  -0.8084469703E-19   0.6812753064E-01   0.0000000000E+00  -0.3399188631E-17   0.1250000002E+01  -0.3727790029E-15   0.1410044529E-14   0.5533882818E-15   0.9539992638E-15  -0.6434415541E-16   0.6587753074E-01  -0.3243876537E-01  -0.3243876537E-01  -0.6861088615E-16   0.6184221617E-16  -0.1680706576E-16   0.1250000002E+01
   0.1065877531E+01   0.9675612347E+00  -0.1002591811E-16  -0.2250000000E-02   0.6750000000E-03   0.1765736641E-18   0.6812753064E-01  -0.3311376532E-01  -0.1020249177E-16   0.1250000002E+01  -0.1436881785E-15   0.2313053739E-15   0.6264131136E-15  -0.5667118423E-15   0.7754460752E-15   0.6587753074E-01  -0.3243876537E-01  -0.3243876537E-01  -0.4155550343E-16   0.1385166416E-15   0.7589750399E-16   0.1250000002E+01
   0.0000000000E+00   0.9675612347E+00  -0.4053351041E-16   0.0000000000E+00   0.6750000000E-03   0.1810803355E-18   0.0000000000E+00  -0.3311376532E-01  -0.4071459075E-16   0.1250000002E+01  -0.2774462921E-14  -0.1176316235E-14   0.9737374985E-16   0.6602247803E-15   0.4667845342E-15   0.6587753074E-01  -0.3243876537E-01  -0.3243876537E-01  -0.1464241907E-16   0.6704959638E-16   0.3885550673E-17   0.1250000002E+01
   0.0000000000E+00   0.0000000000E+00   0.9675612347E+00   0.0000000000E+00   0.0000000000E+00   0.6750000000E-03   0.0000000000E+00   0.0000000000E+00  -0.3311376532E-01   0.1250000002E+01  -0.3317546321E-14  -0.5289930951E-14  -0.9557091880E-17  -0.9957239260E-17  -0.2470173981E-16   0.6587753074E-01  -0.3243876537E-01  -0.3243876537E-01   0.5124387980E-17   0.7376758059E-16   0.1066415489E-16   0.1250000002E+01
   0.1065877531E+01   0.0000000000E+00   0.9675612347E+00  -0.2250000000E-02   0.0000000000E+00   0.6750000000E-03   0.6812753064E-01   0.0000000000E+00  -0.3311376532E-01   0.1250000002E+01  -0.6021175766E-15  -0.2405526563E-14  -0.6803978704E-15   0.6987805755E-15  -0.6572750985E-15   0.6587753074E-01  -0.3243876537E-01  -0.3243876537E-01  -0.1880418063E-16   0.9904951464E-16  -0.3114497298E-16   0.1250000002E+01
   0.1065877531E+01   0.9675612347E+00   0.9675612347E+00  -0.2250000000E-02   0.6750000000E-03   0.6750000000E-03   0.6812753064E-01  -0.3311376532E-01  -0.3311376532E-01   0.1250000002E+01  -0.7136739725E-15   0.4174989700E-15  -0.7774563654E-15  -0.6365798974E-16   0.4818902524E-15   0.6587753073E-01  -0.3243876536E-01  -0.3243876536E-01   0.1026394334E-16   0.1708870837E-15   0.4513066898E-16   0.1250000002E+01
   0.0000000000E+00   0.9675612347E+00   0.9675612347E+00   0.0000000000E+00   0.6750000000E-03   0.6750000000E-03   0.0000000000E+00  -0.3311376532E-01  -0.3311376532E-01   0.1250000002E+01   0.1953342317E-14   0.3477896590E-16   0.5722145256E-15  -0.8456669261E-15   0.6028930373E-15   0.6587753073E-01  -0.3243876537E-01  -0.3243876537E-01  -0.3670012979E-17  -0.1084481657E-16   0.5434783943E-16   0.1250000002E+01
   0.2131755061E+01   0.0000000000E+00   0.6617041287E-16  -0.4500000000E-02   0.0000000000E+00  -0.6794349281E-18   0.1362550613E+00   0.0000000000E+00   0.6684984780E-16   0.1250000002E+01  -0.4445436827E-14  -0.2130324380E-14  -0.8692548289E-15  -0.1282230943E-14  -0.9275145095E-15   0.6587753074E-01  -0.3243876537E-01  -0.3243876537E-01  -0.1438269505E-15   0.1342199388E-15  -0.7600480535E-16   0.1250000002E+01
   0.2131755061E+01   0.9675612347E+00   0.3301477355E-16  -0.4500000000E-02   0.6750000000E-03   0.3515012237E-18   0.1362550613E+00  -0.3311376532E-01   0.3266327232E-16   0.1250000002E+01   0.7531411246E-14   0.8624148654E-14  -0.1375326593E-14   0.1081041711E-14   0.3635981425E-15   0.6587753074E-01  -0.3243876537E-01  -0.3243876537E-01  -0.1423647323E-15   0.1379389539E-15   0.2554445677E-16   0.1250000002E+01
   0.2131755061E+01   0.0000000000E+00   0.9675612347E+00  -0.4500000000E-02   0.0000000000E+00   0.6750000000E-03   0.1362550613E+00   0.0000000000E+00  -0.3311376532E-01   0.1250000002E+01   0.6491502134E-14   0.3300763772E-14   0.7446844255E-15  -0.7982742035E-15  -0.6323679952E-15   0.6587753074E-01  -0.3243876537E-01  -0.3243876537E-01   0.6437863212E-16   0.7302207918E-16  -0.1341195719E-16   0.1250000002E+01
   0.2131755061E+01   0.9675612347E+00   0.9675612347E+00  -0.4500000000E-02   0.6750000000E-03   0.6750000000E-03   0.1362550613E+00  -0.3311376532E-01  -0.3311376532E-01   0.1250000002E+01  -0.7314010020E-14  -0.9377427324E-14   0.1048761814E-14   0.7180613378E-15   0.6291268061E-15   0.6587753073E-01  -0.3243876536E-01  -0.3243876536E-01   0.9112601213E-16   0.2631654822E-15   0.6507063915E-16   0.1250000002E+01
     1     2     3     4     5     6     7     8
     2     9    10     3     6    11    12     7
 VARIABLES = X,Y,Z,DU1,DU2,DU3,U1,U2,U3,S11,S22,S33,S12,S13,S23,E11,E22,E33,E12,E13,E23,SMISES
 ZONE, T="0.3550D+01" F=FEPOINT, I=   12 J=    2 ET=BRICK
   0.0000000000E+00   0.0000000000E+00   0.0000000000E+00   0.0000000000E+00   0.0000000000E+00   0.0000000000E+00   0.0000000000E+00   0.0000000000E+00   0.0000000000E+00   0.1250000002E+00   0.6108117787E-14   0.6922452737E-14   0.4343604765E-16  -0.1093852746E-14  -0.1497793337E-14   0.6362753074E-01  -0.3176376537E-01  -0.3176376537E-01  -0.8938129391E-17  -0.4209796003E-16  -0.8623526290E-16   0.1250000002E+00
   0.1063627531E+01   0.0000000000E+00  -0.3185388581E-17  -0.2250000000E-02   0.0000000000E+00   0.2946447465E-18   0.6587753064E-01   0.0000000000E+00  -0.3480033328E-17   0.1250000002E+00  -0.3893789462E-15   0.1550864026E-14   0.3849239455E-15   0.8905574670E-15  -0.1286339898E-15   0.6362753074E-01  -0.3176376537E-01  -0.3176376537E-01  -0.3188893497E-16   0.9494581867E-16  -0.1233687061E-16   0.1250000002E+00
   0.1063627531E+01   0.9682362347E+00  -0.1009672086E-16  -0.2250000000E-02   0.6750000000E-03  -0.7080275396E-19   0.6587753064E-01  -0.3243876532E-01  -0.1002591811E-16   0.1250000002E+00  -0.1677091212E-16   0.4892475917E-15   0.5435633149E-15  -0.4813463771E-15   0.7710815775E-15   0.6362753073E-01  -0.3176376537E-01  -0.3176376537E-01  -0.4404924184E-16   0.1631527528E-15   0.7222585077E-16   0.1250000002E+00
   0.0000000000E+00   0.9682362347E+00  -0.4084900251E-16   0.0000000000E+00   0.6750000000E-03  -0.3154920980E-18   0.0000000000E+00  -0.3243876532E-01  -0.4053351041E-16   0.1250000002E+00  -0.3193488573E-14  -0.1436154357E-14   0.1975397936E-15   0.6698006011E-15   0.5320473864E-15   0.6362753074E-01  -0.3176376537E-01  -0.3176376537E-01  -0.4609466168E-18   0.6703735843E-16  -0.1308221747E-20   0.1250000002E+00
   0.0000000000E+00   0.0000000000E+00   0.9682362347E+00   0.0000000000E+00   0.0000000000E+00   0.6750000000E-03   0.0000000000E+00   0.0000000000E+00  -0.3243876532E-01   0.1250000002E+00  -0.3041381766E-14  -0.5218670524E-14  -0.7659814292E-17   0.1404340505E-15  -0.1398550790E-15   0.6362753074E-01  -0.3176376537E-01  -0.3176376537E-01   0.1174647814E-17   0.5336745375E-16  -0.6563926057E-17   0.1250000002E+00
   0.1063627531E+01   0.0000000000E+00   0.9682362347E+00  -0.2250000000E-02   0.0000000000E+00   0.6750000000E-03   0.6587753064E-01   0.0000000000E+00  -0.3243876532E-01   0.1250000002E+00  -0.3705698516E-15  -0.2134387101E-14  -0.6670258792E-15   0.4364866803E-15  -0.7010584619E-15   0.6362753073E-01  -0.3176376537E-01  -0.3176376537E-01   0.4835560990E-17   0.1180769182E-15  -0.4719508154E-16   0.1250000002E+00
   0.1063627531E+01   0.9682362347E+00   0.9682362347E+00  -0.2250000000E-02   0.6750000000E-03   0.6750000000E-03   0.6587753064E-01  -0.3243876532E-01  -0.3243876532E-01   0.1250000002E+00  -0.6924925744E-15   0.4518776168E-15  -0.8183496463E-15  -0.3749164210E-16   0.4627836827E-15   0.6362753073E-01  -0.3176376536E-01  -0.3176376536E-01   0.3547919519E-16   0.1503693476E-15   0.3829234690E-16   0.1250000002E+00
   0.0000000000E+00   0.9682362347E+00   0.9682362347E+00   0.0000000000E+00   0.6750000000E-03   0.6750000000E-03   0.0000000000E+00  -0.3243876532E-01  -0.3243876532E-01   0.1250000002E+00   0.1974134560E-14  -0.1361356767E-15   0.5596127362E-15  -0.7179969288E-15   0.7919378385E-15   0.6362753073E-01  -0.3176376536E-01  -0.3176376536E-01  -0.2080644587E-16   0.9484394359E-17   0.1123419214E-15   0.1250000002E+00
   0.2127255061E+01   0.0000000000E+00   0.6685268061E-16  -0.4500000000E-02   0.0000000000E+00   0.6822677451E-18   0.1317550613E+00   0.0000000000E+00   0.6617041287E-16   0.1250000002E+00  -0.4945177152E-14  -0.2677549400E-14  -0.7579391601E-15  -0.1441790615E-14  -0.9793494642E-15   0.6362753074E-01  -0.3176376537E-01  -0.3176376537E-01  -0.1695823948E-15   0.1288061227E-15  -0.5445017060E-16   0.1250000002E+00
   0.2127255061E+01   0.9682362347E+00   0.3340770546E-16  -0.4500000000E-02   0.6750000000E-03   0.3929319132E-18   0.1317550613E+00  -0.3243876532E-01   0.3301477355E-16   0.1250000002E+00   0.7896736165E-14   0.9125802802E-14  -0.1287852128E-14   0.8910744344E-15   0.3715548868E-15   0.6362753073E-01  -0.3176376537E-01  -0.3176376537E-01  -0.1446121968E-15   0.1997437443E-15   0.2321631352E-16   0.1250000002E+00
   0.2127255061E+01   0.0000000000E+00   0.9682362347E+00  -0.4500000000E-02   0.0000000000E+00   0.6750000000E-03   0.1317550613E+00   0.0000000000E+00  -0.3243876532E-01   0.1250000002E+00   0.6745597977E-14   0.3372813788E-14   0.7091180999E-15  -0.9962280152E-15  -0.6375105487E-15   0.6362753073E-01  -0.3176376537E-01  -0.3176376537E-01   0.6625749228E-16   0.6756110152E-16  -0.5547187461E-16   0.1250000002E+00
   0.2127255061E+01   0.9682362347E+00   0.9682362347E+00  -0.4500000000E-02   0.6750000000E-03   0.6750000000E-03   0.1317550613E+00  -0.3243876532E-01  -0.3243876532E-01   0.1250000002E+00  -0.7079557768E-14  -0.9141206975E-14   0.1004753510E-14   0.3706455470E-15   0.7615347094E-15   0.6362753072E-01  -0.3176376536E-01  -0.3176376536E-01   0.8197971298E-16   0.3119747873E-15   0.8151098666E-16   0.1250000002E+00
     1     2     3     4     5     6     7     8
     2     9    10     3     6    11    12     7
 VARIABLES = X,Y,Z,DU1,DU2,DU3,U1,U2,U3,S11,S22,S33,S12,S13,S23,E11,E22,E33,E12,E13,E23,SMISES
 ZONE, T="0.3600D+01" F=FEPOINT, I=   12 J=    2 ET=BRICK
   0.0000000000E+00   0.0000000000E+00   0.0000000000E+00   0.0000000000E+00   0.0000000000E+00   0.0000000000E+00   0.0000000000E+00   0.0000000000E+00   0.0000000000E+00  -0.1000000002E+01   0.5791328477E-14   0.6394500935E-14   0.3035125387E-16  -0.9841438007E-15  -0.1492396428E-14   0.6137753074E-01  -0.3108876537E-01  -0.3108876537E-01   0.9864808444E-17  -0.3590234331E-16  -0.7644350732E-16   0.1000000002E+01
   0.1061377531E+01   0.0000000000E+00  -0.2808986469E-17  -0.2250000000E-02   0.0000000000E+00   0.3764021127E-18   0.6362753064E-01   0.0000000000E+00  -0.3185388581E-17  -0.1000000002E+01  -0.6933291750E-15   0.1189361023E-14   0.5712006219E-15   0.8708478749E-15  -0.1587805186E-15   0.6137753074E-01  -0.3108876537E-01  -0.3108876537E-01  -0.6642671175E-16   0.9059159456E-16  -0.6086130936E-17   0.1000000002E+01
   0.1061377531E+01   0.9689112347E+00  -0.9893171591E-17  -0.2250000000E-02   0.6750000000E-03   0.2035492691E-18   0.6362753064E-01  -0.3176376532E-01  -0.1009672086E-16  -0.1000000001E+01   0.7228037558E-16   0.5776183426E-15   0.6835853913E-15  -0.3348601064E-15   0.7403350128E-15   0.6137753073E-01  -0.3108876537E-01  -0.3108876537E-01  -0.5519335266E-16   0.1571726914E-15   0.5367485726E-16   0.1000000001E+01
   0.0000000000E+00   0.9689112347E+00  -0.4069255567E-16   0.0000000000E+00   0.6750000000E-03   0.1564468350E-18   0.0000000000E+00  -0.3176376532E-01  -0.4084900251E-16  -0.1000000001E+01  -0.2766345292E-14  -0.1115543119E-14   0.1417866652E-15   0.5914088560E-15   0.4611407606E-15   0.6137753073E-01  -0.3108876537E-01  -0.3108876537E-01  -0.8279852739E-17   0.6379538542E-16  -0.1231678165E-17   0.1000000001E+01
   0.0000000000E+00   0.0000000000E+00   0.9689112347E+00   0.0000000000E+00   0.0000000000E+00   0.6750000000E-03   0.0000000000E+00   0.0000000000E+00  -0.3176376532E-01  -0.1000000001E+01  -0.3127656395E-14  -0.5368665112E-14  -0.2421640581E-17   0.6353125445E-16  -0.5281273339E-16   0.6137753073E-01  -0.3108876537E-01  -0.3108876537E-01  -0.8474801686E-17   0.6004603770E-16  -0.1072143578E-16   0.1000000001E+01
   0.1061377531E+01   0.0000000000E+00   0.9689112347E+00  -0.2250000000E-02   0.0000000000E+00   0.6750000000E-03   0.6362753064E-01   0.0000000000E+00  -0.3176376532E-01  -0.1000000001E+01  -0.5831601898E-15  -0.2478998754E-14  -0.5341558533E-15   0.5805564137E-15  -0.6392444294E-15   0.6137753073E-01  -0.3108876537E-01  -0.3108876537E-01   0.1952269162E-16   0.1120971433E-15  -0.6363391613E-16   0.1000000001E+01
   0.1061377531E+01   0.9689112347E+00   0.9689112347E+00  -0.2250000000E-02   0.6750000000E-03   0.6750000000E-03   0.6362753064E-01  -0.3176376532E-01  -0.3176376532E-01  -0.1000000001E+01  -0.1021342732E-14   0.2753672654E-15  -0.7045099620E-15   0.3529528462E-16   0.5147037391E-15   0.6137753072E-01  -0.3108876536E-01  -0.3108876536E-01   0.1857053259E-16   0.1667034012E-15   0.7336794174E-16   0.1000000001E+01
   0.0000000000E+00   0.9689112347E+00   0.9689112347E+00   0.0000000000E+00   0.6750000000E-03   0.6750000000E-03   0.0000000000E+00  -0.3176376532E-01  -0.3176376532E-01  -0.1000000001E+01   0.2189811742E-14   0.5949653959E-16   0.5916078242E-15  -0.6403723230E-15   0.7888230148E-15   0.6137753073E-01  -0.3108876536E-01  -0.3108876536E-01  -0.3126809332E-17  -0.1561528166E-17   0.7905634872E-16   0.1000000001E+01
   0.2122755061E+01   0.0000000000E+00   0.6762189353E-16  -0.4500000000E-02   0.0000000000E+00   0.7692129213E-18   0.1272550613E+00   0.0000000000E+00   0.6685268061E-16  -0.1000000002E+01  -0.4997643786E-14  -0.2670877512E-14  -0.7484135990E-15  -0.1362521518E-14  -0.9680331960E-15   0.6137753074E-01  -0.3108876537E-01  -0.3108876537E-01  -0.1572768538E-15   0.8655887362E-16  -0.7339659786E-16   0.1000000002E+01
   0.2122755061E+01   0.9689112347E+00   0.3424420529E-16  -0.4500000000E-02   0.6750000000E-03   0.8364998282E-18   0.1272550613E+00  -0.3176376532E-01   0.3340770546E-16  -0.1000000001E+01   0.7513134338E-14   0.8849097718E-14  -0.1323216124E-14   0.9624920613E-15   0.3416178207E-15   0.6137753073E-01  -0.3108876537E-01  -0.3108876537E-01  -0.1348010520E-15   0.2403149858E-15   0.3649750005E-16   0.1000000001E+01
   0.2122755061E+01   0.0000000000E+00   0.9689112347E+00  -0.4500000000E-02   0.0000000000E+00   0.6750000000E-03   0.1272550613E+00   0.0000000000E+00  -0.3176376532E-01  -0.1000000001E+01   0.6397030882E-14   0.3158716651E-14   0.6746992911E-15  -0.1109024576E-14  -0.6506673242E-15   0.6137753073E-01  -0.3108876537E-01  -0.3108876537E-01   0.6215140327E-16   0.1039857345E-15  -0.1450435569E-16   0.1000000001E+01
   0.2122755061E+01   0.9689112347E+00   0.9689112347E+00  -0.4500000000E-02   0.6750000000E-03   0.6750000000E-03   0.1272550613E+00  -0.3176376532E-01  -0.3176376532E-01  -0.1000000001E+01  -0.8047357609E-14  -0.9987734090E-14   0.9240373593E-15   0.1196937763E-15   0.7904033557E-15   0.6137753072E-01  -0.3108876536E-01  -0.3108876536E-01   0.7996678711E-16   0.2874237831E-15   0.7214011300E-16   0.1000000001E+01
     1     2     3     4     5     6     7     8
     2     9    10     3     6    11    12     7
 VARIABLES = X,Y,Z,DU1,DU2,DU3,U1,U2,U3,S11,S22,S33,S12,S13,S23,E11,E22,E33,E12,E13,E23,SMISES
 ZONE, T="0.3650D+01" F=FEPOINT, I=   12 J=    2 ET=BRICK
   0.0000000000E+00   0.0000000000E+00   0.0000000000E+00   0.0000000000E+00   0.0000000000E+00   0.0000000000E+00   0.0000000000E+00   0.0000000000E+00   0.0000000000E+00  -0.2125000003E+01   0.6236062404E-14   0.6901369071E-14   0.9918985116E-17  -0.7933534130E-15  -0.1520846807E-14   0.5912753074E-01  -0.3041376537E-01  -0.3041376537E-01  -0.2939121756E-17  -0.4600863775E-16  -0.8145899127E-16   0.2125000003E+01
   0.1059127531E+01   0.0000000000E+00  -0.1759250709E-17  -0.2250000000E-02   0.0000000000E+00   0.1049735760E-17   0.6137753064E-01   0.0000000000E+00  -0.2808986469E-17  -0.2125000003E+01  -0.5697901655E-15   0.1244872185E-14   0.5397379676E-15   0.9250211511E-15  -0.1587852262E-15   0.5912753073E-01  -0.3041376537E-01  -0.3041376537E-01  -0.3564233593E-16   0.9632172071E-16  -0.1647125024E-16   0.2125000003E+01
   0.1059127531E+01   0.9695862347E+00  -0.8920659222E-17  -0.2250000000E-02   0.6750000000E-03   0.9725123688E-18   0.6137753064E-01  -0.3108876532E-01  -0.9893171591E-17  -0.2125000003E+01   0.2198564007E-15   0.6987998722E-15   0.6970641640E-15  -0.6221028605E-15   0.6972541966E-15   0.5912753073E-01  -0.3041376536E-01  -0.3041376536E-01  -0.2968940401E-16   0.1459021003E-15   0.7744149993E-16   0.2125000003E+01
   0.0000000000E+00   0.9695862347E+00  -0.4071712749E-16   0.0000000000E+00   0.6750000000E-03  -0.2457181852E-19   0.0000000000E+00  -0.3108876532E-01  -0.4069255567E-16  -0.2125000003E+01  -0.2971474091E-14  -0.1101665340E-14   0.1861116310E-15   0.7445684002E-15   0.5459573654E-15   0.5912753073E-01  -0.3041376537E-01  -0.3041376537E-01  -0.8307734118E-17   0.6858223510E-16   0.1236953794E-17   0.2125000003E+01
   0.0000000000E+00   0.0000000000E+00   0.9695862347E+00   0.0000000000E+00   0.0000000000E+00   0.6750000000E-03   0.0000000000E+00   0.0000000000E+00  -0.3108876532E-01  -0.2125000003E+01  -0.3271198057E-14  -0.5411659562E-14  -0.3858339831E-18   0.1257157442E-15  -0.1130932355E-15   0.5912753073E-01  -0.3041376537E-01  -0.3041376537E-01   0.1365407538E-16   0.6157106802E-16   0.1267328095E-16   0.2125000003E+01
   0.1059127531E+01   0.0000000000E+00   0.9695862347E+00  -0.2250000000E-02   0.0000000000E+00   0.6750000000E-03   0.6137753064E-01   0.0000000000E+00  -0.3108876532E-01  -0.2125000003E+01  -0.6197139191E-15  -0.2471561677E-14  -0.8677746361E-15   0.5376634847E-15  -0.6541899203E-15   0.5912753073E-01  -0.3041376536E-01  -0.3041376536E-01  -0.2160386681E-16   0.1155893497E-15  -0.3593416035E-16   0.2125000003E+01
   0.1059127531E+01   0.9695862347E+00   0.9695862347E+00  -0.2250000000E-02   0.6750000000E-03   0.6750000000E-03   0.6137753064E-01  -0.3108876532E-01  -0.3108876532E-01  -0.2125000003E+01  -0.1125292628E-14  -0.2323634331E-16  -0.1014043066E-14  -0.2164117050E-15   0.5170519724E-15   0.5912753072E-01  -0.3041376536E-01  -0.3041376536E-01   0.2012296441E-16   0.1489683990E-15   0.3757412007E-16   0.2125000003E+01
   0.0000000000E+00   0.9695862347E+00   0.9695862347E+00   0.0000000000E+00   0.6750000000E-03   0.6750000000E-03   0.0000000000E+00  -0.3108876532E-01  -0.3108876532E-01  -0.2125000003E+01   0.1480768153E-14  -0.6987998351E-15   0.5707360309E-15  -0.5434347067E-15   0.8241244697E-15   0.5912753072E-01  -0.3041376536E-01  -0.3041376536E-01  -0.3888507904E-17   0.1423930439E-16   0.7968188179E-16   0.2125000003E+01
   0.2118255061E+01   0.0000000000E+00   0.7045458160E-16  -0.4500000000E-02   0.0000000000E+00   0.2832688066E-17   0.1227550613E+00   0.0000000000E+00   0.6762189353E-16  -0.2125000003E+01  -0.4929166583E-14  -0.2525027254E-14  -0.7614606775E-15  -0.1432398284E-14  -0.9879305515E-15   0.5912753073E-01  -0.3041376537E-01  -0.3041376537E-01  -0.1564260087E-15   0.6074931169E-16  -0.5859377885E-16   0.2125000003E+01
   0.2118255061E+01   0.9695862347E+00   0.3708441228E-16  -0.4500000000E-02   0.6750000000E-03   0.2840206997E-17   0.1227550613E+00  -0.3108876532E-01   0.3424420529E-16  -0.2125000003E+01   0.7597081648E-14   0.9042390390E-14  -0.1365881944E-14   0.1063231028E-14   0.4697698303E-15   0.5912753073E-01  -0.3041376536E-01  -0.3041376536E-01  -0.1309424991E-15   0.3937005395E-15   0.1583024444E-16   0.2125000003E+01
   0.2118255061E+01   0.0000000000E+00   0.9695862347E+00  -0.4500000000E-02   0.0000000000E+00   0.6750000000E-03   0.1227550613E+00   0.0000000000E+00  -0.3108876532E-01  -0.2125000003E+01   0.6883798689E-14   0.3347926077E-14   0.6584358818E-15  -0.9035932124E-15  -0.6912255629E-15   0.5912753073E-01  -0.3041376536E-01  -0.3041376536E-01   0.7688166716E-16   0.1137861405E-15  -0.2334847782E-16   0.2125000003E+01
   0.2118255061E+01   0.9695862347E+00   0.9695862347E+00  -0.4500000000E-02   0.6750000000E-03   0.6750000000E-03   0.1227550613E+00  -0.3108876532E-01  -0.3108876532E-01  -0.2125000003E+01  -0.6947013843E-14  -0.9118415434E-14   0.1062879458E-14   0.1672144077E-15   0.8535053917E-15   0.5912753072E-01  -0.3041376536E-01  -0.3041376536E-01   0.8432862862E-16   0.2014416724E-15   0.6736148704E-16   0.2125000003E+01
     1     2     3     4     5     6     7     8
     2     9    10     3     6    11    12     7
 VARIABLES = X,Y,Z,DU1,DU2,DU3,U1,U2,U3,S11,S22,S33,S12,S13,S23,E11,E22,E33,E12,E13,E23,SMISES
 ZONE, T="0.3700D+01" F=FEPOINT, I=   12 J=    2 ET=BRICK
   0.0000000000E+00   0.0000000000E+00   0.0000000000E+00   0.0000000000E+00   0.0000000000E+00   0.0000000000E+00   0.0000000000E+00   0.0000000000E+00   0.0000000000E+00  -0.3250000005E+01   0.6612390663E-14   0.6939817827E-14   0.4153241528E-16  -0.1025031420E-14  -0.1451410896E-14   0.5687753073E-01  -0.2973876537E-01  -0.2973876537E-01  -0.1025346216E-17  -0.3786217892E-16  -0.8307276465E-16   0.3250000005E+01
   0.1056877531E+01   0.0000000000E+00  -0.3647102865E-17  -0.2250000000E-02   0.0000000000E+00  -0.1887852156E-17   0.5912753064E-01   0.0000000000E+00  -0.1759250709E-17  -0.3250000005E+01  -0.5318753419E-15   0.9009166598E-15   0.2307130751E-15   0.7574235060E-15  -0.5872748185E-16   0.5687753073E-01  -0.2973876537E-01  -0.2973876537E-01  -0.4448381267E-16   0.7606131346E-16  -0.1093766207E-16   0.3250000005E+01
   0.1056877531E+01   0.9702612347E+00  -0.1026213146E-16  -0.2250000000E-02   0.6750000000E-03  -0.1341472236E-17   0.5912753064E-01  -0.3041376532E-01  -0.8920659222E-17  -0.3250000005E+01  -0.1491325120E-15   0.2586962414E-15   0.4626328157E-15  -0.2885169581E-15   0.5971083768E-15   0.5687753072E-01  -0.2973876536E-01  -0.2973876536E-01  -0.5178304711E-16   0.1528764806E-15   0.5576217046E-16   0.3250000005E+01
   0.0000000000E+00   0.9702612347E+00  -0.4036684094E-16   0.0000000000E+00   0.6750000000E-03   0.3502865484E-18   0.0000000000E+00  -0.3041376532E-01  -0.4071712749E-16  -0.3250000005E+01  -0.3413205767E-14  -0.1354187633E-14   0.1807638158E-15   0.6221144798E-15   0.4072040114E-15   0.5687753073E-01  -0.2973876536E-01  -0.2973876536E-01   0.8633860048E-17   0.5719848607E-16   0.5945858694E-17   0.3250000005E+01
   0.0000000000E+00   0.0000000000E+00   0.9702612347E+00   0.0000000000E+00   0.0000000000E+00   0.6750000000E-03   0.0000000000E+00   0.0000000000E+00  -0.3041376532E-01  -0.3250000005E+01  -0.3783315022E-14  -0.5511793157E-14  -0.1622278451E-16  -0.4910588047E-16   0.1433314442E-16   0.5687753073E-01  -0.2973876536E-01  -0.2973876536E-01   0.2809725510E-17   0.5789143252E-16  -0.8149155258E-17   0.3250000005E+01
   0.1056877531E+01   0.0000000000E+00   0.9702612347E+00  -0.2250000000E-02   0.0000000000E+00   0.6750000000E-03   0.5912753064E-01   0.0000000000E+00  -0.3041376532E-01  -0.3250000005E+01  -0.2710434648E-15  -0.1940754210E-14  -0.5608339646E-15   0.2944092628E-15  -0.5087212052E-15   0.5687753072E-01  -0.2973876536E-01  -0.2973876536E-01   0.1187796996E-16   0.9798100990E-16  -0.3621653723E-16   0.3250000005E+01
   0.1056877531E+01   0.9702612347E+00   0.9702612347E+00  -0.2250000000E-02   0.6750000000E-03   0.6750000000E-03   0.5912753064E-01  -0.3041376532E-01  -0.3041376532E-01  -0.3250000004E+01  -0.7895035970E-15   0.6998673566E-15  -0.7973750731E-15   0.7562886501E-16   0.4633635232E-15   0.5687753072E-01  -0.2973876536E-01  -0.2973876536E-01   0.3816063677E-16   0.1676897471E-15   0.4152063934E-16   0.3250000004E+01
   0.0000000000E+00   0.9702612347E+00   0.9702612347E+00   0.0000000000E+00   0.6750000000E-03   0.6750000000E-03   0.0000000000E+00  -0.3041376532E-01  -0.3041376532E-01  -0.3250000004E+01   0.2346003541E-14   0.3702521614E-15   0.6406802714E-15  -0.7608570508E-15   0.7773388451E-15   0.5687753072E-01  -0.2973876536E-01  -0.2973876536E-01  -0.1156066168E-16  -0.1271483981E-16   0.1122167287E-15   0.3250000004E+01
   0.2113755061E+01   0.0000000000E+00   0.6352233707E-16  -0.4500000000E-02   0.0000000000E+00  -0.6932244530E-17   0.1182550613E+00   0.0000000000E+00   0.7045458160E-16  -0.3250000005E+01  -0.4922361140E-14  -0.3232527367E-14  -0.8768449154E-15  -0.7824113296E-15  -0.8692048947E-15   0.5687753073E-01  -0.2973876537E-01  -0.2973876537E-01  -0.1886603440E-15   0.4344977932E-16  -0.7523410456E-16   0.3250000005E+01
   0.2113755061E+01   0.9702612347E+00   0.3074755394E-16  -0.4500000000E-02   0.6750000000E-03  -0.6336858341E-17   0.1182550613E+00  -0.3041376532E-01   0.3708441228E-16  -0.3250000005E+01   0.8063117319E-14   0.9010453792E-14  -0.1498473022E-14   0.1183871889E-14   0.2289994911E-15   0.5687753072E-01  -0.2973876536E-01  -0.2973876536E-01  -0.1365353993E-15   0.2685318046E-15   0.4633296877E-16   0.3250000005E+01
   0.2113755061E+01   0.0000000000E+00   0.9702612347E+00  -0.4500000000E-02   0.0000000000E+00   0.6750000000E-03   0.1182550613E+00   0.0000000000E+00  -0.3041376532E-01  -0.3250000005E+01   0.7523270953E-14   0.4106222403E-14   0.3244845183E-15  -0.6599868678E-15  -0.6079445150E-15   0.5687753072E-01  -0.2973876536E-01  -0.2973876536E-01   0.4548117511E-16   0.9486604444E-16  -0.1959222219E-16   0.3250000005E+01
   0.2113755061E+01   0.9702612347E+00   0.9702612347E+00  -0.4500000000E-02   0.6750000000E-03   0.6750000000E-03   0.1182550613E+00  -0.3041376532E-01  -0.3041376532E-01  -0.3250000004E+01  -0.7832567688E-14  -0.9721600911E-14   0.9532199609E-15   0.6602292783E-15   0.5724744445E-15   0.5687753072E-01  -0.2973876536E-01  -0.2973876536E-01   0.4947160471E-16   0.1637680912E-15   0.7164640519E-16   0.3250000004E+01
     1     2     3     4     5     6     7     8
     2     9    10     3     6    11    12     7
 VARIABLES = X,Y,Z,DU1,DU2,DU3,U1,U2,U3,S11,S22,S33,S12,S13,S23,E11,E22,E33,E12,E13,E23,SMISES
 ZONE, T="0.3750D+01" F=FEPOINT, I=   12 J=    2 ET=BRICK
   0.0000000000E+00   0.0000000000E+00   0.0000000000E+00   0.0000000000E+00   0.0000000000E+00   0.0000000000E+00   0.0000000000E+00   0.0000000000E+00   0.0000000000E+00  -0.4375000007E+01   0.5445197812E-14   0.5914124979E-14   0.6231988058E-16  -0.1084995693E-14  -0.1298188344E-14   0.5462753073E-01  -0.2906376537E-01  -0.2906376537E-01   0.4251841805E-17  -0.4847135601E-16  -0.7702321320E-16   0.4375000007E+01
   0.1054627531E+01   0.0000000000E+00  -0.4569358415E-17  -0.2250000000E-02   0.0000000000E+00  -0.9222555495E-18   0.5687753064E-01   0.0000000000E+00  -0.3647102865E-17  -0.4375000007E+01  -0.6835346205E-15   0.7289388979E-15   0.6031212713E-15   0.1159416711E-14  -0.1228049532E-15   0.5462753073E-01  -0.2906376537E-01  -0.2906376537E-01  -0.5083200607E-16   0.1122528877E-15  -0.8164190834E-17   0.4375000007E+01
   0.1054627531E+01   0.9709362347E+00  -0.1154747583E-16  -0.2250000000E-02   0.6750000000E-03  -0.1285344376E-17   0.5687753064E-01  -0.2973876532E-01  -0.1026213146E-16  -0.4375000006E+01  -0.2304064889E-15   0.2532518868E-15   0.7728677945E-15  -0.4428878106E-15   0.4775603439E-15   0.5462753072E-01  -0.2906376536E-01  -0.2906376536E-01  -0.2191927524E-16   0.1448165958E-15   0.5992105822E-16   0.4375000006E+01
   0.0000000000E+00   0.9709362347E+00  -0.3961587968E-16   0.0000000000E+00   0.6750000000E-03   0.7509612595E-18   0.0000000000E+00  -0.2973876532E-01  -0.4036684094E-16  -0.4375000006E+01  -0.3494479765E-14  -0.1963546902E-14   0.4203633026E-16   0.1761761613E-15   0.4180992197E-15   0.5462753072E-01  -0.2906376536E-01  -0.2906376536E-01  -0.1892503582E-16   0.5257720851E-16   0.2014251370E-16   0.4375000006E+01
   0.0000000000E+00   0.0000000000E+00   0.9709362347E+00   0.0000000000E+00   0.0000000000E+00   0.6750000000E-03   0.0000000000E+00   0.0000000000E+00  -0.2973876532E-01  -0.4375000006E+01  -0.2884248095E-14  -0.4650641037E-14  -0.2326876955E-16  -0.3727995215E-15  -0.1506561793E-15   0.5462753072E-01  -0.2906376536E-01  -0.2906376536E-01   0.4624748423E-17   0.5672227718E-16  -0.1023680318E-16   0.4375000006E+01
   0.1054627531E+01   0.0000000000E+00   0.9709362347E+00  -0.2250000000E-02   0.0000000000E+00   0.6750000000E-03   0.5687753064E-01   0.0000000000E+00  -0.2973876532E-01  -0.4375000006E+01  -0.4930880451E-15  -0.2157354469E-14  -0.7457732089E-15   0.8386221223E-15  -0.5119468652E-15   0.5462753072E-01  -0.2906376536E-01  -0.2906376536E-01   0.4117490307E-17   0.9552472151E-16  -0.5160461257E-16   0.4375000006E+01
   0.1054627531E+01   0.9709362347E+00   0.9709362347E+00  -0.2250000000E-02   0.6750000000E-03   0.6750000000E-03   0.5687753064E-01  -0.2973876532E-01  -0.2973876532E-01  -0.4375000006E+01  -0.9411628756E-15   0.5278895946E-15  -0.8438887218E-15  -0.1002871333E-15   0.4798651007E-15   0.5462753071E-01  -0.2906376536E-01  -0.2906376536E-01   0.1309679544E-17   0.1608444123E-15   0.5156390277E-16   0.4375000006E+01
   0.0000000000E+00   0.9709362347E+00   0.9709362347E+00   0.0000000000E+00   0.6750000000E-03   0.6750000000E-03   0.0000000000E+00  -0.2973876532E-01  -0.2973876532E-01  -0.4375000006E+01   0.2332588201E-14   0.4983368245E-15   0.6241204002E-15  -0.8197305648E-15   0.4917371446E-15   0.5462753072E-01  -0.2906376536E-01  -0.2906376536E-01   0.5162064450E-17  -0.1398535243E-16   0.5006719089E-16   0.4375000006E+01
   0.2109255061E+01   0.0000000000E+00   0.6040495434E-16  -0.4500000000E-02   0.0000000000E+00  -0.3117382734E-17   0.1137550613E+00   0.0000000000E+00   0.6352233707E-16  -0.4375000007E+01  -0.3673894338E-14  -0.1973901323E-14  -0.1048284173E-14  -0.1161636346E-14  -0.9049181201E-15   0.5462753073E-01  -0.2906376537E-01  -0.2906376537E-01  -0.1677515771E-15   0.1366709993E-15  -0.7098077130E-16   0.4375000007E+01
   0.2109255061E+01   0.9709362347E+00   0.2753457806E-16  -0.4500000000E-02   0.6750000000E-03  -0.3212975879E-17   0.1137550613E+00  -0.2973876532E-01   0.3074755394E-16  -0.4375000006E+01   0.7700302157E-14   0.8609723821E-14  -0.1630332212E-14   0.1172131845E-14   0.4597535499E-15   0.5462753072E-01  -0.2906376536E-01  -0.2906376536E-01  -0.1637571564E-15   0.2307648117E-15   0.4878183091E-16   0.4375000006E+01
   0.2109255061E+01   0.0000000000E+00   0.9709362347E+00  -0.4500000000E-02   0.0000000000E+00   0.6750000000E-03   0.1137550613E+00   0.0000000000E+00  -0.2973876532E-01  -0.4375000006E+01   0.7230841090E-14   0.3811070380E-14   0.1372000835E-15  -0.1128057298E-14  -0.5472192098E-15   0.5462753072E-01  -0.2906376536E-01  -0.2906376536E-01   0.7488494031E-16   0.2492838323E-16  -0.2532979545E-16   0.4375000006E+01
   0.2109255061E+01   0.9709362347E+00   0.9709362347E+00  -0.4500000000E-02   0.6750000000E-03   0.6750000000E-03   0.1137550613E+00  -0.2973876532E-01  -0.2973876532E-01  -0.4375000006E+01  -0.7737878397E-14  -0.9616752378E-14   0.9618750058E-15   0.1907456102E-15   0.7236547223E-15   0.5462753071E-01  -0.2906376536E-01  -0.2906376536E-01   0.9668655652E-16   0.3366076909E-15   0.6153458273E-16   0.4375000006E+01
     1     2     3     4     5     6     7     8
     2     9    10     3     6    11    12     7
 VARIABLES = X,Y,Z,DU1,DU2,DU3,U1,U2,U3,S11,S22,S33,S12,S13,S23,E11,E22,E33,E12,E13,E23,SMISES
 ZONE, T="0.3800D+01" F=FEPOINT, I=   12 J=    2 ET=BRICK
   0.0000000000E+00   0.0000000000E+00   0.0000000000E+00   0.0000000000E+00   0.0000000000E+00   0.0000000000E+00   0.0000000000E+00   0.0000000000E+00   0.0000000000E+00  -0.5500000009E+01   0.6999705314E-14   0.7707739471E-14   0.8921258100E-16  -0.6992276374E-15  -0.1393417311E-14   0.5237753073E-01  -0.2838876537E-01  -0.2838876537E-01   0.3205548502E-17  -0.3810111592E-16  -0.8822200937E-16   0.5500000009E+01
   0.1052377531E+01   0.0000000000E+00  -0.7713137998E-18  -0.2250000000E-02   0.0000000000E+00   0.3798044615E-17   0.5462753064E-01   0.0000000000E+00  -0.4569358415E-17  -0.5500000008E+01  -0.8703865113E-15   0.1320701858E-14   0.4328025961E-15   0.7934224243E-15  -0.1484655964E-15   0.5237753072E-01  -0.2838876537E-01  -0.2838876537E-01  -0.5390945933E-16   0.9670105936E-16  -0.2112572250E-16   0.5500000008E+01
   0.1052377531E+01   0.9716112347E+00  -0.7992604364E-17  -0.2250000000E-02   0.6750000000E-03   0.3554871471E-17   0.5462753064E-01  -0.2906376532E-01  -0.1154747583E-16  -0.5500000008E+01   0.6348219179E-16   0.7042442006E-15   0.5270953771E-15  -0.5288393675E-15   0.7823458199E-15   0.5237753072E-01  -0.2838876536E-01  -0.2838876536E-01  -0.4478035576E-16   0.1706317367E-15   0.8259679978E-16   0.5500000008E+01
   0.0000000000E+00   0.9716112347E+00  -0.4007032397E-16   0.0000000000E+00   0.6750000000E-03  -0.4544442875E-18   0.0000000000E+00  -0.2906376532E-01  -0.3961587968E-16  -0.5500000008E+01  -0.2968387170E-14  -0.7983467604E-15  -0.1126311585E-16   0.7768380696E-15   0.6625628695E-15   0.5237753072E-01  -0.2838876536E-01  -0.2838876536E-01   0.5974930015E-17   0.6770799210E-16   0.1725211356E-16   0.5500000008E+01
   0.0000000000E+00   0.0000000000E+00   0.9716112347E+00   0.0000000000E+00   0.0000000000E+00   0.6750000000E-03   0.0000000000E+00   0.0000000000E+00  -0.2906376532E-01  -0.5500000008E+01  -0.3941147999E-14  -0.6013581666E-14  -0.2416294669E-16   0.1959625785E-15  -0.2854596158E-15   0.5237753072E-01  -0.2838876536E-01  -0.2838876536E-01  -0.1291700388E-17   0.6904313281E-16   0.5197016823E-17   0.5500000008E+01
   0.1052377531E+01   0.0000000000E+00   0.9716112347E+00  -0.2250000000E-02   0.0000000000E+00   0.6750000000E-03   0.5462753064E-01   0.0000000000E+00  -0.2906376532E-01  -0.5500000008E+01  -0.2507250155E-15  -0.1931324411E-14  -0.3066461152E-15   0.3182045354E-15  -0.8047062694E-15   0.5237753072E-01  -0.2838876536E-01  -0.2838876536E-01   0.1936237265E-16   0.7305695929E-16  -0.2257119988E-16   0.5500000008E+01
   0.1052377531E+01   0.9716112347E+00   0.9716112347E+00  -0.2250000000E-02   0.6750000000E-03   0.6750000000E-03   0.5462753064E-01  -0.2906376532E-01  -0.2906376532E-01  -0.5500000007E+01  -0.1249925719E-14  -0.2968065281E-15  -0.5066602904E-15  -0.6624850778E-16   0.6063170557E-15   0.5237753071E-01  -0.2838876536E-01  -0.2838876536E-01   0.1576145838E-16   0.1664232335E-15  -0.1381728843E-17   0.5500000007E+01
   0.0000000000E+00   0.9716112347E+00   0.9716112347E+00   0.0000000000E+00   0.6750000000E-03   0.6750000000E-03   0.0000000000E+00  -0.2906376532E-01  -0.2906376532E-01  -0.5500000007E+01   0.2339295852E-14  -0.4611517049E-15   0.5720718769E-15  -0.4474662884E-15   0.7558653943E-15   0.5237753071E-01  -0.2838876536E-01  -0.2838876536E-01  -0.2785966808E-18  -0.4168071205E-17   0.9262121423E-16   0.5500000007E+01
   0.2104755061E+01   0.0000000000E+00   0.7451874434E-16  -0.4500000000E-02   0.0000000000E+00   0.1411379001E-16   0.1092550613E+00   0.0000000000E+00   0.6040495434E-16  -0.5500000008E+01  -0.4499853875E-14  -0.2340168074E-14  -0.7879161100E-15  -0.7189414338E-15  -0.1239181460E-14   0.5237753072E-01  -0.2838876536E-01  -0.2838876536E-01  -0.1562370140E-15   0.2009459194E-15  -0.6547586442E-16   0.5500000008E+01
   0.2104755061E+01   0.9716112347E+00   0.3984331923E-16  -0.4500000000E-02   0.6750000000E-03   0.1230874117E-16   0.1092550613E+00  -0.2906376532E-01   0.2753457806E-16  -0.5500000008E+01   0.7466639496E-14   0.9434953920E-14  -0.1535265904E-14   0.8871350725E-15   0.3818767898E-15   0.5237753072E-01  -0.2838876536E-01  -0.2838876536E-01  -0.1552272839E-15   0.3175790791E-15   0.2350861566E-16   0.5500000008E+01
   0.2104755061E+01   0.0000000000E+00   0.9716112347E+00  -0.4500000000E-02   0.0000000000E+00   0.6750000000E-03   0.1092550613E+00   0.0000000000E+00  -0.2906376532E-01  -0.5500000008E+01   0.7144852195E-14   0.3383848160E-14   0.3801058319E-15  -0.1229088535E-14  -0.6590650999E-15   0.5237753072E-01  -0.2838876536E-01  -0.2838876536E-01   0.8261926307E-16   0.2001327102E-15  -0.3968628154E-16   0.5500000008E+01
   0.2104755061E+01   0.9716112347E+00   0.9716112347E+00  -0.4500000000E-02   0.6750000000E-03   0.6750000000E-03   0.1092550613E+00  -0.2906376532E-01  -0.2906376532E-01  -0.5500000007E+01  -0.7925993704E-14  -0.9396700559E-14   0.9981523971E-15   0.3087385073E-15   0.8307547266E-15   0.5237753071E-01  -0.2838876536E-01  -0.2838876536E-01   0.9034709909E-16   0.3040990837E-15   0.8051752470E-16   0.5500000007E+01
     1     2     3     4     5     6     7     8
     2     9    10     3     6    11    12     7
 VARIABLES = X,Y,Z,DU1,DU2,DU3,U1,U2,U3,S11,S22,S33,S12,S13,S23,E11,E22,E33,E12,E13,E23,SMISES
 ZONE, T="0.3850D+01" F=FEPOINT, I=   12 J=    2 ET=BRICK
   0.0000000000E+00   0.0000000000E+00   0.0000000000E+00   0.0000000000E+00   0.0000000000E+00   0.0000000000E+00   0.0000000000E+00   0.0000000000E+00   0.0000000000E+00  -0.6625000010E+01   0.6710726931E-14   0.7183105770E-14   0.9364946180E-16  -0.6752819964E-15  -0.1686453471E-14   0.5012753072E-01  -0.2771376537E-01  -0.2771376537E-01  -0.1124422625E-16  -0.4166820159E-16  -0.6453416958E-16   0.6625000010E+01
   0.1050127531E+01   0.0000000000E+00  -0.4028040676E-18  -0.2250000000E-02   0.0000000000E+00   0.3685097321E-18   0.5237753064E-01   0.0000000000E+00  -0.7713137998E-18  -0.6625000010E+01  -0.6443563659E-15   0.1563064897E-14  -0.8301278889E-16   0.5905886019E-15  -0.1085277886E-15   0.5012753072E-01  -0.2771376536E-01  -0.2771376536E-01  -0.2736931252E-16   0.1035208493E-15  -0.2018864381E-16   0.6625000010E+01
   0.1050127531E+01   0.9722862347E+00  -0.7343161245E-17  -0.2250000000E-02   0.6750000000E-03   0.6494431187E-18   0.5237753064E-01  -0.2838876532E-01  -0.7992604364E-17  -0.6625000009E+01  -0.8127395179E-16   0.1139401160E-15   0.3358136899E-15  -0.4972398010E-15   0.9814873415E-15   0.5012753071E-01  -0.2771376536E-01  -0.2771376536E-01  -0.3637843001E-16   0.1234665748E-15   0.9080605767E-16   0.6625000009E+01
   0.0000000000E+00   0.9722862347E+00  -0.4166120007E-16   0.0000000000E+00   0.6750000000E-03  -0.1590876101E-17   0.0000000000E+00  -0.2838876532E-01  -0.4007032397E-16  -0.6625000010E+01  -0.3604238650E-14  -0.2405132011E-15   0.2620845452E-16   0.1224683064E-14   0.5032863896E-15   0.5012753072E-01  -0.2771376536E-01  -0.2771376536E-01  -0.6265800999E-17   0.6997347776E-16  -0.2796152558E-16   0.6625000010E+01
   0.0000000000E+00   0.0000000000E+00   0.9722862347E+00   0.0000000000E+00   0.0000000000E+00   0.6750000000E-03   0.0000000000E+00   0.0000000000E+00  -0.2838876532E-01  -0.6625000010E+01  -0.4035303374E-14  -0.5779385148E-14  -0.3334278829E-16   0.2040221078E-15  -0.1858328007E-15   0.5012753072E-01  -0.2771376536E-01  -0.2771376536E-01   0.1767148553E-17   0.5468838885E-16  -0.1169255241E-16   0.6625000010E+01
   0.1050127531E+01   0.0000000000E+00   0.9722862347E+00  -0.2250000000E-02   0.0000000000E+00   0.6750000000E-03   0.5237753064E-01   0.0000000000E+00  -0.2838876532E-01  -0.6625000009E+01  -0.3250958574E-15  -0.2784310051E-14  -0.6754749500E-15   0.1848635201E-15  -0.6103073845E-15   0.5012753071E-01  -0.2771376536E-01  -0.2771376536E-01   0.1747823177E-17   0.1052584139E-15  -0.4220967421E-16   0.6625000009E+01
   0.1050127531E+01   0.9722862347E+00   0.9722862347E+00  -0.2250000000E-02   0.6750000000E-03   0.6750000000E-03   0.5237753064E-01  -0.2838876532E-01  -0.2838876532E-01  -0.6625000009E+01  -0.4281471596E-15   0.8039864811E-15  -0.1019460549E-14  -0.2300822537E-15   0.9254000124E-15   0.5012753071E-01  -0.2771376536E-01  -0.2771376536E-01   0.4249165847E-17   0.1521558959E-15   0.6326661045E-16   0.6625000009E+01
   0.0000000000E+00   0.9722862347E+00   0.9722862347E+00   0.0000000000E+00   0.6750000000E-03   0.6750000000E-03   0.0000000000E+00  -0.2838876532E-01  -0.2838876532E-01  -0.6625000009E+01   0.1630532333E-14  -0.1536911314E-14   0.7005520169E-15  -0.1289961553E-15   0.9435781769E-15   0.5012753071E-01  -0.2771376536E-01  -0.2771376536E-01   0.6099742380E-17  -0.5119168921E-17   0.1152383502E-15   0.6625000009E+01
   0.2100255061E+01   0.0000000000E+00   0.7621116616E-16  -0.4500000000E-02   0.0000000000E+00   0.1692421820E-17   0.1047550613E+00   0.0000000000E+00   0.7451874434E-16  -0.6625000010E+01  -0.1413541105E-14  -0.5754295846E-15  -0.2244351570E-14  -0.2022346019E-14  -0.1207708024E-14   0.5012753072E-01  -0.2771376536E-01  -0.2771376536E-01  -0.1700870358E-15   0.1086482576E-15  -0.6868869905E-16   0.6625000010E+01
   0.2100255061E+01   0.9722862347E+00   0.4163844359E-16  -0.4500000000E-02   0.6750000000E-03   0.1795124355E-17   0.1047550613E+00  -0.2838876532E-01   0.3984331923E-16  -0.6625000009E+01   0.6030787007E-14   0.7363445291E-14  -0.2614852261E-14   0.2042028301E-14  -0.1833573718E-16   0.5012753071E-01  -0.2771376536E-01  -0.2771376536E-01  -0.1585095127E-15   0.3333442789E-15   0.1860269972E-16   0.6625000009E+01
   0.2100255061E+01   0.0000000000E+00   0.9722862347E+00  -0.4500000000E-02   0.0000000000E+00   0.6750000000E-03   0.1047550613E+00   0.0000000000E+00  -0.2838876532E-01  -0.6625000009E+01   0.4641940488E-14   0.1776747175E-14   0.1864876978E-14  -0.2500884517E-14  -0.9211209828E-15   0.5012753071E-01  -0.2771376536E-01  -0.2771376536E-01   0.5095446119E-16   0.1281968595E-15  -0.3715754845E-16   0.6625000009E+01
   0.2100255061E+01   0.9722862347E+00   0.9722862347E+00  -0.4500000000E-02   0.6750000000E-03   0.6750000000E-03   0.1047550613E+00  -0.2838876532E-01  -0.2838876532E-01  -0.6625000008E+01  -0.5226800119E-14  -0.8028511084E-14   0.2478267684E-14   0.1671413967E-14   0.1813531787E-15   0.5012753071E-01  -0.2771376536E-01  -0.2771376536E-01   0.7246664470E-16   0.3284624109E-15   0.4665913230E-16   0.6625000008E+01
     1     2     3     4     5     6     7     8
     2     9    10     3     6    11    12     7
 VARIABLES = X,Y,Z,DU1,DU2,DU3,U1,U2,U3,S11,S22,S33,S12,S13,S23,E11,E22,E33,E12,E13,E23,SMISES
 ZONE, T="0.3900D+01" F=FEPOINT, I=   12 J=    2 ET=BRICK
   0.0000000000E+00   0.0000000000E+00   0.0000000000E+00   0.0000000000E+00   0.0000000000E+00   0.0000000000E+00   0.0000000000E+00   0.0000000000E+00   0.0000000000E+00  -0.7749969524E+01  -0.1524422707E-04  -0.1524422707E-04   0.9450973903E-16  -0.8374039619E-15  -0.1161842204E-14   0.4347344865E-01  -0.2483672433E-01  -0.2483672433E-01  -0.1029315431E-17  -0.6388950659E-16  -0.9356598738E-16   0.7749954279E+01
   0.1043473449E+01   0.0000000000E+00  -0.4276025231E-17  -0.6654082061E-02   0.0000000000E+00  -0.3873221164E-17   0.5012753064E-01   0.0000000000E+00  -0.4028040676E-18  -0.7749969523E+01  -0.1524422708E-04  -0.1524422708E-04  -0.2856025250E-15   0.7340428856E-16   0.1098163206E-15   0.4347344865E-01  -0.2483672433E-01  -0.2483672433E-01  -0.4688915617E-16   0.1417506779E-15  -0.1232523763E-16   0.7749954279E+01
   0.1043473449E+01   0.9751632757E+00  -0.9647840494E-17  -0.6654082061E-02   0.2877041031E-02  -0.2304679249E-17   0.5012753064E-01  -0.2771376532E-01  -0.7343161245E-17  -0.7749969523E+01  -0.1524422708E-04  -0.1524422708E-04   0.4005726213E-15  -0.7199981258E-15   0.4445703800E-15   0.4347344864E-01  -0.2483672433E-01  -0.2483672433E-01  -0.4157289171E-16   0.1292436182E-15   0.7840011031E-16   0.7749954278E+01
   0.0000000000E+00   0.9751632757E+00  -0.4001637180E-16   0.0000000000E+00   0.2877041031E-02   0.1644828273E-17   0.0000000000E+00  -0.2771376532E-01  -0.4166120007E-16  -0.7749969523E+01  -0.1524422708E-04  -0.1524422708E-04   0.5238369365E-15   0.5697429963E-15   0.1160794693E-15   0.4347344865E-01  -0.2483672433E-01  -0.2483672433E-01  -0.2284068312E-17   0.5555582356E-16   0.3114319937E-16   0.7749954279E+01
   0.0000000000E+00   0.0000000000E+00   0.9751632757E+00   0.0000000000E+00   0.0000000000E+00   0.2877041031E-02   0.0000000000E+00   0.0000000000E+00  -0.2771376532E-01  -0.7749969523E+01  -0.1524422708E-04  -0.1524422708E-04  -0.2034196569E-16   0.2026253606E-15   0.2845740827E-15   0.4347344865E-01  -0.2483672433E-01  -0.2483672433E-01   0.2785427541E-17   0.4382505088E-16   0.7429561412E-17   0.7749954279E+01
   0.1043473449E+01   0.0000000000E+00   0.9751632757E+00  -0.6654082061E-02   0.0000000000E+00   0.2877041031E-02   0.5012753064E-01   0.0000000000E+00  -0.2771376532E-01  -0.7749969523E+01  -0.1524422708E-04  -0.1524422708E-04  -0.8444888234E-15   0.5520214735E-15  -0.2970092417E-15   0.4347344864E-01  -0.2483672433E-01  -0.2483672433E-01  -0.1410405644E-16   0.1324278850E-15  -0.2807335676E-16   0.7749954278E+01
   0.1043473449E+01   0.9751632757E+00   0.9751632757E+00  -0.6654082061E-02   0.2877041031E-02   0.2877041031E-02   0.5012753064E-01  -0.2771376532E-01  -0.2771376532E-01  -0.7749969522E+01  -0.1524422708E-04  -0.1524422707E-04  -0.3192411493E-15   0.3107008692E-15   0.2630189239E-15   0.4347344864E-01  -0.2483672432E-01  -0.2483672432E-01   0.3398711376E-16   0.1566178589E-15   0.5556120317E-16   0.7749954277E+01
   0.0000000000E+00   0.9751632757E+00   0.9751632757E+00   0.0000000000E+00   0.2877041031E-02   0.2877041031E-02   0.0000000000E+00  -0.2771376532E-01  -0.2771376532E-01  -0.7749969522E+01  -0.1524422708E-04  -0.1524422708E-04   0.7043200090E-15  -0.2682803785E-15   0.6711259273E-15   0.4347344864E-01  -0.2483672432E-01  -0.2483672432E-01  -0.1833322757E-16   0.2327323925E-17   0.8687482820E-16   0.7749954278E+01
   0.2086946897E+01   0.0000000000E+00   0.6258683548E-16  -0.1330816412E-01   0.0000000000E+00  -0.1362433068E-16   0.1002550613E+00   0.0000000000E+00   0.7621116616E-16  -0.7749969523E+01  -0.1524422708E-04  -0.1524422708E-04  -0.1222541856E-14  -0.1661972436E-14  -0.4503973059E-15   0.4347344865E-01  -0.2483672433E-01  -0.2483672433E-01  -0.1644758289E-15   0.1426810228E-16  -0.5859721658E-16   0.7749954279E+01
   0.2086946897E+01   0.9751632757E+00   0.3194732177E-16  -0.1330816412E-01   0.2877041031E-02  -0.9691121812E-17   0.1002550613E+00  -0.2771376532E-01   0.4163844359E-16  -0.7749969522E+01  -0.1524422707E-04  -0.1524422707E-04  -0.1381473330E-14   0.1721990997E-14   0.2203459027E-15   0.4347344864E-01  -0.2483672433E-01  -0.2483672433E-01  -0.1334334298E-15   0.3429120293E-15   0.1486247389E-16   0.7749954278E+01
   0.2086946897E+01   0.0000000000E+00   0.9751632757E+00  -0.1330816412E-01   0.0000000000E+00   0.2877041031E-02   0.1002550613E+00   0.0000000000E+00  -0.2771376532E-01  -0.7749969522E+01  -0.1524422708E-04  -0.1524422708E-04   0.7745473788E-15  -0.3106756735E-15  -0.6139627804E-15   0.4347344864E-01  -0.2483672433E-01  -0.2483672433E-01   0.7678822239E-16   0.6339788344E-16  -0.2804952871E-16   0.7749954278E+01
   0.2086946897E+01   0.9751632757E+00   0.9751632757E+00  -0.1330816412E-01   0.2877041031E-02   0.2877041031E-02   0.1002550613E+00  -0.2771376532E-01  -0.2771376532E-01  -0.7749969521E+01  -0.1524422708E-04  -0.1524422708E-04   0.1763570028E-14   0.6721936036E-15   0.1288247279E-15   0.4347344864E-01  -0.2483672432E-01  -0.2483672432E-01   0.8874004065E-16   0.3069493646E-15   0.4663400968E-16   0.7749954277E+01
     1     2     3     4     5     6     7     8
     2     9    10     3     6    11    12     7
 VARIABLES = X,Y,Z,DU1,DU2,DU3,U1,U2,U3,S11,S22,S33,S12,S13,S23,E11,E22,E33,E12,E13,E23,SMISES
 ZONE, T="0.3950D+01" F=FEPOINT, I=   12 J=    2 ET=BRICK
   0.0000000000E+00   0.0000000000E+00   0.0000000000E+00   0.0000000000E+00   0.0000000000E+00   0.0000000000E+00   0.0000000000E+00   0.0000000000E+00   0.0000000000E+00  -0.8875009449E+01   0.4717420530E-05   0.4717420529E-05   0.5936760089E-16  -0.9282999432E-15  -0.6758432453E-15   0.2014492271E-01  -0.1362246136E-01  -0.1362246136E-01  -0.3252314281E-17  -0.5479052628E-16  -0.7909710596E-16   0.8875014166E+01
   0.1020144923E+01   0.0000000000E+00  -0.1355677059E-16  -0.2332852591E-01   0.0000000000E+00  -0.9280745363E-17   0.4347344858E-01   0.0000000000E+00  -0.4276025231E-17  -0.8875009449E+01   0.4717420523E-05   0.4717420523E-05   0.8604426615E-15   0.7575054799E-15   0.6680656486E-15   0.2014492271E-01  -0.1362246136E-01  -0.1362246136E-01  -0.1595786627E-16   0.1328036435E-15   0.1306939611E-17   0.8875014166E+01
   0.1020144923E+01   0.9863775387E+00  -0.1087414218E-16  -0.2332852591E-01   0.1121426295E-01  -0.1226301682E-17   0.4347344858E-01  -0.2483672429E-01  -0.9647840494E-17  -0.8875009447E+01   0.4717420528E-05   0.4717420526E-05   0.4423542060E-15   0.2456337663E-15  -0.5273677589E-15   0.2014492270E-01  -0.1362246136E-01  -0.1362246136E-01  -0.1131502235E-16   0.1814415840E-15   0.4849911956E-16   0.8875014165E+01
   0.0000000000E+00   0.9863775387E+00  -0.3739866392E-16   0.0000000000E+00   0.1121426295E-01   0.2617707884E-17   0.0000000000E+00  -0.2483672429E-01  -0.4001637180E-16  -0.8875009448E+01   0.4717420525E-05   0.4717420527E-05   0.6364971086E-15   0.5048153439E-15  -0.2522594314E-15   0.2014492270E-01  -0.1362246136E-01  -0.1362246136E-01  -0.4577550554E-17   0.4251223620E-16   0.2383273741E-16   0.8875014165E+01
   0.0000000000E+00   0.0000000000E+00   0.9863775387E+00   0.0000000000E+00   0.0000000000E+00   0.1121426295E-01   0.0000000000E+00   0.0000000000E+00  -0.2483672429E-01  -0.8875009448E+01   0.4717420526E-05   0.4717420525E-05  -0.7063661853E-16  -0.2610654940E-15   0.6949449258E-15   0.2014492270E-01  -0.1362246136E-01  -0.1362246136E-01   0.3037653800E-17   0.3231142574E-16   0.1464975712E-16   0.8875014165E+01
   0.1020144923E+01   0.0000000000E+00   0.9863775387E+00  -0.2332852591E-01   0.0000000000E+00   0.1121426295E-01   0.4347344858E-01   0.0000000000E+00  -0.2483672429E-01  -0.8875009447E+01   0.4717420530E-05   0.4717420530E-05  -0.1044132099E-14   0.6605251025E-15   0.3188108947E-16   0.2014492270E-01  -0.1362246136E-01  -0.1362246136E-01  -0.3724316557E-16   0.1379803872E-15  -0.3983400078E-16   0.8875014165E+01
   0.1020144923E+01   0.9863775387E+00   0.9863775387E+00  -0.2332852591E-01   0.1121426295E-01   0.1121426295E-01   0.4347344858E-01  -0.2483672429E-01  -0.2483672429E-01  -0.8875009446E+01   0.4717420529E-05   0.4717420530E-05  -0.1154042651E-14  -0.1199628487E-14  -0.9718707440E-15   0.2014492270E-01  -0.1362246135E-01  -0.1362246135E-01  -0.3163001950E-16   0.1008826387E-15   0.6603329932E-16   0.8875014164E+01
   0.0000000000E+00   0.9863775387E+00   0.9863775387E+00   0.0000000000E+00   0.1121426295E-01   0.1121426295E-01   0.0000000000E+00  -0.2483672429E-01  -0.2483672429E-01  -0.8875009447E+01   0.4717420526E-05   0.4717420526E-05  -0.6351010317E-15  -0.1297720562E-14   0.5376207823E-15   0.2014492270E-01  -0.1362246136E-01  -0.1362246136E-01  -0.2092851037E-16  -0.2601208027E-16   0.6947033771E-16   0.8875014164E+01
   0.2040289845E+01   0.0000000000E+00   0.1842030694E-16  -0.4665705182E-01   0.0000000000E+00  -0.4416652854E-16   0.8694689716E-01   0.0000000000E+00   0.6258683548E-16  -0.8875009448E+01   0.4717420528E-05   0.4717420528E-05   0.9671697875E-15   0.1603593227E-16   0.1044396452E-14   0.2014492270E-01  -0.1362246136E-01  -0.1362246136E-01  -0.1215422831E-15   0.9593908937E-16  -0.3247531428E-16   0.8875014166E+01
   0.2040289845E+01   0.9863775387E+00   0.3856521594E-17  -0.4665705182E-01   0.1121426295E-01  -0.2809080018E-16   0.8694689716E-01  -0.2483672429E-01   0.3194732177E-16  -0.8875009447E+01   0.4717420532E-05   0.4717420531E-05  -0.3938097898E-16   0.9308807117E-15   0.3405432102E-15   0.2014492270E-01  -0.1362246136E-01  -0.1362246136E-01  -0.1095323263E-15   0.2916632277E-15   0.3144347930E-16   0.8875014165E+01
   0.2040289845E+01   0.0000000000E+00   0.9863775387E+00  -0.4665705182E-01   0.0000000000E+00   0.1121426295E-01   0.8694689716E-01   0.0000000000E+00  -0.2483672429E-01  -0.8875009447E+01   0.4717420525E-05   0.4717420527E-05   0.4686701873E-15   0.2809546678E-15   0.7062023514E-16   0.2014492270E-01  -0.1362246136E-01  -0.1362246136E-01   0.9770987781E-16   0.1108582514E-15  -0.1092816292E-16   0.8875014165E+01
   0.2040289845E+01   0.9863775387E+00   0.9863775387E+00  -0.4665705182E-01   0.1121426295E-01   0.1121426295E-01   0.8694689716E-01  -0.2483672429E-01  -0.2483672429E-01  -0.8875009446E+01   0.4717420527E-05   0.4717420528E-05   0.7989510656E-15   0.1080149643E-14  -0.3507772512E-15   0.2014492270E-01  -0.1362246135E-01  -0.1362246135E-01   0.1061329743E-15   0.3741157218E-15   0.3253874363E-16   0.8875014164E+01
     1     2     3     4     5     6     7     8
     2     9    10     3     6    11    12     7
 VARIABLES = X,Y,Z,DU1,DU2,DU3,U1,U2,U3,S11,S22,S33,S12,S13,S23,E11,E22,E33,E12,E13,E23,SMISES
 ZONE, T="0.4000D+01" F=FEPOINT, I=   12 J=    2 ET=BRICK
   0.0000000000E+00   0.0000000000E+00   0.0000000000E+00   0.0000000000E+00   0.0000000000E+00   0.0000000000E+00   0.0000000000E+00   0.0000000000E+00   0.0000000000E+00  -0.1000000550E+02   0.2740786202E-05   0.2740786200E-05   0.1188138480E-15  -0.1357308341E-14   0.5007844270E-16  -0.4604959567E-02  -0.1697520223E-02  -0.1697520223E-02   0.1240243787E-17  -0.6701789101E-16  -0.6869108597E-16   0.1000000824E+02
   0.9953950404E+00   0.0000000000E+00  -0.2356577683E-16  -0.2474988223E-01   0.0000000000E+00  -0.1000900624E-16   0.2014492267E-01   0.0000000000E+00  -0.1355677059E-16  -0.1000000550E+02   0.2740786188E-05   0.2740786186E-05  -0.8571681598E-15  -0.5776211880E-15   0.9630074322E-15  -0.4604959567E-02  -0.1697520223E-02  -0.1697520223E-02  -0.4622242544E-16   0.1020015417E-15   0.2165822801E-16   0.1000000824E+02
   0.9953950404E+00   0.9983024798E+00  -0.1309943768E-16  -0.2474988223E-01   0.1192494112E-01  -0.2225295508E-17   0.2014492267E-01  -0.1362246134E-01  -0.1087414218E-16  -0.1000000550E+02   0.2740786192E-05   0.2740786190E-05  -0.6647340784E-15   0.4653233297E-15  -0.7521664841E-15  -0.4604959567E-02  -0.1697520222E-02  -0.1697520222E-02  -0.3301913119E-16   0.1664947961E-15   0.4060701677E-16   0.1000000824E+02
   0.0000000000E+00   0.9983024798E+00  -0.3219517744E-16   0.0000000000E+00   0.1192494112E-01   0.5203486473E-17   0.0000000000E+00  -0.1362246134E-01  -0.3739866392E-16  -0.1000000550E+02   0.2740786184E-05   0.2740786184E-05   0.6345400908E-15   0.2145545767E-15  -0.1023721011E-14  -0.4604959567E-02  -0.1697520222E-02  -0.1697520222E-02   0.1964588881E-17   0.4347099295E-16  -0.6750721767E-18   0.1000000824E+02
   0.0000000000E+00   0.0000000000E+00   0.9983024798E+00   0.0000000000E+00   0.0000000000E+00   0.1192494112E-01   0.0000000000E+00   0.0000000000E+00  -0.1362246134E-01  -0.1000000550E+02   0.2740786186E-05   0.2740786184E-05  -0.7090570578E-16   0.7145577965E-15   0.1264938074E-14  -0.4604959567E-02  -0.1697520222E-02  -0.1697520222E-02  -0.1550446508E-17   0.4933291044E-16   0.5122557025E-16   0.1000000824E+02
   0.9953950404E+00   0.0000000000E+00   0.9983024798E+00  -0.2474988223E-01   0.0000000000E+00   0.1192494112E-01   0.2014492267E-01   0.0000000000E+00  -0.1362246134E-01  -0.1000000550E+02   0.2740786192E-05   0.2740786194E-05   0.4362511055E-16  -0.2415158484E-15   0.1701451829E-15  -0.4604959567E-02  -0.1697520222E-02  -0.1697520222E-02  -0.1360747958E-16   0.1435286304E-15  -0.2868154828E-16   0.1000000824E+02
   0.9953950404E+00   0.9983024798E+00   0.9983024798E+00  -0.2474988223E-01   0.1192494112E-01   0.1192494112E-01   0.2014492267E-01  -0.1362246134E-01  -0.1362246134E-01  -0.1000000549E+02   0.2740786192E-05   0.2740786193E-05   0.4623985146E-15   0.6688825074E-15  -0.1153559718E-14  -0.4604959566E-02  -0.1697520222E-02  -0.1697520222E-02  -0.1789033383E-16   0.1204868919E-15   0.1021467500E-16   0.1000000824E+02
   0.0000000000E+00   0.9983024798E+00   0.9983024798E+00   0.0000000000E+00   0.1192494112E-01   0.1192494112E-01   0.0000000000E+00  -0.1362246134E-01  -0.1362246134E-01  -0.1000000549E+02   0.2740786197E-05   0.2740786199E-05  -0.1243124308E-15  -0.1160413954E-14   0.4702021331E-15  -0.4604959566E-02  -0.1697520222E-02  -0.1697520222E-02  -0.1020222190E-16  -0.2338362064E-16   0.7355071180E-16   0.1000000824E+02
   0.1990790081E+01   0.0000000000E+00  -0.5385989582E-17  -0.4949976447E-01   0.0000000000E+00  -0.2380629652E-16   0.4028984535E-01   0.0000000000E+00   0.1842030694E-16  -0.1000000550E+02   0.2740786183E-05   0.2740786183E-05  -0.2290779963E-15   0.3697001865E-15   0.7182529856E-15  -0.4604959567E-02  -0.1697520222E-02  -0.1697520222E-02  -0.1256646217E-15   0.1601268443E-15  -0.2188835184E-16   0.1000000824E+02
   0.1990790081E+01   0.9983024798E+00  -0.1815788994E-16  -0.4949976447E-01   0.1192494112E-01  -0.2201441153E-16   0.4028984535E-01  -0.1362246134E-01   0.3856521594E-17  -0.1000000550E+02   0.2740786199E-05   0.2740786196E-05  -0.8132872509E-15   0.1154672712E-15  -0.1837850735E-15  -0.4604959567E-02  -0.1697520222E-02  -0.1697520222E-02  -0.1354682948E-15   0.3155095776E-15   0.1520997163E-16   0.1000000824E+02
   0.1990790081E+01   0.0000000000E+00   0.9983024798E+00  -0.4949976447E-01   0.0000000000E+00   0.1192494112E-01   0.4028984535E-01   0.0000000000E+00  -0.1362246134E-01  -0.1000000550E+02   0.2740786196E-05   0.2740786197E-05  -0.4373750094E-15   0.1316142968E-14  -0.3102024021E-15  -0.4604959567E-02  -0.1697520222E-02  -0.1697520222E-02   0.7860764244E-16   0.9718189967E-16  -0.1762218143E-16   0.1000000824E+02
   0.1990790081E+01   0.9983024798E+00   0.9983024798E+00  -0.4949976447E-01   0.1192494112E-01   0.1192494112E-01   0.4028984535E-01  -0.1362246134E-01  -0.1362246134E-01  -0.1000000549E+02   0.2740786184E-05   0.2740786183E-05   0.1056452775E-14  -0.3316555575E-15  -0.1347524056E-15  -0.4604959566E-02  -0.1697520222E-02  -0.1697520222E-02   0.1310931772E-15   0.3609795393E-15   0.3633100574E-16   0.1000000824E+02
     1     2     3     4     5     6     7     8
     2     9    10     3     6    11    12     7
 VARIABLES = X,Y,Z,DU1,DU2,DU3,U1,U2,U3,S11,S22,S33,S12,S13,S23,E11,E22,E33,E12,E13,E23,SMISES
 ZONE, T="0.4050D+01" F=FEPOINT, I=   12 J=    2 ET=BRICK
   0.0000000000E+00   0.0000000000E+00   0.0000000000E+00   0.0000000000E+00   0.0000000000E+00   0.0000000000E+00   0.0000000000E+00   0.0000000000E+00   0.0000000000E+00  -0.8875000014E+01   0.8576718763E-14   0.5392265192E-14   0.1321949517E-15  -0.1510476939E-14  -0.4624920189E-14  -0.2354945312E-02  -0.2372527350E-02  -0.2372527350E-02  -0.4392040975E-18  -0.7063724110E-16  -0.1133071917E-15   0.8875000014E+01
   0.9976450547E+00   0.0000000000E+00  -0.8849044308E-17   0.2250014252E-02   0.0000000000E+00   0.1471673253E-16  -0.4604959560E-02   0.0000000000E+00  -0.2356577683E-16  -0.8875000014E+01  -0.7463188501E-14   0.1522427990E-14  -0.2213437297E-14  -0.3123277578E-14   0.2553004686E-15  -0.2354945312E-02  -0.2372527350E-02  -0.2372527350E-02  -0.6122102371E-16   0.7477109496E-16   0.1414807914E-16   0.8875000014E+01
   0.9976450547E+00   0.9976274727E+00  -0.2041853680E-17   0.2250014252E-02  -0.6750071260E-03   0.1105758400E-16  -0.4604959560E-02  -0.1697520220E-02  -0.1309943768E-16  -0.8875000013E+01  -0.1242147220E-13  -0.4998138825E-14  -0.6599134592E-15  -0.1620842041E-14   0.5567985749E-14  -0.2354945311E-02  -0.2372527349E-02  -0.2372527349E-02  -0.4417174187E-16   0.1292366672E-15   0.1131387450E-15   0.8875000013E+01
   0.0000000000E+00   0.9976274727E+00  -0.5654170588E-16   0.0000000000E+00  -0.6750071260E-03  -0.2434652844E-16   0.0000000000E+00  -0.1697520220E-02  -0.3219517744E-16  -0.8875000013E+01  -0.3438096750E-14   0.1194414396E-14  -0.3041081691E-14   0.5124323313E-14  -0.3394724115E-14  -0.2354945312E-02  -0.2372527349E-02  -0.2372527349E-02  -0.2944756515E-16   0.1025304535E-15  -0.4274899193E-16   0.8875000013E+01
   0.0000000000E+00   0.0000000000E+00   0.9976274727E+00   0.0000000000E+00   0.0000000000E+00  -0.6750071260E-03   0.0000000000E+00   0.0000000000E+00  -0.1697520220E-02  -0.8875000013E+01  -0.1619263525E-13  -0.2348249186E-13  -0.5847834950E-16   0.5619639847E-14  -0.5560651885E-16  -0.2354945312E-02  -0.2372527349E-02  -0.2372527349E-02  -0.5997069621E-19   0.1038520013E-15   0.3109768460E-16   0.8875000013E+01
   0.9976450547E+00   0.0000000000E+00   0.9976274727E+00   0.2250014252E-02   0.0000000000E+00  -0.6750071260E-03  -0.4604959560E-02   0.0000000000E+00  -0.1697520220E-02  -0.8875000013E+01   0.1941821745E-14   0.1879407541E-14  -0.2650849481E-14  -0.3468670484E-15  -0.1497366391E-14  -0.2354945311E-02  -0.2372527349E-02  -0.2372527349E-02  -0.4145038296E-16   0.1322547238E-15  -0.4221195595E-16   0.8875000013E+01
   0.9976450547E+00   0.9976274727E+00   0.9976274727E+00   0.2250014252E-02  -0.6750071260E-03  -0.6750071260E-03  -0.4604959560E-02  -0.1697520220E-02  -0.1697520220E-02  -0.8875000012E+01   0.3579543465E-14  -0.1088867461E-15  -0.1374485370E-14  -0.1513690141E-14   0.4139919054E-14  -0.2354945311E-02  -0.2372527349E-02  -0.2372527349E-02  -0.2449961727E-16   0.1161409681E-15   0.5975292792E-16   0.8875000012E+01
   0.0000000000E+00   0.9976274727E+00   0.9976274727E+00   0.0000000000E+00  -0.6750071260E-03  -0.6750071260E-03   0.0000000000E+00  -0.1697520220E-02  -0.1697520220E-02  -0.8875000012E+01  -0.7132648865E-14  -0.4419896953E-14   0.3473994478E-14   0.3606479669E-14   0.1519227389E-14  -0.2354945311E-02  -0.2372527349E-02  -0.2372527349E-02   0.1712406485E-16   0.1266455036E-16   0.9999528417E-16   0.8875000012E+01
   0.1995290109E+01   0.0000000000E+00   0.8675902615E-16   0.4500028504E-02   0.0000000000E+00   0.9214501573E-16  -0.9209919120E-02   0.0000000000E+00  -0.5385989582E-17  -0.8875000013E+01   0.3582070525E-14   0.5927736068E-14  -0.9576860590E-14  -0.5683298622E-14  -0.4978908228E-15  -0.2354945312E-02  -0.2372527350E-02  -0.2372527350E-02  -0.2215673630E-15   0.1181380486E-15  -0.3829101858E-16   0.8875000013E+01
   0.1995290109E+01   0.9976274727E+00   0.6757875975E-16   0.4500028504E-02  -0.6750071260E-03   0.8573664969E-16  -0.9209919120E-02  -0.1697520220E-02  -0.1815788994E-16  -0.8875000012E+01   0.1552852863E-14  -0.5123388691E-15  -0.3749865517E-14   0.4297552984E-14  -0.1052955778E-15  -0.2354945311E-02  -0.2372527349E-02  -0.2372527349E-02  -0.1521130104E-15   0.3369282108E-15   0.2842245450E-16   0.8875000012E+01
   0.1995290109E+01   0.0000000000E+00   0.9976274727E+00   0.4500028504E-02   0.0000000000E+00  -0.6750071260E-03  -0.9209919120E-02   0.0000000000E+00  -0.1697520220E-02  -0.8875000012E+01   0.1733688860E-14   0.1948439458E-14   0.2314604335E-14  -0.5154270537E-14  -0.2996110749E-14  -0.2354945311E-02  -0.2372527349E-02  -0.2372527349E-02   0.9854337745E-16   0.5915394199E-16  -0.4455989338E-16   0.8875000012E+01
   0.1995290109E+01   0.9976274727E+00   0.9976274727E+00   0.4500028504E-02  -0.6750071260E-03  -0.6750071260E-03  -0.9209919120E-02  -0.1697520220E-02  -0.1697520220E-02  -0.8875000011E+01  -0.1255655740E-14  -0.4842207873E-14   0.1660161183E-14   0.3973828548E-14  -0.1407047826E-14  -0.2354945311E-02  -0.2372527349E-02  -0.2372527349E-02   0.1127352575E-15   0.3970561769E-15   0.1941073167E-16   0.8875000011E+01
     1     2     3     4     5     6     7     8
     2     9    10     3     6    11    12     7
 VARIABLES = X,Y,Z,DU1,DU2,DU3,U1,U2,U3,S11,S22,S33,S12,S13,S23,E11,E22,E33,E12,E13,E23,SMISES
 ZONE, T="0.4100D+01" F=FEPOINT, I=   12 J=    2 ET=BRICK
   0.0000000000E+00   0.0000000000E+00   0.0000000000E+00   0.0000000000E+00   0.0000000000E+00   0.0000000000E+00   0.0000000000E+00   0.0000000000E+00   0.0000000000E+00  -0.7750000012E+01   0.8018299361E-14   0.7846321461E-14   0.1029935181E-15  -0.1890369128E-14  -0.1177143242E-15  -0.1049453083E-03  -0.3047527351E-02  -0.3047527351E-02  -0.3200880796E-18  -0.7364058921E-16  -0.6738953788E-16   0.7750000012E+01
   0.9998950547E+00   0.0000000000E+00  -0.2539222004E-16   0.2250000000E-02   0.0000000000E+00  -0.1654317574E-16  -0.2354945308E-02   0.0000000000E+00  -0.8849044308E-17  -0.7750000012E+01  -0.2789363448E-14  -0.4124548459E-14   0.1724222591E-15   0.4734650810E-15   0.9706395322E-15  -0.1049453083E-03  -0.3047527351E-02  -0.3047527351E-02  -0.3782088792E-16   0.1089218543E-15   0.2124321367E-16   0.7750000012E+01
   0.9998950547E+00   0.9969524727E+00  -0.1483741087E-16   0.2250000000E-02  -0.6750000000E-03  -0.1279555720E-16  -0.2354945308E-02  -0.2372527346E-02  -0.2041853680E-17  -0.7750000011E+01  -0.1494815404E-14  -0.2009289961E-14   0.4897398189E-15  -0.2831679023E-15  -0.1282797635E-15  -0.1049453082E-03  -0.3047527350E-02  -0.3047527350E-02  -0.3145121228E-16   0.1464127094E-15   0.5523479317E-16   0.7750000011E+01
   0.0000000000E+00   0.9969524727E+00  -0.3323669860E-16   0.0000000000E+00  -0.6750000000E-03   0.2330500729E-16   0.0000000000E+00  -0.2372527346E-02  -0.5654170588E-16  -0.7750000011E+01  -0.6147644357E-14  -0.7306866112E-14   0.2682197558E-15   0.1210457925E-15  -0.1015288697E-14  -0.1049453082E-03  -0.3047527350E-02  -0.3047527350E-02   0.4506229180E-17   0.4855832056E-16  -0.1854107403E-16   0.7750000011E+01
   0.0000000000E+00   0.0000000000E+00   0.9969524727E+00   0.0000000000E+00   0.0000000000E+00  -0.6750000000E-03   0.0000000000E+00   0.0000000000E+00  -0.2372527346E-02  -0.7750000011E+01  -0.4890815516E-14  -0.6280052796E-14  -0.3783510427E-16   0.1192825714E-15   0.6489392855E-15  -0.1049453082E-03  -0.3047527350E-02  -0.3047527350E-02   0.4110385902E-18   0.4734961438E-16   0.4149861019E-16   0.7750000011E+01
   0.9998950547E+00   0.0000000000E+00   0.9969524727E+00   0.2250000000E-02   0.0000000000E+00  -0.6750000000E-03  -0.2354945308E-02   0.0000000000E+00  -0.2372527346E-02  -0.7750000011E+01   0.6066370463E-15   0.3347392466E-14  -0.6056493852E-15   0.7217351405E-15   0.1933051083E-15  -0.1049453082E-03  -0.3047527350E-02  -0.3047527350E-02  -0.2041037275E-16   0.1421253785E-15  -0.2372048684E-16   0.7750000011E+01
   0.9998950547E+00   0.9969524727E+00   0.9969524727E+00   0.2250000000E-02  -0.6750000000E-03  -0.6750000000E-03  -0.2354945308E-02  -0.2372527346E-02  -0.2372527346E-02  -0.7750000010E+01   0.2745808884E-14   0.3089764512E-14  -0.2053423722E-15   0.2097328820E-15  -0.5548178295E-15  -0.1049453082E-03  -0.3047527350E-02  -0.3047527350E-02  -0.1142767556E-16   0.1325532886E-15   0.8979804451E-17   0.7750000010E+01
   0.0000000000E+00   0.9969524727E+00   0.9969524727E+00   0.0000000000E+00  -0.6750000000E-03  -0.6750000000E-03   0.0000000000E+00  -0.2372527346E-02  -0.2372527346E-02  -0.7750000010E+01   0.4893733356E-14   0.6855873938E-14   0.2006255982E-15  -0.9903291675E-15   0.2210112992E-15  -0.1049453082E-03  -0.3047527350E-02  -0.3047527350E-02  -0.1731597197E-16  -0.3360335725E-16   0.8612808504E-16   0.7750000010E+01
   0.1999790109E+01   0.0000000000E+00  -0.6024425193E-17   0.4500000000E-02   0.0000000000E+00  -0.9278345134E-16  -0.4709890616E-02   0.0000000000E+00   0.8675902615E-16  -0.7750000012E+01  -0.3295866784E-14  -0.3589755586E-14  -0.2300469317E-14  -0.1240635119E-14   0.4033229342E-15  -0.1049453083E-03  -0.3047527351E-02  -0.3047527351E-02  -0.1464709989E-15   0.1648343667E-15  -0.2837161410E-16   0.7750000012E+01
   0.1999790109E+01   0.9969524727E+00  -0.2059681621E-16   0.4500000000E-02  -0.6750000000E-03  -0.8817557596E-16  -0.4709890616E-02  -0.2372527346E-02   0.6757875975E-16  -0.7750000011E+01   0.5822548585E-14   0.4386838921E-14  -0.2186350253E-14   0.1135019338E-14  -0.6496535535E-15  -0.1049453082E-03  -0.3047527350E-02  -0.3047527350E-02  -0.1374669739E-15   0.3078211371E-15   0.2046261953E-16   0.7750000011E+01
   0.1999790109E+01   0.0000000000E+00   0.9969524727E+00   0.4500000000E-02   0.0000000000E+00  -0.6750000000E-03  -0.4709890616E-02   0.0000000000E+00  -0.2372527346E-02  -0.7750000011E+01   0.3439554916E-14   0.3415251004E-14   0.8335337312E-15  -0.2882467031E-15  -0.3523373262E-15  -0.1049453082E-03  -0.3047527350E-02  -0.3047527350E-02   0.8102022757E-16   0.1088766860E-15  -0.1904841487E-16   0.7750000011E+01
   0.1999790109E+01   0.9969524727E+00   0.9969524727E+00   0.4500000000E-02  -0.6750000000E-03  -0.6750000000E-03  -0.4709890616E-02  -0.2372527346E-02  -0.2372527346E-02  -0.7750000010E+01  -0.5088165298E-14  -0.5490158735E-14   0.1734374110E-14   0.7330808131E-15  -0.1594971768E-15  -0.1049453082E-03  -0.3047527350E-02  -0.3047527350E-02   0.1160078885E-15   0.3619105518E-15   0.3469680693E-16   0.7750000010E+01
     1     2     3     4     5     6     7     8
     2     9    10     3     6    11    12     7
 VARIABLES = X,Y,Z,DU1,DU2,DU3,U1,U2,U3,S11,S22,S33,S12,S13,S23,E11,E22,E33,E12,E13,E23,SMISES
 ZONE, T="0.4150D+01" F=FEPOINT, I=   12 J=    2 ET=BRICK
   0.0000000000E+00   0.0000000000E+00   0.0000000000E+00   0.0000000000E+00   0.0000000000E+00   0.0000000000E+00   0.0000000000E+00   0.0000000000E+00   0.0000000000E+00  -0.6625000010E+01   0.7877528758E-14   0.6951239993E-14   0.9248233452E-16  -0.2084038885E-14   0.2133681984E-15   0.2145054695E-02  -0.3722527352E-02  -0.3722527352E-02  -0.5391936756E-18  -0.7469386402E-16  -0.6334185777E-16   0.6625000010E+01
   0.1002145055E+01   0.0000000000E+00  -0.2786480129E-16   0.2250000000E-02   0.0000000000E+00  -0.2472581245E-17  -0.1049453081E-03   0.0000000000E+00  -0.2539222004E-16  -0.6625000010E+01  -0.2930134052E-14  -0.4538889294E-14   0.5249033164E-15   0.9197997935E-15   0.9956867099E-15   0.2145054695E-02  -0.3722527352E-02  -0.3722527352E-02  -0.3447556092E-16   0.1141049801E-15   0.2085804788E-16   0.6625000010E+01
   0.1002145055E+01   0.9962774727E+00  -0.1716025442E-16   0.2250000000E-02  -0.6750000000E-03  -0.2322843541E-17  -0.1049453081E-03  -0.3047527346E-02  -0.1483741087E-16  -0.6625000009E+01  -0.9694522911E-15  -0.1898267684E-14   0.8550926318E-15  -0.4158947682E-15  -0.5495070895E-15   0.2145054695E-02  -0.3722527351E-02  -0.3722527351E-02  -0.2805201061E-16   0.1421222514E-15   0.5162283019E-16   0.6625000009E+01
   0.0000000000E+00   0.9962774727E+00  -0.3157090842E-16   0.0000000000E+00  -0.6750000000E-03   0.1665790180E-17   0.0000000000E+00  -0.3047527346E-02  -0.3323669860E-16  -0.6625000010E+01  -0.5866103129E-14  -0.7798495438E-14   0.3798508488E-15  -0.5274618145E-15  -0.1104982330E-14   0.2145054695E-02  -0.3722527351E-02  -0.3722527351E-02   0.6328655574E-17   0.4288944817E-16  -0.2074840787E-16   0.6625000010E+01
   0.0000000000E+00   0.0000000000E+00   0.9962774727E+00   0.0000000000E+00   0.0000000000E+00  -0.6750000000E-03   0.0000000000E+00   0.0000000000E+00  -0.3047527346E-02  -0.6625000010E+01  -0.4416978041E-14  -0.5617904612E-14  -0.5618389618E-16  -0.1895900591E-15   0.6864593575E-15   0.2145054695E-02  -0.3722527351E-02  -0.3722527351E-02   0.1433230833E-18   0.4222811565E-16   0.3931531832E-16   0.6625000010E+01
   0.1002145055E+01   0.0000000000E+00   0.9962774727E+00   0.2250000000E-02   0.0000000000E+00  -0.6750000000E-03  -0.1049453081E-03   0.0000000000E+00  -0.3047527346E-02  -0.6625000009E+01   0.7474076498E-15   0.3458414743E-14  -0.8822210112E-15   0.1301452974E-14   0.2960498466E-15   0.2145054695E-02  -0.3722527351E-02  -0.3722527351E-02  -0.2290087968E-16   0.1480304657E-15  -0.2191134303E-16   0.6625000009E+01
   0.1002145055E+01   0.9962774727E+00   0.9962774727E+00   0.2250000000E-02  -0.6750000000E-03  -0.6750000000E-03  -0.1049453081E-03  -0.3047527346E-02  -0.3047527346E-02  -0.6625000009E+01   0.2220445771E-14   0.3060016186E-14  -0.4969358205E-15   0.1237507504E-15  -0.9255268934E-15   0.2145054695E-02  -0.3722527351E-02  -0.3722527351E-02  -0.1463174815E-16   0.1321217021E-15   0.6619638437E-17   0.6625000009E+01
   0.0000000000E+00   0.9962774727E+00   0.9962774727E+00   0.0000000000E+00  -0.6750000000E-03  -0.6750000000E-03   0.0000000000E+00  -0.3047527346E-02  -0.3047527346E-02  -0.6625000009E+01   0.4035303372E-14   0.6256139990E-14   0.2049323502E-15  -0.1308406708E-14  -0.1400701426E-15   0.2145054695E-02  -0.3722527351E-02  -0.3722527351E-02  -0.1767775397E-16  -0.3604858251E-16   0.8409444187E-16   0.6625000009E+01
   0.2004290109E+01   0.0000000000E+00  -0.1696132085E-16   0.4500000000E-02   0.0000000000E+00  -0.1093689566E-16  -0.2098906162E-03   0.0000000000E+00  -0.6024425193E-17  -0.6625000010E+01  -0.3436637387E-14  -0.3523355787E-14  -0.9317284973E-15  -0.7150027583E-15   0.7758662554E-15   0.2145054695E-02  -0.3722527352E-02  -0.3722527352E-02  -0.1311832868E-15   0.1673200800E-15  -0.2513071543E-16   0.6625000010E+01
   0.2004290109E+01   0.9962774727E+00  -0.2970523608E-16   0.4500000000E-02  -0.6750000000E-03  -0.9108419867E-17  -0.2098906162E-03  -0.3047527346E-02  -0.2059681621E-16  -0.6625000009E+01   0.6591733582E-14   0.5100512803E-14  -0.1025834287E-14   0.3885242719E-15  -0.4409862569E-15   0.2145054695E-02  -0.3722527351E-02  -0.3722527351E-02  -0.1253095619E-15   0.3013277042E-15   0.2481153220E-16   0.6625000009E+01
   0.2004290109E+01   0.0000000000E+00   0.9962774727E+00   0.4500000000E-02   0.0000000000E+00  -0.6750000000E-03  -0.2098906162E-03   0.0000000000E+00  -0.3047527346E-02  -0.6625000009E+01   0.3247258649E-14   0.2975147375E-14   0.1566649216E-15   0.8356647397E-15   0.7860191390E-16   0.2145054695E-02  -0.3722527351E-02  -0.3722527351E-02   0.7413712189E-16   0.1230401213E-15  -0.1254855094E-16   0.6625000009E+01
   0.2004290109E+01   0.9962774727E+00   0.9962774727E+00   0.4500000000E-02  -0.6750000000E-03  -0.6750000000E-03  -0.2098906162E-03  -0.3047527346E-02  -0.3047527346E-02  -0.6625000008E+01  -0.5280461539E-14  -0.4949921438E-14   0.1431360379E-14  -0.3083730122E-15   0.2883236988E-15   0.2145054695E-02  -0.3722527351E-02  -0.3722527351E-02   0.1125457733E-15   0.3510419107E-15   0.3802899288E-16   0.6625000008E+01
     1     2     3     4     5     6     7     8
     2     9    10     3     6    11    12     7
 VARIABLES = X,Y,Z,DU1,DU2,DU3,U1,U2,U3,S11,S22,S33,S12,S13,S23,E11,E22,E33,E12,E13,E23,SMISES
 ZONE, T="0.4200D+01" F=FEPOINT, I=   12 J=    2 ET=BRICK
   0.0000000000E+00   0.0000000000E+00   0.0000000000E+00   0.0000000000E+00   0.0000000000E+00   0.0000000000E+00   0.0000000000E+00   0.0000000000E+00   0.0000000000E+00  -0.5500000009E+01   0.9664240042E-14   0.1026543268E-13   0.9338359881E-16  -0.1061091243E-14  -0.3429412517E-15   0.4395054699E-02  -0.4397527353E-02  -0.4397527353E-02  -0.4652486977E-18  -0.6569038401E-16  -0.6962288121E-16   0.5500000009E+01
   0.1004395055E+01   0.0000000000E+00  -0.1985107664E-16   0.2250000000E-02   0.0000000000E+00   0.8013724648E-17   0.2145054692E-02   0.0000000000E+00  -0.2786480129E-16  -0.5500000008E+01  -0.2601052716E-14  -0.3521896883E-14  -0.7559907343E-15  -0.5022340015E-15   0.6193991211E-15   0.4395054699E-02  -0.4397527353E-02  -0.4397527353E-02  -0.4755109147E-16   0.1004218091E-15   0.1648716318E-16   0.5500000008E+01
   0.1004395055E+01   0.9956024727E+00  -0.1108009594E-16   0.2250000000E-02  -0.6750000000E-03   0.6080158474E-17   0.2145054692E-02  -0.3722527346E-02  -0.1716025442E-16  -0.5500000008E+01  -0.1024963421E-14  -0.1143956829E-14  -0.6363871106E-16  -0.2804975692E-15  -0.1140223661E-15   0.4395054698E-02  -0.4397527352E-02  -0.4397527352E-02  -0.3901808240E-16   0.1452013967E-15   0.5258523403E-16   0.5500000008E+01
   0.0000000000E+00   0.9956024727E+00  -0.3443366775E-16   0.0000000000E+00  -0.6750000000E-03  -0.2862759331E-17   0.0000000000E+00  -0.3722527346E-02  -0.3157090842E-16  -0.5500000008E+01  -0.7083896718E-14  -0.7094785266E-14   0.7295699691E-15   0.7401319491E-15  -0.3440674081E-15   0.4395054698E-02  -0.4397527352E-02  -0.4397527352E-02   0.1061021266E-16   0.5672344780E-16  -0.7871457362E-17   0.5500000008E+01
   0.0000000000E+00   0.0000000000E+00   0.9956024727E+00   0.0000000000E+00   0.0000000000E+00  -0.6750000000E-03   0.0000000000E+00   0.0000000000E+00  -0.3722527346E-02  -0.5500000008E+01  -0.5773015559E-14  -0.8077652787E-14  -0.3945838289E-16   0.8814497599E-15   0.3323493647E-15   0.4395054698E-02  -0.4397527352E-02  -0.4397527352E-02   0.6186658167E-18   0.5462465907E-16   0.3278376007E-16   0.5500000008E+01
   0.1004395055E+01   0.0000000000E+00   0.9956024727E+00   0.2250000000E-02   0.0000000000E+00  -0.6750000000E-03   0.2145054692E-02   0.0000000000E+00  -0.3722527346E-02  -0.5500000008E+01   0.2369187093E-15   0.2219377751E-14  -0.5711773519E-15  -0.1620771471E-15  -0.5430250325E-16   0.4395054698E-02  -0.4397527352E-02  -0.4397527352E-02  -0.2062923705E-16   0.1322670774E-15  -0.2311742437E-16   0.5500000008E+01
   0.1004395055E+01   0.9956024727E+00   0.9956024727E+00   0.2250000000E-02  -0.6750000000E-03  -0.6750000000E-03   0.2145054692E-02  -0.3722527346E-02  -0.3722527346E-02  -0.5500000007E+01   0.2235319900E-14   0.2224431354E-14  -0.3399947522E-15   0.2844556801E-15  -0.5186604981E-15   0.4395054698E-02  -0.4397527352E-02  -0.4397527352E-02  -0.1197560663E-16   0.1324174916E-15   0.8720534851E-17   0.5500000007E+01
   0.0000000000E+00   0.9956024727E+00   0.9956024727E+00   0.0000000000E+00  -0.6750000000E-03  -0.6750000000E-03   0.0000000000E+00  -0.3722527346E-02  -0.3722527346E-02  -0.5500000007E+01   0.4004630104E-14   0.5637689330E-14   0.2230987586E-16  -0.2483154905E-15   0.7651950964E-15   0.4395054698E-02  -0.4397527352E-02  -0.4397527352E-02  -0.1983171129E-16  -0.2654769249E-16   0.9091966689E-16   0.5500000007E+01
   0.2008790109E+01   0.0000000000E+00   0.9578772985E-17   0.4500000000E-02   0.0000000000E+00   0.2654009384E-16   0.4290109384E-02   0.0000000000E+00  -0.1696132085E-16  -0.5500000008E+01  -0.4809007818E-14  -0.4278200535E-14  -0.1500929865E-14  -0.1065696363E-14   0.4904339504E-15   0.4395054699E-02  -0.4397527353E-02  -0.4397527353E-02  -0.1385007050E-15   0.1683257886E-15  -0.2664309623E-16   0.5500000008E+01
   0.2008790109E+01   0.9956024727E+00  -0.4544947147E-17   0.4500000000E-02  -0.6750000000E-03   0.2516028893E-16   0.4290109384E-02  -0.3722527346E-02  -0.2970523608E-16  -0.5500000008E+01   0.7942326731E-14   0.5764653737E-14  -0.1199125376E-14   0.6933719560E-15  -0.4510292518E-15   0.4395054698E-02  -0.4397527352E-02  -0.4397527352E-02  -0.1264503856E-15   0.3038179920E-15   0.2411114648E-16   0.5500000008E+01
   0.2008790109E+01   0.0000000000E+00   0.9956024727E+00   0.4500000000E-02   0.0000000000E+00  -0.6750000000E-03   0.4290109384E-02   0.0000000000E+00  -0.3722527346E-02  -0.5500000008E+01   0.4492273821E-14   0.3482184679E-14   0.1403066094E-15   0.5089769338E-15  -0.3255325612E-15   0.4395054698E-02  -0.4397527352E-02  -0.4397527352E-02   0.7441106283E-16   0.1134333980E-15  -0.1952160297E-16   0.5500000008E+01
   0.2008790109E+01   0.9956024727E+00   0.9956024727E+00   0.4500000000E-02  -0.6750000000E-03  -0.6750000000E-03   0.4290109384E-02  -0.3722527346E-02  -0.3722527346E-02  -0.5500000007E+01  -0.6129995548E-14  -0.6143411045E-14   0.1350246960E-14   0.6430997544E-16   0.8806630844E-16   0.4395054698E-02  -0.4397527352E-02  -0.4397527352E-02   0.1102356820E-15   0.3562113397E-15   0.3615166035E-16   0.5500000007E+01
     1     2     3     4     5     6     7     8
     2     9    10     3     6    11    12     7
 VARIABLES = X,Y,Z,DU1,DU2,DU3,U1,U2,U3,S11,S22,S33,S12,S13,S23,E11,E22,E33,E12,E13,E23,SMISES
 ZONE, T="0.4250D+01" F=FEPOINT, I=   12 J=    2 ET=BRICK
   0.0000000000E+00   0.0000000000E+00   0.0000000000E+00   0.0000000000E+00   0.0000000000E+00   0.0000000000E+00   0.0000000000E+00   0.0000000000E+00   0.0000000000E+00  -0.4375000007E+01   0.8176132329E-14   0.8591736352E-14   0.1058717710E-15  -0.1660779877E-14  -0.1903793720E-16   0.6645054702E-02  -0.5072527354E-02  -0.5072527354E-02  -0.9626945362E-18  -0.7071384729E-16  -0.6501875820E-16   0.4375000007E+01
   0.1006645055E+01   0.0000000000E+00  -0.2446605341E-16   0.2250000000E-02   0.0000000000E+00  -0.4614976772E-17   0.4395054692E-02   0.0000000000E+00  -0.1985107664E-16  -0.4375000007E+01  -0.2303178513E-14  -0.3795467089E-14   0.1412928227E-15   0.4617916631E-15   0.8442179719E-15   0.6645054702E-02  -0.5072527354E-02  -0.5072527354E-02  -0.3599535226E-16   0.1114509836E-15   0.1950554483E-16   0.4375000007E+01
   0.1006645055E+01   0.9949274727E+00  -0.1454418983E-16   0.2250000000E-02  -0.6750000000E-03  -0.3464093892E-17   0.4395054692E-02  -0.4397527346E-02  -0.1108009594E-16  -0.4375000006E+01  -0.1470511389E-14  -0.1802119544E-14   0.6096924824E-15  -0.6659967888E-15  -0.4025343351E-15   0.6645054701E-02  -0.5072527353E-02  -0.5072527353E-02  -0.2968162186E-16   0.1401013948E-15   0.4817724846E-16   0.4375000006E+01
   0.0000000000E+00   0.9949274727E+00  -0.3265074505E-16   0.0000000000E+00  -0.6750000000E-03   0.1782922704E-17   0.0000000000E+00  -0.4397527346E-02  -0.3443366775E-16  -0.4375000006E+01  -0.6624204045E-14  -0.8076585065E-14   0.4583760067E-15   0.1308968160E-15  -0.7270270126E-15   0.6645054702E-02  -0.5072527353E-02  -0.5072527353E-02   0.5407527978E-17   0.4862739517E-16  -0.1627637395E-16   0.4375000006E+01
   0.0000000000E+00   0.0000000000E+00   0.9949274727E+00   0.0000000000E+00   0.0000000000E+00  -0.6750000000E-03   0.0000000000E+00   0.0000000000E+00  -0.4397527346E-02  -0.4375000006E+01  -0.5576004438E-14  -0.7162252859E-14  -0.2070537138E-16   0.3691280873E-15   0.5301121787E-15   0.6645054702E-02  -0.5072527353E-02  -0.5072527353E-02   0.5688247654E-18   0.4630732504E-16   0.3374368976E-16   0.4375000006E+01
   0.1006645055E+01   0.0000000000E+00   0.9949274727E+00   0.2250000000E-02   0.0000000000E+00  -0.6750000000E-03   0.4395054692E-02   0.0000000000E+00  -0.4397527346E-02  -0.4375000006E+01   0.5605557590E-15   0.3291881327E-14  -0.7008153287E-15   0.5330299080E-15   0.1621213926E-15   0.6645054701E-02  -0.5072527353E-02  -0.5072527353E-02  -0.2222620549E-16   0.1439330765E-15  -0.2211664385E-16   0.4375000006E+01
   0.1006645055E+01   0.9949274727E+00   0.9949274727E+00   0.2250000000E-02  -0.6750000000E-03  -0.6750000000E-03   0.4395054692E-02  -0.4397527346E-02  -0.4397527346E-02  -0.4375000006E+01   0.1937445688E-14   0.2912342420E-14  -0.3014493331E-15   0.1820130412E-15  -0.8753528663E-15   0.6645054701E-02  -0.5072527353E-02  -0.5072527353E-02  -0.1382567765E-16   0.1291569993E-15   0.8683157603E-17   0.4375000006E+01
   0.0000000000E+00   0.9949274727E+00   0.9949274727E+00   0.0000000000E+00  -0.6750000000E-03  -0.6750000000E-03   0.0000000000E+00  -0.4397527346E-02  -0.4397527346E-02  -0.4375000006E+01   0.4090085038E-14   0.6034629294E-14  -0.1694942949E-15  -0.7865557968E-15   0.2133454282E-15   0.6645054701E-02  -0.5072527353E-02  -0.5072527353E-02  -0.2131688692E-16  -0.2752965699E-16   0.8291236576E-16   0.4375000006E+01
   0.2013290109E+01   0.0000000000E+00  -0.6624260476E-17   0.4500000000E-02   0.0000000000E+00  -0.1620303346E-16   0.8790109384E-02   0.0000000000E+00   0.9578772985E-17  -0.4375000007E+01  -0.3724352231E-14  -0.3536237132E-14  -0.1513593149E-14  -0.7406459625E-15   0.5841175390E-15   0.6645054702E-02  -0.5072527354E-02  -0.5072527354E-02  -0.1386332742E-15   0.1684428375E-15  -0.2713753469E-16   0.4375000007E+01
   0.2013290109E+01   0.9949274727E+00  -0.2026383219E-16   0.4500000000E-02  -0.6750000000E-03  -0.1571888505E-16   0.8790109384E-02  -0.4397527346E-02  -0.4544947147E-17  -0.4375000006E+01   0.7168426842E-14   0.5045535596E-14  -0.1253718600E-14   0.5463285342E-15  -0.4865951262E-15   0.6645054701E-02  -0.5072527353E-02  -0.5072527353E-02  -0.1282385028E-15   0.3028289138E-15   0.2485260033E-16   0.4375000006E+01
   0.2013290109E+01   0.0000000000E+00   0.9949274727E+00   0.4500000000E-02   0.0000000000E+00  -0.6750000000E-03   0.8790109384E-02   0.0000000000E+00  -0.4397527346E-02  -0.4375000006E+01   0.5519425519E-14   0.4327199393E-14  -0.7527603843E-15   0.1048251712E-14   0.1097560435E-15   0.6645054701E-02  -0.5072527353E-02  -0.5072527353E-02   0.6576940146E-16   0.1099310460E-15  -0.1284145164E-16   0.4375000006E+01
   0.2013290109E+01   0.9949274727E+00   0.9949274727E+00   0.4500000000E-02  -0.6750000000E-03  -0.6750000000E-03   0.8790109384E-02  -0.4397527346E-02  -0.4397527346E-02  -0.4375000006E+01  -0.5811998288E-14  -0.5549121386E-14   0.5847364138E-15  -0.2784489669E-15   0.4391864297E-15   0.6645054700E-02  -0.5072527352E-02  -0.5072527352E-02   0.1047909690E-15   0.3623322528E-15   0.3755617171E-16   0.4375000006E+01
     1     2     3     4     5     6     7     8
     2     9    10     3     6    11    12     7
 VARIABLES = X,Y,Z,DU1,DU2,DU3,U1,U2,U3,S11,S22,S33,S12,S13,S23,E11,E22,E33,E12,E13,E23,SMISES
 ZONE, T="0.4300D+01" F=FEPOINT, I=   12 J=    2 ET=BRICK
   0.0000000000E+00   0.0000000000E+00   0.0000000000E+00   0.0000000000E+00   0.0000000000E+00   0.0000000000E+00   0.0000000000E+00   0.0000000000E+00   0.0000000000E+00  -0.3250000005E+01   0.8356810558E-14   0.8922081075E-14   0.9289244439E-16  -0.1657728575E-14  -0.1113570686E-15   0.8895054706E-02  -0.5747527355E-02  -0.5747527355E-02  -0.2789537039E-19  -0.7079282711E-16  -0.6878490375E-16   0.3250000005E+01
   0.1008895055E+01   0.0000000000E+00  -0.2388024837E-16   0.2250000000E-02   0.0000000000E+00   0.5858050406E-18   0.6645054692E-02   0.0000000000E+00  -0.2446605341E-16  -0.3250000005E+01  -0.1960681838E-14  -0.3508481553E-14   0.2752585888E-15   0.2706630044E-15   0.8711958497E-15   0.8895054706E-02  -0.5747527355E-02  -0.5747527355E-02  -0.3554125126E-16   0.1058731511E-15   0.1969367764E-16   0.3250000005E+01
   0.1008895055E+01   0.9942524727E+00  -0.1378677737E-16   0.2250000000E-02  -0.6750000000E-03   0.7574124631E-18   0.6645054692E-02  -0.5072527346E-02  -0.1454418983E-16  -0.3250000005E+01  -0.1787245277E-14  -0.2103979268E-14   0.5924955756E-15  -0.4386069796E-15  -0.1818915158E-15   0.8895054705E-02  -0.5747527354E-02  -0.5747527354E-02  -0.3111617812E-16   0.1410274702E-15   0.5507335535E-16   0.3250000005E+01
   0.0000000000E+00   0.9942524727E+00  -0.3309283334E-16   0.0000000000E+00  -0.6750000000E-03  -0.4420882988E-18   0.0000000000E+00  -0.5072527346E-02  -0.3265074505E-16  -0.3250000005E+01  -0.5959333599E-14  -0.7297240773E-14   0.3507163206E-15   0.3319117293E-15  -0.6986505718E-15   0.8895054705E-02  -0.5747527354E-02  -0.5747527354E-02   0.2682196931E-17   0.5149038704E-16  -0.9183296856E-17   0.3250000005E+01
   0.0000000000E+00   0.0000000000E+00   0.9942524727E+00   0.0000000000E+00   0.0000000000E+00  -0.6750000000E-03   0.0000000000E+00   0.0000000000E+00  -0.5072527346E-02  -0.3250000005E+01  -0.5811659782E-14  -0.7728982341E-14  -0.1613790217E-16   0.3285732936E-15   0.4767110056E-15   0.8895054705E-02  -0.5747527354E-02  -0.5747527354E-02  -0.1806394971E-17   0.4754720281E-16   0.3967061365E-16   0.3250000005E+01
   0.1008895055E+01   0.0000000000E+00   0.9942524727E+00   0.2250000000E-02   0.0000000000E+00  -0.6750000000E-03   0.6645054692E-02   0.0000000000E+00  -0.5072527346E-02  -0.3250000005E+01  -0.2626815901E-15   0.2220836584E-14  -0.2342169689E-15   0.4405120735E-15   0.1399335012E-15   0.8895054705E-02  -0.5747527354E-02  -0.5747527354E-02  -0.1588283868E-16   0.1388948255E-15  -0.2370719277E-16   0.3250000005E+01
   0.1008895055E+01   0.9942524727E+00   0.9942524727E+00   0.2250000000E-02  -0.6750000000E-03  -0.6750000000E-03   0.6645054692E-02  -0.5072527346E-02  -0.5072527346E-02  -0.3250000004E+01   0.2331468015E-14   0.3128942655E-14   0.9383844999E-16   0.2900155069E-15  -0.7174787373E-15   0.8895054704E-02  -0.5747527353E-02  -0.5747527353E-02  -0.9140191559E-17   0.1339741310E-15   0.8345312980E-17   0.3250000004E+01
   0.0000000000E+00   0.9942524727E+00   0.9942524727E+00   0.0000000000E+00  -0.6750000000E-03  -0.6750000000E-03   0.0000000000E+00  -0.5072527346E-02  -0.5072527346E-02  -0.3250000004E+01   0.5398777953E-14   0.6977055422E-14  -0.1366771786E-15  -0.7763766838E-15   0.3330461628E-15   0.8895054704E-02  -0.5747527354E-02  -0.5747527354E-02  -0.2130305664E-16  -0.2926206871E-16   0.8106069629E-16   0.3250000004E+01
   0.2017790109E+01   0.0000000000E+00  -0.3035163103E-17   0.4500000000E-02   0.0000000000E+00   0.3589097373E-17   0.1329010938E-01   0.0000000000E+00  -0.6624260476E-17  -0.3250000005E+01  -0.3693874614E-14  -0.2856492665E-14  -0.1653653260E-14  -0.1405056787E-14   0.3235400456E-15   0.8895054705E-02  -0.5747527355E-02  -0.5747527355E-02  -0.1413725995E-15   0.1686210918E-15  -0.3013551963E-16   0.3250000005E+01
   0.2017790109E+01   0.9942524727E+00  -0.1803804927E-16   0.4500000000E-02  -0.6750000000E-03   0.2225782926E-17   0.1329010938E-01  -0.5072527346E-02  -0.2026383219E-16  -0.3250000005E+01   0.5818563013E-14   0.3854768153E-14  -0.1481450892E-14   0.1051265907E-14  -0.7800780562E-15   0.8895054704E-02  -0.5747527354E-02  -0.5747527354E-02  -0.1286828982E-15   0.3033985127E-15   0.2191691946E-16   0.3250000005E+01
   0.2017790109E+01   0.0000000000E+00   0.9942524727E+00   0.4500000000E-02   0.0000000000E+00  -0.6750000000E-03   0.1329010938E-01   0.0000000000E+00  -0.5072527346E-02  -0.3250000005E+01   0.3390946841E-14   0.2944135687E-14   0.3746149755E-15   0.7490091325E-15  -0.1289454756E-15   0.8895054704E-02  -0.5747527354E-02  -0.5747527354E-02   0.7800997116E-16   0.1062124274E-15  -0.1428517748E-16   0.3250000005E+01
   0.2017790109E+01   0.9942524727E+00   0.9942524727E+00   0.4500000000E-02  -0.6750000000E-03  -0.6750000000E-03   0.1329010938E-01  -0.5072527346E-02  -0.5072527346E-02  -0.3250000004E+01  -0.5474216623E-14  -0.4956095211E-14   0.1380273103E-14   0.4823016462E-15   0.2166706058E-15   0.8895054703E-02  -0.5747527353E-02  -0.5747527353E-02   0.1094431615E-15   0.3514113678E-15   0.3819792691E-16   0.3250000004E+01
     1     2     3     4     5     6     7     8
     2     9    10     3     6    11    12     7
 VARIABLES = X,Y,Z,DU1,DU2,DU3,U1,U2,U3,S11,S22,S33,S12,S13,S23,E11,E22,E33,E12,E13,E23,SMISES
 ZONE, T="0.4350D+01" F=FEPOINT, I=   12 J=    2 ET=BRICK
   0.0000000000E+00   0.0000000000E+00   0.0000000000E+00   0.0000000000E+00   0.0000000000E+00   0.0000000000E+00   0.0000000000E+00   0.0000000000E+00   0.0000000000E+00  -0.2125000003E+01   0.8797910570E-14   0.9476925553E-14   0.1116770762E-15  -0.1580698183E-14  -0.1303270024E-15   0.1114505471E-01  -0.6422527356E-02  -0.6422527356E-02   0.8330517295E-19  -0.6733815960E-16  -0.6872509319E-16   0.2125000003E+01
   0.1011145055E+01   0.0000000000E+00  -0.2250408884E-16   0.2250000000E-02   0.0000000000E+00   0.1376159527E-17   0.8895054692E-02   0.0000000000E+00  -0.2388024837E-16  -0.2125000003E+01  -0.1775822640E-14  -0.3201711419E-14   0.1058666923E-15   0.4547033287E-15   0.7128026295E-15   0.1114505471E-01  -0.6422527356E-02  -0.6422527356E-02  -0.4006959207E-16   0.1047665788E-15   0.1963255199E-16   0.2125000003E+01
   0.1011145055E+01   0.9935774727E+00  -0.1309919920E-16   0.2250000000E-02  -0.6750000000E-03   0.6875781712E-18   0.8895054692E-02  -0.5747527346E-02  -0.1378677737E-16  -0.2125000003E+01  -0.1163741268E-14  -0.1515667906E-14   0.4125393438E-15  -0.4743145418E-15  -0.8546645604E-16   0.1114505471E-01  -0.6422527355E-02  -0.6422527355E-02  -0.3435667296E-16   0.1445042802E-15   0.5095879594E-16   0.2125000003E+01
   0.0000000000E+00   0.9935774727E+00  -0.3322623766E-16   0.0000000000E+00  -0.6750000000E-03  -0.1334043129E-18   0.0000000000E+00  -0.5747527346E-02  -0.3309283334E-16  -0.2125000003E+01  -0.6686155819E-14  -0.7748500036E-14   0.4519471554E-15   0.3704575382E-15  -0.6310887868E-15   0.1114505471E-01  -0.6422527355E-02  -0.6422527355E-02   0.5594700947E-17   0.4985413524E-16  -0.1178310314E-16   0.2125000003E+01
   0.0000000000E+00   0.0000000000E+00   0.9935774727E+00   0.0000000000E+00   0.0000000000E+00  -0.6750000000E-03   0.0000000000E+00   0.0000000000E+00  -0.5747527346E-02  -0.2125000003E+01  -0.5926400598E-14  -0.7795649103E-14  -0.3774789610E-16   0.6610502934E-15   0.3950902122E-15   0.1114505471E-01  -0.6422527355E-02  -0.6422527355E-02   0.2078211600E-17   0.4780936019E-16   0.3703767679E-16   0.2125000003E+01
   0.1011145055E+01   0.0000000000E+00   0.9935774727E+00   0.2250000000E-02   0.0000000000E+00  -0.6750000000E-03   0.8895054692E-02   0.0000000000E+00  -0.5747527346E-02  -0.2125000003E+01   0.2904371167E-15   0.2616851692E-14  -0.3895670504E-15   0.3432099994E-15  -0.3150129505E-16   0.1114505471E-01  -0.6422527355E-02  -0.6422527355E-02  -0.2633608214E-16   0.1464322049E-15  -0.2448337299E-16   0.2125000003E+01
   0.1011145055E+01   0.9935774727E+00   0.9935774727E+00   0.2250000000E-02  -0.6750000000E-03  -0.6750000000E-03   0.8895054692E-02  -0.5747527346E-02  -0.5747527346E-02  -0.2125000003E+01   0.2157497529E-14   0.2762675898E-14   0.1020903109E-15   0.3977772886E-15  -0.7669416419E-15   0.1114505471E-01  -0.6422527354E-02  -0.6422527354E-02  -0.1483345412E-16   0.1241826319E-15   0.1479625874E-16   0.2125000003E+01
   0.0000000000E+00   0.9935774727E+00   0.9935774727E+00   0.0000000000E+00  -0.6750000000E-03  -0.6750000000E-03   0.0000000000E+00  -0.5747527346E-02  -0.5747527346E-02  -0.2125000003E+01   0.5093004195E-14   0.6426196443E-14  -0.6146177085E-17  -0.7683558452E-15   0.3586167346E-15   0.1114505471E-01  -0.6422527355E-02  -0.6422527355E-02  -0.2088823721E-16  -0.2517027298E-16   0.8327378663E-16   0.2125000003E+01
   0.2022290109E+01   0.0000000000E+00   0.1387186218E-17   0.4500000000E-02   0.0000000000E+00   0.4422349321E-17   0.1779010938E-01   0.0000000000E+00  -0.3035163103E-17  -0.2125000003E+01  -0.4675211851E-14  -0.3566981851E-14  -0.8210619485E-15  -0.1189388496E-14   0.3710751834E-15   0.1114505471E-01  -0.6422527356E-02  -0.6422527356E-02  -0.1377513830E-15   0.1804438822E-15  -0.3119791597E-16   0.2125000003E+01
   0.2022290109E+01   0.9935774727E+00  -0.1346133367E-16   0.4500000000E-02  -0.6750000000E-03   0.4576715593E-17   0.1779010938E-01  -0.5747527346E-02  -0.1803804927E-16  -0.2125000003E+01   0.6882437629E-14   0.5290353843E-14  -0.7038043433E-15   0.4840719937E-15  -0.5047848800E-15   0.1114505471E-01  -0.6422527355E-02  -0.6422527355E-02  -0.1330539586E-15   0.2796291934E-15   0.2727544959E-16   0.2125000003E+01
   0.2022290109E+01   0.0000000000E+00   0.9935774727E+00   0.4500000000E-02   0.0000000000E+00  -0.6750000000E-03   0.1779010938E-01   0.0000000000E+00  -0.5747527346E-02  -0.2125000003E+01   0.4368103166E-14   0.3610536367E-14  -0.2322914085E-15   0.1415110970E-14  -0.1307038232E-15   0.1114505471E-01  -0.6422527355E-02  -0.6422527355E-02   0.7051989878E-16   0.1077748980E-15  -0.1570904829E-16   0.2125000003E+01
   0.2022290109E+01   0.9935774727E+00   0.9935774727E+00   0.4500000000E-02  -0.6750000000E-03  -0.6750000000E-03   0.1779010938E-01  -0.5747527346E-02  -0.5747527346E-02  -0.2125000003E+01  -0.5760205742E-14  -0.5906954721E-14   0.7669034076E-15  -0.3948395992E-15   0.5625993770E-15   0.1114505471E-01  -0.6422527354E-02  -0.6422527354E-02   0.1079508035E-15   0.3610429730E-15   0.3691290070E-16   0.2125000003E+01
     1     2     3     4     5     6     7     8
     2     9    10     3     6    11    12     7
 VARIABLES = X,Y,Z,DU1,DU2,DU3,U1,U2,U3,S11,S22,S33,S12,S13,S23,E11,E22,E33,E12,E13,E23,SMISES
 ZONE, T="0.4400D+01" F=FEPOINT, I=   12 J=    2 ET=BRICK
   0.0000000000E+00   0.0000000000E+00   0.0000000000E+00   0.0000000000E+00   0.0000000000E+00   0.0000000000E+00   0.0000000000E+00   0.0000000000E+00   0.0000000000E+00  -0.1000000002E+01   0.8841585535E-14   0.9459827411E-14   0.1127637707E-15  -0.1550006124E-14  -0.2062098733E-15   0.1339505471E-01  -0.7097527357E-02  -0.7097527357E-02   0.9379604490E-18  -0.6780829621E-16  -0.6747512729E-16   0.1000000002E+01
   0.1013395055E+01   0.0000000000E+00  -0.2266560277E-16   0.2250000000E-02   0.0000000000E+00  -0.1615139220E-18   0.1114505469E-01   0.0000000000E+00  -0.2250408884E-16  -0.1000000002E+01  -0.1863172612E-14  -0.3324618752E-14   0.1051858656E-15   0.4305387717E-15   0.7108396008E-15   0.1339505471E-01  -0.7097527357E-02  -0.7097527357E-02  -0.4313027840E-16   0.1006795784E-15   0.1790112207E-16   0.1000000002E+01
   0.1013395055E+01   0.9929024727E+00  -0.1331492733E-16   0.2250000000E-02  -0.6750000000E-03  -0.2157281343E-18   0.1114505469E-01  -0.6422527346E-02  -0.1309919920E-16  -0.1000000001E+01  -0.1214172790E-14  -0.1547142014E-14   0.4637928453E-15  -0.7042185988E-15  -0.1154573399E-15   0.1339505471E-01  -0.7097527356E-02  -0.7097527356E-02  -0.3682500865E-16   0.1457177125E-15   0.5402692035E-16   0.1000000001E+01
   0.0000000000E+00   0.9929024727E+00  -0.3361003302E-16   0.0000000000E+00  -0.6750000000E-03  -0.3837953583E-18   0.0000000000E+00  -0.6422527346E-02  -0.3322623766E-16  -0.1000000001E+01  -0.6880262483E-14  -0.7628448369E-14   0.4566940190E-15   0.4711084760E-15  -0.6783959596E-15   0.1339505471E-01  -0.7097527356E-02  -0.7097527356E-02   0.9234739132E-17   0.5037649044E-16  -0.1521229245E-16   0.1000000001E+01
   0.0000000000E+00   0.0000000000E+00   0.9929024727E+00   0.0000000000E+00   0.0000000000E+00  -0.6750000000E-03   0.0000000000E+00   0.0000000000E+00  -0.6422527346E-02  -0.1000000001E+01  -0.6124590508E-14  -0.8033795453E-14  -0.4189033043E-16   0.5944512858E-15   0.4626073865E-15   0.1339505471E-01  -0.7097527356E-02  -0.7097527356E-02   0.1084518019E-18   0.5294674097E-16   0.3544263899E-16   0.1000000001E+01
   0.1013395055E+01   0.0000000000E+00   0.9929024727E+00   0.2250000000E-02   0.0000000000E+00  -0.6750000000E-03   0.1114505469E-01   0.0000000000E+00  -0.6422527346E-02  -0.1000000001E+01   0.1262611421E-15   0.2375485004E-14  -0.5316966734E-15   0.3248006363E-15   0.2243162052E-16   0.1339505471E-01  -0.7097527356E-02  -0.7097527356E-02  -0.2441643992E-16   0.1333612242E-15  -0.2622947307E-16   0.1000000001E+01
   0.1013395055E+01   0.9929024727E+00   0.9929024727E+00   0.2250000000E-02  -0.6750000000E-03  -0.6750000000E-03   0.1114505469E-01  -0.6422527346E-02  -0.6422527346E-02  -0.1000000001E+01   0.2310517875E-14   0.3006764749E-14  -0.6988453888E-16   0.1648031905E-15  -0.6802954841E-15   0.1339505471E-01  -0.7097527355E-02  -0.7097527355E-02  -0.1090732033E-16   0.1328044391E-15   0.1507995620E-16   0.1000000001E+01
   0.0000000000E+00   0.9929024727E+00   0.9929024727E+00   0.0000000000E+00  -0.6750000000E-03  -0.6750000000E-03   0.0000000000E+00  -0.6422527346E-02  -0.6422527346E-02  -0.1000000001E+01   0.5016494007E-14   0.6483566858E-14   0.1070407961E-16  -0.7338749655E-15   0.3107734519E-15   0.1339505471E-01  -0.7097527355E-02  -0.7097527355E-02  -0.1971207657E-16  -0.2502593135E-16   0.8822506966E-16   0.1000000001E+01
   0.2026790109E+01   0.0000000000E+00  -0.1019804632E-18   0.4500000000E-02   0.0000000000E+00  -0.1489166681E-17   0.2229010938E-01   0.0000000000E+00   0.1387186218E-17  -0.1000000002E+01  -0.4941660813E-14  -0.3927039131E-14  -0.9642508620E-15  -0.1330100071E-14   0.4450184063E-15   0.1339505471E-01  -0.7097527357E-02  -0.7097527357E-02  -0.1361208263E-15   0.1826274232E-15  -0.2750618519E-16   0.1000000002E+01
   0.2026790109E+01   0.9929024727E+00  -0.1467757654E-16   0.4500000000E-02  -0.6750000000E-03  -0.1216242869E-17   0.2229010938E-01  -0.6422527346E-02  -0.1346133367E-16  -0.1000000001E+01   0.6988562651E-14   0.5264457543E-14  -0.6699197343E-15   0.5655349618E-15  -0.5894561656E-15   0.1339505471E-01  -0.7097527356E-02  -0.7097527356E-02  -0.1264698763E-15   0.2901471578E-15   0.2443901108E-16   0.1000000001E+01
   0.2026790109E+01   0.0000000000E+00   0.9929024727E+00   0.4500000000E-02   0.0000000000E+00  -0.6750000000E-03   0.2229010938E-01   0.0000000000E+00  -0.6422527346E-02  -0.1000000001E+01   0.4417355957E-14   0.3689586353E-14  -0.2407488017E-15   0.1665271913E-14  -0.9457141504E-16   0.1339505471E-01  -0.7097527356E-02  -0.7097527356E-02   0.6595677752E-16   0.1278807804E-15  -0.1244367718E-16   0.1000000001E+01
   0.2026790109E+01   0.9929024727E+00   0.9929024727E+00   0.4500000000E-02  -0.6750000000E-03  -0.6750000000E-03   0.2229010938E-01  -0.6422527346E-02  -0.6422527346E-02  -0.1000000001E+01  -0.5425728914E-14  -0.5440954764E-14   0.6868889729E-15  -0.4181515220E-15   0.4821009682E-15   0.1339505471E-01  -0.7097527355E-02  -0.7097527355E-02   0.9672475597E-16   0.3550156996E-15   0.3357488545E-16   0.1000000001E+01
     1     2     3     4     5     6     7     8
     2     9    10     3     6    11    12     7
 VARIABLES = X,Y,Z,DU1,DU2,DU3,U1,U2,U3,S11,S22,S33,S12,S13,S23,E11,E22,E33,E12,E13,E23,SMISES
 ZONE, T="0.4450D+01" F=FEPOINT, I=   12 J=    2 ET=BRICK
   0.0000000000E+00   0.0000000000E+00   0.0000000000E+00   0.0000000000E+00   0.0000000000E+00   0.0000000000E+00   0.0000000000E+00   0.0000000000E+00   0.0000000000E+00   0.1250000002E+00   0.8676306967E-14   0.9276147421E-14   0.1164720908E-15  -0.1545299538E-14  -0.2223244688E-15   0.1564505472E-01  -0.7772527358E-02  -0.7772527358E-02  -0.2016652194E-17  -0.7029849319E-16  -0.6458995308E-16   0.1250000002E+00
   0.1015645055E+01   0.0000000000E+00  -0.2263366822E-16   0.2250000000E-02   0.0000000000E+00   0.3193454808E-19   0.1339505469E-01   0.0000000000E+00  -0.2266560277E-16   0.1250000002E+00  -0.1759326102E-14  -0.3236758397E-14   0.1896197647E-15   0.5534662573E-15   0.7264101081E-15   0.1564505472E-01  -0.7772527358E-02  -0.7772527358E-02  -0.3802183662E-16   0.1071166371E-15   0.1956320412E-16   0.1250000002E+00
   0.1015645055E+01   0.9922274727E+00  -0.1322956385E-16   0.2250000000E-02  -0.6750000000E-03   0.8536348001E-19   0.1339505469E-01  -0.7097527346E-02  -0.1331492733E-16   0.1250000002E+00  -0.1319571687E-14  -0.1740638161E-14   0.5232790373E-15  -0.8015127513E-15  -0.1056113796E-15   0.1564505471E-01  -0.7772527357E-02  -0.7772527357E-02  -0.3695244343E-16   0.1409541877E-15   0.5170797157E-16   0.1250000002E+00
   0.0000000000E+00   0.9922274727E+00  -0.3365504810E-16   0.0000000000E+00  -0.6750000000E-03  -0.4501508352E-19   0.0000000000E+00  -0.7097527346E-02  -0.3361003302E-16   0.1250000002E+00  -0.6808945914E-14  -0.7562335977E-14   0.4414118076E-15   0.5397266310E-15  -0.6268731276E-15   0.1564505471E-01  -0.7772527357E-02  -0.7772527357E-02   0.6074791690E-17   0.5344511258E-16  -0.1231021483E-16   0.1250000002E+00
   0.0000000000E+00   0.0000000000E+00   0.9922274727E+00   0.0000000000E+00   0.0000000000E+00  -0.6750000000E-03   0.0000000000E+00   0.0000000000E+00  -0.7097527346E-02   0.1250000002E+00  -0.5808267668E-14  -0.7845808769E-14  -0.6892841123E-16   0.6540138488E-15   0.4535132200E-15   0.1564505471E-01  -0.7772527357E-02  -0.7772527357E-02   0.4356466493E-17   0.4967057842E-16   0.2647581170E-16   0.1250000002E+00
   0.1015645055E+01   0.0000000000E+00   0.9922274727E+00   0.2250000000E-02   0.0000000000E+00  -0.6750000000E-03   0.1339505469E-01   0.0000000000E+00  -0.7097527346E-02   0.1250000002E+00  -0.1279169431E-15   0.2154573557E-14  -0.6634891645E-15   0.4756897349E-15  -0.4190080800E-16   0.1564505471E-01  -0.7772527357E-02  -0.7772527357E-02  -0.3276472409E-16   0.1451825755E-15  -0.2090288579E-16   0.1250000002E+00
   0.1015645055E+01   0.9922274727E+00   0.9922274727E+00   0.2250000000E-02  -0.6750000000E-03  -0.6750000000E-03   0.1339505469E-01  -0.7097527346E-02  -0.7097527346E-02   0.1250000002E+00   0.2069479225E-14   0.2726881640E-14  -0.2288989590E-15   0.1076830576E-15  -0.7343341214E-15   0.1564505471E-01  -0.7772527356E-02  -0.7772527356E-02  -0.9450241877E-17   0.1308347921E-15   0.8130952299E-17   0.1250000002E+00
   0.0000000000E+00   0.9922274727E+00   0.9922274727E+00   0.0000000000E+00  -0.6750000000E-03  -0.6750000000E-03   0.0000000000E+00  -0.7097527346E-02  -0.7097527346E-02   0.1250000002E+00   0.4833719219E-14   0.6185653159E-14  -0.7536735156E-16  -0.7938614665E-15   0.2983728016E-15   0.1564505471E-01  -0.7772527356E-02  -0.7772527356E-02  -0.1939916312E-16  -0.2486927475E-16   0.9038865108E-16   0.1250000002E+00
   0.2031290109E+01   0.0000000000E+00  -0.2455753239E-18   0.4500000000E-02   0.0000000000E+00  -0.1435948606E-18   0.2679010938E-01   0.0000000000E+00  -0.1019804632E-18   0.1250000002E+00  -0.4471246752E-14  -0.3443801469E-14  -0.1323304280E-14  -0.1645366823E-14   0.5705038605E-15   0.1564505472E-01  -0.7772527358E-02  -0.7772527358E-02  -0.1453886259E-15   0.1750848687E-15  -0.2671235620E-16   0.1250000002E+00
   0.2031290109E+01   0.9922274727E+00  -0.1419000772E-16   0.4500000000E-02  -0.6750000000E-03   0.4875688195E-18   0.2679010938E-01  -0.7097527346E-02  -0.1467757654E-16   0.1250000002E+00   0.6811510193E-14   0.4942809250E-14  -0.9614663691E-15   0.1166606118E-14  -0.5891929305E-15   0.1564505471E-01  -0.7772527357E-02  -0.7772527357E-02  -0.1356521337E-15   0.2784860307E-15   0.2686856167E-16   0.1250000002E+00
   0.2031290109E+01   0.0000000000E+00   0.9922274727E+00   0.4500000000E-02   0.0000000000E+00  -0.6750000000E-03   0.2679010938E-01   0.0000000000E+00  -0.7097527346E-02   0.1250000002E+00   0.3968355675E-14   0.3336949918E-14  -0.4113923056E-16   0.1542272080E-14  -0.2568794004E-16   0.1564505471E-01  -0.7772527357E-02  -0.7772527357E-02   0.7740424669E-16   0.1005212025E-15  -0.1380804421E-16   0.1250000002E+00
   0.2031290109E+01   0.9922274727E+00   0.9922274727E+00   0.4500000000E-02  -0.6750000000E-03  -0.6750000000E-03   0.2679010938E-01  -0.7097527346E-02  -0.7097527346E-02   0.1250000002E+00  -0.5377788809E-14  -0.5454070247E-14   0.8845850309E-15  -0.4326549017E-15   0.4881219348E-15   0.1564505471E-01  -0.7772527356E-02  -0.7772527356E-02   0.1105918336E-15   0.3584044178E-15   0.2952337975E-16   0.1250000002E+00
     1     2     3     4     5     6     7     8
     2     9    10     3     6    11    12     7
 VARIABLES = X,Y,Z,DU1,DU2,DU3,U1,U2,U3,S11,S22,S33,S12,S13,S23,E11,E22,E33,E12,E13,E23,SMISES
 ZONE, T="0.4500D+01" F=FEPOINT, I=   12 J=    2 ET=BRICK
   0.0000000000E+00   0.0000000000E+00   0.0000000000E+00   0.0000000000E+00   0.0000000000E+00   0.0000000000E+00   0.0000000000E+00   0.0000000000E+00   0.0000000000E+00   0.1250000002E+01   0.8487653130E-14   0.9124220739E-14   0.1275075099E-15  -0.1563591008E-14  -0.2307119543E-15   0.1789505472E-01  -0.8447527359E-02  -0.8447527359E-02   0.3721701194E-18  -0.6682453384E-16  -0.7072170469E-16   0.1250000002E+01
   0.1017895055E+01   0.0000000000E+00  -0.2295165426E-16   0.2250000000E-02   0.0000000000E+00  -0.3179860461E-18   0.1564505469E-01   0.0000000000E+00  -0.2263366822E-16   0.1250000002E+01  -0.2021904270E-14  -0.3240987340E-14   0.2665089090E-15   0.4194852750E-15   0.7855667428E-15   0.1789505472E-01  -0.8447527359E-02  -0.8447527359E-02  -0.4198006682E-16   0.1040251672E-15   0.1821307802E-16   0.1250000002E+01
   0.1017895055E+01   0.9915524727E+00  -0.1326794277E-16   0.2250000000E-02  -0.6750000000E-03  -0.3837891500E-19   0.1564505469E-01  -0.7772527346E-02  -0.1322956385E-16   0.1250000002E+01  -0.1545878578E-14  -0.1833495910E-14   0.5703682356E-15  -0.7936957544E-15   0.3714861190E-16   0.1789505472E-01  -0.8447527358E-02  -0.8447527358E-02  -0.3715170104E-16   0.1346658456E-15   0.5770886952E-16   0.1250000002E+01
   0.0000000000E+00   0.9915524727E+00  -0.3372663316E-16   0.0000000000E+00  -0.6750000000E-03  -0.7158506067E-19   0.0000000000E+00  -0.7772527346E-02  -0.3365504810E-16   0.1250000002E+01  -0.6575996453E-14  -0.7412528680E-14   0.4275544293E-15   0.5767412341E-15  -0.5763877780E-15   0.1789505472E-01  -0.8447527358E-02  -0.8447527358E-02   0.7019474664E-17   0.5543697526E-16  -0.1230310528E-16   0.1250000002E+01
   0.0000000000E+00   0.0000000000E+00   0.9915524727E+00   0.0000000000E+00   0.0000000000E+00  -0.6750000000E-03   0.0000000000E+00   0.0000000000E+00  -0.7772527346E-02   0.1250000002E+01  -0.5902497065E-14  -0.7873653864E-14  -0.9878833817E-16   0.6705611817E-15   0.3416916921E-15   0.1789505472E-01  -0.8447527358E-02  -0.8447527358E-02  -0.7064506319E-18   0.5076900988E-16   0.3702821529E-16   0.1250000002E+01
   0.1017895055E+01   0.0000000000E+00   0.9915524727E+00   0.2250000000E-02   0.0000000000E+00  -0.6750000000E-03   0.1564505469E-01   0.0000000000E+00  -0.7772527346E-02   0.1250000002E+01   0.2636779028E-15   0.2505464681E-14  -0.4588836766E-15   0.3869212547E-15  -0.5896524928E-16   0.1789505472E-01  -0.8447527358E-02  -0.8447527358E-02  -0.1845548397E-16   0.1328746871E-15  -0.2434652892E-16   0.1250000002E+01
   0.1017895055E+01   0.9915524727E+00   0.9915524727E+00   0.2250000000E-02  -0.6750000000E-03  -0.6750000000E-03   0.1564505469E-01  -0.7772527346E-02  -0.7772527346E-02   0.1250000002E+01   0.2305438234E-14   0.2653014676E-14  -0.3200873453E-16   0.2561855662E-15  -0.6958566978E-15   0.1789505472E-01  -0.8447527357E-02  -0.8447527357E-02  -0.1219134654E-16   0.1352818996E-15   0.6419221617E-17   0.1250000002E+01
   0.0000000000E+00   0.9915524727E+00   0.9915524727E+00   0.0000000000E+00  -0.6750000000E-03  -0.6750000000E-03   0.0000000000E+00  -0.7772527346E-02  -0.7772527346E-02   0.1250000002E+01   0.4935135445E-14   0.6305695449E-14   0.1403632465E-16  -0.7898422134E-15   0.2150104737E-15   0.1789505472E-01  -0.8447527357E-02  -0.8447527357E-02  -0.1767071741E-16  -0.2532086229E-16   0.8292850990E-16   0.1250000002E+01
   0.2035790109E+01   0.0000000000E+00  -0.7448079866E-18   0.4500000000E-02   0.0000000000E+00  -0.4992326628E-18   0.3129010938E-01   0.0000000000E+00  -0.2455753239E-18   0.1250000002E+01  -0.4549813617E-14  -0.3577821662E-14  -0.1596191175E-14  -0.1921148359E-14   0.4739338943E-15   0.1789505472E-01  -0.8447527359E-02  -0.8447527359E-02  -0.1509987262E-15   0.1831923160E-15  -0.2726058403E-16   0.1250000002E+01
   0.2035790109E+01   0.9915524727E+00  -0.1509850892E-16   0.4500000000E-02  -0.6750000000E-03  -0.9085011939E-18   0.3129010938E-01  -0.7772527346E-02  -0.1419000772E-16   0.1250000002E+01   0.7103352322E-14   0.5260423155E-14  -0.1105009633E-14   0.1244906661E-14  -0.7235059714E-15   0.1789505472E-01  -0.8447527358E-02  -0.8447527358E-02  -0.1461230383E-15   0.2644309316E-15   0.2336069455E-16   0.1250000002E+01
   0.2035790109E+01   0.0000000000E+00   0.9915524727E+00   0.4500000000E-02   0.0000000000E+00  -0.6750000000E-03   0.3129010938E-01   0.0000000000E+00  -0.7772527346E-02   0.1250000002E+01   0.3387628737E-14   0.2908662920E-14   0.3802741852E-15   0.1213962658E-14  -0.2540679502E-16   0.1789505472E-01  -0.8447527358E-02  -0.8447527358E-02   0.7772602276E-16   0.1211821872E-15  -0.1704173958E-16   0.1250000002E+01
   0.2035790109E+01   0.9915524727E+00   0.9915524727E+00   0.4500000000E-02  -0.6750000000E-03  -0.6750000000E-03   0.3129010938E-01  -0.7772527346E-02  -0.7772527346E-02   0.1250000002E+01  -0.5998352103E-14  -0.5624635240E-14   0.1067864288E-14  -0.4967949046E-15   0.4316623919E-15   0.1789505471E-01  -0.8447527357E-02  -0.8447527357E-02   0.1092960883E-15   0.3587415534E-15   0.3497565016E-16   0.1250000002E+01
     1     2     3     4     5     6     7     8
     2     9    10     3     6    11    12     7
 VARIABLES = X,Y,Z,DU1,DU2,DU3,U1,U2,U3,S11,S22,S33,S12,S13,S23,E11,E22,E33,E12,E13,E23,SMISES
 ZONE, T="0.4550D+01" F=FEPOINT, I=   12 J=    2 ET=BRICK
   0.0000000000E+00   0.0000000000E+00   0.0000000000E+00   0.0000000000E+00   0.0000000000E+00   0.0000000000E+00   0.0000000000E+00   0.0000000000E+00   0.0000000000E+00   0.2375000004E+01   0.8396451158E-14   0.8733236421E-14   0.1403310389E-15  -0.1647692383E-14  -0.2036429918E-15   0.2014505472E-01  -0.9122527360E-02  -0.9122527360E-02   0.1212279793E-17  -0.7121478609E-16  -0.6849275521E-16   0.2375000004E+01
   0.1020145055E+01   0.0000000000E+00  -0.2347557528E-16   0.2250000000E-02   0.0000000000E+00  -0.5239210211E-18   0.1789505469E-01   0.0000000000E+00  -0.2295165426E-16   0.2375000004E+01  -0.2094015352E-14  -0.3456955911E-14   0.5609619416E-15   0.8702633587E-15   0.7333763525E-15   0.2014505472E-01  -0.9122527360E-02  -0.9122527360E-02  -0.3864975485E-16   0.1136747952E-15   0.2228882339E-16   0.2375000004E+01
   0.1020145055E+01   0.9908774727E+00  -0.1396016181E-16   0.2250000000E-02  -0.6750000000E-03  -0.6922190403E-18   0.1789505469E-01  -0.8447527346E-02  -0.1326794277E-16   0.2375000003E+01  -0.1148867100E-14  -0.1604378947E-14   0.8643542319E-15  -0.9238562050E-15  -0.7664695422E-16   0.2014505472E-01  -0.9122527359E-02  -0.9122527359E-02  -0.2870547754E-16   0.1422157265E-15   0.4615243346E-16   0.2375000003E+01
   0.0000000000E+00   0.9908774727E+00  -0.3354170995E-16   0.0000000000E+00  -0.6750000000E-03   0.1849232112E-18   0.0000000000E+00  -0.8447527346E-02  -0.3372663316E-16   0.2375000003E+01  -0.6588014963E-14  -0.7287810966E-14   0.4343966477E-15   0.3173603525E-15  -0.6380578438E-15   0.2014505472E-01  -0.9122527359E-02  -0.9122527359E-02   0.5606497231E-17   0.4936243683E-16  -0.1777268252E-16   0.2375000003E+01
   0.0000000000E+00   0.0000000000E+00   0.9908774727E+00   0.0000000000E+00   0.0000000000E+00  -0.6750000000E-03   0.0000000000E+00   0.0000000000E+00  -0.8447527346E-02   0.2375000003E+01  -0.5329922781E-14  -0.7129782366E-14  -0.1109836299E-15   0.4969262074E-15   0.3728461498E-15   0.2014505472E-01  -0.9122527359E-02  -0.9122527359E-02  -0.1646435340E-17   0.4812028249E-16   0.3616558720E-16   0.2375000003E+01
   0.1020145055E+01   0.0000000000E+00   0.9908774727E+00   0.2250000000E-02   0.0000000000E+00  -0.6750000000E-03   0.1789505469E-01   0.0000000000E+00  -0.8447527346E-02   0.2375000003E+01   0.3405039350E-15   0.2694674080E-14  -0.7698657309E-15   0.8313392596E-15  -0.2399062670E-16   0.2014505472E-01  -0.9122527359E-02  -0.9122527359E-02  -0.2275792738E-16   0.1445549194E-15  -0.2658529854E-16   0.2375000003E+01
   0.1020145055E+01   0.9908774727E+00   0.9908774727E+00   0.2250000000E-02  -0.6750000000E-03  -0.6750000000E-03   0.1789505469E-01  -0.8447527346E-02  -0.8447527346E-02   0.2375000003E+01   0.2162941850E-14   0.2629342359E-14  -0.2829632856E-15  -0.6698202667E-16  -0.7665775112E-15   0.2014505472E-01  -0.9122527358E-02  -0.9122527358E-02  -0.1786105771E-16   0.1340995802E-15   0.1419400930E-16   0.2375000003E+01
   0.0000000000E+00   0.9908774727E+00   0.9908774727E+00   0.0000000000E+00  -0.6750000000E-03  -0.6750000000E-03   0.0000000000E+00  -0.8447527346E-02  -0.8447527346E-02   0.2375000003E+01   0.4879126122E-14   0.6198440592E-14  -0.4746160450E-16  -0.8575411665E-15   0.7705122787E-16   0.2014505472E-01  -0.9122527358E-02  -0.9122527358E-02  -0.1690772551E-16  -0.2255450601E-16   0.7947223002E-16   0.2375000003E+01
   0.2040290109E+01   0.0000000000E+00  -0.2329701686E-17   0.4500000000E-02   0.0000000000E+00  -0.1584893699E-17   0.3579010938E-01   0.0000000000E+00  -0.7448079866E-18   0.2375000004E+01  -0.4839752518E-14  -0.3666848517E-14  -0.9904699773E-15  -0.1121348868E-14   0.5485777156E-15   0.2014505472E-01  -0.9122527360E-02  -0.9122527360E-02  -0.1470573475E-15   0.1525936292E-15  -0.2823345190E-16   0.2375000004E+01
   0.2040290109E+01   0.9908774727E+00  -0.1638732065E-16   0.4500000000E-02  -0.6750000000E-03  -0.1288811737E-17   0.3579010938E-01  -0.8447527346E-02  -0.1509850892E-16   0.2375000003E+01   0.7461319129E-14   0.5562198269E-14  -0.6149838457E-15   0.5643022191E-15  -0.5434717861E-15   0.2014505472E-01  -0.9122527359E-02  -0.9122527359E-02  -0.1381803025E-15   0.2969879311E-15   0.2626780000E-16   0.2375000003E+01
   0.2040290109E+01   0.0000000000E+00   0.9908774727E+00   0.4500000000E-02   0.0000000000E+00  -0.6750000000E-03   0.3579010938E-01   0.0000000000E+00  -0.8447527346E-02   0.2375000003E+01   0.4185966149E-14   0.3344136268E-14  -0.3681678594E-15   0.1675613519E-14   0.4135470254E-16   0.2014505472E-01  -0.9122527359E-02  -0.9122527359E-02   0.6327629861E-16   0.9815692144E-16  -0.1649300031E-16   0.2375000003E+01
   0.2040290109E+01   0.9908774727E+00   0.9908774727E+00   0.4500000000E-02  -0.6750000000E-03  -0.6750000000E-03   0.3579010938E-01  -0.8447527346E-02  -0.8447527346E-02   0.2375000003E+01  -0.5798120541E-14  -0.5612799048E-14   0.5508741657E-15  -0.6227083958E-15   0.6433674703E-15   0.2014505472E-01  -0.9122527358E-02  -0.9122527358E-02   0.9196028857E-16   0.3503882782E-15   0.3594417359E-16   0.2375000003E+01
     1     2     3     4     5     6     7     8
     2     9    10     3     6    11    12     7
 VARIABLES = X,Y,Z,DU1,DU2,DU3,U1,U2,U3,S11,S22,S33,S12,S13,S23,E11,E22,E33,E12,E13,E23,SMISES
 ZONE, T="0.4600D+01" F=FEPOINT, I=   12 J=    2 ET=BRICK
   0.0000000000E+00   0.0000000000E+00   0.0000000000E+00   0.0000000000E+00   0.0000000000E+00   0.0000000000E+00   0.0000000000E+00   0.0000000000E+00   0.0000000000E+00   0.3500000005E+01   0.8153091767E-14   0.8319625067E-14   0.1164053998E-15  -0.1507639628E-14  -0.3313929551E-15   0.2239505473E-01  -0.9797527361E-02  -0.9797527361E-02   0.5691276294E-18  -0.7096887570E-16  -0.6813049647E-16   0.3500000005E+01
   0.1022395055E+01   0.0000000000E+00  -0.2210025029E-16   0.2250000000E-02   0.0000000000E+00   0.1375324993E-17   0.2014505469E-01   0.0000000000E+00  -0.2347557528E-16   0.3500000005E+01  -0.1590963510E-14  -0.2885511511E-14   0.5604130480E-15   0.7328569186E-15   0.7264997652E-15   0.2239505473E-01  -0.9797527361E-02  -0.9797527361E-02  -0.4423320181E-16   0.1081785767E-15   0.1813454792E-16   0.3500000005E+01
   0.1022395055E+01   0.9902024727E+00  -0.1262522148E-16   0.2250000000E-02  -0.6750000000E-03   0.1334940326E-17   0.2014505469E-01  -0.9122527346E-02  -0.1396016181E-16   0.3500000005E+01  -0.1328281910E-14  -0.1417526992E-14   0.8950360592E-15  -0.1156416778E-14   0.1803874946E-16   0.2239505472E-01  -0.9797527360E-02  -0.9797527360E-02  -0.3558387007E-16   0.1350866305E-15   0.5372118338E-16   0.3500000005E+01
   0.0000000000E+00   0.9902024727E+00  -0.3431833354E-16   0.0000000000E+00  -0.6750000000E-03  -0.7766235946E-18   0.0000000000E+00  -0.9122527346E-02  -0.3354170995E-16   0.3500000005E+01  -0.5785363129E-14  -0.6099570239E-14   0.5113981998E-15   0.7434162567E-15  -0.5768169170E-15   0.2239505472E-01  -0.9797527360E-02  -0.9797527360E-02   0.7971525863E-17   0.5690607685E-16  -0.1830780423E-16   0.3500000005E+01
   0.0000000000E+00   0.0000000000E+00   0.9902024727E+00   0.0000000000E+00   0.0000000000E+00  -0.6750000000E-03   0.0000000000E+00   0.0000000000E+00  -0.9122527346E-02   0.3500000005E+01  -0.5086563375E-14  -0.6845519012E-14  -0.1279539193E-15   0.6557020433E-15   0.2686260482E-15   0.2239505472E-01  -0.9797527360E-02  -0.9797527360E-02  -0.1458657772E-17   0.5664607648E-16   0.2249381063E-16   0.3500000005E+01
   0.1022395055E+01   0.0000000000E+00   0.9902024727E+00   0.2250000000E-02   0.0000000000E+00  -0.6750000000E-03   0.2014505469E-01   0.0000000000E+00  -0.9122527346E-02   0.3500000005E+01   0.3985522025E-17   0.2138103843E-14  -0.7757389583E-15   0.7505201783E-15  -0.1948085618E-16   0.2239505472E-01  -0.9797527360E-02  -0.9797527360E-02  -0.2651593085E-16   0.1278167453E-15  -0.2339805890E-16   0.3500000005E+01
   0.1022395055E+01   0.9902024727E+00   0.9902024727E+00   0.2250000000E-02  -0.6750000000E-03  -0.6750000000E-03   0.2014505469E-01  -0.9122527346E-02  -0.9122527346E-02   0.3500000005E+01   0.2175823230E-14   0.2386979265E-14  -0.2379679064E-15  -0.1803342053E-15  -0.6253154199E-15   0.2239505472E-01  -0.9797527359E-02  -0.9797527359E-02  -0.1886446087E-16   0.1466859584E-15   0.4512117242E-17   0.3500000005E+01
   0.0000000000E+00   0.9902024727E+00   0.9902024727E+00   0.0000000000E+00  -0.6750000000E-03  -0.6750000000E-03   0.0000000000E+00  -0.9122527346E-02  -0.9122527346E-02   0.3500000005E+01   0.4182052255E-14   0.5659466707E-14  -0.6389242454E-16  -0.5500466378E-15   0.1714538101E-15   0.2239505472E-01  -0.9797527359E-02  -0.9797527359E-02  -0.1961070581E-16  -0.3087341967E-16   0.8753778486E-16   0.3500000005E+01
   0.2044790109E+01   0.0000000000E+00   0.2526935171E-17   0.4500000000E-02   0.0000000000E+00   0.4856636857E-17   0.4029010938E-01   0.0000000000E+00  -0.2329701686E-17   0.3500000005E+01  -0.4955222746E-14  -0.3545666968E-14  -0.1577791150E-14  -0.1996393234E-14   0.4511360144E-15   0.2239505473E-01  -0.9797527361E-02  -0.9797527361E-02  -0.1625459177E-15   0.1887044989E-15  -0.2720974187E-16   0.3500000005E+01
   0.2044790109E+01   0.9902024727E+00  -0.1205252362E-16   0.4500000000E-02  -0.6750000000E-03   0.4334797035E-17   0.4029010938E-01  -0.9122527346E-02  -0.1638732065E-16   0.3500000005E+01   0.7331704122E-14   0.5376075739E-14  -0.1209311852E-14   0.1037445982E-14  -0.5485809712E-15   0.2239505472E-01  -0.9797527360E-02  -0.9797527360E-02  -0.1630844831E-15   0.3074632897E-15   0.2521886934E-16   0.3500000005E+01
   0.2044790109E+01   0.0000000000E+00   0.9902024727E+00   0.4500000000E-02   0.0000000000E+00  -0.6750000000E-03   0.4029010938E-01   0.0000000000E+00  -0.9122527346E-02   0.3500000005E+01   0.3968369505E-14   0.3241280441E-14   0.2044562495E-15   0.1166854196E-14  -0.1506352331E-15   0.2239505472E-01  -0.9797527360E-02  -0.9797527360E-02   0.6768814102E-16   0.1067278788E-15  -0.2047270407E-16   0.3500000005E+01
   0.2044790109E+01   0.9902024727E+00   0.9902024727E+00   0.4500000000E-02  -0.6750000000E-03  -0.6750000000E-03   0.4029010938E-01  -0.9122527346E-02  -0.9122527346E-02   0.3500000004E+01  -0.5441016642E-14  -0.5661602524E-14   0.1107253600E-14  -0.2521007655E-15   0.6044054163E-15   0.2239505472E-01  -0.9797527358E-02  -0.9797527358E-02   0.9785602792E-16   0.3289956919E-15   0.4363429517E-16   0.3500000004E+01
     1     2     3     4     5     6     7     8
     2     9    10     3     6    11    12     7
 VARIABLES = X,Y,Z,DU1,DU2,DU3,U1,U2,U3,S11,S22,S33,S12,S13,S23,E11,E22,E33,E12,E13,E23,SMISES
 ZONE, T="0.4650D+01" F=FEPOINT, I=   12 J=    2 ET=BRICK
   0.0000000000E+00   0.0000000000E+00   0.0000000000E+00   0.0000000000E+00   0.0000000000E+00   0.0000000000E+00   0.0000000000E+00   0.0000000000E+00   0.0000000000E+00   0.4625000007E+01   0.8773873544E-14   0.9164444175E-14   0.1279419887E-15  -0.1478347302E-14  -0.7581241541E-16   0.2464505473E-01  -0.1047252736E-01  -0.1047252736E-01  -0.1201887480E-17  -0.6287826285E-16  -0.6404696013E-16   0.4625000007E+01
   0.1024645055E+01   0.0000000000E+00  -0.2247749503E-16   0.2250000000E-02   0.0000000000E+00  -0.3772447355E-18   0.2239505469E-01   0.0000000000E+00  -0.2210025029E-16   0.4625000007E+01  -0.2025622828E-14  -0.3486704280E-14  -0.2865715115E-16  -0.3601684203E-16   0.7617515669E-15   0.2464505473E-01  -0.1047252736E-01  -0.1047252736E-01  -0.4690693838E-16   0.9260245974E-16   0.2060231150E-16   0.4625000007E+01
   0.1024645055E+01   0.9895274727E+00  -0.1276568777E-16   0.2250000000E-02  -0.6750000000E-03  -0.1404662822E-18   0.2239505469E-01  -0.9797527346E-02  -0.1262522148E-16   0.4625000007E+01  -0.1333726264E-14  -0.1711415707E-14   0.3865212287E-15  -0.7366142662E-15  -0.1588528453E-15   0.2464505473E-01  -0.1047252736E-01  -0.1047252736E-01  -0.4301941778E-16   0.1445771798E-15   0.5455242758E-16   0.4625000007E+01
   0.0000000000E+00   0.9895274727E+00  -0.3307405527E-16   0.0000000000E+00  -0.6750000000E-03   0.1244278277E-17   0.0000000000E+00  -0.9797527346E-02  -0.3431833354E-16   0.4625000007E+01  -0.6589545287E-14  -0.7284893357E-14   0.5362041553E-15   0.5940863612E-15  -0.3646230051E-15   0.2464505473E-01  -0.1047252736E-01  -0.1047252736E-01   0.7369879841E-17   0.5164414514E-16  -0.2027244438E-16   0.4625000007E+01
   0.0000000000E+00   0.0000000000E+00   0.9895274727E+00   0.0000000000E+00   0.0000000000E+00  -0.6750000000E-03   0.0000000000E+00   0.0000000000E+00  -0.9797527346E-02   0.4625000007E+01  -0.6204952721E-14  -0.7960456808E-14  -0.1505963779E-15   0.7594300565E-15   0.2937630147E-15   0.2464505473E-01  -0.1047252736E-01  -0.1047252736E-01   0.3230220386E-18   0.5684816089E-16   0.3593336558E-16   0.4625000007E+01
   0.1024645055E+01   0.0000000000E+00   0.9895274727E+00   0.2250000000E-02   0.0000000000E+00  -0.6750000000E-03   0.2239505469E-01   0.0000000000E+00  -0.9797527346E-02   0.4625000007E+01   0.3831336765E-15   0.2613400146E-14   0.1777470185E-16  -0.1950099023E-15   0.3548731983E-16   0.2464505473E-01  -0.1047252736E-01  -0.1047252736E-01  -0.1919462925E-16   0.1187388775E-15  -0.2963749995E-16   0.4625000007E+01
   0.1024645055E+01   0.9895274727E+00   0.9895274727E+00   0.2250000000E-02  -0.6750000000E-03  -0.6750000000E-03   0.2239505469E-01  -0.9797527346E-02  -0.9797527346E-02   0.4625000006E+01   0.1863074865E-14   0.2625356816E-14   0.3720468854E-15   0.3310434722E-15  -0.7872881520E-15   0.2464505472E-01  -0.1047252736E-01  -0.1047252736E-01  -0.1579224205E-16   0.1411239780E-15   0.1410868305E-16   0.4625000006E+01
   0.0000000000E+00   0.9895274727E+00   0.9895274727E+00   0.0000000000E+00  -0.6750000000E-03  -0.6750000000E-03   0.0000000000E+00  -0.9797527346E-02  -0.9797527346E-02   0.4625000006E+01   0.5196856371E-14   0.6206411614E-14  -0.2735143585E-15  -0.5079492147E-15   0.2048875066E-15   0.2464505472E-01  -0.1047252736E-01  -0.1047252736E-01  -0.1924297482E-16  -0.2663036465E-16   0.7439277429E-16   0.4625000006E+01
   0.2049290109E+01   0.0000000000E+00  -0.2121795842E-17   0.4500000000E-02   0.0000000000E+00  -0.4648731013E-17   0.4479010938E-01   0.0000000000E+00   0.2526935171E-17   0.4625000007E+01  -0.6393797552E-14  -0.5644397221E-14  -0.1121115666E-14  -0.1072233539E-14   0.6341828260E-15   0.2464505473E-01  -0.1047252736E-01  -0.1047252736E-01  -0.1533806129E-15   0.1859519641E-15  -0.3270885088E-16   0.4625000007E+01
   0.2049290109E+01   0.9895274727E+00  -0.1579764610E-16   0.4500000000E-02  -0.6750000000E-03  -0.3745122485E-17   0.4479010938E-01  -0.9797527346E-02  -0.1205252362E-16   0.4625000006E+01   0.7932701359E-14   0.6165917638E-14  -0.6429336069E-15   0.1061872167E-14  -0.8303190643E-15   0.2464505473E-01  -0.1047252736E-01  -0.1047252736E-01  -0.1545595699E-15   0.3142580239E-15   0.3255751437E-16   0.4625000006E+01
   0.2049290109E+01   0.0000000000E+00   0.9895274727E+00   0.4500000000E-02   0.0000000000E+00  -0.6750000000E-03   0.4479010938E-01   0.0000000000E+00  -0.9797527346E-02   0.4625000006E+01   0.5652758948E-14   0.5499107055E-14  -0.4434664950E-15   0.2245338314E-14   0.4117528660E-16   0.2464505473E-01  -0.1047252736E-01  -0.1047252736E-01   0.4699202746E-16   0.1091398834E-15  -0.3269232245E-17   0.4625000006E+01
   0.2049290109E+01   0.9895274727E+00   0.9895274727E+00   0.4500000000E-02  -0.6750000000E-03  -0.6750000000E-03   0.4479010938E-01  -0.9797527346E-02  -0.9797527346E-02   0.4625000006E+01  -0.6363658165E-14  -0.6449451653E-14   0.3291869856E-15  -0.3918787453E-15   0.2971748239E-15   0.2464505472E-01  -0.1047252736E-01  -0.1047252736E-01   0.8748729000E-16   0.3493668227E-15   0.3546184718E-16   0.4625000006E+01
     1     2     3     4     5     6     7     8
     2     9    10     3     6    11    12     7
 VARIABLES = X,Y,Z,DU1,DU2,DU3,U1,U2,U3,S11,S22,S33,S12,S13,S23,E11,E22,E33,E12,E13,E23,SMISES
 ZONE, T="0.4700D+01" F=FEPOINT, I=   12 J=    2 ET=BRICK
   0.0000000000E+00   0.0000000000E+00   0.0000000000E+00   0.0000000000E+00   0.0000000000E+00   0.0000000000E+00   0.0000000000E+00   0.0000000000E+00   0.0000000000E+00   0.5750000009E+01   0.7444862247E-14   0.7711529202E-14   0.1164190587E-15  -0.1716984204E-14  -0.1021424174E-15   0.2689505473E-01  -0.1114752736E-01  -0.1114752736E-01  -0.7897703837E-18  -0.6830593497E-16  -0.6770918569E-16   0.5750000009E+01
   0.1026895055E+01   0.0000000000E+00  -0.2345692864E-16   0.2250000000E-02   0.0000000000E+00  -0.9794336132E-18   0.2464505469E-01   0.0000000000E+00  -0.2247749503E-16   0.5750000009E+01  -0.1520578208E-14  -0.2996533832E-14   0.9288204246E-15   0.1035324342E-14   0.8129600009E-15   0.2689505473E-01  -0.1114752736E-01  -0.1114752736E-01  -0.3310504465E-16   0.1109410719E-15   0.1760922507E-16   0.5750000009E+01
   0.1026895055E+01   0.9888524727E+00  -0.1359437290E-16   0.2250000000E-02  -0.6750000000E-03  -0.8286851376E-18   0.2464505469E-01  -0.1047252735E-01  -0.1276568777E-16   0.5750000008E+01  -0.1065600354E-14  -0.1509689576E-14   0.1166235326E-14  -0.1215825990E-14  -0.1391019208E-15   0.2689505473E-01  -0.1114752736E-01  -0.1114752736E-01  -0.2794402111E-16   0.1410394418E-15   0.5211714672E-16   0.5750000008E+01
   0.0000000000E+00   0.9888524727E+00  -0.3322686847E-16   0.0000000000E+00  -0.6750000000E-03  -0.1528132039E-18   0.0000000000E+00  -0.1047252735E-01  -0.3307405527E-16   0.5750000008E+01  -0.6012852017E-14  -0.6639807552E-14   0.4949618016E-15   0.4302269903E-15  -0.5605806193E-15   0.2689505473E-01  -0.1114752736E-01  -0.1114752736E-01   0.3933249302E-17   0.5565273315E-16  -0.1728732000E-16   0.5750000008E+01
   0.0000000000E+00   0.0000000000E+00   0.9888524727E+00   0.0000000000E+00   0.0000000000E+00  -0.6750000000E-03   0.0000000000E+00   0.0000000000E+00  -0.1047252735E-01   0.5750000008E+01  -0.4692541028E-14  -0.5889482116E-14  -0.1437507098E-15   0.6295054910E-15   0.1895289851E-15   0.2689505473E-01  -0.1114752736E-01  -0.1114752736E-01  -0.1753298130E-17   0.5748905486E-16   0.3015337240E-16   0.5750000008E+01
   0.1026895055E+01   0.0000000000E+00   0.9888524727E+00   0.2250000000E-02   0.0000000000E+00  -0.6750000000E-03   0.2464505469E-01   0.0000000000E+00  -0.1047252735E-01   0.5750000008E+01  -0.6639977971E-16   0.2027081608E-14  -0.6380261412E-15   0.6706838798E-15  -0.4888404600E-16   0.2689505473E-01  -0.1114752736E-01  -0.1114752736E-01  -0.1907089898E-16   0.1338359019E-15  -0.2231967750E-16   0.5750000008E+01
   0.1026895055E+01   0.9888524727E+00   0.9888524727E+00   0.2250000000E-02  -0.6750000000E-03  -0.6750000000E-03   0.2464505469E-01  -0.1047252735E-01  -0.1047252735E-01   0.5750000008E+01   0.2297734183E-14   0.3115527264E-14  -0.1968145631E-15  -0.7669645835E-16  -0.7391930160E-15   0.2689505473E-01  -0.1114752736E-01  -0.1114752736E-01  -0.1861867258E-16   0.1266695483E-15   0.6563008158E-17   0.5750000008E+01
   0.0000000000E+00   0.9888524727E+00   0.9888524727E+00   0.0000000000E+00  -0.6750000000E-03  -0.6750000000E-03   0.0000000000E+00  -0.1047252735E-01  -0.1047252735E-01   0.5750000008E+01   0.5056815234E-14   0.5907274152E-14  -0.1039326483E-15  -0.8046995678E-15  -0.8049635091E-16   0.2689505473E-01  -0.1114752736E-01  -0.1114752736E-01  -0.1958498939E-16  -0.2157458192E-16   0.8475242281E-16   0.5750000008E+01
   0.2053790109E+01   0.0000000000E+00  -0.3654706788E-17   0.4500000000E-02   0.0000000000E+00  -0.1532910946E-17   0.4929010938E-01   0.0000000000E+00  -0.2121795842E-17   0.5750000009E+01  -0.5156948848E-14  -0.4172622495E-14  -0.9557207840E-15  -0.1569811293E-14   0.7878184593E-15   0.2689505473E-01  -0.1114752736E-01  -0.1114752736E-01  -0.1665429988E-15   0.2172823535E-15  -0.2638033377E-16   0.5750000009E+01
   0.2053790109E+01   0.9888524727E+00  -0.1650132399E-16   0.4500000000E-02  -0.6750000000E-03  -0.7036778881E-18   0.4929010938E-01  -0.1047252735E-01  -0.1579764610E-16   0.5750000008E+01   0.7033829898E-14   0.5694268409E-14  -0.7619623664E-15   0.8642321759E-15  -0.5053532808E-15   0.2689505473E-01  -0.1114752736E-01  -0.1114752736E-01  -0.1598482870E-15   0.3106671439E-15   0.3751785930E-16   0.5750000008E+01
   0.2053790109E+01   0.0000000000E+00   0.9888524727E+00   0.4500000000E-02   0.0000000000E+00  -0.6750000000E-03   0.4929010938E-01   0.0000000000E+00  -0.1047252735E-01   0.5750000008E+01   0.3715117760E-14   0.4023880750E-14  -0.8142295182E-17   0.1980750874E-14   0.1026477468E-15   0.2689505473E-01  -0.1114752736E-01  -0.1114752736E-01   0.5841560622E-16   0.1324439619E-15  -0.1051650729E-16   0.5750000008E+01
   0.2053790109E+01   0.9888524727E+00   0.9888524727E+00   0.4500000000E-02  -0.6750000000E-03  -0.6750000000E-03   0.4929010938E-01  -0.1047252735E-01  -0.1047252735E-01   0.5750000007E+01  -0.5790416509E-14  -0.6131454438E-14   0.6951685822E-15  -0.6542036172E-15   0.4833799137E-15   0.2689505473E-01  -0.1114752736E-01  -0.1114752736E-01   0.8912747630E-16   0.3719972763E-15   0.4020750047E-16   0.5750000007E+01
     1     2     3     4     5     6     7     8
     2     9    10     3     6    11    12     7
 VARIABLES = X,Y,Z,DU1,DU2,DU3,U1,U2,U3,S11,S22,S33,S12,S13,S23,E11,E22,E33,E12,E13,E23,SMISES
 ZONE, T="0.4750D+01" F=FEPOINT, I=   12 J=    2 ET=BRICK
   0.0000000000E+00   0.0000000000E+00   0.0000000000E+00   0.0000000000E+00   0.0000000000E+00   0.0000000000E+00   0.0000000000E+00   0.0000000000E+00   0.0000000000E+00   0.6875000011E+01   0.9477922071E-14   0.9112189152E-14   0.9720207857E-16  -0.1752236207E-14  -0.2717996027E-16   0.2914505474E-01  -0.1182252736E-01  -0.1182252736E-01   0.5950029993E-18  -0.6792764157E-16  -0.6907100105E-16   0.6875000011E+01
   0.1029145055E+01   0.0000000000E+00  -0.2396032074E-16   0.2250000000E-02   0.0000000000E+00  -0.5033920987E-18   0.2689505469E-01   0.0000000000E+00  -0.2345692864E-16   0.6875000011E+01  -0.2031067158E-14  -0.3325615202E-14  -0.4563967682E-15   0.3578889803E-15   0.7466829010E-15   0.2914505474E-01  -0.1182252736E-01  -0.1182252736E-01  -0.5108430382E-16   0.9012178383E-16   0.1981455824E-16   0.6875000011E+01
   0.1029145055E+01   0.9881774727E+00  -0.1436131373E-16   0.2250000000E-02  -0.6750000000E-03  -0.7669408261E-18   0.2689505469E-01  -0.1114752735E-01  -0.1359437290E-16   0.6875000010E+01  -0.1838770859E-14  -0.1979541549E-14  -0.1529514628E-15  -0.3085700084E-15  -0.8596160398E-16   0.2914505473E-01  -0.1182252736E-01  -0.1182252736E-01  -0.4107565662E-16   0.1497491574E-15   0.5057296454E-16   0.6875000010E+01
   0.0000000000E+00   0.9881774727E+00  -0.3269685257E-16   0.0000000000E+00  -0.6750000000E-03   0.5300158960E-18   0.0000000000E+00  -0.1114752735E-01  -0.3322686847E-16   0.6875000010E+01  -0.7378319361E-14  -0.7833297109E-14   0.2232254596E-15   0.2162430616E-15  -0.6127777405E-15   0.2914505473E-01  -0.1182252736E-01  -0.1182252736E-01   0.7010898599E-17   0.5487658501E-16  -0.1326320575E-16   0.6875000010E+01
   0.0000000000E+00   0.0000000000E+00   0.9881774727E+00   0.0000000000E+00   0.0000000000E+00  -0.6750000000E-03   0.0000000000E+00   0.0000000000E+00  -0.1114752735E-01   0.6875000010E+01  -0.6243401456E-14  -0.7556809150E-14  -0.9157999445E-16   0.8232029614E-15   0.6035507109E-15   0.2914505473E-01  -0.1182252736E-01  -0.1182252736E-01   0.4951779651E-18   0.4968393767E-16   0.4149430011E-16   0.6875000010E+01
   0.1029145055E+01   0.0000000000E+00   0.9881774727E+00   0.2250000000E-02   0.0000000000E+00  -0.6750000000E-03   0.2689505469E-01   0.0000000000E+00  -0.1114752735E-01   0.6875000010E+01   0.1885968496E-16   0.2082592747E-14  -0.4195626868E-15  -0.1899586068E-15  -0.6228786650E-16   0.2914505473E-01  -0.1182252736E-01  -0.1182252736E-01  -0.1550271352E-16   0.1302151255E-15  -0.2516934245E-16   0.6875000010E+01
   0.1029145055E+01   0.9881774727E+00   0.9881774727E+00   0.2250000000E-02  -0.6750000000E-03  -0.6750000000E-03   0.2689505469E-01  -0.1114752735E-01  -0.1114752735E-01   0.6875000009E+01   0.2453378949E-14   0.3363334657E-14   0.3796024131E-15   0.7221767267E-15  -0.7170849080E-15   0.2914505473E-01  -0.1182252736E-01  -0.1182252736E-01  -0.6187937688E-17   0.1339664410E-15   0.8513618957E-17   0.6875000009E+01
   0.0000000000E+00   0.9881774727E+00   0.9881774727E+00   0.0000000000E+00  -0.6750000000E-03  -0.6750000000E-03   0.0000000000E+00  -0.1114752735E-01  -0.1114752735E-01   0.6875000009E+01   0.5724941646E-14   0.7474467547E-14  -0.1832528715E-17  -0.1205584727E-14   0.6069529213E-16   0.2914505473E-01  -0.1182252736E-01  -0.1182252736E-01  -0.1941522857E-16  -0.2680401006E-16   0.6433870164E-16   0.6875000009E+01
   0.2058290109E+01   0.0000000000E+00  -0.6291976033E-17   0.4500000000E-02   0.0000000000E+00  -0.2637269245E-17   0.5379010938E-01   0.0000000000E+00  -0.3654706788E-17   0.6875000010E+01  -0.5724941612E-14  -0.5846852677E-14  -0.1514616136E-14  -0.1406950958E-14   0.6373625038E-15   0.2914505474E-01  -0.1182252736E-01  -0.1182252736E-01  -0.1541565594E-15   0.1820921737E-15  -0.2591068009E-16   0.6875000010E+01
   0.2058290109E+01   0.9881774727E+00  -0.1991729941E-16   0.4500000000E-02  -0.6750000000E-03  -0.3415975415E-17   0.5379010938E-01  -0.1114752735E-01  -0.1650132399E-16   0.6875000010E+01   0.9339001189E-14   0.6998780245E-14  -0.7212656845E-15   0.8330722618E-15  -0.6661230064E-15   0.2914505473E-01  -0.1182252736E-01  -0.1182252736E-01  -0.1484129669E-15   0.3318419776E-15   0.2376392440E-16   0.6875000010E+01
   0.2058290109E+01   0.0000000000E+00   0.9881774727E+00   0.4500000000E-02   0.0000000000E+00  -0.6750000000E-03   0.5379010938E-01   0.0000000000E+00  -0.1114752735E-01   0.6875000010E+01   0.5258007213E-14   0.5520688854E-14  -0.5318802607E-15   0.1963064119E-14  -0.6757883543E-18   0.2914505473E-01  -0.1182252736E-01  -0.1182252736E-01   0.4000340256E-16   0.1118361808E-15  -0.2346532601E-16   0.6875000010E+01
   0.2058290109E+01   0.9881774727E+00   0.9881774727E+00   0.4500000000E-02  -0.6750000000E-03  -0.6750000000E-03   0.5379010938E-01  -0.1114752735E-01  -0.1114752735E-01   0.6875000009E+01  -0.6325743292E-14  -0.6818440537E-14   0.2940006479E-15  -0.5983990820E-15   0.4017886535E-15   0.2914505473E-01  -0.1182252736E-01  -0.1182252736E-01   0.7054471257E-16   0.3451824677E-15   0.4628980146E-16   0.6875000009E+01
     1     2     3     4     5     6     7     8
     2     9    10     3     6    11    12     7
 VARIABLES = X,Y,Z,DU1,DU2,DU3,U1,U2,U3,S11,S22,S33,S12,S13,S23,E11,E22,E33,E12,E13,E23,SMISES
 ZONE, T="0.4800D+01" F=FEPOINT, I=   12 J=    2 ET=BRICK
   0.0000000000E+00   0.0000000000E+00   0.0000000000E+00   0.0000000000E+00   0.0000000000E+00   0.0000000000E+00   0.0000000000E+00   0.0000000000E+00   0.0000000000E+00   0.8000000013E+01   0.7827461958E-14   0.7694662256E-14   0.9922844697E-16  -0.1721307370E-14  -0.3109794257E-15   0.3139505474E-01  -0.1249752737E-01  -0.1249752737E-01  -0.2975502432E-17  -0.6930324250E-16  -0.6393387492E-16   0.8000000013E+01
   0.1031395055E+01   0.0000000000E+00  -0.2356602991E-16   0.2250000000E-02   0.0000000000E+00   0.3942908328E-18   0.2914505469E-01   0.0000000000E+00  -0.2396032074E-16   0.8000000012E+01  -0.1394681767E-14  -0.2526681926E-14   0.5533802237E-15   0.6948622198E-15   0.8609268106E-15   0.3139505474E-01  -0.1249752737E-01  -0.1249752737E-01  -0.3248553988E-16   0.1057328879E-15   0.1895060232E-16   0.8000000012E+01
   0.1031395055E+01   0.9875024727E+00  -0.1330905050E-16   0.2250000000E-02  -0.6750000000E-03   0.1052263230E-17   0.2914505469E-01  -0.1182252735E-01  -0.1436131373E-16   0.8000000011E+01  -0.1343156073E-14  -0.2090563809E-14   0.8418936628E-15  -0.1275127906E-14  -0.5990341435E-16   0.3139505474E-01  -0.1249752736E-01  -0.1249752736E-01  -0.3448579360E-16   0.1338458113E-15   0.5917453688E-16   0.8000000011E+01
   0.0000000000E+00   0.9875024727E+00  -0.3419925623E-16   0.0000000000E+00  -0.6750000000E-03  -0.1502403655E-17   0.0000000000E+00  -0.1182252735E-01  -0.3269685257E-16   0.8000000012E+01  -0.6050037429E-14  -0.6220556381E-14   0.5819922463E-15   0.7623042484E-15  -0.5817758597E-15   0.3139505474E-01  -0.1249752736E-01  -0.1249752736E-01   0.1371652349E-16   0.5747325550E-16  -0.2103859928E-16   0.8000000012E+01
   0.0000000000E+00   0.0000000000E+00   0.9875024727E+00   0.0000000000E+00   0.0000000000E+00  -0.6750000000E-03   0.0000000000E+00   0.0000000000E+00  -0.1182252735E-01   0.8000000012E+01  -0.5806215489E-14  -0.7815505313E-14  -0.9909871196E-16   0.9224680580E-15   0.3840599627E-15   0.3139505474E-01  -0.1249752736E-01  -0.1249752736E-01   0.4936007026E-17   0.4829841285E-16   0.3482218515E-16   0.8000000012E+01
   0.1031395055E+01   0.0000000000E+00   0.9875024727E+00   0.2250000000E-02   0.0000000000E+00  -0.6750000000E-03   0.2914505469E-01   0.0000000000E+00  -0.1182252735E-01   0.8000000011E+01  -0.1088864086E-16   0.1586977979E-14  -0.8152111982E-15   0.2144461091E-15  -0.9942390582E-16   0.3139505474E-01  -0.1249752736E-01  -0.1249752736E-01  -0.2541542000E-16   0.1296080824E-15  -0.2706344124E-16   0.8000000011E+01
   0.1031395055E+01   0.9875024727E+00   0.9875024727E+00   0.2250000000E-02  -0.6750000000E-03  -0.6750000000E-03   0.2914505469E-01  -0.1182252735E-01  -0.1182252735E-01   0.8000000010E+01   0.2282860020E-14   0.3111541708E-14  -0.2304208771E-15  -0.2222466576E-16  -0.8122461664E-15   0.3139505473E-01  -0.1249752736E-01  -0.1249752736E-01  -0.1754770040E-16   0.1287112120E-15   0.6365064209E-17   0.8000000010E+01
   0.0000000000E+00   0.9875024727E+00   0.9875024727E+00   0.0000000000E+00  -0.6750000000E-03  -0.6750000000E-03   0.0000000000E+00  -0.1182252735E-01  -0.1182252735E-01   0.8000000011E+01   0.5144067419E-14   0.6094659975E-14  -0.1643108532E-15  -0.8946605751E-15   0.1644257420E-15   0.3139505473E-01  -0.1249752736E-01  -0.1249752736E-01  -0.2122864477E-16  -0.2404869775E-16   0.8524413760E-16   0.8000000011E+01
   0.2062790109E+01   0.0000000000E+00  -0.4137817274E-17   0.4500000000E-02   0.0000000000E+00   0.2154158759E-17   0.5829010938E-01   0.0000000000E+00  -0.6291976033E-17   0.8000000012E+01  -0.5953889393E-14  -0.5702096525E-14  -0.8823553782E-15  -0.8997084660E-15   0.8254639185E-15   0.3139505474E-01  -0.1249752736E-01  -0.1249752736E-01  -0.1600149513E-15   0.2275074975E-15  -0.2594502173E-16   0.8000000012E+01
   0.2062790109E+01   0.9875024727E+00  -0.1678755990E-16   0.4500000000E-02  -0.6750000000E-03   0.3129739506E-17   0.5829010938E-01  -0.1182252735E-01  -0.1991729941E-16   0.8000000011E+01   0.7182037587E-14   0.5933179843E-14  -0.5682784124E-15   0.8712429398E-15  -0.4606039073E-15   0.3139505474E-01  -0.1249752736E-01  -0.1249752736E-01  -0.1550442074E-15   0.2648107763E-15   0.2682260574E-16   0.8000000011E+01
   0.2062790109E+01   0.0000000000E+00   0.9875024727E+00   0.4500000000E-02   0.0000000000E+00  -0.6750000000E-03   0.5829010938E-01   0.0000000000E+00  -0.1182252735E-01   0.8000000011E+01   0.4273680783E-14   0.5557340326E-14   0.3095682620E-16   0.2123022829E-14  -0.6721343391E-16   0.3139505474E-01  -0.1249752736E-01  -0.1249752736E-01   0.3751601853E-16   0.1474405622E-15  -0.1353147246E-16   0.8000000011E+01
   0.2062790109E+01   0.9875024727E+00   0.9875024727E+00   0.4500000000E-02  -0.6750000000E-03  -0.6750000000E-03   0.5829010938E-01  -0.1182252735E-01  -0.1182252735E-01   0.8000000010E+01  -0.5241283304E-14  -0.6148321295E-14   0.4294107657E-15  -0.4638832656E-15   0.2487319454E-15   0.3139505473E-01  -0.1249752736E-01  -0.1249752736E-01   0.7089000037E-16   0.3429249500E-15   0.4635743336E-16   0.8000000010E+01
     1     2     3     4     5     6     7     8
     2     9    10     3     6    11    12     7
 VARIABLES = X,Y,Z,DU1,DU2,DU3,U1,U2,U3,S11,S22,S33,S12,S13,S23,E11,E22,E33,E12,E13,E23,SMISES
 ZONE, T="0.4850D+01" F=FEPOINT, I=   12 J=    2 ET=BRICK
   0.0000000000E+00   0.0000000000E+00   0.0000000000E+00   0.0000000000E+00   0.0000000000E+00   0.0000000000E+00   0.0000000000E+00   0.0000000000E+00   0.0000000000E+00   0.9125000014E+01   0.9270751663E-14   0.9794655922E-14   0.9335113244E-16  -0.9864358130E-15  -0.7649874075E-16   0.3364505474E-01  -0.1317252737E-01  -0.1317252737E-01  -0.2780636481E-17  -0.5015620205E-16  -0.6382098328E-16   0.9125000014E+01
   0.1033645055E+01   0.0000000000E+00  -0.1864166407E-16   0.2250000000E-02   0.0000000000E+00   0.4924365836E-17   0.3139505469E-01   0.0000000000E+00  -0.2356602991E-16   0.9125000014E+01  -0.2142089417E-14  -0.2382993657E-14   0.4816584145E-15   0.7361151641E-16   0.4873446247E-15   0.3364505474E-01  -0.1317252737E-01  -0.1317252737E-01  -0.3566427490E-16   0.7037523452E-16   0.1617948922E-16   0.9125000014E+01
   0.1033645055E+01   0.9868274727E+00  -0.1027800215E-16   0.2250000000E-02  -0.6750000000E-03   0.3031048351E-17   0.3139505469E-01  -0.1249752735E-01  -0.1330905050E-16   0.9125000013E+01  -0.5144744712E-15  -0.1191496828E-14   0.7000769155E-15  -0.5195427825E-15   0.3978460276E-16   0.3364505474E-01  -0.1317252736E-01  -0.1317252736E-01  -0.4318369311E-16   0.1585897240E-15   0.4851759702E-16   0.9125000013E+01
   0.0000000000E+00   0.9868274727E+00  -0.3294215471E-16   0.0000000000E+00  -0.6750000000E-03   0.1257101516E-17   0.0000000000E+00  -0.1249752735E-01  -0.3419925623E-16   0.9125000013E+01  -0.6816304681E-14  -0.6829720102E-14   0.5875661505E-15   0.6434897999E-15   0.4661952247E-16   0.3364505474E-01  -0.1317252737E-01  -0.1317252737E-01   0.1620266893E-16   0.5158393195E-16  -0.8240453182E-17   0.9125000013E+01
   0.0000000000E+00   0.0000000000E+00   0.9868274727E+00   0.0000000000E+00   0.0000000000E+00  -0.6750000000E-03   0.0000000000E+00   0.0000000000E+00  -0.1249752735E-01   0.9125000013E+01  -0.6867830261E-14  -0.8265038762E-14  -0.9016493317E-16   0.1233348679E-14   0.3535291530E-16   0.3364505474E-01  -0.1317252737E-01  -0.1317252737E-01   0.5675209870E-17   0.6165441464E-16   0.2953305895E-16   0.9125000013E+01
   0.1033645055E+01   0.0000000000E+00   0.9868274727E+00   0.2250000000E-02   0.0000000000E+00  -0.6750000000E-03   0.3139505469E-01   0.0000000000E+00  -0.1249752735E-01   0.9125000013E+01   0.4332004516E-15   0.1191496829E-14   0.5892038369E-15  -0.4250893960E-15  -0.4269534960E-15   0.3364505474E-01  -0.1317252736E-01  -0.1317252736E-01  -0.9974616232E-17   0.1057671177E-15  -0.2254749236E-16   0.9125000013E+01
   0.1033645055E+01   0.9868274727E+00   0.9868274727E+00   0.2250000000E-02  -0.6750000000E-03  -0.6750000000E-03   0.3139505469E-01  -0.1249752735E-01  -0.1249752735E-01   0.9125000012E+01   0.1150859861E-14   0.2382993657E-14   0.1164061861E-14   0.9763249984E-15  -0.7050435496E-15   0.3364505474E-01  -0.1317252736E-01  -0.1317252736E-01   0.6619505224E-17   0.1276846451E-15   0.1539359898E-17   0.9125000012E+01
   0.0000000000E+00   0.9868274727E+00   0.9868274727E+00   0.0000000000E+00  -0.6750000000E-03  -0.6750000000E-03   0.0000000000E+00  -0.1249752735E-01  -0.1249752735E-01   0.9125000012E+01   0.7023475254E-14   0.5900904899E-14  -0.1664579823E-15  -0.5733446310E-15   0.2017812634E-15   0.3364505474E-01  -0.1317252736E-01  -0.1317252736E-01  -0.1873174028E-16  -0.1052265866E-16   0.1026427660E-15   0.9125000012E+01
   0.2067290109E+01   0.0000000000E+00   0.1092995486E-16   0.4500000000E-02   0.0000000000E+00   0.1506777214E-16   0.6279010938E-01   0.0000000000E+00  -0.4137817274E-17   0.9125000014E+01  -0.7353624535E-14  -0.6567038644E-14   0.1540180280E-15  -0.6484561005E-15   0.5902635358E-15   0.3364505474E-01  -0.1317252737E-01  -0.1317252737E-01  -0.1593147969E-15   0.1991215822E-15  -0.2690948960E-16   0.9125000014E+01
   0.2067290109E+01   0.9868274727E+00  -0.3044312167E-17   0.4500000000E-02  -0.6750000000E-03   0.1374324773E-16   0.6279010938E-01  -0.1249752735E-01  -0.1678755990E-16   0.9125000013E+01   0.8836483197E-14   0.8443528740E-14   0.3742309740E-15  -0.6958373970E-15  -0.2984154939E-15   0.3364505474E-01  -0.1317252736E-01  -0.1317252736E-01  -0.1588487450E-15   0.2650360321E-15   0.3191487521E-16   0.9125000013E+01
   0.2067290109E+01   0.0000000000E+00   0.9868274727E+00   0.4500000000E-02   0.0000000000E+00  -0.6750000000E-03   0.6279010938E-01   0.0000000000E+00  -0.1249752735E-01   0.9125000013E+01   0.5454288895E-14   0.6651230123E-14  -0.8665197359E-15   0.2437100988E-14  -0.8466300512E-16   0.3364505474E-01  -0.1317252736E-01  -0.1317252736E-01   0.5389316977E-16   0.1376109551E-15  -0.1332977438E-16   0.9125000013E+01
   0.2067290109E+01   0.9868274727E+00   0.9868274727E+00   0.4500000000E-02  -0.6750000000E-03  -0.6750000000E-03   0.6279010938E-01  -0.1249752735E-01  -0.1249752735E-01   0.9125000012E+01  -0.7846321592E-14  -0.9128522176E-14  -0.5815162379E-15  -0.1818937533E-14   0.7761074112E-15   0.3364505473E-01  -0.1317252736E-01  -0.1317252736E-01   0.7935830845E-16   0.3478393730E-15   0.5646190933E-16   0.9125000012E+01
     1     2     3     4     5     6     7     8
     2     9    10     3     6    11    12     7
 VARIABLES = X,Y,Z,DU1,DU2,DU3,U1,U2,U3,S11,S22,S33,S12,S13,S23,E11,E22,E33,E12,E13,E23,SMISES
 ZONE, T="0.4900D+01" F=FEPOINT, I=   12 J=    2 ET=BRICK
   0.0000000000E+00   0.0000000000E+00   0.0000000000E+00   0.0000000000E+00   0.0000000000E+00   0.0000000000E+00   0.0000000000E+00   0.0000000000E+00   0.0000000000E+00   0.1024999970E+02   0.1560719299E-06   0.1560719328E-06   0.3314528477E-16  -0.9197269463E-16  -0.1284477550E-14   0.4097135338E-01  -0.1638567668E-01  -0.1638567668E-01  -0.2948422689E-17  -0.5439197276E-16  -0.7946794245E-16   0.1024999955E+02
   0.1040971353E+01   0.0000000000E+00  -0.1196979316E-16   0.7326298626E-02   0.0000000000E+00   0.6671870907E-17   0.3364505469E-01   0.0000000000E+00  -0.1864166407E-16   0.1024999970E+02   0.1560719194E-06   0.1560719208E-06   0.8085031735E-15   0.5912755458E-15  -0.1204005903E-15   0.4097135338E-01  -0.1638567668E-01  -0.1638567668E-01  -0.4641515056E-16   0.1003170218E-15   0.1115175599E-16   0.1024999955E+02
   0.1040971353E+01   0.9836143233E+00  -0.7269926361E-17   0.7326298626E-02  -0.3213149313E-02   0.3008075787E-17   0.3364505469E-01  -0.1317252735E-01  -0.1027800215E-16   0.1024999970E+02   0.1560719224E-06   0.1560719226E-06   0.8025213172E-15  -0.1079376728E-14   0.4611964818E-15   0.4097135338E-01  -0.1638567668E-01  -0.1638567668E-01  -0.4461369889E-16   0.1222168819E-15   0.6150057259E-16   0.1024999955E+02
   0.0000000000E+00   0.9836143233E+00  -0.3995255964E-16   0.0000000000E+00  -0.3213149313E-02  -0.7010404925E-17   0.0000000000E+00  -0.1317252735E-01  -0.3294215471E-16   0.1024999970E+02   0.1560719191E-06   0.1560719208E-06   0.1849687298E-15   0.1816243460E-14   0.4409859957E-15   0.4097135338E-01  -0.1638567668E-01  -0.1638567668E-01   0.4435806751E-19   0.8249801525E-16  -0.9047027514E-17   0.1024999955E+02
   0.0000000000E+00   0.0000000000E+00   0.9836143233E+00   0.0000000000E+00   0.0000000000E+00  -0.3213149313E-02   0.0000000000E+00   0.0000000000E+00  -0.1317252735E-01   0.1024999970E+02   0.1560719144E-06   0.1560719103E-06  -0.3681108046E-16   0.1502662229E-14  -0.3624926473E-15   0.4097135338E-01  -0.1638567668E-01  -0.1638567668E-01   0.1016669437E-19   0.6023180751E-16   0.1858912261E-16   0.1024999955E+02
   0.1040971353E+01   0.0000000000E+00   0.9836143233E+00   0.7326298626E-02   0.0000000000E+00  -0.3213149313E-02   0.3364505469E-01   0.0000000000E+00  -0.1317252735E-01   0.1024999970E+02   0.1560719224E-06   0.1560719224E-06  -0.7894763875E-15  -0.7676831978E-15  -0.9477687658E-15   0.4097135338E-01  -0.1638567668E-01  -0.1638567668E-01  -0.1980383162E-16   0.1022405405E-15  -0.3493574516E-16   0.1024999955E+02
   0.1040971353E+01   0.9836143233E+00   0.9836143233E+00   0.7326298626E-02  -0.3213149313E-02  -0.3213149313E-02   0.3364505469E-01  -0.1317252735E-01  -0.1317252735E-01   0.1024999970E+02   0.1560719223E-06   0.1560719224E-06  -0.1125979366E-14  -0.7085466281E-15  -0.1338195869E-15   0.4097135337E-01  -0.1638567668E-01  -0.1638567668E-01  -0.2220710614E-16   0.1286265559E-15   0.1833343393E-16   0.1024999955E+02
   0.0000000000E+00   0.9836143233E+00   0.9836143233E+00   0.0000000000E+00  -0.3213149313E-02  -0.3213149313E-02   0.0000000000E+00  -0.1317252735E-01  -0.1317252735E-01   0.1024999970E+02   0.1560719236E-06   0.1560719239E-06  -0.8074304572E-15  -0.2966519657E-15   0.1118999468E-14   0.4097135337E-01  -0.1638567668E-01  -0.1638567668E-01  -0.2420823405E-16  -0.1679159043E-16   0.1057214457E-15   0.1024999955E+02
   0.2081942707E+01   0.0000000000E+00   0.2887194509E-16   0.1465259725E-01   0.0000000000E+00   0.1794199023E-16   0.6729010938E-01   0.0000000000E+00   0.1092995486E-16   0.1024999970E+02   0.1560719156E-06   0.1560719160E-06   0.7778503386E-15  -0.9860614583E-18   0.7485341796E-15   0.4097135338E-01  -0.1638567668E-01  -0.1638567668E-01  -0.1436423849E-15   0.1699208314E-15  -0.2133150501E-16   0.1024999955E+02
   0.2081942707E+01   0.9836143233E+00   0.1674687737E-16   0.1465259725E-01  -0.3213149313E-02   0.1979118954E-16   0.6729010938E-01  -0.1317252735E-01  -0.3044312167E-17   0.1024999970E+02   0.1560719273E-06   0.1560719279E-06   0.7659688588E-15   0.2363439693E-15   0.1609221778E-15   0.4097135337E-01  -0.1638567668E-01  -0.1638567668E-01  -0.1394150927E-15   0.3324479263E-15   0.3804207140E-16   0.1024999955E+02
   0.2081942707E+01   0.0000000000E+00   0.9836143233E+00   0.1465259725E-01   0.0000000000E+00  -0.3213149313E-02   0.6729010938E-01   0.0000000000E+00  -0.1317252735E-01   0.1024999970E+02   0.1560719281E-06   0.1560719288E-06  -0.1592362255E-14   0.2565599516E-14  -0.1780723565E-15   0.4097135337E-01  -0.1638567668E-01  -0.1638567668E-01   0.2733265050E-16   0.1696952221E-15  -0.1576795500E-16   0.1024999955E+02
   0.2081942707E+01   0.9836143233E+00   0.9836143233E+00   0.1465259725E-01  -0.3213149313E-02  -0.3213149313E-02   0.6729010938E-01  -0.1317252735E-01  -0.1317252735E-01   0.1024999970E+02   0.1560719183E-06   0.1560719161E-06  -0.2014206298E-14  -0.1777970237E-14   0.9977878630E-15   0.4097135337E-01  -0.1638567668E-01  -0.1638567668E-01   0.5402356280E-16   0.2928602800E-15   0.5357954855E-16   0.1024999954E+02
     1     2     3     4     5     6     7     8
     2     9    10     3     6    11    12     7
 VARIABLES = X,Y,Z,DU1,DU2,DU3,U1,U2,U3,S11,S22,S33,S12,S13,S23,E11,E22,E33,E12,E13,E23,SMISES
 ZONE, T="0.4950D+01" F=FEPOINT, I=   12 J=    2 ET=BRICK
   0.0000000000E+00   0.0000000000E+00   0.0000000000E+00   0.0000000000E+00   0.0000000000E+00   0.0000000000E+00   0.0000000000E+00   0.0000000000E+00   0.0000000000E+00   0.1137499452E+02   0.2751246709E-05   0.2751246707E-05   0.1915052467E-15  -0.1657903652E-14   0.8345428622E-16   0.6774431774E-01  -0.2932215886E-01  -0.2932215886E-01   0.5837955022E-17  -0.9302351953E-16  -0.5274023999E-16   0.1137499176E+02
   0.1067744318E+01   0.0000000000E+00  -0.3824669327E-16   0.2677296432E-01   0.0000000000E+00  -0.2627690010E-16   0.4097135332E-01   0.0000000000E+00  -0.1196979316E-16   0.1137499452E+02   0.2751246695E-05   0.2751246694E-05   0.3193493052E-15   0.9357257869E-15   0.9804782759E-15   0.6774431774E-01  -0.2932215886E-01  -0.2932215886E-01  -0.5410699003E-16   0.1216194458E-15   0.3426565717E-16   0.1137499176E+02
   0.1067744318E+01   0.9706778412E+00  -0.2238203263E-16   0.2677296432E-01  -0.1293648216E-01  -0.1511210626E-16   0.4097135332E-01  -0.1638567666E-01  -0.7269926361E-17   0.1137499451E+02   0.2751246693E-05   0.2751246692E-05   0.2552816544E-15  -0.1121084477E-15  -0.8119730832E-15   0.6774431773E-01  -0.2932215886E-01  -0.2932215886E-01  -0.5296513410E-16   0.1719659217E-15   0.2697474545E-16   0.1137499176E+02
   0.0000000000E+00   0.9706778412E+00  -0.2629639959E-16   0.0000000000E+00  -0.1293648216E-01   0.1365616005E-16   0.0000000000E+00  -0.1638567666E-01  -0.3995255964E-16   0.1137499451E+02   0.2751246695E-05   0.2751246692E-05  -0.6130176297E-15  -0.6759244467E-15  -0.9881113387E-15   0.6774431774E-01  -0.2932215886E-01  -0.2932215886E-01  -0.1329290052E-16   0.2069028624E-16  -0.2540914239E-16   0.1137499176E+02
   0.0000000000E+00   0.0000000000E+00   0.9706778412E+00   0.0000000000E+00   0.0000000000E+00  -0.1293648216E-01   0.0000000000E+00   0.0000000000E+00  -0.1638567666E-01   0.1137499451E+02   0.2751246696E-05   0.2751246698E-05  -0.2257562509E-15  -0.1080647772E-14   0.1234980292E-14   0.6774431774E-01  -0.2932215886E-01  -0.2932215886E-01  -0.8648485759E-17   0.2865833402E-16   0.6835508057E-16   0.1137499176E+02
   0.1067744318E+01   0.0000000000E+00   0.9706778412E+00   0.2677296432E-01   0.0000000000E+00  -0.1293648216E-01   0.4097135332E-01   0.0000000000E+00  -0.1638567666E-01   0.1137499451E+02   0.2751246702E-05   0.2751246703E-05  -0.4930139181E-15   0.1670433979E-14   0.2568278101E-15   0.6774431773E-01  -0.2932215886E-01  -0.2932215886E-01  -0.6452603330E-17   0.1581215050E-15  -0.1623970522E-16   0.1137499176E+02
   0.1067744318E+01   0.9706778412E+00   0.9706778412E+00   0.2677296432E-01  -0.1293648216E-01  -0.1293648216E-01   0.4097135332E-01  -0.1638567666E-01  -0.1638567666E-01   0.1137499451E+02   0.2751246705E-05   0.2751246706E-05  -0.8945968068E-15  -0.7154055392E-15  -0.5964074351E-15   0.6774431773E-01  -0.2932215886E-01  -0.2932215886E-01  -0.1816442234E-16   0.1199424611E-15   0.1080063210E-16   0.1137499176E+02
   0.0000000000E+00   0.9706778412E+00   0.9706778412E+00   0.0000000000E+00  -0.1293648216E-01  -0.1293648216E-01   0.0000000000E+00  -0.1638567666E-01  -0.1638567666E-01   0.1137499451E+02   0.2751246701E-05   0.2751246705E-05  -0.9287659700E-16  -0.1716894995E-14  -0.1348862148E-14   0.6774431773E-01  -0.2932215886E-01  -0.2932215886E-01  -0.2123183372E-16  -0.5706456989E-16   0.2925295985E-16   0.1137499176E+02
   0.2135488635E+01   0.0000000000E+00  -0.5473870891E-16   0.5354592864E-01   0.0000000000E+00  -0.8361065400E-16   0.8194270663E-01   0.0000000000E+00   0.2887194509E-16   0.1137499451E+02   0.2751246695E-05   0.2751246694E-05  -0.1067935632E-14   0.1894832052E-14   0.7752059574E-16   0.6774431774E-01  -0.2932215886E-01  -0.2932215886E-01  -0.1649399341E-15   0.2192150314E-15  -0.2588993697E-16   0.1137499176E+02
   0.2135488635E+01   0.9706778412E+00  -0.6887488580E-16   0.5354592864E-01  -0.1293648216E-01  -0.8562176317E-16   0.8194270663E-01  -0.1638567666E-01   0.1674687737E-16   0.1137499451E+02   0.2751246700E-05   0.2751246701E-05  -0.1855605858E-14   0.3160671670E-15  -0.5450426798E-15   0.6774431773E-01  -0.2932215886E-01  -0.2932215886E-01  -0.1836458271E-15   0.2732057987E-15   0.2753100956E-16   0.1137499176E+02
   0.2135488635E+01   0.0000000000E+00   0.9706778412E+00   0.5354592864E-01   0.0000000000E+00  -0.1293648216E-01   0.8194270663E-01   0.0000000000E+00  -0.1638567666E-01   0.1137499451E+02   0.2751246704E-05   0.2751246704E-05  -0.5315058149E-15  -0.1252874754E-14   0.4930192020E-15   0.6774431773E-01  -0.2932215886E-01  -0.2932215886E-01  -0.9396380984E-17   0.1126488457E-15  -0.2082325598E-16   0.1137499176E+02
   0.2135488635E+01   0.9706778412E+00   0.9706778412E+00   0.5354592864E-01  -0.1293648216E-01  -0.1293648216E-01   0.8194270663E-01  -0.1638567666E-01  -0.1638567666E-01   0.1137499451E+02   0.2751246699E-05   0.2751246698E-05   0.8271058507E-15  -0.2979667651E-15   0.7031536969E-15   0.6774431772E-01  -0.2932215886E-01  -0.2932215886E-01   0.4330255276E-16   0.2690235176E-15   0.7980802249E-16   0.1137499176E+02
     1     2     3     4     5     6     7     8
     2     9    10     3     6    11    12     7
 VARIABLES = X,Y,Z,DU1,DU2,DU3,U1,U2,U3,S11,S22,S33,S12,S13,S23,E11,E22,E33,E12,E13,E23,SMISES
 ZONE, T="0.5000D+01" F=FEPOINT, I=   12 J=    2 ET=BRICK
   0.0000000000E+00   0.0000000000E+00   0.0000000000E+00   0.0000000000E+00   0.0000000000E+00   0.0000000000E+00   0.0000000000E+00   0.0000000000E+00   0.0000000000E+00   0.1249998835E+02   0.5835708254E-05   0.5835708255E-05   0.2349141420E-15  -0.8529680333E-15  -0.9318736690E-15   0.9646463955E-01  -0.4323231977E-01  -0.4323231977E-01   0.2967311429E-17  -0.7005197483E-16  -0.7244716871E-16   0.1249998251E+02
   0.1096464639E+01   0.0000000000E+00  -0.2852793670E-16   0.2872032176E-01   0.0000000000E+00   0.9718756572E-17   0.6774431764E-01   0.0000000000E+00  -0.3824669327E-16   0.1249998835E+02   0.5835708241E-05   0.5835708240E-05   0.3955966785E-15   0.8688191731E-15  -0.4485545507E-16   0.9646463954E-01  -0.4323231976E-01  -0.4323231976E-01  -0.2883101747E-16   0.1413387833E-15   0.1040466736E-16   0.1249998251E+02
   0.1096464639E+01   0.9567676803E+00  -0.1961653328E-16   0.2872032176E-01  -0.1391016088E-01   0.2765499347E-17   0.6774431764E-01  -0.2932215882E-01  -0.2238203263E-16   0.1249998835E+02   0.5835708245E-05   0.5835708245E-05   0.8771006210E-15  -0.9110924834E-15  -0.1322817885E-15   0.9646463953E-01  -0.4323231976E-01  -0.4323231976E-01  -0.2123849935E-16   0.1372622316E-15   0.4259356874E-16   0.1249998251E+02
   0.0000000000E+00   0.9567676803E+00  -0.3795107913E-16   0.0000000000E+00  -0.1391016088E-01  -0.1165467954E-16   0.0000000000E+00  -0.2932215882E-01  -0.2629639959E-16   0.1249998835E+02   0.5835708240E-05   0.5835708240E-05   0.8060599054E-15   0.6750485451E-15   0.2493066662E-15   0.9646463953E-01  -0.4323231976E-01  -0.4323231976E-01   0.1815747109E-16   0.3508647257E-16  -0.5034726373E-17   0.1249998251E+02
   0.0000000000E+00   0.0000000000E+00   0.9567676803E+00   0.0000000000E+00   0.0000000000E+00  -0.1391016088E-01   0.0000000000E+00   0.0000000000E+00  -0.2932215882E-01   0.1249998835E+02   0.5835708248E-05   0.5835708246E-05  -0.1833965168E-15   0.4877253104E-15  -0.2623831049E-15   0.9646463953E-01  -0.4323231976E-01  -0.4323231976E-01  -0.4573230545E-17   0.3265076399E-16   0.1030811866E-16   0.1249998251E+02
   0.1096464639E+01   0.0000000000E+00   0.9567676803E+00   0.2872032176E-01   0.0000000000E+00  -0.1391016088E-01   0.6774431764E-01   0.0000000000E+00  -0.2932215882E-01   0.1249998835E+02   0.5835708243E-05   0.5835708243E-05  -0.5480854344E-15   0.1088036215E-14  -0.4531079166E-15   0.9646463953E-01  -0.4323231976E-01  -0.4323231976E-01  -0.2560867643E-16   0.1826961413E-15  -0.8805103166E-18   0.1249998251E+02
   0.1096464639E+01   0.9567676803E+00   0.9567676803E+00   0.2872032176E-01  -0.1391016088E-01  -0.1391016088E-01   0.6774431764E-01  -0.2932215882E-01  -0.2932215882E-01   0.1249998834E+02   0.5835708247E-05   0.5835708246E-05  -0.1097131604E-14  -0.2575152796E-15  -0.2932988416E-15   0.9646463952E-01  -0.4323231975E-01  -0.4323231975E-01  -0.3172634590E-16   0.1028944316E-15  -0.5483741989E-18   0.1249998251E+02
   0.0000000000E+00   0.9567676803E+00   0.9567676803E+00   0.0000000000E+00  -0.1391016088E-01  -0.1391016088E-01   0.0000000000E+00  -0.2932215882E-01  -0.2932215882E-01   0.1249998835E+02   0.5835708247E-05   0.5835708245E-05  -0.7649514382E-15  -0.4208924671E-15   0.2213425226E-15   0.9646463952E-01  -0.4323231975E-01  -0.4323231975E-01  -0.3847729813E-16  -0.2471022348E-16   0.9179308027E-16   0.1249998251E+02
   0.2192929279E+01   0.0000000000E+00  -0.1318998002E-16   0.5744064351E-01   0.0000000000E+00   0.4154872889E-16   0.1354886353E+00   0.0000000000E+00  -0.5473870891E-16   0.1249998835E+02   0.5835708242E-05   0.5835708242E-05   0.5136677524E-15  -0.1793602743E-15   0.3286283657E-15   0.9646463954E-01  -0.4323231976E-01  -0.4323231976E-01  -0.1473858075E-15   0.1992532367E-15  -0.2295227732E-16   0.1249998251E+02
   0.2192929279E+01   0.9567676803E+00  -0.2472854228E-16   0.5744064351E-01  -0.1391016088E-01   0.4414634353E-16   0.1354886353E+00  -0.2932215882E-01  -0.6887488580E-16   0.1249998835E+02   0.5835708250E-05   0.5835708250E-05  -0.1424391583E-15  -0.1054645960E-14   0.4108937128E-15   0.9646463953E-01  -0.4323231976E-01  -0.4323231976E-01  -0.1773536751E-15   0.3359394941E-15   0.4755952727E-16   0.1249998251E+02
   0.2192929279E+01   0.0000000000E+00   0.9567676803E+00   0.5744064351E-01   0.0000000000E+00  -0.1391016088E-01   0.1354886353E+00   0.0000000000E+00  -0.2932215882E-01   0.1249998835E+02   0.5835708250E-05   0.5835708250E-05  -0.5306136268E-15  -0.8344386611E-15   0.2024936400E-15   0.9646463953E-01  -0.4323231976E-01  -0.4323231976E-01   0.3439511927E-16   0.9877824891E-16  -0.1526186396E-16   0.1249998251E+02
   0.2192929279E+01   0.9567676803E+00   0.9567676803E+00   0.5744064351E-01  -0.1391016088E-01  -0.1391016088E-01   0.1354886353E+00  -0.2932215882E-01  -0.2932215882E-01   0.1249998834E+02   0.5835708235E-05   0.5835708235E-05   0.2926080373E-15  -0.1422245496E-15   0.8315507262E-15   0.9646463952E-01  -0.4323231975E-01  -0.4323231975E-01   0.9708545261E-16   0.3749614947E-15   0.7887010357E-16   0.1249998251E+02
     1     2     3     4     5     6     7     8
     2     9    10     3     6    11    12     7
 VARIABLES = X,Y,Z,DU1,DU2,DU3,U1,U2,U3,S11,S22,S33,S12,S13,S23,E11,E22,E33,E12,E13,E23,SMISES
 ZONE, T="0.5050D+01" F=FEPOINT, I=   12 J=    2 ET=BRICK
   0.0000000000E+00   0.0000000000E+00   0.0000000000E+00   0.0000000000E+00   0.0000000000E+00   0.0000000000E+00   0.0000000000E+00   0.0000000000E+00   0.0000000000E+00   0.1137500002E+02   0.6275962939E-14  -0.9080927732E-16   0.2157683411E-15  -0.4850733134E-14  -0.7573499601E-15   0.9421466989E-01  -0.4255733494E-01  -0.4255733494E-01  -0.1952539692E-16  -0.1014752465E-15  -0.1046113860E-15   0.1137500002E+02
   0.1094214670E+01   0.0000000000E+00  -0.6054926970E-16  -0.2249969654E-02   0.0000000000E+00  -0.3202133300E-16   0.9646463939E-01   0.0000000000E+00  -0.2852793670E-16   0.1137500002E+02  -0.5156414978E-14  -0.1150432726E-13   0.1064184417E-14  -0.1600127745E-14   0.1277797956E-14   0.9421466989E-01  -0.4255733494E-01  -0.4255733494E-01   0.7280770641E-17   0.6221262698E-16   0.4022260205E-16   0.1137500002E+02
   0.1094214670E+01   0.9574426651E+00  -0.4485439315E-16  -0.2249969654E-02   0.6749848272E-03  -0.2523785988E-16   0.9646463939E-01  -0.4323231970E-01  -0.1961653328E-16   0.1137500002E+02   0.4797871720E-14  -0.1167061137E-16   0.5291562459E-15   0.2177978885E-14  -0.2521289006E-14   0.9421466987E-01  -0.4255733493E-01  -0.4255733493E-01  -0.3322837886E-16   0.2499352467E-15   0.3505461646E-16   0.1137500002E+02
   0.0000000000E+00   0.9574426651E+00  -0.3695828622E-16   0.0000000000E+00   0.6749848272E-03   0.9927929081E-18   0.0000000000E+00  -0.4323231970E-01  -0.3795107913E-16   0.1137500002E+02  -0.5897986803E-14  -0.9304876466E-14   0.8070046491E-15  -0.2098865565E-14  -0.1859292826E-14   0.9421466988E-01  -0.4255733493E-01  -0.4255733493E-01  -0.5299999426E-18  -0.2054304353E-16   0.6909234186E-17   0.1137500002E+02
   0.0000000000E+00   0.0000000000E+00   0.9574426651E+00   0.0000000000E+00   0.0000000000E+00   0.6749848272E-03   0.0000000000E+00   0.0000000000E+00  -0.4323231970E-01   0.1137500002E+02   0.2700119267E-14  -0.8010686278E-15  -0.1448069603E-15  -0.2797113526E-14   0.1377401606E-14   0.9421466988E-01  -0.4255733493E-01  -0.4255733493E-01   0.8687781019E-17  -0.1661691746E-16   0.8624280880E-16   0.1137500002E+02
   0.1094214670E+01   0.0000000000E+00   0.9574426651E+00  -0.2249969654E-02   0.0000000000E+00   0.6749848272E-03   0.9646463939E-01   0.0000000000E+00  -0.4323231970E-01   0.1137500002E+02   0.1185661933E-14   0.3130401462E-14   0.4705167184E-14  -0.1331268326E-14   0.5527326705E-15   0.9421466987E-01  -0.4255733493E-01  -0.4255733493E-01   0.1397014242E-16   0.1443357919E-15  -0.2170681497E-16   0.1137500002E+02
   0.1094214670E+01   0.9574426651E+00   0.9574426651E+00  -0.2249969654E-02   0.6749848272E-03   0.6749848272E-03   0.9646463939E-01  -0.4323231970E-01  -0.4323231970E-01   0.1137500001E+02   0.3277007521E-14   0.4274072213E-14   0.3458270496E-14   0.2228601678E-14  -0.2969960416E-14   0.9421466986E-01  -0.4255733493E-01  -0.4255733493E-01   0.2873196477E-16   0.1307299423E-15  -0.1351453246E-16   0.1137500001E+02
   0.0000000000E+00   0.9574426651E+00   0.9574426651E+00   0.0000000000E+00   0.6749848272E-03   0.6749848272E-03   0.0000000000E+00  -0.4323231970E-01  -0.4323231970E-01   0.1137500002E+02   0.1652288957E-13   0.1595767100E-13  -0.2870065969E-14  -0.4840931697E-14  -0.4821595891E-15   0.9421466987E-01  -0.4255733493E-01  -0.4255733493E-01  -0.4668963717E-16  -0.6612120344E-16   0.3033712402E-16   0.1137500002E+02
   0.2188429339E+01   0.0000000000E+00  -0.1214413597E-15  -0.4499939309E-02   0.0000000000E+00  -0.1082513797E-15   0.1929292788E+00   0.0000000000E+00  -0.1318998002E-16   0.1137500002E+02  -0.9721352611E-14  -0.1289822646E-13   0.9861952540E-14   0.5601296613E-14   0.2233954480E-14   0.9421466988E-01  -0.4255733493E-01  -0.4255733493E-01  -0.2954671712E-16   0.2568993543E-15  -0.1525893957E-16   0.1137500002E+02
   0.2188429339E+01   0.9574426651E+00  -0.1230654225E-15  -0.4499939309E-02   0.6749848272E-03  -0.9833688018E-16   0.1929292788E+00  -0.4323231970E-01  -0.2472854228E-16   0.1137500002E+02   0.1596116033E-13   0.1325812399E-13   0.7217593928E-14  -0.6639250953E-14   0.3253811178E-15   0.9421466987E-01  -0.4255733493E-01  -0.4255733493E-01  -0.4297181643E-16   0.1256799455E-15   0.6910820077E-16   0.1137500002E+02
   0.2188429339E+01   0.0000000000E+00   0.9574426651E+00  -0.4499939309E-02   0.0000000000E+00   0.6749848272E-03   0.1929292788E+00   0.0000000000E+00  -0.4323231970E-01   0.1137500002E+02   0.1612584387E-13   0.1769979746E-13  -0.3143540519E-14   0.4103375705E-14   0.2511938707E-14   0.9421466987E-01  -0.4255733493E-01  -0.4255733493E-01  -0.1259896652E-16   0.4976644807E-16   0.2494305803E-16   0.1137500002E+02
   0.2188429339E+01   0.9574426651E+00   0.9574426651E+00  -0.4499939309E-02   0.6749848272E-03   0.6749848272E-03   0.1929292788E+00  -0.4323231970E-01  -0.4323231970E-01   0.1137500001E+02  -0.1375957370E-13  -0.1204484954E-13  -0.2045779862E-14  -0.5522651625E-14   0.1214527165E-14   0.9421466986E-01  -0.4255733492E-01  -0.4255733492E-01   0.2023178126E-16   0.3869792583E-15   0.7754653216E-16   0.1137500001E+02
     1     2     3     4     5     6     7     8
     2     9    10     3     6    11    12     7
 VARIABLES = X,Y,Z,DU1,DU2,DU3,U1,U2,U3,S11,S22,S33,S12,S13,S23,E11,E22,E33,E12,E13,E23,SMISES
 ZONE, T="0.5100D+01" F=FEPOINT, I=   12 J=    2 ET=BRICK
   0.0000000000E+00   0.0000000000E+00   0.0000000000E+00   0.0000000000E+00   0.0000000000E+00   0.0000000000E+00   0.0000000000E+00   0.0000000000E+00   0.0000000000E+00   0.1025000002E+02   0.8157611327E-14   0.6734640042E-14   0.1975377884E-15  -0.2255076290E-14  -0.1164756476E-14   0.9196466988E-01  -0.4188233494E-01  -0.4188233494E-01  -0.1135234874E-16  -0.1076457895E-15  -0.6836890025E-16   0.1025000002E+02
   0.1091964670E+01   0.0000000000E+00  -0.3240543710E-16  -0.2250000000E-02   0.0000000000E+00   0.2814383260E-16   0.9421466974E-01   0.0000000000E+00  -0.6054926970E-16   0.1025000002E+02  -0.1773439032E-14  -0.1451260772E-14  -0.1879254452E-14   0.1628890029E-15   0.7127704997E-15   0.9196466988E-01  -0.4188233493E-01  -0.4188233493E-01  -0.5208761063E-16   0.1109539478E-15   0.2966334720E-16   0.1025000002E+02
   0.1091964670E+01   0.9581176651E+00  -0.1963176988E-16  -0.2250000000E-02   0.6750000000E-03   0.2522262327E-16   0.9421466974E-01  -0.4255733487E-01  -0.4485439315E-16   0.1025000001E+02  -0.1993347683E-14  -0.4658663743E-15  -0.1137513070E-14   0.4413159128E-15   0.7112089009E-15   0.9196466987E-01  -0.4188233493E-01  -0.4188233493E-01  -0.2930747685E-16   0.1340120187E-15   0.6450419658E-16   0.1025000001E+02
   0.0000000000E+00   0.9581176651E+00  -0.3894659040E-16   0.0000000000E+00   0.6750000000E-03  -0.1988304173E-17   0.0000000000E+00  -0.4255733487E-01  -0.3695828622E-16   0.1025000001E+02  -0.5827993107E-14  -0.4368370226E-14   0.8021055295E-15   0.1075438784E-14  -0.6020097507E-15   0.9196466987E-01  -0.4188233493E-01  -0.4188233493E-01  -0.5735819750E-17   0.8372243258E-16  -0.7416142174E-18   0.1025000001E+02
   0.0000000000E+00   0.0000000000E+00   0.9581176651E+00   0.0000000000E+00   0.0000000000E+00   0.6750000000E-03   0.0000000000E+00   0.0000000000E+00  -0.4255733487E-01   0.1025000001E+02  -0.9124821507E-15  -0.2529599309E-14  -0.1321919173E-15   0.1288589896E-14   0.1083604008E-14   0.9196466987E-01  -0.4188233493E-01  -0.4188233493E-01   0.1466876931E-16   0.2258761022E-16   0.3023854045E-16   0.1025000001E+02
   0.1091964670E+01   0.0000000000E+00   0.9581176651E+00  -0.2250000000E-02   0.0000000000E+00   0.6750000000E-03   0.9421466974E-01   0.0000000000E+00  -0.4255733487E-01   0.1025000001E+02  -0.1749525777E-14  -0.9912294869E-15  -0.1616557670E-15   0.6342138008E-15  -0.2638747007E-15   0.9196466987E-01  -0.4188233493E-01  -0.4188233493E-01  -0.5034508982E-16   0.1470536933E-15  -0.2895716105E-16   0.1025000001E+02
   0.1091964670E+01   0.9581176651E+00   0.9581176651E+00  -0.2250000000E-02   0.6750000000E-03   0.6750000000E-03   0.9421466974E-01  -0.4255733487E-01  -0.4255733487E-01   0.1025000001E+02   0.3734120600E-14   0.2967853334E-14   0.4734149419E-16   0.8807836785E-15   0.3601133466E-16   0.9196466986E-01  -0.4188233492E-01  -0.4188233492E-01  -0.4083889401E-16   0.2109520790E-15  -0.1639425422E-16   0.1025000001E+02
   0.0000000000E+00   0.9581176651E+00   0.9581176651E+00   0.0000000000E+00   0.6750000000E-03   0.6750000000E-03   0.0000000000E+00  -0.4255733487E-01  -0.4255733487E-01   0.1025000001E+02  -0.1257505816E-14   0.1259746266E-14   0.4090554328E-15  -0.6879647167E-15   0.7133402754E-15   0.9196466986E-01  -0.4188233493E-01  -0.4188233493E-01  -0.1806525359E-16  -0.9102916819E-16   0.1201690180E-15   0.1025000001E+02
   0.2183929339E+01   0.0000000000E+00  -0.8357287559E-17  -0.4500000000E-02   0.0000000000E+00   0.1130840722E-15   0.1884293395E+00   0.0000000000E+00  -0.1214413597E-15   0.1025000002E+02  -0.3047770107E-15  -0.1568118045E-14  -0.3061870267E-14  -0.1530470006E-14  -0.8991818459E-15   0.9196466988E-01  -0.4188233493E-01  -0.4188233493E-01  -0.1601459243E-15   0.2017916685E-15  -0.2018106651E-16   0.1025000002E+02
   0.2183929339E+01   0.9581176651E+00  -0.2623469243E-16  -0.4500000000E-02   0.6750000000E-03   0.9683073002E-16   0.1884293395E+00  -0.4255733487E-01  -0.1230654225E-15   0.1025000001E+02   0.7328643564E-14   0.5462650978E-14  -0.3176529475E-14   0.4022545165E-15  -0.7041148010E-15   0.9196466987E-01  -0.4188233493E-01  -0.4188233493E-01  -0.1347422200E-15   0.2155021987E-15   0.1125326205E-16   0.1025000001E+02
   0.2183929339E+01   0.0000000000E+00   0.9581176651E+00  -0.4500000000E-02   0.0000000000E+00   0.6750000000E-03   0.1884293395E+00   0.0000000000E+00  -0.4255733487E-01   0.1025000001E+02   0.4233043850E-14   0.3905421268E-14   0.1395621093E-14  -0.3252042315E-14  -0.7695740357E-15   0.9196466987E-01  -0.4188233493E-01  -0.4188233493E-01   0.1042945444E-15   0.2208360134E-15  -0.1271359837E-16   0.1025000001E+02
   0.2183929339E+01   0.9581176651E+00   0.9581176651E+00  -0.4500000000E-02   0.6750000000E-03   0.6750000000E-03   0.1884293395E+00  -0.4255733487E-01  -0.4255733487E-01   0.1025000001E+02  -0.6519889241E-14  -0.7239007535E-14   0.2270377680E-14   0.1414207754E-14   0.2512442219E-16   0.9196466986E-01  -0.4188233492E-01  -0.4188233492E-01   0.1464303934E-15   0.2468542380E-15   0.7833773560E-16   0.1025000001E+02
     1     2     3     4     5     6     7     8
     2     9    10     3     6    11    12     7
 VARIABLES = X,Y,Z,DU1,DU2,DU3,U1,U2,U3,S11,S22,S33,S12,S13,S23,E11,E22,E33,E12,E13,E23,SMISES
 ZONE, T="0.5150D+01" F=FEPOINT, I=   12 J=    2 ET=BRICK
   0.0000000000E+00   0.0000000000E+00   0.0000000000E+00   0.0000000000E+00   0.0000000000E+00   0.0000000000E+00   0.0000000000E+00   0.0000000000E+00   0.0000000000E+00   0.9125000014E+01   0.5399455032E-14   0.3411942406E-14   0.1835911530E-15  -0.2451041896E-14  -0.1192043513E-14   0.8971466988E-01  -0.4120733493E-01  -0.4120733493E-01   0.2845971408E-17  -0.1018022739E-15  -0.9447171037E-16   0.9125000014E+01
   0.1089714670E+01   0.0000000000E+00  -0.3517201434E-16  -0.2250000000E-02   0.0000000000E+00  -0.2766577239E-17   0.9196466974E-01   0.0000000000E+00  -0.3240543710E-16   0.9125000014E+01  -0.3086846829E-14  -0.2967853508E-14   0.7246050266E-15   0.1417984399E-14   0.8124579862E-15   0.8971466988E-01  -0.4120733493E-01  -0.4120733493E-01  -0.3809071934E-16   0.1406411178E-15   0.3619274904E-16   0.9125000014E+01
   0.1089714670E+01   0.9587926651E+00  -0.2196748285E-16  -0.2250000000E-02   0.6750000000E-03  -0.2335712973E-17   0.9196466974E-01  -0.4188233487E-01  -0.1963176988E-16   0.9125000013E+01  -0.4876437062E-15  -0.4063697726E-15   0.1092985906E-14  -0.1096667854E-14   0.3667313668E-15   0.8971466987E-01  -0.4120733493E-01  -0.4120733493E-01  -0.3788199099E-16   0.1997790380E-15   0.4336371052E-16   0.9125000013E+01
   0.0000000000E+00   0.9587926651E+00  -0.3901607707E-16   0.0000000000E+00   0.6750000000E-03  -0.6948666773E-19   0.0000000000E+00  -0.4188233487E-01  -0.3894659040E-16   0.9125000013E+01  -0.3602102981E-14  -0.3239287760E-14   0.1086138585E-14   0.8906101742E-15  -0.7979572495E-15   0.8971466987E-01  -0.4120733493E-01  -0.4120733493E-01   0.4079447301E-17   0.3292431181E-16  -0.7273781058E-18   0.9125000013E+01
   0.0000000000E+00   0.0000000000E+00   0.9587926651E+00   0.0000000000E+00   0.0000000000E+00   0.6750000000E-03   0.0000000000E+00   0.0000000000E+00  -0.4188233487E-01   0.9125000013E+01   0.6849935548E-15  -0.4390355784E-15  -0.1316634994E-15   0.1075906088E-14   0.8271394749E-15   0.8971466987E-01  -0.4120733493E-01  -0.4120733493E-01   0.4963840562E-17   0.3860194294E-16   0.7678498476E-16   0.9125000013E+01
   0.1089714670E+01   0.0000000000E+00   0.9587926651E+00  -0.2250000000E-02   0.0000000000E+00   0.6750000000E-03   0.9196466974E-01   0.0000000000E+00  -0.4188233487E-01   0.9125000013E+01  -0.1294548026E-14  -0.5471403761E-15  -0.5793628564E-15   0.1851979482E-14  -0.4913956074E-15   0.8971466987E-01  -0.4120733493E-01  -0.4120733493E-01  -0.4033278017E-16   0.1926911590E-15  -0.4745490849E-16   0.9125000013E+01
   0.1089714670E+01   0.9587926651E+00   0.9587926651E+00  -0.2250000000E-02   0.6750000000E-03   0.6750000000E-03   0.9196466974E-01  -0.4188233487E-01  -0.4188233487E-01   0.9125000012E+01   0.3433719727E-14   0.2323496919E-14  -0.6468171267E-15  -0.1647126268E-15  -0.6095113720E-15   0.8971466986E-01  -0.4120733492E-01  -0.4120733492E-01  -0.2857179956E-16   0.9471723321E-16   0.1038816535E-16   0.9125000012E+01
   0.0000000000E+00   0.9587926651E+00   0.9587926651E+00   0.0000000000E+00   0.6750000000E-03   0.6750000000E-03   0.0000000000E+00  -0.4188233487E-01  -0.4188233487E-01   0.9125000012E+01  -0.1304654902E-14   0.7184411373E-15   0.2539363152E-15  -0.1178120974E-14   0.3047860865E-15   0.8971466986E-01  -0.4120733493E-01  -0.4120733493E-01  -0.2827028289E-16  -0.4743979031E-16   0.7121388328E-16   0.9125000012E+01
   0.2179429339E+01   0.0000000000E+00  -0.2063512644E-16  -0.4500000000E-02   0.0000000000E+00  -0.1227783888E-16   0.1839293395E+00   0.0000000000E+00  -0.8357287559E-17   0.9125000014E+01  -0.1608755131E-14  -0.1841688294E-14  -0.1088874923E-15  -0.2824416135E-15  -0.2428441739E-15   0.8971466988E-01  -0.4120733493E-01  -0.4120733493E-01  -0.1870482996E-15   0.1518223524E-15  -0.3607833873E-16   0.9125000014E+01
   0.2179429339E+01   0.9587926651E+00  -0.3506014153E-16  -0.4500000000E-02   0.6750000000E-03  -0.8825449097E-17   0.1839293395E+00  -0.4188233487E-01  -0.2623469243E-16   0.9125000013E+01   0.4858931501E-14   0.5221746733E-14  -0.1287503195E-14  -0.8883417867E-15  -0.3097264648E-16   0.8971466987E-01  -0.4120733493E-01  -0.4120733493E-01  -0.1584464452E-15   0.1977548474E-15   0.5591647918E-16   0.9125000013E+01
   0.2179429339E+01   0.0000000000E+00   0.9587926651E+00  -0.4500000000E-02   0.0000000000E+00   0.6750000000E-03   0.1839293395E+00   0.0000000000E+00  -0.4188233487E-01   0.9125000013E+01   0.2954828622E-14   0.3472220777E-14   0.1405125027E-14  -0.2449466065E-14   0.6769839234E-16   0.8971466987E-01  -0.4120733493E-01  -0.4120733493E-01   0.1435454292E-15  -0.6514952755E-16   0.1739936055E-16   0.9125000013E+01
   0.2179429339E+01   0.9587926651E+00   0.9587926651E+00  -0.4500000000E-02   0.6750000000E-03   0.6750000000E-03   0.1839293395E+00  -0.4188233487E-01  -0.4188233487E-01   0.9125000012E+01  -0.7176593290E-14  -0.5884962788E-14   0.1917527050E-14   0.9823635407E-15   0.8337317460E-15   0.8971466985E-01  -0.4120733492E-01  -0.4120733492E-01   0.1933469507E-15   0.5011872866E-15   0.4231326676E-16   0.9125000012E+01
     1     2     3     4     5     6     7     8
     2     9    10     3     6    11    12     7
 VARIABLES = X,Y,Z,DU1,DU2,DU3,U1,U2,U3,S11,S22,S33,S12,S13,S23,E11,E22,E33,E12,E13,E23,SMISES
 ZONE, T="0.5200D+01" F=FEPOINT, I=   12 J=    2 ET=BRICK
   0.0000000000E+00   0.0000000000E+00   0.0000000000E+00   0.0000000000E+00   0.0000000000E+00   0.0000000000E+00   0.0000000000E+00   0.0000000000E+00   0.0000000000E+00   0.8000000013E+01   0.7526670325E-14   0.5533713379E-14   0.1602466811E-15  -0.2293926732E-14  -0.1023176403E-14   0.8746466988E-01  -0.4053233493E-01  -0.4053233493E-01   0.6551376541E-17  -0.1055403354E-15  -0.7662564154E-16   0.8000000013E+01
   0.1087464670E+01   0.0000000000E+00  -0.3453424942E-16  -0.2250000000E-02   0.0000000000E+00   0.6377649169E-18   0.8971466974E-01   0.0000000000E+00  -0.3517201434E-16   0.8000000012E+01  -0.2369187437E-14  -0.2239305475E-14  -0.2977647475E-15   0.6798826505E-15   0.8095063839E-15   0.8746466987E-01  -0.4053233493E-01  -0.4053233493E-01  -0.5329452395E-16   0.1579783014E-15   0.1560497861E-16   0.8000000012E+01
   0.1087464670E+01   0.9594676651E+00  -0.2131862352E-16  -0.2250000000E-02   0.6750000000E-03   0.6488593358E-18   0.8971466974E-01  -0.4120733487E-01  -0.2196748285E-16   0.8000000011E+01  -0.1545768233E-15  -0.1139398565E-15   0.2286421302E-16  -0.2933293438E-15   0.3381791814E-15   0.8746466986E-01  -0.4053233493E-01  -0.4053233493E-01  -0.5912573985E-16   0.1844459137E-15   0.5313102738E-16   0.8000000011E+01
   0.0000000000E+00   0.9594676651E+00  -0.3825322390E-16   0.0000000000E+00   0.6750000000E-03   0.7628531694E-18   0.0000000000E+00  -0.4120733487E-01  -0.3901607707E-16   0.8000000012E+01  -0.4434770072E-14  -0.4051636368E-14   0.1070767439E-14   0.7407501401E-15  -0.7727190908E-15   0.8746466987E-01  -0.4053233493E-01  -0.4053233493E-01   0.6743673533E-17   0.4900541938E-16  -0.3082961890E-16   0.8000000012E+01
   0.0000000000E+00   0.0000000000E+00   0.9594676651E+00   0.0000000000E+00   0.0000000000E+00   0.6750000000E-03   0.0000000000E+00   0.0000000000E+00  -0.4120733487E-01   0.8000000012E+01  -0.7728823744E-16  -0.1180998888E-14  -0.9679374812E-16   0.1214585760E-14   0.1025263271E-14   0.8746466987E-01  -0.4053233493E-01  -0.4053233493E-01  -0.1197677887E-17   0.5110527284E-16   0.3903330083E-16   0.8000000012E+01
   0.1087464670E+01   0.0000000000E+00   0.9594676651E+00  -0.2250000000E-02   0.0000000000E+00   0.6750000000E-03   0.8971466974E-01   0.0000000000E+00  -0.4120733487E-01   0.8000000011E+01  -0.1102251746E-14  -0.3954810635E-15  -0.3089835068E-15   0.1245134489E-14  -0.4752879394E-15   0.8746466986E-01  -0.4053233493E-01  -0.4053233493E-01  -0.2305264470E-16   0.1979809979E-15  -0.3203689819E-16   0.8000000011E+01
   0.1087464670E+01   0.9594676651E+00   0.9594676651E+00  -0.2250000000E-02   0.6750000000E-03   0.6750000000E-03   0.8971466974E-01  -0.4120733487E-01  -0.4120733487E-01   0.8000000010E+01   0.3241423497E-14   0.2282859934E-14  -0.2339969511E-15   0.3812356618E-15  -0.6881346390E-15   0.8746466985E-01  -0.4053233492E-01  -0.4053233492E-01  -0.9521684600E-17   0.1203708163E-15   0.4325037459E-16   0.8000000010E+01
   0.0000000000E+00   0.9594676651E+00   0.9594676651E+00   0.0000000000E+00   0.6750000000E-03   0.6750000000E-03   0.0000000000E+00  -0.4120733487E-01  -0.4120733487E-01   0.8000000011E+01  -0.1030016839E-14   0.9172495812E-15   0.2832689488E-15  -0.1196818948E-14   0.4579015801E-15   0.8746466986E-01  -0.4053233492E-01  -0.4053233492E-01  -0.2335996007E-16  -0.5465502608E-16   0.5609800553E-16   0.8000000011E+01
   0.2174929339E+01   0.0000000000E+00  -0.1890019100E-16  -0.4500000000E-02   0.0000000000E+00   0.1734935439E-17   0.1794293395E+00   0.0000000000E+00  -0.2063512644E-16   0.8000000012E+01  -0.3351377864E-14  -0.3660140642E-14   0.3280556962E-15   0.4310387401E-15  -0.1645492689E-15   0.8746466987E-01  -0.4053233493E-01  -0.4053233493E-01  -0.5124352341E-16   0.2336544121E-15  -0.1609104395E-16   0.8000000012E+01
   0.2174929339E+01   0.9594676651E+00  -0.3288435485E-16  -0.4500000000E-02   0.6750000000E-03   0.2175786678E-17   0.1794293395E+00  -0.4120733487E-01  -0.3506014153E-16   0.8000000011E+01   0.5307006132E-14   0.5952821372E-14  -0.8498768342E-15  -0.1322447749E-14   0.1083464246E-15   0.8746466986E-01  -0.4053233493E-01  -0.4053233493E-01  -0.5324801493E-16   0.2278512170E-15  -0.9602209629E-17   0.8000000011E+01
   0.2174929339E+01   0.0000000000E+00   0.9594676651E+00  -0.4500000000E-02   0.0000000000E+00   0.6750000000E-03   0.1794293395E+00   0.0000000000E+00  -0.4120733487E-01   0.8000000011E+01   0.4383244180E-14   0.5183636342E-14   0.8280288956E-15  -0.1580748501E-14  -0.1736538824E-15   0.8746466986E-01  -0.4053233493E-01  -0.4053233493E-01   0.5399878718E-16   0.1269456784E-15  -0.1178051585E-16   0.8000000011E+01
   0.2174929339E+01   0.9594676651E+00   0.9594676651E+00  -0.4500000000E-02   0.6750000000E-03   0.6750000000E-03   0.1794293395E+00  -0.4120733487E-01  -0.4120733487E-01   0.8000000010E+01  -0.7554282605E-14  -0.7318822642E-14   0.1464146871E-14   0.2235188881E-15   0.7008452761E-15   0.8746466985E-01  -0.4053233492E-01  -0.4053233492E-01   0.1211012187E-15   0.4710328572E-15   0.8885667360E-16   0.8000000010E+01
     1     2     3     4     5     6     7     8
     2     9    10     3     6    11    12     7
 VARIABLES = X,Y,Z,DU1,DU2,DU3,U1,U2,U3,S11,S22,S33,S12,S13,S23,E11,E22,E33,E12,E13,E23,SMISES
 ZONE, T="0.5250D+01" F=FEPOINT, I=   12 J=    2 ET=BRICK
   0.0000000000E+00   0.0000000000E+00   0.0000000000E+00   0.0000000000E+00   0.0000000000E+00   0.0000000000E+00   0.0000000000E+00   0.0000000000E+00   0.0000000000E+00   0.6875000011E+01   0.6762929584E-14   0.5411802431E-14   0.1577323375E-15  -0.1870464365E-14  -0.1278147067E-14   0.8521466987E-01  -0.3985733493E-01  -0.3985733493E-01  -0.1174417121E-16  -0.7324377705E-16  -0.7940812976E-16   0.6875000011E+01
   0.1085214670E+01   0.0000000000E+00  -0.3144434115E-16  -0.2250000000E-02   0.0000000000E+00   0.3089908271E-17   0.8746466974E-01   0.0000000000E+00  -0.3453424942E-16   0.6875000011E+01  -0.2380076078E-14  -0.1713942362E-14  -0.2749531328E-15   0.5854526310E-15   0.4120306436E-15   0.8521466987E-01  -0.3985733493E-01  -0.3985733493E-01  -0.1389135085E-16   0.1193733759E-15   0.2244092369E-16   0.6875000011E+01
   0.1085214670E+01   0.9601426651E+00  -0.2038213622E-16  -0.2250000000E-02   0.6750000000E-03   0.9364873013E-18   0.8746466974E-01  -0.4053233487E-01  -0.2131862352E-16   0.6875000010E+01  -0.3577617621E-15   0.4114232559E-15   0.1894282647E-15  -0.4723140756E-16   0.2886052267E-15   0.8521466986E-01  -0.3985733493E-01  -0.3985733493E-01  -0.5169730052E-17   0.2075504835E-15   0.7209524223E-16   0.6875000010E+01
   0.0000000000E+00   0.9601426651E+00  -0.3943196439E-16   0.0000000000E+00   0.6750000000E-03  -0.1178740489E-17   0.0000000000E+00  -0.4053233487E-01  -0.3825322390E-16   0.6875000010E+01  -0.5524674472E-14  -0.4595859120E-14   0.9397977219E-15   0.8379377680E-15  -0.4095701887E-15   0.8521466986E-01  -0.3985733493E-01  -0.3985733493E-01  -0.6017779341E-17   0.4005802857E-16  -0.1384152203E-16   0.6875000010E+01
   0.0000000000E+00   0.0000000000E+00   0.9601426651E+00   0.0000000000E+00   0.0000000000E+00   0.6750000000E-03   0.0000000000E+00   0.0000000000E+00  -0.4053233487E-01   0.6875000010E+01  -0.3791479578E-15  -0.1514065732E-14  -0.8769658925E-16   0.1447716240E-14   0.8775524008E-15   0.8521466986E-01  -0.3985733493E-01  -0.3985733493E-01   0.1142337625E-17   0.2278176460E-16   0.2815957841E-16   0.6875000010E+01
   0.1085214670E+01   0.0000000000E+00   0.9601426651E+00  -0.2250000000E-02   0.0000000000E+00   0.6750000000E-03   0.8746466974E-01   0.0000000000E+00  -0.4053233487E-01   0.6875000010E+01  -0.1061614779E-14  -0.7800735725E-15   0.1980329022E-16   0.1036392708E-14  -0.6944668223E-15   0.8521466986E-01  -0.3985733493E-01  -0.3985733493E-01  -0.2580820263E-16   0.1637690712E-15  -0.3062947370E-16   0.6875000010E+01
   0.1085214670E+01   0.9601426651E+00   0.9601426651E+00  -0.2250000000E-02   0.6750000000E-03   0.6750000000E-03   0.8746466974E-01  -0.4053233487E-01  -0.4053233487E-01   0.6875000009E+01   0.2179808632E-14   0.1232133709E-14   0.6515608355E-16   0.5536968414E-15  -0.4888416243E-15   0.8521466985E-01  -0.3985733492E-01  -0.3985733492E-01  -0.2480466823E-16   0.1662562417E-15  -0.2810563214E-16   0.6875000009E+01
   0.0000000000E+00   0.9601426651E+00   0.9601426651E+00   0.0000000000E+00   0.6750000000E-03   0.6750000000E-03   0.0000000000E+00  -0.4053233487E-01  -0.4053233487E-01   0.6875000009E+01   0.7953386480E-15   0.2493338896E-14  -0.6144144401E-16  -0.9900594657E-15   0.8041304538E-15   0.8521466985E-01  -0.3985733492E-01  -0.3985733492E-01  -0.2852409435E-16  -0.6510435389E-16   0.7538108621E-16   0.6875000009E+01
   0.2170429339E+01   0.0000000000E+00  -0.8677018041E-17  -0.4500000000E-02   0.0000000000E+00   0.1022317296E-16   0.1749293395E+00   0.0000000000E+00  -0.1890019100E-16   0.6875000010E+01  -0.2018719379E-14  -0.4101312108E-14  -0.3741277750E-16   0.3565483334E-15  -0.3159881825E-15   0.8521466987E-01  -0.3985733493E-01  -0.3985733493E-01  -0.9897080627E-16   0.2805258886E-15  -0.2514125933E-16   0.6875000010E+01
   0.2170429339E+01   0.9601426651E+00  -0.2342213216E-16  -0.4500000000E-02   0.6750000000E-03   0.9462222694E-17   0.1749293395E+00  -0.4053233487E-01  -0.3288435485E-16   0.6875000010E+01   0.6093592044E-14   0.7266229141E-14  -0.6515871984E-15  -0.2167788188E-14   0.4544317755E-16   0.8521466986E-01  -0.3985733493E-01  -0.3985733493E-01  -0.1353971238E-15   0.1327593352E-15   0.2860793184E-16   0.6875000010E+01
   0.2170429339E+01   0.0000000000E+00   0.9601426651E+00  -0.4500000000E-02   0.0000000000E+00   0.6750000000E-03   0.1749293395E+00   0.0000000000E+00  -0.4053233487E-01   0.6875000010E+01   0.6201696654E-14   0.5798244392E-14  -0.7094738301E-15  -0.2114498931E-14   0.6538516621E-16   0.8521466986E-01  -0.3985733493E-01  -0.3985733493E-01   0.9279995730E-16   0.1813555251E-15  -0.3093604191E-16   0.6875000010E+01
   0.2170429339E+01   0.9601426651E+00   0.9601426651E+00  -0.4500000000E-02   0.6750000000E-03   0.6750000000E-03   0.1749293395E+00  -0.4053233487E-01  -0.4053233487E-01   0.6875000009E+01  -0.8247637934E-14  -0.8613370750E-14   0.2708253857E-15  -0.3990196206E-15   0.9957819743E-15   0.8521466985E-01  -0.3985733492E-01  -0.3985733492E-01   0.1627368345E-15   0.2886385296E-15   0.9030962317E-16   0.6875000009E+01
     1     2     3     4     5     6     7     8
     2     9    10     3     6    11    12     7
 VARIABLES = X,Y,Z,DU1,DU2,DU3,U1,U2,U3,S11,S22,S33,S12,S13,S23,E11,E22,E33,E12,E13,E23,SMISES
 ZONE, T="0.5300D+01" F=FEPOINT, I=   12 J=    2 ET=BRICK
   0.0000000000E+00   0.0000000000E+00   0.0000000000E+00   0.0000000000E+00   0.0000000000E+00   0.0000000000E+00   0.0000000000E+00   0.0000000000E+00   0.0000000000E+00   0.5750000009E+01   0.6735174025E-14   0.5166717169E-14   0.1498644487E-15  -0.2159133064E-14  -0.1257741065E-14   0.8296466987E-01  -0.3918233493E-01  -0.3918233493E-01   0.4515788534E-17  -0.8192785375E-16  -0.7345159181E-16   0.5750000009E+01
   0.1082964670E+01   0.0000000000E+00  -0.3277446969E-16  -0.2250000000E-02   0.0000000000E+00  -0.1330128544E-17   0.8521466974E-01   0.0000000000E+00  -0.3144434115E-16   0.5750000009E+01  -0.2587246461E-14  -0.2133727483E-14   0.1470335292E-15   0.1010125790E-14   0.5920230770E-15   0.8296466987E-01  -0.3918233493E-01  -0.3918233493E-01  -0.3332694102E-16   0.1051899158E-15   0.2031376170E-16   0.5750000009E+01
   0.1082964670E+01   0.9608176651E+00  -0.2085458968E-16  -0.2250000000E-02   0.6750000000E-03  -0.4724534609E-18   0.8521466974E-01  -0.3985733487E-01  -0.2038213622E-16   0.5750000008E+01  -0.1803396796E-15   0.5427640079E-15   0.5265583655E-15  -0.4083976805E-15   0.2886436665E-15   0.8296466986E-01  -0.3918233493E-01  -0.3918233493E-01  -0.2778494927E-16   0.1947452559E-15   0.5579551563E-16   0.5750000008E+01
   0.0000000000E+00   0.9608176651E+00  -0.3930638920E-16   0.0000000000E+00   0.6750000000E-03   0.1255751861E-18   0.0000000000E+00  -0.3985733487E-01  -0.3943196439E-16   0.5750000008E+01  -0.4912059105E-14  -0.4905351378E-14   0.9204553270E-15   0.8220865061E-15  -0.6401034085E-15   0.8296466986E-01  -0.3918233493E-01  -0.3918233493E-01  -0.4767040415E-17   0.3450664056E-16  -0.3886404382E-16   0.5750000008E+01
   0.0000000000E+00   0.0000000000E+00   0.9608176651E+00   0.0000000000E+00   0.0000000000E+00   0.6750000000E-03   0.0000000000E+00   0.0000000000E+00  -0.3985733487E-01   0.5750000008E+01  -0.3880438258E-15  -0.1403772831E-14  -0.7880092260E-16   0.1425977874E-14   0.8664714655E-15   0.8296466986E-01  -0.3918233493E-01  -0.3918233493E-01  -0.8174544160E-17   0.4768881081E-16   0.2784916407E-16   0.5750000008E+01
   0.1082964670E+01   0.0000000000E+00   0.9608176651E+00  -0.2250000000E-02   0.0000000000E+00   0.6750000000E-03   0.8521466974E-01   0.0000000000E+00  -0.3985733487E-01   0.5750000008E+01  -0.5511258390E-15  -0.3345256133E-15  -0.3305769788E-15   0.1463579147E-14  -0.5863474421E-15   0.8296466986E-01  -0.3918233493E-01  -0.3918233493E-01  -0.1610354637E-16   0.1414373143E-15  -0.2951415340E-16   0.5750000008E+01
   0.1082964670E+01   0.9608176651E+00   0.9608176651E+00  -0.2250000000E-02   0.6750000000E-03   0.6750000000E-03   0.8521466974E-01  -0.3985733487E-01  -0.3985733487E-01   0.5750000008E+01   0.2498001361E-14   0.1530007954E-14  -0.2305796335E-15   0.2927715317E-15  -0.4222379088E-15   0.8296466985E-01  -0.3918233492E-01  -0.3918233492E-01  -0.1425255284E-16   0.1193423878E-15   0.1063786524E-16   0.5750000008E+01
   0.0000000000E+00   0.9608176651E+00   0.9608176651E+00   0.0000000000E+00   0.6750000000E-03   0.6750000000E-03   0.0000000000E+00  -0.3985733487E-01  -0.3985733487E-01   0.5750000008E+01   0.5049015441E-15   0.2466312722E-14   0.1542793057E-15  -0.9361105423E-15   0.5741877869E-15   0.8296466985E-01  -0.3918233492E-01  -0.3918233492E-01  -0.1768531360E-16  -0.5236826291E-16   0.9698872805E-16   0.5750000008E+01
   0.2165929339E+01   0.0000000000E+00  -0.1233543630E-16  -0.4500000000E-02   0.0000000000E+00  -0.3658418263E-17   0.1704293395E+00   0.0000000000E+00  -0.8677018041E-17   0.5750000009E+01  -0.1739170957E-14  -0.3452774739E-14   0.4943103204E-16   0.3379248691E-15  -0.1555631706E-15   0.8296466987E-01  -0.3918233493E-01  -0.3918233493E-01  -0.1191343716E-15   0.1750423513E-15  -0.3452788602E-16   0.5750000009E+01
   0.2165929339E+01   0.9608176651E+00  -0.2621107556E-16  -0.4500000000E-02   0.6750000000E-03  -0.2788943400E-17   0.1704293395E+00  -0.3985733487E-01  -0.2342213216E-16   0.5750000008E+01   0.5348177116E-14   0.6351558648E-14  -0.6127379610E-15  -0.1714553539E-14   0.8710841118E-16   0.8296466986E-01  -0.3918233492E-01  -0.3918233492E-01  -0.1196563376E-15   0.1638980221E-15   0.6255944986E-16   0.5750000008E+01
   0.2165929339E+01   0.0000000000E+00   0.9608176651E+00  -0.4500000000E-02   0.0000000000E+00   0.6750000000E-03   0.1704293395E+00   0.0000000000E+00  -0.3985733487E-01   0.5750000008E+01   0.5411659246E-14   0.5758336870E-14  -0.1419633870E-16  -0.2302499415E-14   0.3599482505E-16   0.8296466986E-01  -0.3918233492E-01  -0.3918233492E-01   0.1360161216E-15   0.5881847639E-17  -0.3399926689E-17   0.5750000008E+01
   0.2165929339E+01   0.9608176651E+00   0.9608176651E+00  -0.4500000000E-02   0.6750000000E-03   0.6750000000E-03   0.1704293395E+00  -0.3985733487E-01  -0.3985733487E-01   0.5750000007E+01  -0.7986949174E-14  -0.8079841166E-14   0.7993331898E-15   0.7086077781E-16   0.7810594068E-15   0.8296466985E-01  -0.3918233492E-01  -0.3918233492E-01   0.2154508532E-15   0.3505261850E-15   0.6150424547E-16   0.5750000007E+01
     1     2     3     4     5     6     7     8
     2     9    10     3     6    11    12     7
 VARIABLES = X,Y,Z,DU1,DU2,DU3,U1,U2,U3,S11,S22,S33,S12,S13,S23,E11,E22,E33,E12,E13,E23,SMISES
 ZONE, T="0.5350D+01" F=FEPOINT, I=   12 J=    2 ET=BRICK
   0.0000000000E+00   0.0000000000E+00   0.0000000000E+00   0.0000000000E+00   0.0000000000E+00   0.0000000000E+00   0.0000000000E+00   0.0000000000E+00   0.0000000000E+00   0.4625000007E+01   0.6878862329E-14   0.5206820277E-14   0.1354809251E-15  -0.1857343940E-14  -0.1422000367E-14   0.8071466987E-01  -0.3850733493E-01  -0.3850733493E-01  -0.6724476073E-17  -0.5776175632E-16  -0.1029720894E-15   0.4625000007E+01
   0.1080714670E+01   0.0000000000E+00  -0.3057096585E-16  -0.2250000000E-02   0.0000000000E+00   0.2203503848E-17   0.8296466974E-01   0.0000000000E+00  -0.3277446969E-16   0.4625000007E+01  -0.2091631709E-14  -0.1764009171E-14   0.3025563009E-15   0.1193785328E-14   0.5704645744E-15   0.8071466986E-01  -0.3850733493E-01  -0.3850733493E-01  -0.1132559472E-16   0.6202012202E-16   0.2152566529E-16   0.4625000007E+01
   0.1080714670E+01   0.9614926651E+00  -0.1880195892E-16  -0.2250000000E-02   0.6750000000E-03   0.2052630753E-17   0.8296466974E-01  -0.3918233487E-01  -0.2085458968E-16   0.4625000007E+01  -0.4727695525E-15   0.7201861086E-15   0.7248666984E-15  -0.9505886522E-15   0.3969489221E-15   0.8071466986E-01  -0.3850733492E-01  -0.3850733492E-01  -0.9829035044E-17   0.1867897500E-15   0.7806605781E-16   0.4625000007E+01
   0.0000000000E+00   0.9614926651E+00  -0.4013045075E-16   0.0000000000E+00   0.6750000000E-03  -0.8240615535E-18   0.0000000000E+00  -0.3918233487E-01  -0.3930638920E-16   0.4625000007E+01  -0.3375147972E-14  -0.2981854979E-14   0.8346616259E-15   0.1224897735E-14  -0.7470692124E-15   0.8071466986E-01  -0.3850733493E-01  -0.3850733493E-01   0.1005269648E-17   0.2527880233E-16   0.3587049372E-17   0.4625000007E+01
   0.0000000000E+00   0.0000000000E+00   0.9614926651E+00   0.0000000000E+00   0.0000000000E+00   0.6750000000E-03   0.0000000000E+00   0.0000000000E+00  -0.3918233487E-01   0.4625000007E+01  -0.2323991160E-15  -0.1210942714E-14  -0.7132931750E-16   0.1449454595E-14   0.7755267064E-15   0.8071466986E-01  -0.3850733493E-01  -0.3850733493E-01  -0.3538971768E-17   0.5302572969E-16   0.3910486998E-16   0.4625000007E+01
   0.1080714670E+01   0.0000000000E+00   0.9614926651E+00  -0.2250000000E-02   0.0000000000E+00   0.6750000000E-03   0.8296466974E-01   0.0000000000E+00  -0.3918233487E-01   0.4625000007E+01  -0.1542355428E-14  -0.1310881040E-14  -0.9227485130E-15   0.1775882088E-14  -0.4867684941E-15   0.8071466986E-01  -0.3850733492E-01  -0.3850733492E-01  -0.2695425691E-16   0.1277182913E-15  -0.2635004996E-16   0.4625000007E+01
   0.1080714670E+01   0.9614926651E+00   0.9614926651E+00  -0.2250000000E-02   0.6750000000E-03   0.6750000000E-03   0.8296466974E-01  -0.3918233487E-01  -0.3918233487E-01   0.4625000006E+01   0.1961749539E-14   0.9382449940E-15  -0.8104279893E-15  -0.2466307453E-15  -0.2465888269E-15   0.8071466985E-01  -0.3850733492E-01  -0.3850733492E-01  -0.5439894241E-16   0.1222357794E-15   0.3787859685E-17   0.4625000006E+01
   0.0000000000E+00   0.9614926651E+00   0.9614926651E+00   0.0000000000E+00   0.6750000000E-03   0.6750000000E-03   0.0000000000E+00  -0.3918233487E-01  -0.3918233487E-01   0.4625000006E+01  -0.1143031908E-14   0.6796014233E-15   0.1655388119E-15  -0.5078053469E-15   0.5920561323E-15   0.8071466985E-01  -0.3850733492E-01  -0.3850733492E-01  -0.1527213371E-16  -0.3208046679E-16   0.6062787108E-16   0.4625000006E+01
   0.2161429339E+01   0.0000000000E+00  -0.3653125399E-17  -0.4500000000E-02   0.0000000000E+00   0.8682310905E-17   0.1659293395E+00   0.0000000000E+00  -0.1233543630E-16   0.4625000007E+01  -0.1032400273E-14  -0.2753441135E-14  -0.1024394452E-14   0.7012544736E-16  -0.3830015284E-15   0.8071466986E-01  -0.3850733493E-01  -0.3850733493E-01  -0.1093906547E-15   0.1394888694E-15  -0.2462328430E-16   0.4625000007E+01
   0.2161429339E+01   0.9614926651E+00  -0.1866598345E-16  -0.4500000000E-02   0.6750000000E-03   0.7545092113E-17   0.1659293395E+00  -0.3918233487E-01  -0.2621107556E-16   0.4625000006E+01   0.4905546791E-14   0.5936683891E-14  -0.1556646278E-14  -0.1346623736E-14  -0.1421766338E-16   0.8071466985E-01  -0.3850733492E-01  -0.3850733492E-01  -0.1260389775E-15   0.2579682133E-15   0.2986319693E-16   0.4625000006E+01
   0.2161429339E+01   0.0000000000E+00   0.9614926651E+00  -0.4500000000E-02   0.0000000000E+00   0.6750000000E-03   0.1659293395E+00   0.0000000000E+00  -0.3918233487E-01   0.4625000006E+01   0.4286562195E-14   0.4766573342E-14   0.4020381291E-15  -0.2888418596E-14  -0.7272963510E-16   0.8071466985E-01  -0.3850733492E-01  -0.3850733492E-01   0.7031093960E-16   0.1290732352E-15   0.7716736728E-17   0.4625000006E+01
   0.2161429339E+01   0.9614926651E+00   0.9614926651E+00  -0.4500000000E-02   0.6750000000E-03   0.6750000000E-03   0.1659293395E+00  -0.3918233487E-01  -0.3918233487E-01   0.4625000006E+01  -0.6886156166E-14  -0.7476655703E-14   0.1263505516E-14   0.7468039679E-15   0.8154325029E-15   0.8071466984E-01  -0.3850733492E-01  -0.3850733492E-01   0.2155203043E-15   0.4131118977E-15   0.8640639802E-16   0.4625000006E+01
     1     2     3     4     5     6     7     8
     2     9    10     3     6    11    12     7
 VARIABLES = X,Y,Z,DU1,DU2,DU3,U1,U2,U3,S11,S22,S33,S12,S13,S23,E11,E22,E33,E12,E13,E23,SMISES
 ZONE, T="0.5400D+01" F=FEPOINT, I=   12 J=    2 ET=BRICK
   0.0000000000E+00   0.0000000000E+00   0.0000000000E+00   0.0000000000E+00   0.0000000000E+00   0.0000000000E+00   0.0000000000E+00   0.0000000000E+00   0.0000000000E+00   0.3500000005E+01   0.5982322048E-14   0.4442350162E-14   0.1212079828E-15  -0.2063642490E-14  -0.1229352682E-14   0.7846466986E-01  -0.3783233493E-01  -0.3783233493E-01  -0.1021373438E-17  -0.9390919421E-16  -0.6516701534E-16   0.3500000005E+01
   0.1078464670E+01   0.0000000000E+00  -0.3308105262E-16  -0.2250000000E-02   0.0000000000E+00  -0.2510086777E-17   0.8071466974E-01   0.0000000000E+00  -0.3057096585E-16   0.3500000005E+01  -0.2849928052E-14  -0.2542623998E-14   0.5144754856E-15   0.1059761333E-14   0.5800006297E-15   0.7846466986E-01  -0.3783233493E-01  -0.3783233493E-01  -0.2824515190E-16   0.1300556500E-15   0.1841414426E-16   0.3500000005E+01
   0.1078464670E+01   0.9621676651E+00  -0.2125044667E-16  -0.2250000000E-02   0.6750000000E-03  -0.2448487747E-17   0.8071466974E-01  -0.3850733487E-01  -0.1880195892E-16   0.3500000005E+01  -0.1803396705E-15   0.6334678022E-15   0.8084377802E-15  -0.5975838638E-15   0.3156976542E-15   0.7846466985E-01  -0.3783233492E-01  -0.3783233492E-01  -0.4535687399E-16   0.1807926835E-15   0.5838234288E-16   0.3500000005E+01
   0.0000000000E+00   0.9621676651E+00  -0.3913644854E-16   0.0000000000E+00   0.6750000000E-03   0.9940022177E-18   0.0000000000E+00  -0.3850733487E-01  -0.4013045075E-16   0.3500000005E+01  -0.4220162588E-14  -0.4092273338E-14   0.9153340846E-15   0.7193189351E-15  -0.6858891096E-15   0.7846466985E-01  -0.3783233493E-01  -0.3783233493E-01   0.1326231194E-16   0.3787101000E-16  -0.1455578431E-16   0.3500000005E+01
   0.0000000000E+00   0.0000000000E+00   0.9621676651E+00   0.0000000000E+00   0.0000000000E+00   0.6750000000E-03   0.0000000000E+00   0.0000000000E+00  -0.3850733487E-01   0.3500000005E+01   0.4000008138E-15  -0.4945466680E-15  -0.7515944050E-16   0.1152768967E-14   0.7838781662E-15   0.7846466985E-01  -0.3783233493E-01  -0.3783233493E-01   0.6688964843E-17   0.7111112311E-16   0.1149425393E-16   0.3500000005E+01
   0.1078464670E+01   0.0000000000E+00   0.9621676651E+00  -0.2250000000E-02   0.0000000000E+00   0.6750000000E-03   0.8071466974E-01   0.0000000000E+00  -0.3850733487E-01   0.3500000005E+01  -0.7434220844E-15  -0.4361180735E-15  -0.5024999028E-15   0.1921851285E-14  -0.5825707780E-15   0.7846466985E-01  -0.3783233492E-01  -0.3783233492E-01  -0.1764278244E-16   0.1483911734E-15  -0.2312213378E-16   0.3500000005E+01
   0.1078464670E+01   0.9621676651E+00   0.9621676651E+00  -0.2250000000E-02   0.6750000000E-03   0.6750000000E-03   0.8071466974E-01  -0.3850733487E-01  -0.3850733487E-01   0.3500000005E+01   0.2812208534E-14   0.1383792996E-14  -0.5189208938E-15  -0.3681162374E-16  -0.3734449866E-15   0.7846466984E-01  -0.3783233492E-01  -0.3783233492E-01  -0.1054925798E-16   0.1705228632E-15   0.3350716636E-17   0.3500000005E+01
   0.0000000000E+00   0.9621676651E+00   0.9621676651E+00   0.0000000000E+00   0.6750000000E-03   0.6750000000E-03   0.0000000000E+00  -0.3850733487E-01  -0.3850733487E-01   0.3500000005E+01   0.4049395219E-16   0.1610604942E-14   0.3411951821E-15  -0.9182829720E-15   0.4440320004E-15   0.7846466984E-01  -0.3783233492E-01  -0.3783233492E-01  -0.3046682340E-16  -0.4273937336E-16   0.7435848435E-16   0.3500000005E+01
   0.2156929339E+01   0.0000000000E+00  -0.1388584965E-16  -0.4500000000E-02   0.0000000000E+00  -0.1023272425E-16   0.1614293395E+00   0.0000000000E+00  -0.3653125399E-17   0.3500000005E+01  -0.2280867092E-14  -0.3213133859E-14   0.2032211492E-15   0.5595334696E-15  -0.1310312725E-15   0.7846466986E-01  -0.3783233493E-01  -0.3783233493E-01  -0.1160320746E-15   0.8911352802E-16  -0.1790557403E-16   0.3500000005E+01
   0.2156929339E+01   0.9621676651E+00  -0.2763934285E-16  -0.4500000000E-02   0.6750000000E-03  -0.8973359403E-17   0.1614293395E+00  -0.3850733487E-01  -0.1866598345E-16   0.3500000005E+01   0.5040873041E-14   0.6296776917E-14  -0.7094785729E-15  -0.1822652394E-14   0.1572521342E-15   0.7846466985E-01  -0.3783233492E-01  -0.3783233492E-01  -0.1085641686E-15   0.2526555939E-15   0.1630443494E-16   0.3500000005E+01
   0.2156929339E+01   0.0000000000E+00   0.9621676651E+00  -0.4500000000E-02   0.0000000000E+00   0.6750000000E-03   0.1614293395E+00   0.0000000000E+00  -0.3850733487E-01   0.3500000005E+01   0.4623614539E-14   0.5222814507E-14   0.5899429473E-15  -0.2515559734E-14  -0.4953841015E-16   0.7846466985E-01  -0.3783233492E-01  -0.3783233492E-01   0.1325746390E-15   0.1629066060E-15  -0.2025788756E-16   0.3500000005E+01
   0.2156929339E+01   0.9621676651E+00   0.9621676651E+00  -0.4500000000E-02   0.6750000000E-03   0.6750000000E-03   0.1614293395E+00  -0.3850733487E-01  -0.3850733487E-01   0.3500000004E+01  -0.7663312167E-14  -0.7849630118E-14   0.9923793200E-15   0.2632561495E-15   0.8551126610E-15   0.7846466984E-01  -0.3783233492E-01  -0.3783233492E-01   0.1952103991E-15   0.2064952087E-15   0.7491748167E-16   0.3500000004E+01
     1     2     3     4     5     6     7     8
     2     9    10     3     6    11    12     7
 VARIABLES = X,Y,Z,DU1,DU2,DU3,U1,U2,U3,S11,S22,S33,S12,S13,S23,E11,E22,E33,E12,E13,E23,SMISES
 ZONE, T="0.5450D+01" F=FEPOINT, I=   12 J=    2 ET=BRICK
   0.0000000000E+00   0.0000000000E+00   0.0000000000E+00   0.0000000000E+00   0.0000000000E+00   0.0000000000E+00   0.0000000000E+00   0.0000000000E+00   0.0000000000E+00   0.2375000004E+01   0.6760572157E-14   0.5546230079E-14   0.1189219202E-15  -0.1909113756E-14  -0.1192420975E-14   0.7621466986E-01  -0.3715733493E-01  -0.3715733493E-01   0.5634183164E-17  -0.9412382805E-16  -0.7530810978E-16   0.2375000004E+01
   0.1076214670E+01   0.0000000000E+00  -0.3123398825E-16  -0.2250000000E-02   0.0000000000E+00   0.1847064370E-17   0.7846466974E-01   0.0000000000E+00  -0.3308105262E-16   0.2375000004E+01  -0.2384791016E-14  -0.1774168418E-14  -0.3137029753E-15   0.4890001169E-15   0.5478201139E-15   0.7621466986E-01  -0.3715733493E-01  -0.3715733493E-01  -0.3202425425E-16   0.1606849607E-15   0.3238548961E-16   0.2375000004E+01
   0.1076214670E+01   0.9628426651E+00  -0.1957310497E-16  -0.2250000000E-02   0.6750000000E-03   0.1677341703E-17   0.7846466974E-01  -0.3783233487E-01  -0.2125044667E-16   0.2375000003E+01  -0.7084249386E-15   0.4696565550E-15   0.3017295855E-16  -0.1257184836E-15   0.4091021748E-15   0.7621466985E-01  -0.3715733492E-01  -0.3715733492E-01  -0.1385812629E-16   0.1765934023E-15   0.5706770719E-16   0.2375000003E+01
   0.0000000000E+00   0.9628426651E+00  -0.3908100061E-16   0.0000000000E+00   0.6750000000E-03   0.5544792709E-19   0.0000000000E+00  -0.3783233487E-01  -0.3913644854E-16   0.2375000003E+01  -0.4649279862E-14  -0.4331816492E-14   0.7941088039E-15   0.9211785775E-15  -0.6201216683E-15   0.7621466985E-01  -0.3715733492E-01  -0.3715733492E-01  -0.1457195418E-16   0.4421375797E-16  -0.3387950941E-16   0.2375000003E+01
   0.0000000000E+00   0.0000000000E+00   0.9628426651E+00   0.0000000000E+00   0.0000000000E+00   0.6750000000E-03   0.0000000000E+00   0.0000000000E+00  -0.3783233487E-01   0.2375000003E+01  -0.3128459218E-15  -0.1336741407E-14  -0.6163763276E-16   0.1385456032E-14   0.8613728817E-15   0.7621466985E-01  -0.3715733492E-01  -0.3715733492E-01   0.4236805723E-17   0.2707213044E-16   0.3589068005E-16   0.2375000003E+01
   0.1076214670E+01   0.0000000000E+00   0.9628426651E+00  -0.2250000000E-02   0.0000000000E+00   0.6750000000E-03   0.7846466974E-01   0.0000000000E+00  -0.3783233487E-01   0.2375000003E+01  -0.1402848131E-14  -0.1247203386E-14  -0.1052914843E-15   0.1239760718E-14  -0.5432876689E-15   0.7621466985E-01  -0.3715733492E-01  -0.3715733492E-01  -0.4025770353E-16   0.2456154803E-15  -0.3496595525E-16   0.2375000003E+01
   0.1076214670E+01   0.9628426651E+00   0.9628426651E+00  -0.2250000000E-02   0.6750000000E-03   0.6750000000E-03   0.7846466974E-01  -0.3783233487E-01  -0.3783233487E-01   0.2375000003E+01   0.2674693980E-14   0.1322108082E-14  -0.1500740695E-16   0.4688260667E-15  -0.1887580925E-15   0.7621466984E-01  -0.3715733492E-01  -0.3715733492E-01  -0.9592872276E-17   0.9776901616E-16   0.1482671287E-16   0.2375000003E+01
   0.0000000000E+00   0.9628426651E+00   0.9628426651E+00   0.0000000000E+00   0.6750000000E-03   0.6750000000E-03   0.0000000000E+00  -0.3783233487E-01  -0.3783233487E-01   0.2375000003E+01  -0.3370766776E-16   0.1687333200E-14   0.2854532704E-15  -0.7265341481E-15   0.6712577636E-15   0.7621466984E-01  -0.3715733492E-01  -0.3715733492E-01  -0.2057442468E-16   0.2052889422E-16   0.7020917500E-16   0.2375000003E+01
   0.2152429339E+01   0.0000000000E+00  -0.6176826546E-17  -0.4500000000E-02   0.0000000000E+00   0.7709023104E-17   0.1569293395E+00   0.0000000000E+00  -0.1388584965E-16   0.2375000004E+01  -0.1507331825E-14  -0.2805865376E-14  -0.1024181789E-14   0.3355583164E-15  -0.4591573964E-15   0.7621466986E-01  -0.3715733493E-01  -0.3715733493E-01  -0.7094974470E-16   0.1530611812E-15  -0.4181324717E-16   0.2375000004E+01
   0.2152429339E+01   0.9628426651E+00  -0.2175112525E-16  -0.4500000000E-02   0.6750000000E-03   0.5888217603E-17   0.1569293395E+00  -0.3783233487E-01  -0.2763934285E-16   0.2375000003E+01   0.5401063811E-14   0.6548667544E-14  -0.1608438675E-14  -0.1632129283E-14  -0.1121671250E-15   0.7621466985E-01  -0.3715733492E-01  -0.3715733492E-01  -0.2494670039E-16   0.1250641847E-15   0.4773113697E-16   0.2375000003E+01
   0.2152429339E+01   0.0000000000E+00   0.9628426651E+00  -0.4500000000E-02   0.0000000000E+00   0.6750000000E-03   0.1569293395E+00   0.0000000000E+00  -0.3783233487E-01   0.2375000003E+01   0.5337920073E-14   0.5448942305E-14   0.6568365703E-15  -0.3382139944E-14  -0.3138275344E-15   0.7621466985E-01  -0.3715733492E-01  -0.3715733492E-01   0.1173042320E-15   0.6533402436E-16  -0.1740008750E-16   0.2375000003E+01
   0.2152429339E+01   0.9628426651E+00   0.9628426651E+00  -0.4500000000E-02   0.6750000000E-03   0.6750000000E-03   0.1569293395E+00  -0.3783233487E-01  -0.3783233487E-01   0.2375000003E+01  -0.7908762066E-14  -0.8408557823E-14   0.1163871541E-14   0.4842620956E-15   0.6766059441E-15   0.7621466984E-01  -0.3715733492E-01  -0.3715733492E-01   0.1536852895E-15   0.3644855208E-15   0.5074464624E-16   0.2375000003E+01
     1     2     3     4     5     6     7     8
     2     9    10     3     6    11    12     7
 VARIABLES = X,Y,Z,DU1,DU2,DU3,U1,U2,U3,S11,S22,S33,S12,S13,S23,E11,E22,E33,E12,E13,E23,SMISES
 ZONE, T="0.5500D+01" F=FEPOINT, I=   12 J=    2 ET=BRICK
   0.0000000000E+00   0.0000000000E+00   0.0000000000E+00   0.0000000000E+00   0.0000000000E+00   0.0000000000E+00   0.0000000000E+00   0.0000000000E+00   0.0000000000E+00   0.1250000002E+01   0.6698122126E-14   0.5208897610E-14   0.1115056847E-15  -0.1958539533E-14  -0.1180295056E-14   0.7396466986E-01  -0.3648233493E-01  -0.3648233493E-01  -0.7171506974E-17  -0.1097774595E-15  -0.6192255751E-16   0.1250000002E+01
   0.1073964670E+01   0.0000000000E+00  -0.3183793397E-16  -0.2250000000E-02   0.0000000000E+00  -0.6039457134E-18   0.7621466974E-01   0.0000000000E+00  -0.3123398825E-16   0.1250000002E+01  -0.2509691070E-14  -0.2163111123E-14   0.2659351865E-16   0.8280856965E-15   0.5469994365E-15   0.7396466985E-01  -0.3648233493E-01  -0.3648233493E-01  -0.1438382853E-16   0.1958680755E-15   0.1341714074E-16   0.1250000002E+01
   0.1073964670E+01   0.9635176651E+00  -0.2017757618E-16  -0.2250000000E-02   0.6750000000E-03  -0.6044712063E-18   0.7621466974E-01  -0.3715733487E-01  -0.1957310497E-16   0.1250000002E+01  -0.1766211127E-15   0.8142437434E-15   0.3299281501E-15  -0.2557158783E-15   0.2413805417E-15   0.7396466985E-01  -0.3648233492E-01  -0.3648233492E-01   0.6709574780E-17   0.1845123097E-15   0.7456089299E-16   0.1250000002E+01
   0.0000000000E+00   0.9635176651E+00  -0.3895749765E-16   0.0000000000E+00   0.6750000000E-03   0.1235029575E-18   0.0000000000E+00  -0.3715733487E-01  -0.3908100061E-16   0.1250000002E+01  -0.4396259350E-14  -0.4308824712E-14   0.8313613885E-15   0.7695007846E-15  -0.7372099543E-15   0.7396466985E-01  -0.3648233492E-01  -0.3648233492E-01  -0.2026926857E-16   0.3992423526E-16  -0.2827149916E-16   0.1250000002E+01
   0.0000000000E+00   0.0000000000E+00   0.9635176651E+00   0.0000000000E+00   0.0000000000E+00   0.6750000000E-03   0.0000000000E+00   0.0000000000E+00  -0.3715733487E-01   0.1250000002E+01  -0.2849568633E-15  -0.1103857052E-14  -0.5147147072E-16   0.1361579082E-14   0.9835918441E-15   0.7396466985E-01  -0.3648233492E-01  -0.3648233492E-01   0.2434467400E-17   0.6856130728E-16  -0.3746754051E-17   0.1250000002E+01
   0.1073964670E+01   0.0000000000E+00   0.9635176651E+00  -0.2250000000E-02   0.0000000000E+00   0.6750000000E-03   0.7621466974E-01   0.0000000000E+00  -0.3715733487E-01   0.1250000002E+01  -0.1225159076E-14  -0.1033956976E-14  -0.3793303487E-15   0.1616992157E-14  -0.5248573065E-15   0.7396466985E-01  -0.3648233492E-01  -0.3648233492E-01  -0.3672527323E-16   0.2008805473E-15  -0.1726988383E-16   0.1250000002E+01
   0.1073964670E+01   0.9635176651E+00   0.9635176651E+00  -0.2250000000E-02   0.6750000000E-03   0.6750000000E-03   0.7621466974E-01  -0.3715733487E-01  -0.3715733487E-01   0.1250000002E+01   0.2615464315E-14   0.1322472799E-14  -0.2931829532E-15   0.2939000205E-15  -0.2940914490E-15   0.7396466984E-01  -0.3648233492E-01  -0.3648233492E-01  -0.2904208583E-16   0.1714088853E-15  -0.6009389668E-17   0.1250000002E+01
   0.0000000000E+00   0.9635176651E+00   0.9635176651E+00   0.0000000000E+00   0.6750000000E-03   0.6750000000E-03   0.0000000000E+00  -0.3715733487E-01  -0.3715733487E-01   0.1250000002E+01  -0.2427373453E-15   0.1504746876E-14   0.3410911049E-15  -0.8322872340E-15   0.5341573106E-15   0.7396466984E-01  -0.3648233492E-01  -0.3648233492E-01  -0.2276892743E-16   0.1310116209E-18   0.1030014269E-15   0.1250000002E+01
   0.2147929339E+01   0.0000000000E+00  -0.9164842001E-17  -0.4500000000E-02   0.0000000000E+00  -0.2988015455E-17   0.1524293395E+00   0.0000000000E+00  -0.6176826546E-17   0.1250000002E+01  -0.1659489273E-14  -0.2996618184E-14  -0.3982244577E-15   0.8843484511E-15  -0.2117763640E-15   0.7396466985E-01  -0.3648233493E-01  -0.3648233493E-01  -0.4913570012E-16   0.1456071643E-15  -0.1540111076E-16   0.1250000002E+01
   0.2147929339E+01   0.9635176651E+00  -0.2344325690E-16  -0.4500000000E-02   0.6750000000E-03  -0.1692131658E-17   0.1524293395E+00  -0.3715733487E-01  -0.2175112525E-16   0.1250000002E+01   0.5791865813E-14   0.6904094532E-14  -0.1053681946E-14  -0.1971327550E-14   0.5472318494E-16   0.7396466984E-01  -0.3648233492E-01  -0.3648233492E-01  -0.3291176703E-16   0.2476961626E-15   0.1243910528E-16   0.1250000002E+01
   0.2147929339E+01   0.0000000000E+00   0.9635176651E+00  -0.4500000000E-02   0.0000000000E+00   0.6750000000E-03   0.1524293395E+00   0.0000000000E+00  -0.3715733487E-01   0.1250000002E+01   0.5412157415E-14   0.5664862020E-14   0.3055502410E-15  -0.3252374447E-14  -0.1181804945E-15   0.7396466984E-01  -0.3648233492E-01  -0.3648233492E-01   0.1112993869E-15   0.1548679059E-15  -0.3510919233E-16   0.1250000002E+01
   0.2147929339E+01   0.9635176651E+00   0.9635176651E+00  -0.4500000000E-02   0.6750000000E-03   0.6750000000E-03   0.1524293395E+00  -0.3715733487E-01  -0.3715733487E-01   0.1250000002E+01  -0.7949532518E-14  -0.8475042220E-14   0.8234949700E-15   0.4028087583E-15   0.7847271240E-15   0.7396466983E-01  -0.3648233492E-01  -0.3648233492E-01   0.1689340433E-15   0.2775226346E-15   0.8264327590E-16   0.1250000002E+01
     1     2     3     4     5     6     7     8
     2     9    10     3     6    11    12     7
 VARIABLES = X,Y,Z,DU1,DU2,DU3,U1,U2,U3,S11,S22,S33,S12,S13,S23,E11,E22,E33,E12,E13,E23,SMISES
 ZONE, T="0.5550D+01" F=FEPOINT, I=   12 J=    2 ET=BRICK
   0.0000000000E+00   0.0000000000E+00   0.0000000000E+00   0.0000000000E+00   0.0000000000E+00   0.0000000000E+00   0.0000000000E+00   0.0000000000E+00   0.0000000000E+00   0.1250000002E+00   0.6480352085E-14   0.4931192906E-14   0.1272259359E-15  -0.2057484451E-14  -0.1226522177E-14   0.7171466985E-01  -0.3580733493E-01  -0.3580733493E-01   0.4185622873E-17  -0.8912067904E-16  -0.8183057490E-16   0.1250000002E+00
   0.1071714670E+01   0.0000000000E+00  -0.3238560706E-16  -0.2250000000E-02   0.0000000000E+00  -0.5476730985E-18   0.7396466974E-01   0.0000000000E+00  -0.3183793397E-16   0.1250000002E+00  -0.2640873934E-14  -0.2400419003E-14   0.4867272739E-16   0.8388966494E-15   0.6106304168E-15   0.7171466985E-01  -0.3580733493E-01  -0.3580733493E-01  -0.4364476645E-16   0.1762406089E-15   0.3837404071E-16   0.1250000002E+00
   0.1071714670E+01   0.9641926651E+00  -0.2041387233E-16  -0.2250000000E-02   0.6750000000E-03  -0.2362961585E-18   0.7396466974E-01  -0.3648233487E-01  -0.2017757618E-16   0.1250000002E+00  -0.1342404852E-15   0.7997521461E-15   0.3641831248E-15  -0.3794162451E-15   0.2308060252E-15   0.7171466984E-01  -0.3580733492E-01  -0.3580733492E-01  -0.2067534122E-16   0.1771273120E-15   0.6489093743E-16   0.1250000002E+00
   0.0000000000E+00   0.9641926651E+00  -0.3920532023E-16   0.0000000000E+00   0.6750000000E-03  -0.2478225813E-18   0.0000000000E+00  -0.3648233487E-01  -0.3895749765E-16   0.1250000002E+00  -0.4068517920E-14  -0.3957477698E-14   0.8810025758E-15   0.8199195725E-15  -0.7293937637E-15   0.7171466984E-01  -0.3580733492E-01  -0.3580733492E-01  -0.9143224915E-17   0.2874119452E-16  -0.2661787720E-16   0.1250000002E+00
   0.0000000000E+00   0.0000000000E+00   0.9641926651E+00   0.0000000000E+00   0.0000000000E+00   0.6750000000E-03   0.0000000000E+00   0.0000000000E+00  -0.3648233487E-01   0.1250000002E+00  -0.3176707963E-15  -0.1175415436E-14  -0.4780806341E-16   0.1270721794E-14   0.9941406832E-15   0.7171466984E-01  -0.3580733492E-01  -0.3580733492E-01   0.6700876001E-18   0.9241736220E-16   0.2692134996E-16   0.1250000002E+00
   0.1071714670E+01   0.0000000000E+00   0.9641926651E+00  -0.2250000000E-02   0.0000000000E+00   0.6750000000E-03   0.7396466974E-01   0.0000000000E+00  -0.3648233487E-01   0.1250000002E+00  -0.1200259156E-14  -0.8953126023E-15  -0.3606929650E-15   0.1509389516E-14  -0.4550167029E-15   0.7171466984E-01  -0.3580733492E-01  -0.3580733492E-01  -0.2618185955E-16   0.1589061420E-15  -0.3997838436E-16   0.1250000002E+00
   0.1071714670E+01   0.9641926651E+00   0.9641926651E+00  -0.2250000000E-02   0.6750000000E-03   0.6750000000E-03   0.7396466974E-01  -0.3648233487E-01  -0.3648233487E-01   0.1250000002E+00   0.2497594313E-14   0.1367600042E-14  -0.2763556487E-15   0.2308841321E-15  -0.2643289877E-15   0.7171466983E-01  -0.3580733492E-01  -0.3580733492E-01  -0.2398325669E-16   0.1856440641E-15   0.1785751830E-17   0.1250000002E+00
   0.0000000000E+00   0.9641926651E+00   0.9641926651E+00   0.0000000000E+00   0.6750000000E-03   0.6750000000E-03   0.0000000000E+00  -0.3648233487E-01  -0.3648233487E-01   0.1250000002E+00  -0.2604915889E-15   0.1531688429E-14   0.1756738347E-15  -0.7577878401E-15   0.5275260400E-15   0.7171466984E-01  -0.3580733492E-01  -0.3580733492E-01  -0.1183075981E-16  -0.1601343385E-16   0.9921157414E-16   0.1250000002E+00
   0.2143429339E+01   0.0000000000E+00  -0.1079793946E-16  -0.4500000000E-02   0.0000000000E+00  -0.1633097463E-17   0.1479293395E+00   0.0000000000E+00  -0.9164842001E-17   0.1250000002E+00  -0.1809662929E-14  -0.3121418163E-14  -0.5834694502E-15   0.8939502327E-15  -0.2068408800E-15   0.7171466985E-01  -0.3580733492E-01  -0.3580733492E-01  -0.5830309770E-16   0.1747949823E-15  -0.3145667314E-16   0.1250000002E+00
   0.2143429339E+01   0.9641926651E+00  -0.2512431843E-16  -0.4500000000E-02   0.6750000000E-03  -0.1681061530E-17   0.1479293395E+00  -0.3648233487E-01  -0.2344325690E-16   0.1250000002E+00   0.5081257665E-14   0.6108925327E-14  -0.1232823446E-14  -0.2001655138E-14  -0.1720777484E-16   0.7171466984E-01  -0.3580733492E-01  -0.3580733492E-01  -0.1781025117E-16   0.2048827852E-15   0.5068953144E-16   0.1250000002E+00
   0.2143429339E+01   0.0000000000E+00   0.9641926651E+00  -0.4500000000E-02   0.0000000000E+00   0.6750000000E-03   0.1479293395E+00   0.0000000000E+00  -0.3648233487E-01   0.1250000002E+00   0.5818077001E-14   0.6140103797E-14   0.2852029131E-15  -0.3065616460E-14  -0.2300637785E-15   0.7171466984E-01  -0.3580733492E-01  -0.3580733492E-01   0.9878600462E-16   0.1716866468E-15  -0.2477066956E-16   0.1250000002E+00
   0.2143429339E+01   0.9641926651E+00   0.9641926651E+00  -0.4500000000E-02   0.6750000000E-03   0.6750000000E-03   0.1479293395E+00  -0.3648233487E-01  -0.3648233487E-01   0.1250000002E+00  -0.7773495962E-14  -0.8339618207E-14   0.8454043452E-15   0.3467815137E-15   0.7084069028E-15   0.7171466983E-01  -0.3580733492E-01  -0.3580733492E-01   0.1466968396E-15   0.2457606374E-15   0.3769462631E-16   0.1250000002E+00
     1     2     3     4     5     6     7     8
     2     9    10     3     6    11    12     7
 VARIABLES = X,Y,Z,DU1,DU2,DU3,U1,U2,U3,S11,S22,S33,S12,S13,S23,E11,E22,E33,E12,E13,E23,SMISES
 ZONE, T="0.5600D+01" F=FEPOINT, I=   12 J=    2 ET=BRICK
   0.0000000000E+00   0.0000000000E+00   0.0000000000E+00   0.0000000000E+00   0.0000000000E+00   0.0000000000E+00   0.0000000000E+00   0.0000000000E+00   0.0000000000E+00  -0.1000000002E+01   0.6412631136E-14   0.5107038200E-14   0.1438539046E-15  -0.2054578294E-14  -0.1205659905E-14   0.6946466985E-01  -0.3513233493E-01  -0.3513233493E-01   0.3053971709E-17  -0.8374229993E-16  -0.8086133089E-16   0.1000000002E+01
   0.1069464670E+01   0.0000000000E+00  -0.3238564024E-16  -0.2250000000E-02   0.0000000000E+00  -0.3317688741E-22   0.7171466974E-01   0.0000000000E+00  -0.3238560706E-16  -0.1000000002E+01  -0.2495813304E-14  -0.2117759232E-14  -0.6843967774E-16   0.9424387985E-15   0.5962369383E-15   0.6946466985E-01  -0.3513233492E-01  -0.3513233492E-01  -0.2807067074E-16   0.1538910283E-15   0.2602108822E-16   0.1000000002E+01
   0.1069464670E+01   0.9648676651E+00  -0.2046433403E-16  -0.2250000000E-02   0.6750000000E-03  -0.5046169673E-19   0.7171466974E-01  -0.3580733487E-01  -0.2041387233E-16  -0.1000000001E+01  -0.5086916174E-15   0.4655732891E-15   0.2909278903E-15  -0.2916917363E-15   0.2227041783E-15   0.6946466984E-01  -0.3513233492E-01  -0.3513233492E-01  -0.1080025598E-16   0.2030997457E-15   0.3098889064E-16   0.1000000001E+01
   0.0000000000E+00   0.9648676651E+00  -0.3921146144E-16   0.0000000000E+00   0.6750000000E-03  -0.6141212860E-20   0.0000000000E+00  -0.3580733487E-01  -0.3920532023E-16  -0.1000000001E+01  -0.4236664831E-14  -0.4127417118E-14   0.8765845649E-15   0.7544471087E-15  -0.6996630468E-15   0.6946466984E-01  -0.3513233492E-01  -0.3513233492E-01  -0.1141565379E-16   0.4302162507E-16  -0.1233228535E-16   0.1000000001E+01
   0.0000000000E+00   0.0000000000E+00   0.9648676651E+00   0.0000000000E+00   0.0000000000E+00   0.6750000000E-03   0.0000000000E+00   0.0000000000E+00  -0.3580733487E-01  -0.1000000001E+01   0.1241913801E-16  -0.7541902362E-15  -0.5764471106E-16   0.1216069801E-14   0.8771970032E-15   0.6946466984E-01  -0.3513233492E-01  -0.3513233492E-01   0.1433245661E-18   0.5704039292E-16   0.4337897718E-16   0.1000000001E+01
   0.1069464670E+01   0.0000000000E+00   0.9648676651E+00  -0.2250000000E-02   0.0000000000E+00   0.6750000000E-03   0.7171466974E-01   0.0000000000E+00  -0.3580733487E-01  -0.1000000001E+01  -0.1544348168E-14  -0.1081301635E-14  -0.4965471530E-15   0.1581758178E-14  -0.4792702719E-15   0.6946466984E-01  -0.3513233492E-01  -0.3513233492E-01  -0.2427361024E-16   0.1996087018E-15  -0.3166444072E-16   0.1000000001E+01
   0.1069464670E+01   0.9648676651E+00   0.9648676651E+00  -0.2250000000E-02   0.6750000000E-03   0.6750000000E-03   0.7171466974E-01  -0.3580733487E-01  -0.3580733487E-01  -0.1000000001E+01   0.2533193954E-14   0.1319750626E-14  -0.4744605566E-15   0.2968003279E-15  -0.2405212182E-15   0.6946466983E-01  -0.3513233492E-01  -0.3513233492E-01  -0.2927218691E-16   0.1425836882E-15   0.3740559566E-16   0.1000000001E+01
   0.0000000000E+00   0.9648676651E+00   0.9648676651E+00   0.0000000000E+00   0.6750000000E-03   0.6750000000E-03   0.0000000000E+00  -0.3580733487E-01  -0.3580733487E-01  -0.1000000001E+01  -0.5411097440E-15   0.1365969027E-14   0.2042770482E-15  -0.7796807367E-15   0.5121399888E-15   0.6946466983E-01  -0.3513233492E-01  -0.3513233492E-01  -0.1617809824E-16   0.2410119973E-16   0.8324673336E-16   0.1000000001E+01
   0.2138929339E+01   0.0000000000E+00  -0.1064851054E-16  -0.4500000000E-02   0.0000000000E+00   0.1494289240E-18   0.1434293395E+00   0.0000000000E+00  -0.1079793946E-16  -0.1000000002E+01  -0.1153946497E-14  -0.2611758760E-14  -0.7398070454E-15   0.4578590167E-15  -0.1560774499E-15   0.6946466985E-01  -0.3513233492E-01  -0.3513233492E-01  -0.4742081770E-16   0.2870012056E-15  -0.1849177209E-16   0.1000000002E+01
   0.2138929339E+01   0.9648676651E+00  -0.2468941300E-16  -0.4500000000E-02   0.6750000000E-03   0.4349054290E-18   0.1434293395E+00  -0.3580733487E-01  -0.2512431843E-16  -0.1000000001E+01   0.4993893110E-14   0.5762664495E-14  -0.1206573988E-14  -0.1939852953E-14  -0.8248944415E-16   0.6946466984E-01  -0.3513233492E-01  -0.3513233492E-01  -0.4669708120E-16   0.2178537609E-15   0.2658240837E-16   0.1000000001E+01
   0.2138929339E+01   0.0000000000E+00   0.9648676651E+00  -0.4500000000E-02   0.0000000000E+00   0.6750000000E-03   0.1434293395E+00   0.0000000000E+00  -0.3580733487E-01  -0.1000000001E+01   0.4835232914E-14   0.5290891208E-14   0.6614556251E-15  -0.3546404022E-14  -0.2122495531E-15   0.6946466984E-01  -0.3513233492E-01  -0.3513233492E-01   0.1120677879E-15   0.4194754284E-16  -0.2189182094E-16   0.1000000001E+01
   0.2138929339E+01   0.9648676651E+00   0.9648676651E+00  -0.4500000000E-02   0.6750000000E-03   0.6750000000E-03   0.1434293395E+00  -0.3580733487E-01  -0.3580733487E-01  -0.1000000001E+01  -0.7623404587E-14  -0.8149412484E-14   0.1088502925E-14   0.7385656857E-15   0.5942550112E-15   0.6946466983E-01  -0.3513233491E-01  -0.3513233491E-01   0.1641173486E-15   0.4661504627E-15   0.5272698294E-16   0.1000000001E+01
     1     2     3     4     5     6     7     8
     2     9    10     3     6    11    12     7
 VARIABLES = X,Y,Z,DU1,DU2,DU3,U1,U2,U3,S11,S22,S33,S12,S13,S23,E11,E22,E33,E12,E13,E23,SMISES
 ZONE, T="0.5650D+01" F=FEPOINT, I=   12 J=    2 ET=BRICK
   0.0000000000E+00   0.0000000000E+00   0.0000000000E+00   0.0000000000E+00   0.0000000000E+00   0.0000000000E+00   0.0000000000E+00   0.0000000000E+00   0.0000000000E+00  -0.2125000003E+01   0.6515486949E-14   0.4906393120E-14   0.1620456166E-15  -0.2057626232E-14  -0.1140091891E-14   0.6721466985E-01  -0.3445733492E-01  -0.3445733492E-01   0.8324201913E-17  -0.9180673830E-16  -0.7595702612E-16   0.2125000003E+01
   0.1067214670E+01   0.0000000000E+00  -0.3234124096E-16  -0.2250000000E-02   0.0000000000E+00   0.4439927960E-19   0.6946466974E-01   0.0000000000E+00  -0.3238564024E-16  -0.2125000003E+01  -0.2349598353E-14  -0.1946146172E-14  -0.1823189275E-16   0.9530332798E-15   0.5465935202E-15   0.6721466984E-01  -0.3445733492E-01  -0.3445733492E-01  -0.3989843490E-16   0.1768771355E-15   0.2018278714E-16   0.2125000003E+01
   0.1067214670E+01   0.9655426651E+00  -0.2071520010E-16  -0.2250000000E-02   0.6750000000E-03  -0.2508660717E-18   0.6946466974E-01  -0.3513233487E-01  -0.2046433403E-16  -0.2125000003E+01  -0.5066988463E-15   0.5955530081E-15   0.3334405094E-15  -0.1606884604E-15   0.1484410924E-15   0.6721466984E-01  -0.3445733492E-01  -0.3445733492E-01  -0.3182847435E-16   0.1653984693E-15   0.6664669212E-16   0.2125000003E+01
   0.0000000000E+00   0.9655426651E+00  -0.3888991826E-16   0.0000000000E+00   0.6750000000E-03   0.3215431856E-18   0.0000000000E+00  -0.3513233487E-01  -0.3921146144E-16  -0.2125000003E+01  -0.4128631652E-14  -0.4188323716E-14   0.7883722662E-15   0.5941240847E-15  -0.6660218975E-15   0.6721466984E-01  -0.3445733492E-01  -0.3445733492E-01   0.8107975670E-17   0.5380511915E-16  -0.1887628401E-16   0.2125000003E+01
   0.0000000000E+00   0.0000000000E+00   0.9655426651E+00   0.0000000000E+00   0.0000000000E+00   0.6750000000E-03   0.0000000000E+00   0.0000000000E+00  -0.3513233487E-01  -0.2125000003E+01  -0.5361593460E-16  -0.7992262909E-15  -0.7596302553E-16   0.1304173691E-14   0.9398165943E-15   0.6721466984E-01  -0.3445733492E-01  -0.3445733492E-01  -0.7132892231E-17   0.5084049339E-16   0.2202208561E-16   0.2125000003E+01
   0.1067214670E+01   0.0000000000E+00   0.9655426651E+00  -0.2250000000E-02   0.0000000000E+00   0.6750000000E-03   0.6946466974E-01   0.0000000000E+00  -0.3513233487E-01  -0.2125000003E+01  -0.1498996245E-14  -0.9993959801E-15  -0.3243007292E-15   0.1506379699E-14  -0.4668013790E-15   0.6721466984E-01  -0.3445733492E-01  -0.3445733492E-01  -0.1847634366E-16   0.1980225990E-15  -0.1927218603E-16   0.2125000003E+01
   0.1067214670E+01   0.9655426651E+00   0.9655426651E+00  -0.2250000000E-02   0.6750000000E-03   0.6750000000E-03   0.6946466974E-01  -0.3513233487E-01  -0.3513233487E-01  -0.2125000003E+01   0.2578545865E-14   0.1534722837E-14  -0.2577075022E-15   0.3235336334E-15  -0.2128243752E-15   0.6721466983E-01  -0.3445733492E-01  -0.3445733492E-01  -0.2105182440E-16   0.1828249111E-15   0.2903410961E-17   0.2125000003E+01
   0.0000000000E+00   0.9655426651E+00   0.9655426651E+00   0.0000000000E+00   0.6750000000E-03   0.6750000000E-03   0.0000000000E+00  -0.3513233487E-01  -0.3513233487E-01  -0.2125000003E+01   0.7532188802E-16   0.1781488598E-14   0.1370703381E-15  -0.7259523555E-15   0.4475819184E-15   0.6721466983E-01  -0.3445733492E-01  -0.3445733492E-01  -0.2943418684E-16   0.2239196174E-16   0.7466407626E-16   0.2125000003E+01
   0.2134429339E+01   0.0000000000E+00  -0.1036784157E-16  -0.4500000000E-02   0.0000000000E+00   0.2806689723E-18   0.1389293395E+00   0.0000000000E+00  -0.1064851054E-16  -0.2125000003E+01  -0.1069950338E-14  -0.2702280179E-14  -0.7745123670E-15   0.7149784202E-15  -0.2483697036E-15   0.6721466984E-01  -0.3445733492E-01  -0.3445733492E-01  -0.4074976383E-16   0.2594835800E-15  -0.2105848758E-16   0.2125000003E+01
   0.2134429339E+01   0.9655426651E+00  -0.2495580421E-16  -0.4500000000E-02   0.6750000000E-03  -0.2663912095E-18   0.1389293395E+00  -0.3513233487E-01  -0.2468941300E-16  -0.2125000003E+01   0.5072711881E-14   0.6131604562E-14  -0.1286257550E-14  -0.2198879757E-14  -0.1019459160E-15   0.6721466983E-01  -0.3445733492E-01  -0.3445733492E-01  -0.5947935832E-16   0.2602407047E-15   0.4136749249E-16   0.2125000003E+01
   0.2134429339E+01   0.0000000000E+00   0.9655426651E+00  -0.4500000000E-02   0.0000000000E+00   0.6750000000E-03   0.1389293395E+00   0.0000000000E+00  -0.3513233487E-01  -0.2125000003E+01   0.5674438525E-14   0.5547812604E-14   0.1960098430E-15  -0.3422174806E-14  -0.1029038511E-15   0.6721466983E-01  -0.3445733492E-01  -0.3445733492E-01   0.9403015795E-16   0.1025601009E-15  -0.2531986273E-16   0.2125000003E+01
   0.2134429339E+01   0.9655426651E+00   0.9655426651E+00  -0.4500000000E-02   0.6750000000E-03   0.6750000000E-03   0.1389293395E+00  -0.3513233487E-01  -0.3513233487E-01  -0.2125000003E+01  -0.7755110041E-14  -0.8269779965E-14   0.7875032869E-15   0.6069724858E-15   0.8701606115E-15   0.6721466983E-01  -0.3445733491E-01  -0.3445733491E-01   0.1485227283E-15   0.3258890406E-15   0.6536102134E-16   0.2125000003E+01
     1     2     3     4     5     6     7     8
     2     9    10     3     6    11    12     7
 VARIABLES = X,Y,Z,DU1,DU2,DU3,U1,U2,U3,S11,S22,S33,S12,S13,S23,E11,E22,E33,E12,E13,E23,SMISES
 ZONE, T="0.5700D+01" F=FEPOINT, I=   12 J=    2 ET=BRICK
   0.0000000000E+00   0.0000000000E+00   0.0000000000E+00   0.0000000000E+00   0.0000000000E+00   0.0000000000E+00   0.0000000000E+00   0.0000000000E+00   0.0000000000E+00  -0.3250000005E+01   0.6733910663E-14   0.4862135321E-14   0.1629155409E-15  -0.2088106239E-14  -0.1138556761E-14   0.6496466984E-01  -0.3378233492E-01  -0.3378233492E-01  -0.5940217012E-17  -0.9868765819E-16  -0.7292569644E-16   0.3250000005E+01
   0.1064964670E+01   0.0000000000E+00  -0.3246565148E-16  -0.2250000000E-02   0.0000000000E+00  -0.1244105190E-18   0.6721466974E-01   0.0000000000E+00  -0.3234124096E-16  -0.3250000005E+01  -0.2814735362E-14  -0.2087646187E-14  -0.1416567342E-16   0.1128641527E-14   0.5836129967E-15   0.6496466984E-01  -0.3378233492E-01  -0.3378233492E-01  -0.3060539423E-16   0.1580951435E-15   0.1328970653E-16   0.3250000005E+01
   0.1064964670E+01   0.9662176651E+00  -0.2072351700E-16  -0.2250000000E-02   0.6750000000E-03  -0.8316900597E-20   0.6721466974E-01  -0.3445733487E-01  -0.2071520010E-16  -0.3250000005E+01  -0.2412951730E-15   0.4411715476E-15   0.2576197242E-15  -0.6646214058E-16   0.1422979853E-15   0.6496466983E-01  -0.3378233492E-01  -0.3378233492E-01  -0.5162218446E-16   0.1987997316E-15   0.7694497342E-16   0.3250000005E+01
   0.0000000000E+00   0.9662176651E+00  -0.3893701279E-16   0.0000000000E+00   0.6750000000E-03  -0.4709452673E-19   0.0000000000E+00  -0.3445733487E-01  -0.3888991826E-16  -0.3250000005E+01  -0.4663522324E-14  -0.4136895818E-14   0.8671777274E-15   0.5656101297E-15  -0.6908933628E-15   0.6496466983E-01  -0.3378233492E-01  -0.3378233492E-01   0.1292436942E-16   0.3706301470E-16  -0.2113241044E-16   0.3250000005E+01
   0.0000000000E+00   0.0000000000E+00   0.9662176651E+00   0.0000000000E+00   0.0000000000E+00   0.6750000000E-03   0.0000000000E+00   0.0000000000E+00  -0.3445733487E-01  -0.3250000005E+01  -0.2167955062E-15  -0.5906947911E-15  -0.5364898996E-16   0.1246195228E-14   0.9572920994E-15   0.6496466983E-01  -0.3378233492E-01  -0.3378233492E-01  -0.3616021077E-17   0.4663192026E-16   0.1453447252E-16   0.3250000005E+01
   0.1064964670E+01   0.0000000000E+00   0.9662176651E+00  -0.2250000000E-02   0.0000000000E+00   0.6750000000E-03   0.6721466974E-01   0.0000000000E+00  -0.3445733487E-01  -0.3250000005E+01  -0.9451481904E-15  -0.7691849315E-15  -0.5303422751E-15   0.1585537448E-14  -0.5278033659E-15   0.6496466983E-01  -0.3378233492E-01  -0.3378233492E-01  -0.1294087996E-16   0.2227233936E-15  -0.6513475709E-17   0.3250000005E+01
   0.1064964670E+01   0.9662176651E+00   0.9662176651E+00  -0.2250000000E-02   0.6750000000E-03   0.6750000000E-03   0.6721466974E-01  -0.3445733487E-01  -0.3445733487E-01  -0.3250000004E+01   0.2148601507E-14   0.1069585789E-14  -0.4048093523E-15   0.1647727328E-15  -0.2557215510E-15   0.6496466983E-01  -0.3378233491E-01  -0.3378233491E-01   0.2978102421E-16   0.1124761697E-15  -0.1346582174E-16   0.3250000004E+01
   0.0000000000E+00   0.9662176651E+00   0.9662176651E+00   0.0000000000E+00   0.6750000000E-03   0.6750000000E-03   0.0000000000E+00  -0.3445733487E-01  -0.3445733487E-01  -0.3250000004E+01  -0.1229510017E-16   0.1716182896E-14   0.1959183463E-15  -0.8948286525E-15   0.4377314231E-15   0.6496466983E-01  -0.3378233492E-01  -0.3378233492E-01  -0.5410761249E-16   0.1723238334E-16   0.9648131237E-16   0.3250000004E+01
   0.2129929339E+01   0.0000000000E+00  -0.1092862107E-16  -0.4500000000E-02   0.0000000000E+00  -0.5607795046E-18   0.1344293395E+00   0.0000000000E+00  -0.1036784157E-16  -0.3250000005E+01  -0.7060410542E-15  -0.2338370887E-14  -0.4268099317E-15   0.5634911245E-15  -0.1764905102E-15   0.6496466984E-01  -0.3378233492E-01  -0.3378233492E-01  -0.6217902066E-16   0.2345229814E-15  -0.2299352943E-16   0.3250000005E+01
   0.2129929339E+01   0.9662176651E+00  -0.2507689497E-16  -0.4500000000E-02   0.6750000000E-03  -0.1210907517E-18   0.1344293395E+00  -0.3445733487E-01  -0.2495580421E-16  -0.3250000005E+01   0.4888484439E-14   0.5675265681E-14  -0.9937134736E-15  -0.2090494979E-14   0.3387998222E-16   0.6496466983E-01  -0.3378233492E-01  -0.3378233492E-01  -0.2097788807E-16   0.2708163787E-15   0.3683875667E-16   0.3250000005E+01
   0.2129929339E+01   0.0000000000E+00   0.9662176651E+00  -0.4500000000E-02   0.0000000000E+00   0.6750000000E-03   0.1344293395E+00   0.0000000000E+00  -0.3445733487E-01  -0.3250000005E+01   0.5695388747E-14   0.5703555139E-14   0.2957211295E-15  -0.2997207129E-14  -0.1191732251E-15   0.6496466983E-01  -0.3378233492E-01  -0.3378233492E-01   0.9317258399E-16   0.8978783520E-16  -0.3426518531E-16   0.3250000005E+01
   0.2129929339E+01   0.9662176651E+00   0.9662176651E+00  -0.4500000000E-02   0.6750000000E-03   0.6750000000E-03   0.1344293395E+00  -0.3445733487E-01  -0.3445733487E-01  -0.3250000004E+01  -0.7347841611E-14  -0.8199029977E-14   0.5925096546E-15   0.5872108127E-15   0.8313669127E-15   0.6496466982E-01  -0.3378233491E-01  -0.3378233491E-01   0.1591688264E-15   0.3471368231E-15   0.8493266561E-16   0.3250000004E+01
     1     2     3     4     5     6     7     8
     2     9    10     3     6    11    12     7
 VARIABLES = X,Y,Z,DU1,DU2,DU3,U1,U2,U3,S11,S22,S33,S12,S13,S23,E11,E22,E33,E12,E13,E23,SMISES
 ZONE, T="0.5750D+01" F=FEPOINT, I=   12 J=    2 ET=BRICK
   0.0000000000E+00   0.0000000000E+00   0.0000000000E+00   0.0000000000E+00   0.0000000000E+00   0.0000000000E+00   0.0000000000E+00   0.0000000000E+00   0.0000000000E+00  -0.4375000007E+01   0.6982447468E-14   0.5067312993E-14   0.1673520448E-15  -0.2037320664E-14  -0.1185829309E-14   0.6271466984E-01  -0.3310733492E-01  -0.3310733492E-01  -0.1152637538E-16  -0.7877169152E-16  -0.8023071465E-16   0.4375000007E+01
   0.1062714670E+01   0.0000000000E+00  -0.3243802844E-16  -0.2250000000E-02   0.0000000000E+00   0.2762303693E-19   0.6496466974E-01   0.0000000000E+00  -0.3246565148E-16  -0.4375000007E+01  -0.3208757705E-14  -0.2446475883E-14  -0.9369430434E-16   0.9338532252E-15   0.5652119025E-15   0.6271466984E-01  -0.3310733492E-01  -0.3310733492E-01  -0.6805550315E-17   0.1450670423E-15   0.2362399708E-16   0.4375000007E+01
   0.1062714670E+01   0.9668926651E+00  -0.2077955174E-16  -0.2250000000E-02   0.6750000000E-03  -0.5603473601E-19   0.6496466974E-01  -0.3378233487E-01  -0.2072351700E-16  -0.4375000006E+01   0.1269643063E-15   0.6077049642E-15   0.3536081160E-15  -0.3489035802E-15   0.2390143179E-16   0.6271466983E-01  -0.3310733492E-01  -0.3310733492E-01  -0.1438161309E-16   0.1989501015E-15   0.5696745496E-16   0.4375000006E+01
   0.0000000000E+00   0.9668926651E+00  -0.3920024141E-16   0.0000000000E+00   0.6750000000E-03  -0.2632286259E-18   0.0000000000E+00  -0.3378233487E-01  -0.3893701279E-16  -0.4375000006E+01  -0.4463059569E-14  -0.3861332847E-14   0.9363025973E-15   0.6685709438E-15  -0.6800721442E-15   0.6271466983E-01  -0.3310733492E-01  -0.3310733492E-01  -0.9259407376E-17   0.3902332473E-16   0.7794419080E-17   0.4375000006E+01
   0.0000000000E+00   0.0000000000E+00   0.9668926651E+00   0.0000000000E+00   0.0000000000E+00   0.6750000000E-03   0.0000000000E+00   0.0000000000E+00  -0.3378233487E-01  -0.4375000006E+01  -0.4899873231E-16  -0.3924202812E-15  -0.6051570474E-16   0.1334065204E-14   0.9308743785E-15   0.6271466983E-01  -0.3310733492E-01  -0.3310733492E-01  -0.2721992124E-17   0.4914425706E-16   0.2805654621E-16   0.4375000006E+01
   0.1062714670E+01   0.0000000000E+00   0.9668926651E+00  -0.2250000000E-02   0.0000000000E+00   0.6750000000E-03   0.6496466974E-01   0.0000000000E+00  -0.3378233487E-01  -0.4375000006E+01  -0.1243022427E-14  -0.9357183730E-15  -0.7758298713E-15   0.1555120039E-14  -0.4000273365E-15   0.6271466983E-01  -0.3310733492E-01  -0.3310733492E-01  -0.2738424935E-16   0.2166631123E-15  -0.2632907664E-16   0.4375000006E+01
   0.1062714670E+01   0.9668926651E+00   0.9668926651E+00  -0.2250000000E-02   0.6750000000E-03   0.6750000000E-03   0.6496466974E-01  -0.3378233487E-01  -0.3378233487E-01  -0.4375000006E+01   0.1491897609E-14   0.1095348602E-14  -0.6410762123E-15  -0.6571108927E-16  -0.2692712229E-15   0.6271466982E-01  -0.3310733491E-01  -0.3310733491E-01  -0.2028972827E-16   0.1912809336E-15   0.1229784844E-16   0.4375000006E+01
   0.0000000000E+00   0.9668926651E+00   0.9668926651E+00   0.0000000000E+00   0.6750000000E-03   0.6750000000E-03   0.0000000000E+00  -0.3378233487E-01  -0.3378233487E-01  -0.4375000006E+01  -0.3312172190E-15   0.1152175567E-14   0.9979095961E-16  -0.6115192697E-15   0.5085436743E-15   0.6271466982E-01  -0.3310733491E-01  -0.3310733491E-01  -0.2167851628E-16   0.1750668539E-17   0.8665710262E-16   0.4375000006E+01
   0.2125429339E+01   0.0000000000E+00  -0.1117729193E-16  -0.4500000000E-02   0.0000000000E+00  -0.2486708613E-18   0.1299293395E+00   0.0000000000E+00  -0.1092862107E-16  -0.4375000007E+01  -0.1306504427E-14  -0.3261207951E-14  -0.5783524313E-15   0.7488569656E-15  -0.3021372225E-15   0.6271466983E-01  -0.3310733492E-01  -0.3310733492E-01  -0.7960991765E-16   0.2717661835E-15  -0.2288942196E-16   0.4375000007E+01
   0.2125429339E+01   0.9668926651E+00  -0.2604843646E-16  -0.4500000000E-02   0.6750000000E-03  -0.9715414963E-18   0.1299293395E+00  -0.3378233487E-01  -0.2507689497E-16  -0.4375000006E+01   0.4284569509E-14   0.5066635827E-14  -0.1002543028E-14  -0.2223831010E-14  -0.1393044118E-15   0.6271466983E-01  -0.3310733492E-01  -0.3310733492E-01  -0.1917164311E-16   0.1894012966E-15   0.3836418937E-16   0.4375000006E+01
   0.2125429339E+01   0.0000000000E+00   0.9668926651E+00  -0.4500000000E-02   0.0000000000E+00   0.6750000000E-03   0.1299293395E+00   0.0000000000E+00  -0.3378233487E-01  -0.4375000006E+01   0.6456407229E-14   0.5838347462E-14  -0.3845736237E-15  -0.2554725855E-14   0.7561323478E-16   0.6271466983E-01  -0.3310733492E-01  -0.3310733492E-01   0.9733634065E-16   0.1543705440E-15  -0.3437863665E-16   0.4375000006E+01
   0.2125429339E+01   0.9668926651E+00   0.9668926651E+00  -0.4500000000E-02   0.6750000000E-03   0.6750000000E-03   0.1299293395E+00  -0.3378233487E-01  -0.3378233487E-01  -0.4375000006E+01  -0.7240075457E-14  -0.7583497022E-14   0.1674744336E-15   0.3768218641E-15   0.1026034080E-14   0.6271466982E-01  -0.3310733491E-01  -0.3310733491E-01   0.1373549261E-15   0.3109121817E-15   0.9257014446E-16   0.4375000006E+01
     1     2     3     4     5     6     7     8
     2     9    10     3     6    11    12     7
 VARIABLES = X,Y,Z,DU1,DU2,DU3,U1,U2,U3,S11,S22,S33,S12,S13,S23,E11,E22,E33,E12,E13,E23,SMISES
 ZONE, T="0.5800D+01" F=FEPOINT, I=   12 J=    2 ET=BRICK
   0.0000000000E+00   0.0000000000E+00   0.0000000000E+00   0.0000000000E+00   0.0000000000E+00   0.0000000000E+00   0.0000000000E+00   0.0000000000E+00   0.0000000000E+00  -0.5500000009E+01   0.7270162435E-14   0.5899446204E-14   0.1761908107E-15  -0.1739883663E-14  -0.1414201072E-14   0.6046466983E-01  -0.3243233492E-01  -0.3243233492E-01  -0.4947956387E-17  -0.1076243168E-15  -0.6804956608E-16   0.5500000009E+01
   0.1060464670E+01   0.0000000000E+00  -0.2873580772E-16  -0.2250000000E-02   0.0000000000E+00   0.3702220728E-17   0.6271466974E-01   0.0000000000E+00  -0.3243802844E-16  -0.5500000008E+01  -0.2541165122E-14  -0.1470120413E-14  -0.3538685280E-15   0.4600247024E-15   0.4362522284E-15   0.6046466983E-01  -0.3243233492E-01  -0.3243233492E-01  -0.2577196980E-16   0.1865995563E-15   0.2237547067E-16   0.5500000008E+01
   0.1060464670E+01   0.9675676651E+00  -0.1787292725E-16  -0.2250000000E-02   0.6750000000E-03   0.2906624490E-17   0.6271466974E-01  -0.3310733487E-01  -0.2077955174E-16  -0.5500000008E+01   0.5576381367E-15   0.1443289787E-14   0.6459592258E-16   0.1655100770E-15   0.4430793446E-15   0.6046466983E-01  -0.3243233492E-01  -0.3243233492E-01  -0.1600929674E-16   0.1414295088E-15   0.6959496680E-16   0.5500000008E+01
   0.0000000000E+00   0.9675676651E+00  -0.4036569640E-16   0.0000000000E+00   0.6750000000E-03  -0.1165454984E-17   0.0000000000E+00  -0.3310733487E-01  -0.3920024141E-16  -0.5500000008E+01  -0.4389952075E-14  -0.3291881160E-14   0.8946046704E-15   0.1055228042E-14  -0.3921016333E-15   0.6046466983E-01  -0.3243233492E-01  -0.3243233492E-01  -0.1237402101E-17   0.7568521354E-16  -0.3402062228E-16   0.5500000008E+01
   0.0000000000E+00   0.0000000000E+00   0.9675676651E+00   0.0000000000E+00   0.0000000000E+00   0.6750000000E-03   0.0000000000E+00   0.0000000000E+00  -0.3310733487E-01  -0.5500000008E+01  -0.7991285680E-15  -0.1896131573E-14  -0.5640982242E-16   0.1840153209E-14   0.7453765523E-15   0.6046466983E-01  -0.3243233492E-01  -0.3243233492E-01   0.1160702064E-16   0.8009335019E-16   0.1455619527E-16   0.5500000008E+01
   0.1060464670E+01   0.0000000000E+00   0.9675676651E+00  -0.2250000000E-02   0.0000000000E+00   0.6750000000E-03   0.6271466974E-01   0.0000000000E+00  -0.3310733487E-01  -0.5500000008E+01  -0.9857852004E-15  -0.1235051427E-14  -0.5827444126E-16   0.1129980514E-14  -0.7579389500E-15   0.6046466983E-01  -0.3243233492E-01  -0.3243233492E-01  -0.3599169639E-16   0.1776793889E-15  -0.4075625745E-16   0.5500000008E+01
   0.1060464670E+01   0.9675676651E+00   0.9675676651E+00  -0.2250000000E-02   0.6750000000E-03   0.6750000000E-03   0.6271466974E-01  -0.3310733487E-01  -0.3310733487E-01  -0.5500000007E+01   0.1390305173E-14   0.4114230828E-15  -0.4451614423E-16   0.5001964598E-15   0.3881900076E-16   0.6046466982E-01  -0.3243233491E-01  -0.3243233491E-01  -0.3392284451E-16   0.1939159741E-15   0.1323761534E-17   0.5500000007E+01
   0.0000000000E+00   0.9675676651E+00   0.9675676651E+00   0.0000000000E+00   0.6750000000E-03   0.6750000000E-03   0.0000000000E+00  -0.3310733487E-01  -0.3310733487E-01  -0.5500000007E+01  -0.2357985154E-15   0.5068942157E-15   0.2414532982E-15  -0.2875580784E-15   0.8149931966E-15   0.6046466982E-01  -0.3243233491E-01  -0.3243233491E-01  -0.2152146683E-16  -0.1028743189E-16   0.1191436493E-15   0.5500000007E+01
   0.2120929339E+01   0.0000000000E+00   0.5494066707E-17  -0.4500000000E-02   0.0000000000E+00   0.1667135864E-16   0.1254293395E+00   0.0000000000E+00  -0.1117729193E-16  -0.5500000008E+01  -0.8359230349E-15  -0.1615267197E-14  -0.5872948919E-15   0.2624392067E-15  -0.6964679168E-15   0.6046466983E-01  -0.3243233492E-01  -0.3243233492E-01  -0.8680345222E-16   0.1543770243E-15  -0.3325334583E-16   0.5500000008E+01
   0.2120929339E+01   0.9675676651E+00  -0.1139143015E-16  -0.4500000000E-02   0.6750000000E-03   0.1465700631E-16   0.1254293395E+00  -0.3310733487E-01  -0.2604843646E-16  -0.5500000008E+01   0.4918232766E-14   0.6206073173E-14  -0.1191225690E-14  -0.2247580602E-14  -0.1818959748E-15   0.6046466982E-01  -0.3243233492E-01  -0.3243233492E-01  -0.5125698193E-16   0.2732711097E-15   0.5361186775E-16   0.5500000008E+01
   0.2120929339E+01   0.0000000000E+00   0.9675676651E+00  -0.4500000000E-02   0.0000000000E+00   0.6750000000E-03   0.1254293395E+00   0.0000000000E+00  -0.3310733487E-01  -0.5500000008E+01   0.5568033460E-14   0.4782710887E-14   0.5399056722E-15  -0.3331859199E-14  -0.3127022737E-15   0.6046466982E-01  -0.3243233492E-01  -0.3243233492E-01   0.1619156545E-15   0.1400264197E-15  -0.2881196116E-16   0.5500000008E+01
   0.2120929339E+01   0.9675676651E+00   0.9675676651E+00  -0.4500000000E-02   0.6750000000E-03   0.6750000000E-03   0.1254293395E+00  -0.3310733487E-01  -0.3310733487E-01  -0.5500000007E+01  -0.8115567837E-14  -0.8446837399E-14   0.7090471244E-15   0.3189731905E-15   0.9110583953E-15   0.6046466982E-01  -0.3243233491E-01  -0.3243233491E-01   0.2002871747E-15   0.3175090050E-15   0.3749614766E-16   0.5500000007E+01
     1     2     3     4     5     6     7     8
     2     9    10     3     6    11    12     7
 VARIABLES = X,Y,Z,DU1,DU2,DU3,U1,U2,U3,S11,S22,S33,S12,S13,S23,E11,E22,E33,E12,E13,E23,SMISES
 ZONE, T="0.5850D+01" F=FEPOINT, I=   12 J=    2 ET=BRICK
   0.0000000000E+00   0.0000000000E+00   0.0000000000E+00   0.0000000000E+00   0.0000000000E+00   0.0000000000E+00   0.0000000000E+00   0.0000000000E+00   0.0000000000E+00  -0.6625000010E+01   0.7106885108E-14   0.5528269085E-14   0.1616106078E-15  -0.2184757682E-14  -0.1106868225E-14   0.5821466983E-01  -0.3175733492E-01  -0.3175733492E-01   0.6214781806E-17  -0.7651304232E-16  -0.7660058936E-16   0.6625000010E+01
   0.1058214670E+01   0.0000000000E+00  -0.3323922028E-16  -0.2250000000E-02   0.0000000000E+00  -0.4503412568E-17   0.6046466974E-01   0.0000000000E+00  -0.2873580772E-16  -0.6625000010E+01  -0.2439572730E-14  -0.1843824325E-14  -0.3234395315E-15   0.6347800568E-15   0.6404212893E-15   0.5821466983E-01  -0.3175733492E-01  -0.3175733492E-01  -0.4396844111E-16   0.1446298787E-15   0.1619193922E-16   0.6625000010E+01
   0.1058214670E+01   0.9682426651E+00  -0.2133840954E-16  -0.2250000000E-02   0.6750000000E-03  -0.3465482290E-17   0.6046466974E-01  -0.3243233487E-01  -0.1787292725E-16  -0.6625000009E+01   0.2488753023E-15   0.5115568926E-15  -0.3806457385E-16   0.2489693677E-15   0.2057511353E-15   0.5821466982E-01  -0.3175733492E-01  -0.3175733492E-01  -0.4178284594E-16   0.1815893060E-15   0.8168504513E-16   0.6625000009E+01
   0.0000000000E+00   0.9682426651E+00  -0.3889867541E-16   0.0000000000E+00   0.6750000000E-03   0.1467020990E-17   0.0000000000E+00  -0.3243233487E-01  -0.4036569640E-16  -0.6625000010E+01  -0.5180718975E-14  -0.4172088510E-14   0.8616534708E-15   0.4224770506E-15  -0.7445250801E-15   0.5821466982E-01  -0.3175733492E-01  -0.3175733492E-01   0.1671176547E-17   0.4009843878E-16  -0.2133870046E-16   0.6625000010E+01
   0.0000000000E+00   0.0000000000E+00   0.9682426651E+00   0.0000000000E+00   0.0000000000E+00   0.6750000000E-03   0.0000000000E+00   0.0000000000E+00  -0.3243233487E-01  -0.6625000010E+01  -0.6636068812E-15  -0.7057026410E-15  -0.4017084025E-16   0.1437585072E-14   0.1085342366E-14   0.5821466982E-01  -0.3175733492E-01  -0.3175733492E-01  -0.1895123992E-17   0.7441958444E-16   0.4056735536E-16   0.6625000010E+01
   0.1058214670E+01   0.0000000000E+00   0.9682426651E+00  -0.2250000000E-02   0.0000000000E+00   0.6750000000E-03   0.6046466974E-01   0.0000000000E+00  -0.3243233487E-01  -0.6625000009E+01  -0.1505703940E-14  -0.9614811428E-15  -0.2394877119E-15   0.1368210256E-14  -0.6082077850E-15   0.5821466982E-01  -0.3175733492E-01  -0.3175733492E-01  -0.2872946195E-16   0.1966596956E-15  -0.1608619186E-16   0.6625000009E+01
   0.1058214670E+01   0.9682426651E+00   0.9682426651E+00  -0.2250000000E-02   0.6750000000E-03   0.6750000000E-03   0.6046466974E-01  -0.3243233487E-01  -0.3243233487E-01  -0.6625000009E+01   0.2401853187E-14   0.1524563557E-14  -0.5840015576E-16   0.3750816666E-15  -0.2551607032E-15   0.5821466982E-01  -0.3175733491E-01  -0.3175733491E-01  -0.2310874588E-16   0.1916019805E-15   0.2452519337E-16   0.6625000009E+01
   0.0000000000E+00   0.9682426651E+00   0.9682426651E+00   0.0000000000E+00   0.6750000000E-03   0.6750000000E-03   0.0000000000E+00  -0.3243233487E-01  -0.3243233487E-01  -0.6625000009E+01  -0.1065209564E-14   0.3349165160E-15   0.3759052611E-15  -0.9095366245E-15   0.5653670538E-15   0.5821466982E-01  -0.3175733491E-01  -0.3175733491E-01  -0.1917549774E-16   0.5513050447E-17   0.9293663633E-16   0.6625000009E+01
   0.2116429339E+01   0.0000000000E+00  -0.1184489659E-16  -0.4500000000E-02   0.0000000000E+00  -0.1733896330E-16   0.1209293395E+00   0.0000000000E+00   0.5494066707E-17  -0.6625000010E+01  -0.1918585792E-14  -0.3248326471E-14   0.1216036848E-15   0.7855277384E-16  -0.3754513949E-15   0.5821466983E-01  -0.3175733492E-01  -0.3175733492E-01  -0.4569838827E-16   0.2278808840E-15  -0.2082123880E-16   0.6625000010E+01
   0.2116429339E+01   0.9682426651E+00  -0.2698719125E-16  -0.4500000000E-02   0.6750000000E-03  -0.1559576110E-16   0.1209293395E+00  -0.3243233487E-01  -0.1139143015E-16  -0.6625000009E+01   0.4861458225E-14   0.6095050795E-14  -0.5958436197E-15  -0.2319966376E-14  -0.5465085821E-16   0.5821466982E-01  -0.3175733491E-01  -0.3175733491E-01  -0.5128989503E-16   0.1792576318E-15   0.1353543211E-16   0.6625000009E+01
   0.2116429339E+01   0.0000000000E+00   0.9682426651E+00  -0.4500000000E-02   0.0000000000E+00   0.6750000000E-03   0.1209293395E+00   0.0000000000E+00  -0.3243233487E-01  -0.6625000009E+01   0.6161059670E-14   0.6343926015E-14   0.5700236762E-15  -0.2512422612E-14  -0.1558629469E-15   0.5821466982E-01  -0.3175733491E-01  -0.3175733491E-01   0.9921748766E-16   0.1344196899E-15  -0.2430173998E-16   0.6625000009E+01
   0.2116429339E+01   0.9682426651E+00   0.9682426651E+00  -0.4500000000E-02   0.6750000000E-03   0.6750000000E-03   0.1209293395E+00  -0.3243233487E-01  -0.3243233487E-01  -0.6625000008E+01  -0.8044453062E-14  -0.8637674754E-14   0.8799141042E-15  -0.2985746901E-15   0.8943917694E-15   0.5821466981E-01  -0.3175733491E-01  -0.3175733491E-01   0.1580207352E-15   0.2530533645E-15   0.2378135172E-16   0.6625000008E+01
     1     2     3     4     5     6     7     8
     2     9    10     3     6    11    12     7
 VARIABLES = X,Y,Z,DU1,DU2,DU3,U1,U2,U3,S11,S22,S33,S12,S13,S23,E11,E22,E33,E12,E13,E23,SMISES
 ZONE, T="0.5900D+01" F=FEPOINT, I=   12 J=    2 ET=BRICK
   0.0000000000E+00   0.0000000000E+00   0.0000000000E+00   0.0000000000E+00   0.0000000000E+00   0.0000000000E+00   0.0000000000E+00   0.0000000000E+00   0.0000000000E+00  -0.7749969524E+01  -0.1524422707E-04  -0.1524422707E-04   0.1332455319E-15  -0.8216724923E-15  -0.1384617995E-14   0.5156058776E-01  -0.2888029388E-01  -0.2888029388E-01  -0.6742247618E-17  -0.6610397373E-16  -0.8328004753E-16   0.7749954279E+01
   0.1051560588E+01   0.0000000000E+00  -0.2468643288E-16  -0.6654082061E-02   0.0000000000E+00   0.8552787402E-17   0.5821466974E-01   0.0000000000E+00  -0.3323922028E-16  -0.7749969523E+01  -0.1524422708E-04  -0.1524422708E-04   0.3129625958E-15   0.1128838203E-15   0.4104381625E-15   0.5156058776E-01  -0.2888029388E-01  -0.2888029388E-01  -0.1407547673E-16   0.1117154490E-15   0.2688562354E-16   0.7749954279E+01
   0.1051560588E+01   0.9711197062E+00  -0.1358967313E-16  -0.6654082061E-02   0.2877041031E-02   0.7748736409E-17   0.5821466974E-01  -0.3175733487E-01  -0.2133840954E-16  -0.7749969523E+01  -0.1524422708E-04  -0.1524422708E-04   0.8457093364E-15  -0.4404450734E-16   0.7086972489E-15   0.5156058775E-01  -0.2888029388E-01  -0.2888029388E-01  -0.1858235498E-16   0.1750538067E-15   0.7313286393E-16   0.7749954278E+01
   0.0000000000E+00   0.9711197062E+00  -0.4115354779E-16   0.0000000000E+00   0.2877041031E-02  -0.2254872386E-17   0.0000000000E+00  -0.3175733487E-01  -0.3889867541E-16  -0.7749969523E+01  -0.1524422708E-04  -0.1524422708E-04   0.5805871640E-15   0.1551946716E-14   0.4193145742E-15   0.5156058775E-01  -0.2888029388E-01  -0.2888029388E-01  -0.9568785352E-17   0.5214595654E-16  -0.1066906797E-16   0.7749954279E+01
   0.0000000000E+00   0.0000000000E+00   0.9711197062E+00   0.0000000000E+00   0.0000000000E+00   0.2877041031E-02   0.0000000000E+00   0.0000000000E+00  -0.3175733487E-01  -0.7749969523E+01  -0.1524422708E-04  -0.1524422708E-04  -0.9471617379E-16   0.1590327108E-14   0.4062672164E-16   0.5156058775E-01  -0.2888029388E-01  -0.2888029388E-01   0.5307700851E-17   0.7349447778E-16   0.4395519858E-16   0.7749954279E+01
   0.1051560588E+01   0.0000000000E+00   0.9711197062E+00  -0.6654082061E-02   0.0000000000E+00   0.2877041031E-02   0.5821466974E-01   0.0000000000E+00  -0.3175733487E-01  -0.7749969523E+01  -0.1524422708E-04  -0.1524422708E-04  -0.3736389390E-16   0.2105613057E-16  -0.6325432973E-15   0.5156058775E-01  -0.2888029388E-01  -0.2888029388E-01  -0.2877466162E-16   0.2036002934E-15  -0.5132834227E-16   0.7749954278E+01
   0.1051560588E+01   0.9711197062E+00   0.9711197062E+00  -0.6654082061E-02   0.2877041031E-02   0.2877041031E-02   0.5821466974E-01  -0.3175733487E-01  -0.3175733487E-01  -0.7749969522E+01  -0.1524422707E-04  -0.1524422708E-04  -0.9262130111E-15  -0.6997875193E-15   0.2131095974E-15   0.5156058775E-01  -0.2888029388E-01  -0.2888029388E-01  -0.8298253501E-17   0.1332454928E-15   0.2743858600E-16   0.7749954277E+01
   0.0000000000E+00   0.9711197062E+00   0.9711197062E+00   0.0000000000E+00   0.2877041031E-02   0.2877041031E-02   0.0000000000E+00  -0.3175733487E-01  -0.3175733487E-01  -0.7749969522E+01  -0.1524422708E-04  -0.1524422708E-04  -0.3665775685E-15   0.4981764378E-15   0.6909049390E-15   0.5156058775E-01  -0.2888029388E-01  -0.2888029388E-01  -0.4072435348E-16   0.3657226851E-16   0.9442428367E-16   0.7749954278E+01
   0.2103121175E+01   0.0000000000E+00   0.1401630476E-16  -0.1330816412E-01   0.0000000000E+00   0.2586120135E-16   0.1164293395E+00   0.0000000000E+00  -0.1184489659E-16  -0.7749969523E+01  -0.1524422708E-04  -0.1524422708E-04  -0.1941784748E-14  -0.2862982068E-15  -0.7603533796E-15   0.5156058776E-01  -0.2888029388E-01  -0.2888029388E-01  -0.8326250092E-16   0.2050785813E-15  -0.4494423011E-16   0.7749954279E+01
   0.2103121175E+01   0.9711197062E+00  -0.3748070697E-17  -0.1330816412E-01   0.2877041031E-02   0.2323912055E-16   0.1164293395E+00  -0.3175733487E-01  -0.2698719125E-16  -0.7749969522E+01  -0.1524422708E-04  -0.1524422708E-04  -0.1745253231E-14  -0.1735050842E-15  -0.1053650786E-14   0.5156058775E-01  -0.2888029388E-01  -0.2888029388E-01  -0.7239315139E-16   0.2925207984E-15   0.2452876821E-16   0.7749954278E+01
   0.2103121175E+01   0.0000000000E+00   0.9711197062E+00  -0.1330816412E-01   0.0000000000E+00   0.2877041031E-02   0.1164293395E+00   0.0000000000E+00  -0.3175733487E-01  -0.7749969522E+01  -0.1524422707E-04  -0.1524422707E-04   0.1023450068E-14  -0.2711706725E-14   0.3306457733E-15   0.5156058775E-01  -0.2888029388E-01  -0.2888029388E-01   0.1034398808E-15   0.1389635793E-15   0.9434405046E-17   0.7749954278E+01
   0.2103121175E+01   0.9711197062E+00   0.9711197062E+00  -0.1330816412E-01   0.2877041031E-02   0.2877041031E-02   0.1164293395E+00  -0.3175733487E-01  -0.3175733487E-01  -0.7749969521E+01  -0.1524422708E-04  -0.1524422708E-04   0.3307564915E-15   0.1255637353E-14   0.4632652652E-15   0.5156058774E-01  -0.2888029388E-01  -0.2888029388E-01   0.1252296137E-15   0.3451724372E-15   0.1454272225E-16   0.7749954277E+01
     1     2     3     4     5     6     7     8
     2     9    10     3     6    11    12     7
 VARIABLES = X,Y,Z,DU1,DU2,DU3,U1,U2,U3,S11,S22,S33,S12,S13,S23,E11,E22,E33,E12,E13,E23,SMISES
 ZONE, T="0.5950D+01" F=FEPOINT, I=   12 J=    2 ET=BRICK
   0.0000000000E+00   0.0000000000E+00   0.0000000000E+00   0.0000000000E+00   0.0000000000E+00   0.0000000000E+00   0.0000000000E+00   0.0000000000E+00   0.0000000000E+00  -0.8875009449E+01   0.4717420538E-05   0.4717420537E-05   0.1438779320E-17  -0.1624312362E-14  -0.8033132451E-15   0.2823206182E-01  -0.1766603091E-01  -0.1766603091E-01  -0.3937216042E-17  -0.8609676474E-16  -0.8668248360E-16   0.8875014166E+01
   0.1028232062E+01   0.0000000000E+00  -0.3822276475E-16  -0.2332852591E-01   0.0000000000E+00  -0.1353633187E-16   0.5156058768E-01   0.0000000000E+00  -0.2468643288E-16  -0.8875009449E+01   0.4717420523E-05   0.4717420523E-05   0.1096386771E-14   0.1139988929E-14   0.9901526073E-15   0.2823206181E-01  -0.1766603091E-01  -0.1766603091E-01   0.1918804678E-16   0.1516967605E-15   0.3256200806E-16   0.8875014166E+01
   0.1028232062E+01   0.9823339691E+00  -0.1928322907E-16  -0.2332852591E-01   0.1121426295E-01  -0.5693555935E-17   0.5156058768E-01  -0.2888029384E-01  -0.1358967313E-16  -0.8875009447E+01   0.4717420531E-05   0.4717420529E-05   0.1236798016E-14  -0.1113569463E-14  -0.4327295945E-15   0.2823206181E-01  -0.1766603091E-01  -0.1766603091E-01   0.1322890713E-16   0.1362912573E-15   0.9333929500E-16   0.8875014165E+01
   0.0000000000E+00   0.9823339691E+00  -0.4112201203E-16   0.0000000000E+00   0.1121426295E-01   0.3153576185E-19   0.0000000000E+00  -0.2888029384E-01  -0.4115354779E-16  -0.8875009448E+01   0.4717420524E-05   0.4717420525E-05   0.1086262878E-14   0.1044780672E-14  -0.2719546740E-15   0.2823206181E-01  -0.1766603091E-01  -0.1766603091E-01   0.1104557070E-16   0.7296670932E-16  -0.3541071064E-16   0.8875014165E+01
   0.0000000000E+00   0.0000000000E+00   0.9823339691E+00   0.0000000000E+00   0.0000000000E+00   0.1121426295E-01   0.0000000000E+00   0.0000000000E+00  -0.2888029384E-01  -0.8875009448E+01   0.4717420528E-05   0.4717420526E-05  -0.1676833831E-15   0.9491060750E-15   0.4148867103E-15   0.2823206181E-01  -0.1766603091E-01  -0.1766603091E-01   0.9174639222E-17   0.8903895486E-16   0.3779507163E-16   0.8875014165E+01
   0.1028232062E+01   0.0000000000E+00   0.9823339691E+00  -0.2332852591E-01   0.0000000000E+00   0.1121426295E-01   0.5156058768E-01   0.0000000000E+00  -0.2888029384E-01  -0.8875009447E+01   0.4717420528E-05   0.4717420530E-05  -0.1074266081E-14   0.5406989592E-15  -0.3149388113E-15   0.2823206181E-01  -0.1766603091E-01  -0.1766603091E-01  -0.7352587707E-16   0.1972363350E-15  -0.1625439267E-16   0.8875014165E+01
   0.1028232062E+01   0.9823339691E+00   0.9823339691E+00  -0.2332852591E-01   0.1121426295E-01   0.1121426295E-01   0.5156058768E-01  -0.2888029384E-01  -0.2888029384E-01  -0.8875009446E+01   0.4717420530E-05   0.4717420529E-05  -0.1884185774E-14  -0.1119493377E-14  -0.1318217923E-14   0.2823206181E-01  -0.1766603091E-01  -0.1766603091E-01  -0.6279467972E-16   0.1680174681E-15  -0.4840486900E-16   0.8875014164E+01
   0.0000000000E+00   0.9823339691E+00   0.9823339691E+00   0.0000000000E+00   0.1121426295E-01   0.1121426295E-01   0.0000000000E+00  -0.2888029384E-01  -0.2888029384E-01  -0.8875009447E+01   0.4717420526E-05   0.4717420528E-05  -0.1583182480E-16  -0.6990933594E-15   0.4228945784E-15   0.2823206181E-01  -0.1766603091E-01  -0.1766603091E-01  -0.3408159994E-16   0.7682898136E-18   0.1191742835E-15   0.8875014164E+01
   0.2056464124E+01   0.0000000000E+00  -0.3629408860E-16  -0.4665705182E-01   0.0000000000E+00  -0.5031039336E-16   0.1031211754E+00   0.0000000000E+00   0.1401630476E-16  -0.8875009448E+01   0.4717420520E-05   0.4717420518E-05   0.1581070595E-14  -0.1196526735E-14   0.1137447915E-14   0.2823206181E-01  -0.1766603091E-01  -0.1766603091E-01   0.1952030788E-16   0.2191268790E-15   0.9077408606E-18   0.8875014166E+01
   0.2056464124E+01   0.9823339691E+00  -0.3574665263E-16  -0.4665705182E-01   0.1121426295E-01  -0.3199858193E-16   0.1031211754E+00  -0.2888029384E-01  -0.3748070697E-17  -0.8875009447E+01   0.4717420536E-05   0.4717420534E-05   0.1028426639E-14   0.2508871967E-14  -0.1657195872E-15   0.2823206181E-01  -0.1766603091E-01  -0.1766603091E-01   0.9222948483E-17   0.2647935808E-15   0.1543925665E-16   0.8875014165E+01
   0.2056464124E+01   0.0000000000E+00   0.9823339691E+00  -0.4665705182E-01   0.0000000000E+00   0.1121426295E-01   0.1031211754E+00   0.0000000000E+00  -0.2888029384E-01  -0.8875009447E+01   0.4717420537E-05   0.4717420539E-05   0.7822433215E-16   0.7012485719E-15   0.1094476417E-14   0.2823206181E-01  -0.1766603091E-01  -0.1766603091E-01   0.1290178123E-15   0.1741540863E-15  -0.1717136977E-16   0.8875014165E+01
   0.2056464124E+01   0.9823339691E+00   0.9823339691E+00  -0.4665705182E-01   0.1121426295E-01   0.1121426295E-01   0.1031211754E+00  -0.2888029384E-01  -0.2888029384E-01  -0.8875009446E+01   0.4717420524E-05   0.4717420527E-05  -0.1052539837E-14  -0.2284275098E-14  -0.1553288238E-15   0.2823206181E-01  -0.1766603091E-01  -0.1766603091E-01   0.1348488610E-15   0.2299553604E-15   0.6984151914E-16   0.8875014164E+01
     1     2     3     4     5     6     7     8
     2     9    10     3     6    11    12     7
 VARIABLES = X,Y,Z,DU1,DU2,DU3,U1,U2,U3,S11,S22,S33,S12,S13,S23,E11,E22,E33,E12,E13,E23,SMISES
 ZONE, T="0.6000D+01" F=FEPOINT, I=   12 J=    2 ET=BRICK
   0.0000000000E+00   0.0000000000E+00   0.0000000000E+00   0.0000000000E+00   0.0000000000E+00   0.0000000000E+00   0.0000000000E+00   0.0000000000E+00   0.0000000000E+00  -0.1000000550E+02   0.2740786197E-05   0.2740786196E-05  -0.6191497532E-16  -0.1692856416E-14  -0.7462438494E-15   0.3482179542E-02  -0.5741089777E-02  -0.5741089777E-02  -0.2829971442E-17  -0.9714589246E-16  -0.8125132145E-16   0.1000000824E+02
   0.1003482180E+01   0.0000000000E+00  -0.3955246936E-16  -0.2474988223E-01   0.0000000000E+00  -0.1329704605E-17   0.2823206177E-01   0.0000000000E+00  -0.3822276475E-16  -0.1000000550E+02   0.2740786191E-05   0.2740786192E-05   0.4277801643E-15   0.5875905556E-15   0.7802909483E-15   0.3482179542E-02  -0.5741089777E-02  -0.5741089777E-02   0.9680069301E-18   0.1349665963E-15   0.4242376229E-16   0.1000000824E+02
   0.1003482180E+01   0.9942589102E+00  -0.1840933108E-16  -0.2474988223E-01   0.1192494112E-01   0.8738979884E-18   0.2823206177E-01  -0.1766603089E-01  -0.1928322907E-16  -0.1000000550E+02   0.2740786189E-05   0.2740786188E-05  -0.7415814276E-16   0.5971817082E-15   0.6427090440E-15   0.3482179542E-02  -0.5741089776E-02  -0.5741089776E-02  -0.1475668120E-16   0.1913844768E-15   0.7599544025E-16   0.1000000824E+02
   0.0000000000E+00   0.9942589102E+00  -0.4352163273E-16   0.0000000000E+00   0.1192494112E-01  -0.2399620695E-17   0.0000000000E+00  -0.1766603089E-01  -0.4112201203E-16  -0.1000000550E+02   0.2740786188E-05   0.2740786190E-05   0.1921296922E-15   0.8407575163E-15  -0.6546183532E-15   0.3482179542E-02  -0.5741089777E-02  -0.5741089777E-02   0.8702186282E-17   0.6076351748E-16  -0.2893430581E-16   0.1000000824E+02
   0.0000000000E+00   0.0000000000E+00   0.9942589102E+00   0.0000000000E+00   0.0000000000E+00   0.1192494112E-01   0.0000000000E+00   0.0000000000E+00  -0.1766603089E-01  -0.1000000550E+02   0.2740786190E-05   0.2740786188E-05  -0.7284976012E-16   0.1010412562E-14   0.4174921880E-15   0.3482179542E-02  -0.5741089777E-02  -0.5741089777E-02   0.6927212910E-18   0.9577780798E-16   0.2739766082E-16   0.1000000824E+02
   0.1003482180E+01   0.0000000000E+00   0.9942589102E+00  -0.2474988223E-01   0.0000000000E+00   0.1192494112E-01   0.2823206177E-01   0.0000000000E+00  -0.1766603089E-01  -0.1000000550E+02   0.2740786189E-05   0.2740786190E-05   0.3467852140E-15   0.4787033182E-15  -0.6113615456E-15   0.3482179542E-02  -0.5741089776E-02  -0.5741089776E-02  -0.2628981762E-16   0.2309853739E-15  -0.2378147999E-16   0.1000000824E+02
   0.1003482180E+01   0.9942589102E+00   0.9942589102E+00  -0.2474988223E-01   0.1192494112E-01   0.1192494112E-01   0.2823206177E-01  -0.1766603089E-01  -0.1766603089E-01  -0.1000000549E+02   0.2740786196E-05   0.2740786194E-05  -0.2201466915E-15  -0.1397083672E-15  -0.8184682455E-15   0.3482179541E-02  -0.5741089776E-02  -0.5741089776E-02  -0.4261098770E-16   0.1530553340E-15  -0.6881277680E-17   0.1000000824E+02
   0.0000000000E+00   0.9942589102E+00   0.9942589102E+00   0.0000000000E+00   0.1192494112E-01   0.1192494112E-01   0.0000000000E+00  -0.1766603089E-01  -0.1766603089E-01  -0.1000000549E+02   0.2740786194E-05   0.2740786194E-05   0.1311573230E-15  -0.6406596800E-15   0.8490192399E-15   0.3482179541E-02  -0.5741089776E-02  -0.5741089776E-02  -0.2990002915E-16  -0.3870668710E-17   0.1173751535E-15   0.1000000824E+02
   0.2006964359E+01   0.0000000000E+00  -0.2344290492E-16  -0.4949976447E-01   0.0000000000E+00   0.1285118368E-16   0.5646412354E-01   0.0000000000E+00  -0.3629408860E-16  -0.1000000550E+02   0.2740786197E-05   0.2740786196E-05  -0.3467591085E-15  -0.8352261617E-15  -0.4081035885E-16   0.3482179542E-02  -0.5741089777E-02  -0.5741089777E-02  -0.1958326382E-16   0.1579593407E-15  -0.1004603234E-16   0.1000000824E+02
   0.2006964359E+01   0.9942589102E+00  -0.2887782424E-16  -0.4949976447E-01   0.1192494112E-01   0.6868828385E-17   0.5646412354E-01  -0.1766603089E-01  -0.3574665263E-16  -0.1000000550E+02   0.2740786184E-05   0.2740786186E-05  -0.1130210664E-14   0.3447493371E-15   0.2073695918E-15   0.3482179541E-02  -0.5741089776E-02  -0.5741089776E-02  -0.2391174960E-16   0.2821488068E-15   0.3453791372E-16   0.1000000824E+02
   0.2006964359E+01   0.0000000000E+00   0.9942589102E+00  -0.4949976447E-01   0.0000000000E+00   0.1192494112E-01   0.5646412354E-01   0.0000000000E+00  -0.1766603089E-01  -0.1000000550E+02   0.2740786186E-05   0.2740786188E-05   0.2040387110E-14  -0.2065424106E-14  -0.7303108001E-15   0.3482179541E-02  -0.5741089776E-02  -0.5741089776E-02   0.1483815501E-15   0.1363841180E-15  -0.5026081593E-16   0.1000000824E+02
   0.2006964359E+01   0.9942589102E+00   0.9942589102E+00  -0.4949976447E-01   0.1192494112E-01   0.1192494112E-01   0.5646412354E-01  -0.1766603089E-01  -0.1766603089E-01  -0.1000000549E+02   0.2740786191E-05   0.2740786191E-05   0.1502280004E-14  -0.1316451052E-14  -0.1472703506E-15   0.3482179541E-02  -0.5741089776E-02  -0.5741089776E-02   0.1590700875E-15   0.2426752157E-15   0.1064464920E-17   0.1000000824E+02
     1     2     3     4     5     6     7     8
     2     9    10     3     6    11    12     7
 VARIABLES = X,Y,Z,DU1,DU2,DU3,U1,U2,U3,S11,S22,S33,S12,S13,S23,E11,E22,E33,E12,E13,E23,SMISES
 ZONE, T="0.6050D+01" F=FEPOINT, I=   12 J=    2 ET=BRICK
   0.0000000000E+00   0.0000000000E+00   0.0000000000E+00   0.0000000000E+00   0.0000000000E+00   0.0000000000E+00   0.0000000000E+00   0.0000000000E+00   0.0000000000E+00  -0.8875000014E+01   0.7821340326E-14   0.9343768744E-14  -0.7145079158E-16  -0.1245960743E-14  -0.5272595618E-14   0.5732193798E-02  -0.6416096904E-02  -0.6416096904E-02   0.4809983637E-19  -0.1005516886E-15  -0.1364726217E-15   0.8875000014E+01
   0.1005732194E+01   0.0000000000E+00  -0.2115901179E-16   0.2250014252E-02   0.0000000000E+00   0.1839345757E-16   0.3482179537E-02   0.0000000000E+00  -0.3955246936E-16  -0.8875000014E+01  -0.2978742225E-14   0.5936488818E-14  -0.3557508966E-14  -0.3751797742E-14  -0.9421535946E-15   0.5732193797E-02  -0.6416096904E-02  -0.6416096904E-02  -0.4948445282E-16   0.1102253220E-15   0.2605051223E-16   0.8875000014E+01
   0.1005732194E+01   0.9935839031E+00  -0.8957556902E-17   0.2250014252E-02  -0.6750071260E-03   0.9451774175E-17   0.3482179537E-02  -0.5741089768E-02  -0.1840933108E-16  -0.8875000013E+01  -0.8359337820E-14  -0.3543960289E-14  -0.2063785691E-14   0.2775549879E-15   0.3900255132E-14   0.5732193797E-02  -0.6416096903E-02  -0.6416096903E-02  -0.3293447671E-16   0.1713352790E-15   0.1090613580E-15   0.8875000013E+01
   0.0000000000E+00   0.9935839031E+00  -0.6700432699E-16   0.0000000000E+00  -0.6750071260E-03  -0.2348269427E-16   0.0000000000E+00  -0.5741089768E-02  -0.4352163273E-16  -0.8875000013E+01  -0.3982319254E-14   0.6715103956E-14  -0.8136914891E-15   0.4813634580E-14  -0.1467661331E-14   0.5732193797E-02  -0.6416096904E-02  -0.6416096904E-02  -0.2527336879E-17   0.1091090802E-15  -0.2441587091E-16   0.8875000013E+01
   0.0000000000E+00   0.0000000000E+00   0.9935839031E+00   0.0000000000E+00   0.0000000000E+00  -0.6750071260E-03   0.0000000000E+00   0.0000000000E+00  -0.5741089768E-02  -0.8875000013E+01  -0.9127845622E-14  -0.1513258385E-13  -0.6453790150E-16   0.3712173190E-14  -0.1629084180E-14   0.5732193797E-02  -0.6416096904E-02  -0.6416096904E-02  -0.3441211921E-18   0.1172505974E-15   0.2463843405E-16   0.8875000013E+01
   0.1005732194E+01   0.0000000000E+00   0.9935839031E+00   0.2250014252E-02   0.0000000000E+00  -0.6750071260E-03   0.3482179537E-02   0.0000000000E+00  -0.5741089768E-02  -0.8875000013E+01  -0.2683394884E-14  -0.4893733818E-14  -0.9938139732E-15  -0.2876736078E-14  -0.2596425093E-14   0.5732193797E-02  -0.6416096903E-02  -0.6416096903E-02  -0.4049982590E-16   0.1829123226E-15  -0.4973588304E-16   0.8875000013E+01
   0.1005732194E+01   0.9935839031E+00   0.9935839031E+00   0.2250014252E-02  -0.6750071260E-03  -0.6750071260E-03   0.3482179537E-02  -0.5741089768E-02  -0.5741089768E-02  -0.8875000012E+01   0.3373441028E-14  -0.2449107778E-14  -0.8732341175E-15  -0.1033628965E-14   0.2221934762E-14   0.5732193796E-02  -0.6416096903E-02  -0.6416096903E-02  -0.4645146673E-16   0.1478031947E-15   0.3946508816E-16   0.8875000012E+01
   0.0000000000E+00   0.9935839031E+00   0.9935839031E+00   0.0000000000E+00  -0.6750071260E-03  -0.6750071260E-03   0.0000000000E+00  -0.5741089768E-02  -0.5741089768E-02  -0.8875000012E+01  -0.3966663674E-14  -0.1462540776E-14   0.1794474570E-14   0.2124723994E-14   0.2532597978E-14   0.5732193796E-02  -0.6416096903E-02  -0.6416096903E-02  -0.1376176948E-16   0.2990888113E-16   0.1160927574E-15   0.8875000012E+01
   0.2011464388E+01   0.0000000000E+00   0.7566825625E-16   0.4500028504E-02   0.0000000000E+00   0.9911116116E-16   0.6964359073E-02   0.0000000000E+00  -0.2344290492E-16  -0.8875000013E+01   0.1007872406E-13   0.9987343510E-14  -0.5670519801E-14  -0.3807662738E-14  -0.1578969702E-14   0.5732193797E-02  -0.6416096904E-02  -0.6416096904E-02  -0.8134935847E-16   0.1421058809E-15  -0.2828574680E-16   0.8875000013E+01
   0.2011464388E+01   0.9935839031E+00   0.6240101371E-16   0.4500028504E-02  -0.6750071260E-03   0.9127883795E-16   0.6964359073E-02  -0.5741089768E-02  -0.2887782424E-16  -0.8875000012E+01  -0.3307432629E-14  -0.3811018535E-14  -0.1401726278E-14   0.1044010007E-14  -0.2134945038E-15   0.5732193797E-02  -0.6416096903E-02  -0.6416096903E-02  -0.4219963566E-16   0.2579185897E-15   0.3421730395E-16   0.8875000012E+01
   0.2011464388E+01   0.0000000000E+00   0.9935839031E+00   0.4500028504E-02   0.0000000000E+00  -0.6750071260E-03   0.6964359073E-02   0.0000000000E+00  -0.5741089768E-02  -0.8875000012E+01  -0.4129497005E-14  -0.4646889266E-14   0.6535264801E-15  -0.4736128596E-14  -0.3068867302E-14   0.5732193797E-02  -0.6416096903E-02  -0.6416096903E-02   0.1360493881E-15   0.7761216713E-16  -0.6768301035E-16   0.8875000012E+01
   0.2011464388E+01   0.9935839031E+00   0.9935839031E+00   0.4500028504E-02  -0.6750071260E-03  -0.6750071260E-03   0.6964359073E-02  -0.5741089768E-02  -0.5741089768E-02  -0.8875000011E+01  -0.6785866270E-16  -0.3971144753E-14  -0.2115457369E-15  -0.2301727644E-15  -0.1558428707E-14   0.5732193796E-02  -0.6416096903E-02  -0.6416096903E-02   0.1450872950E-15   0.2840106262E-15  -0.1240766165E-16   0.8875000011E+01
     1     2     3     4     5     6     7     8
     2     9    10     3     6    11    12     7
 VARIABLES = X,Y,Z,DU1,DU2,DU3,U1,U2,U3,S11,S22,S33,S12,S13,S23,E11,E22,E33,E12,E13,E23,SMISES
 ZONE, T="0.6100D+01" F=FEPOINT, I=   12 J=    2 ET=BRICK
   0.0000000000E+00   0.0000000000E+00   0.0000000000E+00   0.0000000000E+00   0.0000000000E+00   0.0000000000E+00   0.0000000000E+00   0.0000000000E+00   0.0000000000E+00  -0.7750000012E+01   0.6408867128E-14   0.5692666649E-14  -0.6532948237E-16  -0.1126005362E-14  -0.2355910212E-15   0.7982193801E-02  -0.7091096905E-02  -0.7091096905E-02   0.3815718821E-18  -0.9937644186E-16  -0.7811790334E-16   0.7750000012E+01
   0.1007982194E+01   0.0000000000E+00  -0.3688341553E-16   0.2250000000E-02   0.0000000000E+00  -0.1572440374E-16   0.5732193789E-02   0.0000000000E+00  -0.2115901179E-16  -0.7750000012E+01  -0.1335185011E-14  -0.3250958393E-15  -0.6460420114E-15   0.4707857779E-15   0.5561328738E-15   0.7982193801E-02  -0.7091096905E-02  -0.7091096905E-02  -0.1831491092E-16   0.1533746900E-15   0.4026012247E-16   0.7750000012E+01
   0.1007982194E+01   0.9929089031E+00  -0.1695634242E-16   0.2250000000E-02  -0.6750000000E-03  -0.7998785516E-17   0.5732193789E-02  -0.6416096894E-02  -0.8957556902E-17  -0.7750000011E+01  -0.4114232556E-15  -0.2220445771E-14  -0.9170371776E-15   0.4365721747E-15  -0.1239391041E-15   0.7982193800E-02  -0.7091096904E-02  -0.7091096904E-02  -0.1969506079E-16   0.1732025577E-15   0.6997239837E-16   0.7750000011E+01
   0.0000000000E+00   0.9929089031E+00  -0.4071122827E-16   0.0000000000E+00  -0.6750000000E-03   0.2629309873E-16   0.0000000000E+00  -0.6416096894E-02  -0.6700432699E-16  -0.7750000011E+01  -0.5150970537E-14  -0.2792280872E-14   0.5501597353E-15   0.4523007838E-15  -0.2457191298E-15   0.7982193800E-02  -0.7091096905E-02  -0.7091096905E-02   0.1054349586E-16   0.6407519589E-16  -0.2460732560E-16   0.7750000011E+01
   0.0000000000E+00   0.0000000000E+00   0.9929089031E+00   0.0000000000E+00   0.0000000000E+00  -0.6750000000E-03   0.0000000000E+00   0.0000000000E+00  -0.6416096894E-02  -0.7750000011E+01  -0.1538760665E-14  -0.2613790894E-14  -0.7825831163E-16   0.9072634791E-15   0.3376979037E-15   0.7982193800E-02  -0.7091096905E-02  -0.7091096905E-02   0.3412754292E-18   0.8704003986E-16   0.3803056788E-16   0.7750000011E+01
   0.1007982194E+01   0.0000000000E+00   0.9929089031E+00   0.2250000000E-02   0.0000000000E+00  -0.6750000000E-03   0.5732193789E-02   0.0000000000E+00  -0.6416096894E-02  -0.7750000011E+01  -0.2794416913E-14  -0.2220445771E-14  -0.4894199544E-15  -0.4958953047E-16  -0.3058207058E-15   0.7982193800E-02  -0.7091096904E-02  -0.7091096904E-02  -0.3852772459E-16   0.2156893164E-15  -0.2399178537E-16   0.7750000011E+01
   0.1007982194E+01   0.9929089031E+00   0.9929089031E+00   0.2250000000E-02  -0.6750000000E-03  -0.6750000000E-03   0.5732193789E-02  -0.6416096894E-02  -0.6416096894E-02  -0.7750000010E+01   0.4237706622E-14   0.3390165249E-14  -0.7809056997E-15   0.6083776862E-16  -0.9749253322E-15   0.7982193799E-02  -0.7091096904E-02  -0.7091096904E-02  -0.4333615613E-16   0.1570153295E-15   0.5412725475E-17   0.7750000010E+01
   0.0000000000E+00   0.9929089031E+00   0.9929089031E+00   0.0000000000E+00  -0.6750000000E-03  -0.6750000000E-03   0.0000000000E+00  -0.6416096894E-02  -0.6416096894E-02  -0.7750000010E+01   0.5355745906E-15   0.1414323089E-14   0.5503898533E-16  -0.5644222398E-15   0.5842263779E-15   0.7982193799E-02  -0.7091096904E-02  -0.7091096904E-02  -0.3089215951E-16   0.3842325035E-17   0.1092761191E-15   0.7750000010E+01
   0.2015964388E+01   0.0000000000E+00  -0.2181979144E-16   0.4500000000E-02   0.0000000000E+00  -0.9748804769E-16   0.1146438758E-01   0.0000000000E+00   0.7566825625E-16  -0.7750000012E+01   0.3989508231E-14   0.2626033714E-14   0.1145947155E-14   0.8988398011E-15   0.3211483756E-15   0.7982193801E-02  -0.7091096905E-02  -0.7091096905E-02  -0.1138882053E-16   0.1858751514E-15  -0.7311069696E-17   0.7750000012E+01
   0.2015964388E+01   0.9929089031E+00  -0.2503180322E-16   0.4500000000E-02  -0.6750000000E-03  -0.8743281692E-16   0.1146438758E-01  -0.6416096894E-02   0.6240101371E-16  -0.7750000011E+01  -0.2360825402E-14  -0.1648610498E-14   0.7451915031E-15  -0.6444629361E-15   0.3778156553E-15   0.7982193800E-02  -0.7091096904E-02  -0.7091096904E-02  -0.2289379100E-16   0.2404576263E-15   0.3935645727E-16   0.7750000011E+01
   0.2015964388E+01   0.0000000000E+00   0.9929089031E+00   0.4500000000E-02   0.0000000000E+00  -0.6750000000E-03   0.1146438758E-01   0.0000000000E+00  -0.6416096894E-02  -0.7750000011E+01  -0.2745417996E-14  -0.1827100476E-14   0.4402389877E-16   0.1220592807E-17   0.1549522846E-15   0.7982193800E-02  -0.7091096904E-02  -0.7091096904E-02   0.1327648216E-15   0.1176369619E-15  -0.3363096412E-16   0.7750000011E+01
   0.2015964388E+01   0.9929089031E+00   0.9929089031E+00   0.4500000000E-02  -0.6750000000E-03  -0.6750000000E-03   0.1146438758E-01  -0.6416096894E-02  -0.6416096894E-02  -0.7750000010E+01   0.1024572555E-14   0.1012225132E-14  -0.1859645174E-15  -0.2019471321E-14   0.2693794269E-15   0.7982193799E-02  -0.7091096903E-02  -0.7091096903E-02   0.1438975009E-15   0.2747873301E-15   0.6833678497E-17   0.7750000010E+01
     1     2     3     4     5     6     7     8
     2     9    10     3     6    11    12     7
 VARIABLES = X,Y,Z,DU1,DU2,DU3,U1,U2,U3,S11,S22,S33,S12,S13,S23,E11,E22,E33,E12,E13,E23,SMISES
 ZONE, T="0.6150D+01" F=FEPOINT, I=   12 J=    2 ET=BRICK
   0.0000000000E+00   0.0000000000E+00   0.0000000000E+00   0.0000000000E+00   0.0000000000E+00   0.0000000000E+00   0.0000000000E+00   0.0000000000E+00   0.0000000000E+00  -0.6625000010E+01   0.6207141024E-14   0.5268895996E-14  -0.2826124469E-16  -0.9257489873E-15  -0.3035186649E-15   0.1023219380E-01  -0.7766096907E-02  -0.7766096907E-02   0.1026690272E-17  -0.9894520884E-16  -0.8465641702E-16   0.6625000010E+01
   0.1010232194E+01   0.0000000000E+00  -0.3473578877E-16   0.2250000000E-02   0.0000000000E+00   0.2147626757E-17   0.7982193789E-02   0.0000000000E+00  -0.3688341553E-16  -0.6625000010E+01  -0.1597866533E-14   0.3816749117E-15   0.1255388175E-15   0.9648129940E-15   0.3863012056E-15   0.1023219380E-01  -0.7766096906E-02  -0.7766096906E-02  -0.1075936692E-16   0.1635282849E-15   0.3916777193E-16   0.6625000010E+01
   0.1010232194E+01   0.9922339031E+00  -0.1564392475E-16   0.2250000000E-02  -0.6750000000E-03   0.1312417664E-17   0.7982193789E-02  -0.7091096894E-02  -0.1695634242E-16  -0.6625000009E+01  -0.4818085665E-15  -0.2128283129E-14  -0.1170008645E-15  -0.1150019106E-15   0.7942211478E-16   0.1023219380E-01  -0.7766096905E-02  -0.7766096905E-02  -0.9811332465E-17   0.1642582182E-15   0.7325688748E-16   0.6625000009E+01
   0.0000000000E+00   0.9922339031E+00  -0.4102313837E-16   0.0000000000E+00  -0.6750000000E-03  -0.3119101023E-18   0.0000000000E+00  -0.7091096894E-02  -0.4071122827E-16  -0.6625000010E+01  -0.3628933544E-14  -0.1421903157E-14   0.4051373783E-15   0.6127121766E-15  -0.1619823660E-15   0.1023219380E-01  -0.7766096906E-02  -0.7766096906E-02   0.9332474182E-17   0.6691990587E-16  -0.2194010467E-16   0.6625000010E+01
   0.0000000000E+00   0.0000000000E+00   0.9922339031E+00   0.0000000000E+00   0.0000000000E+00  -0.6750000000E-03   0.0000000000E+00   0.0000000000E+00  -0.7091096894E-02  -0.6625000010E+01  -0.2394663992E-14  -0.3499442551E-14  -0.1185981395E-15   0.1271587715E-14   0.8871153762E-16   0.1023219380E-01  -0.7766096906E-02  -0.7766096906E-02  -0.1661968668E-17   0.9588530566E-16   0.4722023210E-16   0.6625000010E+01
   0.1010232194E+01   0.0000000000E+00   0.9922339031E+00   0.2250000000E-02   0.0000000000E+00  -0.6750000000E-03   0.7982193789E-02   0.0000000000E+00  -0.7091096894E-02  -0.6625000009E+01  -0.2724031620E-14  -0.2231334431E-14  -0.4430097007E-15   0.1959922465E-15  -0.5306252295E-15   0.1023219380E-01  -0.7766096905E-02  -0.7766096905E-02  -0.3703014168E-16   0.2179339505E-15  -0.3411153888E-16   0.6625000009E+01
   0.1010232194E+01   0.9922339031E+00   0.9922339031E+00   0.2250000000E-02  -0.6750000000E-03  -0.6750000000E-03   0.7982193789E-02  -0.7091096894E-02  -0.7091096894E-02  -0.6625000009E+01   0.4256566307E-14   0.3186980379E-14  -0.7132082112E-15  -0.6995500827E-16  -0.8426085827E-15   0.1023219380E-01  -0.7766096904E-02  -0.7766096904E-02  -0.4864816072E-16   0.1540607626E-15   0.8537536928E-17   0.6625000009E+01
   0.0000000000E+00   0.9922339031E+00   0.9922339031E+00   0.0000000000E+00  -0.6750000000E-03  -0.6750000000E-03   0.0000000000E+00  -0.7091096894E-02  -0.7091096894E-02  -0.6625000009E+01  -0.4730558549E-15   0.5355745997E-15   0.1431302143E-15  -0.3808548561E-15   0.4875048786E-15   0.1023219380E-01  -0.7766096905E-02  -0.7766096905E-02  -0.2810790183E-16   0.3777341022E-17   0.1002442274E-15   0.6625000009E+01
   0.2020464388E+01   0.0000000000E+00  -0.1355747412E-16   0.4500000000E-02   0.0000000000E+00   0.8262317314E-17   0.1596438758E-01   0.0000000000E+00  -0.2181979144E-16  -0.6625000010E+01   0.6151916163E-14   0.4566397085E-14   0.8725285590E-15   0.7184560162E-15   0.4428937165E-16   0.1023219380E-01  -0.7766096906E-02  -0.7766096906E-02  -0.1565444712E-16   0.1766969490E-15  -0.1242859149E-16   0.6625000010E+01
   0.2020464388E+01   0.9922339031E+00  -0.1828586296E-16   0.4500000000E-02  -0.6750000000E-03   0.6745940261E-17   0.1596438758E-01  -0.7091096894E-02  -0.2503180322E-16  -0.6625000009E+01  -0.3357499214E-14  -0.1886987918E-14   0.6156103476E-15  -0.1292165096E-14   0.3807574134E-15   0.1023219380E-01  -0.7766096905E-02  -0.7766096905E-02  -0.2613462265E-16   0.2553882763E-15   0.3747513848E-16   0.6625000009E+01
   0.2020464388E+01   0.0000000000E+00   0.9922339031E+00   0.4500000000E-02   0.0000000000E+00  -0.6750000000E-03   0.1596438758E-01   0.0000000000E+00  -0.7091096894E-02  -0.6625000009E+01  -0.2414877714E-14  -0.2680085992E-14  -0.2464849767E-15  -0.7774050454E-15   0.3953324606E-15   0.1023219380E-01  -0.7766096905E-02  -0.7766096905E-02   0.1315958850E-15   0.1017009005E-15  -0.2897933223E-16   0.6625000009E+01
   0.2020464388E+01   0.9922339031E+00   0.9922339031E+00   0.4500000000E-02  -0.6750000000E-03  -0.6750000000E-03   0.1596438758E-01  -0.7091096894E-02  -0.7091096894E-02  -0.6625000008E+01   0.1892432379E-14   0.2919922528E-14  -0.4476647593E-15  -0.1657343352E-14   0.8719212846E-15   0.1023219380E-01  -0.7766096904E-02  -0.7766096904E-02   0.1381647330E-15   0.2694064209E-15   0.6645992767E-17   0.6625000008E+01
     1     2     3     4     5     6     7     8
     2     9    10     3     6    11    12     7
 VARIABLES = X,Y,Z,DU1,DU2,DU3,U1,U2,U3,S11,S22,S33,S12,S13,S23,E11,E22,E33,E12,E13,E23,SMISES
 ZONE, T="0.6200D+01" F=FEPOINT, I=   12 J=    2 ET=BRICK
   0.0000000000E+00   0.0000000000E+00   0.0000000000E+00   0.0000000000E+00   0.0000000000E+00   0.0000000000E+00   0.0000000000E+00   0.0000000000E+00   0.0000000000E+00  -0.5500000009E+01   0.5943000610E-14   0.5228792913E-14  -0.2688387220E-16  -0.1101760362E-14  -0.1171477775E-15   0.1248219381E-01  -0.8441096908E-02  -0.8441096908E-02  -0.4726936988E-19  -0.9618174659E-16  -0.8296084405E-16   0.5500000009E+01
   0.1012482194E+01   0.0000000000E+00  -0.3652471156E-16   0.2250000000E-02   0.0000000000E+00  -0.1788922794E-17   0.1023219379E-01   0.0000000000E+00  -0.3473578877E-16  -0.5500000008E+01  -0.2204503614E-14  -0.3914956192E-15  -0.2028669261E-15   0.6320984861E-15   0.4317216594E-15   0.1248219381E-01  -0.8441096907E-02  -0.8441096907E-02  -0.1112260940E-16   0.1488467688E-15   0.3863046087E-16   0.5500000008E+01
   0.1012482194E+01   0.9915589031E+00  -0.1732247069E-16   0.2250000000E-02  -0.6750000000E-03  -0.1678545932E-17   0.1023219379E-01  -0.7766096894E-02  -0.1564392475E-16  -0.5500000008E+01  -0.3004010212E-15  -0.2235319943E-14  -0.3782806031E-15   0.3983517947E-15  -0.1651977821E-15   0.1248219381E-01  -0.8441096906E-02  -0.8441096906E-02  -0.1273459342E-16   0.1706353196E-15   0.6987043913E-16   0.5500000008E+01
   0.0000000000E+00   0.9915589031E+00  -0.3991344850E-16   0.0000000000E+00  -0.6750000000E-03   0.1109689873E-17   0.0000000000E+00  -0.7766096894E-02  -0.4102313837E-16  -0.5500000008E+01  -0.4542874623E-14  -0.2716985195E-14   0.4361777451E-15   0.2176392529E-15   0.6609142831E-16   0.1248219381E-01  -0.8441096907E-02  -0.8441096907E-02   0.1043574933E-16   0.6118165386E-16  -0.1705597095E-16   0.5500000008E+01
   0.0000000000E+00   0.0000000000E+00   0.9915589031E+00   0.0000000000E+00   0.0000000000E+00  -0.6750000000E-03   0.0000000000E+00   0.0000000000E+00  -0.7766096894E-02  -0.5500000008E+01  -0.2293071495E-14  -0.3394398505E-14  -0.1187705978E-15   0.9892876035E-15   0.1861252983E-15   0.1248219381E-01  -0.8441096907E-02  -0.8441096907E-02   0.7060864498E-18   0.8608118036E-16   0.4468254300E-16   0.5500000008E+01
   0.1012482194E+01   0.0000000000E+00   0.9915589031E+00   0.2250000000E-02   0.0000000000E+00  -0.6750000000E-03   0.1023219379E-01   0.0000000000E+00  -0.7766096894E-02  -0.5500000008E+01  -0.2753779980E-14  -0.2164934642E-14   0.2262944541E-15  -0.2723892310E-15  -0.4072077909E-15   0.1248219381E-01  -0.8441096906E-02  -0.8441096906E-02  -0.3303216366E-16   0.2153493667E-15  -0.2733517309E-16   0.5500000008E+01
   0.1012482194E+01   0.9915589031E+00   0.9915589031E+00   0.2250000000E-02  -0.6750000000E-03  -0.6750000000E-03   0.1023219379E-01  -0.7766096894E-02  -0.7766096894E-02  -0.5500000007E+01   0.3771840179E-14   0.3253380168E-14  -0.1388787542E-15   0.5504534550E-15  -0.8860683771E-15   0.1248219380E-01  -0.8441096905E-02  -0.8441096905E-02  -0.4229408530E-16   0.1533291120E-15   0.2299045592E-17   0.5500000007E+01
   0.0000000000E+00   0.9915589031E+00   0.9915589031E+00   0.0000000000E+00  -0.6750000000E-03  -0.6750000000E-03   0.0000000000E+00  -0.7766096894E-02  -0.7766096894E-02  -0.5500000007E+01   0.1387492337E-14   0.1928263582E-14  -0.7456066667E-17  -0.6361873416E-15   0.5379525758E-15   0.1248219381E-01  -0.8441096906E-02  -0.8441096906E-02  -0.2886552156E-16   0.4979318934E-17   0.1074314530E-15   0.5500000007E+01
   0.2024964388E+01   0.0000000000E+00  -0.2093588611E-16   0.4500000000E-02   0.0000000000E+00  -0.7378411982E-17   0.2046438758E-01   0.0000000000E+00  -0.1355747412E-16  -0.5500000008E+01   0.5831196744E-14   0.3585522219E-14   0.1264130857E-14   0.1114476671E-14   0.1031604192E-15   0.1248219381E-01  -0.8441096907E-02  -0.8441096907E-02  -0.1797747093E-16   0.2001038888E-15  -0.9344767617E-17   0.5500000008E+01
   0.2024964388E+01   0.9915589031E+00  -0.2533941501E-16   0.4500000000E-02  -0.6750000000E-03  -0.7053552058E-17   0.2046438758E-01  -0.7766096894E-02  -0.1828586296E-16  -0.5500000008E+01  -0.3272239787E-14  -0.1612883829E-14   0.9380761583E-15  -0.1199614835E-14   0.2140409217E-15   0.1248219381E-01  -0.8441096906E-02  -0.8441096906E-02  -0.3448221781E-16   0.2546604434E-15   0.3732087806E-16   0.5500000008E+01
   0.2024964388E+01   0.0000000000E+00   0.9915589031E+00   0.4500000000E-02   0.0000000000E+00  -0.6750000000E-03   0.2046438758E-01   0.0000000000E+00  -0.7766096894E-02  -0.5500000008E+01  -0.1769062524E-14  -0.1460833632E-14  -0.7350069244E-15   0.2046568860E-16   0.3760090677E-15   0.1248219381E-01  -0.8441096906E-02  -0.8441096906E-02   0.1254176485E-15   0.1197229459E-15  -0.3192091377E-16   0.5500000008E+01
   0.2024964388E+01   0.9915589031E+00   0.9915589031E+00   0.4500000000E-02  -0.6750000000E-03  -0.6750000000E-03   0.2046438758E-01  -0.7766096894E-02  -0.7766096894E-02  -0.5500000007E+01   0.3569799759E-15   0.1519262520E-14  -0.9192782445E-15  -0.2237150879E-14   0.6843843827E-15   0.1248219380E-01  -0.8441096905E-02  -0.8441096905E-02   0.1469067976E-15   0.2785066963E-15   0.1035828548E-16   0.5500000007E+01
     1     2     3     4     5     6     7     8
     2     9    10     3     6    11    12     7
 VARIABLES = X,Y,Z,DU1,DU2,DU3,U1,U2,U3,S11,S22,S33,S12,S13,S23,E11,E22,E33,E12,E13,E23,SMISES
 ZONE, T="0.6250D+01" F=FEPOINT, I=   12 J=    2 ET=BRICK
   0.0000000000E+00   0.0000000000E+00   0.0000000000E+00   0.0000000000E+00   0.0000000000E+00   0.0000000000E+00   0.0000000000E+00   0.0000000000E+00   0.0000000000E+00  -0.4375000007E+01   0.6569226776E-14   0.5397319100E-14  -0.3486182329E-16  -0.1390401143E-14  -0.7906295951E-16   0.1473219381E-01  -0.9116096909E-02  -0.9116096909E-02  -0.9811042245E-19  -0.1041059913E-15  -0.7962812635E-16   0.4375000007E+01
   0.1014732194E+01   0.0000000000E+00  -0.3832944292E-16   0.2250000000E-02   0.0000000000E+00  -0.1804731358E-17   0.1248219379E-01   0.0000000000E+00  -0.3652471156E-16  -0.4375000007E+01  -0.1740095970E-14  -0.3062361546E-15  -0.1330952146E-14   0.1363999089E-15   0.6219069696E-15   0.1473219381E-01  -0.9116096908E-02  -0.9116096908E-02  -0.2335366240E-16   0.1520581404E-15   0.3817653785E-16   0.4375000007E+01
   0.1014732194E+01   0.9908839031E+00  -0.1819987083E-16   0.2250000000E-02  -0.6750000000E-03  -0.8774001444E-18   0.1248219379E-01  -0.8441096894E-02  -0.1732247069E-16  -0.4375000006E+01  -0.5278898970E-15  -0.2675423591E-14  -0.1473407443E-14   0.1156967683E-14  -0.2305625784E-15   0.1473219381E-01  -0.9116096907E-02  -0.9116096907E-02  -0.2191522225E-16   0.1758614935E-15   0.7202761787E-16   0.4375000006E+01
   0.0000000000E+00   0.9908839031E+00  -0.3956347556E-16   0.0000000000E+00  -0.6750000000E-03   0.3499729347E-18   0.0000000000E+00  -0.8441096894E-02  -0.3991344850E-16  -0.4375000006E+01  -0.5268700468E-14  -0.3528799906E-14   0.6645118022E-15   0.1826734185E-15  -0.4960463597E-16   0.1473219381E-01  -0.9116096908E-02  -0.9116096908E-02   0.1300664691E-16   0.6207889112E-16  -0.1893865529E-16   0.4375000006E+01
   0.0000000000E+00   0.0000000000E+00   0.9908839031E+00   0.0000000000E+00   0.0000000000E+00  -0.6750000000E-03   0.0000000000E+00   0.0000000000E+00  -0.8441096894E-02  -0.4375000006E+01  -0.2557016370E-14  -0.3324547087E-14  -0.1270590069E-15   0.1021004126E-14   0.5711194487E-15   0.1473219381E-01  -0.9116096908E-02  -0.9116096908E-02   0.9994988851E-18   0.9059162686E-16   0.4987303471E-16   0.4375000006E+01
   0.1014732194E+01   0.0000000000E+00   0.9908839031E+00   0.2250000000E-02   0.0000000000E+00  -0.6750000000E-03   0.1248219379E-01   0.0000000000E+00  -0.8441096894E-02  -0.4375000006E+01  -0.2263609489E-14  -0.1573171715E-14   0.3831411627E-15  -0.7066304303E-15  -0.3586471185E-15   0.1473219381E-01  -0.9116096907E-02  -0.9116096907E-02  -0.3300091606E-16   0.2052423693E-15  -0.2074835699E-16   0.4375000006E+01
   0.1014732194E+01   0.9908839031E+00   0.9908839031E+00   0.2250000000E-02  -0.6750000000E-03  -0.6750000000E-03   0.1248219379E-01  -0.8441096894E-02  -0.8441096894E-02  -0.4375000006E+01   0.4025091918E-14   0.3319779982E-14   0.1905056883E-15   0.1110792750E-14  -0.9266353285E-15   0.1473219381E-01  -0.9116096906E-02  -0.9116096906E-02  -0.3364035891E-16   0.1710138729E-15   0.2200435215E-17   0.4375000006E+01
   0.0000000000E+00   0.9908839031E+00   0.9908839031E+00   0.0000000000E+00  -0.6750000000E-03  -0.6750000000E-03   0.0000000000E+00  -0.8441096894E-02  -0.8441096894E-02  -0.4375000006E+01   0.1542407696E-14   0.3016175222E-14   0.2572590072E-15  -0.9460475452E-15   0.5751181157E-15   0.1473219381E-01  -0.9116096907E-02  -0.9116096907E-02  -0.2790034512E-16  -0.5625978289E-17   0.9999804645E-16   0.4375000006E+01
   0.2029464388E+01   0.0000000000E+00  -0.2677711650E-16   0.4500000000E-02   0.0000000000E+00  -0.5841230394E-17   0.2496438758E-01   0.0000000000E+00  -0.2093588611E-16  -0.4375000007E+01   0.4365400318E-14   0.2396018132E-14   0.1135935906E-14   0.1219072540E-14   0.8367051927E-16   0.1473219381E-01  -0.9116096908E-02  -0.9116096908E-02  -0.2089794026E-16   0.1837655674E-15  -0.9225371845E-17   0.4375000007E+01
   0.2029464388E+01   0.9908839031E+00  -0.3119568644E-16   0.4500000000E-02  -0.6750000000E-03  -0.5856271425E-17   0.2496438758E-01  -0.8441096894E-02  -0.2533941501E-16  -0.4375000006E+01  -0.2527554274E-14  -0.1540505811E-14   0.6566683339E-15  -0.8679254979E-15   0.1830894781E-15   0.1473219381E-01  -0.9116096907E-02  -0.9116096907E-02  -0.2980768001E-16   0.2366535991E-15   0.3387912893E-16   0.4375000006E+01
   0.2029464388E+01   0.0000000000E+00   0.9908839031E+00   0.4500000000E-02   0.0000000000E+00  -0.6750000000E-03   0.2496438758E-01   0.0000000000E+00  -0.8441096894E-02  -0.4375000006E+01  -0.1383206680E-14  -0.8725223094E-15  -0.4657711725E-15   0.4278716409E-16   0.1139387859E-15   0.1473219381E-01  -0.9116096907E-02  -0.9116096907E-02   0.1298141154E-15   0.1425717492E-15  -0.3918582070E-16   0.4375000006E+01
   0.2029464388E+01   0.9908839031E+00   0.9908839031E+00   0.4500000000E-02  -0.6750000000E-03  -0.6750000000E-03   0.2496438758E-01  -0.8441096894E-02  -0.8441096894E-02  -0.4375000006E+01   0.9385836941E-15   0.1371054827E-14  -0.6420960116E-15  -0.2077768436E-14   0.2876756690E-15   0.1473219381E-01  -0.9116096906E-02  -0.9116096906E-02   0.1463591183E-15   0.2585257592E-15   0.1486117276E-16   0.4375000006E+01
     1     2     3     4     5     6     7     8
     2     9    10     3     6    11    12     7
 VARIABLES = X,Y,Z,DU1,DU2,DU3,U1,U2,U3,S11,S22,S33,S12,S13,S23,E11,E22,E33,E12,E13,E23,SMISES
 ZONE, T="0.6300D+01" F=FEPOINT, I=   12 J=    2 ET=BRICK
   0.0000000000E+00   0.0000000000E+00   0.0000000000E+00   0.0000000000E+00   0.0000000000E+00   0.0000000000E+00   0.0000000000E+00   0.0000000000E+00   0.0000000000E+00  -0.3250000005E+01   0.6242867544E-14   0.5263256107E-14  -0.6058417608E-16  -0.1424374304E-14   0.3996852828E-16   0.1698219382E-01  -0.9791096910E-02  -0.9791096910E-02   0.4443132187E-18  -0.9784663488E-16  -0.7695455377E-16   0.3250000005E+01
   0.1016982194E+01   0.0000000000E+00  -0.3864180898E-16   0.2250000000E-02   0.0000000000E+00  -0.3123660614E-18   0.1473219379E-01   0.0000000000E+00  -0.3832944292E-16  -0.3250000005E+01  -0.1593881036E-14  -0.3523174760E-15  -0.9660964616E-15  -0.1587916183E-16   0.6637559031E-15   0.1698219381E-01  -0.9791096909E-02  -0.9791096909E-02  -0.1932229798E-16   0.1437104643E-15   0.4324608981E-16   0.3250000005E+01
   0.1016982194E+01   0.9902089031E+00  -0.1830571282E-16   0.2250000000E-02  -0.6750000000E-03  -0.1058419919E-18   0.1473219379E-01  -0.9116096894E-02  -0.1819987083E-16  -0.3250000005E+01  -0.6889790180E-15  -0.2766127410E-14  -0.1092079730E-14   0.9728132941E-15  -0.2852587536E-15   0.1698219381E-01  -0.9791096908E-02  -0.9791096908E-02  -0.1627545799E-16   0.1787069136E-15   0.5696587712E-16   0.3250000005E+01
   0.0000000000E+00   0.9902089031E+00  -0.3899839729E-16   0.0000000000E+00  -0.6750000000E-03   0.5650782749E-18   0.0000000000E+00  -0.9116096894E-02  -0.3956347556E-16  -0.3250000005E+01  -0.5697186049E-14  -0.4351307834E-14   0.6695118155E-15   0.1148189104E-15   0.9088571103E-16   0.1698219381E-01  -0.9791096909E-02  -0.9791096909E-02   0.1491404481E-16   0.5934379552E-16  -0.8572693501E-17   0.3250000005E+01
   0.0000000000E+00   0.0000000000E+00   0.9902089031E+00   0.0000000000E+00   0.0000000000E+00  -0.6750000000E-03   0.0000000000E+00   0.0000000000E+00  -0.9116096894E-02  -0.3250000005E+01  -0.3229323834E-14  -0.3865513786E-14  -0.1075652562E-15   0.9366201583E-15   0.4404491798E-15   0.1698219381E-01  -0.9791096909E-02  -0.9791096909E-02  -0.1052298330E-17   0.8874535793E-16   0.4468749332E-16   0.3250000005E+01
   0.1016982194E+01   0.0000000000E+00   0.9902089031E+00   0.2250000000E-02   0.0000000000E+00  -0.6750000000E-03   0.1473219379E-01   0.0000000000E+00  -0.9116096894E-02  -0.3250000005E+01  -0.2424698610E-14  -0.1804646138E-14   0.8033993676E-15  -0.1017935378E-14  -0.2594148871E-15   0.1698219381E-01  -0.9791096908E-02  -0.9791096908E-02  -0.2350168931E-16   0.2072195612E-15  -0.2639106195E-16   0.3250000005E+01
   0.1016982194E+01   0.9902089031E+00   0.9902089031E+00   0.2250000000E-02  -0.6750000000E-03  -0.6750000000E-03   0.1473219379E-01  -0.9116096894E-02  -0.9116096894E-02  -0.3250000004E+01   0.4100921549E-14   0.3587905868E-14   0.4257298918E-15   0.1131326760E-14  -0.8442939064E-15   0.1698219381E-01  -0.9791096907E-02  -0.9791096907E-02  -0.3376902886E-16   0.1641886997E-15   0.1861999067E-16   0.3250000004E+01
   0.0000000000E+00   0.9902089031E+00   0.9902089031E+00   0.0000000000E+00  -0.6750000000E-03  -0.6750000000E-03   0.0000000000E+00  -0.9116096894E-02  -0.9116096894E-02  -0.3250000004E+01   0.2283107682E-14   0.3301897387E-14   0.1611860270E-15  -0.7616851604E-15   0.5298161067E-15   0.1698219381E-01  -0.9791096907E-02  -0.9791096907E-02  -0.3547829133E-16   0.3244752243E-17   0.9126130788E-16   0.3250000004E+01
   0.2033964388E+01   0.0000000000E+00  -0.2808483946E-16   0.4500000000E-02   0.0000000000E+00  -0.1307722959E-17   0.2946438758E-01   0.0000000000E+00  -0.2677711650E-16  -0.3250000005E+01   0.4651122515E-14   0.2104851582E-14   0.7635710696E-15   0.1066708232E-14   0.4427349026E-16   0.1698219381E-01  -0.9791096909E-02  -0.9791096909E-02  -0.3116299542E-16   0.1993570131E-15  -0.1355739757E-16   0.3250000005E+01
   0.2033964388E+01   0.9902089031E+00  -0.3274519628E-16   0.4500000000E-02  -0.6750000000E-03  -0.1549509840E-17   0.2946438758E-01  -0.9116096894E-02  -0.3119568644E-16  -0.3250000005E+01  -0.2998135656E-14  -0.2142427957E-14   0.2796616368E-15  -0.2478757992E-15  -0.1421710396E-15   0.1698219381E-01  -0.9791096908E-02  -0.9791096908E-02  -0.4461733275E-16   0.2370462740E-15   0.4670754410E-16   0.3250000005E+01
   0.2033964388E+01   0.0000000000E+00   0.9902089031E+00   0.4500000000E-02   0.0000000000E+00  -0.6750000000E-03   0.2946438758E-01   0.0000000000E+00  -0.9116096894E-02  -0.3250000005E+01  -0.1609966179E-14  -0.7052594602E-15   0.4604169597E-16   0.1782014596E-15   0.2373651392E-15   0.1698219381E-01  -0.9791096908E-02  -0.9791096908E-02   0.1372535524E-15   0.9968156574E-16  -0.3264549678E-16   0.3250000005E+01
   0.2033964388E+01   0.9902089031E+00   0.9902089031E+00   0.4500000000E-02  -0.6750000000E-03  -0.6750000000E-03   0.2946438758E-01  -0.9116096894E-02  -0.9116096894E-02  -0.3250000004E+01   0.6826097852E-15   0.1954651249E-14  -0.3036349655E-15  -0.1726930591E-14   0.1326511807E-15   0.1698219381E-01  -0.9791096907E-02  -0.9791096907E-02   0.1566297277E-15   0.2979492713E-15  -0.4149387108E-17   0.3250000004E+01
     1     2     3     4     5     6     7     8
     2     9    10     3     6    11    12     7
 VARIABLES = X,Y,Z,DU1,DU2,DU3,U1,U2,U3,S11,S22,S33,S12,S13,S23,E11,E22,E33,E12,E13,E23,SMISES
 ZONE, T="0.6350D+01" F=FEPOINT, I=   12 J=    2 ET=BRICK
   0.0000000000E+00   0.0000000000E+00   0.0000000000E+00   0.0000000000E+00   0.0000000000E+00   0.0000000000E+00   0.0000000000E+00   0.0000000000E+00   0.0000000000E+00  -0.2125000003E+01   0.6199241457E-14   0.5236594664E-14  -0.6634875942E-16  -0.1170895532E-14  -0.1111404927E-15   0.1923219382E-01  -0.1046609691E-01  -0.1046609691E-01   0.8351457090E-18  -0.9782662753E-16  -0.7994693097E-16   0.2125000003E+01
   0.1019232194E+01   0.0000000000E+00  -0.3712290922E-16   0.2250000000E-02   0.0000000000E+00   0.1518899761E-17   0.1698219379E-01   0.0000000000E+00  -0.3864180898E-16  -0.2125000003E+01  -0.1525488479E-14  -0.1701804632E-15  -0.5367694184E-15   0.2349566624E-15   0.5771544934E-15   0.1923219382E-01  -0.1046609691E-01  -0.1046609691E-01  -0.1822054734E-16   0.1509359218E-15   0.3892486831E-16   0.2125000003E+01
   0.1019232194E+01   0.9895339031E+00  -0.1730280611E-16   0.2250000000E-02  -0.6750000000E-03   0.1002906712E-17   0.1698219379E-01  -0.9791096894E-02  -0.1830571282E-16  -0.2125000003E+01  -0.6557791110E-15  -0.2571108996E-14  -0.7624094859E-15   0.5497856284E-15  -0.1790252253E-15   0.1923219382E-01  -0.1046609691E-01  -0.1046609691E-01  -0.1827585646E-16   0.1826855927E-15   0.6947737799E-16   0.2125000003E+01
   0.0000000000E+00   0.9895339031E+00  -0.3961716610E-16   0.0000000000E+00  -0.6750000000E-03  -0.6187688146E-18   0.0000000000E+00  -0.9791096894E-02  -0.3899839729E-16  -0.2125000003E+01  -0.4890548673E-14  -0.3551742840E-14   0.5953578263E-15   0.3242797642E-15   0.5371687852E-16   0.1923219382E-01  -0.1046609691E-01  -0.1046609691E-01   0.1963004570E-16   0.5897334695E-16  -0.1161355381E-16   0.2125000003E+01
   0.0000000000E+00   0.0000000000E+00   0.9895339031E+00   0.0000000000E+00   0.0000000000E+00  -0.6750000000E-03   0.0000000000E+00   0.0000000000E+00  -0.9791096894E-02  -0.2125000003E+01  -0.3127464416E-14  -0.3844563641E-14  -0.8756404575E-16   0.9930652092E-15   0.3885970290E-15   0.1923219382E-01  -0.1046609691E-01  -0.1046609691E-01  -0.4083997761E-18   0.8309705286E-16   0.3728129795E-16   0.2125000003E+01
   0.1019232194E+01   0.0000000000E+00   0.9895339031E+00   0.2250000000E-02   0.0000000000E+00  -0.6750000000E-03   0.1698219379E-01   0.0000000000E+00  -0.9791096894E-02  -0.2125000003E+01  -0.2346876226E-14  -0.2116131185E-14   0.3705513479E-15  -0.3995417796E-15  -0.4541520890E-15   0.1923219382E-01  -0.1046609691E-01  -0.1046609691E-01  -0.3114501998E-16   0.2244661258E-15  -0.2704751654E-16   0.2125000003E+01
   0.1019232194E+01   0.9895339031E+00   0.9895339031E+00   0.2250000000E-02  -0.6750000000E-03  -0.6750000000E-03   0.1698219379E-01  -0.9791096894E-02  -0.9791096894E-02  -0.2125000003E+01   0.3977017853E-14   0.3061813339E-14   0.8547330680E-16   0.8217793559E-15  -0.7752939648E-15   0.1923219381E-01  -0.1046609691E-01  -0.1046609691E-01  -0.3643832386E-16   0.1578472003E-15  -0.3236356238E-17   0.2125000003E+01
   0.0000000000E+00   0.9895339031E+00   0.9895339031E+00   0.0000000000E+00  -0.6750000000E-03  -0.6750000000E-03   0.0000000000E+00  -0.9791096894E-02  -0.9791096894E-02  -0.2125000003E+01   0.1819696434E-14   0.2764017566E-14   0.1552186258E-15  -0.7234649454E-15   0.4800131455E-15   0.1923219381E-01  -0.1046609691E-01  -0.1046609691E-01  -0.4010632290E-16   0.4035247361E-17   0.1175684151E-15   0.2125000003E+01
   0.2038464388E+01   0.0000000000E+00  -0.2286151601E-16   0.4500000000E-02   0.0000000000E+00   0.5223323444E-17   0.3396438758E-01   0.0000000000E+00  -0.2808483946E-16  -0.2125000003E+01   0.4831533717E-14   0.2906142363E-14   0.1039071007E-14   0.9533912232E-15   0.1179742434E-15   0.1923219382E-01  -0.1046609691E-01  -0.1046609691E-01  -0.2649540081E-16   0.1832864486E-15  -0.7329818721E-17   0.2125000003E+01
   0.2038464388E+01   0.9895339031E+00  -0.2709947125E-16   0.4500000000E-02  -0.6750000000E-03   0.5645725033E-17   0.3396438758E-01  -0.9791096894E-02  -0.3274519628E-16  -0.2125000003E+01  -0.3072239502E-14  -0.1930444860E-14   0.5265386800E-15  -0.6594530837E-15   0.2030127427E-15   0.1923219382E-01  -0.1046609691E-01  -0.1046609691E-01  -0.4531290711E-16   0.2457777941E-15   0.3568987422E-16   0.2125000003E+01
   0.2038464388E+01   0.0000000000E+00   0.9895339031E+00   0.4500000000E-02   0.0000000000E+00  -0.6750000000E-03   0.3396438758E-01   0.0000000000E+00  -0.9791096894E-02  -0.2125000003E+01  -0.2222314546E-14  -0.1393802154E-14   0.1690886300E-15  -0.1886957047E-15   0.2559289887E-15   0.1923219382E-01  -0.1046609691E-01  -0.1046609691E-01   0.1427612158E-15   0.1264031375E-15  -0.3814238239E-16   0.2125000003E+01
   0.2038464388E+01   0.9895339031E+00   0.9895339031E+00   0.4500000000E-02  -0.6750000000E-03  -0.6750000000E-03   0.3396438758E-01  -0.9791096894E-02  -0.9791096894E-02  -0.2125000003E+01   0.8982136397E-15   0.2183768182E-14  -0.4529407956E-15  -0.1551393408E-14   0.4123544652E-15   0.1923219381E-01  -0.1046609691E-01  -0.1046609691E-01   0.1644254981E-15   0.2672083461E-15   0.6975475380E-17   0.2125000003E+01
     1     2     3     4     5     6     7     8
     2     9    10     3     6    11    12     7
 VARIABLES = X,Y,Z,DU1,DU2,DU3,U1,U2,U3,S11,S22,S33,S12,S13,S23,E11,E22,E33,E12,E13,E23,SMISES
 ZONE, T="0.6400D+01" F=FEPOINT, I=   12 J=    2 ET=BRICK
   0.0000000000E+00   0.0000000000E+00   0.0000000000E+00   0.0000000000E+00   0.0000000000E+00   0.0000000000E+00   0.0000000000E+00   0.0000000000E+00   0.0000000000E+00  -0.1000000002E+01   0.6395754440E-14   0.5713203192E-14  -0.6953854323E-16  -0.1128124847E-14  -0.1425756952E-15   0.2148219382E-01  -0.1114109691E-01  -0.1114109691E-01   0.9447052109E-19  -0.9860897808E-16  -0.7941003096E-16   0.1000000002E+01
   0.1021482194E+01   0.0000000000E+00  -0.3674634803E-16   0.2250000000E-02   0.0000000000E+00   0.3765611944E-18   0.1923219379E-01   0.0000000000E+00  -0.3712290922E-16  -0.1000000002E+01  -0.1428343973E-14  -0.7000851942E-17  -0.6973631660E-15   0.7828395001E-16   0.5547935032E-15   0.2148219382E-01  -0.1114109691E-01  -0.1114109691E-01  -0.1554939173E-16   0.1608374708E-15   0.4056643327E-16   0.1000000002E+01
   0.1021482194E+01   0.9888589031E+00  -0.1703260862E-16   0.2250000000E-02  -0.6750000000E-03   0.2701974857E-18   0.1923219379E-01  -0.1046609689E-01  -0.1730280611E-16  -0.1000000001E+01  -0.3440271130E-15  -0.2086018151E-14  -0.8653677785E-15   0.5847133181E-15  -0.2381371749E-15   0.2148219382E-01  -0.1114109691E-01  -0.1114109691E-01  -0.1275542041E-16   0.1731424695E-15   0.6460452301E-16   0.1000000001E+01
   0.0000000000E+00   0.9888589031E+00  -0.3973725301E-16   0.0000000000E+00  -0.6750000000E-03  -0.1200869076E-18   0.0000000000E+00  -0.1046609689E-01  -0.3961716610E-16  -0.1000000001E+01  -0.5278628479E-14  -0.3785490063E-14   0.6754741615E-15   0.3558778388E-15   0.1969850247E-15   0.2148219382E-01  -0.1114109691E-01  -0.1114109691E-01   0.1381743970E-16   0.6013454117E-16  -0.9188692995E-17   0.1000000001E+01
   0.0000000000E+00   0.0000000000E+00   0.9888589031E+00   0.0000000000E+00   0.0000000000E+00  -0.6750000000E-03   0.0000000000E+00   0.0000000000E+00  -0.1046609689E-01  -0.1000000001E+01  -0.2935034673E-14  -0.3742886547E-14  -0.1004046089E-15   0.1074503684E-14   0.2809939247E-15   0.2148219382E-01  -0.1114109691E-01  -0.1114109691E-01   0.2179464827E-17   0.8349459314E-16   0.4303010368E-16   0.1000000001E+01
   0.1021482194E+01   0.0000000000E+00   0.9888589031E+00   0.2250000000E-02   0.0000000000E+00  -0.6750000000E-03   0.1923219379E-01   0.0000000000E+00  -0.1046609689E-01  -0.1000000001E+01  -0.2530009603E-14  -0.2090733064E-14   0.4075665783E-15  -0.5905729200E-15  -0.4060317388E-15   0.2148219382E-01  -0.1114109691E-01  -0.1114109691E-01  -0.4134507617E-16   0.2131539739E-15  -0.2473243271E-16   0.1000000001E+01
   0.1021482194E+01   0.9888589031E+00   0.9888589031E+00   0.2250000000E-02  -0.6750000000E-03  -0.6750000000E-03   0.1923219379E-01  -0.1046609689E-01  -0.1046609689E-01  -0.1000000001E+01   0.3841958540E-14   0.3128844823E-14   0.1618948218E-15   0.8380460630E-15  -0.7673943321E-15   0.2148219382E-01  -0.1114109691E-01  -0.1114109691E-01  -0.3920292140E-16   0.1604654533E-15   0.1166156074E-17   0.1000000001E+01
   0.0000000000E+00   0.9888589031E+00   0.9888589031E+00   0.0000000000E+00  -0.6750000000E-03  -0.6750000000E-03   0.0000000000E+00  -0.1046609689E-01  -0.1046609689E-01  -0.1000000001E+01   0.2010400380E-14   0.2742289137E-14   0.2636147417E-16  -0.5368336846E-15   0.5118765774E-15   0.2148219382E-01  -0.1114109691E-01  -0.1114109691E-01  -0.3846977526E-16   0.6656824819E-17   0.9327927097E-16   0.1000000001E+01
   0.2042964388E+01   0.0000000000E+00  -0.2166880920E-16   0.4500000000E-02   0.0000000000E+00   0.1192706814E-17   0.3846438758E-01   0.0000000000E+00  -0.2286151601E-16  -0.1000000002E+01   0.4461050236E-14   0.2323226474E-14   0.1205120733E-14   0.1094733964E-14   0.7822725878E-16   0.2148219382E-01  -0.1114109691E-01  -0.1114109691E-01  -0.9305218428E-17   0.1398428211E-15  -0.7937207159E-17   0.1000000002E+01
   0.2042964388E+01   0.9888589031E+00  -0.2601502030E-16   0.4500000000E-02  -0.6750000000E-03   0.1084450950E-17   0.3846438758E-01  -0.1046609689E-01  -0.2709947125E-16  -0.1000000001E+01  -0.2761982067E-14  -0.1886271702E-14   0.7525863008E-15  -0.5771216618E-15   0.2091281370E-15   0.2148219382E-01  -0.1114109691E-01  -0.1114109691E-01  -0.2168528888E-16   0.2610466000E-15   0.3755234103E-16   0.1000000001E+01
   0.2042964388E+01   0.0000000000E+00   0.9888589031E+00   0.4500000000E-02   0.0000000000E+00  -0.6750000000E-03   0.3846438758E-01   0.0000000000E+00  -0.1046609689E-01  -0.1000000001E+01  -0.1983536548E-14  -0.1438704757E-14   0.1155945828E-16   0.1718070523E-15   0.2165568306E-15   0.2148219382E-01  -0.1114109691E-01  -0.1114109691E-01   0.1382567607E-15   0.1140964191E-15  -0.3591436401E-16   0.1000000001E+01
   0.2042964388E+01   0.9888589031E+00   0.9888589031E+00   0.4500000000E-02  -0.6750000000E-03  -0.6750000000E-03   0.3846438758E-01  -0.1046609689E-01  -0.1046609689E-01  -0.1000000001E+01   0.9017987051E-15   0.1906892997E-14  -0.4925488276E-15  -0.1927343467E-14   0.3320572134E-15   0.2148219382E-01  -0.1114109691E-01  -0.1114109691E-01   0.1669032786E-15   0.2629384208E-15   0.9888587184E-17   0.1000000001E+01
     1     2     3     4     5     6     7     8
     2     9    10     3     6    11    12     7
 VARIABLES = X,Y,Z,DU1,DU2,DU3,U1,U2,U3,S11,S22,S33,S12,S13,S23,E11,E22,E33,E12,E13,E23,SMISES
 ZONE, T="0.6450D+01" F=FEPOINT, I=   12 J=    2 ET=BRICK
   0.0000000000E+00   0.0000000000E+00   0.0000000000E+00   0.0000000000E+00   0.0000000000E+00   0.0000000000E+00   0.0000000000E+00   0.0000000000E+00   0.0000000000E+00   0.1250000002E+00   0.6570215861E-14   0.5763138181E-14  -0.6537588823E-16  -0.1043630336E-14  -0.1666756792E-15   0.2373219383E-01  -0.1181609691E-01  -0.1181609691E-01  -0.1131238944E-17  -0.9696196366E-16  -0.7837780951E-16   0.1250000002E+00
   0.1023732194E+01   0.0000000000E+00  -0.3669376790E-16   0.2250000000E-02   0.0000000000E+00   0.5258013153E-19   0.2148219379E-01   0.0000000000E+00  -0.3674634803E-16   0.1250000002E+00  -0.1536191500E-14  -0.1349177772E-15  -0.7746561439E-15  -0.5340945940E-16   0.5639957246E-15   0.2373219383E-01  -0.1181609691E-01  -0.1181609691E-01  -0.1109674511E-16   0.1600088149E-15   0.4247682631E-16   0.1250000002E+00
   0.1023732194E+01   0.9881839031E+00  -0.1693222566E-16   0.2250000000E-02  -0.6750000000E-03   0.1003829690E-18   0.2148219379E-01  -0.1114109689E-01  -0.1703260862E-16   0.1250000002E+00  -0.4251065087E-15  -0.2249616981E-14  -0.9695718319E-15   0.5114883182E-15  -0.2434800114E-15   0.2373219382E-01  -0.1181609691E-01  -0.1181609691E-01  -0.1017299409E-16   0.1715060205E-15   0.7322734688E-16   0.1250000002E+00
   0.0000000000E+00   0.9881839031E+00  -0.3986427523E-16   0.0000000000E+00  -0.6750000000E-03  -0.1270222247E-18   0.0000000000E+00  -0.1114109689E-01  -0.3973725301E-16   0.1250000002E+00  -0.4814314834E-14  -0.3158552814E-14   0.6331908050E-15   0.4461713817E-15   0.1285725145E-15   0.2373219382E-01  -0.1181609691E-01  -0.1181609691E-01   0.2063009315E-16   0.6540687107E-16  -0.2102470787E-16   0.1250000002E+00
   0.0000000000E+00   0.0000000000E+00   0.9881839031E+00   0.0000000000E+00   0.0000000000E+00  -0.6750000000E-03   0.0000000000E+00   0.0000000000E+00  -0.1114109689E-01   0.1250000002E+00  -0.2854687515E-14  -0.3695158860E-14  -0.1110788319E-15   0.1097034154E-14   0.3584786821E-15   0.2373219382E-01  -0.1181609691E-01  -0.1181609691E-01  -0.4675642780E-18   0.8060728032E-16   0.3638383506E-16   0.1250000002E+00
   0.1023732194E+01   0.0000000000E+00   0.9881839031E+00   0.2250000000E-02   0.0000000000E+00  -0.6750000000E-03   0.2148219379E-01   0.0000000000E+00  -0.1114109689E-01   0.1250000002E+00  -0.2582494970E-14  -0.2176485073E-14   0.3576312071E-15  -0.6264924890E-15  -0.4092124500E-15   0.2373219382E-01  -0.1181609691E-01  -0.1181609691E-01  -0.3521898581E-16   0.2323684061E-15  -0.3254399043E-16   0.1250000002E+00
   0.1023732194E+01   0.9881839031E+00   0.9881839031E+00   0.2250000000E-02  -0.6750000000E-03  -0.6750000000E-03   0.2148219379E-01  -0.1114109689E-01  -0.1114109689E-01   0.1250000002E+00   0.3689573134E-14   0.2880742738E-14   0.9789859291E-16   0.7270740454E-15  -0.7978875238E-15   0.2373219382E-01  -0.1181609691E-01  -0.1181609691E-01  -0.4341139061E-16   0.1684011993E-15  -0.6877746378E-17   0.1250000002E+00
   0.0000000000E+00   0.9881839031E+00   0.9881839031E+00   0.0000000000E+00  -0.6750000000E-03  -0.6750000000E-03   0.0000000000E+00  -0.1114109689E-01  -0.1114109689E-01   0.1250000002E+00   0.1883651625E-14   0.2870070949E-14   0.6792144632E-16  -0.6519628332E-15   0.5230379991E-15   0.2373219382E-01  -0.1181609691E-01  -0.1181609691E-01  -0.3617076984E-16   0.4398767150E-17   0.1178032450E-15   0.1250000002E+00
   0.2047464388E+01   0.0000000000E+00  -0.2251484479E-16   0.4500000000E-02   0.0000000000E+00  -0.8460355867E-18   0.4296438758E-01   0.0000000000E+00  -0.2166880920E-16   0.1250000002E+00   0.4504623451E-14   0.2516226052E-14   0.1080406931E-14   0.6878541349E-15   0.1137951003E-15   0.2373219382E-01  -0.1181609691E-01  -0.1181609691E-01  -0.1263515616E-16   0.1439089410E-15  -0.6224412452E-17   0.1250000002E+00
   0.2047464388E+01   0.9881839031E+00  -0.2666401040E-16   0.4500000000E-02  -0.6750000000E-03  -0.6489901063E-18   0.4296438758E-01  -0.1114109689E-01  -0.2601502030E-16   0.1250000002E+00  -0.2916627654E-14  -0.2053740891E-14   0.6338196300E-15  -0.6337225000E-15   0.2395795098E-15   0.2373219382E-01  -0.1181609691E-01  -0.1181609691E-01  -0.2650375233E-16   0.2821376693E-15   0.2654230100E-16   0.1250000002E+00
   0.2047464388E+01   0.0000000000E+00   0.9881839031E+00   0.4500000000E-02   0.0000000000E+00  -0.6750000000E-03   0.4296438758E-01   0.0000000000E+00  -0.1114109689E-01   0.1250000002E+00  -0.1967644412E-14  -0.1266787636E-14  -0.2837932583E-15   0.1357784572E-15   0.2044830509E-15   0.2373219382E-01  -0.1181609691E-01  -0.1181609691E-01   0.1326651808E-15   0.1047908396E-15  -0.3926268577E-16   0.1250000002E+00
   0.2047464388E+01   0.9881839031E+00   0.9881839031E+00   0.4500000000E-02  -0.6750000000E-03  -0.6750000000E-03   0.4296438758E-01  -0.1114109689E-01  -0.1114109689E-01   0.1250000002E+00   0.7828061222E-15   0.1781675433E-14  -0.5942411292E-15  -0.2153187250E-14   0.2842612430E-15   0.2373219382E-01  -0.1181609691E-01  -0.1181609691E-01   0.1565499700E-15   0.1989104355E-15   0.2123962969E-16   0.1250000002E+00
     1     2     3     4     5     6     7     8
     2     9    10     3     6    11    12     7
 VARIABLES = X,Y,Z,DU1,DU2,DU3,U1,U2,U3,S11,S22,S33,S12,S13,S23,E11,E22,E33,E12,E13,E23,SMISES
 ZONE, T="0.6500D+01" F=FEPOINT, I=   12 J=    2 ET=BRICK
   0.0000000000E+00   0.0000000000E+00   0.0000000000E+00   0.0000000000E+00   0.0000000000E+00   0.0000000000E+00   0.0000000000E+00   0.0000000000E+00   0.0000000000E+00   0.1250000002E+01   0.6375800643E-14   0.5662139987E-14  -0.7059380930E-16  -0.1053309984E-14  -0.2038378216E-15   0.2598219383E-01  -0.1249109691E-01  -0.1249109691E-01  -0.4371187395E-18  -0.1035470060E-15  -0.8457575088E-16   0.1250000002E+01
   0.1025982194E+01   0.0000000000E+00  -0.3640873289E-16   0.2250000000E-02   0.0000000000E+00   0.2850350079E-18   0.2373219379E-01   0.0000000000E+00  -0.3669376790E-16   0.1250000002E+01  -0.1642951474E-14   0.7626586256E-16  -0.8479747257E-15  -0.1622463745E-15   0.5930479211E-15   0.2598219383E-01  -0.1249109691E-01  -0.1249109691E-01  -0.1583941826E-16   0.1799161464E-15   0.4279274486E-16   0.1250000002E+01
   0.1025982194E+01   0.9875089031E+00  -0.1646536599E-16   0.2250000000E-02  -0.6750000000E-03   0.4668596675E-18   0.2373219379E-01  -0.1181609689E-01  -0.1693222566E-16   0.1250000002E+01  -0.4577715634E-15  -0.2204477516E-14  -0.9767447551E-15   0.5104565826E-15  -0.1161479649E-15   0.2598219383E-01  -0.1249109691E-01  -0.1249109691E-01  -0.1011444380E-16   0.1517888581E-15   0.6492731308E-16   0.1250000002E+01
   0.0000000000E+00   0.9875089031E+00  -0.4000415087E-16   0.0000000000E+00  -0.6750000000E-03  -0.1398756361E-18   0.0000000000E+00  -0.1181609689E-01  -0.3986427523E-16   0.1250000002E+01  -0.5224113729E-14  -0.3485890078E-14   0.6352996458E-15   0.5735138890E-15   0.2639330061E-15   0.2598219383E-01  -0.1249109691E-01  -0.1249109691E-01   0.1910015871E-16   0.7200343839E-16  -0.1312670332E-16   0.1250000002E+01
   0.0000000000E+00   0.0000000000E+00   0.9875089031E+00   0.0000000000E+00   0.0000000000E+00  -0.6750000000E-03   0.0000000000E+00   0.0000000000E+00  -0.1181609689E-01   0.1250000002E+01  -0.3154357094E-14  -0.4369112709E-14  -0.1343250846E-15   0.1157709370E-14   0.2723392539E-15   0.2598219383E-01  -0.1249109691E-01  -0.1249109691E-01  -0.5092695500E-17   0.8297038727E-16   0.4383226763E-16   0.1250000002E+01
   0.1025982194E+01   0.0000000000E+00   0.9875089031E+00   0.2250000000E-02   0.0000000000E+00  -0.6750000000E-03   0.2373219379E-01   0.0000000000E+00  -0.1181609689E-01   0.1250000002E+01  -0.2262613131E-14  -0.1722473555E-14   0.5318420363E-15  -0.6996276222E-15  -0.4369888296E-15   0.2598219383E-01  -0.1249109691E-01  -0.1249109691E-01  -0.2302491481E-16   0.2134494695E-15  -0.2736218001E-16   0.1250000002E+01
   0.1025982194E+01   0.9875089031E+00   0.9875089031E+00   0.2250000000E-02  -0.6750000000E-03  -0.6750000000E-03   0.2373219379E-01  -0.1181609689E-01  -0.1181609689E-01   0.1250000002E+01   0.3771573230E-14   0.2795777965E-14   0.2040056561E-15   0.8753983022E-15  -0.7941418113E-15   0.2598219382E-01  -0.1249109691E-01  -0.1249109691E-01  -0.4963089736E-16   0.1665091742E-15   0.6529377064E-17   0.1250000002E+01
   0.0000000000E+00   0.9875089031E+00   0.9875089031E+00   0.0000000000E+00  -0.6750000000E-03  -0.6750000000E-03   0.0000000000E+00  -0.1181609689E-01  -0.1181609689E-01   0.1250000002E+01   0.1887857754E-14   0.2716526297E-14   0.5983887002E-16  -0.5847080258E-15   0.6217242325E-15   0.2598219382E-01  -0.1249109691E-01  -0.1249109691E-01  -0.2731790821E-16   0.8830641465E-17   0.9666904815E-16   0.1250000002E+01
   0.2051964388E+01   0.0000000000E+00  -0.2019316195E-16   0.4500000000E-02   0.0000000000E+00   0.2321682834E-17   0.4746438758E-01   0.0000000000E+00  -0.2251484479E-16   0.1250000002E+01   0.3955640926E-14   0.1708155963E-14   0.1037930571E-14   0.1049831314E-14   0.1901206479E-16   0.2598219383E-01  -0.1249109691E-01  -0.1249109691E-01  -0.1214598461E-16   0.1365421927E-15  -0.8116051721E-17   0.1250000002E+01
   0.2051964388E+01   0.9875089031E+00  -0.2489898205E-16   0.4500000000E-02  -0.6750000000E-03   0.1765028356E-17   0.4746438758E-01  -0.1181609689E-01  -0.2666401040E-16   0.1250000002E+01  -0.2185555769E-14  -0.1257056414E-14   0.6524101611E-15  -0.4356159505E-15   0.7182340848E-16   0.2598219382E-01  -0.1249109691E-01  -0.1249109691E-01  -0.1661231815E-16   0.3015163773E-15   0.2672073883E-16   0.1250000002E+01
   0.2051964388E+01   0.0000000000E+00   0.9875089031E+00   0.4500000000E-02   0.0000000000E+00  -0.6750000000E-03   0.4746438758E-01   0.0000000000E+00  -0.1181609689E-01   0.1250000002E+01  -0.1703258667E-14  -0.1241693579E-14  -0.2686902793E-15   0.4681240703E-15   0.2503228521E-15   0.2598219382E-01  -0.1249109691E-01  -0.1249109691E-01   0.1426009625E-15   0.1391067564E-15  -0.3779746012E-16   0.1250000002E+01
   0.2051964388E+01   0.9875089031E+00   0.9875089031E+00   0.4500000000E-02  -0.6750000000E-03  -0.6750000000E-03   0.4746438758E-01  -0.1181609689E-01  -0.1181609689E-01   0.1250000002E+01   0.7874226043E-15   0.2099189266E-14  -0.7232824665E-15  -0.2073797536E-14   0.2805906394E-15   0.2598219382E-01  -0.1249109691E-01  -0.1249109691E-01   0.1603398434E-15   0.2065744842E-15   0.8990184761E-17   0.1250000002E+01
     1     2     3     4     5     6     7     8
     2     9    10     3     6    11    12     7
 VARIABLES = X,Y,Z,DU1,DU2,DU3,U1,U2,U3,S11,S22,S33,S12,S13,S23,E11,E22,E33,E12,E13,E23,SMISES
 ZONE, T="0.6550D+01" F=FEPOINT, I=   12 J=    2 ET=BRICK
   0.0000000000E+00   0.0000000000E+00   0.0000000000E+00   0.0000000000E+00   0.0000000000E+00   0.0000000000E+00   0.0000000000E+00   0.0000000000E+00   0.0000000000E+00   0.2375000004E+01   0.6097382046E-14   0.5460365053E-14  -0.6191423767E-16  -0.1011362194E-14  -0.2348067846E-15   0.2823219383E-01  -0.1316609691E-01  -0.1316609691E-01   0.4118313551E-17  -0.9250763329E-16  -0.8131016921E-16   0.2375000004E+01
   0.1028232194E+01   0.0000000000E+00  -0.3630620859E-16   0.2250000000E-02   0.0000000000E+00   0.1025242978E-18   0.2598219379E-01   0.0000000000E+00  -0.3640873289E-16   0.2375000004E+01  -0.1331199468E-14   0.4235752197E-15  -0.6801194370E-15  -0.1020690156E-16   0.5532573545E-15   0.2823219383E-01  -0.1316609691E-01  -0.1316609691E-01  -0.2145299349E-16   0.1548454188E-15   0.4107644651E-16   0.2375000004E+01
   0.1028232194E+01   0.9868339031E+00  -0.1641646255E-16   0.2250000000E-02  -0.6750000000E-03   0.4890343936E-19   0.2598219379E-01  -0.1249109689E-01  -0.1646536599E-16   0.2375000003E+01  -0.6280235291E-15  -0.2406568298E-14  -0.7494874326E-15   0.3631676995E-15  -0.4381563935E-16   0.2823219383E-01  -0.1316609691E-01  -0.1316609691E-01  -0.1640297293E-16   0.1580258749E-15   0.6603739841E-16   0.2375000003E+01
   0.0000000000E+00   0.9868339031E+00  -0.4018015979E-16   0.0000000000E+00  -0.6750000000E-03  -0.1760089196E-18   0.0000000000E+00  -0.1249109689E-01  -0.4000415087E-16   0.2375000003E+01  -0.4825874669E-14  -0.3196631672E-14   0.5321047201E-15   0.6343677873E-15   0.1392682935E-15   0.2823219383E-01  -0.1316609691E-01  -0.1316609691E-01   0.2134739670E-16   0.6752314924E-16  -0.3521982796E-17   0.2375000003E+01
   0.0000000000E+00   0.0000000000E+00   0.9868339031E+00   0.0000000000E+00   0.0000000000E+00  -0.6750000000E-03   0.0000000000E+00   0.0000000000E+00  -0.1249109689E-01   0.2375000003E+01  -0.2843467999E-14  -0.4031148576E-14  -0.1469465360E-15   0.1025784414E-14   0.2247481064E-15   0.2823219383E-01  -0.1316609691E-01  -0.1316609691E-01   0.2144020725E-18   0.8292647722E-16   0.2632318476E-16   0.2375000003E+01
   0.1028232194E+01   0.0000000000E+00   0.9868339031E+00   0.2250000000E-02   0.0000000000E+00  -0.6750000000E-03   0.2598219379E-01   0.0000000000E+00  -0.1249109689E-01   0.2375000003E+01  -0.2546609550E-14  -0.2143886742E-14   0.3949984013E-15  -0.4203203367E-15  -0.3384753298E-15   0.2823219383E-01  -0.1316609691E-01  -0.1316609691E-01  -0.3298031443E-16   0.2271212158E-15  -0.2600174402E-16   0.2375000003E+01
   0.1028232194E+01   0.9868339031E+00   0.9868339031E+00   0.2250000000E-02  -0.6750000000E-03  -0.6750000000E-03   0.2598219379E-01  -0.1249109689E-01  -0.1249109689E-01   0.2375000003E+01   0.3943817958E-14   0.3104443084E-14   0.8089409570E-16   0.7467621059E-15  -0.6815904881E-15   0.2823219383E-01  -0.1316609691E-01  -0.1316609691E-01  -0.4707973044E-16   0.1659420565E-15  -0.2881582441E-17   0.2375000003E+01
   0.0000000000E+00   0.9868339031E+00   0.9868339031E+00   0.0000000000E+00  -0.6750000000E-03  -0.6750000000E-03   0.0000000000E+00  -0.1249109689E-01  -0.1249109689E-01   0.2375000003E+01   0.1709670529E-14   0.2852995594E-14   0.1799177623E-15  -0.4790118194E-15   0.4800191354E-15   0.2823219383E-01  -0.1316609691E-01  -0.1316609691E-01  -0.3006680749E-16   0.1158650123E-16   0.9647308870E-16   0.2375000003E+01
   0.2056464388E+01   0.0000000000E+00  -0.2010856297E-16   0.4500000000E-02   0.0000000000E+00   0.8459898674E-19   0.5196438758E-01   0.0000000000E+00  -0.2019316195E-16   0.2375000004E+01   0.5443882103E-14   0.3152223973E-14   0.3505870646E-15   0.8106921459E-15   0.1167814691E-15   0.2823219383E-01  -0.1316609691E-01  -0.1316609691E-01  -0.2246968569E-16   0.1264225765E-15  -0.6699780046E-17   0.2375000004E+01
   0.2056464388E+01   0.9868339031E+00  -0.2435962912E-16   0.4500000000E-02  -0.6750000000E-03   0.5393529246E-18   0.5196438758E-01  -0.1249109689E-01  -0.2489898205E-16   0.2375000003E+01  -0.2959491389E-14  -0.2341067142E-14   0.8680926375E-16  -0.2318358930E-15   0.1493093222E-15   0.2823219383E-01  -0.1316609691E-01  -0.1316609691E-01  -0.2128834602E-16   0.2649965918E-15   0.2605231227E-16   0.2375000003E+01
   0.2056464388E+01   0.0000000000E+00   0.9868339031E+00   0.4500000000E-02   0.0000000000E+00  -0.6750000000E-03   0.5196438758E-01   0.0000000000E+00  -0.1249109689E-01   0.2375000003E+01  -0.2450799799E-14  -0.1647320842E-14   0.1211363230E-15  -0.2205216246E-15   0.8940246882E-16   0.2823219383E-01  -0.1316609691E-01  -0.1316609691E-01   0.1471282854E-15   0.1501810748E-15  -0.3862444667E-16   0.2375000003E+01
   0.2056464388E+01   0.9868339031E+00   0.9868339031E+00   0.4500000000E-02  -0.6750000000E-03  -0.6750000000E-03   0.5196438758E-01  -0.1249109689E-01  -0.1249109689E-01   0.2375000003E+01   0.1396817567E-14   0.2128523994E-14  -0.3004510063E-15  -0.1533285464E-14   0.1474262129E-15   0.2823219382E-01  -0.1316609691E-01  -0.1316609691E-01   0.1537887326E-15   0.2192273190E-15   0.8964389015E-17   0.2375000003E+01
     1     2     3     4     5     6     7     8
     2     9    10     3     6    11    12     7
 VARIABLES = X,Y,Z,DU1,DU2,DU3,U1,U2,U3,S11,S22,S33,S12,S13,S23,E11,E22,E33,E12,E13,E23,SMISES
 ZONE, T="0.6600D+01" F=FEPOINT, I=   12 J=    2 ET=BRICK
   0.0000000000E+00   0.0000000000E+00   0.0000000000E+00   0.0000000000E+00   0.0000000000E+00   0.0000000000E+00   0.0000000000E+00   0.0000000000E+00   0.0000000000E+00   0.3500000005E+01   0.6448045243E-14   0.6200967296E-14  -0.5546563719E-16  -0.1023658759E-14   0.6631568319E-16   0.3048219384E-01  -0.1384109692E-01  -0.1384109692E-01   0.2986207050E-19  -0.1013036460E-15  -0.8383696182E-16   0.3500000005E+01
   0.1030482194E+01   0.0000000000E+00  -0.3706944673E-16   0.2250000000E-02   0.0000000000E+00  -0.7632381374E-18   0.2823219379E-01   0.0000000000E+00  -0.3630620859E-16   0.3500000005E+01  -0.1568118232E-14  -0.2323610578E-16  -0.8442259778E-15   0.6623244760E-16   0.4758236735E-15   0.3048219384E-01  -0.1384109692E-01  -0.1384109692E-01  -0.6653698138E-17   0.1659402215E-15   0.4063770154E-16   0.3500000005E+01
   0.1030482194E+01   0.9861589031E+00  -0.1756482084E-16   0.2250000000E-02  -0.6750000000E-03  -0.1148358294E-17   0.2823219379E-01  -0.1316609689E-01  -0.1641646255E-16   0.3500000005E+01  -0.5224455674E-15  -0.2629342295E-14  -0.1059923945E-14   0.4948249325E-15  -0.2455596321E-15   0.3048219383E-01  -0.1384109691E-01  -0.1384109691E-01  -0.2828475018E-17   0.1590633578E-15   0.6367154485E-16   0.3500000005E+01
   0.0000000000E+00   0.9861589031E+00  -0.3871318523E-16   0.0000000000E+00  -0.6750000000E-03   0.1466974555E-17   0.0000000000E+00  -0.1316609689E-01  -0.4018015979E-16   0.3500000005E+01  -0.5351237795E-14  -0.4682381934E-14   0.4562027389E-15   0.1842415584E-15   0.1810730747E-15   0.3048219383E-01  -0.1384109691E-01  -0.1384109691E-01   0.2110069672E-16   0.6956756083E-16  -0.1990215372E-17   0.3500000005E+01
   0.0000000000E+00   0.0000000000E+00   0.9861589031E+00   0.0000000000E+00   0.0000000000E+00  -0.6750000000E-03   0.0000000000E+00   0.0000000000E+00  -0.1316609689E-01   0.3500000005E+01  -0.2735701814E-14  -0.4084106769E-14  -0.1491418507E-15   0.9249230762E-15   0.2466495804E-15   0.3048219383E-01  -0.1384109691E-01  -0.1384109691E-01   0.9283653363E-18   0.7665782476E-16   0.3516530356E-16   0.3500000005E+01
   0.1030482194E+01   0.0000000000E+00   0.9861589031E+00   0.2250000000E-02   0.0000000000E+00  -0.6750000000E-03   0.2823219379E-01   0.0000000000E+00  -0.1316609689E-01   0.3500000005E+01  -0.2309690810E-14  -0.1649001371E-14   0.6469318068E-15  -0.5899145007E-15  -0.3908244989E-15   0.3048219383E-01  -0.1384109691E-01  -0.1384109691E-01  -0.4054717194E-16   0.2254708155E-15  -0.2086599169E-16   0.3500000005E+01
   0.1030482194E+01   0.9861589031E+00   0.9861589031E+00   0.2250000000E-02  -0.6750000000E-03  -0.6750000000E-03   0.2823219379E-01  -0.1316609689E-01  -0.1316609689E-01   0.3500000005E+01   0.3601321241E-14   0.2885120664E-14   0.3694927023E-15   0.1225817199E-14  -0.9828369178E-15   0.3048219383E-01  -0.1384109691E-01  -0.1384109691E-01  -0.5159238657E-16   0.1651550823E-15   0.1344403746E-16   0.3500000005E+01
   0.0000000000E+00   0.9861589031E+00   0.9861589031E+00   0.0000000000E+00  -0.6750000000E-03  -0.6750000000E-03   0.0000000000E+00  -0.1316609689E-01  -0.1316609689E-01   0.3500000005E+01   0.1719100357E-14   0.3146786517E-14   0.9048192147E-16  -0.9213342187E-15   0.4787282915E-15   0.3048219383E-01  -0.1384109691E-01  -0.1384109691E-01  -0.2476513826E-16   0.7378155626E-17   0.1049532225E-15   0.3500000005E+01
   0.2060964388E+01   0.0000000000E+00  -0.2488149482E-16   0.4500000000E-02   0.0000000000E+00  -0.4772931856E-17   0.5646438758E-01   0.0000000000E+00  -0.2010856297E-16   0.3500000005E+01   0.3446744285E-14   0.1684532529E-14   0.1322592256E-14   0.1056605081E-14   0.2252915410E-15   0.3048219383E-01  -0.1384109692E-01  -0.1384109692E-01  -0.2799658625E-16   0.1616925438E-15  -0.8187425201E-17   0.3500000005E+01
   0.2060964388E+01   0.9861589031E+00  -0.2863233833E-16   0.4500000000E-02  -0.6750000000E-03  -0.4272709207E-17   0.5646438758E-01  -0.1316609689E-01  -0.2435962912E-16   0.3500000005E+01  -0.1575698362E-14  -0.3462867972E-15   0.8326654254E-15  -0.6479313889E-15   0.3359948866E-15   0.3048219383E-01  -0.1384109691E-01  -0.1384109691E-01  -0.3572349270E-16   0.2357904023E-15   0.3534386197E-16   0.3500000005E+01
   0.2060964388E+01   0.0000000000E+00   0.9861589031E+00   0.4500000000E-02   0.0000000000E+00  -0.6750000000E-03   0.5646438758E-01   0.0000000000E+00  -0.1316609689E-01   0.3500000005E+01  -0.1770521384E-14  -0.9822812635E-15  -0.5534063970E-15   0.7188531908E-15   0.2194802914E-15   0.3048219383E-01  -0.1384109691E-01  -0.1384109691E-01   0.1391333218E-15   0.1442409706E-15  -0.3541754488E-16   0.3500000005E+01
   0.2060964388E+01   0.9861589031E+00   0.9861589031E+00   0.4500000000E-02  -0.6750000000E-03  -0.6750000000E-03   0.5646438758E-01  -0.1316609689E-01  -0.1316609689E-01   0.3500000004E+01   0.5289577864E-15   0.1229554823E-14  -0.8200923681E-15  -0.2636904073E-14   0.4391122084E-15   0.3048219383E-01  -0.1384109691E-01  -0.1384109691E-01   0.1540987670E-15   0.2335864017E-15  -0.4079094576E-18   0.3500000004E+01
     1     2     3     4     5     6     7     8
     2     9    10     3     6    11    12     7
 VARIABLES = X,Y,Z,DU1,DU2,DU3,U1,U2,U3,S11,S22,S33,S12,S13,S23,E11,E22,E33,E12,E13,E23,SMISES
 ZONE, T="0.6650D+01" F=FEPOINT, I=   12 J=    2 ET=BRICK
   0.0000000000E+00   0.0000000000E+00   0.0000000000E+00   0.0000000000E+00   0.0000000000E+00   0.0000000000E+00   0.0000000000E+00   0.0000000000E+00   0.0000000000E+00   0.4625000007E+01   0.5831978367E-14   0.5415644849E-14  -0.4382684182E-16  -0.1009783412E-14  -0.3028007316E-15   0.3273219384E-01  -0.1451609692E-01  -0.1451609692E-01  -0.1240477111E-17  -0.9841571929E-16  -0.8767399103E-16   0.4625000007E+01
   0.1032732194E+01   0.0000000000E+00  -0.3709088209E-16   0.2250000000E-02   0.0000000000E+00  -0.2143536491E-19   0.3048219379E-01   0.0000000000E+00  -0.3706944673E-16   0.4625000007E+01  -0.1457095964E-14   0.1636157850E-15  -0.6912917756E-15  -0.8605360754E-17   0.5023992794E-15   0.3273219384E-01  -0.1451609692E-01  -0.1451609692E-01  -0.8162434241E-17   0.1510651605E-15   0.4066828633E-16   0.4625000007E+01
   0.1032732194E+01   0.9854839031E+00  -0.1746270677E-16   0.2250000000E-02  -0.6750000000E-03   0.1021140764E-18   0.3048219379E-01  -0.1384109689E-01  -0.1756482084E-16   0.4625000007E+01  -0.4114232556E-15  -0.2871705324E-14  -0.7190991878E-15   0.1038826764E-16  -0.2482730363E-15   0.3273219384E-01  -0.1451609692E-01  -0.1451609692E-01  -0.6255327984E-17   0.1752963692E-15   0.6671624537E-16   0.4625000007E+01
   0.0000000000E+00   0.9854839031E+00  -0.4050928265E-16   0.0000000000E+00  -0.6750000000E-03  -0.1796097415E-17   0.0000000000E+00  -0.1384109689E-01  -0.3871318523E-16   0.4625000007E+01  -0.4557748812E-14  -0.2767052014E-14   0.6851113927E-15   0.6124212325E-15   0.4883124680E-16   0.3273219384E-01  -0.1451609692E-01  -0.1451609692E-01   0.1813966308E-16   0.6265756845E-16  -0.8116074521E-17   0.4625000007E+01
   0.0000000000E+00   0.0000000000E+00   0.9854839031E+00   0.0000000000E+00   0.0000000000E+00  -0.6750000000E-03   0.0000000000E+00   0.0000000000E+00  -0.1384109689E-01   0.4625000007E+01  -0.2509671756E-14  -0.4302895286E-14  -0.1593666793E-15   0.1169009929E-14   0.3037464570E-15   0.3273219384E-01  -0.1451609692E-01  -0.1451609692E-01  -0.2689247639E-17   0.7847888404E-16   0.3977681454E-16   0.4625000007E+01
   0.1032732194E+01   0.0000000000E+00   0.9854839031E+00   0.2250000000E-02   0.0000000000E+00  -0.6750000000E-03   0.3048219379E-01   0.0000000000E+00  -0.1384109689E-01   0.4625000007E+01  -0.2461350055E-14  -0.1750593798E-14   0.1878112304E-15  -0.5741086856E-15  -0.3515510520E-15   0.3273219384E-01  -0.1451609692E-01  -0.1451609692E-01  -0.4461101930E-16   0.2222666528E-15  -0.2596575140E-16   0.4625000007E+01
   0.1032732194E+01   0.9854839031E+00   0.9854839031E+00   0.2250000000E-02  -0.6750000000E-03  -0.6750000000E-03   0.3048219379E-01  -0.1384109689E-01  -0.1384109689E-01   0.4625000006E+01   0.4026550717E-14   0.3386179762E-14  -0.2036921519E-15   0.6544939833E-15  -0.9818589161E-15   0.3273219383E-01  -0.1451609691E-01  -0.1451609691E-01  -0.5054546773E-16   0.1385067316E-15   0.1350377219E-16   0.4625000006E+01
   0.0000000000E+00   0.9854839031E+00   0.9854839031E+00   0.0000000000E+00  -0.6750000000E-03  -0.6750000000E-03   0.0000000000E+00  -0.1384109689E-01  -0.1384109689E-01   0.4625000006E+01   0.1278996757E-14   0.2537427346E-14   0.7787812132E-16  -0.6572137287E-15   0.6180379355E-15   0.3273219383E-01  -0.1451609691E-01  -0.1451609691E-01  -0.2200424402E-16   0.2038122846E-16   0.8509509275E-16   0.4625000006E+01
   0.2065464388E+01   0.0000000000E+00  -0.2528727846E-16   0.4500000000E-02   0.0000000000E+00  -0.4057836352E-18   0.6096438758E-01   0.0000000000E+00  -0.2488149482E-16   0.4625000007E+01   0.2990307653E-14   0.1356714502E-14   0.1513536935E-14   0.1315853572E-14   0.5663925881E-15   0.3273219384E-01  -0.1451609692E-01  -0.1451609692E-01  -0.1648943786E-16   0.1271792553E-15  -0.2367739248E-17   0.4625000007E+01
   0.2065464388E+01   0.9854839031E+00  -0.2727013360E-16   0.4500000000E-02  -0.6750000000E-03   0.1362204730E-17   0.6096438758E-01  -0.1384109689E-01  -0.2863233833E-16   0.4625000006E+01  -0.2287913411E-14  -0.1503320426E-14   0.1148332481E-14  -0.1366010325E-15   0.4040528578E-15   0.3273219383E-01  -0.1451609691E-01  -0.1451609691E-01  -0.3192321410E-16   0.2776233273E-15   0.3043391845E-16   0.4625000006E+01
   0.2065464388E+01   0.0000000000E+00   0.9854839031E+00   0.4500000000E-02   0.0000000000E+00  -0.6750000000E-03   0.6096438758E-01   0.0000000000E+00  -0.1384109689E-01   0.4625000006E+01  -0.1774506905E-14  -0.1055922681E-14  -0.5697028817E-15   0.1253086865E-14   0.2446775635E-15   0.3273219383E-01  -0.1451609691E-01  -0.1451609691E-01   0.1376812274E-15   0.1120410717E-15  -0.4543369783E-16   0.4625000006E+01
   0.2065464388E+01   0.9854839031E+00   0.9854839031E+00   0.4500000000E-02  -0.6750000000E-03  -0.6750000000E-03   0.6096438758E-01  -0.1384109689E-01  -0.1384109689E-01   0.4625000006E+01   0.1191106010E-14   0.2020321651E-14  -0.9638218476E-15  -0.2816829196E-14   0.2466405382E-15   0.3273219383E-01  -0.1451609691E-01  -0.1451609691E-01   0.1526184708E-15   0.2613429369E-15   0.1637397038E-16   0.4625000006E+01
     1     2     3     4     5     6     7     8
     2     9    10     3     6    11    12     7
 VARIABLES = X,Y,Z,DU1,DU2,DU3,U1,U2,U3,S11,S22,S33,S12,S13,S23,E11,E22,E33,E12,E13,E23,SMISES
 ZONE, T="0.6700D+01" F=FEPOINT, I=   12 J=    2 ET=BRICK
   0.0000000000E+00   0.0000000000E+00   0.0000000000E+00   0.0000000000E+00   0.0000000000E+00   0.0000000000E+00   0.0000000000E+00   0.0000000000E+00   0.0000000000E+00   0.5750000009E+01   0.6938215749E-14   0.6954548811E-14  -0.7301442666E-16  -0.2840287498E-15  -0.2955428720E-15   0.3498219384E-01  -0.1519109692E-01  -0.1519109692E-01   0.1345609504E-17  -0.9067729044E-16  -0.7781048113E-16   0.5750000009E+01
   0.1034982194E+01   0.0000000000E+00  -0.3256768029E-16   0.2250000000E-02   0.0000000000E+00   0.4523201806E-17   0.3273219379E-01   0.0000000000E+00  -0.3709088209E-16   0.5750000009E+01  -0.1446207289E-14   0.6552450748E-15  -0.4603008779E-15  -0.5913041270E-15   0.1979467740E-15   0.3498219384E-01  -0.1519109692E-01  -0.1519109692E-01  -0.8200361257E-17   0.1558042000E-15   0.3456165975E-16   0.5750000009E+01
   0.1034982194E+01   0.9848089031E+00  -0.1441788705E-16   0.2250000000E-02  -0.6750000000E-03   0.3044819713E-17   0.3273219379E-01  -0.1451609689E-01  -0.1746270677E-16   0.5750000008E+01   0.1952138337E-15  -0.2168920086E-14  -0.4087012103E-15   0.1002704584E-16  -0.2248735042E-15   0.3498219384E-01  -0.1519109692E-01  -0.1519109692E-01  -0.3923390536E-17   0.1788991163E-15   0.7476512656E-16   0.5750000008E+01
   0.0000000000E+00   0.9848089031E+00  -0.4045771587E-16   0.0000000000E+00  -0.6750000000E-03   0.5156678228E-19   0.0000000000E+00  -0.1451609689E-01  -0.4050928265E-16   0.5750000008E+01  -0.4005163994E-14  -0.2044482233E-14   0.8048293624E-15   0.8170587788E-15   0.6462332605E-15   0.3498219384E-01  -0.1519109692E-01  -0.1519109692E-01   0.2818403780E-16   0.4915243220E-16  -0.8036628514E-17   0.5750000008E+01
   0.0000000000E+00   0.0000000000E+00   0.9848089031E+00   0.0000000000E+00   0.0000000000E+00  -0.6750000000E-03   0.0000000000E+00   0.0000000000E+00  -0.1451609689E-01   0.5750000008E+01  -0.3678323366E-14  -0.5590006319E-14  -0.1732564446E-15   0.1711346891E-14   0.1548149538E-16   0.3498219384E-01  -0.1519109692E-01  -0.1519109692E-01   0.2405962757E-18   0.8091739896E-16   0.2704620034E-16   0.5750000008E+01
   0.1034982194E+01   0.0000000000E+00   0.9848089031E+00   0.2250000000E-02   0.0000000000E+00  -0.6750000000E-03   0.3273219379E-01   0.0000000000E+00  -0.1451609689E-01   0.5750000008E+01  -0.2361216427E-14  -0.2131200785E-14   0.8017117095E-15  -0.1100750869E-14  -0.6483580223E-15   0.3498219384E-01  -0.1519109692E-01  -0.1519109692E-01  -0.4281534109E-16   0.2266959020E-15  -0.3085888055E-16   0.5750000008E+01
   0.1034982194E+01   0.9848089031E+00   0.9848089031E+00   0.2250000000E-02  -0.6750000000E-03  -0.6750000000E-03   0.3273219379E-01  -0.1451609689E-01  -0.1451609689E-01   0.5750000008E+01   0.3723232185E-14   0.2794416826E-14   0.1951939479E-15   0.8152643604E-15  -0.1025853262E-14   0.3498219383E-01  -0.1519109691E-01  -0.1519109691E-01  -0.4169953681E-16   0.1280590511E-15   0.6578993496E-17   0.5750000008E+01
   0.0000000000E+00   0.9848089031E+00   0.9848089031E+00   0.0000000000E+00  -0.6750000000E-03  -0.6750000000E-03   0.0000000000E+00  -0.1451609689E-01  -0.1451609689E-01   0.5750000008E+01   0.1843538039E-14   0.1855494561E-14  -0.4145554748E-16  -0.2492050282E-15   0.8511826780E-15   0.3498219384E-01  -0.1519109691E-01  -0.1519109691E-01  -0.3111534353E-16   0.3856695566E-16   0.9320345530E-16   0.5750000008E+01
   0.2069964388E+01   0.0000000000E+00  -0.1243396261E-16   0.4500000000E-02   0.0000000000E+00   0.1285331585E-16   0.6546438758E-01   0.0000000000E+00  -0.2528727846E-16   0.5750000009E+01   0.2046618225E-14   0.5572473011E-15   0.2641348361E-14   0.1896526334E-14   0.7018385486E-15   0.3498219384E-01  -0.1519109692E-01  -0.1519109692E-01   0.1665499607E-16   0.1557740556E-15  -0.5193124666E-18   0.5750000009E+01
   0.2069964388E+01   0.9848089031E+00  -0.1376251890E-16   0.4500000000E-02  -0.6750000000E-03   0.1350761470E-16   0.6546438758E-01  -0.1451609689E-01  -0.2727013360E-16   0.5750000008E+01  -0.1486453447E-14   0.8963580321E-16   0.2242544557E-14  -0.1106176164E-14   0.6556717162E-15   0.3498219384E-01  -0.1519109692E-01  -0.1519109692E-01   0.1572469253E-16   0.2652870200E-15   0.2424052076E-16   0.5750000008E+01
   0.2069964388E+01   0.0000000000E+00   0.9848089031E+00   0.4500000000E-02   0.0000000000E+00  -0.6750000000E-03   0.6546438758E-01   0.0000000000E+00  -0.1451609689E-01   0.5750000008E+01  -0.9309511520E-15  -0.2862038030E-15  -0.1274029477E-14   0.1917218650E-14   0.3714876574E-15   0.3498219384E-01  -0.1519109692E-01  -0.1519109692E-01   0.1180248802E-15   0.1246893354E-15  -0.4168258504E-16   0.5750000008E+01
   0.2069964388E+01   0.9848089031E+00   0.9848089031E+00   0.4500000000E-02  -0.6750000000E-03  -0.6750000000E-03   0.6546438758E-01  -0.1451609689E-01  -0.1451609689E-01   0.5750000007E+01  -0.5054354486E-15   0.6087730292E-15  -0.1802646415E-14  -0.3551205038E-14   0.4894713131E-15   0.3498219383E-01  -0.1519109691E-01  -0.1519109691E-01   0.1255168665E-15   0.2145377310E-15   0.3873426695E-17   0.5750000007E+01
     1     2     3     4     5     6     7     8
     2     9    10     3     6    11    12     7
 VARIABLES = X,Y,Z,DU1,DU2,DU3,U1,U2,U3,S11,S22,S33,S12,S13,S23,E11,E22,E33,E12,E13,E23,SMISES
 ZONE, T="0.6750D+01" F=FEPOINT, I=   12 J=    2 ET=BRICK
   0.0000000000E+00   0.0000000000E+00   0.0000000000E+00   0.0000000000E+00   0.0000000000E+00   0.0000000000E+00   0.0000000000E+00   0.0000000000E+00   0.0000000000E+00   0.6875000011E+01   0.6624008529E-14   0.7413512073E-14  -0.1010451660E-15  -0.5556541329E-15  -0.1872683784E-15   0.3723219385E-01  -0.1586609692E-01  -0.1586609692E-01  -0.1405952794E-17  -0.9029118398E-16  -0.8171121677E-16   0.6875000011E+01
   0.1037232194E+01   0.0000000000E+00  -0.3446871533E-16   0.2250000000E-02   0.0000000000E+00  -0.1901035047E-17   0.3498219379E-01   0.0000000000E+00  -0.3256768029E-16   0.6875000011E+01  -0.1830799798E-14   0.2300155989E-15  -0.9084849409E-15  -0.7599077810E-15   0.3318476554E-15   0.3723219385E-01  -0.1586609692E-01  -0.1586609692E-01  -0.1524388638E-16   0.1427615957E-15   0.3365543776E-16   0.6875000011E+01
   0.1037232194E+01   0.9841339031E+00  -0.1554478636E-16   0.2250000000E-02  -0.6750000000E-03  -0.1126899310E-17   0.3498219379E-01  -0.1519109689E-01  -0.1441788705E-16   0.6875000010E+01   0.2917579185E-17  -0.2472238652E-14  -0.9275982679E-15   0.4190858477E-15  -0.1710531732E-15   0.3723219384E-01  -0.1586609692E-01  -0.1586609692E-01  -0.4529417769E-17   0.1702282387E-15   0.7800729082E-16   0.6875000010E+01
   0.0000000000E+00   0.9841339031E+00  -0.4004243042E-16   0.0000000000E+00  -0.6750000000E-03   0.4152854464E-18   0.0000000000E+00  -0.1519109689E-01  -0.4045771587E-16   0.6875000010E+01  -0.4504764324E-14  -0.3267186205E-14   0.6722335812E-15   0.6898666267E-15   0.3858936549E-15   0.3723219384E-01  -0.1586609692E-01  -0.1586609692E-01   0.2126737097E-16   0.6819283133E-16  -0.8507328393E-17   0.6875000010E+01
   0.0000000000E+00   0.0000000000E+00   0.9841339031E+00   0.0000000000E+00   0.0000000000E+00  -0.6750000000E-03   0.0000000000E+00   0.0000000000E+00  -0.1519109689E-01   0.6875000010E+01  -0.3495456994E-14  -0.5710458430E-14  -0.1844296591E-15   0.1346268427E-14   0.1573353568E-15   0.3723219384E-01  -0.1586609692E-01  -0.1586609692E-01  -0.6824489291E-18   0.7528201013E-16   0.3359814343E-16   0.6875000010E+01
   0.1037232194E+01   0.0000000000E+00   0.9841339031E+00   0.2250000000E-02   0.0000000000E+00  -0.6750000000E-03   0.3498219379E-01   0.0000000000E+00  -0.1519109689E-01   0.6875000010E+01  -0.2764668587E-14  -0.2331468049E-14   0.1086631152E-14  -0.1266209768E-14  -0.4062944342E-15   0.3723219384E-01  -0.1586609692E-01  -0.1586609692E-01  -0.3398197026E-16   0.2289553581E-15  -0.2711634554E-16   0.6875000010E+01
   0.1037232194E+01   0.9841339031E+00   0.9841339031E+00   0.2250000000E-02  -0.6750000000E-03  -0.6750000000E-03   0.3498219379E-01  -0.1519109689E-01  -0.1519109689E-01   0.6875000009E+01   0.4511276853E-14   0.3804506084E-14   0.5048452867E-15   0.1230993683E-14  -0.9402569515E-15   0.3723219384E-01  -0.1586609692E-01  -0.1586609692E-01  -0.5047066245E-16   0.1385648408E-15   0.1014353185E-16   0.6875000009E+01
   0.0000000000E+00   0.9841339031E+00   0.9841339031E+00   0.0000000000E+00  -0.6750000000E-03  -0.6750000000E-03   0.0000000000E+00  -0.1519109689E-01  -0.1519109689E-01   0.6875000009E+01   0.1763722893E-14   0.2295598184E-14  -0.4267988338E-16  -0.4273733684E-15   0.8710582234E-15   0.3723219384E-01  -0.1586609692E-01  -0.1586609692E-01  -0.2603210074E-16   0.1982518522E-16   0.9394339863E-16   0.6875000009E+01
   0.2074464388E+01   0.0000000000E+00  -0.1724114085E-16   0.4500000000E-02   0.0000000000E+00  -0.4807178241E-17   0.6996438758E-01   0.0000000000E+00  -0.1243396261E-16   0.6875000010E+01   0.2783137256E-14   0.9646849418E-15   0.1484523537E-14   0.1198587023E-14   0.5331394877E-15   0.3723219384E-01  -0.1586609692E-01  -0.1586609692E-01  -0.1825408148E-16   0.1776294470E-15  -0.3662641668E-17   0.6875000010E+01
   0.2074464388E+01   0.9841339031E+00  -0.1951783219E-16   0.4500000000E-02  -0.6750000000E-03  -0.5755313293E-17   0.6996438758E-01  -0.1519109689E-01  -0.1376251890E-16   0.6875000010E+01  -0.2178349945E-14  -0.1395749721E-14   0.1119217236E-14  -0.1926390833E-15   0.3888710745E-15   0.3723219384E-01  -0.1586609692E-01  -0.1586609692E-01  -0.3698480276E-16   0.3053711457E-15   0.2477182757E-16   0.6875000010E+01
   0.2074464388E+01   0.0000000000E+00   0.9841339031E+00   0.4500000000E-02   0.0000000000E+00  -0.6750000000E-03   0.6996438758E-01   0.0000000000E+00  -0.1519109689E-01   0.6875000010E+01  -0.7292250157E-15  -0.3203720832E-17  -0.2602494907E-15   0.1127964371E-14   0.1644521773E-16   0.3723219384E-01  -0.1586609692E-01  -0.1586609692E-01   0.1450416135E-15   0.6876445686E-16  -0.4271598381E-16   0.6875000010E+01
   0.2074464388E+01   0.9841339031E+00   0.9841339031E+00   0.4500000000E-02  -0.6750000000E-03  -0.6750000000E-03   0.6996438758E-01  -0.1519109689E-01  -0.1519109689E-01   0.6875000009E+01   0.3435647149E-15   0.1241172914E-14  -0.6789798387E-15  -0.2859245438E-14   0.1379474388E-15   0.3723219384E-01  -0.1586609691E-01  -0.1586609691E-01   0.1560182989E-15   0.2706812619E-15   0.8512353284E-17   0.6875000009E+01
     1     2     3     4     5     6     7     8
     2     9    10     3     6    11    12     7
 VARIABLES = X,Y,Z,DU1,DU2,DU3,U1,U2,U3,S11,S22,S33,S12,S13,S23,E11,E22,E33,E12,E13,E23,SMISES
 ZONE, T="0.6800D+01" F=FEPOINT, I=   12 J=    2 ET=BRICK
   0.0000000000E+00   0.0000000000E+00   0.0000000000E+00   0.0000000000E+00   0.0000000000E+00   0.0000000000E+00   0.0000000000E+00   0.0000000000E+00   0.0000000000E+00   0.8000000013E+01   0.6174475073E-14   0.7061585567E-14  -0.8059138551E-16  -0.7184206605E-15  -0.6555014528E-16   0.3948219385E-01  -0.1654109692E-01  -0.1654109692E-01  -0.8526523865E-17  -0.9496699382E-16  -0.7973819867E-16   0.8000000013E+01
   0.1039482194E+01   0.0000000000E+00  -0.3512115059E-16   0.2250000000E-02   0.0000000000E+00  -0.6524352593E-18   0.3723219379E-01   0.0000000000E+00  -0.3446871533E-16   0.8000000012E+01  -0.1597866533E-14   0.8924499549E-16  -0.1981013332E-15  -0.5681616061E-16   0.4553161677E-15   0.3948219385E-01  -0.1654109692E-01  -0.1654109692E-01   0.7871556164E-17   0.1591866235E-15   0.4046631605E-16   0.8000000012E+01
   0.1039482194E+01   0.9834589031E+00  -0.1557609579E-16   0.2250000000E-02  -0.6750000000E-03  -0.3130943103E-19   0.3723219379E-01  -0.1586609689E-01  -0.1554478636E-16   0.8000000011E+01   0.9535101675E-15  -0.2331468049E-14  -0.3503981516E-15   0.9486784324E-16  -0.1940956411E-15   0.3948219384E-01  -0.1654109692E-01  -0.1654109692E-01   0.6037269579E-17   0.1619312797E-15   0.6530404736E-16   0.8000000011E+01
   0.0000000000E+00   0.9834589031E+00  -0.3946320072E-16   0.0000000000E+00  -0.6750000000E-03   0.5792297021E-18   0.0000000000E+00  -0.1586609689E-01  -0.4004243042E-16   0.8000000012E+01  -0.3737038112E-14  -0.2915259699E-14   0.6614680956E-15   0.5550346540E-15   0.2794804707E-15   0.3948219385E-01  -0.1654109692E-01  -0.1654109692E-01   0.2747392155E-16   0.5549077892E-16  -0.1379139884E-16   0.8000000012E+01
   0.0000000000E+00   0.0000000000E+00   0.9834589031E+00   0.0000000000E+00   0.0000000000E+00  -0.6750000000E-03   0.0000000000E+00   0.0000000000E+00  -0.1586609689E-01   0.8000000012E+01  -0.3496915799E-14  -0.4467435958E-14  -0.2008722020E-15   0.1182291892E-14   0.9644097909E-16   0.3948219385E-01  -0.1654109692E-01  -0.1654109692E-01   0.5241751027E-17   0.6618338026E-16   0.3157031503E-16   0.8000000012E+01
   0.1039482194E+01   0.0000000000E+00   0.9834589031E+00   0.2250000000E-02   0.0000000000E+00  -0.6750000000E-03   0.3723219379E-01   0.0000000000E+00  -0.1586609689E-01   0.8000000011E+01  -0.2583261016E-14  -0.1665334333E-14   0.7728902149E-15  -0.6176291753E-15  -0.4696927138E-15   0.3948219384E-01  -0.1654109692E-01  -0.1654109692E-01  -0.5664056326E-16   0.2430873252E-15  -0.2189713768E-16   0.8000000011E+01
   0.1039482194E+01   0.9834589031E+00   0.9834589031E+00   0.2250000000E-02  -0.6750000000E-03  -0.6750000000E-03   0.3723219379E-01  -0.1586609689E-01  -0.1586609689E-01   0.8000000010E+01   0.3834254496E-14   0.2753779859E-14   0.2003397137E-15   0.9658922191E-15  -0.1133630029E-14   0.3948219384E-01  -0.1654109692E-01  -0.1654109692E-01  -0.6068582715E-16   0.1134712162E-15   0.8108245891E-17   0.8000000010E+01
   0.0000000000E+00   0.9834589031E+00   0.9834589031E+00   0.0000000000E+00  -0.6750000000E-03  -0.6750000000E-03   0.0000000000E+00  -0.1586609689E-01  -0.1586609689E-01   0.8000000011E+01   0.1769167229E-14   0.1244871959E-14   0.1989111845E-16  -0.7044419567E-15   0.5860663997E-15   0.3948219384E-01  -0.1654109692E-01  -0.1654109692E-01  -0.2426832973E-16   0.2929899641E-16   0.1138246189E-15   0.8000000011E+01
   0.2078964388E+01   0.0000000000E+00  -0.1832945157E-16   0.4500000000E-02   0.0000000000E+00  -0.1088310719E-17   0.7446438758E-01   0.0000000000E+00  -0.1724114085E-16   0.8000000012E+01   0.3032403438E-14   0.7535290336E-15   0.1822901463E-14   0.1448530073E-14   0.6157244827E-15   0.3948219385E-01  -0.1654109692E-01  -0.1654109692E-01  -0.1594769994E-17   0.1335116821E-15  -0.1291926373E-17   0.8000000012E+01
   0.2078964388E+01   0.9834589031E+00  -0.2020548335E-16   0.4500000000E-02  -0.6750000000E-03  -0.6876511551E-18   0.7446438758E-01  -0.1586609689E-01  -0.1951783219E-16   0.8000000011E+01  -0.2198668421E-14  -0.4154087946E-15   0.1296855211E-14  -0.9477594186E-15   0.4174910879E-15   0.3948219384E-01  -0.1654109692E-01  -0.1654109692E-01  -0.1498315923E-16   0.2527769761E-15   0.2539974524E-16   0.8000000011E+01
   0.2078964388E+01   0.0000000000E+00   0.9834589031E+00   0.4500000000E-02   0.0000000000E+00  -0.6750000000E-03   0.7446438758E-01   0.0000000000E+00  -0.1586609689E-01   0.8000000011E+01  -0.1518728511E-14  -0.1954999671E-15  -0.6919423173E-15   0.1516872606E-14   0.3358330299E-15   0.3948219384E-01  -0.1654109692E-01  -0.1654109692E-01   0.1649513858E-15   0.1241844559E-15  -0.4914479992E-16   0.8000000011E+01
   0.2078964388E+01   0.9834589031E+00   0.9834589031E+00   0.4500000000E-02  -0.6750000000E-03  -0.6750000000E-03   0.7446438758E-01  -0.1586609689E-01  -0.1586609689E-01   0.8000000010E+01  -0.3497907052E-15   0.1241172914E-14  -0.1448872948E-14  -0.3201916318E-14   0.4053501202E-15   0.3948219384E-01  -0.1654109692E-01  -0.1654109692E-01   0.1529345761E-15   0.2543782866E-15   0.3088061163E-17   0.8000000010E+01
     1     2     3     4     5     6     7     8
     2     9    10     3     6    11    12     7
 VARIABLES = X,Y,Z,DU1,DU2,DU3,U1,U2,U3,S11,S22,S33,S12,S13,S23,E11,E22,E33,E12,E13,E23,SMISES
 ZONE, T="0.6850D+01" F=FEPOINT, I=   12 J=    2 ET=BRICK
   0.0000000000E+00   0.0000000000E+00   0.0000000000E+00   0.0000000000E+00   0.0000000000E+00   0.0000000000E+00   0.0000000000E+00   0.0000000000E+00   0.0000000000E+00   0.9125000014E+01   0.6452030734E-14   0.5760134339E-14  -0.4116621159E-16  -0.1187691039E-14  -0.1700970258E-15   0.4173219385E-01  -0.1721609692E-01  -0.1721609692E-01   0.4989608418E-17  -0.8465660506E-16  -0.8038720151E-16   0.9125000014E+01
   0.1041732194E+01   0.0000000000E+00  -0.3835223538E-16   0.2250000000E-02   0.0000000000E+00  -0.3231084791E-17   0.3948219379E-01   0.0000000000E+00  -0.3512115059E-16   0.9125000014E+01  -0.2256029274E-14   0.7038530172E-15  -0.1027501951E-14  -0.5766547862E-15   0.6520758111E-15   0.4173219385E-01  -0.1721609692E-01  -0.1721609692E-01  -0.2942898123E-16   0.1425909921E-15   0.4995061767E-16   0.9125000014E+01
   0.1041732194E+01   0.9827839031E+00  -0.1782126900E-16   0.2250000000E-02  -0.6750000000E-03  -0.2245173203E-17   0.3948219379E-01  -0.1654109689E-01  -0.1557609579E-16   0.9125000013E+01  -0.1946875626E-14  -0.4240624201E-14  -0.9110451429E-15   0.6162527173E-15   0.3860852395E-16   0.4173219385E-01  -0.1721609692E-01  -0.1721609692E-01  -0.1286937342E-16   0.1585075087E-15   0.5491886756E-16   0.9125000013E+01
   0.0000000000E+00   0.9827839031E+00  -0.4004456026E-16   0.0000000000E+00  -0.6750000000E-03  -0.5813595440E-18   0.0000000000E+00  -0.1654109689E-01  -0.3946320072E-16   0.9125000013E+01  -0.3914460287E-14  -0.2556430058E-14   0.3415921583E-16   0.5769471953E-15  -0.4588110586E-16   0.4173219385E-01  -0.1721609692E-01  -0.1721609692E-01   0.1845667575E-16   0.5287743210E-16  -0.8237872273E-17   0.9125000013E+01
   0.0000000000E+00   0.0000000000E+00   0.9827839031E+00   0.0000000000E+00   0.0000000000E+00  -0.6750000000E-03   0.0000000000E+00   0.0000000000E+00  -0.1654109689E-01   0.9125000013E+01  -0.3468235370E-14  -0.4582443771E-14  -0.2351974070E-15   0.8444527777E-15   0.4192436409E-15   0.4173219385E-01  -0.1721609692E-01  -0.1721609692E-01  -0.1543546785E-17   0.6862306679E-16   0.3474314754E-16   0.9125000013E+01
   0.1041732194E+01   0.0000000000E+00   0.9827839031E+00   0.2250000000E-02   0.0000000000E+00  -0.6750000000E-03   0.3948219379E-01   0.0000000000E+00  -0.1654109689E-01   0.9125000013E+01  -0.2613009342E-14  -0.2139171751E-14   0.1165539392E-14  -0.9912703032E-15  -0.2027180117E-16   0.4173219385E-01  -0.1721609692E-01  -0.1721609692E-01  -0.4863409435E-16   0.2124146400E-15  -0.2939131742E-16   0.9125000013E+01
   0.1041732194E+01   0.9827839031E+00   0.9827839031E+00   0.2250000000E-02  -0.6750000000E-03  -0.6750000000E-03   0.3948219379E-01  -0.1654109689E-01  -0.1654109689E-01   0.9125000012E+01   0.4892951697E-14   0.4906757917E-14   0.6421379171E-15   0.1140542602E-14  -0.6067297434E-15   0.4173219384E-01  -0.1721609692E-01  -0.1721609692E-01  -0.6345880434E-16   0.1336438593E-15   0.1424213881E-16   0.9125000012E+01
   0.0000000000E+00   0.9827839031E+00   0.9827839031E+00   0.0000000000E+00  -0.6750000000E-03  -0.6750000000E-03   0.0000000000E+00  -0.1654109689E-01  -0.1654109689E-01   0.9125000012E+01   0.1675936722E-14   0.2635568278E-14  -0.8418143212E-16  -0.6177958538E-15   0.6759446568E-15   0.4173219384E-01  -0.1721609692E-01  -0.1721609692E-01  -0.2325634359E-16   0.3154941127E-16   0.7750543736E-16   0.9125000012E+01
   0.2083464388E+01   0.0000000000E+00  -0.2645348517E-16   0.4500000000E-02   0.0000000000E+00  -0.8124033601E-17   0.7896438758E-01   0.0000000000E+00  -0.1832945157E-16   0.9125000014E+01   0.6410612215E-14   0.1745826442E-14  -0.1897599543E-14  -0.5904375938E-15   0.2093226414E-16   0.4173219385E-01  -0.1721609692E-01  -0.1721609692E-01  -0.4295703073E-16   0.1405537386E-15  -0.1393171653E-16   0.9125000014E+01
   0.2083464388E+01   0.9827839031E+00  -0.3139006750E-16   0.4500000000E-02  -0.6750000000E-03  -0.1118458415E-16   0.7896438758E-01  -0.1654109689E-01  -0.2020548335E-16   0.9125000013E+01  -0.2849927916E-14  -0.2491098463E-14  -0.1347792029E-14   0.1541709474E-14  -0.6628898217E-15   0.4173219385E-01  -0.1721609692E-01  -0.1721609692E-01  -0.4665360646E-16   0.2541257929E-15   0.3302074828E-16   0.9125000013E+01
   0.2083464388E+01   0.0000000000E+00   0.9827839031E+00   0.4500000000E-02   0.0000000000E+00  -0.6750000000E-03   0.7896438758E-01   0.0000000000E+00  -0.1654109689E-01   0.9125000013E+01  -0.1963885401E-14  -0.1591249578E-14   0.6920239953E-15  -0.4126586753E-15   0.3108548882E-16   0.4173219385E-01  -0.1721609692E-01  -0.1721609692E-01   0.1794270993E-15   0.1468096710E-15  -0.4058286483E-16   0.9125000013E+01
   0.2083464388E+01   0.9827839031E+00   0.9827839031E+00   0.4500000000E-02  -0.6750000000E-03  -0.6750000000E-03   0.7896438758E-01  -0.1654109689E-01  -0.1654109689E-01   0.9125000012E+01   0.1503854393E-14   0.2618062847E-14   0.4250789026E-15  -0.1139601793E-14  -0.4794214877E-15   0.4173219384E-01  -0.1721609692E-01  -0.1721609692E-01   0.2018729606E-15   0.2675157485E-15  -0.1398760836E-16   0.9125000012E+01
     1     2     3     4     5     6     7     8
     2     9    10     3     6    11    12     7
 VARIABLES = X,Y,Z,DU1,DU2,DU3,U1,U2,U3,S11,S22,S33,S12,S13,S23,E11,E22,E33,E12,E13,E23,SMISES
 ZONE, T="0.6900D+01" F=FEPOINT, I=   12 J=    2 ET=BRICK
   0.0000000000E+00   0.0000000000E+00   0.0000000000E+00   0.0000000000E+00   0.0000000000E+00   0.0000000000E+00   0.0000000000E+00   0.0000000000E+00   0.0000000000E+00   0.1024999970E+02   0.1560719258E-06   0.1560719243E-06   0.1995952915E-16  -0.1292566528E-14   0.8228985167E-15   0.4905849249E-01  -0.2042924624E-01  -0.2042924624E-01   0.7630306287E-17  -0.1125192463E-15  -0.6317024852E-16   0.1024999955E+02
   0.1049058492E+01   0.0000000000E+00  -0.4185521941E-16   0.7326298626E-02   0.0000000000E+00  -0.3502984021E-17   0.4173219379E-01   0.0000000000E+00  -0.3835223538E-16   0.1024999970E+02   0.1560719182E-06   0.1560719189E-06   0.7643508216E-16   0.9573718657E-15   0.7248754866E-15   0.4905849249E-01  -0.2042924624E-01  -0.2042924624E-01  -0.2972278964E-16   0.1685350720E-15   0.3879251893E-16   0.1024999955E+02
   0.1049058492E+01   0.9795707538E+00  -0.2071719708E-16   0.7326298626E-02  -0.3213149313E-02  -0.2895928082E-17   0.4173219379E-01  -0.1721609689E-01  -0.1782126900E-16   0.1024999970E+02   0.1560719217E-06   0.1560719189E-06  -0.2514986473E-15  -0.2962781009E-15  -0.9132221575E-15   0.4905849248E-01  -0.2042924624E-01  -0.2042924624E-01  -0.2442914199E-16   0.1615778716E-15   0.5732329558E-16   0.1024999955E+02
   0.0000000000E+00   0.9795707538E+00  -0.3327093751E-16   0.0000000000E+00  -0.3213149313E-02   0.6773622752E-17   0.0000000000E+00  -0.1721609689E-01  -0.4004456026E-16   0.1024999970E+02   0.1560719185E-06   0.1560719166E-06   0.6325747241E-16  -0.7260790503E-15  -0.3517198052E-15   0.4905849249E-01  -0.2042924624E-01  -0.2042924624E-01   0.2732359984E-16   0.4670961352E-16  -0.2043648062E-16   0.1024999955E+02
   0.0000000000E+00   0.0000000000E+00   0.9795707538E+00   0.0000000000E+00   0.0000000000E+00  -0.3213149313E-02   0.0000000000E+00   0.0000000000E+00  -0.1721609689E-01   0.1024999970E+02   0.1560719186E-06   0.1560719186E-06  -0.2452117425E-15   0.3566163060E-15   0.4711705777E-15   0.4905849249E-01  -0.2042924624E-01  -0.2042924624E-01  -0.1062543792E-16   0.7822036929E-16   0.2822932999E-16   0.1024999955E+02
   0.1049058492E+01   0.0000000000E+00   0.9795707538E+00   0.7326298626E-02   0.0000000000E+00  -0.3213149313E-02   0.4173219379E-01   0.0000000000E+00  -0.1721609689E-01   0.1024999970E+02   0.1560719223E-06   0.1560719240E-06   0.6975812540E-15   0.8897169134E-16  -0.7282926489E-16   0.4905849248E-01  -0.2042924624E-01  -0.2042924624E-01  -0.4049847861E-16   0.2159920936E-15  -0.7623171762E-17   0.1024999955E+02
   0.1049058492E+01   0.9795707538E+00   0.9795707538E+00   0.7326298626E-02  -0.3213149313E-02  -0.3213149313E-02   0.4173219379E-01  -0.1721609689E-01  -0.1721609689E-01   0.1024999970E+02   0.1560719232E-06   0.1560719241E-06   0.5858808977E-15   0.1146571177E-14  -0.1370339229E-14   0.4905849248E-01  -0.2042924623E-01  -0.2042924623E-01  -0.5496915334E-16   0.1612809218E-15  -0.1239126543E-16   0.1024999955E+02
   0.0000000000E+00   0.9795707538E+00   0.9795707538E+00   0.0000000000E+00  -0.3213149313E-02  -0.3213149313E-02   0.0000000000E+00  -0.1721609689E-01  -0.1721609689E-01   0.1024999970E+02   0.1560719271E-06   0.1560719278E-06   0.6309036007E-17  -0.1263495856E-14  -0.4496686982E-15   0.4905849248E-01  -0.2042924623E-01  -0.2042924623E-01  -0.2328978373E-16   0.6808558020E-17   0.8159973802E-16   0.1024999955E+02
   0.2098116985E+01   0.0000000000E+00  -0.4363973216E-16   0.1465259725E-01   0.0000000000E+00  -0.1718624699E-16   0.8346438758E-01   0.0000000000E+00  -0.2645348517E-16   0.1024999970E+02   0.1560719244E-06   0.1560719221E-06   0.1145576893E-14   0.1994108835E-14   0.5510413147E-15   0.4905849249E-01  -0.2042924624E-01  -0.2042924624E-01   0.1737570193E-16   0.2261194104E-15  -0.4908586593E-17   0.1024999955E+02
   0.2098116985E+01   0.9795707538E+00  -0.4477124714E-16   0.1465259725E-01  -0.3213149313E-02  -0.1338117964E-16   0.8346438758E-01  -0.1721609689E-01  -0.3139006750E-16   0.1024999970E+02   0.1560719215E-06   0.1560719233E-06   0.3491480736E-15  -0.5052135435E-15   0.7032134221E-15   0.4905849248E-01  -0.2042924624E-01  -0.2042924624E-01  -0.4238329394E-17   0.2763567680E-15   0.3682177259E-16   0.1024999955E+02
   0.2098116985E+01   0.0000000000E+00   0.9795707538E+00   0.1465259725E-01   0.0000000000E+00  -0.3213149313E-02   0.8346438758E-01   0.0000000000E+00  -0.1721609689E-01   0.1024999970E+02   0.1560719240E-06   0.1560719235E-06  -0.1854587199E-14   0.2011647609E-14   0.6998857920E-15   0.4905849248E-01  -0.2042924624E-01  -0.2042924624E-01   0.1323267977E-15   0.1461581911E-15  -0.3570273065E-16   0.1024999955E+02
   0.2098116985E+01   0.9795707538E+00   0.9795707538E+00   0.1465259725E-01  -0.3213149313E-02  -0.3213149313E-02   0.8346438758E-01  -0.1721609689E-01  -0.1721609689E-01   0.1024999970E+02   0.1560719184E-06   0.1560719196E-06  -0.9863531660E-15  -0.3627129278E-14   0.9632852577E-15   0.4905849248E-01  -0.2042924623E-01  -0.2042924623E-01   0.1573433905E-15   0.1918130505E-15   0.1076371110E-16   0.1024999954E+02
     1     2     3     4     5     6     7     8
     2     9    10     3     6    11    12     7
 VARIABLES = X,Y,Z,DU1,DU2,DU3,U1,U2,U3,S11,S22,S33,S12,S13,S23,E11,E22,E33,E12,E13,E23,SMISES
 ZONE, T="0.6950D+01" F=FEPOINT, I=   12 J=    2 ET=BRICK
   0.0000000000E+00   0.0000000000E+00   0.0000000000E+00   0.0000000000E+00   0.0000000000E+00   0.0000000000E+00   0.0000000000E+00   0.0000000000E+00   0.0000000000E+00   0.1137499452E+02   0.2751246712E-05   0.2751246711E-05   0.1380282245E-16  -0.1441118987E-14   0.9377295245E-16   0.7583145685E-01  -0.3336572842E-01  -0.3336572842E-01  -0.4871918271E-17  -0.1123733379E-15  -0.6091208875E-16   0.1137499176E+02
   0.1075831457E+01   0.0000000000E+00  -0.4783383589E-16   0.2677296432E-01   0.0000000000E+00  -0.5978616480E-17   0.4905849241E-01   0.0000000000E+00  -0.4185521941E-16   0.1137499452E+02   0.2751246696E-05   0.2751246694E-05  -0.1215644889E-14  -0.2176660196E-15   0.9438682396E-15   0.7583145685E-01  -0.3336572842E-01  -0.3336572842E-01  -0.4478944727E-16   0.1373148982E-15   0.5347704719E-16   0.1137499176E+02
   0.1075831457E+01   0.9666342716E+00  -0.2312916024E-16   0.2677296432E-01  -0.1293648216E-01  -0.2411963162E-17   0.4905849241E-01  -0.2042924621E-01  -0.2071719708E-16   0.1137499451E+02   0.2751246699E-05   0.2751246697E-05  -0.1048491269E-14   0.2518945597E-16  -0.1085622166E-14   0.7583145684E-01  -0.3336572841E-01  -0.3336572841E-01  -0.5708074002E-16   0.1696826469E-15   0.2830173529E-16   0.1137499176E+02
   0.0000000000E+00   0.9666342716E+00  -0.3389415715E-16   0.0000000000E+00  -0.1293648216E-01  -0.6232196393E-18   0.0000000000E+00  -0.2042924621E-01  -0.3327093751E-16   0.1137499451E+02   0.2751246688E-05   0.2751246688E-05   0.9088529604E-15  -0.4289646906E-16  -0.4993820335E-15   0.7583145684E-01  -0.3336572842E-01  -0.3336572842E-01   0.5965929837E-16   0.4025315466E-16  -0.3415308006E-16   0.1137499176E+02
   0.0000000000E+00   0.0000000000E+00   0.9666342716E+00   0.0000000000E+00   0.0000000000E+00  -0.1293648216E-01   0.0000000000E+00   0.0000000000E+00  -0.2042924621E-01   0.1137499451E+02   0.2751246691E-05   0.2751246689E-05   0.1603365443E-16   0.6944406240E-15   0.7142323247E-15   0.7583145684E-01  -0.3336572842E-01  -0.3336572842E-01  -0.1574468265E-17   0.5979046923E-16   0.1110811212E-16   0.1137499176E+02
   0.1075831457E+01   0.0000000000E+00   0.9666342716E+00   0.2677296432E-01   0.0000000000E+00  -0.1293648216E-01   0.4905849241E-01   0.0000000000E+00  -0.2042924621E-01   0.1137499451E+02   0.2751246699E-05   0.2751246702E-05  -0.2647513049E-15  -0.9375757364E-15  -0.3603014778E-16   0.7583145684E-01  -0.3336572841E-01  -0.3336572841E-01  -0.6461733924E-16   0.1898955093E-15  -0.6435936560E-17   0.1137499176E+02
   0.1075831457E+01   0.9666342716E+00   0.9666342716E+00   0.2677296432E-01  -0.1293648216E-01  -0.1293648216E-01   0.4905849241E-01  -0.2042924621E-01  -0.2042924621E-01   0.1137499451E+02   0.2751246702E-05   0.2751246702E-05   0.5172129196E-15   0.1708557700E-15  -0.8320746352E-15   0.7583145683E-01  -0.3336572841E-01  -0.3336572841E-01  -0.3961808338E-16   0.1616539270E-15  -0.2239344537E-16   0.1137499176E+02
   0.0000000000E+00   0.9666342716E+00   0.9666342716E+00   0.0000000000E+00  -0.1293648216E-01  -0.1293648216E-01   0.0000000000E+00  -0.2042924621E-01  -0.2042924621E-01   0.1137499451E+02   0.2751246705E-05   0.2751246708E-05  -0.9648461488E-16  -0.6103443017E-15  -0.4517918980E-15   0.7583145684E-01  -0.3336572841E-01  -0.3336572841E-01  -0.3474801166E-16   0.2235767834E-16   0.8558930822E-16   0.1137499176E+02
   0.2151662913E+01   0.0000000000E+00  -0.6392227252E-16   0.5354592864E-01   0.0000000000E+00  -0.2028254036E-16   0.9811698483E-01   0.0000000000E+00  -0.4363973216E-16   0.1137499451E+02   0.2751246690E-05   0.2751246689E-05   0.1110646509E-15   0.1568864448E-14   0.8756584928E-15   0.7583145685E-01  -0.3336572842E-01  -0.3336572842E-01  -0.9641301668E-17   0.1819121883E-15   0.1028740740E-16   0.1137499176E+02
   0.2151662913E+01   0.9666342716E+00  -0.5847752302E-16   0.5354592864E-01  -0.1293648216E-01  -0.1370627589E-16   0.9811698483E-01  -0.2042924621E-01  -0.4477124714E-16   0.1137499451E+02   0.2751246702E-05   0.2751246701E-05  -0.9780606049E-15   0.3936334645E-15   0.5198559807E-15   0.7583145684E-01  -0.3336572841E-01  -0.3336572841E-01  -0.4917873313E-16   0.2899614774E-15   0.4398739247E-16   0.1137499176E+02
   0.2151662913E+01   0.0000000000E+00   0.9666342716E+00   0.5354592864E-01   0.0000000000E+00  -0.1293648216E-01   0.9811698483E-01   0.0000000000E+00  -0.2042924621E-01   0.1137499451E+02   0.2751246712E-05   0.2751246711E-05  -0.1156893550E-14   0.3194888506E-14   0.5287914406E-15   0.7583145684E-01  -0.3336572841E-01  -0.3336572841E-01   0.1322902461E-15   0.2119706641E-15  -0.2369308203E-16   0.1137499176E+02
   0.2151662913E+01   0.9666342716E+00   0.9666342716E+00   0.5354592864E-01  -0.1293648216E-01  -0.1293648216E-01   0.9811698483E-01  -0.2042924621E-01  -0.2042924621E-01   0.1137499451E+02   0.2751246696E-05   0.2751246697E-05  -0.2372364675E-15  -0.1510170552E-14   0.3805829932E-15   0.7583145683E-01  -0.3336572841E-01  -0.3336572841E-01   0.1658859305E-15   0.1635134352E-15  -0.8012321221E-17   0.1137499176E+02
     1     2     3     4     5     6     7     8
     2     9    10     3     6    11    12     7
 VARIABLES = X,Y,Z,DU1,DU2,DU3,U1,U2,U3,S11,S22,S33,S12,S13,S23,E11,E22,E33,E12,E13,E23,SMISES
 ZONE, T="0.7000D+01" F=FEPOINT, I=   12 J=    2 ET=BRICK
   0.0000000000E+00   0.0000000000E+00   0.0000000000E+00   0.0000000000E+00   0.0000000000E+00   0.0000000000E+00   0.0000000000E+00   0.0000000000E+00   0.0000000000E+00   0.1249998835E+02   0.5835708257E-05   0.5835708255E-05   0.5950578437E-16  -0.1330172998E-14  -0.6062628289E-15   0.1045517787E+00  -0.4727588932E-01  -0.4727588932E-01   0.9402439756E-17  -0.7837681555E-16  -0.6507149951E-16   0.1249998251E+02
   0.1104551778E+01   0.0000000000E+00  -0.4943728359E-16   0.2872032176E-01   0.0000000000E+00  -0.1603447703E-17   0.7583145673E-01   0.0000000000E+00  -0.4783383589E-16   0.1249998835E+02   0.5835708240E-05   0.5835708241E-05   0.1078552080E-14   0.1478421997E-14   0.7508782409E-15   0.1045517787E+00  -0.4727588932E-01  -0.4727588932E-01  -0.3717888785E-16   0.1049247634E-15   0.4701328961E-16   0.1249998251E+02
   0.1104551778E+01   0.9527241108E+00  -0.2336023177E-16   0.2872032176E-01  -0.1391016088E-01  -0.2310715302E-18   0.7583145673E-01  -0.3336572837E-01  -0.2312916024E-16   0.1249998835E+02   0.5835708246E-05   0.5835708245E-05   0.1558022016E-14  -0.1489778121E-14  -0.2850974020E-15   0.1045517786E+00  -0.4727588931E-01  -0.4727588931E-01  -0.4380534877E-17   0.1189110967E-15   0.4428324835E-16   0.1249998251E+02
   0.0000000000E+00   0.9527241108E+00  -0.3740966167E-16   0.0000000000E+00  -0.1391016088E-01  -0.3515504524E-17   0.0000000000E+00  -0.3336572837E-01  -0.3389415715E-16   0.1249998835E+02   0.5835708237E-05   0.5835708240E-05  -0.3425588457E-16   0.6424444829E-15  -0.5458593914E-15   0.1045517786E+00  -0.4727588931E-01  -0.4727588931E-01   0.3925195905E-16   0.5622213704E-16  -0.5454079833E-16   0.1249998251E+02
   0.0000000000E+00   0.0000000000E+00   0.9527241108E+00   0.0000000000E+00   0.0000000000E+00  -0.1391016088E-01   0.0000000000E+00   0.0000000000E+00  -0.3336572837E-01   0.1249998835E+02   0.5835708239E-05   0.5835708237E-05  -0.8070011621E-16   0.5057903604E-15   0.4042400943E-15   0.1045517786E+00  -0.4727588931E-01  -0.4727588931E-01  -0.4191436332E-17   0.5229327839E-16   0.2874478834E-16   0.1249998251E+02
   0.1104551778E+01   0.0000000000E+00   0.9527241108E+00   0.2872032176E-01   0.0000000000E+00  -0.1391016088E-01   0.7583145673E-01   0.0000000000E+00  -0.3336572837E-01   0.1249998835E+02   0.5835708246E-05   0.5835708247E-05  -0.1327408525E-14   0.1257892078E-14  -0.2095061336E-15   0.1045517786E+00  -0.4727588931E-01  -0.4727588931E-01  -0.1062249084E-15   0.2360246534E-15   0.5610821861E-17   0.1249998251E+02
   0.1104551778E+01   0.9527241108E+00   0.9527241108E+00   0.2872032176E-01  -0.1391016088E-01  -0.1391016088E-01   0.7583145673E-01  -0.3336572837E-01  -0.3336572837E-01   0.1249998834E+02   0.5835708243E-05   0.5835708243E-05  -0.1412092016E-14  -0.3136703001E-15  -0.6846632517E-15   0.1045517786E+00  -0.4727588931E-01  -0.4727588931E-01  -0.1295064366E-15   0.7531027774E-16  -0.3118275039E-16   0.1249998251E+02
   0.0000000000E+00   0.9527241108E+00   0.9527241108E+00   0.0000000000E+00  -0.1391016088E-01  -0.1391016088E-01   0.0000000000E+00  -0.3336572837E-01  -0.3336572837E-01   0.1249998835E+02   0.5835708246E-05   0.5835708246E-05   0.1801416689E-15  -0.7389205760E-15  -0.3106367651E-15   0.1045517786E+00  -0.4727588931E-01  -0.4727588931E-01  -0.6751145389E-17   0.8234756889E-17   0.9152316520E-16   0.1249998251E+02
   0.2209103557E+01   0.0000000000E+00  -0.5891729462E-16   0.5744064351E-01   0.0000000000E+00   0.5004977903E-17   0.1516629135E+00   0.0000000000E+00  -0.6392227252E-16   0.1249998835E+02   0.5835708245E-05   0.5835708244E-05  -0.4536692722E-15   0.1469070493E-15   0.6268453489E-15   0.1045517786E+00  -0.4727588932E-01  -0.4727588932E-01  -0.2344416175E-16   0.4545238932E-16   0.1273383309E-16   0.1249998251E+02
   0.2209103557E+01   0.9527241108E+00  -0.5220486194E-16   0.5744064351E-01  -0.1391016088E-01   0.6272661081E-17   0.1516629135E+00  -0.3336572837E-01  -0.5847752302E-16   0.1249998835E+02   0.5835708251E-05   0.5835708249E-05  -0.7732072379E-15   0.9957947003E-15  -0.2908942873E-15   0.1045517786E+00  -0.4727588931E-01  -0.4727588931E-01  -0.5790320178E-16   0.3564857501E-15   0.3334990174E-16   0.1249998251E+02
   0.2209103557E+01   0.0000000000E+00   0.9527241108E+00   0.5744064351E-01   0.0000000000E+00  -0.1391016088E-01   0.1516629135E+00   0.0000000000E+00  -0.3336572837E-01   0.1249998835E+02   0.5835708249E-05   0.5835708249E-05  -0.2689332977E-15   0.4020789122E-15   0.6927430590E-15   0.1045517786E+00  -0.4727588931E-01  -0.4727588931E-01   0.1201224742E-15   0.9764352004E-16  -0.2581002927E-16   0.1249998251E+02
   0.2209103557E+01   0.9527241108E+00   0.9527241108E+00   0.5744064351E-01  -0.1391016088E-01  -0.1391016088E-01   0.1516629135E+00  -0.3336572837E-01  -0.3336572837E-01   0.1249998834E+02   0.5835708242E-05   0.5835708242E-05   0.8064479219E-16  -0.4478718789E-15   0.3495301735E-16   0.1045517786E+00  -0.4727588931E-01  -0.4727588931E-01   0.1411211838E-15   0.3055370787E-15   0.2879171198E-17   0.1249998251E+02
     1     2     3     4     5     6     7     8
     2     9    10     3     6    11    12     7
 VARIABLES = X,Y,Z,DU1,DU2,DU3,U1,U2,U3,S11,S22,S33,S12,S13,S23,E11,E22,E33,E12,E13,E23,SMISES
 ZONE, T="0.7050D+01" F=FEPOINT, I=   12 J=    2 ET=BRICK
   0.0000000000E+00   0.0000000000E+00   0.0000000000E+00   0.0000000000E+00   0.0000000000E+00   0.0000000000E+00   0.0000000000E+00   0.0000000000E+00   0.0000000000E+00   0.1137500002E+02   0.1536726172E-13   0.1395226123E-13   0.6502784423E-16   0.3480268283E-14   0.5469907212E-14   0.1023018090E+00  -0.4660090449E-01  -0.4660090449E-01   0.2785432596E-18  -0.4388721348E-16   0.8636394547E-17   0.1137500002E+02
   0.1102301809E+01   0.0000000000E+00  -0.4090174691E-16  -0.2249969654E-02   0.0000000000E+00   0.8535536676E-17   0.1045517785E+00   0.0000000000E+00  -0.4943728359E-16   0.1137500002E+02  -0.2900385285E-14  -0.1036143805E-13   0.3739729981E-14   0.3450163020E-14   0.1296602039E-14   0.1023018090E+00  -0.4660090449E-01  -0.4660090449E-01  -0.6809754559E-17   0.1255093189E-15   0.7408261025E-16   0.1137500002E+02
   0.1102301809E+01   0.9533990956E+00  -0.1205212052E-16  -0.2249969654E-02   0.6749848272E-03   0.1130811125E-16   0.1045517785E+00  -0.4727588925E-01  -0.2336023177E-16   0.1137500002E+02   0.8798373275E-14   0.7981510958E-15   0.2543103522E-14  -0.1023472511E-14  -0.4112446969E-14   0.1023018090E+00  -0.4660090448E-01  -0.4660090448E-01  -0.4866473797E-17   0.1522365854E-15  -0.4279782796E-16   0.1137500002E+02
   0.0000000000E+00   0.9533990956E+00  -0.5906283058E-17   0.0000000000E+00   0.6749848272E-03   0.3150337861E-16   0.0000000000E+00  -0.4727588925E-01  -0.3740966167E-16   0.1137500002E+02  -0.5576876308E-14  -0.9606735938E-14   0.1812216048E-14  -0.1735138839E-14   0.2167947517E-14   0.1023018090E+00  -0.4660090449E-01  -0.4660090449E-01   0.5658772591E-16   0.3910103898E-16  -0.5608184845E-17   0.1137500002E+02
   0.0000000000E+00   0.0000000000E+00   0.9533990956E+00   0.0000000000E+00   0.0000000000E+00   0.6749848272E-03   0.0000000000E+00   0.0000000000E+00  -0.4727588925E-01   0.1137500002E+02  -0.5359313297E-14  -0.5812645019E-15  -0.8764012664E-16   0.5688124436E-15   0.3031139749E-14   0.1023018090E+00  -0.4660090449E-01  -0.4660090449E-01   0.3862550938E-17   0.8185225931E-16   0.1832700297E-16   0.1137500002E+02
   0.1102301809E+01   0.0000000000E+00   0.9533990956E+00  -0.2249969654E-02   0.0000000000E+00   0.6749848272E-03   0.1045517785E+00   0.0000000000E+00  -0.4727588925E-01   0.1137500002E+02   0.1405570399E-14   0.3480192057E-14   0.2004783949E-14   0.1852889321E-14   0.4524602768E-15   0.1023018090E+00  -0.4660090448E-01  -0.4660090448E-01  -0.6641957557E-16   0.1910912051E-15  -0.1718200036E-16   0.1137500002E+02
   0.1102301809E+01   0.9533990956E+00   0.9533990956E+00  -0.2249969654E-02   0.6749848272E-03   0.6749848272E-03   0.1045517785E+00  -0.4727588925E-01  -0.4727588925E-01   0.1137500001E+02  -0.4796723271E-15   0.6334680154E-15   0.1580373367E-14   0.1094544813E-15  -0.4381032054E-14   0.1023018090E+00  -0.4660090448E-01  -0.4660090448E-01  -0.8592794451E-16   0.1508283721E-15  -0.1228800153E-16   0.1137500001E+02
   0.0000000000E+00   0.9533990956E+00   0.9533990956E+00   0.0000000000E+00   0.6749848272E-03   0.6749848272E-03   0.0000000000E+00  -0.4727588925E-01  -0.4727588925E-01   0.1137500002E+02   0.3790413437E-14   0.4588669775E-14  -0.1649792758E-15  -0.3294199091E-14  -0.9610263940E-15   0.1023018090E+00  -0.4660090448E-01  -0.4660090448E-01  -0.2668817401E-16  -0.6720676989E-16   0.3666187589E-16   0.1137500002E+02
   0.2204603618E+01   0.0000000000E+00  -0.1075327928E-15  -0.4499939309E-02   0.0000000000E+00  -0.4861549815E-16   0.2091035570E+00   0.0000000000E+00  -0.5891729462E-16   0.1137500002E+02  -0.8634757233E-14  -0.9223993565E-14   0.7640092857E-14   0.4468271643E-14   0.2271803990E-14   0.1023018090E+00  -0.4660090449E-01  -0.4660090449E-01   0.4802007765E-16   0.2877656679E-15   0.2705950878E-16   0.1137500002E+02
   0.2204603618E+01   0.9533990956E+00  -0.9223186879E-16  -0.4499939309E-02   0.6749848272E-03  -0.4002700685E-16   0.2091035570E+00  -0.4727588925E-01  -0.5220486194E-16   0.1137500002E+02   0.4542093051E-14   0.4644753221E-14   0.2117306724E-14  -0.8959559735E-15   0.6923004379E-15   0.1023018090E+00  -0.4660090448E-01  -0.4660090448E-01  -0.5667156751E-16   0.1981667054E-15   0.7930844316E-16   0.1137500002E+02
   0.2204603618E+01   0.0000000000E+00   0.9533990956E+00  -0.4499939309E-02   0.0000000000E+00   0.6749848272E-03   0.2091035570E+00   0.0000000000E+00  -0.4727588925E-01   0.1137500002E+02   0.1218747063E-13   0.1563830546E-13  -0.1629491858E-14   0.6828729990E-14   0.2026165912E-14   0.1023018090E+00  -0.4660090448E-01  -0.4660090448E-01   0.1155918141E-15   0.2681715545E-15   0.1487119641E-16   0.1137500002E+02
   0.2204603618E+01   0.9533990956E+00   0.9533990956E+00  -0.4499939309E-02   0.6749848272E-03   0.6749848272E-03   0.2091035570E+00  -0.4727588925E-01  -0.4727588925E-01   0.1137500001E+02  -0.4206889917E-14  -0.1851403766E-14  -0.1648220640E-14  -0.2099639401E-14   0.6781159348E-15   0.1023018090E+00  -0.4660090448E-01  -0.4660090448E-01   0.1473195253E-15   0.2278379348E-15  -0.8288839655E-16   0.1137500001E+02
     1     2     3     4     5     6     7     8
     2     9    10     3     6    11    12     7
 VARIABLES = X,Y,Z,DU1,DU2,DU3,U1,U2,U3,S11,S22,S33,S12,S13,S23,E11,E22,E33,E12,E13,E23,SMISES
 ZONE, T="0.7100D+01" F=FEPOINT, I=   12 J=    2 ET=BRICK
   0.0000000000E+00   0.0000000000E+00   0.0000000000E+00   0.0000000000E+00   0.0000000000E+00   0.0000000000E+00   0.0000000000E+00   0.0000000000E+00   0.0000000000E+00   0.1025000002E+02   0.1220963833E-13   0.1165997130E-13   0.6759236628E-16  -0.7465858811E-15  -0.8867633598E-15   0.1000518090E+00  -0.4592590449E-01  -0.4592590449E-01   0.1406568798E-17  -0.1297789828E-15  -0.6002485062E-16   0.1025000002E+02
   0.1100051809E+01   0.0000000000E+00  -0.4492903682E-16  -0.2250000000E-02   0.0000000000E+00  -0.4027289906E-17   0.1023018088E+00   0.0000000000E+00  -0.4090174691E-16   0.1025000002E+02  -0.5094000560E-14  -0.3647793185E-14  -0.5085058073E-15  -0.2060105820E-15   0.4936742295E-15   0.1000518090E+00  -0.4592590449E-01  -0.4592590449E-01  -0.2675214623E-16   0.1785115680E-15   0.3450898081E-16   0.1025000002E+02
   0.1100051809E+01   0.9540740956E+00  -0.2022238395E-16  -0.2250000000E-02   0.6750000000E-03  -0.8170263430E-17   0.1023018088E+00  -0.4660090442E-01  -0.1205212052E-16   0.1025000001E+02   0.1224162493E-14   0.2055761846E-14  -0.1147082348E-16   0.6285136456E-17  -0.7780022548E-16   0.1000518090E+00  -0.4592590448E-01  -0.4592590448E-01   0.1522378241E-16   0.9914639245E-16   0.6655839974E-16   0.1025000001E+02
   0.0000000000E+00   0.9540740956E+00  -0.3901685116E-16   0.0000000000E+00   0.6750000000E-03  -0.3311056810E-16   0.0000000000E+00  -0.4660090442E-01  -0.5906283058E-17   0.1025000001E+02  -0.9261712542E-14  -0.5531186253E-14   0.4399252257E-15   0.1285086371E-14   0.3404047211E-15   0.1000518090E+00  -0.4592590449E-01  -0.4592590449E-01   0.2863387250E-16   0.6906988662E-16  -0.5993891137E-16   0.1025000001E+02
   0.0000000000E+00   0.0000000000E+00   0.9540740956E+00   0.0000000000E+00   0.0000000000E+00   0.6750000000E-03   0.0000000000E+00   0.0000000000E+00  -0.4660090442E-01   0.1025000001E+02  -0.6714035118E-14  -0.1005199787E-13  -0.8114611515E-16   0.9602624798E-15   0.3779157336E-15   0.1000518090E+00  -0.4592590449E-01  -0.4592590449E-01  -0.5977610582E-17   0.3997827342E-16   0.9935700831E-17   0.1025000001E+02
   0.1100051809E+01   0.0000000000E+00   0.9540740956E+00  -0.2250000000E-02   0.0000000000E+00   0.6750000000E-03   0.1023018088E+00   0.0000000000E+00  -0.4660090442E-01   0.1025000001E+02   0.1327213795E-14   0.2093481147E-14   0.1393507958E-15  -0.4740242372E-15  -0.3352752054E-15   0.1000518090E+00  -0.4592590448E-01  -0.4592590448E-01  -0.9706155785E-16   0.2674503592E-15   0.5625730072E-17   0.1025000001E+02
   0.1100051809E+01   0.9540740956E+00   0.9540740956E+00  -0.2250000000E-02   0.6750000000E-03   0.6750000000E-03   0.1023018088E+00  -0.4660090442E-01  -0.4660090442E-01   0.1025000001E+02  -0.6748864532E-15  -0.9455390191E-15  -0.1964112697E-15   0.5621808805E-15  -0.2839034304E-15   0.1000518090E+00  -0.4592590448E-01  -0.4592590448E-01  -0.1108150690E-15   0.1199460184E-15  -0.8820572220E-16   0.1025000001E+02
   0.0000000000E+00   0.9540740956E+00   0.9540740956E+00   0.0000000000E+00   0.6750000000E-03   0.6750000000E-03   0.0000000000E+00  -0.4660090442E-01  -0.4660090442E-01   0.1025000001E+02   0.4427189535E-14   0.4004486784E-14  -0.3230155319E-15  -0.2562395484E-15   0.9528547807E-15   0.1000518090E+00  -0.4592590448E-01  -0.4592590448E-01  -0.1345023472E-16  -0.4327116049E-16   0.1301617895E-15   0.1025000001E+02
   0.2200103618E+01   0.0000000000E+00  -0.4250686156E-16  -0.4500000000E-02   0.0000000000E+00   0.6502593121E-16   0.2046036177E+00   0.0000000000E+00  -0.1075327928E-15   0.1025000002E+02  -0.8678597359E-15  -0.3551645309E-14  -0.1402685855E-14  -0.5467709184E-15  -0.7550266453E-17   0.1000518090E+00  -0.4592590449E-01  -0.4592590449E-01  -0.5155461143E-16   0.1139991414E-15   0.8947427517E-17   0.1025000002E+02
   0.2200103618E+01   0.9540740956E+00  -0.3917606574E-16  -0.4500000000E-02   0.6750000000E-03   0.5305580305E-16   0.2046036177E+00  -0.4660090442E-01  -0.9223186879E-16   0.1025000001E+02   0.4608883755E-14   0.3564669611E-14  -0.2104385033E-14   0.1316586413E-14  -0.4382613832E-15   0.1000518090E+00  -0.4592590448E-01  -0.4592590448E-01  -0.8795946819E-16   0.2422089764E-15   0.1462699886E-16   0.1025000001E+02
   0.2200103618E+01   0.0000000000E+00   0.9540740956E+00  -0.4500000000E-02   0.0000000000E+00   0.6750000000E-03   0.2046036177E+00   0.0000000000E+00  -0.4660090442E-01   0.1025000001E+02   0.4931843799E-14   0.4164117538E-14  -0.3570340354E-15  -0.4128924692E-15   0.1767456178E-15   0.1000518090E+00  -0.4592590448E-01  -0.4592590448E-01   0.4408933182E-16   0.1699132166E-16  -0.2273150323E-16   0.1025000001E+02
   0.2200103618E+01   0.9540740956E+00   0.9540740956E+00  -0.4500000000E-02   0.6750000000E-03   0.6750000000E-03   0.2046036177E+00  -0.4660090442E-01  -0.4660090442E-01   0.1025000001E+02  -0.4231194205E-14  -0.5146594217E-14  -0.5961449490E-16  -0.1274944944E-14  -0.6494740853E-17   0.1000518090E+00  -0.4592590448E-01  -0.4592590448E-01   0.6859854128E-16   0.3865824009E-15  -0.2258866960E-16   0.1025000001E+02
     1     2     3     4     5     6     7     8
     2     9    10     3     6    11    12     7
 VARIABLES = X,Y,Z,DU1,DU2,DU3,U1,U2,U3,S11,S22,S33,S12,S13,S23,E11,E22,E33,E12,E13,E23,SMISES
 ZONE, T="0.7150D+01" F=FEPOINT, I=   12 J=    2 ET=BRICK
   0.0000000000E+00   0.0000000000E+00   0.0000000000E+00   0.0000000000E+00   0.0000000000E+00   0.0000000000E+00   0.0000000000E+00   0.0000000000E+00   0.0000000000E+00   0.9125000014E+01   0.1115200903E-13   0.9146704724E-14   0.7235887984E-16  -0.1775738577E-14  -0.2279369122E-15   0.9780180899E-01  -0.4525090449E-01  -0.4525090449E-01  -0.4139320702E-18  -0.1237345035E-15  -0.9923261102E-16   0.9125000014E+01
   0.1097801809E+01   0.0000000000E+00  -0.5326037114E-16  -0.2250000000E-02   0.0000000000E+00  -0.8331334316E-17   0.1000518088E+00   0.0000000000E+00  -0.4492903682E-16   0.9125000014E+01  -0.5811659902E-14  -0.4953229974E-14   0.8113004727E-15   0.1322845525E-14   0.8616336298E-15   0.9780180899E-01  -0.4525090449E-01  -0.4525090449E-01  -0.3121467808E-16   0.1381883698E-15   0.4994245453E-16   0.9125000014E+01
   0.1097801809E+01   0.9547490956E+00  -0.2668879072E-16  -0.2250000000E-02   0.6750000000E-03  -0.6466406765E-17   0.1000518088E+00  -0.4592590442E-01  -0.2022238395E-16   0.9125000013E+01   0.1941821885E-14   0.9426213537E-15   0.6480711328E-15  -0.1113527167E-16  -0.3409334153E-15   0.9780180898E-01  -0.4525090448E-01  -0.4525090448E-01  -0.2119559056E-16   0.1415556691E-15   0.5535333479E-16   0.9125000013E+01
   0.0000000000E+00   0.9547490956E+00  -0.3564787162E-16   0.0000000000E+00   0.6750000000E-03   0.3368979539E-17   0.0000000000E+00  -0.4592590442E-01  -0.3901685116E-16   0.9125000013E+01  -0.8705533191E-14  -0.6142199851E-14   0.1250991490E-15  -0.1425541542E-15  -0.5073858753E-15   0.9780180898E-01  -0.4525090448E-01  -0.4525090448E-01   0.4118637527E-16   0.3900196785E-16  -0.8126181377E-17   0.9125000013E+01
   0.0000000000E+00   0.0000000000E+00   0.9547490956E+00   0.0000000000E+00   0.0000000000E+00   0.6750000000E-03   0.0000000000E+00   0.0000000000E+00  -0.4592590442E-01   0.9125000013E+01  -0.4586819789E-14  -0.6976716672E-14  -0.7664270982E-16  -0.3559712920E-15   0.8286068213E-15   0.9780180898E-01  -0.4525090448E-01  -0.4525090448E-01  -0.1565346518E-16   0.6802828201E-16   0.8090214730E-16   0.9125000013E+01
   0.1097801809E+01   0.0000000000E+00   0.9547490956E+00  -0.2250000000E-02   0.0000000000E+00   0.6750000000E-03   0.1000518088E+00   0.0000000000E+00  -0.4592590442E-01   0.9125000013E+01   0.2185643790E-14   0.3325615011E-14   0.2847776538E-16   0.1281405767E-14  -0.2420224196E-15   0.9780180898E-01  -0.4525090448E-01  -0.4525090448E-01  -0.8117083477E-16   0.1679424467E-15  -0.4383295203E-16   0.9125000013E+01
   0.1097801809E+01   0.9547490956E+00   0.9547490956E+00  -0.2250000000E-02   0.6750000000E-03   0.6750000000E-03   0.1000518088E+00  -0.4592590442E-01  -0.4592590442E-01   0.9125000012E+01   0.2865948442E-15   0.5657924517E-16  -0.1362601406E-15   0.6913834542E-15  -0.8195879646E-15   0.9780180896E-01  -0.4525090448E-01  -0.4525090448E-01  -0.1340676713E-15   0.4324474142E-16  -0.2816141435E-16   0.9125000012E+01
   0.0000000000E+00   0.9547490956E+00   0.9547490956E+00   0.0000000000E+00   0.6750000000E-03   0.6750000000E-03   0.0000000000E+00  -0.4592590442E-01  -0.4592590442E-01   0.9125000012E+01   0.4415233108E-14   0.5196374659E-14   0.1600965174E-15  -0.1958016113E-14  -0.1510626071E-15   0.9780180897E-01  -0.4525090448E-01  -0.4525090448E-01   0.8722301086E-18  -0.2043328735E-16   0.4896205429E-16   0.9125000012E+01
   0.2195603618E+01   0.0000000000E+00  -0.7021047728E-16  -0.4500000000E-02   0.0000000000E+00  -0.2770361571E-16   0.2001036177E+00   0.0000000000E+00  -0.4250686156E-16   0.9125000014E+01  -0.1733192929E-14  -0.3264659721E-14   0.2346853940E-15  -0.6640996284E-15   0.2805675418E-15   0.9780180898E-01  -0.4525090449E-01  -0.4525090449E-01   0.6821745930E-16   0.3441174578E-15  -0.3502457374E-17   0.9125000014E+01
   0.2195603618E+01   0.9547490956E+00  -0.6541743400E-16  -0.4500000000E-02   0.6750000000E-03  -0.2624136826E-16   0.2001036177E+00  -0.4592590442E-01  -0.3917606574E-16   0.9125000013E+01   0.5000379376E-14   0.5486173323E-14  -0.1466821201E-14   0.1846664754E-15  -0.9300098786E-16   0.9780180897E-01  -0.4525090448E-01  -0.4525090448E-01   0.4941570517E-17   0.5562061743E-16   0.3042957094E-16   0.9125000013E+01
   0.2195603618E+01   0.0000000000E+00   0.9547490956E+00  -0.4500000000E-02   0.0000000000E+00   0.6750000000E-03   0.2001036177E+00   0.0000000000E+00  -0.4592590442E-01   0.9125000013E+01   0.2701577217E-14   0.3093072866E-14   0.2454257415E-15  -0.3655905131E-15   0.5044929216E-15   0.9780180897E-01  -0.4525090448E-01  -0.4525090448E-01   0.8112377599E-16   0.2739550145E-15   0.1041015625E-16   0.9125000013E+01
   0.2195603618E+01   0.9547490956E+00   0.9547490956E+00  -0.4500000000E-02   0.6750000000E-03   0.6750000000E-03   0.2001036177E+00  -0.4592590442E-01  -0.4592590442E-01   0.9125000012E+01  -0.4116186427E-14  -0.3949652968E-14   0.3465384892E-15  -0.1744753963E-14   0.4103536211E-15   0.9780180896E-01  -0.4525090448E-01  -0.4525090448E-01   0.8793195124E-16   0.2292531108E-15  -0.1866992603E-16   0.9125000012E+01
     1     2     3     4     5     6     7     8
     2     9    10     3     6    11    12     7
 VARIABLES = X,Y,Z,DU1,DU2,DU3,U1,U2,U3,S11,S22,S33,S12,S13,S23,E11,E22,E33,E12,E13,E23,SMISES
 ZONE, T="0.7200D+01" F=FEPOINT, I=   12 J=    2 ET=BRICK
   0.0000000000E+00   0.0000000000E+00   0.0000000000E+00   0.0000000000E+00   0.0000000000E+00   0.0000000000E+00   0.0000000000E+00   0.0000000000E+00   0.0000000000E+00   0.8000000013E+01   0.1164908265E-13   0.1015028183E-13   0.9498297686E-16  -0.1097823155E-14  -0.8575437048E-15   0.9555180899E-01  -0.4457590449E-01  -0.4457590449E-01   0.6307929392E-17  -0.9286571804E-16  -0.8434913173E-16   0.8000000013E+01
   0.1095551809E+01   0.0000000000E+00  -0.4839774298E-16  -0.2250000000E-02   0.0000000000E+00   0.4862628153E-17   0.9780180884E-01   0.0000000000E+00  -0.5326037114E-16   0.8000000012E+01  -0.5830519587E-14  -0.4343675245E-14   0.4167581639E-15   0.6550317122E-15   0.6536518665E-15   0.9555180898E-01  -0.4457590449E-01  -0.4457590449E-01  -0.6588271217E-16   0.6374647168E-16   0.5155177925E-16   0.8000000012E+01
   0.1095551809E+01   0.9554240956E+00  -0.2290920854E-16  -0.2250000000E-02   0.6750000000E-03   0.3779582173E-17   0.9780180884E-01  -0.4525090442E-01  -0.2668879072E-16   0.8000000011E+01   0.2537570308E-14   0.1922962286E-14   0.6902117634E-15  -0.6329323932E-15  -0.2541243833E-15   0.9555180897E-01  -0.4457590448E-01  -0.4457590448E-01  -0.4995644226E-16   0.1023086053E-15   0.3799053501E-16   0.8000000011E+01
   0.0000000000E+00   0.9554240956E+00  -0.3895831696E-16   0.0000000000E+00   0.6750000000E-03  -0.3310445343E-17   0.0000000000E+00  -0.4525090442E-01  -0.3564787162E-16   0.8000000012E+01  -0.8093451807E-14  -0.3569436599E-14   0.6966891028E-15   0.8075523790E-15  -0.1744994864E-15   0.9555180898E-01  -0.4457590448E-01  -0.4457590448E-01   0.6719139080E-16   0.5308799503E-16  -0.5583811285E-17   0.8000000012E+01
   0.0000000000E+00   0.0000000000E+00   0.9554240956E+00   0.0000000000E+00   0.0000000000E+00   0.6750000000E-03   0.0000000000E+00   0.0000000000E+00  -0.4525090442E-01   0.8000000012E+01  -0.4917360007E-14  -0.8390649087E-14  -0.5623302968E-16   0.6794307263E-15   0.5334739318E-15   0.9555180898E-01  -0.4457590448E-01  -0.4457590448E-01   0.1222629254E-16   0.5131228646E-16   0.2712019992E-16   0.8000000012E+01
   0.1095551809E+01   0.0000000000E+00   0.9554240956E+00  -0.2250000000E-02   0.0000000000E+00   0.6750000000E-03   0.9780180884E-01   0.0000000000E+00  -0.4525090442E-01   0.8000000011E+01   0.1871436592E-14   0.3536770925E-14  -0.9196728127E-15   0.1101757989E-14  -0.4629564617E-15   0.9555180897E-01  -0.4457590448E-01  -0.4457590448E-01  -0.1340744874E-15   0.1366367623E-15  -0.2835662436E-16   0.8000000011E+01
   0.1095551809E+01   0.9554240956E+00   0.9554240956E+00  -0.2250000000E-02   0.6750000000E-03   0.6750000000E-03   0.9780180884E-01  -0.4525090442E-01  -0.4525090442E-01   0.8000000010E+01  -0.5014498585E-15  -0.1116057967E-14  -0.1055435742E-14  -0.9380450079E-16  -0.7421946281E-15   0.9555180896E-01  -0.4457590448E-01  -0.4457590448E-01  -0.1146673780E-15   0.1245652345E-15  -0.4465814345E-16   0.8000000010E+01
   0.0000000000E+00   0.9554240956E+00   0.9554240956E+00   0.0000000000E+00   0.6750000000E-03   0.6750000000E-03   0.0000000000E+00  -0.4525090442E-01  -0.4525090442E-01   0.8000000011E+01   0.2745522317E-14   0.2232115775E-14  -0.1023945016E-15  -0.8159034288E-15   0.4860969260E-15   0.9555180896E-01  -0.4457590448E-01  -0.4457590448E-01  -0.3665502742E-16  -0.5064938475E-16   0.2775412852E-16   0.8000000011E+01
   0.2191103618E+01   0.0000000000E+00  -0.5442961619E-16  -0.4500000000E-02   0.0000000000E+00   0.1578086109E-16   0.1956036177E+00   0.0000000000E+00  -0.7021047728E-16   0.8000000012E+01  -0.2652578341E-14  -0.3921363603E-14   0.8058989590E-15  -0.4245206008E-15   0.8322753589E-15   0.9555180898E-01  -0.4457590449E-01  -0.4457590449E-01   0.1215114672E-16   0.1120778564E-15   0.8291948488E-18   0.8000000012E+01
   0.2191103618E+01   0.9554240956E+00  -0.4681152427E-16  -0.4500000000E-02   0.6750000000E-03   0.1860590973E-16   0.1956036177E+00  -0.4525090442E-01  -0.6541743400E-16   0.8000000011E+01   0.5682846055E-14   0.4489499340E-14  -0.5187273170E-15   0.2656275550E-15   0.3613177432E-15   0.9555180897E-01  -0.4457590448E-01  -0.4457590448E-01  -0.4166135892E-16   0.3032588139E-15   0.5093239708E-16   0.8000000011E+01
   0.2191103618E+01   0.0000000000E+00   0.9554240956E+00  -0.4500000000E-02   0.0000000000E+00   0.6750000000E-03   0.1956036177E+00   0.0000000000E+00  -0.4525090442E-01   0.8000000011E+01   0.3839021687E-14   0.4544724515E-14  -0.2143503733E-15   0.6179342210E-15   0.2311429579E-15   0.9555180897E-01  -0.4457590448E-01  -0.4457590448E-01   0.1315409256E-15   0.2018719226E-15  -0.1757679647E-16   0.8000000011E+01
   0.2191103618E+01   0.9554240956E+00   0.9554240956E+00  -0.4500000000E-02   0.6750000000E-03   0.6750000000E-03   0.1956036177E+00  -0.4525090442E-01  -0.4525090442E-01   0.8000000010E+01  -0.4407157464E-14  -0.5535172173E-14  -0.1532401085E-15  -0.2057480469E-14   0.1174696978E-15   0.9555180896E-01  -0.4457590448E-01  -0.4457590448E-01   0.1374138856E-15   0.2170320061E-15  -0.4281244387E-16   0.8000000010E+01
     1     2     3     4     5     6     7     8
     2     9    10     3     6    11    12     7
 VARIABLES = X,Y,Z,DU1,DU2,DU3,U1,U2,U3,S11,S22,S33,S12,S13,S23,E11,E22,E33,E12,E13,E23,SMISES
 ZONE, T="0.7250D+01" F=FEPOINT, I=   12 J=    2 ET=BRICK
   0.0000000000E+00   0.0000000000E+00   0.0000000000E+00   0.0000000000E+00   0.0000000000E+00   0.0000000000E+00   0.0000000000E+00   0.0000000000E+00   0.0000000000E+00   0.6875000011E+01   0.1147564607E-13   0.9138733737E-14   0.1232458404E-15  -0.1422228578E-14  -0.5643221297E-15   0.9330180898E-01  -0.4390090449E-01  -0.4390090449E-01   0.1183356070E-16  -0.1453795363E-15  -0.8327319747E-16   0.6875000011E+01
   0.1093301809E+01   0.0000000000E+00  -0.5059859983E-16  -0.2250000000E-02   0.0000000000E+00  -0.2200856846E-17   0.9555180884E-01   0.0000000000E+00  -0.4839774298E-16   0.6875000011E+01  -0.5689748983E-14  -0.5012726626E-14  -0.3198512161E-15   0.2808007534E-15   0.8032067323E-15   0.9330180898E-01  -0.4390090449E-01  -0.4390090449E-01  -0.8114530018E-16   0.1001062980E-15   0.5359073514E-16   0.6875000011E+01
   0.1093301809E+01   0.9560990956E+00  -0.2437007311E-16  -0.2250000000E-02   0.6750000000E-03  -0.1460864565E-17   0.9555180884E-01  -0.4457590442E-01  -0.2290920854E-16   0.6875000010E+01   0.2012207195E-14   0.1549258418E-14  -0.2040832936E-15   0.3786921779E-16  -0.1905818265E-15   0.9330180897E-01  -0.4390090448E-01  -0.4390090448E-01  -0.5570744795E-16   0.1128309368E-15   0.3861901107E-16   0.6875000010E+01
   0.0000000000E+00   0.9560990956E+00  -0.3736003410E-16   0.0000000000E+00   0.6750000000E-03   0.1598282858E-17   0.0000000000E+00  -0.4457590442E-01  -0.3895831696E-16   0.6875000010E+01  -0.9266088980E-14  -0.4484836562E-14   0.5276601699E-15   0.5209631549E-15  -0.1272399552E-15   0.9330180897E-01  -0.4390090448E-01  -0.4390090448E-01   0.4597423763E-16   0.7459724942E-16   0.4982855077E-17   0.6875000010E+01
   0.0000000000E+00   0.0000000000E+00   0.9560990956E+00   0.0000000000E+00   0.0000000000E+00   0.6750000000E-03   0.0000000000E+00   0.0000000000E+00  -0.4457590442E-01   0.6875000010E+01  -0.4410856534E-14  -0.7434612159E-14  -0.4637940272E-16  -0.3393888472E-16   0.6751171996E-15   0.9330180897E-01  -0.4390090448E-01  -0.4390090448E-01   0.2973091108E-17   0.8156058357E-16   0.4425374393E-16   0.6875000010E+01
   0.1093301809E+01   0.0000000000E+00   0.9560990956E+00  -0.2250000000E-02   0.0000000000E+00   0.6750000000E-03   0.9555180884E-01   0.0000000000E+00  -0.4457590442E-01   0.6875000010E+01   0.2115258497E-14   0.3547659566E-14  -0.4768016492E-17   0.6697557820E-15  -0.1408948310E-15   0.9330180897E-01  -0.4390090448E-01  -0.4390090448E-01  -0.1385019684E-15   0.1308818098E-15  -0.2432044931E-16   0.6875000010E+01
   0.1093301809E+01   0.9560990956E+00   0.9560990956E+00  -0.2250000000E-02   0.6750000000E-03   0.6750000000E-03   0.9555180884E-01  -0.4457590442E-01  -0.4457590442E-01   0.6875000009E+01   0.4085057629E-15  -0.3875099154E-15  -0.2733552616E-15   0.7101462399E-15  -0.4188838174E-15   0.9330180896E-01  -0.4390090448E-01  -0.4390090448E-01  -0.1169421395E-15   0.9029142112E-16  -0.8192886832E-17   0.6875000009E+01
   0.0000000000E+00   0.9560990956E+00   0.9560990956E+00   0.0000000000E+00   0.6750000000E-03   0.6750000000E-03   0.0000000000E+00  -0.4457590442E-01  -0.4457590442E-01   0.6875000009E+01   0.3585092634E-14   0.3073144897E-14   0.5744320931E-16  -0.1130809567E-14   0.2900665034E-15   0.9330180896E-01  -0.4390090448E-01  -0.4390090448E-01  -0.1690929076E-16  -0.7416655093E-16   0.2717128241E-16   0.6875000009E+01
   0.2186603618E+01   0.0000000000E+00  -0.6138332453E-16  -0.4500000000E-02   0.0000000000E+00  -0.6953708339E-17   0.1911036177E+00   0.0000000000E+00  -0.5442961619E-16   0.6875000010E+01  -0.2966785568E-14  -0.4144867055E-14  -0.4578472346E-15  -0.1414486577E-14   0.2520883305E-15   0.9330180898E-01  -0.4390090448E-01  -0.4390090448E-01  -0.4392773557E-16   0.1991748843E-15  -0.1667713009E-17   0.6875000010E+01
   0.2186603618E+01   0.9560990956E+00  -0.5676268891E-16  -0.4500000000E-02   0.6750000000E-03  -0.9951164636E-17   0.1911036177E+00  -0.4457590442E-01  -0.4681152427E-16   0.6875000010E+01   0.5035571984E-14   0.4272899145E-14  -0.1874264687E-14   0.1324044331E-14  -0.4160746401E-15   0.9330180897E-01  -0.4390090448E-01  -0.4390090448E-01  -0.5783140601E-16   0.3034196738E-15   0.3734811319E-16   0.6875000010E+01
   0.2186603618E+01   0.0000000000E+00   0.9560990956E+00  -0.4500000000E-02   0.0000000000E+00   0.6750000000E-03   0.1911036177E+00   0.0000000000E+00  -0.4457590442E-01   0.6875000010E+01   0.3050977007E-14   0.3225872446E-14   0.1252634203E-14  -0.2751762676E-15   0.1194296298E-16   0.9330180897E-01  -0.4390090448E-01  -0.4390090448E-01   0.1208533336E-15   0.3516671461E-15  -0.1325367268E-16   0.6875000010E+01
   0.2186603618E+01   0.9560990956E+00   0.9560990956E+00  -0.4500000000E-02   0.6750000000E-03   0.6750000000E-03   0.1911036177E+00  -0.4457590442E-01  -0.4457590442E-01   0.6875000009E+01  -0.4196001555E-14  -0.3483786545E-14   0.1049707899E-14  -0.1053747678E-14  -0.3035707921E-15   0.9330180896E-01  -0.4390090447E-01  -0.4390090447E-01   0.1006122024E-15   0.2787280438E-15  -0.2099180481E-16   0.6875000009E+01
     1     2     3     4     5     6     7     8
     2     9    10     3     6    11    12     7
 VARIABLES = X,Y,Z,DU1,DU2,DU3,U1,U2,U3,S11,S22,S33,S12,S13,S23,E11,E22,E33,E12,E13,E23,SMISES
 ZONE, T="0.7300D+01" F=FEPOINT, I=   12 J=    2 ET=BRICK
   0.0000000000E+00   0.0000000000E+00   0.0000000000E+00   0.0000000000E+00   0.0000000000E+00   0.0000000000E+00   0.0000000000E+00   0.0000000000E+00   0.0000000000E+00   0.5750000009E+01   0.1095373457E-13   0.8487474232E-14   0.1378885566E-15  -0.1388286039E-14  -0.5784625260E-15   0.9105180898E-01  -0.4322590449E-01  -0.4322590449E-01  -0.3261023587E-18  -0.1189766545E-15  -0.5509182352E-16   0.5750000009E+01
   0.1091051809E+01   0.0000000000E+00  -0.5026923000E-16  -0.2250000000E-02   0.0000000000E+00   0.3293698276E-18   0.9330180884E-01   0.0000000000E+00  -0.5059859983E-16   0.5750000009E+01  -0.5593600877E-14  -0.4517111848E-14   0.4675996147E-15   0.9572056084E-15   0.7730483482E-15   0.9105180898E-01  -0.4322590448E-01  -0.4322590448E-01  -0.4237602270E-16   0.1203497661E-15   0.5287259692E-16   0.5750000009E+01
   0.1091051809E+01   0.9567740956E+00  -0.2429393585E-16  -0.2250000000E-02   0.6750000000E-03   0.7613725769E-19   0.9330180884E-01  -0.4390090442E-01  -0.2437007311E-16   0.5750000008E+01   0.1339170326E-14   0.1275688221E-14   0.6627682615E-15  -0.5818257024E-15  -0.2090056240E-15   0.9105180897E-01  -0.4322590448E-01  -0.4322590448E-01  -0.5536697824E-16   0.7117087976E-16   0.3775275805E-16   0.5750000008E+01
   0.0000000000E+00   0.9567740956E+00  -0.3737899774E-16   0.0000000000E+00   0.6750000000E-03  -0.1896363728E-19   0.0000000000E+00  -0.4390090442E-01  -0.3736003410E-16   0.5750000008E+01  -0.7616162789E-14  -0.3419236193E-14   0.2275985475E-15   0.4318931311E-15  -0.3103666903E-15   0.9105180897E-01  -0.4322590448E-01  -0.4322590448E-01   0.4547637816E-16   0.7878925896E-16  -0.6125425064E-16   0.5750000008E+01
   0.0000000000E+00   0.0000000000E+00   0.9567740956E+00   0.0000000000E+00   0.0000000000E+00   0.6750000000E-03   0.0000000000E+00   0.0000000000E+00  -0.4390090442E-01   0.5750000008E+01  -0.4055478458E-14  -0.6718411626E-14  -0.6730983403E-16   0.5901236041E-16   0.5489611415E-15   0.9105180897E-01  -0.4322590448E-01  -0.4322590448E-01  -0.7555315015E-17   0.1869578292E-16   0.5022469904E-16   0.5750000008E+01
   0.1091051809E+01   0.0000000000E+00   0.9567740956E+00  -0.2250000000E-02   0.0000000000E+00   0.6750000000E-03   0.9330180884E-01   0.0000000000E+00  -0.4390090442E-01   0.5750000008E+01   0.1967584741E-14   0.3729067179E-14  -0.5512055574E-15   0.1409298591E-14  -0.1857695322E-15   0.9105180897E-01  -0.4322590448E-01  -0.4322590448E-01  -0.1304805326E-15   0.1993393204E-15  -0.4022358608E-16   0.5750000008E+01
   0.1091051809E+01   0.9567740956E+00   0.9567740956E+00  -0.2250000000E-02   0.6750000000E-03   0.6750000000E-03   0.9330180884E-01  -0.4390090442E-01  -0.4390090442E-01   0.5750000008E+01  -0.5975980073E-15  -0.1064532316E-14  -0.6473466322E-15   0.4375002880E-16  -0.4109417930E-15   0.9105180896E-01  -0.4322590447E-01  -0.4322590447E-01  -0.1528148967E-15   0.3880649941E-16  -0.6225980603E-16   0.5750000008E+01
   0.0000000000E+00   0.9567740956E+00   0.9567740956E+00   0.0000000000E+00   0.6750000000E-03   0.6750000000E-03   0.0000000000E+00  -0.4390090442E-01  -0.4390090442E-01   0.5750000008E+01   0.3159329236E-14   0.2553226141E-14  -0.8354415967E-16  -0.9078254923E-15   0.7441336628E-16   0.9105180896E-01  -0.4322590448E-01  -0.4322590448E-01  -0.1224470191E-16  -0.2361370676E-16   0.4257899755E-16   0.5750000008E+01
   0.2182103618E+01   0.0000000000E+00  -0.6015966369E-16  -0.4500000000E-02   0.0000000000E+00   0.1223660839E-17   0.1866036177E+00   0.0000000000E+00  -0.6138332453E-16   0.5750000009E+01  -0.1764933961E-14  -0.3693874736E-14  -0.1115305629E-14  -0.1526290565E-14   0.3161354401E-15   0.9105180897E-01  -0.4322590448E-01  -0.4322590448E-01  -0.3383062077E-16   0.2318546315E-15   0.2813013104E-16   0.5750000009E+01
   0.2182103618E+01   0.9567740956E+00  -0.5511731689E-16  -0.4500000000E-02   0.6750000000E-03   0.1645372022E-17   0.1866036177E+00  -0.4390090442E-01  -0.5676268891E-16   0.5750000008E+01   0.5013260740E-14   0.3954706425E-14  -0.2010189825E-14   0.9635137242E-15  -0.3145782032E-15   0.9105180896E-01  -0.4322590448E-01  -0.4322590448E-01  -0.7786263976E-16   0.4356556248E-15  -0.6222343901E-17   0.5750000008E+01
   0.2182103618E+01   0.0000000000E+00   0.9567740956E+00  -0.4500000000E-02   0.0000000000E+00   0.6750000000E-03   0.1866036177E+00   0.0000000000E+00  -0.4390090442E-01   0.5750000008E+01   0.4041672670E-14   0.3500901469E-14   0.1774388332E-15  -0.4377046558E-15   0.3997583733E-15   0.9105180896E-01  -0.4322590448E-01  -0.4322590448E-01   0.3530424007E-16   0.1640148111E-15  -0.4055976412E-16   0.5750000008E+01
   0.2182103618E+01   0.9567740956E+00   0.9567740956E+00  -0.4500000000E-02   0.6750000000E-03   0.6750000000E-03   0.1866036177E+00  -0.4390090442E-01  -0.4390090442E-01   0.5750000007E+01  -0.3962534369E-14  -0.3511008184E-14   0.5654247558E-15  -0.6579077598E-15   0.4994474643E-16   0.9105180895E-01  -0.4322590447E-01  -0.4322590447E-01   0.6202007376E-16   0.4139503090E-15  -0.9587384724E-17   0.5750000007E+01
     1     2     3     4     5     6     7     8
     2     9    10     3     6    11    12     7
 VARIABLES = X,Y,Z,DU1,DU2,DU3,U1,U2,U3,S11,S22,S33,S12,S13,S23,E11,E22,E33,E12,E13,E23,SMISES
 ZONE, T="0.7350D+01" F=FEPOINT, I=   12 J=    2 ET=BRICK
   0.0000000000E+00   0.0000000000E+00   0.0000000000E+00   0.0000000000E+00   0.0000000000E+00   0.0000000000E+00   0.0000000000E+00   0.0000000000E+00   0.0000000000E+00   0.4625000007E+01   0.1085758644E-13   0.8419081677E-14   0.1318847801E-15  -0.1298350414E-14  -0.6551922538E-15   0.8880180898E-01  -0.4255090449E-01  -0.4255090449E-01  -0.1313996562E-16  -0.8966360837E-16  -0.5990724781E-16   0.4625000007E+01
   0.1088801809E+01   0.0000000000E+00  -0.5003931553E-16  -0.2250000000E-02   0.0000000000E+00   0.2299144717E-18   0.9105180884E-01   0.0000000000E+00  -0.5026923000E-16   0.4625000007E+01  -0.5401304623E-14  -0.4380326733E-14   0.9552316422E-15   0.1113154152E-14   0.6979376822E-15   0.8880180897E-01  -0.4255090448E-01  -0.4255090448E-01  -0.4305316280E-16   0.6912325650E-16   0.4544772359E-16   0.4625000007E+01
   0.1088801809E+01   0.9574490956E+00  -0.2442630644E-16  -0.2250000000E-02   0.6750000000E-03  -0.1323705944E-18   0.9105180884E-01  -0.4322590442E-01  -0.2429393585E-16   0.4625000007E+01   0.1723762835E-14   0.1675154893E-14   0.1111973931E-14  -0.6474872556E-15  -0.2428884118E-15   0.8880180896E-01  -0.4255090448E-01  -0.4255090448E-01  -0.5387756621E-16   0.8141469144E-16   0.3800169757E-16   0.4625000007E+01
   0.0000000000E+00   0.9574490956E+00  -0.3767019662E-16   0.0000000000E+00   0.6750000000E-03  -0.2911988774E-18   0.0000000000E+00  -0.4322590442E-01  -0.3737899774E-16   0.4625000007E+01  -0.7808459036E-14  -0.3618969520E-14   0.3390473693E-15   0.3104251534E-15  -0.3042914771E-15   0.8880180897E-01  -0.4255090448E-01  -0.4255090448E-01   0.4904879968E-16   0.4768050570E-16  -0.5475061058E-16   0.4625000007E+01
   0.0000000000E+00   0.0000000000E+00   0.9574490956E+00   0.0000000000E+00   0.0000000000E+00   0.6750000000E-03   0.0000000000E+00   0.0000000000E+00  -0.4322590442E-01   0.4625000007E+01  -0.4020285809E-14  -0.6655463409E-14  -0.8203037811E-16  -0.5121071209E-16   0.4079715922E-15   0.8880180897E-01  -0.4255090448E-01  -0.4255090448E-01   0.9826549234E-17   0.3804801964E-16  -0.1640539776E-16   0.4625000007E+01
   0.1088801809E+01   0.0000000000E+00   0.9574490956E+00  -0.2250000000E-02   0.0000000000E+00   0.6750000000E-03   0.9105180884E-01   0.0000000000E+00  -0.4322590442E-01   0.4625000007E+01   0.1897199439E-14   0.3603170739E-14  -0.6502573046E-15   0.1773267120E-14  -0.1908635822E-15   0.8880180896E-01  -0.4255090448E-01  -0.4255090448E-01  -0.1456355894E-15   0.1230358437E-15  -0.1798923862E-16   0.4625000007E+01
   0.1088801809E+01   0.9574490956E+00   0.9574490956E+00  -0.2250000000E-02   0.6750000000E-03   0.6750000000E-03   0.9105180884E-01  -0.4322590442E-01  -0.4322590442E-01   0.4625000006E+01  -0.1426201966E-15  -0.5946803419E-15  -0.1031807619E-14  -0.4611798859E-15  -0.3242499089E-15   0.8880180895E-01  -0.4255090447E-01  -0.4255090447E-01  -0.1326015286E-15   0.1067982917E-15  -0.5206177913E-16   0.4625000006E+01
   0.0000000000E+00   0.9574490956E+00   0.9574490956E+00   0.0000000000E+00   0.6750000000E-03   0.6750000000E-03   0.0000000000E+00  -0.4322590442E-01  -0.4322590442E-01   0.4625000006E+01   0.2931840341E-14   0.2318300165E-14   0.1090838784E-15  -0.7707941826E-15  -0.6321243391E-16   0.8880180896E-01  -0.4255090448E-01  -0.4255090448E-01  -0.3021471284E-16  -0.3530143222E-16   0.3463365697E-16   0.4625000006E+01
   0.2177603618E+01   0.0000000000E+00  -0.5991938322E-16  -0.4500000000E-02   0.0000000000E+00   0.2402804682E-18   0.1821036177E+00   0.0000000000E+00  -0.6015966369E-16   0.4625000007E+01  -0.1912607744E-14  -0.3454963252E-14  -0.4270841985E-15  -0.1674648984E-14   0.5797693994E-15   0.8880180897E-01  -0.4255090448E-01  -0.4255090448E-01  -0.7069250710E-16   0.2608618747E-15   0.1522551618E-16   0.4625000007E+01
   0.2177603618E+01   0.9574490956E+00  -0.5353047965E-16  -0.4500000000E-02   0.6750000000E-03   0.1586837241E-17   0.1821036177E+00  -0.4322590442E-01  -0.5511731689E-16   0.4625000006E+01   0.4680193873E-14   0.3518054363E-14  -0.1660327808E-14   0.1058480000E-14  -0.1260575230E-15   0.8880180896E-01  -0.4255090448E-01  -0.4255090448E-01  -0.1202778558E-15   0.3806700418E-15   0.4478746377E-16   0.4625000006E+01
   0.2177603618E+01   0.0000000000E+00   0.9574490956E+00  -0.4500000000E-02   0.0000000000E+00   0.6750000000E-03   0.1821036177E+00   0.0000000000E+00  -0.4322590442E-01   0.4625000006E+01   0.3237295002E-14   0.3083109068E-14   0.6131910580E-15  -0.8167815184E-15   0.3185727308E-15   0.8880180896E-01  -0.4255090448E-01  -0.4255090448E-01   0.1059814906E-15   0.2875770824E-15  -0.9318575538E-17   0.4625000006E+01
   0.2177603618E+01   0.9574490956E+00   0.9574490956E+00  -0.4500000000E-02   0.6750000000E-03   0.6750000000E-03   0.1821036177E+00  -0.4322590442E-01  -0.4322590442E-01   0.4625000006E+01  -0.4119637983E-14  -0.3771696994E-14   0.6680940883E-15  -0.6204215969E-15  -0.1085279966E-15   0.8880180895E-01  -0.4255090447E-01  -0.4255090447E-01   0.1393023236E-15   0.3394412245E-15  -0.6354030057E-16   0.4625000006E+01
     1     2     3     4     5     6     7     8
     2     9    10     3     6    11    12     7
 VARIABLES = X,Y,Z,DU1,DU2,DU3,U1,U2,U3,S11,S22,S33,S12,S13,S23,E11,E22,E33,E12,E13,E23,SMISES
 ZONE, T="0.7400D+01" F=FEPOINT, I=   12 J=    2 ET=BRICK
   0.0000000000E+00   0.0000000000E+00   0.0000000000E+00   0.0000000000E+00   0.0000000000E+00   0.0000000000E+00   0.0000000000E+00   0.0000000000E+00   0.0000000000E+00   0.3500000005E+01   0.1203347967E-13   0.9877974901E-14   0.1284377836E-15  -0.1258104221E-14  -0.4314738584E-15   0.8655180897E-01  -0.4187590448E-01  -0.4187590448E-01  -0.1278929561E-16  -0.8543437024E-16  -0.8229640108E-16   0.3500000005E+01
   0.1086551809E+01   0.0000000000E+00  -0.5042871558E-16  -0.2250000000E-02   0.0000000000E+00  -0.3894000503E-18   0.8880180884E-01   0.0000000000E+00  -0.5003931553E-16   0.3500000005E+01  -0.5613919361E-14  -0.5421623106E-14   0.2296509631E-15   0.3508305309E-15   0.7940026701E-15   0.8655180897E-01  -0.4187590448E-01  -0.4187590448E-01  -0.2601145895E-16   0.9257468387E-16   0.2118132166E-16   0.3500000005E+01
   0.1086551809E+01   0.9581240956E+00  -0.2430261711E-16  -0.2250000000E-02   0.6750000000E-03   0.1236893342E-18   0.8880180884E-01  -0.4255090442E-01  -0.2442630644E-16   0.3500000005E+01   0.1799592457E-14   0.1780732807E-14   0.3726015105E-15   0.3145883773E-15  -0.3490790846E-15   0.8655180896E-01  -0.4187590448E-01  -0.4187590448E-01  -0.5413189389E-16   0.1337700271E-15   0.6445524849E-16   0.3500000005E+01
   0.0000000000E+00   0.9581240956E+00  -0.3649959319E-16   0.0000000000E+00   0.6750000000E-03   0.1170603429E-17   0.0000000000E+00  -0.4255090442E-01  -0.3767019662E-16   0.3500000005E+01  -0.8986345008E-14  -0.5231514815E-14   0.4654605884E-15   0.1630856971E-15  -0.1317493374E-15   0.8655180896E-01  -0.4187590448E-01  -0.4187590448E-01   0.2902947189E-16   0.3865745088E-16  -0.1105945916E-16   0.3500000005E+01
   0.0000000000E+00   0.0000000000E+00   0.9581240956E+00   0.0000000000E+00   0.0000000000E+00   0.6750000000E-03   0.0000000000E+00   0.0000000000E+00  -0.4255090442E-01   0.3500000005E+01  -0.5320082723E-14  -0.7838793715E-14  -0.7747595113E-16  -0.1261724788E-15   0.6300601165E-15   0.8655180896E-01  -0.4187590448E-01  -0.4187590448E-01   0.5577134146E-18   0.1660071704E-16   0.4757173845E-16   0.3500000005E+01
   0.1086551809E+01   0.0000000000E+00   0.9581240956E+00  -0.2250000000E-02   0.0000000000E+00   0.6750000000E-03   0.8880180884E-01   0.0000000000E+00  -0.4255090442E-01   0.3500000005E+01   0.1973029061E-14   0.3760274304E-14   0.3275235529E-15   0.1013563118E-14  -0.6214863375E-16   0.8655180896E-01  -0.4187590448E-01  -0.4187590448E-01  -0.1499659520E-15   0.1669748629E-15  -0.1438179767E-17   0.3500000005E+01
   0.1086551809E+01   0.9581240956E+00   0.9581240956E+00  -0.2250000000E-02   0.6750000000E-03   0.6750000000E-03   0.8880180884E-01  -0.4255090442E-01  -0.4255090442E-01   0.3500000005E+01  -0.2333239818E-15  -0.6556357921E-15  -0.1565088368E-15   0.1982606723E-15  -0.4241209576E-15   0.8655180895E-01  -0.4187590447E-01  -0.4187590447E-01  -0.1333028820E-15   0.4865859570E-16  -0.4605901957E-16   0.3500000005E+01
   0.0000000000E+00   0.9581240956E+00   0.9581240956E+00   0.0000000000E+00   0.6750000000E-03   0.6750000000E-03   0.0000000000E+00  -0.4255090442E-01  -0.4255090442E-01   0.3500000005E+01   0.4501755904E-14   0.3530844831E-14   0.3959749644E-16  -0.8105051423E-15   0.7396144888E-16   0.8655180895E-01  -0.4187590447E-01  -0.4187590447E-01  -0.4428668454E-17  -0.3535328171E-16   0.3089912247E-16   0.3500000005E+01
   0.2173103618E+01   0.0000000000E+00  -0.6295651673E-16  -0.4500000000E-02   0.0000000000E+00  -0.3037133515E-17   0.1776036177E+00   0.0000000000E+00  -0.5991938322E-16   0.3500000005E+01  -0.3462204834E-14  -0.4458878743E-14  -0.1381229559E-15  -0.1023416514E-14   0.4437117344E-15   0.8655180897E-01  -0.4187590448E-01  -0.4187590448E-01  -0.7171964694E-16   0.2879897049E-15   0.2793512646E-16   0.3500000005E+01
   0.2173103618E+01   0.9581240956E+00  -0.5735875203E-16  -0.4500000000E-02   0.6750000000E-03  -0.3828272385E-17   0.1776036177E+00  -0.4255090442E-01  -0.5353047965E-16   0.3500000005E+01   0.5817442879E-14   0.4483325645E-14  -0.1601285676E-14   0.6575126620E-15  -0.4283195744E-15   0.8655180896E-01  -0.4187590448E-01  -0.4187590448E-01  -0.6910792237E-16   0.3986879016E-15   0.7196591703E-17   0.3500000005E+01
   0.2173103618E+01   0.0000000000E+00   0.9581240956E+00  -0.4500000000E-02   0.0000000000E+00   0.6750000000E-03   0.1776036177E+00   0.0000000000E+00  -0.4255090442E-01   0.3500000005E+01   0.4496454950E-14   0.5054484095E-14   0.4604488783E-15   0.8198592353E-16   0.2020049665E-15   0.8655180896E-01  -0.4187590448E-01  -0.4187590448E-01   0.1539426866E-15   0.3041952177E-15  -0.4505595341E-16   0.3500000005E+01
   0.2173103618E+01   0.9581240956E+00   0.9581240956E+00  -0.4500000000E-02   0.6750000000E-03   0.6750000000E-03   0.1776036177E+00  -0.4255090442E-01  -0.4255090442E-01   0.3500000004E+01  -0.5153301792E-14  -0.4566983229E-14   0.5624496624E-15  -0.6083878004E-15  -0.3830944602E-15   0.8655180895E-01  -0.4187590447E-01  -0.4187590447E-01   0.1405355672E-15   0.4233563333E-15  -0.2300833312E-16   0.3500000004E+01
     1     2     3     4     5     6     7     8
     2     9    10     3     6    11    12     7
 VARIABLES = X,Y,Z,DU1,DU2,DU3,U1,U2,U3,S11,S22,S33,S12,S13,S23,E11,E22,E33,E12,E13,E23,SMISES
 ZONE, T="0.7450D+01" F=FEPOINT, I=   12 J=    2 ET=BRICK
   0.0000000000E+00   0.0000000000E+00   0.0000000000E+00   0.0000000000E+00   0.0000000000E+00   0.0000000000E+00   0.0000000000E+00   0.0000000000E+00   0.0000000000E+00   0.2375000004E+01   0.1203049053E-13   0.9963332126E-14   0.1211738871E-15  -0.1121982239E-14  -0.6712030437E-15   0.8430180897E-01  -0.4120090448E-01  -0.4120090448E-01   0.4675542837E-17  -0.1129834806E-15  -0.7459764146E-16   0.2375000004E+01
   0.1084301809E+01   0.0000000000E+00  -0.4888015166E-16  -0.2250000000E-02   0.0000000000E+00   0.1548563915E-17   0.8655180884E-01   0.0000000000E+00  -0.5042871558E-16   0.2375000004E+01  -0.5530652635E-14  -0.4928730484E-14   0.2442001087E-15   0.1464182962E-15   0.7253836784E-15   0.8430180897E-01  -0.4120090448E-01  -0.4120090448E-01  -0.8952736522E-16   0.1071700363E-15   0.5517912119E-16   0.2375000004E+01
   0.1084301809E+01   0.9587990956E+00  -0.2319878664E-16  -0.2250000000E-02   0.6750000000E-03   0.1103830466E-17   0.8655180884E-01  -0.4187590442E-01  -0.2430261711E-16   0.2375000003E+01   0.1645940430E-14   0.1690758438E-14   0.5282420683E-15   0.2282459538E-15  -0.1721040204E-15   0.8430180896E-01  -0.4120090448E-01  -0.4120090448E-01  -0.8688092645E-16   0.1392021105E-15   0.2305323716E-16   0.2375000003E+01
   0.0000000000E+00   0.9587990956E+00  -0.3777341239E-16   0.0000000000E+00   0.6750000000E-03  -0.1273819198E-17   0.0000000000E+00  -0.4187590442E-01  -0.3649959319E-16   0.2375000003E+01  -0.8537807921E-14  -0.4088990683E-14   0.3770038231E-15   0.4863270045E-15  -0.1022897911E-15   0.8430180896E-01  -0.4120090448E-01  -0.4120090448E-01   0.4224129299E-16   0.6071942545E-16  -0.4901786196E-16   0.2375000003E+01
   0.0000000000E+00   0.0000000000E+00   0.9587990956E+00   0.0000000000E+00   0.0000000000E+00   0.6750000000E-03   0.0000000000E+00   0.0000000000E+00  -0.4187590442E-01   0.2375000003E+01  -0.5733427188E-14  -0.8738954808E-14  -0.7689798646E-16   0.1663644936E-15   0.5506698863E-15   0.8430180896E-01  -0.4120090448E-01  -0.4120090448E-01  -0.4878974394E-17   0.1060944440E-16   0.2877147563E-16   0.2375000003E+01
   0.1084301809E+01   0.0000000000E+00   0.9587990956E+00  -0.2250000000E-02   0.0000000000E+00   0.6750000000E-03   0.8655180884E-01   0.0000000000E+00  -0.4187590442E-01   0.2375000003E+01   0.2056295765E-14   0.3628204109E-14   0.1908254453E-15   0.9380880734E-15  -0.2312689161E-15   0.8430180896E-01  -0.4120090448E-01  -0.4120090448E-01  -0.1414870574E-15   0.2217123143E-15  -0.3076079394E-16   0.2375000003E+01
   0.1084301809E+01   0.9587990956E+00   0.9587990956E+00  -0.2250000000E-02   0.6750000000E-03   0.6750000000E-03   0.8655180884E-01  -0.4187590442E-01  -0.4187590442E-01   0.2375000003E+01  -0.3423535110E-15  -0.8100172355E-15  -0.3940254409E-15  -0.1531735786E-15  -0.3077454046E-15   0.8430180895E-01  -0.4120090447E-01  -0.4120090447E-01  -0.1241569618E-15   0.7718413098E-16  -0.6289176249E-16   0.2375000003E+01
   0.0000000000E+00   0.9587990956E+00   0.9587990956E+00   0.0000000000E+00   0.6750000000E-03   0.6750000000E-03   0.0000000000E+00  -0.4187590442E-01  -0.4187590442E-01   0.2375000003E+01   0.4018026130E-14   0.3013550471E-14   0.6098155245E-16  -0.6568235632E-15   0.2081191926E-15   0.8430180895E-01  -0.4120090447E-01  -0.4120090447E-01  -0.1826367219E-16  -0.3345426340E-16   0.8864769770E-16   0.2375000003E+01
   0.2168603618E+01   0.0000000000E+00  -0.5672182375E-16  -0.4500000000E-02   0.0000000000E+00   0.6234692982E-17   0.1731036177E+00   0.0000000000E+00  -0.6295651673E-16   0.2375000004E+01  -0.2908089776E-14  -0.4179961942E-14  -0.4843018602E-15  -0.1083169515E-14   0.4382954697E-15   0.8430180896E-01  -0.4120090448E-01  -0.4120090448E-01  -0.6920440690E-16   0.1592476779E-15   0.2989312116E-16   0.2375000004E+01
   0.2168603618E+01   0.9587990956E+00  -0.5114866612E-16  -0.4500000000E-02   0.6750000000E-03   0.6210085915E-17   0.1731036177E+00  -0.4187590442E-01  -0.5735875203E-16   0.2375000003E+01   0.5535439243E-14   0.4326586756E-14  -0.1846366226E-14   0.9208188071E-15  -0.4173025334E-15   0.8430180895E-01  -0.4120090448E-01  -0.4120090448E-01  -0.7588988952E-16   0.2732827273E-15   0.8600076750E-17   0.2375000003E+01
   0.2168603618E+01   0.0000000000E+00   0.9587990956E+00  -0.4500000000E-02   0.0000000000E+00   0.6750000000E-03   0.1731036177E+00   0.0000000000E+00  -0.4187590442E-01   0.2375000003E+01   0.4217902894E-14   0.4524770775E-14   0.5561715039E-15  -0.6871529549E-15   0.2395523581E-15   0.8430180895E-01  -0.4120090448E-01  -0.4120090448E-01   0.1064514594E-15   0.1940522699E-15  -0.6117952541E-16   0.2375000003E+01
   0.2168603618E+01   0.9587990956E+00   0.9587990956E+00  -0.4500000000E-02   0.6750000000E-03   0.6750000000E-03   0.1731036177E+00  -0.4187590442E-01  -0.4187590442E-01   0.2375000003E+01  -0.4503038611E-14  -0.4313829258E-14   0.8132951421E-15   0.1716331403E-16  -0.3494015420E-15   0.8430180894E-01  -0.4120090447E-01  -0.4120090447E-01   0.1111415979E-15   0.3966017169E-15   0.5823746597E-17   0.2375000003E+01
     1     2     3     4     5     6     7     8
     2     9    10     3     6    11    12     7
 VARIABLES = X,Y,Z,DU1,DU2,DU3,U1,U2,U3,S11,S22,S33,S12,S13,S23,E11,E22,E33,E12,E13,E23,SMISES
 ZONE, T="0.7500D+01" F=FEPOINT, I=   12 J=    2 ET=BRICK
   0.0000000000E+00   0.0000000000E+00   0.0000000000E+00   0.0000000000E+00   0.0000000000E+00   0.0000000000E+00   0.0000000000E+00   0.0000000000E+00   0.0000000000E+00   0.1250000002E+01   0.1214944810E-13   0.1015539718E-13   0.1288939195E-15  -0.1136860520E-14  -0.6045229758E-15   0.8205180897E-01  -0.4052590448E-01  -0.4052590448E-01   0.4573784004E-18  -0.9862715707E-16  -0.8449461368E-16   0.1250000002E+01
   0.1082051809E+01   0.0000000000E+00  -0.4910355797E-16  -0.2250000000E-02   0.0000000000E+00  -0.2234063092E-18   0.8430180884E-01   0.0000000000E+00  -0.4888015166E-16   0.1250000002E+01  -0.5627797143E-14  -0.5088823215E-14   0.2067696824E-15   0.3045037552E-15   0.7121307708E-15   0.8205180896E-01  -0.4052590448E-01  -0.4052590448E-01  -0.9847905616E-16   0.8839594208E-16   0.4287793322E-16   0.1250000002E+01
   0.1082051809E+01   0.9594740956E+00  -0.2348393845E-16  -0.2250000000E-02   0.6750000000E-03  -0.2851518049E-18   0.8430180884E-01  -0.4120090442E-01  -0.2319878664E-16   0.1250000002E+01   0.1737640601E-14   0.1724225309E-14   0.4549425133E-15   0.2883179838E-15  -0.2226259577E-15   0.8205180895E-01  -0.4052590448E-01  -0.4052590448E-01  -0.6382611021E-16   0.1178050742E-15   0.2182922470E-16   0.1250000002E+01
   0.0000000000E+00   0.9594740956E+00  -0.3733709875E-16   0.0000000000E+00   0.6750000000E-03   0.4363136392E-18   0.0000000000E+00  -0.4120090442E-01  -0.3777341239E-16   0.1250000002E+01  -0.8740761591E-14  -0.4251672083E-14   0.4671857942E-15   0.3228734289E-15  -0.3039902930E-16   0.8205180896E-01  -0.4052590448E-01  -0.4052590448E-01   0.4229395159E-16   0.5342941109E-16  -0.1549119706E-16   0.1250000002E+01
   0.0000000000E+00   0.0000000000E+00   0.9594740956E+00   0.0000000000E+00   0.0000000000E+00   0.6750000000E-03   0.0000000000E+00   0.0000000000E+00  -0.4120090442E-01   0.1250000002E+01  -0.5358860436E-14  -0.8107782501E-14  -0.9147154249E-16   0.1161641930E-15   0.6185207715E-15   0.8205180896E-01  -0.4052590448E-01  -0.4052590448E-01  -0.1054065566E-16   0.4273255816E-16   0.2777463600E-17   0.1250000002E+01
   0.1082051809E+01   0.0000000000E+00   0.9594740956E+00  -0.2250000000E-02   0.0000000000E+00   0.6750000000E-03   0.8430180884E-01   0.0000000000E+00  -0.4120090442E-01   0.1250000002E+01   0.2024821657E-14   0.3621763417E-14   0.1403038373E-15   0.1057374215E-14  -0.2700355603E-15   0.8205180895E-01  -0.4052590448E-01  -0.4052590448E-01  -0.1081308277E-15   0.1850273026E-15  -0.2092310078E-16   0.1250000002E+01
   0.1082051809E+01   0.9594740956E+00   0.9594740956E+00  -0.2250000000E-02   0.6750000000E-03   0.6750000000E-03   0.8430180884E-01  -0.4120090442E-01  -0.4120090442E-01   0.1250000002E+01  -0.4570943441E-15  -0.8340542750E-15  -0.3753095990E-15  -0.2263119568E-16  -0.3532023257E-15   0.8205180894E-01  -0.4052590447E-01  -0.4052590447E-01  -0.1388033524E-15   0.1204543703E-15  -0.4072410251E-16   0.1250000002E+01
   0.0000000000E+00   0.9594740956E+00   0.9594740956E+00   0.0000000000E+00   0.6750000000E-03   0.6750000000E-03   0.0000000000E+00  -0.4120090442E-01  -0.4120090442E-01   0.1250000002E+01   0.4206737335E-14   0.3001531980E-14   0.2111801347E-16  -0.7131615860E-15   0.1177879866E-15   0.8205180895E-01  -0.4052590447E-01  -0.4052590447E-01  -0.2493602300E-16  -0.4504926057E-16   0.4694198770E-16   0.1250000002E+01
   0.2164103618E+01   0.0000000000E+00  -0.5811702662E-16  -0.4500000000E-02   0.0000000000E+00  -0.1395202873E-17   0.1686036177E+00   0.0000000000E+00  -0.5672182375E-16   0.1250000002E+01  -0.3352677120E-14  -0.4323952903E-14  -0.2418066737E-15  -0.1114692134E-14   0.4338470803E-15   0.8205180896E-01  -0.4052590448E-01  -0.4052590448E-01  -0.3952878514E-16   0.1656480097E-15   0.2538511227E-16   0.1250000002E+01
   0.2164103618E+01   0.9594740956E+00  -0.5255303160E-16  -0.4500000000E-02   0.6750000000E-03  -0.1404365481E-17   0.1686036177E+00  -0.4120090442E-01  -0.5114866612E-16   0.1250000002E+01   0.5579296548E-14   0.4668682983E-14  -0.1667083738E-14   0.4837806256E-15  -0.2722158270E-15   0.8205180895E-01  -0.4052590447E-01  -0.4052590447E-01  -0.8627064556E-16   0.3593120524E-15   0.4891681236E-16   0.1250000002E+01
   0.2164103618E+01   0.0000000000E+00   0.9594740956E+00  -0.4500000000E-02   0.0000000000E+00   0.6750000000E-03   0.1686036177E+00   0.0000000000E+00  -0.4120090442E-01   0.1250000002E+01   0.4603625225E-14   0.4825865312E-14   0.1019495418E-15  -0.4916214212E-15   0.2297389628E-15   0.8205180895E-01  -0.4052590447E-01  -0.4052590447E-01   0.7798979791E-16   0.2165977280E-15  -0.6651423514E-16   0.1250000002E+01
   0.2164103618E+01   0.9594740956E+00   0.9594740956E+00  -0.4500000000E-02   0.6750000000E-03   0.6750000000E-03   0.1686036177E+00  -0.4120090442E-01  -0.4120090442E-01   0.1250000002E+01  -0.4886038810E-14  -0.4814292438E-14   0.4885442436E-15  -0.7160140852E-15  -0.2560125408E-15   0.8205180894E-01  -0.4052590447E-01  -0.4052590447E-01   0.9886805549E-16   0.4753047522E-15   0.5564979185E-19   0.1250000002E+01
     1     2     3     4     5     6     7     8
     2     9    10     3     6    11    12     7
 VARIABLES = X,Y,Z,DU1,DU2,DU3,U1,U2,U3,S11,S22,S33,S12,S13,S23,E11,E22,E33,E12,E13,E23,SMISES
 ZONE, T="0.7550D+01" F=FEPOINT, I=   12 J=    2 ET=BRICK
   0.0000000000E+00   0.0000000000E+00   0.0000000000E+00   0.0000000000E+00   0.0000000000E+00   0.0000000000E+00   0.0000000000E+00   0.0000000000E+00   0.0000000000E+00   0.1250000002E+00   0.1193510027E-13   0.9793938134E-14   0.1189778257E-15  -0.1313831125E-14  -0.5971797941E-15   0.7980180896E-01  -0.3985090448E-01  -0.3985090448E-01   0.6965249892E-17  -0.1047155064E-15  -0.6522300084E-16   0.1250000002E+00
   0.1079801809E+01   0.0000000000E+00  -0.4983559590E-16  -0.2250000000E-02   0.0000000000E+00  -0.7320379300E-18   0.8205180884E-01   0.0000000000E+00  -0.4910355797E-16   0.1250000002E+00  -0.5513508905E-14  -0.4894057174E-14   0.2104086692E-15   0.2941532881E-15   0.7769606151E-15   0.7980180896E-01  -0.3985090448E-01  -0.3985090448E-01  -0.8643146447E-16   0.1277607000E-15   0.5479412184E-16   0.1250000002E+00
   0.1079801809E+01   0.9601490956E+00  -0.2383879461E-16  -0.2250000000E-02   0.6750000000E-03  -0.3548561638E-18   0.8205180884E-01  -0.4052590442E-01  -0.2348393845E-16   0.1250000002E+00   0.1627286638E-14   0.1470943493E-14   0.4591708761E-15   0.3297509466E-15  -0.1477432678E-15   0.7980180895E-01  -0.3985090448E-01  -0.3985090448E-01  -0.3911570043E-16   0.9873612878E-16   0.5226763493E-16   0.1250000002E+00
   0.0000000000E+00   0.9601490956E+00  -0.3748401479E-16   0.0000000000E+00   0.6750000000E-03  -0.1469160460E-18   0.0000000000E+00  -0.4052590442E-01  -0.3733709875E-16   0.1250000002E+00  -0.8892314643E-14  -0.4399041787E-14   0.4624824658E-15   0.2783383402E-15  -0.1088315999E-15   0.7980180895E-01  -0.3985090448E-01  -0.3985090448E-01   0.2820969942E-16   0.7400628698E-16  -0.6772551266E-16   0.1250000002E+00
   0.0000000000E+00   0.0000000000E+00   0.9601490956E+00   0.0000000000E+00   0.0000000000E+00   0.6750000000E-03   0.0000000000E+00   0.0000000000E+00  -0.4052590442E-01   0.1250000002E+00  -0.5413639337E-14  -0.8303073991E-14  -0.8101327450E-16   0.1315856862E-15   0.6257233010E-15   0.7980180895E-01  -0.3985090448E-01  -0.3985090448E-01  -0.8642564769E-17   0.2937299417E-16   0.4617839072E-16   0.1250000002E+00
   0.1079801809E+01   0.0000000000E+00   0.9601490956E+00  -0.2250000000E-02   0.0000000000E+00   0.6750000000E-03   0.8205180884E-01   0.0000000000E+00  -0.4052590442E-01   0.1250000002E+00   0.2324749710E-14   0.3988972028E-14   0.1256564732E-15   0.1033830839E-14  -0.2961427502E-15   0.7980180895E-01  -0.3985090448E-01  -0.3985090448E-01  -0.1252635841E-15   0.2045796832E-15  -0.4233128485E-16   0.1250000002E+00
   0.1079801809E+01   0.9601490956E+00   0.9601490956E+00  -0.2250000000E-02   0.6750000000E-03   0.6750000000E-03   0.8205180884E-01  -0.4052590442E-01  -0.4052590442E-01   0.1250000002E+00  -0.4937848349E-15  -0.1026869863E-14  -0.4395625062E-15   0.6580806669E-16  -0.3864412528E-15   0.7980180894E-01  -0.3985090447E-01  -0.3985090447E-01  -0.1646144849E-15   0.1015231530E-15  -0.7513967607E-16   0.1250000002E+00
   0.0000000000E+00   0.9601490956E+00   0.9601490956E+00   0.0000000000E+00   0.6750000000E-03   0.6750000000E-03   0.0000000000E+00  -0.4052590442E-01  -0.4052590442E-01   0.1250000002E+00   0.4378908015E-14   0.3184484631E-14   0.5568308133E-16  -0.8290712459E-15   0.1958010052E-15   0.7980180894E-01  -0.3985090447E-01  -0.3985090447E-01  -0.1635289533E-16  -0.4504313885E-16   0.5152652580E-16   0.1250000002E+00
   0.2159603618E+01   0.0000000000E+00  -0.5870351215E-16  -0.4500000000E-02   0.0000000000E+00  -0.5864855299E-18   0.1641036177E+00   0.0000000000E+00  -0.5811702662E-16   0.1250000002E+00  -0.3061478838E-14  -0.4197893603E-14  -0.2301539964E-15  -0.1170973060E-14   0.3991486278E-15   0.7980180896E-01  -0.3985090448E-01  -0.3985090448E-01  -0.5347468125E-16   0.3040374000E-15  -0.6006903255E-17   0.1250000002E+00
   0.2159603618E+01   0.9601490956E+00  -0.5333626568E-16  -0.4500000000E-02   0.6750000000E-03  -0.7832340851E-18   0.1641036177E+00  -0.4052590442E-01  -0.5255303160E-16   0.1250000002E+00   0.5675696606E-14   0.4751238619E-14  -0.1657561001E-14   0.4050656226E-15  -0.3917486587E-15   0.7980180895E-01  -0.3985090447E-01  -0.3985090447E-01  -0.8800160320E-16   0.3770418354E-15   0.1628006334E-16   0.1250000002E+00
   0.2159603618E+01   0.0000000000E+00   0.9601490956E+00  -0.4500000000E-02   0.0000000000E+00   0.6750000000E-03   0.1641036177E+00   0.0000000000E+00  -0.4052590442E-01   0.1250000002E+00   0.4611964698E-14   0.4760972764E-14   0.1479176284E-15  -0.6541349709E-15   0.3125315483E-15   0.7980180895E-01  -0.3985090447E-01  -0.3985090447E-01   0.7912857000E-16   0.1897067739E-15   0.7428817374E-17   0.1250000002E+00
   0.2159603618E+01   0.9601490956E+00   0.9601490956E+00  -0.4500000000E-02   0.6750000000E-03   0.6750000000E-03   0.1641036177E+00  -0.4052590442E-01  -0.4052590442E-01   0.1250000002E+00  -0.4991882997E-14  -0.4842074086E-14   0.4503007069E-15  -0.8181965199E-15  -0.2864634161E-15   0.7980180894E-01  -0.3985090447E-01  -0.3985090447E-01   0.1290208659E-15   0.4443328243E-15  -0.2482573831E-16   0.1250000002E+00
     1     2     3     4     5     6     7     8
     2     9    10     3     6    11    12     7
 VARIABLES = X,Y,Z,DU1,DU2,DU3,U1,U2,U3,S11,S22,S33,S12,S13,S23,E11,E22,E33,E12,E13,E23,SMISES
 ZONE, T="0.7600D+01" F=FEPOINT, I=   12 J=    2 ET=BRICK
   0.0000000000E+00   0.0000000000E+00   0.0000000000E+00   0.0000000000E+00   0.0000000000E+00   0.0000000000E+00   0.0000000000E+00   0.0000000000E+00   0.0000000000E+00  -0.1000000002E+01   0.1210119169E-13   0.9864595349E-14   0.9926783802E-16  -0.1313356903E-14  -0.5555227949E-15   0.7755180896E-01  -0.3917590448E-01  -0.3917590448E-01   0.1717843477E-17  -0.9667375871E-16  -0.6475589822E-16   0.1000000002E+01
   0.1077551809E+01   0.0000000000E+00  -0.4984405483E-16  -0.2250000000E-02   0.0000000000E+00  -0.8458928052E-20   0.7980180884E-01   0.0000000000E+00  -0.4983559590E-16  -0.1000000002E+01  -0.5425706347E-14  -0.4987960175E-14   0.7257168097E-16   0.4129293408E-15   0.7858313089E-15   0.7755180896E-01  -0.3917590448E-01  -0.3917590448E-01  -0.8983355026E-16   0.8012770772E-16   0.3447179570E-16   0.1000000002E+01
   0.1077551809E+01   0.9608240956E+00  -0.2379858499E-16  -0.2250000000E-02   0.6750000000E-03   0.4020961866E-19   0.7980180884E-01  -0.3985090442E-01  -0.2383879461E-16  -0.1000000001E+01   0.1827712733E-14   0.1719510396E-14   0.3190539152E-15   0.4708784347E-15  -0.2374957191E-15   0.7755180895E-01  -0.3917590447E-01  -0.3917590447E-01  -0.7596148584E-16   0.1363973203E-15   0.7073128005E-16   0.1000000001E+01
   0.0000000000E+00   0.9608240956E+00  -0.3717646048E-16   0.0000000000E+00   0.6750000000E-03   0.3075543183E-18   0.0000000000E+00  -0.3985090442E-01  -0.3748401479E-16  -0.1000000001E+01  -0.8990975311E-14  -0.4550640416E-14   0.5060263892E-15   0.1873757629E-15  -0.9153041838E-16   0.7755180895E-01  -0.3917590448E-01  -0.3917590448E-01   0.3580221048E-16   0.5957566588E-16  -0.6740409247E-16   0.1000000001E+01
   0.0000000000E+00   0.0000000000E+00   0.9608240956E+00   0.0000000000E+00   0.0000000000E+00   0.6750000000E-03   0.0000000000E+00   0.0000000000E+00  -0.3985090442E-01  -0.1000000001E+01  -0.5121892822E-14  -0.7718475081E-14  -0.1012722754E-15   0.4700964142E-16   0.6627605995E-15   0.7755180895E-01  -0.3917590448E-01  -0.3917590448E-01  -0.1412281367E-17   0.2426542243E-16   0.2415214000E-16   0.1000000001E+01
   0.1077551809E+01   0.0000000000E+00   0.9608240956E+00  -0.2250000000E-02   0.0000000000E+00   0.6750000000E-03   0.7980180884E-01   0.0000000000E+00  -0.3985090442E-01  -0.1000000001E+01   0.2005864249E-14   0.3621763417E-14   0.6546594018E-16   0.1152832826E-14  -0.1862105763E-15   0.7755180895E-01  -0.3917590447E-01  -0.3917590447E-01  -0.1496866351E-15   0.2047616289E-15  -0.4278713470E-16   0.1000000001E+01
   0.1077551809E+01   0.9608240956E+00   0.9608240956E+00  -0.2250000000E-02   0.6750000000E-03   0.6750000000E-03   0.7980180884E-01  -0.3985090442E-01  -0.3985090442E-01  -0.1000000001E+01  -0.3687480003E-15  -0.6898320841E-15  -0.4600210084E-15   0.1872893126E-15  -0.3723548164E-15   0.7755180894E-01  -0.3917590447E-01  -0.3917590447E-01  -0.1078520076E-15   0.1236399292E-15  -0.7225766591E-16   0.1000000001E+01
   0.0000000000E+00   0.9608240956E+00   0.9608240956E+00   0.0000000000E+00   0.6750000000E-03   0.6750000000E-03   0.0000000000E+00  -0.3985090442E-01  -0.3985090442E-01  -0.1000000001E+01   0.4132086433E-14   0.3007972690E-14   0.9367589988E-16  -0.7734364872E-15   0.1379731601E-15   0.7755180894E-01  -0.3917590447E-01  -0.3917590447E-01  -0.2571412295E-16  -0.3844075582E-16   0.2729526801E-16   0.1000000001E+01
   0.2155103618E+01   0.0000000000E+00  -0.5867872480E-16  -0.4500000000E-02   0.0000000000E+00   0.2478734986E-19   0.1596036177E+00   0.0000000000E+00  -0.5870351215E-16  -0.1000000002E+01  -0.3175802099E-14  -0.4321595456E-14  -0.1490142001E-15  -0.1466878447E-14   0.3351898261E-15   0.7755180895E-01  -0.3917590448E-01  -0.3917590448E-01  -0.6469613035E-16   0.1486761188E-15   0.3584633024E-16   0.1000000002E+01
   0.2155103618E+01   0.9608240956E+00  -0.5365339709E-16  -0.4500000000E-02   0.6750000000E-03  -0.3171314075E-18   0.1596036177E+00  -0.3985090442E-01  -0.5333626568E-16  -0.1000000001E+01   0.5839669526E-14   0.4967651315E-14  -0.1595418401E-14   0.5404872960E-15  -0.4536378259E-15   0.7755180894E-01  -0.3917590447E-01  -0.3917590447E-01  -0.1092766785E-15   0.4287838946E-15  -0.3067191818E-16   0.1000000001E+01
   0.2155103618E+01   0.0000000000E+00   0.9608240956E+00  -0.4500000000E-02   0.0000000000E+00   0.6750000000E-03   0.1596036177E+00   0.0000000000E+00  -0.3985090442E-01  -0.1000000001E+01   0.3825690932E-14   0.3946387430E-14   0.3692722852E-15  -0.7316054664E-15   0.3227170825E-15   0.7755180894E-01  -0.3917590447E-01  -0.3917590447E-01   0.1405510029E-15   0.9577435310E-16  -0.2314634894E-16   0.1000000001E+01
   0.2155103618E+01   0.9608240956E+00   0.9608240956E+00  -0.4500000000E-02   0.6750000000E-03   0.6750000000E-03   0.1596036177E+00  -0.3985090442E-01  -0.3985090442E-01  -0.1000000001E+01  -0.4743724771E-14  -0.4522858941E-14   0.7788864560E-15  -0.8745424990E-15  -0.3538894268E-15   0.7755180894E-01  -0.3917590447E-01  -0.3917590447E-01   0.1540154257E-15   0.3878705118E-15  -0.1973742439E-16   0.1000000001E+01
     1     2     3     4     5     6     7     8
     2     9    10     3     6    11    12     7
 VARIABLES = X,Y,Z,DU1,DU2,DU3,U1,U2,U3,S11,S22,S33,S12,S13,S23,E11,E22,E33,E12,E13,E23,SMISES
 ZONE, T="0.7650D+01" F=FEPOINT, I=   12 J=    2 ET=BRICK
   0.0000000000E+00   0.0000000000E+00   0.0000000000E+00   0.0000000000E+00   0.0000000000E+00   0.0000000000E+00   0.0000000000E+00   0.0000000000E+00   0.0000000000E+00  -0.2125000003E+01   0.1173188691E-13   0.9521867427E-14   0.8179512766E-16  -0.1275416862E-14  -0.5863639479E-15   0.7530180895E-01  -0.3850090448E-01  -0.3850090448E-01   0.1184320106E-16  -0.9997170071E-16  -0.7177604842E-16   0.2125000003E+01
   0.1075301809E+01   0.0000000000E+00  -0.4987148441E-16  -0.2250000000E-02   0.0000000000E+00  -0.2742957392E-19   0.7755180884E-01   0.0000000000E+00  -0.4984405483E-16  -0.2125000003E+01  -0.5151504469E-14  -0.4622689801E-14   0.2698895445E-15   0.2885972295E-15   0.8347462634E-15   0.7530180895E-01  -0.3850090448E-01  -0.3850090448E-01  -0.1082202714E-15   0.9335032522E-16   0.4754028996E-16   0.2125000003E+01
   0.1075301809E+01   0.9614990956E+00  -0.2358690565E-16  -0.2250000000E-02   0.6750000000E-03   0.2116793453E-18   0.7755180884E-01  -0.3917590442E-01  -0.2379858499E-16  -0.2125000003E+01   0.1807029539E-14   0.1310880872E-14   0.4713898725E-15   0.3580754804E-15  -0.2003504893E-15   0.7530180894E-01  -0.3850090447E-01  -0.3850090447E-01  -0.9593216159E-16   0.1094810425E-15   0.4883043597E-16   0.2125000003E+01
   0.0000000000E+00   0.9614990956E+00  -0.3731695377E-16   0.0000000000E+00   0.6750000000E-03  -0.1404932929E-18   0.0000000000E+00  -0.3917590442E-01  -0.3717646048E-16  -0.2125000003E+01  -0.9182359822E-14  -0.4536896148E-14   0.5568594463E-15   0.3049421545E-15  -0.7653638215E-16   0.7530180895E-01  -0.3850090447E-01  -0.3850090447E-01   0.3844885802E-16   0.6066284484E-16  -0.5861326620E-16   0.2125000003E+01
   0.0000000000E+00   0.0000000000E+00   0.9614990956E+00   0.0000000000E+00   0.0000000000E+00   0.6750000000E-03   0.0000000000E+00   0.0000000000E+00  -0.3917590442E-01  -0.2125000003E+01  -0.5349564104E-14  -0.7831356669E-14  -0.5553354891E-16   0.1267720133E-15   0.6582806074E-15   0.7530180895E-01  -0.3850090447E-01  -0.3850090447E-01  -0.1005191095E-16   0.4249246183E-16   0.4053281628E-16   0.2125000003E+01
   0.1075301809E+01   0.0000000000E+00   0.9614990956E+00  -0.2250000000E-02   0.0000000000E+00   0.6750000000E-03   0.7755180884E-01   0.0000000000E+00  -0.3917590442E-01  -0.2125000003E+01   0.2102377095E-14   0.3754830005E-14   0.6108503647E-16   0.9353953667E-15  -0.2164508053E-15   0.7530180894E-01  -0.3850090447E-01  -0.3850090447E-01  -0.1131532058E-15   0.1875772832E-15  -0.4681894992E-16   0.2125000003E+01
   0.1075301809E+01   0.9614990956E+00   0.9614990956E+00  -0.2250000000E-02   0.6750000000E-03   0.6750000000E-03   0.7755180884E-01  -0.3917590442E-01  -0.3917590442E-01  -0.2125000003E+01  -0.3924203293E-15  -0.7314654576E-15  -0.4023461025E-15   0.2244601315E-15  -0.4678751500E-15   0.7530180894E-01  -0.3850090447E-01  -0.3850090447E-01  -0.1149442153E-15   0.1000730190E-15  -0.4045640887E-16   0.2125000003E+01
   0.0000000000E+00   0.9614990956E+00   0.9614990956E+00   0.0000000000E+00   0.6750000000E-03   0.6750000000E-03   0.0000000000E+00  -0.3917590442E-01  -0.3917590442E-01  -0.2125000003E+01   0.3994985472E-14   0.2807741161E-14   0.4719118170E-16  -0.8242889590E-15   0.1468664771E-15   0.7530180894E-01  -0.3850090447E-01  -0.3850090447E-01  -0.3201302617E-16  -0.4437953864E-16   0.7446233908E-16   0.2125000003E+01
   0.2150603618E+01   0.0000000000E+00  -0.5911082030E-16  -0.4500000000E-02   0.0000000000E+00  -0.4320954928E-18   0.1551036177E+00   0.0000000000E+00  -0.5867872480E-16  -0.2125000003E+01  -0.3286508521E-14  -0.4062134215E-14  -0.1612494723E-15  -0.1170336985E-14   0.3857046655E-15   0.7530180895E-01  -0.3850090448E-01  -0.3850090448E-01  -0.6752223232E-16   0.1270439938E-15   0.1161003064E-16   0.2125000003E+01
   0.2150603618E+01   0.9614990956E+00  -0.5378358748E-16  -0.4500000000E-02   0.6750000000E-03  -0.1301903849E-18   0.1551036177E+00  -0.3917590442E-01  -0.5365339709E-16  -0.2125000003E+01   0.5310672489E-14   0.4354707013E-14  -0.1688644704E-14   0.6770161630E-15  -0.3892337849E-15   0.7530180894E-01  -0.3850090447E-01  -0.3850090447E-01  -0.9599136149E-16   0.4915887699E-15   0.2493491980E-16   0.2125000003E+01
   0.2150603618E+01   0.0000000000E+00   0.9614990956E+00  -0.4500000000E-02   0.0000000000E+00   0.6750000000E-03   0.1551036177E+00   0.0000000000E+00  -0.3917590442E-01  -0.2125000003E+01   0.4733106748E-14   0.4876528067E-14   0.3150307708E-15  -0.6056460757E-15   0.3551963920E-15   0.7530180894E-01  -0.3850090447E-01  -0.3850090447E-01   0.1252583235E-15   0.2398602438E-15  -0.9308763953E-17   0.2125000003E+01
   0.2150603618E+01   0.9614990956E+00   0.9614990956E+00  -0.4500000000E-02   0.6750000000E-03   0.6750000000E-03   0.1551036177E+00  -0.3917590442E-01  -0.3917590442E-01  -0.2125000003E+01  -0.4683182848E-14  -0.4553567873E-14   0.5138270154E-15  -0.7707977921E-15  -0.3752622596E-15   0.7530180893E-01  -0.3850090447E-01  -0.3850090447E-01   0.1609291570E-15   0.4113368926E-15  -0.3392916598E-16   0.2125000003E+01
     1     2     3     4     5     6     7     8
     2     9    10     3     6    11    12     7
 VARIABLES = X,Y,Z,DU1,DU2,DU3,U1,U2,U3,S11,S22,S33,S12,S13,S23,E11,E22,E33,E12,E13,E23,SMISES
 ZONE, T="0.7700D+01" F=FEPOINT, I=   12 J=    2 ET=BRICK
   0.0000000000E+00   0.0000000000E+00   0.0000000000E+00   0.0000000000E+00   0.0000000000E+00   0.0000000000E+00   0.0000000000E+00   0.0000000000E+00   0.0000000000E+00  -0.3250000005E+01   0.1233407606E-13   0.9809582441E-14   0.1023669632E-15  -0.1270607284E-14  -0.5986544596E-15   0.7305180895E-01  -0.3782590448E-01  -0.3782590448E-01  -0.6110775737E-17  -0.7749946685E-16  -0.7502033033E-16   0.3250000005E+01
   0.1073051809E+01   0.0000000000E+00  -0.4929098214E-16  -0.2250000000E-02   0.0000000000E+00   0.5805022701E-18   0.7530180884E-01   0.0000000000E+00  -0.4987148441E-16  -0.3250000005E+01  -0.5619363681E-14  -0.4567178667E-14   0.2342130515E-15   0.3400146307E-15   0.7266935784E-15   0.7305180895E-01  -0.3782590448E-01  -0.3782590448E-01  -0.7219276865E-16   0.7473191242E-16   0.6569751106E-16   0.3250000005E+01
   0.1073051809E+01   0.9621740956E+00  -0.2355929357E-16  -0.2250000000E-02   0.6750000000E-03   0.2761208073E-19   0.7530180884E-01  -0.3850090442E-01  -0.2358690565E-16  -0.3250000005E+01   0.1627614686E-14   0.1392154853E-14   0.3235081085E-15   0.4089121703E-15  -0.1959013029E-15   0.7305180894E-01  -0.3782590447E-01  -0.3782590447E-01  -0.8641325581E-16   0.1328471969E-15   0.1510390995E-16   0.3250000005E+01
   0.0000000000E+00   0.9621740956E+00  -0.3739429404E-16   0.0000000000E+00   0.6750000000E-03  -0.7734027006E-19   0.0000000000E+00  -0.3850090442E-01  -0.3731695377E-16  -0.3250000005E+01  -0.8890926269E-14  -0.3890351475E-14   0.4250021475E-15   0.2274440853E-15  -0.3425407539E-16   0.7305180894E-01  -0.3782590447E-01  -0.3782590447E-01   0.4901818354E-16   0.4553602897E-16  -0.6430357882E-16   0.3250000005E+01
   0.0000000000E+00   0.0000000000E+00   0.9621740956E+00   0.0000000000E+00   0.0000000000E+00   0.6750000000E-03   0.0000000000E+00   0.0000000000E+00  -0.3850090442E-01  -0.3250000005E+01  -0.4961982417E-14  -0.7670267541E-14  -0.7880065729E-16   0.1351170001E-15   0.6097420968E-15   0.7305180894E-01  -0.3782590447E-01  -0.3782590447E-01   0.1187455860E-16   0.7964822208E-17   0.2406291953E-16   0.3250000005E+01
   0.1073051809E+01   0.0000000000E+00   0.9621740956E+00  -0.2250000000E-02   0.0000000000E+00   0.6750000000E-03   0.7530180884E-01   0.0000000000E+00  -0.3850090442E-01  -0.3250000005E+01   0.2185643799E-14   0.3653237557E-14   0.1730776805E-15   0.8151072986E-15  -0.1894234931E-15   0.7305180894E-01  -0.3782590447E-01  -0.3782590447E-01  -0.1581222145E-15   0.2303821207E-15  -0.6969371600E-16   0.3250000005E+01
   0.1073051809E+01   0.9621740956E+00   0.9621740956E+00  -0.2250000000E-02   0.6750000000E-03   0.6750000000E-03   0.7530180884E-01  -0.3850090442E-01  -0.3850090442E-01  -0.3250000004E+01  -0.3091536040E-15  -0.5188507197E-15  -0.2861055119E-15   0.3203204176E-15  -0.3294991732E-15   0.7305180893E-01  -0.3782590447E-01  -0.3782590447E-01  -0.1166668281E-15   0.9798845199E-16  -0.1845342700E-16   0.3250000004E+01
   0.0000000000E+00   0.9621740956E+00   0.9621740956E+00   0.0000000000E+00   0.6750000000E-03   0.6750000000E-03   0.0000000000E+00  -0.3850090442E-01  -0.3850090442E-01  -0.3250000004E+01   0.4504478076E-14   0.2789415470E-14  -0.4369633489E-16  -0.7672872144E-15   0.2164097105E-15   0.7305180893E-01  -0.3782590447E-01  -0.3782590447E-01  -0.4226809491E-16  -0.2444245497E-16   0.7318056990E-16   0.3250000004E+01
   0.2146103618E+01   0.0000000000E+00  -0.5592192267E-16  -0.4500000000E-02   0.0000000000E+00   0.3188897623E-17   0.1506036177E+00   0.0000000000E+00  -0.5911082030E-16  -0.3250000005E+01  -0.3722164263E-14  -0.4886100983E-14  -0.2269938521E-15  -0.9827945047E-15   0.1277687240E-15   0.7305180895E-01  -0.3782590448E-01  -0.3782590448E-01  -0.1014155947E-15   0.2878290069E-15   0.1294035802E-16   0.3250000005E+01
   0.2146103618E+01   0.9621740956E+00  -0.5201448534E-16  -0.4500000000E-02   0.6750000000E-03   0.1769102132E-17   0.1506036177E+00  -0.3850090442E-01  -0.5378358748E-16  -0.3250000005E+01   0.5185772387E-14   0.4466458674E-14  -0.1704874769E-14   0.4761319670E-15  -0.4790318537E-15   0.7305180894E-01  -0.3782590447E-01  -0.3782590447E-01  -0.7741682152E-16   0.2968622760E-15   0.2664163967E-16   0.3250000005E+01
   0.2146103618E+01   0.0000000000E+00   0.9621740956E+00  -0.4500000000E-02   0.0000000000E+00   0.6750000000E-03   0.1506036177E+00   0.0000000000E+00  -0.3850090442E-01  -0.3250000005E+01   0.4371287908E-14   0.4108801841E-14   0.7469998586E-16  -0.7557387887E-15   0.3387870986E-15   0.7305180894E-01  -0.3782590447E-01  -0.3782590447E-01   0.1584017257E-15   0.1802547575E-15  -0.1811425660E-16   0.3250000005E+01
   0.2146103618E+01   0.9621740956E+00   0.9621740956E+00  -0.4500000000E-02   0.6750000000E-03   0.6750000000E-03   0.1506036177E+00  -0.3850090442E-01  -0.3850090442E-01  -0.3250000004E+01  -0.4590023885E-14  -0.4424219870E-14   0.3864544267E-15  -0.6716466699E-15  -0.1674566334E-15   0.7305180893E-01  -0.3782590447E-01  -0.3782590447E-01   0.7620008560E-16   0.3280006284E-15  -0.5026819496E-16   0.3250000004E+01
     1     2     3     4     5     6     7     8
     2     9    10     3     6    11    12     7
 VARIABLES = X,Y,Z,DU1,DU2,DU3,U1,U2,U3,S11,S22,S33,S12,S13,S23,E11,E22,E33,E12,E13,E23,SMISES
 ZONE, T="0.7750D+01" F=FEPOINT, I=   12 J=    2 ET=BRICK
   0.0000000000E+00   0.0000000000E+00   0.0000000000E+00   0.0000000000E+00   0.0000000000E+00   0.0000000000E+00   0.0000000000E+00   0.0000000000E+00   0.0000000000E+00  -0.4375000007E+01   0.1212836446E-13   0.9224722649E-14   0.6133403204E-16  -0.1283854730E-14  -0.5619192128E-15   0.7080180895E-01  -0.3715090448E-01  -0.3715090448E-01  -0.9251580396E-17  -0.1010392670E-15  -0.6776296213E-16   0.4375000007E+01
   0.1070801809E+01   0.0000000000E+00  -0.4923910032E-16  -0.2250000000E-02   0.0000000000E+00   0.5188181294E-19   0.7305180884E-01   0.0000000000E+00  -0.4929098214E-16  -0.4375000007E+01  -0.5053363568E-14  -0.4345134086E-14   0.4010530563E-15   0.5699396533E-15   0.7900119055E-15   0.7080180895E-01  -0.3715090448E-01  -0.3715090448E-01  -0.5722822809E-16   0.1273744165E-15   0.4842217368E-16   0.4375000007E+01
   0.1070801809E+01   0.9628490956E+00  -0.2303716645E-16  -0.2250000000E-02   0.6750000000E-03   0.5221271173E-18   0.7305180884E-01  -0.3782590442E-01  -0.2355929357E-16  -0.4375000006E+01   0.1930933243E-14   0.1351517877E-14   0.5056282666E-15   0.1151155635E-15  -0.2841746427E-15   0.7080180894E-01  -0.3715090447E-01  -0.3715090447E-01  -0.8263205331E-16   0.6708773449E-16   0.3852341099E-16   0.4375000006E+01
   0.0000000000E+00   0.9628490956E+00  -0.3737513725E-16   0.0000000000E+00   0.6750000000E-03   0.1915678534E-19   0.0000000000E+00  -0.3782590442E-01  -0.3739429404E-16  -0.4375000006E+01  -0.8632230260E-14  -0.3555825837E-14   0.5286370182E-15   0.4439694905E-15  -0.1684456845E-15   0.7080180894E-01  -0.3715090447E-01  -0.3715090447E-01   0.3897337745E-16   0.6975906267E-16  -0.3006195570E-16   0.4375000006E+01
   0.0000000000E+00   0.0000000000E+00   0.9628490956E+00   0.0000000000E+00   0.0000000000E+00   0.6750000000E-03   0.0000000000E+00   0.0000000000E+00  -0.3782590442E-01  -0.4375000006E+01  -0.5033826605E-14  -0.7736667405E-14  -0.3583500510E-16  -0.2201974102E-16   0.5605018741E-15   0.7080180894E-01  -0.3715090447E-01  -0.3715090447E-01   0.1656130467E-16   0.2067978620E-16  -0.8571561032E-18   0.4375000006E+01
   0.1070801809E+01   0.0000000000E+00   0.9628490956E+00  -0.2250000000E-02   0.0000000000E+00   0.6750000000E-03   0.7305180884E-01   0.0000000000E+00  -0.3782590442E-01  -0.4375000006E+01   0.1508621433E-14   0.3016852167E-14  -0.1262351825E-15   0.1005453393E-14   0.3685589604E-16   0.7080180894E-01  -0.3715090447E-01  -0.3715090447E-01  -0.1622780736E-15   0.2140918682E-15  -0.4079425093E-16   0.4375000006E+01
   0.1070801809E+01   0.9628490956E+00   0.9628490956E+00  -0.2250000000E-02   0.6750000000E-03   0.6750000000E-03   0.7305180884E-01  -0.3782590442E-01  -0.3782590442E-01  -0.4375000006E+01  -0.2496569524E-15  -0.4187170921E-15  -0.5297028994E-15   0.1467871264E-15  -0.3539125041E-15   0.7080180893E-01  -0.3715090447E-01  -0.3715090447E-01  -0.1452996758E-15   0.1443543487E-15  -0.5724200741E-16   0.4375000006E+01
   0.0000000000E+00   0.9628490956E+00   0.9628490956E+00   0.0000000000E+00   0.6750000000E-03   0.6750000000E-03   0.0000000000E+00  -0.3782590442E-01  -0.3782590442E-01  -0.4375000006E+01   0.3398240679E-14   0.2143600210E-14  -0.1393727559E-16  -0.6688584629E-15   0.2321243374E-15   0.7080180893E-01  -0.3715090447E-01  -0.3715090447E-01  -0.1233988849E-16  -0.4625119183E-16   0.5601819144E-16   0.4375000006E+01
   0.2141603618E+01   0.0000000000E+00  -0.5727501310E-16  -0.4500000000E-02   0.0000000000E+00  -0.1353090430E-17   0.1461036177E+00   0.0000000000E+00  -0.5592192267E-16  -0.4375000007E+01  -0.1859089317E-14  -0.2947196409E-14  -0.5881646083E-15  -0.1789476896E-14   0.3105765110E-15   0.7080180894E-01  -0.3715090447E-01  -0.3715090447E-01  -0.6395357101E-16   0.1344635644E-15   0.2704710953E-16   0.4375000007E+01
   0.2141603618E+01   0.9628490956E+00  -0.5241796546E-16  -0.4500000000E-02   0.6750000000E-03  -0.4034801133E-18   0.1461036177E+00  -0.3782590442E-01  -0.5201448534E-16  -0.4375000006E+01   0.4726809172E-14   0.3628347274E-14  -0.2077131755E-14   0.1126686869E-14  -0.4207700664E-15   0.7080180894E-01  -0.3715090447E-01  -0.3715090447E-01  -0.1046619621E-15   0.5544297511E-15   0.7394532149E-17   0.4375000006E+01
   0.2141603618E+01   0.0000000000E+00   0.9628490956E+00  -0.4500000000E-02   0.0000000000E+00   0.6750000000E-03   0.1461036177E+00   0.0000000000E+00  -0.3782590442E-01  -0.4375000006E+01   0.4280584192E-14   0.4478520262E-14   0.5393104376E-15  -0.8697672605E-15   0.1644957483E-15   0.7080180894E-01  -0.3715090447E-01  -0.3715090447E-01   0.1141305401E-15   0.1807242401E-15  -0.4597268547E-16   0.4375000006E+01
   0.2141603618E+01   0.9628490956E+00   0.9628490956E+00  -0.4500000000E-02   0.6750000000E-03   0.6750000000E-03   0.1461036177E+00  -0.3782590442E-01  -0.3782590442E-01  -0.4375000006E+01  -0.3505563789E-14  -0.3334315450E-14   0.8687488682E-15  -0.5444549965E-15  -0.4805306512E-15   0.7080180893E-01  -0.3715090447E-01  -0.3715090447E-01   0.1609481900E-15   0.3905134424E-15   0.1516329356E-16   0.4375000006E+01
     1     2     3     4     5     6     7     8
     2     9    10     3     6    11    12     7
 VARIABLES = X,Y,Z,DU1,DU2,DU3,U1,U2,U3,S11,S22,S33,S12,S13,S23,E11,E22,E33,E12,E13,E23,SMISES
 ZONE, T="0.7800D+01" F=FEPOINT, I=   12 J=    2 ET=BRICK
   0.0000000000E+00   0.0000000000E+00   0.0000000000E+00   0.0000000000E+00   0.0000000000E+00   0.0000000000E+00   0.0000000000E+00   0.0000000000E+00   0.0000000000E+00  -0.5500000009E+01   0.1192517954E-13   0.9448030574E-14   0.5408424957E-16  -0.1454290407E-14  -0.4271536502E-15   0.6855180894E-01  -0.3647590448E-01  -0.3647590448E-01   0.8541360190E-17  -0.9673099165E-16  -0.7353996577E-16   0.5500000009E+01
   0.1068551809E+01   0.0000000000E+00  -0.5104537586E-16  -0.2250000000E-02   0.0000000000E+00  -0.1806275542E-17   0.7080180884E-01   0.0000000000E+00  -0.4923910032E-16  -0.5500000008E+01  -0.5467704437E-14  -0.4613259997E-14  -0.9159996859E-16   0.3419528087E-15   0.7889422459E-15   0.6855180894E-01  -0.3647590447E-01  -0.3647590447E-01  -0.1109053391E-15   0.8901357425E-16   0.5918897273E-16   0.5500000008E+01
   0.1068551809E+01   0.9635240956E+00  -0.2489448099E-16  -0.2250000000E-02   0.6750000000E-03  -0.1857314542E-17   0.7080180884E-01  -0.3715090442E-01  -0.2303716645E-16  -0.5500000008E+01   0.1394681465E-14   0.7245623044E-15   0.2931662256E-17   0.7264014882E-15  -0.3109761049E-15   0.6855180893E-01  -0.3647590447E-01  -0.3647590447E-01  -0.6733305205E-16   0.1310000599E-15   0.3004753253E-16   0.5500000008E+01
   0.0000000000E+00   0.9635240956E+00  -0.3663479267E-16   0.0000000000E+00   0.6750000000E-03   0.7403445852E-18   0.0000000000E+00  -0.3715090442E-01  -0.3737513725E-16  -0.5500000008E+01  -0.9562504381E-14  -0.4729192403E-14   0.4933949751E-15   0.1061226298E-17  -0.1743429106E-15   0.6855180894E-01  -0.3647590447E-01  -0.3647590447E-01   0.2231329460E-16   0.3808674127E-16  -0.5012445278E-16   0.5500000008E+01
   0.0000000000E+00   0.0000000000E+00   0.9635240956E+00   0.0000000000E+00   0.0000000000E+00   0.6750000000E-03   0.0000000000E+00   0.0000000000E+00  -0.3715090442E-01  -0.5500000008E+01  -0.4521878829E-14  -0.7022264092E-14  -0.3749294684E-16  -0.2743374734E-15   0.7309394118E-15   0.6855180894E-01  -0.3647590447E-01  -0.3647590447E-01  -0.1641122538E-17   0.3360544131E-16   0.4987827977E-17   0.5500000008E+01
   0.1068551809E+01   0.0000000000E+00   0.9635240956E+00  -0.2250000000E-02   0.0000000000E+00   0.6750000000E-03   0.7080180884E-01   0.0000000000E+00  -0.3715090442E-01  -0.5500000008E+01   0.1549258418E-14   0.3229466914E-14   0.1675060565E-16   0.1018617722E-14  -0.1352048626E-16   0.6855180893E-01  -0.3647590447E-01  -0.3647590447E-01  -0.1316063670E-15   0.2010834316E-15  -0.4891158379E-16   0.5500000008E+01
   0.1068551809E+01   0.9635240956E+00   0.9635240956E+00  -0.2250000000E-02   0.6750000000E-03   0.6750000000E-03   0.7080180884E-01  -0.3715090442E-01  -0.3715090442E-01  -0.5500000007E+01  -0.8710905777E-16  -0.1099542395E-15  -0.3003622928E-15   0.5073932159E-15  -0.4463836033E-15   0.6855180893E-01  -0.3647590447E-01  -0.3647590447E-01  -0.1560026004E-15   0.1301249841E-15  -0.4147983208E-16   0.5500000007E+01
   0.0000000000E+00   0.9635240956E+00   0.9635240956E+00   0.0000000000E+00   0.6750000000E-03   0.6750000000E-03   0.0000000000E+00  -0.3715090442E-01  -0.3715090442E-01  -0.5500000007E+01   0.4060388905E-14   0.3232241277E-14   0.1177216315E-15  -0.1059816899E-14   0.2231781998E-15   0.6855180893E-01  -0.3647590447E-01  -0.3647590447E-01  -0.1021664485E-16  -0.6011435671E-16   0.6862753292E-16   0.5500000007E+01
   0.2137103618E+01   0.0000000000E+00  -0.6329262249E-16  -0.4500000000E-02   0.0000000000E+00  -0.6017609384E-17   0.1416036177E+00   0.0000000000E+00  -0.5727501310E-16  -0.5500000008E+01  -0.2869178562E-14  -0.3899052367E-14  -0.2450236808E-15  -0.1242382524E-14   0.2545418988E-15   0.6855180894E-01  -0.3647590447E-01  -0.3647590447E-01  -0.7377165345E-16   0.1318794871E-15   0.1340887712E-16   0.5500000008E+01
   0.2137103618E+01   0.9635240956E+00  -0.5878048932E-16  -0.4500000000E-02   0.6750000000E-03  -0.6362523865E-17   0.1416036177E+00  -0.3715090442E-01  -0.5241796546E-16  -0.5500000008E+01   0.5353764668E-14   0.4265462018E-14  -0.1736600668E-14   0.7484045861E-15  -0.4346593622E-15   0.6855180893E-01  -0.3647590447E-01  -0.3647590447E-01  -0.1098843313E-15   0.3782288664E-15   0.2699491737E-16   0.5500000008E+01
   0.2137103618E+01   0.0000000000E+00   0.9635240956E+00  -0.4500000000E-02   0.0000000000E+00   0.6750000000E-03   0.1416036177E+00   0.0000000000E+00  -0.3715090442E-01  -0.5500000008E+01   0.4619095318E-14   0.4240872051E-14   0.8462386188E-16  -0.5193348045E-15   0.1929598419E-15   0.6855180893E-01  -0.3647590447E-01  -0.3647590447E-01   0.1232252775E-15   0.2883640148E-15  -0.2885253589E-16   0.5500000008E+01
   0.2137103618E+01   0.9635240956E+00   0.9635240956E+00  -0.4500000000E-02   0.6750000000E-03   0.6750000000E-03   0.1416036177E+00  -0.3715090442E-01  -0.3715090442E-01  -0.5500000007E+01  -0.4227208648E-14  -0.3997727022E-14   0.7238675875E-15  -0.7269973271E-15  -0.3971152600E-15   0.6855180892E-01  -0.3647590447E-01  -0.3647590447E-01   0.1678145023E-15   0.3657099173E-15  -0.3170941155E-16   0.5500000007E+01
     1     2     3     4     5     6     7     8
     2     9    10     3     6    11    12     7
 VARIABLES = X,Y,Z,DU1,DU2,DU3,U1,U2,U3,S11,S22,S33,S12,S13,S23,E11,E22,E33,E12,E13,E23,SMISES
 ZONE, T="0.7850D+01" F=FEPOINT, I=   12 J=    2 ET=BRICK
   0.0000000000E+00   0.0000000000E+00   0.0000000000E+00   0.0000000000E+00   0.0000000000E+00   0.0000000000E+00   0.0000000000E+00   0.0000000000E+00   0.0000000000E+00  -0.6625000010E+01   0.1154603136E-13   0.9425719258E-14   0.3039709800E-16  -0.1118211343E-14  -0.4655974716E-15   0.6630180894E-01  -0.3580090447E-01  -0.3580090447E-01   0.1569784509E-17  -0.1034109391E-15  -0.6629057753E-16   0.6625000010E+01
   0.1066301809E+01   0.0000000000E+00  -0.4840552396E-16  -0.2250000000E-02   0.0000000000E+00   0.2639851902E-17   0.6855180884E-01   0.0000000000E+00  -0.5104537586E-16  -0.6625000010E+01  -0.5548978380E-14  -0.5164385870E-14   0.4676462691E-15   0.3318556990E-15   0.5502462666E-15   0.6630180894E-01  -0.3580090447E-01  -0.3580090447E-01  -0.8334858664E-16   0.1091950933E-15   0.5190241631E-16   0.6625000010E+01
   0.1066301809E+01   0.9641990956E+00  -0.2348966108E-16  -0.2250000000E-02   0.6750000000E-03   0.1404819913E-17   0.6855180884E-01  -0.3647590442E-01  -0.2489448099E-16  -0.6625000009E+01   0.2293748402E-14   0.2115258497E-14   0.4825336993E-15   0.4981186269E-15  -0.4120154838E-15   0.6630180893E-01  -0.3580090447E-01  -0.3580090447E-01  -0.4024802292E-16   0.1040983203E-15   0.4148688677E-16   0.6625000009E+01
   0.0000000000E+00   0.9641990956E+00  -0.3675876088E-16   0.0000000000E+00   0.6750000000E-03  -0.1239682112E-18   0.0000000000E+00  -0.3647590442E-01  -0.3663479267E-16  -0.6625000010E+01  -0.9444578901E-14  -0.4402103738E-14   0.5298389937E-15   0.4378360795E-16   0.7508918130E-16   0.6630180893E-01  -0.3580090447E-01  -0.3580090447E-01   0.2968789035E-16   0.4576730786E-16  -0.8464332506E-16   0.6625000010E+01
   0.0000000000E+00   0.0000000000E+00   0.9641990956E+00   0.0000000000E+00   0.0000000000E+00   0.6750000000E-03   0.0000000000E+00   0.0000000000E+00  -0.3647590442E-01  -0.6625000010E+01  -0.4654678417E-14  -0.8467937521E-14  -0.1988170204E-16   0.8436108142E-16   0.5686651109E-15   0.6630180893E-01  -0.3580090447E-01  -0.3580090447E-01  -0.9141030163E-17   0.2089599226E-16   0.5325866450E-16   0.6625000010E+01
   0.1066301809E+01   0.0000000000E+00   0.9641990956E+00  -0.2250000000E-02   0.0000000000E+00   0.6750000000E-03   0.6855180884E-01   0.0000000000E+00  -0.3647590442E-01  -0.6625000009E+01   0.1064532272E-14   0.3062933420E-14   0.3184609337E-15   0.9406296626E-15  -0.1729537235E-15   0.6630180893E-01  -0.3580090447E-01  -0.3580090447E-01  -0.1157895557E-15   0.2452882006E-15  -0.4755938437E-16   0.6625000009E+01
   0.1066301809E+01   0.9641990956E+00   0.9641990956E+00  -0.2250000000E-02   0.6750000000E-03   0.6750000000E-03   0.6855180884E-01  -0.3647590442E-01  -0.3647590442E-01  -0.6625000009E+01  -0.5014498585E-15  -0.3983985564E-15   0.1098587741E-16   0.3272397098E-15  -0.4774203679E-15   0.6630180892E-01  -0.3580090447E-01  -0.3580090447E-01  -0.1818878897E-15   0.8846324646E-16  -0.7760022155E-16   0.6625000009E+01
   0.0000000000E+00   0.9641990956E+00   0.9641990956E+00   0.0000000000E+00   0.6750000000E-03   0.6750000000E-03   0.0000000000E+00  -0.3647590442E-01  -0.3647590442E-01  -0.6625000009E+01   0.5090796650E-14   0.3533567002E-14  -0.5314856916E-16  -0.6977879126E-15   0.3051781250E-15   0.6630180893E-01  -0.3580090447E-01  -0.3580090447E-01  -0.9945738648E-17  -0.3945493113E-16   0.5352763735E-16   0.6625000009E+01
   0.2132603618E+01   0.0000000000E+00  -0.5565721522E-16  -0.4500000000E-02   0.0000000000E+00   0.7635407264E-17   0.1371036177E+00   0.0000000000E+00  -0.6329262249E-16  -0.6625000010E+01  -0.2549527056E-14  -0.3299852417E-14   0.3880239578E-15  -0.1255661521E-14   0.2104044747E-15   0.6630180894E-01  -0.3580090447E-01  -0.3580090447E-01  -0.8022262861E-16   0.2057605401E-15   0.1109286840E-16   0.6625000010E+01
   0.2132603618E+01   0.9641990956E+00  -0.5133886924E-16  -0.4500000000E-02   0.6750000000E-03   0.7441620084E-17   0.1371036177E+00  -0.3647590442E-01  -0.5878048932E-16  -0.6625000009E+01   0.4650979492E-14   0.3605306625E-14  -0.1279888272E-14  -0.2867806988E-16  -0.1580506227E-15   0.6630180893E-01  -0.3580090447E-01  -0.3580090447E-01  -0.9481524235E-16   0.3417655845E-15   0.1677067451E-16   0.6625000009E+01
   0.2132603618E+01   0.0000000000E+00   0.9641990956E+00  -0.4500000000E-02   0.0000000000E+00   0.6750000000E-03   0.1371036177E+00   0.0000000000E+00  -0.3647590442E-01  -0.6625000009E+01   0.5396251340E-14   0.4237420526E-14  -0.5142535247E-15  -0.1396918207E-15   0.4153076484E-15   0.6630180893E-01  -0.3580090447E-01  -0.3580090447E-01   0.1133123070E-15   0.1909684157E-15  -0.1825531475E-16   0.6625000009E+01
   0.2132603618E+01   0.9641990956E+00   0.9641990956E+00  -0.4500000000E-02   0.6750000000E-03   0.6750000000E-03   0.1371036177E+00  -0.3647590442E-01  -0.3647590442E-01  -0.6625000008E+01  -0.4650979347E-14  -0.3862934717E-14   0.3014140551E-15  -0.1389059149E-14   0.1846290883E-15   0.6630180892E-01  -0.3580090446E-01  -0.3580090446E-01   0.1465634184E-15   0.4276546494E-15   0.1485187854E-17   0.6625000008E+01
     1     2     3     4     5     6     7     8
     2     9    10     3     6    11    12     7
 VARIABLES = X,Y,Z,DU1,DU2,DU3,U1,U2,U3,S11,S22,S33,S12,S13,S23,E11,E22,E33,E12,E13,E23,SMISES
 ZONE, T="0.7900D+01" F=FEPOINT, I=   12 J=    2 ET=BRICK
   0.0000000000E+00   0.0000000000E+00   0.0000000000E+00   0.0000000000E+00   0.0000000000E+00   0.0000000000E+00   0.0000000000E+00   0.0000000000E+00   0.0000000000E+00  -0.7749969524E+01  -0.1524422707E-04  -0.1524422707E-04   0.6560354988E-16  -0.9672953895E-15  -0.1341306023E-14   0.5964772687E-01  -0.3292386344E-01  -0.3292386344E-01  -0.2431055743E-17  -0.1017439021E-15  -0.6895373260E-16   0.7749954279E+01
   0.1059647727E+01   0.0000000000E+00  -0.4419627428E-16  -0.6654082061E-02   0.0000000000E+00   0.4209249684E-17   0.6630180884E-01   0.0000000000E+00  -0.4840552396E-16  -0.7749969523E+01  -0.1524422709E-04  -0.1524422708E-04  -0.4288928045E-15  -0.1971793921E-15   0.3492177158E-15   0.5964772687E-01  -0.3292386344E-01  -0.3292386344E-01  -0.8841383884E-16   0.1006117491E-15   0.4397786270E-16   0.7749954279E+01
   0.1059647727E+01   0.9670761366E+00  -0.1999429677E-16  -0.6654082061E-02   0.2877041031E-02   0.3495364312E-17   0.6630180884E-01  -0.3580090442E-01  -0.2348966108E-16  -0.7749969523E+01  -0.1524422708E-04  -0.1524422708E-04  -0.1779476529E-15   0.1659957883E-15   0.5611709274E-15   0.5964772686E-01  -0.3292386343E-01  -0.3292386343E-01  -0.6925911155E-16   0.8756290045E-16   0.4629249240E-16   0.7749954278E+01
   0.0000000000E+00   0.9670761366E+00  -0.4240589490E-16   0.0000000000E+00   0.2877041031E-02  -0.5647134018E-17   0.0000000000E+00  -0.3580090442E-01  -0.3675876088E-16  -0.7749969523E+01  -0.1524422709E-04  -0.1524422708E-04   0.1003705648E-14   0.1366756588E-14   0.3523168658E-15   0.5964772686E-01  -0.3292386344E-01  -0.3292386344E-01   0.3525886726E-16   0.6404791866E-16  -0.4297681312E-16   0.7749954279E+01
   0.0000000000E+00   0.0000000000E+00   0.9670761366E+00   0.0000000000E+00   0.0000000000E+00   0.2877041031E-02   0.0000000000E+00   0.0000000000E+00  -0.3580090442E-01  -0.7749969523E+01  -0.1524422709E-04  -0.1524422709E-04  -0.9804538223E-16   0.9797381784E-15   0.3715483390E-15   0.5964772686E-01  -0.3292386344E-01  -0.3292386344E-01  -0.1785262098E-17   0.7167786256E-16   0.7884595478E-17   0.7749954279E+01
   0.1059647727E+01   0.0000000000E+00   0.9670761366E+00  -0.6654082061E-02   0.0000000000E+00   0.2877041031E-02   0.6630180884E-01   0.0000000000E+00  -0.3580090442E-01  -0.7749969523E+01  -0.1524422708E-04  -0.1524422708E-04  -0.2341193213E-15   0.5005234965E-15  -0.5445655196E-15   0.5964772686E-01  -0.3292386343E-01  -0.3292386343E-01  -0.1135504674E-15   0.1408510474E-15  -0.4490930091E-16   0.7749954278E+01
   0.1059647727E+01   0.9670761366E+00   0.9670761366E+00  -0.6654082061E-02   0.2877041031E-02   0.2877041031E-02   0.6630180884E-01  -0.3580090442E-01  -0.3580090442E-01  -0.7749969522E+01  -0.1524422708E-04  -0.1524422708E-04  -0.7869406955E-15  -0.3728970521E-16   0.1203853308E-15   0.5964772685E-01  -0.3292386343E-01  -0.3292386343E-01  -0.1280756457E-15   0.1720980866E-15  -0.2530999307E-16   0.7749954277E+01
   0.0000000000E+00   0.9670761366E+00   0.9670761366E+00   0.0000000000E+00   0.2877041031E-02   0.2877041031E-02   0.0000000000E+00  -0.3580090442E-01  -0.3580090442E-01  -0.7749969522E+01  -0.1524422708E-04  -0.1524422708E-04   0.4299903023E-15  -0.1017977894E-15   0.9151508571E-15   0.5964772686E-01  -0.3292386343E-01  -0.3292386343E-01  -0.3595340680E-16  -0.2246999984E-16   0.6716840728E-16   0.7749954278E+01
   0.2119295454E+01   0.0000000000E+00  -0.3401684808E-16  -0.1330816412E-01   0.0000000000E+00   0.2164036715E-16   0.1326036177E+00   0.0000000000E+00  -0.5565721522E-16  -0.7749969523E+01  -0.1524422708E-04  -0.1524422708E-04  -0.9874047258E-15  -0.1412456459E-14  -0.1493066877E-15   0.5964772687E-01  -0.3292386344E-01  -0.3292386344E-01  -0.3825488112E-16   0.2220890827E-15  -0.5324128986E-17   0.7749954279E+01
   0.2119295454E+01   0.9670761366E+00  -0.3159827291E-16  -0.1330816412E-01   0.2877041031E-02   0.1974059633E-16   0.1326036177E+00  -0.3580090442E-01  -0.5133886924E-16  -0.7749969522E+01  -0.1524422707E-04  -0.1524422708E-04  -0.2319515868E-14   0.1027597554E-14   0.4703817752E-16   0.5964772686E-01  -0.3292386343E-01  -0.3292386343E-01  -0.7917132700E-16   0.2713619097E-15   0.4367623360E-16   0.7749954278E+01
   0.2119295454E+01   0.0000000000E+00   0.9670761366E+00  -0.1330816412E-01   0.0000000000E+00   0.2877041031E-02   0.1326036177E+00   0.0000000000E+00  -0.3580090442E-01  -0.7749969522E+01  -0.1524422708E-04  -0.1524422708E-04   0.1561772151E-14  -0.1428742325E-14  -0.5197610456E-15   0.5964772686E-01  -0.3292386343E-01  -0.3292386343E-01   0.6542223451E-16   0.1494563100E-15  -0.1595725052E-16   0.7749954278E+01
   0.2119295454E+01   0.9670761366E+00   0.9670761366E+00  -0.1330816412E-01   0.2877041031E-02   0.2877041031E-02   0.1326036177E+00  -0.3580090442E-01  -0.3580090442E-01  -0.7749969521E+01  -0.1524422708E-04  -0.1524422708E-04   0.1551812594E-14   0.6015719577E-15  -0.5738957861E-15   0.5964772685E-01  -0.3292386343E-01  -0.3292386343E-01   0.8703093356E-16   0.2926183281E-15  -0.1076385188E-16   0.7749954277E+01
     1     2     3     4     5     6     7     8
     2     9    10     3     6    11    12     7
 VARIABLES = X,Y,Z,DU1,DU2,DU3,U1,U2,U3,S11,S22,S33,S12,S13,S23,E11,E22,E33,E12,E13,E23,SMISES
 ZONE, T="0.7950D+01" F=FEPOINT, I=   12 J=    2 ET=BRICK
   0.0000000000E+00   0.0000000000E+00   0.0000000000E+00   0.0000000000E+00   0.0000000000E+00   0.0000000000E+00   0.0000000000E+00   0.0000000000E+00   0.0000000000E+00  -0.8875009449E+01   0.4717420534E-05   0.4717420531E-05   0.6785274280E-16  -0.1604556036E-14  -0.2383407143E-15   0.3631920092E-01  -0.2170960047E-01  -0.2170960047E-01   0.3714762643E-17  -0.1289560117E-15  -0.6403375968E-16   0.8875014166E+01
   0.1036319201E+01   0.0000000000E+00  -0.5807832444E-16  -0.2332852591E-01   0.0000000000E+00  -0.1388205017E-16   0.5964772678E-01   0.0000000000E+00  -0.4419627428E-16  -0.8875009449E+01   0.4717420526E-05   0.4717420528E-05   0.7978765282E-15   0.5987752433E-15   0.1090510938E-14   0.3631920092E-01  -0.2170960047E-01  -0.2170960047E-01  -0.6258577932E-16   0.1259351817E-15   0.5445356572E-16   0.8875014166E+01
   0.1036319201E+01   0.9782903996E+00  -0.2765456522E-16  -0.2332852591E-01   0.1121426295E-01  -0.7660268453E-17   0.5964772678E-01  -0.3292386339E-01  -0.1999429677E-16  -0.8875009447E+01   0.4717420529E-05   0.4717420527E-05   0.7521771408E-15  -0.1930620465E-16  -0.5193237090E-15   0.3631920092E-01  -0.2170960046E-01  -0.2170960046E-01  -0.5554566617E-16   0.1102600300E-15   0.6375010225E-16   0.8875014165E+01
   0.0000000000E+00   0.9782903996E+00  -0.3586413710E-16   0.0000000000E+00   0.1121426295E-01   0.6541757800E-17   0.0000000000E+00  -0.3292386339E-01  -0.4240589490E-16  -0.8875009448E+01   0.4717420519E-05   0.4717420522E-05  -0.7783258856E-16  -0.7459330203E-16  -0.3556910259E-15   0.3631920092E-01  -0.2170960047E-01  -0.2170960047E-01   0.1970187568E-16   0.4255980296E-16  -0.4744667665E-16   0.8875014165E+01
   0.0000000000E+00   0.0000000000E+00   0.9782903996E+00   0.0000000000E+00   0.0000000000E+00   0.1121426295E-01   0.0000000000E+00   0.0000000000E+00  -0.3292386339E-01  -0.8875009448E+01   0.4717420518E-05   0.4717420518E-05   0.1788414912E-15   0.9218635044E-16   0.7868255995E-15   0.3631920092E-01  -0.2170960047E-01  -0.2170960047E-01  -0.3114657458E-17   0.4136856191E-16   0.3270791726E-16   0.8875014165E+01
   0.1036319201E+01   0.0000000000E+00   0.9782903996E+00  -0.2332852591E-01   0.0000000000E+00   0.1121426295E-01   0.5964772678E-01   0.0000000000E+00  -0.3292386339E-01  -0.8875009447E+01   0.4717420530E-05   0.4717420532E-05  -0.7750420420E-17   0.1151733281E-14  -0.1265895830E-15   0.3631920092E-01  -0.2170960046E-01  -0.2170960046E-01  -0.9275562019E-16   0.1975179944E-15  -0.2841192372E-16   0.8875014165E+01
   0.1036319201E+01   0.9782903996E+00   0.9782903996E+00  -0.2332852591E-01   0.1121426295E-01   0.1121426295E-01   0.5964772678E-01  -0.3292386339E-01  -0.3292386339E-01  -0.8875009446E+01   0.4717420525E-05   0.4717420526E-05   0.3602290550E-16  -0.1073954142E-15  -0.4920407906E-15   0.3631920092E-01  -0.2170960046E-01  -0.2170960046E-01  -0.1117212072E-15   0.1149707167E-15  -0.7076237511E-16   0.8875014164E+01
   0.0000000000E+00   0.9782903996E+00   0.9782903996E+00   0.0000000000E+00   0.1121426295E-01   0.1121426295E-01   0.0000000000E+00  -0.3292386339E-01  -0.3292386339E-01  -0.8875009447E+01   0.4717420533E-05   0.4717420533E-05  -0.1063970346E-15  -0.1062163239E-14  -0.4004149802E-16   0.3631920092E-01  -0.2170960046E-01  -0.2170960046E-01  -0.4965341410E-16  -0.2843706184E-16   0.7607550250E-16   0.8875014164E+01
   0.2072638402E+01   0.0000000000E+00  -0.7561351581E-16  -0.4665705182E-01   0.0000000000E+00  -0.4159666774E-16   0.1192954536E+00   0.0000000000E+00  -0.3401684808E-16  -0.8875009448E+01   0.4717420533E-05   0.4717420531E-05  -0.5513179232E-15   0.1270900892E-14  -0.6940467812E-16   0.3631920092E-01  -0.2170960047E-01  -0.2170960047E-01  -0.7785935654E-16   0.2591035584E-15   0.1702075812E-16   0.8875014166E+01
   0.2072638402E+01   0.9782903996E+00  -0.7253023559E-16  -0.4665705182E-01   0.1121426295E-01  -0.4093196268E-16   0.1192954536E+00  -0.3292386339E-01  -0.3159827291E-16  -0.8875009447E+01   0.4717420535E-05   0.4717420533E-05  -0.7705416195E-15   0.1595792199E-14  -0.2458011788E-15   0.3631920092E-01  -0.2170960046E-01  -0.2170960046E-01  -0.7545070209E-16   0.2700366843E-15  -0.4253119242E-17   0.8875014165E+01
   0.2072638402E+01   0.0000000000E+00   0.9782903996E+00  -0.4665705182E-01   0.0000000000E+00   0.1121426295E-01   0.1192954536E+00   0.0000000000E+00  -0.3292386339E-01  -0.8875009447E+01   0.4717420531E-05   0.4717420531E-05   0.1023216242E-14  -0.2812019915E-14   0.4655101798E-15   0.3631920092E-01  -0.2170960046E-01  -0.2170960046E-01   0.6159707303E-16   0.1673207776E-15  -0.2522909887E-16   0.8875014165E+01
   0.2072638402E+01   0.9782903996E+00   0.9782903996E+00  -0.4665705182E-01   0.1121426295E-01   0.1121426295E-01   0.1192954536E+00  -0.3292386339E-01  -0.3292386339E-01  -0.8875009446E+01   0.4717420521E-05   0.4717420523E-05  -0.4599523346E-15   0.2371286109E-15  -0.2699495282E-15   0.3631920091E-01  -0.2170960046E-01  -0.2170960046E-01   0.7564693257E-16   0.4469542944E-15   0.2285476413E-16   0.8875014164E+01
     1     2     3     4     5     6     7     8
     2     9    10     3     6    11    12     7
 VARIABLES = X,Y,Z,DU1,DU2,DU3,U1,U2,U3,S11,S22,S33,S12,S13,S23,E11,E22,E33,E12,E13,E23,SMISES
 ZONE, T="0.8000D+01" F=FEPOINT, I=   12 J=    2 ET=BRICK
   0.0000000000E+00   0.0000000000E+00   0.0000000000E+00   0.0000000000E+00   0.0000000000E+00   0.0000000000E+00   0.0000000000E+00   0.0000000000E+00   0.0000000000E+00  -0.1000000550E+02   0.2740786205E-05   0.2740786202E-05   0.9891264393E-16  -0.1018608258E-14  -0.1201269571E-14   0.1156931865E-01  -0.9784659332E-02  -0.9784659332E-02  -0.3435939373E-17  -0.1397019980E-15  -0.1088161537E-15   0.1000000824E+02
   0.1011569319E+01   0.0000000000E+00  -0.5334990271E-16  -0.2474988223E-01   0.0000000000E+00   0.4728421738E-17   0.3631920087E-01   0.0000000000E+00  -0.5807832444E-16  -0.1000000550E+02   0.2740786186E-05   0.2740786187E-05   0.5803185093E-15   0.8263151375E-15  -0.5601131241E-16   0.1156931865E-01  -0.9784659332E-02  -0.9784659332E-02  -0.5629414086E-16   0.1435028877E-15   0.5345500017E-16   0.1000000824E+02
   0.1011569319E+01   0.9902153407E+00  -0.3169718233E-16  -0.2474988223E-01   0.1192494112E-01  -0.4042617108E-17   0.3631920087E-01  -0.2170960043E-01  -0.2765456522E-16  -0.1000000550E+02   0.2740786194E-05   0.2740786195E-05   0.1016306297E-14  -0.1469315365E-14  -0.9204640299E-16   0.1156931865E-01  -0.9784659331E-02  -0.9784659331E-02  -0.6166028563E-16   0.7643602624E-16   0.3705366356E-16   0.1000000824E+02
   0.0000000000E+00   0.9902153407E+00  -0.4650836342E-16   0.0000000000E+00   0.1192494112E-01  -0.1064422632E-16   0.0000000000E+00  -0.2170960043E-01  -0.3586413710E-16  -0.1000000550E+02   0.2740786185E-05   0.2740786188E-05   0.4579800446E-15   0.6063887011E-15  -0.5425565332E-15   0.1156931865E-01  -0.9784659331E-02  -0.9784659331E-02   0.3371057267E-16   0.4923203963E-16  -0.3582108068E-16   0.1000000824E+02
   0.0000000000E+00   0.0000000000E+00   0.9902153407E+00   0.0000000000E+00   0.0000000000E+00   0.1192494112E-01   0.0000000000E+00   0.0000000000E+00  -0.2170960043E-01  -0.1000000550E+02   0.2740786188E-05   0.2740786187E-05   0.4127034890E-16   0.9749996013E-15  -0.4105387352E-16   0.1156931865E-01  -0.9784659331E-02  -0.9784659331E-02  -0.5374037569E-18   0.6966714762E-16   0.5721609814E-16   0.1000000824E+02
   0.1011569319E+01   0.0000000000E+00   0.9902153407E+00  -0.2474988223E-01   0.0000000000E+00   0.1192494112E-01   0.3631920087E-01   0.0000000000E+00  -0.2170960043E-01  -0.1000000550E+02   0.2740786194E-05   0.2740786193E-05  -0.2200996818E-14   0.9981955517E-15  -0.1220395470E-15   0.1156931865E-01  -0.9784659331E-02  -0.9784659331E-02  -0.1595476009E-15   0.1976973387E-15  -0.3726857149E-16   0.1000000824E+02
   0.1011569319E+01   0.9902153407E+00   0.9902153407E+00  -0.2474988223E-01   0.1192494112E-01   0.1192494112E-01   0.3631920087E-01  -0.2170960043E-01  -0.2170960043E-01  -0.1000000549E+02   0.2740786193E-05   0.2740786192E-05  -0.1466671567E-14  -0.9250494312E-15  -0.7606614437E-16   0.1156931865E-01  -0.9784659329E-02  -0.9784659329E-02  -0.1431723458E-15   0.1076100544E-15  -0.3748090489E-16   0.1000000824E+02
   0.0000000000E+00   0.9902153407E+00   0.9902153407E+00   0.0000000000E+00   0.1192494112E-01   0.1192494112E-01   0.0000000000E+00  -0.2170960043E-01  -0.2170960043E-01  -0.1000000549E+02   0.2740786193E-05   0.2740786191E-05   0.4056958433E-15   0.4427809248E-16   0.7156693090E-15   0.1156931865E-01  -0.9784659330E-02  -0.9784659330E-02  -0.3098021991E-16  -0.3778178584E-16   0.7963910006E-16   0.1000000824E+02
   0.2023138637E+01   0.0000000000E+00  -0.6030090955E-16  -0.4949976447E-01   0.0000000000E+00   0.1531260626E-16   0.7263840174E-01   0.0000000000E+00  -0.7561351581E-16  -0.1000000550E+02   0.2740786188E-05   0.2740786189E-05  -0.7844456064E-15  -0.1461936482E-14  -0.1381708072E-15   0.1156931865E-01  -0.9784659331E-02  -0.9784659331E-02  -0.9629569081E-16   0.1875205948E-15  -0.8889176705E-17   0.1000000824E+02
   0.2023138637E+01   0.9902153407E+00  -0.5872613336E-16  -0.4949976447E-01   0.1192494112E-01   0.1380410223E-16   0.7263840174E-01  -0.2170960043E-01  -0.7253023559E-16  -0.1000000550E+02   0.2740786195E-05   0.2740786195E-05  -0.1468051800E-14   0.4801319023E-15   0.1812599393E-14   0.1156931865E-01  -0.9784659330E-02  -0.9784659330E-02  -0.1167546114E-15   0.2451319834E-15   0.8942868208E-16   0.1000000824E+02
   0.2023138637E+01   0.0000000000E+00   0.9902153407E+00  -0.4949976447E-01   0.0000000000E+00   0.1192494112E-01   0.7263840174E-01   0.0000000000E+00  -0.2170960043E-01  -0.1000000550E+02   0.2740786189E-05   0.2740786189E-05   0.1262338227E-14  -0.9447069134E-15  -0.4998299517E-15   0.1156931865E-01  -0.9784659330E-02  -0.9784659330E-02   0.6519393180E-16   0.1940005934E-15  -0.3363290231E-16   0.1000000824E+02
   0.2023138637E+01   0.9902153407E+00   0.9902153407E+00  -0.4949976447E-01   0.1192494112E-01   0.1192494112E-01   0.7263840174E-01  -0.2170960043E-01  -0.2170960043E-01  -0.1000000549E+02   0.2740786188E-05   0.2740786187E-05   0.1238320050E-14  -0.1620202812E-14   0.9519380408E-15   0.1156931865E-01  -0.9784659329E-02  -0.9784659329E-02   0.1276387465E-15   0.3689992951E-15   0.4059514273E-16   0.1000000824E+02
     1     2     3     4     5     6     7     8
     2     9    10     3     6    11    12     7
 VARIABLES = X,Y,Z,DU1,DU2,DU3,U1,U2,U3,S11,S22,S33,S12,S13,S23,E11,E22,E33,E12,E13,E23,SMISES
 ZONE, T="0.8050D+01" F=FEPOINT, I=   12 J=    2 ET=BRICK
   0.0000000000E+00   0.0000000000E+00   0.0000000000E+00   0.0000000000E+00   0.0000000000E+00   0.0000000000E+00   0.0000000000E+00   0.0000000000E+00   0.0000000000E+00  -0.8875000014E+01   0.1010565938E-13   0.5609256842E-14   0.1047276235E-15  -0.4268386177E-14  -0.5584764596E-14   0.1381933291E-01  -0.1045966646E-01  -0.1045966646E-01   0.5663180549E-19  -0.1615790039E-15  -0.1361422923E-15   0.8875000014E+01
   0.1013819333E+01   0.0000000000E+00  -0.5373332481E-16   0.2250014252E-02   0.0000000000E+00  -0.3834220990E-18   0.1156931863E-01   0.0000000000E+00  -0.5334990271E-16  -0.8875000014E+01  -0.3626016052E-14   0.3076740096E-14  -0.1408408173E-14  -0.2585565149E-15   0.8623829596E-15   0.1381933291E-01  -0.1045966646E-01  -0.1045966646E-01  -0.9008943661E-16   0.1038204773E-15   0.5320118544E-16   0.8875000014E+01
   0.1013819333E+01   0.9895403336E+00  -0.2726946997E-16   0.2250014252E-02  -0.6750071260E-03   0.4427712364E-17   0.1156931863E-01  -0.9784659317E-02  -0.3169718233E-16  -0.8875000013E+01  -0.3879945078E-14  -0.1232648287E-15   0.7044960555E-15  -0.1796359033E-14   0.3830002605E-14   0.1381933291E-01  -0.1045966646E-01  -0.1045966646E-01  -0.6969198834E-16   0.8630347592E-16   0.8810783569E-16   0.8875000013E+01
   0.0000000000E+00   0.9895403336E+00  -0.6932064154E-16   0.0000000000E+00  -0.6750071260E-03  -0.2281227812E-16   0.0000000000E+00  -0.9784659317E-02  -0.4650836342E-16  -0.8875000013E+01  -0.3059729721E-14   0.5104108014E-14   0.1215319368E-15   0.4932528031E-14  -0.2580375485E-14   0.1381933291E-01  -0.1045966646E-01  -0.1045966646E-01   0.3155471731E-16   0.9696838254E-16  -0.6792047969E-16   0.8875000013E+01
   0.0000000000E+00   0.0000000000E+00   0.9895403336E+00   0.0000000000E+00   0.0000000000E+00  -0.6750071260E-03   0.0000000000E+00   0.0000000000E+00  -0.9784659317E-02  -0.8875000013E+01  -0.6802603278E-14  -0.1506443907E-13   0.3262764323E-16   0.3052448186E-14  -0.7141187714E-15   0.1381933291E-01  -0.1045966646E-01  -0.1045966646E-01  -0.4582931094E-18   0.8664286294E-16   0.2426650889E-16   0.8875000013E+01
   0.1013819333E+01   0.0000000000E+00   0.9895403336E+00   0.2250014252E-02   0.0000000000E+00  -0.6750071260E-03   0.1156931863E-01   0.0000000000E+00  -0.9784659317E-02  -0.8875000013E+01   0.6799396319E-15  -0.3468735302E-15  -0.4204905203E-14   0.1530558294E-14  -0.1232484641E-15   0.1381933291E-01  -0.1045966646E-01  -0.1045966646E-01  -0.1731175901E-15   0.2161267494E-15  -0.3725098677E-16   0.8875000013E+01
   0.1013819333E+01   0.9895403336E+00   0.9895403336E+00   0.2250014252E-02  -0.6750071260E-03  -0.6750071260E-03   0.1156931863E-01  -0.9784659317E-02  -0.9784659317E-02  -0.8875000012E+01   0.2163084788E-14  -0.8345169955E-15  -0.3012354570E-14  -0.1073579516E-14   0.2909444685E-14   0.1381933290E-01  -0.1045966646E-01  -0.1045966646E-01  -0.1591566315E-15   0.8221955893E-16   0.3712216064E-17   0.8875000012E+01
   0.0000000000E+00   0.9895403336E+00   0.9895403336E+00   0.0000000000E+00  -0.6750071260E-03  -0.6750071260E-03   0.0000000000E+00  -0.9784659317E-02  -0.9784659317E-02  -0.8875000012E+01  -0.3220714685E-14  -0.3729067919E-14   0.1669931794E-14   0.3465311879E-14   0.2400467466E-14   0.1381933290E-01  -0.1045966646E-01  -0.1045966646E-01  -0.1838891492E-16   0.4439771855E-17   0.1075138259E-15   0.8875000012E+01
   0.2027638666E+01   0.0000000000E+00   0.4016039573E-17   0.4500028504E-02   0.0000000000E+00   0.6431694913E-16   0.2313863727E-01   0.0000000000E+00  -0.6030090955E-16  -0.8875000013E+01   0.4219914399E-14   0.2721113710E-14  -0.1018219682E-13  -0.3638751836E-14  -0.2753854119E-14   0.1381933291E-01  -0.1045966646E-01  -0.1045966646E-01  -0.1846656191E-15   0.2030738590E-15  -0.1952932989E-16   0.8875000013E+01
   0.2027638666E+01   0.9895403336E+00  -0.7977418593E-17   0.4500028504E-02  -0.6750071260E-03   0.5074871477E-16   0.2313863727E-01  -0.9784659317E-02  -0.5872613336E-16  -0.8875000012E+01  -0.9646851050E-15  -0.4135592571E-15  -0.7135378415E-14   0.5232484813E-14  -0.7758710960E-15   0.1381933290E-01  -0.1045966646E-01  -0.1045966646E-01  -0.1649013712E-15   0.2991122027E-15   0.4011832348E-16   0.8875000012E+01
   0.2027638666E+01   0.0000000000E+00   0.9895403336E+00   0.4500028504E-02   0.0000000000E+00  -0.6750071260E-03   0.2313863727E-01   0.0000000000E+00  -0.9784659317E-02  -0.8875000012E+01  -0.9418321040E-14  -0.1133438051E-13   0.3973736616E-14  -0.4573581087E-14  -0.2505262127E-14   0.1381933290E-01  -0.1045966646E-01  -0.1045966646E-01   0.1005819776E-15   0.1497420362E-15  -0.5125259144E-16   0.8875000012E+01
   0.2027638666E+01   0.9895403336E+00   0.9895403336E+00   0.4500028504E-02  -0.6750071260E-03  -0.6750071260E-03   0.2313863727E-01  -0.9784659317E-02  -0.9784659317E-02  -0.8875000011E+01  -0.1853933643E-15  -0.2424412869E-14   0.3603919811E-14   0.3538575525E-14  -0.1004605952E-14   0.1381933290E-01  -0.1045966646E-01  -0.1045966646E-01   0.1609511598E-15   0.4220588310E-15   0.1425007478E-16   0.8875000011E+01
     1     2     3     4     5     6     7     8
     2     9    10     3     6    11    12     7
 VARIABLES = X,Y,Z,DU1,DU2,DU3,U1,U2,U3,S11,S22,S33,S12,S13,S23,E11,E22,E33,E12,E13,E23,SMISES
 ZONE, T="0.8100D+01" F=FEPOINT, I=   12 J=    2 ET=BRICK
   0.0000000000E+00   0.0000000000E+00   0.0000000000E+00   0.0000000000E+00   0.0000000000E+00   0.0000000000E+00   0.0000000000E+00   0.0000000000E+00   0.0000000000E+00  -0.7750000012E+01   0.1045068276E-13   0.8000221435E-14   0.7692498767E-16  -0.1867164410E-14  -0.1272460890E-14   0.1606933291E-01  -0.1113466646E-01  -0.1113466646E-01  -0.1412542133E-17  -0.1309507797E-15  -0.1015007926E-15   0.7750000012E+01
   0.1016069333E+01   0.0000000000E+00  -0.5626208136E-16   0.2250000000E-02   0.0000000000E+00  -0.2528756554E-17   0.1381933289E-01   0.0000000000E+00  -0.5373332481E-16  -0.7750000012E+01  -0.5253630866E-14  -0.3655764246E-14   0.4850680154E-15   0.1078140144E-14   0.4463981452E-15   0.1606933291E-01  -0.1113466646E-01  -0.1113466646E-01  -0.6749763436E-16   0.1146710784E-15   0.4922034958E-16   0.7750000012E+01
   0.1016069333E+01   0.9888653336E+00  -0.3198623272E-16   0.2250000000E-02  -0.6750000000E-03  -0.4716762759E-17   0.1381933289E-01  -0.1045966644E-01  -0.2726946997E-16  -0.7750000011E+01   0.1782191683E-14   0.1560147145E-14   0.1264289076E-14  -0.8344856258E-15   0.2236436371E-15   0.1606933291E-01  -0.1113466646E-01  -0.1113466646E-01  -0.6341518268E-16   0.1011141721E-15   0.5288757693E-16   0.7750000011E+01
   0.0000000000E+00   0.9888653336E+00  -0.4685815627E-16   0.0000000000E+00  -0.6750000000E-03   0.2246248527E-16   0.0000000000E+00  -0.1045966644E-01  -0.6932064154E-16  -0.7750000011E+01  -0.6627316933E-14  -0.3748708508E-14   0.7485332515E-15   0.7779820392E-15  -0.5038462859E-15   0.1606933291E-01  -0.1113466646E-01  -0.1113466646E-01   0.3651721077E-16   0.4460097632E-16  -0.3788288661E-16   0.7750000011E+01
   0.0000000000E+00   0.0000000000E+00   0.9888653336E+00   0.0000000000E+00   0.0000000000E+00  -0.6750000000E-03   0.0000000000E+00   0.0000000000E+00  -0.1045966644E-01  -0.7750000011E+01  -0.3803151627E-14  -0.5038203153E-14   0.1403128269E-16   0.9065704389E-15   0.3437166980E-15   0.1606933291E-01  -0.1113466646E-01  -0.1113466646E-01   0.2841458863E-17   0.6086204615E-16   0.4880232801E-16   0.7750000011E+01
   0.1016069333E+01   0.0000000000E+00   0.9888653336E+00   0.2250000000E-02   0.0000000000E+00  -0.6750000000E-03   0.1381933289E-01   0.0000000000E+00  -0.1045966644E-01  -0.7750000011E+01   0.1819910984E-14   0.2545541370E-14  -0.1576010078E-14   0.1335724974E-14  -0.4899290578E-15   0.1606933291E-01  -0.1113466646E-01  -0.1113466646E-01  -0.1510574058E-15   0.2126749902E-15  -0.4169737439E-16   0.7750000011E+01
   0.1016069333E+01   0.9888653336E+00   0.9888653336E+00   0.2250000000E-02  -0.6750000000E-03  -0.6750000000E-03   0.1381933289E-01  -0.1045966644E-01  -0.1045966644E-01  -0.7750000010E+01   0.1266935690E-14  -0.6719688741E-15  -0.8609375599E-15  -0.2212647839E-16  -0.5954362401E-15   0.1606933291E-01  -0.1113466646E-01  -0.1113466646E-01  -0.1300775881E-15   0.9315933485E-16  -0.4243228830E-16   0.7750000010E+01
   0.0000000000E+00   0.9888653336E+00   0.9888653336E+00   0.0000000000E+00  -0.6750000000E-03  -0.6750000000E-03   0.0000000000E+00  -0.1045966644E-01  -0.1045966644E-01  -0.7750000010E+01   0.9513740387E-15   0.6262781860E-15   0.4512528571E-15  -0.9959450634E-15   0.1195219152E-14   0.1606933291E-01  -0.1113466646E-01  -0.1113466646E-01  -0.3457448056E-16  -0.4206811907E-16   0.9773900454E-16   0.7750000010E+01
   0.2032138666E+01   0.0000000000E+00  -0.6216415438E-16   0.4500000000E-02   0.0000000000E+00  -0.6618019395E-16   0.2763866577E-01   0.0000000000E+00   0.4016039573E-17  -0.7750000012E+01  -0.9941472536E-15  -0.8831248481E-15  -0.4932053013E-15  -0.8799074395E-15  -0.4401281979E-16   0.1606933291E-01  -0.1113466646E-01  -0.1113466646E-01  -0.7772686612E-16   0.2000716222E-15   0.5497154815E-17   0.7750000012E+01
   0.2032138666E+01   0.9888653336E+00  -0.6007237036E-16   0.4500000000E-02  -0.6750000000E-03  -0.5209495177E-16   0.2763866577E-01  -0.1045966644E-01  -0.7977418593E-17  -0.7750000011E+01   0.5652029828E-14   0.5763052038E-14  -0.7548232955E-15   0.7082243655E-15   0.1377899760E-14   0.1606933291E-01  -0.1113466646E-01  -0.1113466646E-01  -0.9402470946E-16   0.2837030106E-15   0.7041201845E-16   0.7750000011E+01
   0.2032138666E+01   0.0000000000E+00   0.9888653336E+00   0.4500000000E-02   0.0000000000E+00  -0.6750000000E-03   0.2763866577E-01   0.0000000000E+00  -0.1045966644E-01  -0.7750000011E+01  -0.1093499170E-14  -0.3025368907E-15   0.1027178377E-14  -0.8306567699E-16  -0.6565754066E-15   0.1606933291E-01  -0.1113466646E-01  -0.1113466646E-01   0.6775342420E-16   0.1856317612E-15  -0.3165249111E-16   0.7750000011E+01
   0.2032138666E+01   0.9888653336E+00   0.9888653336E+00   0.4500000000E-02  -0.6750000000E-03  -0.6750000000E-03   0.2763866577E-01  -0.1045966644E-01  -0.1045966644E-01  -0.7750000010E+01  -0.3766786626E-14  -0.4861067470E-14   0.1156508540E-14  -0.1220458514E-14   0.2774677274E-15   0.1606933291E-01  -0.1113466646E-01  -0.1113466646E-01   0.1163012079E-15   0.3738901129E-15   0.2847054079E-16   0.7750000010E+01
     1     2     3     4     5     6     7     8
     2     9    10     3     6    11    12     7
 VARIABLES = X,Y,Z,DU1,DU2,DU3,U1,U2,U3,S11,S22,S33,S12,S13,S23,E11,E22,E33,E12,E13,E23,SMISES
 ZONE, T="0.8150D+01" F=FEPOINT, I=   12 J=    2 ET=BRICK
   0.0000000000E+00   0.0000000000E+00   0.0000000000E+00   0.0000000000E+00   0.0000000000E+00   0.0000000000E+00   0.0000000000E+00   0.0000000000E+00   0.0000000000E+00  -0.6625000010E+01   0.1096661602E-13   0.9329962198E-14   0.8854316501E-16  -0.1388100714E-14  -0.1537710554E-14   0.1831933291E-01  -0.1180966646E-01  -0.1180966646E-01   0.1467093652E-17  -0.1348929550E-15  -0.9564827689E-16   0.6625000010E+01
   0.1018319333E+01   0.0000000000E+00  -0.5288777745E-16   0.2250000000E-02   0.0000000000E+00   0.3374303910E-17   0.1606933289E-01   0.0000000000E+00  -0.5626208136E-16  -0.6625000010E+01  -0.4990949344E-14  -0.2675423332E-14  -0.5393096023E-15  -0.1443260360E-16   0.3625669226E-15   0.1831933291E-01  -0.1180966646E-01  -0.1180966646E-01  -0.8425816246E-16   0.1224632526E-15   0.5037326566E-16   0.6625000010E+01
   0.1018319333E+01   0.9881903336E+00  -0.2913381127E-16   0.2250000000E-02  -0.6750000000E-03   0.2852421450E-17   0.1606933289E-01  -0.1113466644E-01  -0.3198623272E-16  -0.6625000009E+01   0.1852576994E-14   0.2207421245E-14   0.4153551295E-15  -0.4713427835E-15   0.2573196554E-15   0.1831933291E-01  -0.1180966646E-01  -0.1180966646E-01  -0.7301723048E-16   0.1003520511E-15   0.4620487581E-16   0.6625000009E+01
   0.0000000000E+00   0.9881903336E+00  -0.4802209230E-16   0.0000000000E+00  -0.6750000000E-03  -0.1163936031E-17   0.0000000000E+00  -0.1113466644E-01  -0.4685815627E-16  -0.6625000010E+01  -0.6770614246E-14  -0.3340879838E-14   0.1000839065E-14   0.1429720860E-14  -0.1591337176E-15   0.1831933291E-01  -0.1180966646E-01  -0.1180966646E-01   0.4250831552E-16   0.5901280399E-16  -0.4119804651E-16   0.6625000010E+01
   0.0000000000E+00   0.0000000000E+00   0.9881903336E+00   0.0000000000E+00   0.0000000000E+00  -0.6750000000E-03   0.0000000000E+00   0.0000000000E+00  -0.1113466644E-01  -0.6625000010E+01  -0.4818685244E-14  -0.6989455186E-14   0.2340426896E-18   0.1302681207E-14   0.4896464814E-15   0.1831933291E-01  -0.1180966646E-01  -0.1180966646E-01  -0.2053290170E-17   0.7374008310E-16   0.4795450558E-16   0.6625000010E+01
   0.1018319333E+01   0.0000000000E+00   0.9881903336E+00   0.2250000000E-02   0.0000000000E+00  -0.6750000000E-03   0.1606933289E-01   0.0000000000E+00  -0.1113466644E-01  -0.6625000009E+01   0.8395700699E-15   0.9883117170E-15  -0.8896609654E-15   0.2421063728E-15  -0.4928429613E-15   0.1831933291E-01  -0.1180966646E-01  -0.1180966646E-01  -0.1360355691E-15   0.1871046873E-15  -0.4772195869E-16   0.6625000009E+01
   0.1018319333E+01   0.9881903336E+00   0.9881903336E+00   0.2250000000E-02  -0.6750000000E-03  -0.6750000000E-03   0.1606933289E-01  -0.1113466644E-01  -0.1113466644E-01  -0.6625000009E+01   0.1004254100E-14  -0.9861760905E-15  -0.2113993320E-15   0.4565288676E-15  -0.3824684701E-15   0.1831933291E-01  -0.1180966646E-01  -0.1180966646E-01  -0.1226994312E-15   0.1155106198E-15  -0.2257493452E-16   0.6625000009E+01
   0.0000000000E+00   0.9881903336E+00   0.9881903336E+00   0.0000000000E+00  -0.6750000000E-03  -0.6750000000E-03   0.0000000000E+00  -0.1113466644E-01  -0.1113466644E-01  -0.6625000009E+01   0.1242345078E-14   0.9618717088E-15   0.1608688453E-15  -0.5095145294E-15   0.1837873880E-14   0.1831933291E-01  -0.1180966646E-01  -0.1180966646E-01  -0.3820453997E-16  -0.4062420668E-16   0.8538364773E-16   0.6625000009E+01
   0.2036638666E+01   0.0000000000E+00  -0.5143446284E-16   0.4500000000E-02   0.0000000000E+00   0.1072969153E-16   0.3213866577E-01   0.0000000000E+00  -0.6216415438E-16  -0.6625000010E+01  -0.1650851099E-14  -0.9183174114E-15  -0.1017127274E-14  -0.1010540532E-14  -0.3460918302E-15   0.1831933291E-01  -0.1180966646E-01  -0.1180966646E-01  -0.8690760228E-16   0.2152097505E-15   0.4653571833E-17   0.6625000010E+01
   0.2036638666E+01   0.9881903336E+00  -0.5085846840E-16   0.4500000000E-02  -0.6750000000E-03   0.9213901963E-17   0.3213866577E-01  -0.1113466644E-01  -0.6007237036E-16  -0.6625000009E+01   0.5757607772E-14   0.6471281575E-14  -0.1340944377E-14   0.1214247621E-14   0.1250764304E-14   0.1831933291E-01  -0.1180966646E-01  -0.1180966646E-01  -0.1076767118E-15   0.2703618702E-15   0.6538688020E-16   0.6625000009E+01
   0.2036638666E+01   0.0000000000E+00   0.9881903336E+00   0.4500000000E-02   0.0000000000E+00  -0.6750000000E-03   0.3213866577E-01   0.0000000000E+00  -0.1113466644E-01  -0.6625000009E+01   0.4473974907E-15   0.1020300709E-14   0.1212545597E-14  -0.1779608074E-15  -0.9552209718E-15   0.1831933291E-01  -0.1180966646E-01  -0.1180966646E-01   0.6780409329E-16   0.1810473383E-15  -0.3200277860E-16   0.6625000009E+01
   0.2036638666E+01   0.9881903336E+00   0.9881903336E+00   0.4500000000E-02  -0.6750000000E-03  -0.6750000000E-03   0.3213866577E-01  -0.1113466644E-01  -0.1113466644E-01  -0.6625000008E+01  -0.3916987043E-14  -0.5158941623E-14   0.1531513378E-14  -0.1148703237E-14   0.5074540554E-16   0.1831933291E-01  -0.1180966646E-01  -0.1180966646E-01   0.1320445478E-15   0.3821248919E-15   0.1808153365E-16   0.6625000008E+01
     1     2     3     4     5     6     7     8
     2     9    10     3     6    11    12     7
 VARIABLES = X,Y,Z,DU1,DU2,DU3,U1,U2,U3,S11,S22,S33,S12,S13,S23,E11,E22,E33,E12,E13,E23,SMISES
 ZONE, T="0.8200D+01" F=FEPOINT, I=   12 J=    2 ET=BRICK
   0.0000000000E+00   0.0000000000E+00   0.0000000000E+00   0.0000000000E+00   0.0000000000E+00   0.0000000000E+00   0.0000000000E+00   0.0000000000E+00   0.0000000000E+00  -0.5500000009E+01   0.8946437630E-14   0.7291458024E-14   0.6671562514E-16  -0.2005142100E-14  -0.1491672683E-14   0.2056933292E-01  -0.1248466646E-01  -0.1248466646E-01   0.4033116938E-17  -0.1409981573E-15  -0.9574330286E-16   0.5500000009E+01
   0.1020569333E+01   0.0000000000E+00  -0.5719916205E-16   0.2250000000E-02   0.0000000000E+00  -0.4311384600E-17   0.1831933289E-01   0.0000000000E+00  -0.5288777745E-16  -0.5500000008E+01  -0.4506223216E-14  -0.2712074820E-14   0.1084008369E-14   0.1659355098E-14   0.6193735312E-15   0.2056933292E-01  -0.1248466646E-01  -0.1248466646E-01  -0.7539940345E-16   0.1283193844E-15   0.5071373027E-16   0.5500000008E+01
   0.1020569333E+01   0.9875153336E+00  -0.3207420292E-16   0.2250000000E-02  -0.6750000000E-03  -0.2940391644E-17   0.1831933289E-01  -0.1180966644E-01  -0.2913381127E-16  -0.5500000008E+01   0.1094280685E-14   0.9792729282E-15   0.1908211835E-14  -0.1701895449E-14   0.2386757011E-15   0.2056933291E-01  -0.1248466646E-01  -0.1248466646E-01  -0.7057849837E-16   0.8816223754E-16   0.5199973977E-16   0.5500000008E+01
   0.0000000000E+00   0.9875153336E+00  -0.4765381987E-16   0.0000000000E+00  -0.6750000000E-03   0.3682724275E-18   0.0000000000E+00  -0.1180966644E-01  -0.4802209230E-16  -0.5500000008E+01  -0.4428257602E-14  -0.2452167659E-14   0.6224085680E-15   0.1167109763E-14  -0.7616609811E-15   0.2056933292E-01  -0.1248466646E-01  -0.1248466646E-01   0.4536304234E-16   0.5657295109E-16  -0.4470441525E-16   0.5500000008E+01
   0.0000000000E+00   0.0000000000E+00   0.9875153336E+00   0.0000000000E+00   0.0000000000E+00  -0.6750000000E-03   0.0000000000E+00   0.0000000000E+00  -0.1180966644E-01  -0.5500000008E+01  -0.2809395450E-14  -0.4632758270E-14   0.7290613821E-17   0.6322993412E-15   0.3866057888E-15   0.2056933292E-01  -0.1248466646E-01  -0.1248466646E-01  -0.2109099115E-17   0.6436270555E-16   0.4612831883E-16   0.5500000008E+01
   0.1020569333E+01   0.0000000000E+00   0.9875153336E+00   0.2250000000E-02   0.0000000000E+00  -0.6750000000E-03   0.1831933289E-01   0.0000000000E+00  -0.1180966644E-01  -0.5500000008E+01   0.9912293825E-15   0.1439304040E-14  -0.2078312898E-14   0.1562138627E-14  -0.2745550068E-15   0.2056933291E-01  -0.1248466646E-01  -0.1248466646E-01  -0.1488082339E-15   0.2079529817E-15  -0.3644444803E-16   0.5500000008E+01
   0.1020569333E+01   0.9875153336E+00   0.9875153336E+00   0.2250000000E-02  -0.6750000000E-03  -0.6750000000E-03   0.1831933289E-01  -0.1180966644E-01  -0.1180966644E-01  -0.5500000007E+01   0.1488980227E-14  -0.6134630612E-16  -0.1378167190E-14  -0.6655002025E-15  -0.5068595063E-15   0.2056933291E-01  -0.1248466646E-01  -0.1248466646E-01  -0.1394162057E-15   0.9259156159E-16  -0.2604040486E-16   0.5500000007E+01
   0.0000000000E+00   0.9875153336E+00   0.9875153336E+00   0.0000000000E+00  -0.6750000000E-03  -0.6750000000E-03   0.0000000000E+00  -0.1180966644E-01  -0.1180966644E-01  -0.5500000007E+01   0.4287732504E-16   0.4171150684E-15   0.2570194255E-15  -0.8049709404E-15   0.1087680493E-14   0.2056933291E-01  -0.1248466646E-01  -0.1248466646E-01  -0.3274906038E-16  -0.4508907227E-16   0.8699490131E-16   0.5500000007E+01
   0.2041138666E+01   0.0000000000E+00  -0.6555351180E-16   0.4500000000E-02   0.0000000000E+00  -0.1411904896E-16   0.3663866577E-01   0.0000000000E+00  -0.5143446284E-16  -0.5500000008E+01   0.9541871243E-15   0.1046883786E-14  -0.2122223975E-14  -0.1729765154E-14  -0.2293368673E-15   0.2056933292E-01  -0.1248466646E-01  -0.1248466646E-01  -0.1043723606E-15   0.2186967429E-15   0.6755681661E-17   0.5500000008E+01
   0.2041138666E+01   0.9875153336E+00  -0.6434490979E-16   0.4500000000E-02  -0.6750000000E-03  -0.1348644139E-16   0.3663866577E-01  -0.1180966644E-01  -0.5085846840E-16  -0.5500000008E+01   0.3333977158E-14   0.3792406480E-14  -0.2386416156E-14   0.1795519859E-14   0.1119593054E-14   0.2056933291E-01  -0.1248466646E-01  -0.1248466646E-01  -0.1179551004E-15   0.2674394869E-15   0.6489412061E-16   0.5500000008E+01
   0.2041138666E+01   0.0000000000E+00   0.9875153336E+00   0.4500000000E-02   0.0000000000E+00  -0.6750000000E-03   0.3663866577E-01   0.0000000000E+00  -0.1180966644E-01  -0.5500000008E+01  -0.1155522462E-14  -0.1100545277E-14   0.1553787654E-14  -0.5818809049E-15  -0.5438336048E-15   0.2056933291E-01  -0.1248466646E-01  -0.1248466646E-01   0.7400494349E-16   0.1861678898E-15  -0.4101062299E-16   0.5500000008E+01
   0.2041138666E+01   0.9875153336E+00   0.9875153336E+00   0.4500000000E-02  -0.6750000000E-03  -0.6750000000E-03   0.3663866577E-01  -0.1180966644E-01  -0.1180966644E-01  -0.5500000007E+01  -0.2132659458E-14  -0.2764525414E-14   0.1906564642E-14  -0.5872416482E-15   0.1596120795E-15   0.2056933291E-01  -0.1248466646E-01  -0.1248466646E-01   0.1229079870E-15   0.4009261746E-15   0.3398714748E-16   0.5500000007E+01
     1     2     3     4     5     6     7     8
     2     9    10     3     6    11    12     7
 VARIABLES = X,Y,Z,DU1,DU2,DU3,U1,U2,U3,S11,S22,S33,S12,S13,S23,E11,E22,E33,E12,E13,E23,SMISES
 ZONE, T="0.8250D+01" F=FEPOINT, I=   12 J=    2 ET=BRICK
   0.0000000000E+00   0.0000000000E+00   0.0000000000E+00   0.0000000000E+00   0.0000000000E+00   0.0000000000E+00   0.0000000000E+00   0.0000000000E+00   0.0000000000E+00  -0.4375000007E+01   0.9988997296E-14   0.8784280643E-14   0.5254965914E-16  -0.1525396772E-14  -0.1438321270E-14   0.2281933292E-01  -0.1315966646E-01  -0.1315966646E-01  -0.1509448650E-17  -0.1355191254E-15  -0.8692237961E-16   0.4375000007E+01
   0.1022819333E+01   0.0000000000E+00  -0.5416537972E-16   0.2250000000E-02   0.0000000000E+00   0.3033782333E-17   0.2056933289E-01   0.0000000000E+00  -0.5719916205E-16  -0.4375000007E+01  -0.4804097419E-14  -0.2564401064E-14  -0.2061895126E-15   0.6211778368E-15   0.3121638035E-15   0.2281933292E-01  -0.1315966646E-01  -0.1315966646E-01  -0.8312853554E-16   0.1084423995E-15   0.4698647552E-16   0.4375000007E+01
   0.1022819333E+01   0.9868403336E+00  -0.3064018564E-16   0.2250000000E-02  -0.6750000000E-03   0.1434017276E-17   0.2056933289E-01  -0.1248466644E-01  -0.3207420292E-16  -0.4375000006E+01   0.1558688304E-14   0.1408487935E-14   0.7585039503E-15  -0.6605237779E-15   0.1760943066E-15   0.2281933292E-01  -0.1315966646E-01  -0.1315966646E-01  -0.7350554998E-16   0.1046109853E-15   0.4987629579E-16   0.4375000006E+01
   0.0000000000E+00   0.9868403336E+00  -0.4750978157E-16   0.0000000000E+00  -0.6750000000E-03   0.1440383058E-18   0.0000000000E+00  -0.1248466644E-01  -0.4765381987E-16  -0.4375000006E+01  -0.6508662142E-14  -0.3175805253E-14   0.7561966676E-15   0.1079960014E-14  -0.3938336275E-15   0.2281933292E-01  -0.1315966646E-01  -0.1315966646E-01   0.3957394214E-16   0.5000337512E-16  -0.4951293649E-16   0.4375000006E+01
   0.0000000000E+00   0.0000000000E+00   0.9868403336E+00   0.0000000000E+00   0.0000000000E+00  -0.6750000000E-03   0.0000000000E+00   0.0000000000E+00  -0.1248466644E-01  -0.4375000006E+01  -0.3822740771E-14  -0.5654270081E-14  -0.1218026465E-16   0.1182665680E-14   0.4095615955E-15   0.2281933292E-01  -0.1315966646E-01  -0.1315966646E-01  -0.1734749098E-17   0.6989606611E-16   0.3958399502E-16   0.4375000006E+01
   0.1022819333E+01   0.0000000000E+00   0.9868403336E+00   0.2250000000E-02   0.0000000000E+00  -0.6750000000E-03   0.2056933289E-01   0.0000000000E+00  -0.1248466644E-01  -0.4375000006E+01   0.1385251700E-14   0.1554311839E-14  -0.1374219955E-14   0.4068065462E-15  -0.5917835330E-15   0.2281933292E-01  -0.1315966646E-01  -0.1315966646E-01  -0.1411796933E-15   0.2062331356E-15  -0.4034314400E-16   0.4375000006E+01
   0.1022819333E+01   0.9868403336E+00   0.9868403336E+00   0.2250000000E-02  -0.6750000000E-03  -0.6750000000E-03   0.2056933289E-01  -0.1248466644E-01  -0.1248466644E-01  -0.4375000006E+01   0.8580391668E-15  -0.7532428692E-15  -0.7226358094E-15   0.1647362059E-15  -0.6442062316E-15   0.2281933292E-01  -0.1315966646E-01  -0.1315966646E-01  -0.1239459046E-15   0.9298002186E-16  -0.3911485630E-16   0.4375000006E+01
   0.0000000000E+00   0.9868403336E+00   0.9868403336E+00   0.0000000000E+00  -0.6750000000E-03  -0.6750000000E-03   0.0000000000E+00  -0.1248466644E-01  -0.1248466644E-01  -0.4375000006E+01   0.1008148529E-14   0.9321234360E-15   0.1841965325E-15  -0.8566712630E-15   0.1659758903E-14   0.2281933292E-01  -0.1315966646E-01  -0.1315966646E-01  -0.3626543516E-16  -0.4923655121E-16   0.1078537162E-15   0.4375000006E+01
   0.2045638666E+01   0.0000000000E+00  -0.5774250566E-16   0.4500000000E-02   0.0000000000E+00   0.7811006143E-17   0.4113866577E-01   0.0000000000E+00  -0.6555351180E-16  -0.4375000007E+01  -0.1157958451E-14  -0.1060546855E-14  -0.8066341432E-15  -0.1176728811E-14  -0.7118919035E-16   0.2281933292E-01  -0.1315966646E-01  -0.1315966646E-01  -0.9800901608E-16   0.1911423256E-15   0.2200038184E-17   0.4375000007E+01
   0.2045638666E+01   0.9868403336E+00  -0.5570464377E-16   0.4500000000E-02  -0.6750000000E-03   0.8640266021E-17   0.4113866577E-01  -0.1248466644E-01  -0.6434490979E-16  -0.4375000006E+01   0.5625537612E-14   0.6284429622E-14  -0.9295847760E-15   0.6243792249E-15   0.1435077625E-14   0.2281933292E-01  -0.1315966646E-01  -0.1315966646E-01  -0.1223015542E-15   0.2442377891E-15   0.7411560750E-16   0.4375000006E+01
   0.2045638666E+01   0.0000000000E+00   0.9868403336E+00   0.4500000000E-02   0.0000000000E+00  -0.6750000000E-03   0.4113866577E-01   0.0000000000E+00  -0.1248466644E-01  -0.4375000006E+01   0.5943418855E-15   0.3948039521E-15   0.3916785845E-15   0.6341076986E-15  -0.5283020924E-15   0.2281933292E-01  -0.1315966646E-01  -0.1315966646E-01   0.5224279378E-16   0.1949467522E-15  -0.2397423570E-16   0.4375000006E+01
   0.2045638666E+01   0.9868403336E+00   0.9868403336E+00   0.4500000000E-02  -0.6750000000E-03  -0.6750000000E-03   0.4113866577E-01  -0.1248466644E-01  -0.1248466644E-01  -0.4375000006E+01  -0.3501382856E-14  -0.4907148727E-14   0.8273043495E-15  -0.1712102723E-14   0.3407428779E-15   0.2281933291E-01  -0.1315966646E-01  -0.1315966646E-01   0.1167437302E-15   0.3637828513E-15   0.1928603737E-16   0.4375000006E+01
     1     2     3     4     5     6     7     8
     2     9    10     3     6    11    12     7
 VARIABLES = X,Y,Z,DU1,DU2,DU3,U1,U2,U3,S11,S22,S33,S12,S13,S23,E11,E22,E33,E12,E13,E23,SMISES
 ZONE, T="0.8300D+01" F=FEPOINT, I=   12 J=    2 ET=BRICK
   0.0000000000E+00   0.0000000000E+00   0.0000000000E+00   0.0000000000E+00   0.0000000000E+00   0.0000000000E+00   0.0000000000E+00   0.0000000000E+00   0.0000000000E+00  -0.3250000005E+01   0.1097133092E-13   0.8848492172E-14   0.5461963024E-16  -0.1615392278E-14  -0.1141556456E-14   0.2506933292E-01  -0.1383466646E-01  -0.1383466646E-01   0.1934803675E-17  -0.1359273689E-15  -0.8381308931E-16   0.3250000005E+01
   0.1025069333E+01   0.0000000000E+00  -0.5540326121E-16   0.2250000000E-02   0.0000000000E+00  -0.1237881495E-17   0.2281933289E-01   0.0000000000E+00  -0.5416537972E-16  -0.3250000005E+01  -0.5122290105E-14  -0.2584719581E-14  -0.7087249679E-15   0.3557727536E-15   0.4052555445E-15   0.2506933292E-01  -0.1383466646E-01  -0.1383466646E-01  -0.9004467241E-16   0.1068568774E-15   0.4783627594E-16   0.3250000005E+01
   0.1025069333E+01   0.9861653336E+00  -0.3146566512E-16   0.2250000000E-02  -0.6750000000E-03  -0.8254794829E-18   0.2281933289E-01  -0.1315966644E-01  -0.3064018564E-16  -0.3250000005E+01   0.1958154942E-14   0.1484317566E-14   0.1440881454E-15  -0.1321976911E-15  -0.4264886818E-16   0.2506933292E-01  -0.1383466646E-01  -0.1383466646E-01  -0.7551945560E-16   0.1232422424E-15   0.4593437557E-16   0.3250000005E+01
   0.0000000000E+00   0.9861653336E+00  -0.4589172309E-16   0.0000000000E+00  -0.6750000000E-03   0.1618058480E-17   0.0000000000E+00  -0.1315966644E-01  -0.4750978157E-16  -0.3250000005E+01  -0.7505869945E-14  -0.4536557694E-14   0.6973958195E-15   0.7366410279E-15  -0.4433979090E-15   0.2506933292E-01  -0.1383466646E-01  -0.1383466646E-01   0.3260943504E-16   0.4391251832E-16  -0.4714566646E-16   0.3250000005E+01
   0.0000000000E+00   0.0000000000E+00   0.9861653336E+00   0.0000000000E+00   0.0000000000E+00  -0.6750000000E-03   0.0000000000E+00   0.0000000000E+00  -0.1315966644E-01  -0.3250000005E+01  -0.4723800451E-14  -0.6402941117E-14  -0.1222621098E-16   0.1064037559E-14   0.7452725131E-15   0.2506933292E-01  -0.1383466646E-01  -0.1383466646E-01  -0.2237356342E-17   0.6642763402E-16   0.3975476930E-16   0.3250000005E+01
   0.1025069333E+01   0.0000000000E+00   0.9861653336E+00   0.2250000000E-02   0.0000000000E+00  -0.6750000000E-03   0.2281933289E-01   0.0000000000E+00  -0.1315966644E-01  -0.3250000005E+01   0.1592422083E-14   0.1559756169E-14  -0.8837873277E-15   0.1173368995E-15  -0.4425098314E-15   0.2506933292E-01  -0.1383466646E-01  -0.1383466646E-01  -0.1405164115E-15   0.1982952785E-15  -0.4352650857E-16   0.3250000005E+01
   0.1025069333E+01   0.9861653336E+00   0.9861653336E+00   0.2250000000E-02  -0.6750000000E-03  -0.6750000000E-03   0.2281933289E-01  -0.1315966644E-01  -0.1315966644E-01  -0.3250000004E+01   0.5398464809E-15  -0.5297394811E-15  -0.1839114953E-15   0.8110026684E-15  -0.7438539666E-15   0.2506933292E-01  -0.1383466646E-01  -0.1383466646E-01  -0.1299796390E-15   0.9241017310E-16  -0.1908145581E-16   0.3250000004E+01
   0.0000000000E+00   0.9861653336E+00   0.9861653336E+00   0.0000000000E+00  -0.6750000000E-03  -0.6750000000E-03   0.0000000000E+00  -0.1315966644E-01  -0.1315966644E-01  -0.3250000004E+01   0.1535504340E-14   0.1906290586E-14   0.1510389181E-15  -0.1174204761E-14   0.1562275984E-14   0.2506933292E-01  -0.1383466646E-01  -0.1383466646E-01  -0.2851159686E-16  -0.4217529597E-16   0.1020038227E-15   0.3250000004E+01
   0.2050138666E+01   0.0000000000E+00  -0.6343908549E-16   0.4500000000E-02   0.0000000000E+00  -0.5696579830E-17   0.4563866577E-01   0.0000000000E+00  -0.5774250566E-16  -0.3250000005E+01  -0.2392085025E-14  -0.2793010364E-14  -0.4986102697E-15  -0.4600509300E-15   0.1900581883E-16   0.2506933292E-01  -0.1383466646E-01  -0.1383466646E-01  -0.1039836629E-15   0.1859250226E-15   0.3207691346E-17   0.3250000005E+01
   0.2050138666E+01   0.9861653336E+00  -0.6087808981E-16   0.4500000000E-02  -0.6750000000E-03  -0.5173446040E-17   0.4563866577E-01  -0.1315966644E-01  -0.5570464377E-16  -0.3250000005E+01   0.6652493759E-14   0.7079181916E-14  -0.6635052473E-15   0.5676261629E-15   0.1330721293E-14   0.2506933292E-01  -0.1383466646E-01  -0.1383466646E-01  -0.1224140539E-15   0.2565651239E-15   0.7127355387E-16   0.3250000005E+01
   0.2050138666E+01   0.0000000000E+00   0.9861653336E+00   0.4500000000E-02   0.0000000000E+00  -0.6750000000E-03   0.4563866577E-01   0.0000000000E+00  -0.1315966644E-01  -0.3250000005E+01   0.1140557401E-14   0.1102837953E-14   0.3868072270E-15   0.5369508266E-15  -0.4799497872E-15   0.2506933292E-01  -0.1383466646E-01  -0.1383466646E-01   0.6167505374E-16   0.1934720516E-15  -0.3153822589E-16   0.3250000005E+01
   0.2050138666E+01   0.9861653336E+00   0.9861653336E+00   0.4500000000E-02  -0.6750000000E-03  -0.6750000000E-03   0.4563866577E-01  -0.1315966644E-01  -0.1315966644E-01  -0.3250000004E+01  -0.4280531617E-14  -0.5729656614E-14   0.8800268706E-15  -0.1692862389E-14   0.1634309301E-15   0.2506933292E-01  -0.1383466646E-01  -0.1383466646E-01   0.1296101871E-15   0.3596326084E-15   0.3159836590E-16   0.3250000004E+01
     1     2     3     4     5     6     7     8
     2     9    10     3     6    11    12     7
 VARIABLES = X,Y,Z,DU1,DU2,DU3,U1,U2,U3,S11,S22,S33,S12,S13,S23,E11,E22,E33,E12,E13,E23,SMISES
 ZONE, T="0.8350D+01" F=FEPOINT, I=   12 J=    2 ET=BRICK
   0.0000000000E+00   0.0000000000E+00   0.0000000000E+00   0.0000000000E+00   0.0000000000E+00   0.0000000000E+00   0.0000000000E+00   0.0000000000E+00   0.0000000000E+00  -0.2125000003E+01   0.1046147368E-13   0.8397597642E-14   0.5679540608E-16  -0.1586435790E-14  -0.1317621526E-14   0.2731933293E-01  -0.1450966647E-01  -0.1450966647E-01  -0.3340988700E-17  -0.1365930213E-15  -0.9543423712E-16   0.2125000003E+01
   0.1027319333E+01   0.0000000000E+00  -0.5465823462E-16   0.2250000000E-02   0.0000000000E+00   0.7450265943E-18   0.2506933289E-01   0.0000000000E+00  -0.5540326121E-16  -0.2125000003E+01  -0.4801375237E-14  -0.2278678876E-14  -0.2031913316E-15   0.7067523015E-15   0.3706229759E-15   0.2731933293E-01  -0.1450966647E-01  -0.1450966647E-01  -0.7487476626E-16   0.1147658037E-15   0.4686813339E-16   0.2125000003E+01
   0.1027319333E+01   0.9854903336E+00  -0.3087434596E-16   0.2250000000E-02  -0.6750000000E-03   0.5913191612E-18   0.2506933289E-01  -0.1383466644E-01  -0.3146566512E-16  -0.2125000003E+01   0.1766588120E-14   0.1514795313E-14   0.6611107489E-15  -0.5681506952E-15   0.1771371235E-15   0.2731933292E-01  -0.1450966646E-01  -0.1450966646E-01  -0.7023203072E-16   0.9085776494E-16   0.5660278477E-16   0.2125000003E+01
   0.0000000000E+00   0.9854903336E+00  -0.4675984815E-16   0.0000000000E+00  -0.6750000000E-03  -0.8681250611E-18   0.0000000000E+00  -0.1383466644E-01  -0.4589172309E-16  -0.2125000003E+01  -0.6910486222E-14  -0.3834137214E-14   0.7225413272E-15   0.9863658373E-15  -0.3926942783E-15   0.2731933293E-01  -0.1450966646E-01  -0.1450966646E-01   0.3929491846E-16   0.5003134074E-16  -0.3210594478E-16   0.2125000003E+01
   0.0000000000E+00   0.0000000000E+00   0.9854903336E+00   0.0000000000E+00   0.0000000000E+00  -0.6750000000E-03   0.0000000000E+00   0.0000000000E+00  -0.1383466644E-01  -0.2125000003E+01  -0.4128416727E-14  -0.5734449963E-14  -0.1447816795E-16   0.8329168482E-15   0.5220577608E-15   0.2731933293E-01  -0.1450966646E-01  -0.1450966646E-01  -0.7329986810E-18   0.5961707753E-16   0.4711139290E-16   0.2125000003E+01
   0.1027319333E+01   0.0000000000E+00   0.9854903336E+00   0.2250000000E-02   0.0000000000E+00  -0.6750000000E-03   0.2506933289E-01   0.0000000000E+00  -0.1383466644E-01  -0.2125000003E+01   0.1400855262E-14   0.8373818980E-15  -0.1025025865E-14   0.5435811228E-15  -0.4222359348E-15   0.2731933292E-01  -0.1450966646E-01  -0.1450966646E-01  -0.1444846380E-15   0.2040125891E-15  -0.4533045920E-16   0.2125000003E+01
   0.1027319333E+01   0.9854903336E+00   0.9854903336E+00   0.2250000000E-02  -0.6750000000E-03  -0.6750000000E-03   0.2506933289E-01  -0.1383466644E-01  -0.1383466644E-01  -0.2125000003E+01   0.1229020857E-14  -0.3009872528E-15  -0.4316061131E-15   0.4725098662E-15  -0.4531591518E-15   0.2731933292E-01  -0.1450966646E-01  -0.1450966646E-01  -0.1353614630E-15   0.9313851350E-16  -0.2005169270E-16   0.2125000003E+01
   0.0000000000E+00   0.9854903336E+00   0.9854903336E+00   0.0000000000E+00  -0.6750000000E-03  -0.6750000000E-03   0.0000000000E+00  -0.1383466644E-01  -0.1383466644E-01  -0.2125000003E+01   0.1540317053E-14   0.1327506857E-14   0.2860855700E-15  -0.8834897430E-15   0.1371616671E-14   0.2731933292E-01  -0.1450966646E-01  -0.1450966646E-01  -0.2855474900E-16  -0.4472273165E-16   0.8125072527E-16   0.2125000003E+01
   0.2054638666E+01   0.0000000000E+00  -0.5971166730E-16   0.4500000000E-02   0.0000000000E+00   0.3727418190E-17   0.5013866577E-01   0.0000000000E+00  -0.6343908549E-16  -0.2125000003E+01  -0.9846196482E-15  -0.6346857015E-15  -0.8478883390E-15  -0.1207955708E-14  -0.5791409023E-16   0.2731933293E-01  -0.1450966646E-01  -0.1450966646E-01  -0.8814319527E-16   0.2063545147E-15   0.8965800492E-17   0.2125000003E+01
   0.2054638666E+01   0.9854903336E+00  -0.5745739384E-16   0.4500000000E-02  -0.6750000000E-03   0.3420695974E-17   0.5013866577E-01  -0.1383466644E-01  -0.6087808981E-16  -0.2125000003E+01   0.5385531990E-14   0.5989642272E-14  -0.1126822478E-14   0.9610541691E-15   0.1415376160E-14   0.2731933292E-01  -0.1450966646E-01  -0.1450966646E-01  -0.1151996154E-15   0.2842043778E-15   0.5842146037E-16   0.2125000003E+01
   0.2054638666E+01   0.0000000000E+00   0.9854903336E+00   0.4500000000E-02   0.0000000000E+00  -0.6750000000E-03   0.5013866577E-01   0.0000000000E+00  -0.1383466644E-01  -0.2125000003E+01  -0.1264043682E-15   0.2068578897E-15   0.1284284964E-14  -0.7725202105E-16  -0.8227288333E-15   0.2731933292E-01  -0.1450966646E-01  -0.1450966646E-01   0.4718385468E-16   0.1249270317E-15  -0.3205778216E-16   0.2125000003E+01
   0.2054638666E+01   0.9854903336E+00   0.9854903336E+00   0.4500000000E-02  -0.6750000000E-03  -0.6750000000E-03   0.5013866577E-01  -0.1383466644E-01  -0.1383466644E-01  -0.2125000003E+01  -0.4316551462E-14  -0.5596420853E-14   0.1279443133E-14  -0.1249794880E-14  -0.3534674602E-16   0.2731933292E-01  -0.1450966646E-01  -0.1450966646E-01   0.1092992767E-15   0.3952298632E-15   0.1204271352E-16   0.2125000003E+01
     1     2     3     4     5     6     7     8
     2     9    10     3     6    11    12     7
 VARIABLES = X,Y,Z,DU1,DU2,DU3,U1,U2,U3,S11,S22,S33,S12,S13,S23,E11,E22,E33,E12,E13,E23,SMISES
 ZONE, T="0.8400D+01" F=FEPOINT, I=   12 J=    2 ET=BRICK
   0.0000000000E+00   0.0000000000E+00   0.0000000000E+00   0.0000000000E+00   0.0000000000E+00   0.0000000000E+00   0.0000000000E+00   0.0000000000E+00   0.0000000000E+00  -0.1000000002E+01   0.1093354963E-13   0.8946001416E-14   0.5170814225E-16  -0.1565186044E-14  -0.1284391008E-14   0.2956933293E-01  -0.1518466647E-01  -0.1518466647E-01  -0.3580679166E-17  -0.1327010282E-15  -0.9834396744E-16   0.1000000002E+01
   0.1029569333E+01   0.0000000000E+00  -0.5470093671E-16   0.2250000000E-02   0.0000000000E+00  -0.4270209332E-19   0.2731933289E-01   0.0000000000E+00  -0.5465823462E-16  -0.1000000002E+01  -0.4752304798E-14  -0.2294282445E-14  -0.3595125656E-15   0.5191051281E-15   0.3960945708E-15   0.2956933293E-01  -0.1518466647E-01  -0.1518466647E-01  -0.7477716218E-16   0.1152744398E-15   0.4947794912E-16   0.1000000002E+01
   0.1029569333E+01   0.9848153336E+00  -0.3079062089E-16   0.2250000000E-02  -0.6750000000E-03   0.8372507539E-19   0.2731933289E-01  -0.1450966644E-01  -0.3087434596E-16  -0.1000000001E+01   0.1719510444E-14   0.1446402768E-14   0.5425544457E-15  -0.5292661893E-15   0.1278136027E-15   0.2956933293E-01  -0.1518466646E-01  -0.1518466646E-01  -0.6820883523E-16   0.8360747017E-16   0.5463327840E-16   0.1000000001E+01
   0.0000000000E+00   0.9848153336E+00  -0.4659012410E-16   0.0000000000E+00  -0.6750000000E-03   0.1697240497E-18   0.0000000000E+00  -0.1450966644E-01  -0.4675984815E-16  -0.1000000001E+01  -0.6867625256E-14  -0.3747783609E-14   0.7597428935E-15   0.1011073774E-14  -0.3620163103E-15   0.2956933293E-01  -0.1518466646E-01  -0.1518466646E-01   0.4085384831E-16   0.5616348024E-16  -0.3718002483E-16   0.1000000001E+01
   0.0000000000E+00   0.0000000000E+00   0.9848153336E+00   0.0000000000E+00   0.0000000000E+00  -0.6750000000E-03   0.0000000000E+00   0.0000000000E+00  -0.1450966644E-01  -0.1000000001E+01  -0.4454909394E-14  -0.6076679671E-14   0.2180917611E-17   0.9243426698E-15   0.5943376768E-15   0.2956933293E-01  -0.1518466646E-01  -0.1518466646E-01   0.2337190200E-17   0.5708374499E-16   0.5280167870E-16   0.1000000001E+01
   0.1029569333E+01   0.0000000000E+00   0.9848153336E+00   0.2250000000E-02   0.0000000000E+00  -0.6750000000E-03   0.2731933289E-01   0.0000000000E+00  -0.1450966644E-01  -0.1000000001E+01   0.1515596101E-14   0.1049267234E-14  -0.1025226801E-14   0.3626124884E-15  -0.4259702656E-15   0.2956933293E-01  -0.1518466646E-01  -0.1518466646E-01  -0.1448839995E-15   0.2042333083E-15  -0.4232201053E-16   0.1000000001E+01
   0.1029569333E+01   0.9848153336E+00   0.9848153336E+00   0.2250000000E-02  -0.6750000000E-03  -0.6750000000E-03   0.2731933289E-01  -0.1450966644E-01  -0.1450966644E-01  -0.1000000001E+01   0.1142035606E-14  -0.3916910363E-15  -0.3654319767E-15   0.3200557644E-15  -0.5598203401E-15   0.2956933292E-01  -0.1518466646E-01  -0.1518466646E-01  -0.1397927472E-15   0.1077433712E-15  -0.3834505455E-16   0.1000000001E+01
   0.0000000000E+00   0.9848153336E+00   0.9848153336E+00   0.0000000000E+00  -0.6750000000E-03  -0.6750000000E-03   0.0000000000E+00  -0.1450966644E-01  -0.1450966644E-01  -0.1000000001E+01   0.1586798807E-14   0.1594538623E-14   0.2111429718E-15  -0.8781714323E-15   0.1414624351E-14   0.2956933292E-01  -0.1518466646E-01  -0.1518466646E-01  -0.3178047031E-16  -0.5185508223E-16   0.9463151769E-16   0.1000000001E+01
   0.2059138666E+01   0.0000000000E+00  -0.6062290942E-16   0.4500000000E-02   0.0000000000E+00  -0.9112421246E-18   0.5463866577E-01   0.0000000000E+00  -0.5971166730E-16  -0.1000000002E+01  -0.1726814206E-14  -0.1556793297E-14  -0.7483746622E-15  -0.7467245165E-15  -0.1462683895E-15   0.2956933293E-01  -0.1518466647E-01  -0.1518466647E-01  -0.8343538856E-16   0.2131306558E-15   0.5399234723E-17   0.1000000002E+01
   0.2059138666E+01   0.9848153336E+00  -0.5882517098E-16   0.4500000000E-02  -0.6750000000E-03  -0.1367777148E-17   0.5463866577E-01  -0.1450966644E-01  -0.5745739384E-16  -0.1000000001E+01   0.5668300809E-14   0.6423207467E-14  -0.1043074641E-14   0.5851279217E-15   0.1340032848E-14   0.2956933293E-01  -0.1518466646E-01  -0.1518466646E-01  -0.1160021371E-15   0.2503980902E-15   0.6275748047E-16   0.1000000001E+01
   0.2059138666E+01   0.0000000000E+00   0.9848153336E+00   0.4500000000E-02   0.0000000000E+00  -0.6750000000E-03   0.5463866577E-01   0.0000000000E+00  -0.1450966644E-01  -0.1000000001E+01   0.6828216866E-15   0.7968950158E-15   0.9808640566E-15   0.4745147411E-15  -0.7286105351E-15   0.2956933293E-01  -0.1518466646E-01  -0.1518466646E-01   0.4384677202E-16   0.2168600737E-15  -0.3639157245E-16   0.1000000001E+01
   0.2059138666E+01   0.9848153336E+00   0.9848153336E+00   0.4500000000E-02  -0.6750000000E-03  -0.6750000000E-03   0.5463866577E-01  -0.1450966644E-01  -0.1450966644E-01  -0.1000000001E+01  -0.4072596062E-14  -0.5221622867E-14   0.1124242515E-14  -0.1364267926E-14   0.1235135575E-15   0.2956933292E-01  -0.1518466646E-01  -0.1518466646E-01   0.1225110785E-15   0.3441528301E-15   0.2889493422E-16   0.1000000001E+01
     1     2     3     4     5     6     7     8
     2     9    10     3     6    11    12     7
 VARIABLES = X,Y,Z,DU1,DU2,DU3,U1,U2,U3,S11,S22,S33,S12,S13,S23,E11,E22,E33,E12,E13,E23,SMISES
 ZONE, T="0.8450D+01" F=FEPOINT, I=   12 J=    2 ET=BRICK
   0.0000000000E+00   0.0000000000E+00   0.0000000000E+00   0.0000000000E+00   0.0000000000E+00   0.0000000000E+00   0.0000000000E+00   0.0000000000E+00   0.0000000000E+00   0.1250000002E+00   0.1038840569E-13   0.8345006053E-14   0.4959862296E-16  -0.1690178139E-14  -0.1242022388E-14   0.3181933294E-01  -0.1585966647E-01  -0.1585966647E-01  -0.2650070930E-17  -0.1366088629E-15  -0.9468787934E-16   0.1250000002E+00
   0.1031819333E+01   0.0000000000E+00  -0.5535647140E-16   0.2250000000E-02   0.0000000000E+00  -0.6555346911E-18   0.2956933289E-01   0.0000000000E+00  -0.5470093671E-16   0.1250000002E+00  -0.4780297268E-14  -0.2309077672E-14  -0.1118049148E-15   0.7324139628E-15   0.3710324806E-15   0.3181933293E-01  -0.1585966647E-01  -0.1585966647E-01  -0.6997499907E-16   0.1252543021E-15   0.4636934116E-16   0.1250000002E+00
   0.1031819333E+01   0.9841403336E+00  -0.3157414150E-16   0.2250000000E-02  -0.6750000000E-03  -0.7835206119E-18   0.2956933289E-01  -0.1518466644E-01  -0.3079062089E-16   0.1250000002E+00   0.1319275334E-14   0.1108617694E-14   0.8104759817E-15  -0.5249385662E-15   0.1225097290E-15   0.3181933293E-01  -0.1585966647E-01  -0.1585966647E-01  -0.6463097787E-16   0.7067480854E-16   0.4714060378E-16   0.1250000002E+00
   0.0000000000E+00   0.9841403336E+00  -0.4634448243E-16   0.0000000000E+00  -0.6750000000E-03   0.2456416678E-18   0.0000000000E+00  -0.1518466644E-01  -0.4659012410E-16   0.1250000002E+00  -0.6845449168E-14  -0.3891393675E-14   0.6647000748E-15   0.8054991870E-15  -0.3890380363E-15   0.3181933293E-01  -0.1585966647E-01  -0.1585966647E-01   0.3633489650E-16   0.5796998701E-16  -0.4257775958E-16   0.1250000002E+00
   0.0000000000E+00   0.0000000000E+00   0.9841403336E+00   0.0000000000E+00   0.0000000000E+00  -0.6750000000E-03   0.0000000000E+00   0.0000000000E+00  -0.1518466644E-01   0.1250000002E+00  -0.4288237583E-14  -0.5860755074E-14  -0.1087286287E-16   0.9278993257E-15   0.5897836868E-15   0.3181933293E-01  -0.1585966647E-01  -0.1585966647E-01   0.2999165531E-17   0.5727538265E-16   0.4579110049E-16   0.1250000002E+00
   0.1031819333E+01   0.0000000000E+00   0.9841403336E+00   0.2250000000E-02   0.0000000000E+00  -0.6750000000E-03   0.2956933289E-01   0.0000000000E+00  -0.1518466644E-01   0.1250000002E+00   0.1376863820E-14   0.8841404647E-15  -0.1014958118E-14   0.4345234804E-15  -0.4516601252E-15   0.3181933293E-01  -0.1585966647E-01  -0.1585966647E-01  -0.1543982560E-15   0.2044346188E-15  -0.3783829972E-16   0.1250000002E+00
   0.1031819333E+01   0.9841403336E+00   0.9841403336E+00   0.2250000000E-02  -0.6750000000E-03  -0.6750000000E-03   0.2956933289E-01  -0.1518466644E-01  -0.1518466644E-01   0.1250000002E+00   0.1182228897E-14  -0.3286394421E-15  -0.3330466157E-15   0.1894626806E-15  -0.5561185198E-15   0.3181933293E-01  -0.1585966646E-01  -0.1585966646E-01  -0.1286751778E-15   0.1007289117E-15  -0.4746947141E-16   0.1250000002E+00
   0.0000000000E+00   0.9841403336E+00   0.9841403336E+00   0.0000000000E+00  -0.6750000000E-03  -0.6750000000E-03   0.0000000000E+00  -0.1518466644E-01  -0.1518466644E-01   0.1250000002E+00   0.1435671549E-14   0.1382729417E-14   0.2389668082E-15  -0.9375560894E-15   0.1328418903E-14   0.3181933293E-01  -0.1585966646E-01  -0.1585966646E-01  -0.3505368282E-16  -0.5094647871E-16   0.9223447266E-16   0.1250000002E+00
   0.2063638666E+01   0.0000000000E+00  -0.6307327027E-16   0.4500000000E-02   0.0000000000E+00  -0.2450360845E-17   0.5913866577E-01   0.0000000000E+00  -0.6062290942E-16   0.1250000002E+00  -0.1071237364E-14  -0.1015981716E-14  -0.9683649345E-15  -0.8062279196E-15  -0.5529683786E-16   0.3181933293E-01  -0.1585966647E-01  -0.1585966647E-01  -0.1062924912E-15   0.1713343681E-15   0.5591511178E-17   0.1250000002E+00
   0.2063638666E+01   0.9841403336E+00  -0.6079299144E-16   0.4500000000E-02  -0.6750000000E-03  -0.1967820452E-17   0.5913866577E-01  -0.1518466644E-01  -0.5882517098E-16   0.1250000002E+00   0.5302558295E-14   0.6026239940E-14  -0.1127222065E-14   0.5869248930E-15   0.1311575624E-14   0.3181933293E-01  -0.1585966646E-01  -0.1585966646E-01  -0.1333813558E-15   0.2808303593E-15   0.7196691361E-16   0.1250000002E+00
   0.2063638666E+01   0.0000000000E+00   0.9841403336E+00   0.4500000000E-02   0.0000000000E+00  -0.6750000000E-03   0.5913866577E-01   0.0000000000E+00  -0.1518466644E-01   0.1250000002E+00   0.1543554615E-15   0.3440760757E-15   0.9920086596E-15   0.3978117128E-15  -0.5179793609E-15   0.3181933293E-01  -0.1585966646E-01  -0.1585966646E-01   0.6657841621E-16   0.1677578416E-15  -0.4095754341E-16   0.1250000002E+00
   0.2063638666E+01   0.9841403336E+00   0.9841403336E+00   0.4500000000E-02  -0.6750000000E-03  -0.6750000000E-03   0.5913866577E-01  -0.1518466644E-01  -0.1518466644E-01   0.1250000002E+00  -0.4319981422E-14  -0.5309820696E-14   0.1009198520E-14  -0.1140539652E-14   0.1920707029E-15   0.3181933293E-01  -0.1585966646E-01  -0.1585966646E-01   0.1349268197E-15   0.3602555036E-15   0.3119476933E-16   0.1250000002E+00
     1     2     3     4     5     6     7     8
     2     9    10     3     6    11    12     7
 VARIABLES = X,Y,Z,DU1,DU2,DU3,U1,U2,U3,S11,S22,S33,S12,S13,S23,E11,E22,E33,E12,E13,E23,SMISES
 ZONE, T="0.8500D+01" F=FEPOINT, I=   12 J=    2 ET=BRICK
   0.0000000000E+00   0.0000000000E+00   0.0000000000E+00   0.0000000000E+00   0.0000000000E+00   0.0000000000E+00   0.0000000000E+00   0.0000000000E+00   0.0000000000E+00   0.1250000002E+01   0.1050428578E-13   0.8603905182E-14   0.3769525006E-16  -0.1669608959E-14  -0.1271038210E-14   0.3406933294E-01  -0.1653466647E-01  -0.1653466647E-01   0.1497604287E-18  -0.1277134794E-15  -0.9001512905E-16   0.1250000002E+01
   0.1034069333E+01   0.0000000000E+00  -0.5517721214E-16   0.2250000000E-02   0.0000000000E+00   0.1792592590E-18   0.3181933289E-01   0.0000000000E+00  -0.5535647140E-16   0.1250000002E+01  -0.4541051144E-14  -0.2077949173E-14  -0.1796847632E-15   0.8141623242E-15   0.3375365071E-15   0.3406933294E-01  -0.1653466647E-01  -0.1653466647E-01  -0.8841861183E-16   0.8796238099E-16   0.4341623620E-16   0.1250000002E+01
   0.1034069333E+01   0.9834653336E+00  -0.3154037522E-16   0.2250000000E-02  -0.6750000000E-03   0.3376627901E-19   0.3181933289E-01  -0.1585966644E-01  -0.3157414150E-16   0.1250000002E+01   0.1775386293E-14   0.1470439807E-14   0.7311179725E-15  -0.5229021534E-15   0.8390510274E-16   0.3406933293E-01  -0.1653466647E-01  -0.1653466647E-01  -0.8092636195E-16   0.1101042043E-15   0.5517206538E-16   0.1250000002E+01
   0.0000000000E+00   0.9834653336E+00  -0.4639830295E-16   0.0000000000E+00  -0.6750000000E-03  -0.5382051717E-19   0.0000000000E+00  -0.1585966644E-01  -0.4634448243E-16   0.1250000002E+01  -0.6938922331E-14  -0.3940942762E-14   0.7237851407E-15   0.9046775959E-15  -0.3169461645E-15   0.3406933293E-01  -0.1653466647E-01  -0.1653466647E-01   0.4103509032E-16   0.3879081185E-16  -0.5015494461E-16   0.1250000002E+01
   0.0000000000E+00   0.0000000000E+00   0.9834653336E+00   0.0000000000E+00   0.0000000000E+00  -0.6750000000E-03   0.0000000000E+00   0.0000000000E+00  -0.1585966644E-01   0.1250000002E+01  -0.4165650999E-14  -0.5550453669E-14   0.2005172552E-16   0.9726253716E-15   0.5632121135E-15   0.3406933293E-01  -0.1653466647E-01  -0.1653466647E-01   0.4901576254E-17   0.6305696256E-16   0.4569844688E-16   0.1250000002E+01
   0.1034069333E+01   0.0000000000E+00   0.9834653336E+00   0.2250000000E-02   0.0000000000E+00  -0.6750000000E-03   0.3181933289E-01   0.0000000000E+00  -0.1585966644E-01   0.1250000002E+01   0.1427249760E-14   0.8938894320E-15  -0.9714053979E-15   0.3941966315E-15  -0.4638279644E-15   0.3406933293E-01  -0.1653466647E-01  -0.1653466647E-01  -0.1394337696E-15   0.2023075443E-15  -0.3816136682E-16   0.1250000002E+01
   0.1034069333E+01   0.9834653336E+00   0.9834653336E+00   0.2250000000E-02  -0.6750000000E-03  -0.6750000000E-03   0.3181933289E-01  -0.1585966644E-01  -0.1585966644E-01   0.1250000002E+01   0.1095322616E-14  -0.3676540184E-15  -0.2509298867E-15   0.5182780784E-15  -0.5747812589E-15   0.3406933293E-01  -0.1653466646E-01  -0.1653466646E-01  -0.1286004540E-15   0.9727156136E-16  -0.4616061659E-16   0.1250000002E+01
   0.0000000000E+00   0.9834653336E+00   0.9834653336E+00   0.0000000000E+00  -0.6750000000E-03  -0.6750000000E-03   0.0000000000E+00  -0.1585966644E-01  -0.1585966644E-01   0.1250000002E+01   0.1635918122E-14   0.1584245908E-14   0.2390436575E-15  -0.1040137219E-14   0.1314762412E-14   0.3406933293E-01  -0.1653466646E-01  -0.1653466646E-01  -0.4061955231E-16  -0.4270492146E-16   0.1044403072E-15   0.1250000002E+01
   0.2068138666E+01   0.0000000000E+00  -0.6294988190E-16   0.4500000000E-02   0.0000000000E+00   0.1233883669E-18   0.6363866577E-01   0.0000000000E+00  -0.6307327027E-16   0.1250000002E+01  -0.1342902261E-14  -0.1262771111E-14  -0.8427948062E-15  -0.1068396198E-14  -0.5476220884E-16   0.3406933294E-01  -0.1653466647E-01  -0.1653466647E-01  -0.6544055028E-16   0.2177086456E-15   0.9872466397E-17   0.1250000002E+01
   0.2068138666E+01   0.9834653336E+00  -0.6074822100E-16   0.4500000000E-02  -0.6750000000E-03   0.4477043177E-19   0.6363866577E-01  -0.1585966644E-01  -0.6079299144E-16   0.1250000002E+01   0.5610979254E-14   0.6594055354E-14  -0.1125147130E-14   0.4448922703E-15   0.1342673265E-14   0.3406933293E-01  -0.1653466647E-01  -0.1653466647E-01  -0.1136688858E-15   0.2601165054E-15   0.5854440886E-16   0.1250000002E+01
   0.2068138666E+01   0.0000000000E+00   0.9834653336E+00   0.4500000000E-02   0.0000000000E+00  -0.6750000000E-03   0.6363866577E-01   0.0000000000E+00  -0.1585966644E-01   0.1250000002E+01  -0.2349972039E-16   0.2225949225E-15   0.1178730038E-14   0.1506463680E-15  -0.5855451653E-15   0.3406933293E-01  -0.1653466647E-01  -0.1653466647E-01   0.6281226551E-16   0.1559014791E-15  -0.3900865448E-16   0.1250000002E+01
   0.2068138666E+01   0.9834653336E+00   0.9834653336E+00   0.4500000000E-02  -0.6750000000E-03  -0.6750000000E-03   0.6363866577E-01  -0.1585966644E-01  -0.1585966644E-01   0.1250000002E+01  -0.4516467140E-14  -0.5643996708E-14   0.1182973049E-14  -0.1345801424E-14   0.1795467938E-15   0.3406933293E-01  -0.1653466646E-01  -0.1653466646E-01   0.1431999048E-15   0.3659701179E-15   0.3049505786E-16   0.1250000002E+01
     1     2     3     4     5     6     7     8
     2     9    10     3     6    11    12     7
 VARIABLES = X,Y,Z,DU1,DU2,DU3,U1,U2,U3,S11,S22,S33,S12,S13,S23,E11,E22,E33,E12,E13,E23,SMISES
 ZONE, T="0.8550D+01" F=FEPOINT, I=   12 J=    2 ET=BRICK
   0.0000000000E+00   0.0000000000E+00   0.0000000000E+00   0.0000000000E+00   0.0000000000E+00   0.0000000000E+00   0.0000000000E+00   0.0000000000E+00   0.0000000000E+00   0.2375000004E+01   0.1031117549E-13   0.8307525534E-14   0.6063370383E-16  -0.1747682830E-14  -0.1293756547E-14   0.3631933294E-01  -0.1720966647E-01  -0.1720966647E-01  -0.3054122957E-18  -0.1364977988E-15  -0.8520508673E-16   0.2375000004E+01
   0.1036319333E+01   0.0000000000E+00  -0.5546252349E-16   0.2250000000E-02   0.0000000000E+00  -0.2853113446E-18   0.3406933289E-01   0.0000000000E+00  -0.5517721214E-16   0.2375000004E+01  -0.4833845762E-14  -0.2220445599E-14  -0.3922157722E-15   0.6775857984E-15   0.3032908388E-15   0.3631933294E-01  -0.1720966647E-01  -0.1720966647E-01  -0.8160207324E-16   0.1025572708E-15   0.4171224912E-16   0.2375000004E+01
   0.1036319333E+01   0.9827903336E+00  -0.3198454565E-16   0.2250000000E-02  -0.6750000000E-03  -0.4441704274E-18   0.3406933289E-01  -0.1653466644E-01  -0.3154037522E-16   0.2375000003E+01   0.1179540124E-14   0.1175554723E-14   0.6040829853E-15  -0.4841470474E-15   0.1307695568E-15   0.3631933294E-01  -0.1720966647E-01  -0.1720966647E-01  -0.7872215307E-16   0.9849631199E-16   0.6272487938E-16   0.2375000003E+01
   0.0000000000E+00   0.9827903336E+00  -0.4661009488E-16   0.0000000000E+00  -0.6750000000E-03  -0.2117919381E-18   0.0000000000E+00  -0.1653466644E-01  -0.4639830295E-16   0.2375000003E+01  -0.7010984594E-14  -0.3831050362E-14   0.7025863871E-15   0.8847560381E-15  -0.3550185455E-15   0.3631933294E-01  -0.1720966647E-01  -0.1720966647E-01   0.3576992539E-16   0.4515965435E-16  -0.5718499008E-16   0.2375000003E+01
   0.0000000000E+00   0.0000000000E+00   0.9827903336E+00   0.0000000000E+00   0.0000000000E+00  -0.6750000000E-03   0.0000000000E+00   0.0000000000E+00  -0.1653466644E-01   0.2375000003E+01  -0.4062381656E-14  -0.5542518424E-14  -0.1393346520E-16   0.9276033908E-15   0.5751802888E-15   0.3631933294E-01  -0.1720966647E-01  -0.1720966647E-01  -0.5239721598E-17   0.6769913036E-16   0.3091740733E-16   0.2375000003E+01
   0.1036319333E+01   0.0000000000E+00   0.9827903336E+00   0.2250000000E-02   0.0000000000E+00  -0.6750000000E-03   0.3406933289E-01   0.0000000000E+00  -0.1653466644E-01   0.2375000003E+01   0.1390696029E-14   0.7865856895E-15  -0.7245416564E-15   0.1561879964E-15  -0.4066564428E-15   0.3631933294E-01  -0.1720966647E-01  -0.1720966647E-01  -0.1264520978E-15   0.1900569075E-15  -0.3338415066E-16   0.2375000003E+01
   0.1036319333E+01   0.9827903336E+00   0.9827903336E+00   0.2250000000E-02  -0.6750000000E-03  -0.6750000000E-03   0.3406933289E-01  -0.1653466644E-01  -0.1653466644E-01   0.2375000003E+01   0.9690614274E-15  -0.4444800551E-15  -0.6564910772E-16   0.7326816981E-15  -0.5546203528E-15   0.3631933293E-01  -0.1720966647E-01  -0.1720966647E-01  -0.1368098429E-15   0.9889067419E-16  -0.5261123472E-16   0.2375000003E+01
   0.0000000000E+00   0.9827903336E+00   0.9827903336E+00   0.0000000000E+00  -0.6750000000E-03  -0.6750000000E-03   0.0000000000E+00  -0.1653466644E-01  -0.1653466644E-01   0.2375000003E+01   0.1503763310E-14   0.1460208726E-14   0.2021547345E-15  -0.1054574940E-14   0.1451798930E-14   0.3631933293E-01  -0.1720966647E-01  -0.1720966647E-01  -0.2892444404E-16  -0.4197333569E-16   0.1123476830E-15   0.2375000003E+01
   0.2072638666E+01   0.0000000000E+00  -0.6307002544E-16   0.4500000000E-02   0.0000000000E+00  -0.1201435371E-18   0.6813866577E-01   0.0000000000E+00  -0.6294988190E-16   0.2375000004E+01  -0.1258092083E-14  -0.1312339726E-14  -0.1140815951E-14  -0.8493052728E-15  -0.1218889817E-15   0.3631933294E-01  -0.1720966647E-01  -0.1720966647E-01  -0.8064890869E-16   0.2273745031E-15   0.5186352097E-17   0.2375000004E+01
   0.2072638666E+01   0.9827903336E+00  -0.6124068560E-16   0.4500000000E-02  -0.6750000000E-03  -0.4924645988E-18   0.6813866577E-01  -0.1653466644E-01  -0.6074822100E-16   0.2375000003E+01   0.5561859917E-14   0.6365703531E-14  -0.1245472937E-14   0.6179628428E-15   0.1241637454E-14   0.3631933294E-01  -0.1720966647E-01  -0.1720966647E-01  -0.1223984190E-15   0.2799905794E-15   0.6019692272E-16   0.2375000003E+01
   0.2072638666E+01   0.0000000000E+00   0.9827903336E+00   0.4500000000E-02   0.0000000000E+00  -0.6750000000E-03   0.6813866577E-01   0.0000000000E+00  -0.1653466644E-01   0.2375000003E+01   0.1037167642E-14   0.9709632251E-15   0.7549413208E-15   0.4527532960E-15  -0.6690948110E-15   0.3631933294E-01  -0.1720966647E-01  -0.1720966647E-01   0.4205172476E-16   0.1489761634E-15  -0.4075891841E-16   0.2375000003E+01
   0.2072638666E+01   0.9827903336E+00   0.9827903336E+00   0.4500000000E-02  -0.6750000000E-03  -0.6750000000E-03   0.6813866577E-01  -0.1653466644E-01  -0.1653466644E-01   0.2375000003E+01  -0.4825679298E-14  -0.5901100441E-14   0.1065331951E-14  -0.1249463674E-14   0.1188171936E-15   0.3631933293E-01  -0.1720966646E-01  -0.1720966646E-01   0.1367536813E-15   0.3893438538E-15   0.3282346854E-16   0.2375000003E+01
     1     2     3     4     5     6     7     8
     2     9    10     3     6    11    12     7
 VARIABLES = X,Y,Z,DU1,DU2,DU3,U1,U2,U3,S11,S22,S33,S12,S13,S23,E11,E22,E33,E12,E13,E23,SMISES
 ZONE, T="0.8600D+01" F=FEPOINT, I=   12 J=    2 ET=BRICK
   0.0000000000E+00   0.0000000000E+00   0.0000000000E+00   0.0000000000E+00   0.0000000000E+00   0.0000000000E+00   0.0000000000E+00   0.0000000000E+00   0.0000000000E+00   0.3500000005E+01   0.9852212230E-14   0.7694180835E-14   0.7879538677E-16  -0.1760218008E-14  -0.1385599117E-14   0.3856933295E-01  -0.1788466647E-01  -0.1788466647E-01  -0.8530452901E-18  -0.1380702351E-15  -0.9531263759E-16   0.3500000005E+01
   0.1038569333E+01   0.0000000000E+00  -0.5530667232E-16   0.2250000000E-02   0.0000000000E+00   0.1558511699E-18   0.3631933289E-01   0.0000000000E+00  -0.5546252349E-16   0.3500000005E+01  -0.4267845665E-14  -0.1730275142E-14   0.1560840366E-15   0.1036943158E-14   0.3540660726E-15   0.3856933294E-01  -0.1788466647E-01  -0.1788466647E-01  -0.7504495640E-16   0.1052765771E-15   0.4796893053E-16   0.3500000005E+01
   0.1038569333E+01   0.9821153336E+00  -0.3160866057E-16   0.2250000000E-02  -0.6750000000E-03   0.3758850755E-18   0.3631933289E-01  -0.1720966644E-01  -0.3198454565E-16   0.3500000005E+01   0.1184984479E-14   0.1236510216E-14   0.1174010833E-14  -0.9078877066E-15   0.1023186191E-15   0.3856933294E-01  -0.1788466647E-01  -0.1788466647E-01  -0.6568022494E-16   0.9534720042E-16   0.4871920151E-16   0.3500000005E+01
   0.0000000000E+00   0.9821153336E+00  -0.4701289678E-16   0.0000000000E+00  -0.6750000000E-03  -0.4028018917E-18   0.0000000000E+00  -0.1720966644E-01  -0.4661009488E-16   0.3500000005E+01  -0.5902025060E-14  -0.2942142651E-14   0.6544363937E-15   0.9732528581E-15  -0.4037336267E-15   0.3856933294E-01  -0.1788466647E-01  -0.1788466647E-01   0.3123267914E-16   0.4933198076E-16  -0.4297445285E-16   0.3500000005E+01
   0.0000000000E+00   0.0000000000E+00   0.9821153336E+00   0.0000000000E+00   0.0000000000E+00  -0.6750000000E-03   0.0000000000E+00   0.0000000000E+00  -0.1720966644E-01   0.3500000005E+01  -0.3363777449E-14  -0.4805999399E-14  -0.4478605898E-17   0.8296153258E-15   0.5058467950E-15   0.3856933294E-01  -0.1788466647E-01  -0.1788466647E-01  -0.5528818396E-17   0.8156801274E-16   0.4746769150E-16   0.3500000005E+01
   0.1038569333E+01   0.0000000000E+00   0.9821153336E+00   0.2250000000E-02   0.0000000000E+00  -0.6750000000E-03   0.3631933289E-01   0.0000000000E+00  -0.1720966644E-01   0.3500000005E+01   0.8192516205E-15   0.3316078957E-15  -0.1061478191E-14   0.5691899578E-15  -0.3113109611E-15   0.3856933294E-01  -0.1788466647E-01  -0.1788466647E-01  -0.1314153841E-15   0.1854033335E-15  -0.4655350843E-16   0.3500000005E+01
   0.1038569333E+01   0.9821153336E+00   0.9821153336E+00   0.2250000000E-02  -0.6750000000E-03  -0.6750000000E-03   0.3631933289E-01  -0.1720966644E-01  -0.1720966644E-01   0.3500000005E+01   0.9581727602E-15  -0.3740947580E-15  -0.5158319741E-15   0.2313318918E-15  -0.5448296160E-15   0.3856933294E-01  -0.1788466647E-01  -0.1788466647E-01  -0.1327799401E-15   0.9696883498E-16  -0.3770180058E-16   0.3500000005E+01
   0.0000000000E+00   0.9821153336E+00   0.9821153336E+00   0.0000000000E+00  -0.6750000000E-03  -0.6750000000E-03   0.0000000000E+00  -0.1720966644E-01  -0.1720966644E-01   0.3500000005E+01   0.1211333476E-14   0.1223290034E-14   0.1043047866E-15  -0.8736600939E-15   0.1432404584E-14   0.3856933294E-01  -0.1788466647E-01  -0.1788466647E-01  -0.3696897175E-16  -0.5501766944E-16   0.8913181766E-16   0.3500000005E+01
   0.2077138666E+01   0.0000000000E+00  -0.6171773701E-16   0.4500000000E-02   0.0000000000E+00   0.1352288428E-17   0.7263866577E-01   0.0000000000E+00  -0.6307002544E-16   0.3500000005E+01   0.3328714150E-15  -0.1736318810E-15  -0.1541206148E-14  -0.1308247397E-14  -0.8674728903E-16   0.3856933294E-01  -0.1788466647E-01  -0.1788466647E-01  -0.9192901394E-16   0.1800134493E-15   0.6350085125E-17   0.3500000005E+01
   0.2077138666E+01   0.9821153336E+00  -0.5964056381E-16   0.4500000000E-02  -0.6750000000E-03   0.1600121796E-17   0.7263866577E-01  -0.1720966644E-01  -0.6124068560E-16   0.3500000005E+01   0.5040677813E-14   0.5720617716E-14  -0.1634707044E-14   0.8414149116E-15   0.1170693471E-14   0.3856933294E-01  -0.1788466647E-01  -0.1788466647E-01  -0.1157457579E-15   0.2887406569E-15   0.6144658509E-16   0.3500000005E+01
   0.2077138666E+01   0.0000000000E+00   0.9821153336E+00   0.4500000000E-02   0.0000000000E+00  -0.6750000000E-03   0.7263866577E-01   0.0000000000E+00  -0.1720966644E-01   0.3500000005E+01  -0.2274366626E-15  -0.2205336194E-15   0.1019193148E-14  -0.3717482516E-15  -0.5239857257E-15   0.3856933294E-01  -0.1788466647E-01  -0.1788466647E-01   0.4999784954E-16   0.1883617355E-15  -0.3567835050E-16   0.3500000005E+01
   0.2077138666E+01   0.9821153336E+00   0.9821153336E+00   0.4500000000E-02  -0.6750000000E-03  -0.6750000000E-03   0.7263866577E-01  -0.1720966644E-01  -0.1720966644E-01   0.3500000004E+01  -0.4555026755E-14  -0.5645322064E-14   0.1216898927E-14  -0.6977389202E-15   0.5035218503E-16   0.3856933293E-01  -0.1788466647E-01  -0.1788466647E-01   0.1140924670E-15   0.3292104186E-15   0.2291531603E-16   0.3500000004E+01
     1     2     3     4     5     6     7     8
     2     9    10     3     6    11    12     7
 VARIABLES = X,Y,Z,DU1,DU2,DU3,U1,U2,U3,S11,S22,S33,S12,S13,S23,E11,E22,E33,E12,E13,E23,SMISES
 ZONE, T="0.8650D+01" F=FEPOINT, I=   12 J=    2 ET=BRICK
   0.0000000000E+00   0.0000000000E+00   0.0000000000E+00   0.0000000000E+00   0.0000000000E+00   0.0000000000E+00   0.0000000000E+00   0.0000000000E+00   0.0000000000E+00   0.4625000007E+01   0.1024895670E-13   0.8115958713E-14   0.7916445491E-16  -0.1720629456E-14  -0.1180734870E-14   0.4081933295E-01  -0.1855966647E-01  -0.1855966647E-01   0.2260404138E-17  -0.1444142069E-15  -0.8669354682E-16   0.4625000007E+01
   0.1040819333E+01   0.0000000000E+00  -0.5571885219E-16   0.2250000000E-02   0.0000000000E+00  -0.4121798758E-18   0.3856933289E-01   0.0000000000E+00  -0.5530667232E-16   0.4625000007E+01  -0.4798653099E-14  -0.2240764091E-14  -0.2971030444E-15   0.6545693975E-15   0.3841141527E-15   0.4081933295E-01  -0.1855966647E-01  -0.1855966647E-01  -0.7670134056E-16   0.1088499404E-15   0.4783877791E-16   0.4625000007E+01
   0.1040819333E+01   0.9814403336E+00  -0.3188284991E-16   0.2250000000E-02  -0.6750000000E-03  -0.2741893332E-18   0.3856933289E-01  -0.1788466644E-01  -0.3160866057E-16   0.4625000007E+01   0.1538369820E-14   0.1321769681E-14   0.5882742218E-15  -0.4674027904E-15   0.6625589305E-16   0.4081933294E-01  -0.1855966647E-01  -0.1855966647E-01  -0.6170988821E-16   0.9167113562E-16   0.4614372309E-16   0.4625000007E+01
   0.0000000000E+00   0.9814403336E+00  -0.4588403601E-16   0.0000000000E+00  -0.6750000000E-03   0.1128860765E-17   0.0000000000E+00  -0.1788466644E-01  -0.4701289678E-16   0.4625000007E+01  -0.6113910370E-14  -0.3606283625E-14   0.6753972290E-15   0.7715132362E-15  -0.3713587323E-15   0.4081933294E-01  -0.1855966647E-01  -0.1855966647E-01   0.3076137866E-16   0.5162677596E-16  -0.6599949710E-16   0.4625000007E+01
   0.0000000000E+00   0.0000000000E+00   0.9814403336E+00   0.0000000000E+00   0.0000000000E+00  -0.6750000000E-03   0.0000000000E+00   0.0000000000E+00  -0.1788466644E-01   0.4625000007E+01  -0.4126788696E-14  -0.5085547864E-14  -0.8112887166E-17   0.7633455630E-15   0.6219877094E-15   0.4081933294E-01  -0.1855966647E-01  -0.1855966647E-01  -0.4365532410E-17   0.6578735463E-16   0.4405902710E-16   0.4625000007E+01
   0.1040819333E+01   0.0000000000E+00   0.9814403336E+00   0.2250000000E-02   0.0000000000E+00  -0.6750000000E-03   0.3856933289E-01   0.0000000000E+00  -0.1788466644E-01   0.4625000007E+01   0.1364933216E-14   0.8014598694E-15  -0.5069012514E-15   0.2648430385E-15  -0.3182207120E-15   0.4081933294E-01  -0.1855966647E-01  -0.1855966647E-01  -0.1313211650E-15   0.2082409759E-15  -0.3490527387E-16   0.4625000007E+01
   0.1040819333E+01   0.9814403336E+00   0.9814403336E+00   0.2250000000E-02  -0.6750000000E-03  -0.6750000000E-03   0.3856933289E-01  -0.1788466644E-01  -0.1788466644E-01   0.4625000006E+01   0.9338687890E-15  -0.3076949440E-15   0.5861606376E-18   0.6492035681E-15  -0.5949957643E-15   0.4081933294E-01  -0.1855966647E-01  -0.1855966647E-01  -0.1353600124E-15   0.8680595048E-16  -0.4239482971E-16   0.4625000006E+01
   0.0000000000E+00   0.9814403336E+00   0.9814403336E+00   0.0000000000E+00  -0.6750000000E-03  -0.6750000000E-03   0.0000000000E+00  -0.1788466644E-01  -0.1788466644E-01   0.4625000006E+01   0.1354826223E-14   0.1356623543E-14   0.2374890327E-15  -0.9914853095E-15   0.1349778128E-14   0.4081933294E-01  -0.1855966647E-01  -0.1855966647E-01  -0.3056909115E-16  -0.4893912119E-16   0.1068973223E-15   0.4625000006E+01
   0.2081638666E+01   0.0000000000E+00  -0.6416240589E-16   0.4500000000E-02   0.0000000000E+00  -0.2444668879E-17   0.7713866577E-01   0.0000000000E+00  -0.6171773701E-16   0.4625000007E+01  -0.1458554819E-14  -0.1616387658E-14  -0.8327549236E-15  -0.6647498937E-15  -0.2180013027E-15   0.4081933295E-01  -0.1855966647E-01  -0.1855966647E-01  -0.6829006692E-16   0.1599876166E-15   0.1139535566E-17   0.4625000007E+01
   0.2081638666E+01   0.9814403336E+00  -0.6274438815E-16   0.4500000000E-02  -0.6750000000E-03  -0.3103824346E-17   0.7713866577E-01  -0.1788466644E-01  -0.5964056381E-16   0.4625000006E+01   0.5382445085E-14   0.6555277619E-14  -0.1373717290E-14   0.5213650184E-15   0.1337793971E-14   0.4081933294E-01  -0.1855966647E-01  -0.1855966647E-01  -0.1155965690E-15   0.1753933637E-15   0.6853332790E-16   0.4625000006E+01
   0.2081638666E+01   0.0000000000E+00   0.9814403336E+00   0.4500000000E-02   0.0000000000E+00  -0.6750000000E-03   0.7713866577E-01   0.0000000000E+00  -0.1788466644E-01   0.4625000006E+01   0.1050049055E-14   0.9987187928E-15   0.9133118092E-15   0.5427967147E-15  -0.6898350086E-15   0.4081933294E-01  -0.1855966647E-01  -0.1855966647E-01   0.5433984691E-16   0.2401989395E-15  -0.4382119060E-16   0.4625000006E+01
   0.2081638666E+01   0.9814403336E+00   0.9814403336E+00   0.4500000000E-02  -0.6750000000E-03  -0.6750000000E-03   0.7713866577E-01  -0.1788466644E-01  -0.1788466644E-01   0.4625000006E+01  -0.4414060629E-14  -0.5645855945E-14   0.1298124410E-14  -0.7925002514E-15   0.1126447316E-15   0.4081933294E-01  -0.1855966647E-01  -0.1855966647E-01   0.1370902688E-15   0.2924034020E-15   0.2592966561E-16   0.4625000006E+01
     1     2     3     4     5     6     7     8
     2     9    10     3     6    11    12     7
 VARIABLES = X,Y,Z,DU1,DU2,DU3,U1,U2,U3,S11,S22,S33,S12,S13,S23,E11,E22,E33,E12,E13,E23,SMISES
 ZONE, T="0.8700D+01" F=FEPOINT, I=   12 J=    2 ET=BRICK
   0.0000000000E+00   0.0000000000E+00   0.0000000000E+00   0.0000000000E+00   0.0000000000E+00   0.0000000000E+00   0.0000000000E+00   0.0000000000E+00   0.0000000000E+00   0.5750000009E+01   0.9568482775E-14   0.7375258746E-14   0.6506751337E-16  -0.1773791819E-14  -0.1359435897E-14   0.4306933295E-01  -0.1923466647E-01  -0.1923466647E-01  -0.2868778661E-19  -0.1353238863E-15  -0.9854577473E-16   0.5750000009E+01
   0.1043069333E+01   0.0000000000E+00  -0.5534610508E-16   0.2250000000E-02   0.0000000000E+00   0.3727471108E-18   0.4081933289E-01   0.0000000000E+00  -0.5571885219E-16   0.5750000009E+01  -0.5116845794E-14  -0.2002386549E-14  -0.1391200930E-16   0.9420889729E-15   0.3053996258E-15   0.4306933295E-01  -0.1923466647E-01  -0.1923466647E-01  -0.6574472613E-16   0.9144326798E-16   0.4842629520E-16   0.5750000009E+01
   0.1043069333E+01   0.9807653336E+00  -0.3183558303E-16   0.2250000000E-02  -0.6750000000E-03   0.4726687842E-19   0.4081933289E-01  -0.1855966644E-01  -0.3188284991E-16   0.5750000008E+01   0.1604769634E-14   0.1534384462E-14   0.8906672531E-15  -0.6544938199E-15   0.2699938117E-15   0.4306933295E-01  -0.1923466647E-01  -0.1923466647E-01  -0.6176975099E-16   0.1025858088E-15   0.5749140495E-16   0.5750000008E+01
   0.0000000000E+00   0.9807653336E+00  -0.4681549620E-16   0.0000000000E+00  -0.6750000000E-03  -0.9314601933E-18   0.0000000000E+00  -0.1855966644E-01  -0.4588403601E-16   0.5750000008E+01  -0.5410591224E-14  -0.2758012923E-14   0.7133827218E-15   0.8495562135E-15  -0.3173064435E-15   0.4306933295E-01  -0.1923466647E-01  -0.1923466647E-01   0.4092143014E-16   0.5073737990E-16  -0.3461822902E-16   0.5750000008E+01
   0.0000000000E+00   0.0000000000E+00   0.9807653336E+00   0.0000000000E+00   0.0000000000E+00  -0.6750000000E-03   0.0000000000E+00   0.0000000000E+00  -0.1855966644E-01   0.5750000008E+01  -0.3493854849E-14  -0.4525721549E-14   0.2189115255E-16   0.8655688787E-15   0.4851923841E-15   0.4306933295E-01  -0.1923466647E-01  -0.1923466647E-01  -0.6459289378E-17   0.7641629570E-16   0.4208946697E-16   0.5750000008E+01
   0.1043069333E+01   0.0000000000E+00   0.9807653336E+00   0.2250000000E-02   0.0000000000E+00  -0.6750000000E-03   0.4081933289E-01   0.0000000000E+00  -0.1855966644E-01   0.5750000008E+01   0.1572103634E-14   0.4371858870E-15  -0.7951509526E-15   0.5932744419E-15  -0.4498805195E-15   0.4306933295E-01  -0.1923466647E-01  -0.1923466647E-01  -0.1197676446E-15   0.1859122595E-15  -0.4642240319E-16   0.5750000008E+01
   0.1043069333E+01   0.9807653336E+00   0.9807653336E+00   0.2250000000E-02  -0.6750000000E-03  -0.6750000000E-03   0.4081933289E-01  -0.1855966644E-01  -0.1855966644E-01   0.5750000008E+01   0.1858698573E-14   0.3341347575E-15  -0.2974875661E-15   0.2775112467E-15  -0.4701371703E-15   0.4306933294E-01  -0.1923466647E-01  -0.1923466647E-01  -0.1207896685E-15   0.8744975427E-16  -0.3901771944E-16   0.5750000008E+01
   0.0000000000E+00   0.9807653336E+00   0.9807653336E+00   0.0000000000E+00  -0.6750000000E-03  -0.6750000000E-03   0.0000000000E+00  -0.1855966644E-01  -0.1855966644E-01   0.5750000008E+01   0.1206618598E-14   0.4141975048E-15   0.3488094694E-15  -0.7076738232E-15   0.1419225901E-14   0.4306933294E-01  -0.1923466647E-01  -0.1923466647E-01  -0.2986732440E-16  -0.4637163742E-16   0.1034030746E-15   0.5750000008E+01
   0.2086138666E+01   0.0000000000E+00  -0.6135079479E-16   0.4500000000E-02   0.0000000000E+00   0.2811611101E-17   0.8163866577E-01   0.0000000000E+00  -0.6416240589E-16   0.5750000009E+01  -0.8513838730E-15  -0.9381019405E-15  -0.8170509148E-15  -0.1328040924E-14  -0.1443760454E-15   0.4306933295E-01  -0.1923466647E-01  -0.1923466647E-01  -0.8736258378E-16   0.1688236460E-15   0.3429898786E-17   0.5750000009E+01
   0.2086138666E+01   0.9807653336E+00  -0.5957078567E-16   0.4500000000E-02  -0.6750000000E-03   0.3173602483E-17   0.8163866577E-01  -0.1855966644E-01  -0.6274438815E-16   0.5750000008E+01   0.4708874264E-14   0.6324532605E-14  -0.1361352483E-14   0.6064391161E-15   0.1472796397E-14   0.4306933295E-01  -0.1923466647E-01  -0.1923466647E-01  -0.1270152446E-15   0.2695565751E-15   0.7642674841E-16   0.5750000008E+01
   0.2086138666E+01   0.0000000000E+00   0.9807653336E+00   0.4500000000E-02   0.0000000000E+00  -0.6750000000E-03   0.8163866577E-01   0.0000000000E+00  -0.1855966644E-01   0.5750000008E+01  -0.6038626910E-15  -0.9735936271E-16   0.1664717179E-14   0.3478919242E-15  -0.8158855563E-15   0.4306933295E-01  -0.1923466647E-01  -0.1923466647E-01   0.6246397646E-16   0.2352964106E-15  -0.3566423212E-16   0.5750000008E+01
   0.2086138666E+01   0.9807653336E+00   0.9807653336E+00   0.4500000000E-02  -0.6750000000E-03  -0.6750000000E-03   0.8163866577E-01  -0.1855966644E-01  -0.1855966644E-01   0.5750000007E+01  -0.4517645885E-14  -0.5957340984E-14   0.1549204381E-14  -0.5948142482E-15   0.9064373407E-17   0.4306933294E-01  -0.1923466647E-01  -0.1923466647E-01   0.1424205096E-15   0.3371140631E-15   0.2983007884E-16   0.5750000007E+01
     1     2     3     4     5     6     7     8
     2     9    10     3     6    11    12     7
 VARIABLES = X,Y,Z,DU1,DU2,DU3,U1,U2,U3,S11,S22,S33,S12,S13,S23,E11,E22,E33,E12,E13,E23,SMISES
 ZONE, T="0.8750D+01" F=FEPOINT, I=   12 J=    2 ET=BRICK
   0.0000000000E+00   0.0000000000E+00   0.0000000000E+00   0.0000000000E+00   0.0000000000E+00   0.0000000000E+00   0.0000000000E+00   0.0000000000E+00   0.0000000000E+00   0.6875000011E+01   0.9026252684E-14   0.7453081100E-14   0.5222653120E-16  -0.1870535641E-14  -0.1286382131E-14   0.4531933296E-01  -0.1990966647E-01  -0.1990966647E-01  -0.1875357105E-17  -0.1460649894E-15  -0.9378318494E-16   0.6875000011E+01
   0.1045319333E+01   0.0000000000E+00  -0.5633406812E-16   0.2250000000E-02   0.0000000000E+00  -0.9879630365E-18   0.4306933289E-01   0.0000000000E+00  -0.5534610508E-16   0.6875000011E+01  -0.4506223216E-14  -0.1613808553E-14   0.1218501931E-15   0.1141904763E-14   0.2820248222E-15   0.4531933296E-01  -0.1990966647E-01  -0.1990966647E-01  -0.6441878524E-16   0.1229239095E-15   0.4191713516E-16   0.6875000011E+01
   0.1045319333E+01   0.9800903336E+00  -0.3301285179E-16   0.2250000000E-02  -0.6750000000E-03  -0.1177268762E-17   0.4306933289E-01  -0.1923466644E-01  -0.3183558303E-16   0.6875000010E+01   0.1235051288E-14   0.8722362339E-15   0.1002401819E-14  -0.5331075934E-15   0.9707813997E-16   0.4531933295E-01  -0.1990966647E-01  -0.1990966647E-01  -0.6444601232E-16   0.1026533603E-15   0.4886067597E-16   0.6875000010E+01
   0.0000000000E+00   0.9800903336E+00  -0.4648233392E-16   0.0000000000E+00  -0.6750000000E-03   0.3331622832E-18   0.0000000000E+00  -0.1923466644E-01  -0.4681549620E-16   0.6875000010E+01  -0.6250695504E-14  -0.3775539261E-14   0.5374195611E-15   0.5683369341E-15  -0.4203397630E-15   0.4531933295E-01  -0.1990966647E-01  -0.1990966647E-01   0.3843670419E-16   0.4990642944E-16  -0.5633561442E-16   0.6875000010E+01
   0.0000000000E+00   0.0000000000E+00   0.9800903336E+00   0.0000000000E+00   0.0000000000E+00  -0.6750000000E-03   0.0000000000E+00   0.0000000000E+00  -0.1923466644E-01   0.6875000010E+01  -0.4036084912E-14  -0.4835018337E-14   0.1777026899E-16   0.6504617017E-15   0.5522658498E-15   0.4531933295E-01  -0.1990966647E-01  -0.1990966647E-01  -0.2513812341E-17   0.4887123128E-16   0.6573024173E-16   0.6875000010E+01
   0.1045319333E+01   0.0000000000E+00   0.9800903336E+00   0.2250000000E-02   0.0000000000E+00  -0.6750000000E-03   0.4306933289E-01   0.0000000000E+00  -0.1923466644E-01   0.6875000010E+01   0.1516592495E-14   0.4223117241E-15  -0.9090526431E-15   0.7123431861E-15  -0.4351846140E-15   0.4531933295E-01  -0.1990966647E-01  -0.1990966647E-01  -0.1277679114E-15   0.2268127395E-15  -0.3917995059E-16   0.6875000010E+01
   0.1045319333E+01   0.9800903336E+00   0.9800903336E+00   0.2250000000E-02  -0.6750000000E-03  -0.6750000000E-03   0.4306933289E-01  -0.1923466644E-01  -0.1923466644E-01   0.6875000009E+01   0.8228465114E-15  -0.6533191441E-16  -0.2498955826E-15   0.3098285279E-15  -0.5563798925E-15   0.4531933294E-01  -0.1990966647E-01  -0.1990966647E-01  -0.9035657415E-16   0.9502954283E-16  -0.2903046169E-16   0.6875000009E+01
   0.0000000000E+00   0.9800903336E+00   0.9800903336E+00   0.0000000000E+00  -0.6750000000E-03  -0.6750000000E-03   0.0000000000E+00  -0.1923466644E-01  -0.1923466644E-01   0.6875000009E+01   0.1942603606E-14   0.1462930931E-14   0.1725287071E-15  -0.9812865368E-15   0.1293257536E-14   0.4531933295E-01  -0.1990966647E-01  -0.1990966647E-01  -0.4851580205E-16  -0.4438095829E-16   0.9939036651E-16   0.6875000009E+01
   0.2090638666E+01   0.0000000000E+00  -0.6461565189E-16   0.4500000000E-02   0.0000000000E+00  -0.3264857100E-17   0.8613866577E-01   0.0000000000E+00  -0.6135079479E-16   0.6875000010E+01  -0.4578953617E-15  -0.6610801111E-15  -0.1569177946E-14  -0.1531491688E-14  -0.2873171608E-15   0.4531933295E-01  -0.1990966647E-01  -0.1990966647E-01  -0.9171830441E-16   0.2277765602E-15   0.8710710551E-17   0.6875000010E+01
   0.2090638666E+01   0.9800903336E+00  -0.6352684578E-16   0.4500000000E-02  -0.6750000000E-03  -0.3956060106E-17   0.8613866577E-01  -0.1923466644E-01  -0.5957078567E-16   0.6875000010E+01   0.5437956267E-14   0.6927718108E-14  -0.1957769101E-14   0.3149387882E-15   0.1516439249E-14   0.4531933295E-01  -0.1990966647E-01  -0.1990966647E-01  -0.1265818333E-15   0.2447025816E-15   0.7114932176E-16   0.6875000010E+01
   0.2090638666E+01   0.0000000000E+00   0.9800903336E+00   0.4500000000E-02   0.0000000000E+00  -0.6750000000E-03   0.8613866577E-01   0.0000000000E+00  -0.1923466644E-01   0.6875000010E+01   0.1121893225E-14   0.4260110048E-15   0.8224564308E-15   0.4840754957E-15  -0.5723032123E-15   0.4531933295E-01  -0.1990966647E-01  -0.1990966647E-01   0.7021371921E-16   0.2453948067E-15  -0.4168503537E-16   0.6875000010E+01
   0.2090638666E+01   0.9800903336E+00   0.9800903336E+00   0.4500000000E-02  -0.6750000000E-03  -0.6750000000E-03   0.8613866577E-01  -0.1923466644E-01  -0.1923466644E-01   0.6875000009E+01  -0.4032385739E-14  -0.6228918417E-14   0.1161439715E-14  -0.8077908013E-15   0.4450102647E-15   0.4531933294E-01  -0.1990966647E-01  -0.1990966647E-01   0.1031631490E-15   0.3181320468E-15   0.3697391160E-16   0.6875000009E+01
     1     2     3     4     5     6     7     8
     2     9    10     3     6    11    12     7
 VARIABLES = X,Y,Z,DU1,DU2,DU3,U1,U2,U3,S11,S22,S33,S12,S13,S23,E11,E22,E33,E12,E13,E23,SMISES
 ZONE, T="0.8800D+01" F=FEPOINT, I=   12 J=    2 ET=BRICK
   0.0000000000E+00   0.0000000000E+00   0.0000000000E+00   0.0000000000E+00   0.0000000000E+00   0.0000000000E+00   0.0000000000E+00   0.0000000000E+00   0.0000000000E+00   0.8000000013E+01   0.9351348470E-14   0.8531028952E-14   0.7587895199E-16  -0.1715774713E-14  -0.1519252116E-14   0.4756933296E-01  -0.2058466648E-01  -0.2058466648E-01   0.3013270792E-17  -0.1388191422E-15  -0.9901371902E-16   0.8000000013E+01
   0.1047569333E+01   0.0000000000E+00  -0.5427322866E-16   0.2250000000E-02   0.0000000000E+00   0.2060839461E-17   0.4531933289E-01   0.0000000000E+00  -0.5633406812E-16   0.8000000012E+01  -0.4809541705E-14  -0.1602919843E-14  -0.1051797387E-15   0.1343815434E-14   0.9763155235E-16   0.4756933296E-01  -0.2058466647E-01  -0.2058466647E-01  -0.7319430086E-16   0.1170092723E-15   0.4035215481E-16   0.8000000012E+01
   0.1047569333E+01   0.9794153336E+00  -0.3195940377E-16   0.2250000000E-02  -0.6750000000E-03   0.1053448023E-17   0.4531933289E-01  -0.1990966644E-01  -0.3301285179E-16   0.8000000011E+01   0.1841688334E-14   0.1600784267E-14   0.9420308393E-15  -0.9193224269E-15   0.1055010694E-15   0.4756933295E-01  -0.2058466647E-01  -0.2058466647E-01  -0.5822013443E-16   0.7410163261E-16   0.5484159439E-16   0.8000000011E+01
   0.0000000000E+00   0.9794153336E+00  -0.4771725515E-16   0.0000000000E+00  -0.6750000000E-03  -0.1234921233E-17   0.0000000000E+00  -0.1990966644E-01  -0.4648233392E-16   0.8000000012E+01  -0.6291332479E-14  -0.2967176068E-14   0.5587229621E-15   0.8213711443E-15  -0.4765318851E-15   0.4756933295E-01  -0.2058466647E-01  -0.2058466647E-01   0.3423296602E-16   0.5871740865E-16  -0.3173410101E-16   0.8000000012E+01
   0.0000000000E+00   0.0000000000E+00   0.9794153336E+00   0.0000000000E+00   0.0000000000E+00  -0.6750000000E-03   0.0000000000E+00   0.0000000000E+00  -0.1990966644E-01   0.8000000012E+01  -0.4794381268E-14  -0.5776181088E-14   0.2394919927E-16   0.9912965982E-15   0.4686304647E-15   0.4756933295E-01  -0.2058466647E-01  -0.2058466647E-01   0.5245111810E-17   0.4821740655E-16   0.5269884535E-16   0.8000000012E+01
   0.1047569333E+01   0.0000000000E+00   0.9794153336E+00   0.2250000000E-02   0.0000000000E+00  -0.6750000000E-03   0.4531933289E-01   0.0000000000E+00  -0.1990966644E-01   0.8000000011E+01   0.1738637032E-14   0.5224453425E-15  -0.1642672842E-14   0.7540652711E-15  -0.4850798745E-15   0.4756933295E-01  -0.2058466647E-01  -0.2058466647E-01  -0.1414430410E-15   0.2164707258E-15  -0.2233587346E-16   0.8000000011E+01
   0.1047569333E+01   0.9794153336E+00   0.9794153336E+00   0.2250000000E-02  -0.6750000000E-03  -0.6750000000E-03   0.4531933289E-01  -0.1990966644E-01  -0.1990966644E-01   0.8000000010E+01   0.1349355134E-15  -0.1574945073E-15  -0.9161315514E-15  -0.6758674541E-16  -0.4190246960E-15   0.4756933295E-01  -0.2058466647E-01  -0.2058466647E-01  -0.1123190569E-15   0.5450701305E-16  -0.4843583486E-16   0.8000000010E+01
   0.0000000000E+00   0.9794153336E+00   0.9794153336E+00   0.0000000000E+00  -0.6750000000E-03  -0.6750000000E-03   0.0000000000E+00  -0.1990966644E-01  -0.1990966644E-01   0.8000000011E+01   0.1306218127E-14   0.2848494110E-15   0.1107570864E-15  -0.6987996509E-15   0.1532210725E-14   0.4756933295E-01  -0.2058466647E-01  -0.2058466647E-01  -0.4150117710E-16  -0.3158850951E-16   0.1030751500E-15   0.8000000011E+01
   0.2095138666E+01   0.0000000000E+00  -0.5703190654E-16   0.4500000000E-02   0.0000000000E+00   0.7583745342E-17   0.9063866577E-01   0.0000000000E+00  -0.6461565189E-16   0.8000000012E+01   0.1487417378E-15  -0.3906900464E-18  -0.1604522431E-14  -0.1356876002E-14  -0.1962407999E-15   0.4756933296E-01  -0.2058466647E-01  -0.2058466647E-01  -0.6080387011E-16   0.2150325265E-15   0.3215123595E-17   0.8000000012E+01
   0.2095138666E+01   0.9794153336E+00  -0.5546936620E-16   0.4500000000E-02  -0.6750000000E-03   0.8057479574E-17   0.9063866577E-01  -0.1990966644E-01  -0.6352684578E-16   0.8000000011E+01   0.5922682489E-14   0.7473399766E-14  -0.1642958633E-14   0.1556866852E-16   0.1668483558E-14   0.4756933295E-01  -0.2058466647E-01  -0.2058466647E-01  -0.8003504392E-16   0.2886155925E-15   0.7082141617E-16   0.8000000011E+01
   0.2095138666E+01   0.0000000000E+00   0.9794153336E+00   0.4500000000E-02   0.0000000000E+00  -0.6750000000E-03   0.9063866577E-01   0.0000000000E+00  -0.1990966644E-01   0.8000000011E+01   0.1555093810E-14   0.1321223456E-15   0.1075720177E-15   0.4947699619E-15  -0.5511113748E-15   0.4756933295E-01  -0.2058466647E-01  -0.2058466647E-01   0.5635771126E-17   0.2106172384E-15  -0.4051642168E-16   0.8000000011E+01
   0.2095138666E+01   0.9794153336E+00   0.9794153336E+00   0.4500000000E-02  -0.6750000000E-03  -0.6750000000E-03   0.9063866577E-01  -0.1990966644E-01  -0.1990966644E-01   0.8000000010E+01  -0.3233452393E-14  -0.6182837092E-14   0.7246638993E-15  -0.9728639791E-15   0.4784182309E-15   0.4756933295E-01  -0.2058466647E-01  -0.2058466647E-01   0.6337508872E-16   0.3728661540E-15   0.5288281709E-16   0.8000000010E+01
     1     2     3     4     5     6     7     8
     2     9    10     3     6    11    12     7
 VARIABLES = X,Y,Z,DU1,DU2,DU3,U1,U2,U3,S11,S22,S33,S12,S13,S23,E11,E22,E33,E12,E13,E23,SMISES
 ZONE, T="0.8850D+01" F=FEPOINT, I=   12 J=    2 ET=BRICK
   0.0000000000E+00   0.0000000000E+00   0.0000000000E+00   0.0000000000E+00   0.0000000000E+00   0.0000000000E+00   0.0000000000E+00   0.0000000000E+00   0.0000000000E+00   0.9125000014E+01   0.9888668139E-14   0.8890926446E-14   0.7199726445E-16  -0.2120989364E-14  -0.9313561040E-15   0.4981933296E-01  -0.2125966648E-01  -0.2125966648E-01   0.7924944900E-18  -0.1421272988E-15  -0.8486706346E-16   0.9125000014E+01
   0.1049819333E+01   0.0000000000E+00  -0.5928577858E-16   0.2250000000E-02   0.0000000000E+00  -0.5012549925E-17   0.4756933289E-01   0.0000000000E+00  -0.5427322866E-16   0.9125000014E+01  -0.5667971701E-14  -0.3260283183E-14  -0.1185967850E-14   0.3000719307E-15   0.3997355917E-15   0.4981933296E-01  -0.2125966648E-01  -0.2125966648E-01  -0.8580030734E-16   0.1145501076E-15   0.4337576102E-16   0.9125000014E+01
   0.1049819333E+01   0.9787403336E+00  -0.3536623348E-16   0.2250000000E-02  -0.6750000000E-03  -0.3406829711E-17   0.4756933289E-01  -0.2058466644E-01  -0.3195940377E-16   0.9125000013E+01   0.2559347676E-14   0.1275688360E-14  -0.2915269366E-15   0.2338054982E-15  -0.2422343480E-15   0.4981933296E-01  -0.2125966647E-01  -0.2125966647E-01  -0.6986978621E-16   0.9598163011E-16   0.5785712368E-16   0.9125000013E+01
   0.0000000000E+00   0.9787403336E+00  -0.4460268018E-16   0.0000000000E+00  -0.6750000000E-03   0.3114574978E-17   0.0000000000E+00  -0.2058466644E-01  -0.4771725515E-16   0.9125000013E+01  -0.7297436120E-14  -0.5604880252E-14   0.8058499576E-15   0.6400423472E-17  -0.4842482780E-15   0.4981933296E-01  -0.2125966647E-01  -0.2125966647E-01   0.3527573346E-16   0.4346282400E-16  -0.4567072193E-16   0.9125000013E+01
   0.0000000000E+00   0.0000000000E+00   0.9787403336E+00   0.0000000000E+00   0.0000000000E+00  -0.6750000000E-03   0.0000000000E+00   0.0000000000E+00  -0.2058466644E-01   0.9125000013E+01  -0.4646707398E-14  -0.5651352426E-14   0.5049816030E-16   0.7025686728E-15   0.1114549115E-14   0.4981933296E-01  -0.2125966647E-01  -0.2125966647E-01  -0.1991830178E-17   0.3937279004E-16   0.4344467783E-16   0.9125000013E+01
   0.1049819333E+01   0.0000000000E+00   0.9787403336E+00   0.2250000000E-02   0.0000000000E+00  -0.6750000000E-03   0.4756933289E-01   0.0000000000E+00  -0.2058466644E-01   0.9125000013E+01   0.2456296374E-14   0.1594948868E-14  -0.4496252244E-15  -0.1678961358E-15  -0.3988998272E-15   0.4981933296E-01  -0.2125966647E-01  -0.2125966647E-01  -0.1252015409E-15   0.1958568155E-15  -0.2893473760E-16   0.9125000013E+01
   0.1049819333E+01   0.9787403336E+00   0.9787403336E+00   0.2250000000E-02  -0.6750000000E-03  -0.6750000000E-03   0.4756933289E-01  -0.2058466644E-01  -0.2058466644E-01   0.9125000012E+01   0.4302830450E-15   0.2488753019E-15   0.3240848509E-15   0.1209895822E-14  -0.1000283799E-14   0.4981933295E-01  -0.2125966647E-01  -0.2125966647E-01  -0.1276726387E-15   0.1055203517E-15  -0.5276347615E-16   0.9125000012E+01
   0.0000000000E+00   0.9787403336E+00   0.9787403336E+00   0.0000000000E+00  -0.6750000000E-03  -0.6750000000E-03   0.0000000000E+00  -0.2058466644E-01  -0.2058466644E-01   0.9125000012E+01   0.3330382196E-14   0.2830391024E-14   0.2539763424E-15  -0.1591541844E-14   0.1408711132E-14   0.4981933295E-01  -0.2125966647E-01  -0.2125966647E-01  -0.2662426890E-16  -0.4275382262E-16   0.1075282550E-15   0.9125000012E+01
   0.2099638666E+01   0.0000000000E+00  -0.7869294803E-16   0.4500000000E-02   0.0000000000E+00  -0.2166104148E-16   0.9513866577E-01   0.0000000000E+00  -0.5703190654E-16   0.9125000014E+01  -0.3643807959E-14  -0.3393473656E-14   0.8189968584E-15  -0.5695107271E-16   0.3601252042E-15   0.4981933296E-01  -0.2125966647E-01  -0.2125966647E-01  -0.8441367125E-16   0.2133309368E-15   0.2047575261E-16   0.9125000014E+01
   0.2099638666E+01   0.9787403336E+00  -0.7430687390E-16   0.4500000000E-02  -0.6750000000E-03  -0.1883750770E-16   0.9513866577E-01  -0.2058466644E-01  -0.5546936620E-16   0.9125000013E+01   0.6825734778E-14   0.8410185909E-14   0.2694328397E-15  -0.6911936453E-15   0.1515562596E-14   0.4981933295E-01  -0.2125966647E-01  -0.2125966647E-01  -0.1182059571E-15   0.2161527604E-15   0.5280961636E-16   0.9125000013E+01
   0.2099638666E+01   0.0000000000E+00   0.9787403336E+00   0.4500000000E-02   0.0000000000E+00  -0.6750000000E-03   0.9513866577E-01   0.0000000000E+00  -0.2058466644E-01   0.9125000013E+01   0.1304368588E-14   0.2433841941E-14   0.1713668615E-16   0.1851994941E-14  -0.4585461212E-15   0.4981933295E-01  -0.2125966647E-01  -0.2125966647E-01   0.3437290139E-16   0.2141032032E-15  -0.4576240785E-16   0.9125000013E+01
   0.2099638666E+01   0.9787403336E+00   0.9787403336E+00   0.4500000000E-02  -0.6750000000E-03  -0.6750000000E-03   0.9513866577E-01  -0.2058466644E-01  -0.2058466644E-01   0.9125000012E+01  -0.6205291434E-14  -0.8966365311E-14   0.3221392541E-15  -0.1730961845E-14   0.3195010766E-18   0.4981933295E-01  -0.2125966647E-01  -0.2125966647E-01   0.1090179152E-15   0.2559668234E-15   0.4523653925E-16   0.9125000012E+01
     1     2     3     4     5     6     7     8
     2     9    10     3     6    11    12     7
 VARIABLES = X,Y,Z,DU1,DU2,DU3,U1,U2,U3,S11,S22,S33,S12,S13,S23,E11,E22,E33,E12,E13,E23,SMISES
 ZONE, T="0.8900D+01" F=FEPOINT, I=   12 J=    2 ET=BRICK
   0.0000000000E+00   0.0000000000E+00   0.0000000000E+00   0.0000000000E+00   0.0000000000E+00   0.0000000000E+00   0.0000000000E+00   0.0000000000E+00   0.0000000000E+00   0.1024999970E+02   0.1560719305E-06   0.1560719319E-06   0.1218941880E-15  -0.1214183319E-14  -0.1651979218E-14   0.5714563160E-01  -0.2447281579E-01  -0.2447281579E-01   0.1050024702E-16  -0.1238314336E-15  -0.9955825604E-16   0.1024999955E+02
   0.1057145632E+01   0.0000000000E+00  -0.4944479349E-16   0.7326298626E-02   0.0000000000E+00   0.9840985097E-17   0.4981933289E-01   0.0000000000E+00  -0.5928577858E-16   0.1024999970E+02   0.1560719196E-06   0.1560719212E-06  -0.1440279040E-16   0.1231889256E-14   0.1660545105E-15   0.5714563160E-01  -0.2447281579E-01  -0.2447281579E-01  -0.8904395461E-16   0.1090685969E-15   0.4344179848E-16   0.1024999955E+02
   0.1057145632E+01   0.9755271842E+00  -0.2719208111E-16   0.7326298626E-02  -0.3213149313E-02   0.8174152366E-17   0.4981933289E-01  -0.2125966644E-01  -0.3536623348E-16   0.1024999970E+02   0.1560719236E-06   0.1560719242E-06   0.1624764099E-15  -0.5340002861E-15   0.7747419138E-15   0.5714563159E-01  -0.2447281579E-01  -0.2447281579E-01  -0.7084627586E-16   0.1011806490E-15   0.7449454559E-16   0.1024999955E+02
   0.0000000000E+00   0.9755271842E+00  -0.5012481791E-16   0.0000000000E+00  -0.3213149313E-02  -0.5522137738E-17   0.0000000000E+00  -0.2125966644E-01  -0.4460268018E-16   0.1024999970E+02   0.1560719176E-06   0.1560719185E-06   0.6193643028E-15   0.1645470100E-14   0.1227353795E-15   0.5714563159E-01  -0.2447281579E-01  -0.2447281579E-01   0.3578706811E-16   0.5866256432E-16  -0.4655119120E-16   0.1024999955E+02
   0.0000000000E+00   0.0000000000E+00   0.9755271842E+00   0.0000000000E+00   0.0000000000E+00  -0.3213149313E-02   0.0000000000E+00   0.0000000000E+00  -0.2125966644E-01   0.1024999970E+02   0.1560719171E-06   0.1560719145E-06   0.3776587082E-16   0.9819168354E-15   0.2111281344E-15   0.5714563159E-01  -0.2447281579E-01  -0.2447281579E-01  -0.1013856520E-16   0.4915827567E-16   0.3206321854E-16   0.1024999955E+02
   0.1057145632E+01   0.0000000000E+00   0.9755271842E+00   0.7326298626E-02   0.0000000000E+00  -0.3213149313E-02   0.4981933289E-01   0.0000000000E+00  -0.2125966644E-01   0.1024999970E+02   0.1560719212E-06   0.1560719197E-06  -0.8083631737E-15   0.1008109542E-15  -0.1156944773E-14   0.5714563159E-01  -0.2447281579E-01  -0.2447281579E-01  -0.1136849743E-15   0.1955279022E-15  -0.3905587341E-16   0.1024999955E+02
   0.1057145632E+01   0.9755271842E+00   0.9755271842E+00   0.7326298626E-02  -0.3213149313E-02  -0.3213149313E-02   0.4981933289E-01  -0.2125966644E-01  -0.2125966644E-01   0.1024999970E+02   0.1560719244E-06   0.1560719212E-06  -0.6437388000E-15   0.3373859373E-15  -0.3881442201E-15   0.5714563159E-01  -0.2447281579E-01  -0.2447281579E-01  -0.1107463084E-15   0.9502965505E-16  -0.2895255729E-16   0.1024999955E+02
   0.0000000000E+00   0.9755271842E+00   0.9755271842E+00   0.0000000000E+00  -0.3213149313E-02  -0.3213149313E-02   0.0000000000E+00  -0.2125966644E-01  -0.2125966644E-01   0.1024999970E+02   0.1560719218E-06   0.1560719218E-06  -0.7063296982E-16  -0.1005904964E-14   0.1348021582E-14   0.5714563159E-01  -0.2447281579E-01  -0.2447281579E-01  -0.4728382839E-16  -0.3839114923E-16   0.1159848644E-15   0.1024999955E+02
   0.2114291263E+01   0.0000000000E+00  -0.4028268357E-16   0.1465259725E-01   0.0000000000E+00   0.3841026446E-16   0.9963866577E-01   0.0000000000E+00  -0.7869294803E-16   0.1024999970E+02   0.1560719202E-06   0.1560719233E-06   0.6944736845E-15  -0.1820111372E-14  -0.6635173893E-17   0.5714563160E-01  -0.2447281579E-01  -0.2447281579E-01  -0.4951149112E-16   0.1784225409E-15   0.9278690788E-17   0.1024999955E+02
   0.2114291263E+01   0.9755271842E+00  -0.3780515821E-16   0.1465259725E-01  -0.3213149313E-02   0.3650171569E-16   0.9963866577E-01  -0.2125966644E-01  -0.7430687390E-16   0.1024999970E+02   0.1560719289E-06   0.1560719306E-06  -0.4728208460E-15   0.1463969571E-15   0.1921638698E-14   0.5714563159E-01  -0.2447281579E-01  -0.2447281579E-01  -0.8616558929E-16   0.3234262927E-15   0.7080383321E-16   0.1024999955E+02
   0.2114291263E+01   0.0000000000E+00   0.9755271842E+00   0.1465259725E-01   0.0000000000E+00  -0.3213149313E-02   0.9963866577E-01   0.0000000000E+00  -0.2125966644E-01   0.1024999970E+02   0.1560719220E-06   0.1560719242E-06   0.2430178665E-14   0.4450687733E-15  -0.1297500272E-14   0.5714563159E-01  -0.2447281579E-01  -0.2447281579E-01   0.5557806378E-16   0.2614166051E-15  -0.5650351181E-16   0.1024999955E+02
   0.2114291263E+01   0.9755271842E+00   0.9755271842E+00   0.1465259725E-01  -0.3213149313E-02  -0.3213149313E-02   0.9963866577E-01  -0.2125966644E-01  -0.2125966644E-01   0.1024999970E+02   0.1560719185E-06   0.1560719148E-06   0.1052041260E-14  -0.1768698378E-14   0.1896347568E-15   0.5714563158E-01  -0.2447281579E-01  -0.2447281579E-01   0.9985102701E-16   0.2836421288E-15   0.4967038402E-16   0.1024999954E+02
     1     2     3     4     5     6     7     8
     2     9    10     3     6    11    12     7
 VARIABLES = X,Y,Z,DU1,DU2,DU3,U1,U2,U3,S11,S22,S33,S12,S13,S23,E11,E22,E33,E12,E13,E23,SMISES
 ZONE, T="0.8950D+01" F=FEPOINT, I=   12 J=    2 ET=BRICK
   0.0000000000E+00   0.0000000000E+00   0.0000000000E+00   0.0000000000E+00   0.0000000000E+00   0.0000000000E+00   0.0000000000E+00   0.0000000000E+00   0.0000000000E+00   0.1137499452E+02   0.2751246700E-05   0.2751246699E-05  -0.1378607919E-15  -0.1611259861E-14  -0.7267355117E-15   0.8391859596E-01  -0.3740929797E-01  -0.3740929797E-01  -0.5365280968E-17  -0.1367045876E-15  -0.9106337527E-16   0.1137499176E+02
   0.1083918596E+01   0.0000000000E+00  -0.6362255836E-16   0.2677296432E-01   0.0000000000E+00  -0.1417776488E-16   0.5714563151E-01   0.0000000000E+00  -0.4944479349E-16   0.1137499452E+02   0.2751246694E-05   0.2751246695E-05   0.5887136624E-15   0.8506733715E-15   0.1066558125E-14   0.8391859596E-01  -0.3740929797E-01  -0.3740929797E-01  -0.7565986363E-16   0.1001094974E-15   0.5816054444E-16   0.1137499176E+02
   0.1083918596E+01   0.9625907021E+00  -0.3346168775E-16   0.2677296432E-01  -0.1293648216E-01  -0.6269606634E-17   0.5714563151E-01  -0.2447281576E-01  -0.2719208111E-16   0.1137499451E+02   0.2751246697E-05   0.2751246696E-05   0.2249024299E-15   0.8575581571E-16  -0.2096315482E-15   0.8391859595E-01  -0.3740929797E-01  -0.3740929797E-01  -0.8608013243E-16   0.1134417316E-15   0.7122683475E-16   0.1137499176E+02
   0.0000000000E+00   0.9625907021E+00  -0.4424589260E-16   0.0000000000E+00  -0.1293648216E-01   0.5878925318E-17   0.0000000000E+00  -0.2447281576E-01  -0.5012481791E-16   0.1137499451E+02   0.2751246696E-05   0.2751246696E-05   0.1250298002E-15   0.3050625170E-15  -0.3250447229E-15   0.8391859595E-01  -0.3740929797E-01  -0.3740929797E-01   0.3668511141E-16   0.4620576170E-16  -0.6333990555E-16   0.1137499176E+02
   0.0000000000E+00   0.0000000000E+00   0.9625907021E+00   0.0000000000E+00   0.0000000000E+00  -0.1293648216E-01   0.0000000000E+00   0.0000000000E+00  -0.2447281576E-01   0.1137499451E+02   0.2751246694E-05   0.2751246694E-05  -0.1966446765E-16   0.3267919697E-15   0.1424097220E-14   0.8391859595E-01  -0.3740929797E-01  -0.3740929797E-01   0.6545914054E-18   0.4171785249E-16   0.5446462752E-16   0.1137499176E+02
   0.1083918596E+01   0.0000000000E+00   0.9625907021E+00   0.2677296432E-01   0.0000000000E+00  -0.1293648216E-01   0.5714563151E-01   0.0000000000E+00  -0.2447281576E-01   0.1137499451E+02   0.2751246699E-05   0.2751246699E-05   0.3243913667E-16  -0.8920627291E-16  -0.3444487405E-15   0.8391859595E-01  -0.3740929797E-01  -0.3740929797E-01  -0.1106381451E-15   0.1635588301E-15  -0.3335271311E-16   0.1137499176E+02
   0.1083918596E+01   0.9625907021E+00   0.9625907021E+00   0.2677296432E-01  -0.1293648216E-01  -0.1293648216E-01   0.5714563151E-01  -0.2447281576E-01  -0.2447281576E-01   0.1137499451E+02   0.2751246706E-05   0.2751246707E-05  -0.1717847797E-15   0.5771327451E-15  -0.6502950676E-15   0.8391859594E-01  -0.3740929796E-01  -0.3740929796E-01  -0.1277498218E-15   0.9626307101E-16  -0.6808553657E-16   0.1137499176E+02
   0.0000000000E+00   0.9625907021E+00   0.9625907021E+00   0.0000000000E+00  -0.1293648216E-01  -0.1293648216E-01   0.0000000000E+00  -0.2447281576E-01  -0.2447281576E-01   0.1137499451E+02   0.2751246701E-05   0.2751246702E-05   0.5912125295E-17  -0.1215735963E-14  -0.2017612835E-15   0.8391859594E-01  -0.3740929797E-01  -0.3740929797E-01  -0.4556968987E-16  -0.5310560219E-16   0.1178996060E-15   0.1137499176E+02
   0.2167837192E+01   0.0000000000E+00  -0.9086717640E-16   0.5354592864E-01   0.0000000000E+00  -0.5058449283E-16   0.1142912630E+00   0.0000000000E+00  -0.4028268357E-16   0.1137499451E+02   0.2751246713E-05   0.2751246710E-05  -0.8914745211E-15  -0.4718260736E-15   0.3849814992E-15   0.8391859596E-01  -0.3740929797E-01  -0.3740929797E-01  -0.6914544541E-16   0.1996383242E-15   0.1711620971E-16   0.1137499176E+02
   0.2167837192E+01   0.9625907021E+00  -0.8528041786E-16   0.5354592864E-01  -0.1293648216E-01  -0.4747525965E-16   0.1142912630E+00  -0.2447281576E-01  -0.3780515821E-16   0.1137499451E+02   0.2751246698E-05   0.2751246698E-05  -0.1024246142E-14   0.1631334097E-14  -0.4902857863E-15   0.8391859595E-01  -0.3740929797E-01  -0.3740929797E-01  -0.8951438970E-16   0.3456992029E-15   0.3181674066E-16   0.1137499176E+02
   0.2167837192E+01   0.0000000000E+00   0.9625907021E+00   0.5354592864E-01   0.0000000000E+00  -0.1293648216E-01   0.1142912630E+00   0.0000000000E+00  -0.2447281576E-01   0.1137499451E+02   0.2751246693E-05   0.2751246696E-05   0.1822506548E-14  -0.3535296192E-16   0.3657040697E-15   0.8391859595E-01  -0.3740929797E-01  -0.3740929797E-01   0.5872936422E-16   0.2604691166E-15  -0.2951919521E-16   0.1137499176E+02
   0.2167837192E+01   0.9625907021E+00   0.9625907021E+00   0.5354592864E-01  -0.1293648216E-01  -0.1293648216E-01   0.1142912630E+00  -0.2447281576E-01  -0.2447281576E-01   0.1137499451E+02   0.2751246696E-05   0.2751246694E-05   0.7187619091E-15  -0.1202323696E-14  -0.5229526023E-15   0.8391859594E-01  -0.3740929796E-01  -0.3740929796E-01   0.1121255421E-15   0.3145617087E-15   0.4767013938E-16   0.1137499176E+02
     1     2     3     4     5     6     7     8
     2     9    10     3     6    11    12     7
 VARIABLES = X,Y,Z,DU1,DU2,DU3,U1,U2,U3,S11,S22,S33,S12,S13,S23,E11,E22,E33,E12,E13,E23,SMISES
 ZONE, T="0.9000D+01" F=FEPOINT, I=   12 J=    2 ET=BRICK
   0.0000000000E+00   0.0000000000E+00   0.0000000000E+00   0.0000000000E+00   0.0000000000E+00   0.0000000000E+00   0.0000000000E+00   0.0000000000E+00   0.0000000000E+00   0.1249998835E+02   0.5835708260E-05   0.5835708261E-05   0.2951132664E-16  -0.7309119441E-15  -0.9196268203E-15   0.1126389178E+00  -0.5131945887E-01  -0.5131945887E-01  -0.1234754642E-16  -0.1562924089E-15  -0.1077754499E-15   0.1249998251E+02
   0.1112638918E+01   0.0000000000E+00  -0.5503866818E-16   0.2872032176E-01   0.0000000000E+00   0.8583890182E-17   0.8391859583E-01   0.0000000000E+00  -0.6362255836E-16   0.1249998835E+02   0.5835708238E-05   0.5835708239E-05  -0.1577745977E-14  -0.7991078056E-15   0.6628815000E-15   0.1126389178E+00  -0.5131945887E-01  -0.5131945887E-01  -0.7968296029E-16   0.1333503890E-15   0.5786141322E-16   0.1249998251E+02
   0.1112638918E+01   0.9486805412E+00  -0.2579605689E-16   0.2872032176E-01  -0.1391016088E-01   0.7665630858E-17   0.8391859583E-01  -0.3740929792E-01  -0.3346168775E-16   0.1249998835E+02   0.5835708246E-05   0.5835708246E-05  -0.1737702113E-14   0.1275513907E-14   0.1191978057E-15   0.1126389177E+00  -0.5131945887E-01  -0.5131945887E-01  -0.1161327106E-15   0.1558106500E-15   0.5361654636E-16   0.1249998251E+02
   0.0000000000E+00   0.9486805412E+00  -0.4713330762E-16   0.0000000000E+00  -0.1391016088E-01  -0.2887415028E-17   0.0000000000E+00  -0.3740929792E-01  -0.4424589260E-16   0.1249998835E+02   0.5835708233E-05   0.5835708233E-05   0.9144112587E-15   0.1068456403E-14   0.3963372825E-15   0.1126389178E+00  -0.5131945887E-01  -0.5131945887E-01   0.6452349560E-16   0.5594994772E-16  -0.2607135377E-17   0.1249998251E+02
   0.0000000000E+00   0.0000000000E+00   0.9486805412E+00   0.0000000000E+00   0.0000000000E+00  -0.1391016088E-01   0.0000000000E+00   0.0000000000E+00  -0.3740929792E-01   0.1249998835E+02   0.5835708235E-05   0.5835708234E-05  -0.1717415392E-15   0.6762403698E-15   0.5883529749E-15   0.1126389178E+00  -0.5131945887E-01  -0.5131945887E-01  -0.8240763333E-17   0.2840317053E-16   0.4825260368E-16   0.1249998251E+02
   0.1112638918E+01   0.0000000000E+00   0.9486805412E+00   0.2872032176E-01   0.0000000000E+00  -0.1391016088E-01   0.8391859583E-01   0.0000000000E+00  -0.3740929792E-01   0.1249998835E+02   0.5835708245E-05   0.5835708245E-05   0.6064711635E-15  -0.6550888427E-15  -0.6773332238E-15   0.1126389177E+00  -0.5131945887E-01  -0.5131945887E-01  -0.7115139856E-16   0.1556633090E-15  -0.3205090171E-16   0.1249998251E+02
   0.1112638918E+01   0.9486805412E+00   0.9486805412E+00   0.2872032176E-01  -0.1391016088E-01  -0.1391016088E-01   0.8391859583E-01  -0.3740929792E-01  -0.3740929792E-01   0.1249998834E+02   0.5835708245E-05   0.5835708246E-05   0.6141538108E-15   0.6994109335E-15  -0.7445839288E-15   0.1126389177E+00  -0.5131945886E-01  -0.5131945886E-01  -0.7946305184E-16   0.1515642075E-15  -0.5229733866E-16   0.1249998251E+02
   0.0000000000E+00   0.9486805412E+00   0.9486805412E+00   0.0000000000E+00  -0.1391016088E-01  -0.1391016088E-01   0.0000000000E+00  -0.3740929792E-01  -0.3740929792E-01   0.1249998835E+02   0.5835708251E-05   0.5835708249E-05  -0.3007080897E-15  -0.5915603669E-15   0.4901354505E-15   0.1126389177E+00  -0.5131945886E-01  -0.5131945886E-01  -0.7034380067E-16  -0.6335677710E-16   0.1353518594E-15   0.1249998251E+02
   0.2225277835E+01   0.0000000000E+00  -0.5696600621E-16   0.5744064351E-01   0.0000000000E+00   0.3390117019E-16   0.1678371917E+00   0.0000000000E+00  -0.9086717640E-16   0.1249998835E+02   0.5835708242E-05   0.5835708242E-05   0.5659520422E-15   0.2323439464E-15  -0.5626202407E-15   0.1126389178E+00  -0.5131945887E-01  -0.5131945887E-01  -0.4129202045E-16   0.3687362070E-16  -0.7071717202E-17   0.1249998251E+02
   0.2225277835E+01   0.9486805412E+00  -0.5956787460E-16   0.5744064351E-01  -0.1391016088E-01   0.2571254326E-16   0.1678371917E+00  -0.3740929792E-01  -0.8528041786E-16   0.1249998835E+02   0.5835708252E-05   0.5835708255E-05  -0.6107571324E-15  -0.8948387367E-16   0.3105839847E-15   0.1126389177E+00  -0.5131945887E-01  -0.5131945887E-01  -0.1084246959E-15   0.2255181502E-15   0.6909482602E-16   0.1249998251E+02
   0.2225277835E+01   0.0000000000E+00   0.9486805412E+00   0.5744064351E-01   0.0000000000E+00  -0.1391016088E-01   0.1678371917E+00   0.0000000000E+00  -0.3740929792E-01   0.1249998835E+02   0.5835708249E-05   0.5835708250E-05  -0.5903871397E-15   0.1673972980E-15   0.1076179774E-15   0.1126389177E+00  -0.5131945887E-01  -0.5131945887E-01  -0.1595410335E-16   0.2683827544E-15  -0.2885025864E-16   0.1249998251E+02
   0.2225277835E+01   0.9486805412E+00   0.9486805412E+00   0.5744064351E-01  -0.1391016088E-01  -0.1391016088E-01   0.1678371917E+00  -0.3740929792E-01  -0.3740929792E-01   0.1249998834E+02   0.5835708236E-05   0.5835708233E-05  -0.4614210551E-15  -0.1761755858E-14   0.9109785804E-15   0.1126389177E+00  -0.5131945886E-01  -0.5131945886E-01   0.5357323825E-16   0.1839787637E-15   0.4014261729E-16   0.1249998251E+02
     1     2     3     4     5     6     7     8
     2     9    10     3     6    11    12     7
 VARIABLES = X,Y,Z,DU1,DU2,DU3,U1,U2,U3,S11,S22,S33,S12,S13,S23,E11,E22,E33,E12,E13,E23,SMISES
 ZONE, T="0.9050D+01" F=FEPOINT, I=   12 J=    2 ET=BRICK
   0.0000000000E+00   0.0000000000E+00   0.0000000000E+00   0.0000000000E+00   0.0000000000E+00   0.0000000000E+00   0.0000000000E+00   0.0000000000E+00   0.0000000000E+00   0.1137500002E+02   0.7862654177E-14   0.9339677619E-14   0.2511424638E-18  -0.1672364746E-14   0.1694299820E-14   0.1103889481E+00  -0.5064447405E-01  -0.5064447405E-01  -0.1150627297E-16  -0.1389566004E-15  -0.4983792937E-16   0.1137500002E+02
   0.1110388948E+01   0.0000000000E+00  -0.7437213691E-16  -0.2249969654E-02   0.0000000000E+00  -0.1933346873E-16   0.1126389176E+00   0.0000000000E+00  -0.5503866818E-16   0.1137500002E+02  -0.4541806605E-14  -0.1106023772E-13   0.1174921598E-14   0.1271989644E-14   0.8631466857E-15   0.1103889481E+00  -0.5064447404E-01  -0.5064447404E-01  -0.3740627068E-16   0.1356938704E-15   0.5710715627E-16   0.1137500002E+02
   0.1110388948E+01   0.9493555260E+00  -0.4396448093E-16  -0.2249969654E-02   0.6749848272E-03  -0.1816842405E-16   0.1126389176E+00  -0.5131945879E-01  -0.2579605689E-16   0.1137500002E+02   0.9426787621E-14   0.2458432169E-14   0.1695818756E-15   0.1515748264E-14  -0.3953035079E-14   0.1103889481E+00  -0.5064447404E-01  -0.5064447404E-01  -0.4414370820E-16   0.1183653961E-15   0.2423861642E-16   0.1137500002E+02
   0.0000000000E+00   0.9493555260E+00  -0.3358447183E-16   0.0000000000E+00   0.6749848272E-03   0.1354883580E-16   0.0000000000E+00  -0.5131945879E-01  -0.4713330762E-16   0.1137500002E+02  -0.1539409179E-13  -0.1824188433E-13   0.3797913372E-14  -0.3209423841E-14   0.9676476752E-15   0.1103889481E+00  -0.5064447404E-01  -0.5064447404E-01   0.9101666947E-16   0.4185437254E-17  -0.4011340785E-16   0.1137500002E+02
   0.0000000000E+00   0.0000000000E+00   0.9493555260E+00   0.0000000000E+00   0.0000000000E+00   0.6749848272E-03   0.0000000000E+00   0.0000000000E+00  -0.5131945879E-01   0.1137500002E+02  -0.3966767179E-14  -0.1885876957E-16  -0.1820679078E-15  -0.2720134802E-14   0.1890306779E-14   0.1103889481E+00  -0.5064447404E-01  -0.5064447404E-01   0.3175333806E-17  -0.7420045070E-17   0.5652357334E-16   0.1137500002E+02
   0.1110388948E+01   0.0000000000E+00   0.9493555260E+00  -0.2249969654E-02   0.0000000000E+00   0.6749848272E-03   0.1126389176E+00   0.0000000000E+00  -0.5131945879E-01   0.1137500002E+02   0.1227080426E-14   0.3742873697E-14   0.1944502468E-14   0.4527629928E-15   0.2092773274E-16   0.1103889481E+00  -0.5064447404E-01  -0.5064447404E-01  -0.9301314456E-16   0.2243100933E-15  -0.2622644246E-16   0.1137500002E+02
   0.1110388948E+01   0.9493555260E+00   0.9493555260E+00  -0.2249969654E-02   0.6749848272E-03   0.6749848272E-03   0.1126389176E+00  -0.5131945879E-01  -0.5131945879E-01   0.1137500001E+02   0.3122430875E-14   0.5497453370E-14   0.1582353232E-14   0.1076058168E-14  -0.4449558337E-14   0.1103889481E+00  -0.5064447403E-01  -0.5064447403E-01  -0.1042358957E-15   0.7367473866E-16  -0.9467551207E-16   0.1137500001E+02
   0.0000000000E+00   0.9493555260E+00   0.9493555260E+00   0.0000000000E+00   0.6749848272E-03   0.6749848272E-03   0.0000000000E+00  -0.5131945879E-01  -0.5131945879E-01   0.1137500002E+02   0.1514599884E-13   0.1461451450E-13  -0.1119412595E-14  -0.5280598149E-14  -0.1334463225E-15   0.1103889481E+00  -0.5064447403E-01  -0.5064447403E-01  -0.5482178301E-16  -0.6786999615E-16   0.1555945094E-15   0.1137500002E+02
   0.2220777896E+01   0.0000000000E+00  -0.1533421662E-15  -0.4499939309E-02   0.0000000000E+00  -0.9637616003E-16   0.2252778352E+00   0.0000000000E+00  -0.5696600621E-16   0.1137500002E+02  -0.7002088760E-14  -0.8344176974E-14   0.7163068922E-14   0.2532876701E-14   0.1280532889E-14   0.1103889481E+00  -0.5064447404E-01  -0.5064447404E-01   0.7089892945E-16   0.1841955882E-15   0.2584766535E-16   0.1137500002E+02
   0.2220777896E+01   0.9493555260E+00  -0.1464694205E-15  -0.4499939309E-02   0.6749848272E-03  -0.8690154587E-16   0.2252778352E+00  -0.5131945879E-01  -0.5956787460E-16   0.1137500002E+02   0.9387218652E-14   0.1342067230E-13   0.1386839064E-14  -0.3084119546E-14   0.1100153888E-14   0.1103889481E+00  -0.5064447404E-01  -0.5064447404E-01  -0.5356194074E-16   0.3433923631E-15   0.7011232126E-16   0.1137500002E+02
   0.2220777896E+01   0.0000000000E+00   0.9493555260E+00  -0.4499939309E-02   0.0000000000E+00   0.6749848272E-03   0.2252778352E+00   0.0000000000E+00  -0.5131945879E-01   0.1137500002E+02   0.8205828288E-14   0.1108920411E-13  -0.1832077799E-14   0.3615274132E-14   0.2415236212E-14   0.1103889481E+00  -0.5064447404E-01  -0.5064447404E-01   0.3159793357E-16   0.2426837333E-15  -0.2698908488E-16   0.1137500002E+02
   0.2220777896E+01   0.9493555260E+00   0.9493555260E+00  -0.4499939309E-02   0.6749848272E-03   0.6749848272E-03   0.2252778352E+00  -0.5131945879E-01  -0.5131945879E-01   0.1137500001E+02  -0.9615097921E-14  -0.9813515175E-14  -0.1566074923E-14  -0.4486070972E-14   0.2246903206E-14   0.1103889481E+00  -0.5064447403E-01  -0.5064447403E-01   0.8199584018E-16   0.3389291572E-15   0.1107765757E-15   0.1137500001E+02
     1     2     3     4     5     6     7     8
     2     9    10     3     6    11    12     7
 VARIABLES = X,Y,Z,DU1,DU2,DU3,U1,U2,U3,S11,S22,S33,S12,S13,S23,E11,E22,E33,E12,E13,E23,SMISES
 ZONE, T="0.9100D+01" F=FEPOINT, I=   12 J=    2 ET=BRICK
   0.0000000000E+00   0.0000000000E+00   0.0000000000E+00   0.0000000000E+00   0.0000000000E+00   0.0000000000E+00   0.0000000000E+00   0.0000000000E+00   0.0000000000E+00   0.1025000002E+02   0.1243712710E-13   0.1352450485E-13   0.6375326670E-17  -0.1231058876E-14  -0.1055725174E-14   0.1081389481E+00  -0.4996947405E-01  -0.4996947405E-01  -0.9308617795E-18  -0.9075411311E-16  -0.8653971539E-16   0.1025000002E+02
   0.1108138948E+01   0.0000000000E+00  -0.5722250399E-16  -0.2250000000E-02   0.0000000000E+00   0.1714963291E-16   0.1103889479E+00   0.0000000000E+00  -0.7437213691E-16   0.1025000002E+02  -0.5164385957E-14  -0.4787764423E-14  -0.1493092089E-14  -0.3265562098E-15   0.7698407624E-15   0.1081389481E+00  -0.4996947404E-01  -0.4996947404E-01  -0.1117482274E-15  -0.1784886748E-16   0.5953697631E-16   0.1025000002E+02
   0.1108138948E+01   0.9500305260E+00  -0.2725815497E-16  -0.2250000000E-02   0.6750000000E-03   0.1670632596E-16   0.1103889479E+00  -0.5064447397E-01  -0.4396448093E-16   0.1025000001E+02   0.1730666075E-14   0.1478873194E-14  -0.1666664573E-14   0.1023064572E-14   0.3722350813E-15   0.1081389481E+00  -0.4996947404E-01  -0.4996947404E-01  -0.1314324708E-15   0.1148083163E-15   0.4161919315E-16   0.1025000001E+02
   0.0000000000E+00   0.9500305260E+00  -0.4788035217E-16   0.0000000000E+00   0.6750000000E-03  -0.1429588034E-16   0.0000000000E+00  -0.5064447397E-01  -0.3358447183E-16   0.1025000001E+02  -0.1107724727E-13  -0.1007406116E-13   0.9660040709E-15   0.9462238073E-15  -0.1995116154E-15   0.1081389481E+00  -0.4996947404E-01  -0.4996947404E-01   0.9005079332E-16   0.5664175106E-16  -0.8856496100E-17   0.1025000001E+02
   0.0000000000E+00   0.0000000000E+00   0.9500305260E+00   0.0000000000E+00   0.0000000000E+00   0.6750000000E-03   0.0000000000E+00   0.0000000000E+00  -0.5064447397E-01   0.1025000001E+02  -0.9369140210E-14  -0.9454399590E-14  -0.1755206723E-15   0.1110529763E-14   0.1313724704E-14   0.1081389481E+00  -0.4996947404E-01  -0.4996947404E-01   0.4307020354E-17   0.2966105495E-16   0.2267892537E-16   0.1025000001E+02
   0.1108138948E+01   0.0000000000E+00   0.9500305260E+00  -0.2250000000E-02   0.0000000000E+00   0.6750000000E-03   0.1103889479E+00   0.0000000000E+00  -0.5064447397E-01   0.1025000001E+02  -0.6146082806E-15   0.1798133702E-14  -0.8368475639E-16  -0.3146390556E-16  -0.9735225494E-15   0.1081389481E+00  -0.4996947404E-01  -0.4996947404E-01  -0.8419975788E-16   0.1665315047E-15  -0.3620432689E-16   0.1025000001E+02
   0.1108138948E+01   0.9500305260E+00   0.9500305260E+00  -0.2250000000E-02   0.6750000000E-03   0.6750000000E-03   0.1103889479E+00  -0.5064447397E-01  -0.5064447397E-01   0.1025000001E+02   0.2509958126E-14   0.9636171147E-15   0.3741129750E-15   0.4708466362E-15  -0.1008578134E-14   0.1081389481E+00  -0.4996947403E-01  -0.4996947403E-01  -0.9928008580E-16   0.1015344458E-15  -0.3439087044E-16   0.1025000001E+02
   0.0000000000E+00   0.9500305260E+00   0.9500305260E+00   0.0000000000E+00   0.6750000000E-03   0.6750000000E-03   0.0000000000E+00  -0.5064447397E-01  -0.5064447397E-01   0.1025000001E+02   0.7755331494E-14   0.6830501714E-14   0.2054340353E-15  -0.1484462763E-14   0.8174247957E-15   0.1081389481E+00  -0.4996947403E-01  -0.4996947403E-01  -0.1001146525E-15  -0.3838700300E-16   0.1418166036E-15   0.1025000001E+02
   0.2216277896E+01   0.0000000000E+00  -0.5797971767E-16  -0.4500000000E-02   0.0000000000E+00   0.9536244857E-16   0.2207778959E+00   0.0000000000E+00  -0.1533421662E-15   0.1025000002E+02  -0.2802101596E-14  -0.3905421302E-14   0.7040006970E-15   0.3748492069E-15  -0.7344849423E-15   0.1081389481E+00  -0.4996947404E-01  -0.4996947404E-01   0.2143615459E-16   0.2227697090E-15  -0.3470657030E-16   0.1025000002E+02
   0.2216277896E+01   0.9500305260E+00  -0.6166573623E-16  -0.4500000000E-02   0.6750000000E-03   0.8480368424E-16   0.2207778959E+00  -0.5064447397E-01  -0.1464694205E-15   0.1025000001E+02   0.8309661537E-14   0.1136277437E-13  -0.4268415952E-15  -0.5268030459E-15   0.3709315299E-15   0.1081389481E+00  -0.4996947404E-01  -0.4996947404E-01  -0.7513273167E-16   0.1431730049E-15   0.1285553911E-15   0.1025000001E+02
   0.2216277896E+01   0.0000000000E+00   0.9500305260E+00  -0.4500000000E-02   0.0000000000E+00   0.6750000000E-03   0.2207778959E+00   0.0000000000E+00  -0.5064447397E-01   0.1025000001E+02   0.5907808060E-14   0.4720296659E-14  -0.5133651515E-15  -0.9041401349E-16   0.1055652264E-16   0.1081389481E+00  -0.4996947404E-01  -0.4996947404E-01   0.9970966709E-16   0.3694706408E-15  -0.1126938263E-16   0.1025000001E+02
   0.2216277896E+01   0.9500305260E+00   0.9500305260E+00  -0.4500000000E-02   0.6750000000E-03   0.6750000000E-03   0.2207778959E+00  -0.5064447397E-01  -0.5064447397E-01   0.1025000001E+02  -0.8084699036E-14  -0.1102173630E-13  -0.8330835463E-16  -0.2116910900E-14   0.1223987595E-14   0.1081389481E+00  -0.4996947403E-01  -0.4996947403E-01   0.1900762735E-15   0.9712233398E-16   0.1155295018E-16   0.1025000001E+02
     1     2     3     4     5     6     7     8
     2     9    10     3     6    11    12     7
 VARIABLES = X,Y,Z,DU1,DU2,DU3,U1,U2,U3,S11,S22,S33,S12,S13,S23,E11,E22,E33,E12,E13,E23,SMISES
 ZONE, T="0.9150D+01" F=FEPOINT, I=   12 J=    2 ET=BRICK
   0.0000000000E+00   0.0000000000E+00   0.0000000000E+00   0.0000000000E+00   0.0000000000E+00   0.0000000000E+00   0.0000000000E+00   0.0000000000E+00   0.0000000000E+00   0.9125000014E+01   0.1218931969E-13   0.1191574949E-13   0.4410994939E-16  -0.1605417626E-14  -0.7800844388E-15   0.1058889481E+00  -0.4929447404E-01  -0.4929447404E-01  -0.1104927433E-16  -0.1537412950E-15  -0.7991243970E-16   0.9125000014E+01
   0.1105888948E+01   0.0000000000E+00  -0.6180657660E-16  -0.2250000000E-02   0.0000000000E+00  -0.4584072610E-17   0.1081389479E+00   0.0000000000E+00  -0.5722250399E-16   0.9125000014E+01  -0.5963319233E-14  -0.6223083158E-14  -0.5712823928E-15  -0.1614516276E-15   0.1049096159E-14   0.1058889481E+00  -0.4929447404E-01  -0.4929447404E-01  -0.4219728400E-16   0.1153866105E-15   0.5689239693E-16   0.9125000014E+01
   0.1105888948E+01   0.9507055260E+00  -0.3028303974E-16  -0.2250000000E-02   0.6750000000E-03  -0.3024884768E-17   0.1081389479E+00  -0.4996947397E-01  -0.2725815497E-16   0.9125000013E+01   0.3033185163E-14   0.1375821892E-14  -0.8730960983E-15   0.7152523247E-15  -0.6978318786E-16   0.1058889481E+00  -0.4929447404E-01  -0.4929447404E-01  -0.6558255675E-16   0.8093893340E-16   0.1884991789E-16   0.9125000013E+01
   0.0000000000E+00   0.9507055260E+00  -0.4642404433E-16   0.0000000000E+00   0.6750000000E-03   0.1456307834E-17   0.0000000000E+00  -0.4996947397E-01  -0.4788035217E-16   0.9125000013E+01  -0.1088893644E-13  -0.1086210588E-13   0.9711584839E-15   0.4765838554E-15  -0.5308177019E-15   0.1058889481E+00  -0.4929447404E-01  -0.4929447404E-01   0.7164826481E-16   0.7414456619E-16  -0.1532204383E-16   0.9125000013E+01
   0.0000000000E+00   0.0000000000E+00   0.9507055260E+00   0.0000000000E+00   0.0000000000E+00   0.6750000000E-03   0.0000000000E+00   0.0000000000E+00  -0.4996947397E-01   0.9125000013E+01  -0.9265020997E-14  -0.8877510854E-14  -0.1869003365E-15   0.8113727939E-15   0.1530534357E-14   0.1058889481E+00  -0.4929447404E-01  -0.4929447404E-01   0.1508545316E-17   0.6817319699E-16   0.2100867650E-16   0.9125000013E+01
   0.1105888948E+01   0.0000000000E+00   0.9507055260E+00  -0.2250000000E-02   0.0000000000E+00   0.6750000000E-03   0.1081389479E+00   0.0000000000E+00  -0.4996947397E-01   0.9125000013E+01  -0.1189935122E-15   0.3092681833E-14   0.2051814503E-15   0.3481255870E-15  -0.7546275054E-15   0.1058889481E+00  -0.4929447404E-01  -0.4929447404E-01  -0.1160041961E-15   0.1378811622E-15  -0.5129758275E-16   0.9125000013E+01
   0.1105888948E+01   0.9507055260E+00   0.9507055260E+00  -0.2250000000E-02   0.6750000000E-03   0.6750000000E-03   0.1081389479E+00  -0.4996947397E-01  -0.4996947397E-01   0.9125000012E+01   0.1954846756E-14   0.1592031529E-14   0.5261471387E-15   0.2292474904E-15  -0.1644071207E-14   0.1058889481E+00  -0.4929447403E-01  -0.4929447403E-01  -0.1279454790E-15   0.5632239511E-16   0.3898915133E-17   0.9125000012E+01
   0.0000000000E+00   0.9507055260E+00   0.9507055260E+00   0.0000000000E+00   0.6750000000E-03   0.6750000000E-03   0.0000000000E+00  -0.4996947397E-01  -0.4996947397E-01   0.9125000012E+01   0.9449346277E-14   0.7651212359E-14  -0.1062972396E-15  -0.1940465912E-14   0.4640835802E-15   0.1058889481E+00  -0.4929447403E-01  -0.4929447403E-01  -0.6392255459E-16  -0.3987962895E-16   0.6821645943E-16   0.9125000012E+01
   0.2211777896E+01   0.0000000000E+00  -0.7645760459E-16  -0.4500000000E-02   0.0000000000E+00  -0.1847788691E-16   0.2162778959E+00   0.0000000000E+00  -0.5797971767E-16   0.9125000014E+01  -0.3664517102E-14  -0.4885762206E-14   0.2146825172E-14   0.2236460235E-14  -0.1066211482E-15   0.1058889481E+00  -0.4929447404E-01  -0.4929447404E-01   0.7937838725E-16   0.2915065633E-15   0.2133201999E-17   0.9125000014E+01
   0.2211777896E+01   0.9507055260E+00  -0.7684436406E-16  -0.4500000000E-02   0.6750000000E-03  -0.1517862784E-16   0.2162778959E+00  -0.4996947397E-01  -0.6166573623E-16   0.9125000013E+01   0.7574210374E-14   0.1089399026E-13   0.7156102057E-15  -0.9603169414E-15   0.3504580696E-15   0.1058889481E+00  -0.4929447404E-01  -0.4929447404E-01   0.3429367896E-16   0.3280938463E-15   0.6875248052E-16   0.9125000013E+01
   0.2211777896E+01   0.0000000000E+00   0.9507055260E+00  -0.4500000000E-02   0.0000000000E+00   0.6750000000E-03   0.2162778959E+00   0.0000000000E+00  -0.4996947397E-01   0.9125000013E+01   0.7639542177E-14   0.7014045392E-14  -0.1775696914E-14   0.1388601617E-14   0.6543159752E-15   0.1058889481E+00  -0.4929447404E-01  -0.4929447404E-01   0.1936525912E-16   0.3962332371E-15  -0.3688767532E-16   0.9125000013E+01
   0.2211777896E+01   0.9507055260E+00   0.9507055260E+00  -0.4500000000E-02   0.6750000000E-03   0.6750000000E-03   0.2162778959E+00  -0.4996947397E-01  -0.4996947397E-01   0.9125000012E+01  -0.9069025489E-14  -0.1163634434E-13  -0.1348050744E-14  -0.2402900687E-14   0.1214270264E-14   0.1058889481E+00  -0.4929447403E-01  -0.4929447403E-01   0.6459472511E-16   0.3325727431E-15   0.2849106250E-16   0.9125000012E+01
     1     2     3     4     5     6     7     8
     2     9    10     3     6    11    12     7
 VARIABLES = X,Y,Z,DU1,DU2,DU3,U1,U2,U3,S11,S22,S33,S12,S13,S23,E11,E22,E33,E12,E13,E23,SMISES
 ZONE, T="0.9200D+01" F=FEPOINT, I=   12 J=    2 ET=BRICK
   0.0000000000E+00   0.0000000000E+00   0.0000000000E+00   0.0000000000E+00   0.0000000000E+00   0.0000000000E+00   0.0000000000E+00   0.0000000000E+00   0.0000000000E+00   0.8000000013E+01   0.1245346006E-13   0.1337430443E-13   0.5141211205E-16  -0.8560920841E-15  -0.1398031757E-14   0.1036389481E+00  -0.4861947404E-01  -0.4861947404E-01   0.8406616415E-17  -0.1685748601E-15  -0.1185694601E-15   0.8000000013E+01
   0.1103638948E+01   0.0000000000E+00  -0.5467766730E-16  -0.2250000000E-02   0.0000000000E+00   0.7128909301E-17   0.1058889479E+00   0.0000000000E+00  -0.6180657660E-16   0.8000000012E+01  -0.5234771250E-14  -0.4281260996E-14  -0.6666245472E-15  -0.7620722618E-15   0.8381911402E-15   0.1036389481E+00  -0.4861947404E-01  -0.4861947404E-01  -0.8789599721E-16   0.1223519849E-15   0.7001157426E-16   0.8000000012E+01
   0.1103638948E+01   0.9513805260E+00  -0.2429523597E-16  -0.2250000000E-02   0.6750000000E-03   0.5987803768E-17   0.1058889479E+00  -0.4929447397E-01  -0.3028303974E-16   0.8000000011E+01   0.1993347597E-14   0.1549258505E-14  -0.6132578112E-15   0.4149750196E-15   0.5936524911E-15   0.1036389481E+00  -0.4861947404E-01  -0.4861947404E-01  -0.6714161082E-16   0.9543258435E-16   0.4018504916E-16   0.8000000011E+01
   0.0000000000E+00   0.9513805260E+00  -0.4951102016E-16   0.0000000000E+00   0.6750000000E-03  -0.3086975825E-17   0.0000000000E+00  -0.4929447397E-01  -0.4642404433E-16   0.8000000012E+01  -0.9740603330E-14  -0.8430113213E-14   0.1034666396E-14   0.1669011090E-14  -0.9313559993E-16   0.1036389481E+00  -0.4861947404E-01  -0.4861947404E-01   0.7134393733E-16   0.7500174622E-16   0.6907448038E-17   0.8000000012E+01
   0.0000000000E+00   0.0000000000E+00   0.9513805260E+00   0.0000000000E+00   0.0000000000E+00   0.6750000000E-03   0.0000000000E+00   0.0000000000E+00  -0.4929447397E-01   0.8000000012E+01  -0.1056501351E-13  -0.1036182855E-13  -0.1951553501E-15   0.1740423717E-14   0.1050831821E-14   0.1036389481E+00  -0.4861947404E-01  -0.4861947404E-01   0.1444395289E-16   0.7621235359E-16   0.7543054068E-16   0.8000000012E+01
   0.1103638948E+01   0.0000000000E+00   0.9513805260E+00  -0.2250000000E-02   0.0000000000E+00   0.6750000000E-03   0.1058889479E+00   0.0000000000E+00  -0.4929447397E-01   0.8000000011E+01  -0.8772898709E-15   0.1868519013E-14   0.1103350071E-15  -0.5331091532E-16  -0.1078977093E-14   0.1036389481E+00  -0.4861947404E-01  -0.4861947404E-01  -0.1436312991E-15   0.7366598796E-16  -0.3216487194E-16   0.8000000011E+01
   0.1103638948E+01   0.9513805260E+00   0.9513805260E+00  -0.2250000000E-02   0.6750000000E-03   0.6750000000E-03   0.1058889479E+00  -0.4929447397E-01  -0.4929447397E-01   0.8000000010E+01   0.1670387816E-14   0.1755724119E-15   0.5006709978E-15  -0.4100553128E-15  -0.1097808201E-14   0.1036389481E+00  -0.4861947403E-01  -0.4861947403E-01  -0.1369977422E-15   0.8999555453E-16  -0.1437230888E-16   0.8000000010E+01
   0.0000000000E+00   0.9513805260E+00   0.9513805260E+00   0.0000000000E+00   0.6750000000E-03   0.6750000000E-03   0.0000000000E+00  -0.4929447397E-01  -0.4929447397E-01   0.8000000011E+01   0.7912435065E-14   0.5929975941E-14  -0.8484133681E-16  -0.7174010057E-15   0.1002488670E-14   0.1036389481E+00  -0.4861947403E-01  -0.4861947403E-01  -0.5500434328E-16  -0.2653680492E-16   0.9676081071E-16   0.8000000011E+01
   0.2207277896E+01   0.0000000000E+00  -0.4878260816E-16  -0.4500000000E-02   0.0000000000E+00   0.2767499643E-16   0.2117778959E+00   0.0000000000E+00  -0.7645760459E-16   0.8000000012E+01  -0.1805427703E-14  -0.4177532677E-14   0.2556275217E-15   0.1409843842E-14  -0.6092221711E-15   0.1036389481E+00  -0.4861947404E-01  -0.4861947404E-01   0.9675983422E-16   0.1557143946E-15   0.1249902701E-16   0.8000000012E+01
   0.2207277896E+01   0.9513805260E+00  -0.5172838706E-16  -0.4500000000E-02   0.6750000000E-03   0.2511597700E-16   0.2117778959E+00  -0.4929447397E-01  -0.7684436406E-16   0.8000000011E+01   0.6832247010E-14   0.1024418947E-13  -0.4264647376E-15  -0.4852308744E-15   0.6694592470E-16   0.1036389481E+00  -0.4861947403E-01  -0.4861947403E-01   0.4401942139E-17   0.2408065534E-15   0.2888614719E-16   0.8000000011E+01
   0.2207277896E+01   0.0000000000E+00   0.9513805260E+00  -0.4500000000E-02   0.0000000000E+00   0.6750000000E-03   0.2117778959E+00   0.0000000000E+00  -0.4929447397E-01   0.8000000011E+01   0.7244451982E-14   0.6153088661E-14  -0.1232541044E-14   0.7103412358E-16   0.3342723761E-15   0.1036389481E+00  -0.4861947403E-01  -0.4861947403E-01   0.5639743982E-16   0.4313887999E-15  -0.3872288228E-16   0.8000000011E+01
   0.2207277896E+01   0.9513805260E+00   0.9513805260E+00  -0.4500000000E-02   0.6750000000E-03   0.6750000000E-03   0.2117778959E+00  -0.4929447397E-01  -0.4929447397E-01   0.8000000010E+01  -0.8767165787E-14  -0.1180035114E-13  -0.8005833088E-15  -0.1375716951E-14   0.1123093834E-14   0.1036389481E+00  -0.4861947403E-01  -0.4861947403E-01   0.1354355426E-15   0.1378789030E-15   0.7412878837E-16   0.8000000010E+01
     1     2     3     4     5     6     7     8
     2     9    10     3     6    11    12     7
 VARIABLES = X,Y,Z,DU1,DU2,DU3,U1,U2,U3,S11,S22,S33,S12,S13,S23,E11,E22,E33,E12,E13,E23,SMISES
 ZONE, T="0.9250D+01" F=FEPOINT, I=   12 J=    2 ET=BRICK
   0.0000000000E+00   0.0000000000E+00   0.0000000000E+00   0.0000000000E+00   0.0000000000E+00   0.0000000000E+00   0.0000000000E+00   0.0000000000E+00   0.0000000000E+00   0.6875000011E+01   0.1214323838E-13   0.1257391223E-13   0.7176746067E-16  -0.1003809166E-14  -0.1233925351E-14   0.1013889481E+00  -0.4794447404E-01  -0.4794447404E-01  -0.1245067341E-16  -0.1350245354E-15  -0.9889261036E-16   0.6875000011E+01
   0.1101388948E+01   0.0000000000E+00  -0.5602651273E-16  -0.2250000000E-02   0.0000000000E+00  -0.1348845430E-17   0.1036389479E+00   0.0000000000E+00  -0.5467766730E-16   0.6875000011E+01  -0.5345793527E-14  -0.5372624188E-14  -0.7950740555E-15  -0.5950485939E-15   0.7327350766E-15   0.1013889481E+00  -0.4794447404E-01  -0.4794447404E-01  -0.3928162684E-16   0.5705197313E-16   0.4661336779E-16   0.6875000011E+01
   0.1101388948E+01   0.9520555260E+00  -0.2629961455E-16  -0.2250000000E-02   0.6750000000E-03  -0.2004378577E-17   0.1036389479E+00  -0.4861947397E-01  -0.2429523597E-16   0.6875000010E+01   0.1882325319E-14   0.1700917749E-14  -0.1015797926E-14   0.8880747475E-15   0.5394218445E-15   0.1013889481E+00  -0.4794447404E-01  -0.4794447404E-01  -0.4568593384E-16   0.3926103233E-16   0.9082897208E-16   0.6875000010E+01
   0.0000000000E+00   0.9520555260E+00  -0.4872710812E-16   0.0000000000E+00   0.6750000000E-03   0.7839120408E-18   0.0000000000E+00  -0.4861947397E-01  -0.4951102016E-16   0.6875000010E+01  -0.1014006999E-13  -0.9608194721E-14   0.6571597617E-15   0.1101235411E-14  -0.1460312021E-15   0.1013889481E+00  -0.4794447404E-01  -0.4794447404E-01   0.4570902462E-16   0.6194590169E-16  -0.1708335750E-16   0.6875000010E+01
   0.0000000000E+00   0.0000000000E+00   0.9520555260E+00   0.0000000000E+00   0.0000000000E+00   0.6750000000E-03   0.0000000000E+00   0.0000000000E+00  -0.4861947397E-01   0.6875000010E+01  -0.9810702660E-14  -0.9476176917E-14  -0.2016782041E-15   0.1257056910E-14   0.1042472352E-14   0.1013889481E+00  -0.4794447404E-01  -0.4794447404E-01   0.1740295866E-16   0.3456761239E-16   0.2131562372E-16   0.6875000010E+01
   0.1101388948E+01   0.0000000000E+00   0.9520555260E+00  -0.2250000000E-02   0.0000000000E+00   0.6750000000E-03   0.1036389479E+00   0.0000000000E+00  -0.4861947397E-01   0.6875000010E+01  -0.9883121486E-15   0.2020178257E-14   0.2913080968E-15   0.2919544463E-15  -0.1016651062E-14   0.1013889481E+00  -0.4794447404E-01  -0.4794447404E-01  -0.1319609565E-15   0.1217675351E-15  -0.1336745167E-16   0.6875000010E+01
   0.1101388948E+01   0.9520555260E+00   0.9520555260E+00  -0.2250000000E-02   0.6750000000E-03   0.6750000000E-03   0.1036389479E+00  -0.4861947397E-01  -0.4861947397E-01   0.6875000009E+01   0.2225499254E-14   0.6602985576E-15   0.6251903080E-15   0.1193412941E-16  -0.9283489972E-15   0.1013889481E+00  -0.4794447403E-01  -0.4794447403E-01  -0.1325554116E-15   0.9882862504E-16  -0.6579494702E-16   0.6875000009E+01
   0.0000000000E+00   0.9520555260E+00   0.9520555260E+00   0.0000000000E+00   0.6750000000E-03   0.6750000000E-03   0.0000000000E+00  -0.4861947397E-01  -0.4861947397E-01   0.6875000009E+01   0.8666745942E-14   0.6892916010E-14  -0.2077715591E-15  -0.1070654631E-14   0.9565351828E-15   0.1013889481E+00  -0.4794447403E-01  -0.4794447403E-01  -0.6539321581E-16  -0.5073444224E-16   0.1392292878E-15   0.6875000009E+01
   0.2202777896E+01   0.0000000000E+00  -0.5218669073E-16  -0.4500000000E-02   0.0000000000E+00  -0.3404082573E-17   0.2072778959E+00   0.0000000000E+00  -0.4878260816E-16   0.6875000010E+01  -0.3849831529E-15  -0.2792280781E-14  -0.1867757664E-15   0.8845958930E-15  -0.7995065830E-15   0.1013889481E+00  -0.4794447404E-01  -0.4794447404E-01   0.1339639613E-15   0.3110900386E-15  -0.1734071463E-16   0.6875000010E+01
   0.2202777896E+01   0.9520555260E+00  -0.5613626342E-16  -0.4500000000E-02   0.6750000000E-03  -0.4407876363E-17   0.2072778959E+00  -0.4861947397E-01  -0.5172838706E-16   0.6875000010E+01   0.7009669115E-14   0.1134099704E-13  -0.9663592287E-15  -0.5659301395E-15   0.4864314363E-16   0.1013889481E+00  -0.4794447403E-01  -0.4794447403E-01   0.8523129820E-16   0.2861995392E-15   0.4296948381E-16   0.6875000010E+01
   0.2202777896E+01   0.0000000000E+00   0.9520555260E+00  -0.4500000000E-02   0.0000000000E+00   0.6750000000E-03   0.2072778959E+00   0.0000000000E+00  -0.4861947397E-01   0.6875000010E+01   0.6268096576E-14   0.5186163098E-14  -0.1158171546E-14  -0.3791089252E-15   0.2803834486E-15   0.1013889481E+00  -0.4794447403E-01  -0.4794447403E-01   0.1327648791E-16   0.3628793743E-15  -0.1120612836E-16   0.6875000010E+01
   0.2202777896E+01   0.9520555260E+00   0.9520555260E+00  -0.4500000000E-02   0.6750000000E-03   0.6750000000E-03   0.2072778959E+00  -0.4861947397E-01  -0.4861947397E-01   0.6875000009E+01  -0.9743521220E-14  -0.1302305514E-13  -0.7071278389E-15  -0.1181572154E-14   0.1254849038E-14   0.1013889481E+00  -0.4794447403E-01  -0.4794447403E-01   0.8789469408E-16   0.2820149192E-15   0.7569372580E-16   0.6875000009E+01
     1     2     3     4     5     6     7     8
     2     9    10     3     6    11    12     7
 VARIABLES = X,Y,Z,DU1,DU2,DU3,U1,U2,U3,S11,S22,S33,S12,S13,S23,E11,E22,E33,E12,E13,E23,SMISES
 ZONE, T="0.9300D+01" F=FEPOINT, I=   12 J=    2 ET=BRICK
   0.0000000000E+00   0.0000000000E+00   0.0000000000E+00   0.0000000000E+00   0.0000000000E+00   0.0000000000E+00   0.0000000000E+00   0.0000000000E+00   0.0000000000E+00   0.5750000009E+01   0.1162059752E-13   0.1173925235E-13   0.7745142846E-16  -0.1391845184E-14  -0.1315999023E-14   0.9913894809E-01  -0.4726947404E-01  -0.4726947404E-01   0.5121305520E-17  -0.1723640074E-15  -0.8836431033E-16   0.5750000009E+01
   0.1099138948E+01   0.0000000000E+00  -0.5752729337E-16  -0.2250000000E-02   0.0000000000E+00  -0.1500780637E-17   0.1013889479E+00   0.0000000000E+00  -0.5602651273E-16   0.5750000009E+01  -0.4370896968E-14  -0.4721364634E-14  -0.3886092914E-15  -0.1463737921E-15   0.1038500002E-14   0.9913894809E-01  -0.4726947404E-01  -0.4726947404E-01  -0.6813083933E-16   0.1078283794E-15   0.4542591240E-16   0.5750000009E+01
   0.1099138948E+01   0.9527305260E+00  -0.2622671351E-16  -0.2250000000E-02   0.6750000000E-03   0.7290103832E-19   0.1013889479E+00  -0.4794447397E-01  -0.2629961455E-16   0.5750000008E+01   0.1428806385E-14   0.1090295172E-14  -0.7439941578E-15   0.2448684314E-15   0.8325732537E-15   0.9913894807E-01  -0.4726947403E-01  -0.4726947403E-01  -0.6862531904E-16   0.4140689492E-16   0.9666230954E-16   0.5750000008E+01
   0.0000000000E+00   0.9527305260E+00  -0.4909535316E-16   0.0000000000E+00   0.6750000000E-03  -0.3682450453E-18   0.0000000000E+00  -0.4794447397E-01  -0.4872710812E-16   0.5750000008E+01  -0.9237746959E-14  -0.9011912397E-14   0.8289953936E-15   0.1432827563E-14  -0.3794881597E-15   0.9913894808E-01  -0.4726947404E-01  -0.4726947404E-01   0.6895339724E-16   0.8146967218E-16  -0.3270853797E-16   0.5750000008E+01
   0.0000000000E+00   0.0000000000E+00   0.9527305260E+00   0.0000000000E+00   0.0000000000E+00   0.6750000000E-03   0.0000000000E+00   0.0000000000E+00  -0.4794447397E-01   0.5750000008E+01  -0.9189920858E-14  -0.8741650664E-14  -0.1952510618E-15   0.1125789863E-14   0.1037375630E-14   0.9913894808E-01  -0.4726947404E-01  -0.4726947404E-01  -0.8845615511E-17   0.5108342920E-16   0.4449339860E-16   0.5750000008E+01
   0.1099138948E+01   0.0000000000E+00   0.9527305260E+00  -0.2250000000E-02   0.0000000000E+00   0.6750000000E-03   0.1013889479E+00   0.0000000000E+00  -0.4794447397E-01   0.5750000008E+01  -0.1301060480E-14   0.1864533491E-14  -0.1706708211E-15   0.8707725178E-15  -0.9795094783E-15   0.9913894807E-01  -0.4726947403E-01  -0.4726947403E-01  -0.1092073955E-15   0.1363641109E-15  -0.1292358921E-16   0.5750000008E+01
   0.1099138948E+01   0.9527305260E+00   0.9527305260E+00  -0.2250000000E-02   0.6750000000E-03   0.6750000000E-03   0.1013889479E+00  -0.4794447397E-01  -0.4794447397E-01   0.5750000008E+01   0.3514603021E-14   0.1241172809E-14   0.2899117023E-15  -0.4498987770E-15  -0.8923922549E-15   0.9913894806E-01  -0.4726947403E-01  -0.4726947403E-01  -0.9130137065E-16   0.5822349352E-16  -0.8400764926E-16   0.5750000008E+01
   0.0000000000E+00   0.9527305260E+00   0.9527305260E+00   0.0000000000E+00   0.6750000000E-03   0.6750000000E-03   0.0000000000E+00  -0.4794447397E-01  -0.4794447397E-01   0.5750000008E+01   0.7410112721E-14   0.5849626892E-14   0.1141845939E-15  -0.9269128112E-15   0.7573576933E-15   0.9913894807E-01  -0.4726947403E-01  -0.4726947403E-01  -0.8232715742E-16  -0.2293027548E-16   0.9786071030E-16   0.5750000008E+01
   0.2198277896E+01   0.0000000000E+00  -0.5470292005E-16  -0.4500000000E-02   0.0000000000E+00  -0.2516229316E-17   0.2027778959E+00   0.0000000000E+00  -0.5218669073E-16   0.5750000009E+01  -0.5531709479E-15  -0.1565057412E-14  -0.4044791560E-15  -0.2903901046E-15  -0.8466913180E-15   0.9913894808E-01  -0.4726947404E-01  -0.4726947404E-01   0.9829899374E-16   0.1132772989E-15  -0.3784789166E-17   0.5750000009E+01
   0.2198277896E+01   0.9527305260E+00  -0.5882209087E-16  -0.4500000000E-02   0.6750000000E-03  -0.2685827445E-17   0.2027778959E+00  -0.4794447397E-01  -0.5613626342E-16   0.5750000008E+01   0.5289553037E-14   0.9279647661E-14  -0.1487747111E-14   0.5586262659E-15   0.6187525339E-16   0.9913894807E-01  -0.4726947403E-01  -0.4726947403E-01  -0.2556355187E-17   0.2414276188E-15   0.1529948332E-16   0.5750000008E+01
   0.2198277896E+01   0.0000000000E+00   0.9527305260E+00  -0.4500000000E-02   0.0000000000E+00   0.6750000000E-03   0.2027778959E+00   0.0000000000E+00  -0.4794447397E-01   0.5750000008E+01   0.3778795503E-14   0.3230391691E-14   0.1009182671E-14  -0.1370620443E-14  -0.1131764339E-15   0.9913894807E-01  -0.4726947403E-01  -0.4726947403E-01   0.6579846780E-16   0.3010495557E-15  -0.3168543764E-16   0.5750000008E+01
   0.2198277896E+01   0.9527305260E+00   0.9527305260E+00  -0.4500000000E-02   0.6750000000E-03   0.6750000000E-03   0.2027778959E+00  -0.4794447397E-01  -0.4794447397E-01   0.5750000007E+01  -0.7883168532E-14  -0.1106183942E-13   0.1174423074E-14  -0.5758363267E-15   0.8789902909E-15   0.9913894806E-01  -0.4726947403E-01  -0.4726947403E-01   0.1569094802E-15   0.2241484061E-15   0.6838431574E-16   0.5750000007E+01
     1     2     3     4     5     6     7     8
     2     9    10     3     6    11    12     7
 VARIABLES = X,Y,Z,DU1,DU2,DU3,U1,U2,U3,S11,S22,S33,S12,S13,S23,E11,E22,E33,E12,E13,E23,SMISES
 ZONE, T="0.9350D+01" F=FEPOINT, I=   12 J=    2 ET=BRICK
   0.0000000000E+00   0.0000000000E+00   0.0000000000E+00   0.0000000000E+00   0.0000000000E+00   0.0000000000E+00   0.0000000000E+00   0.0000000000E+00   0.0000000000E+00   0.4625000007E+01   0.1140054571E-13   0.1207504140E-13   0.9742958549E-16  -0.1112752791E-14  -0.1349058243E-14   0.9688894809E-01  -0.4659447404E-01  -0.4659447404E-01  -0.1633101454E-16  -0.1381185938E-15  -0.1056292845E-15   0.4625000007E+01
   0.1096888948E+01   0.0000000000E+00  -0.5602126500E-16  -0.2250000000E-02   0.0000000000E+00   0.1506028368E-17   0.9913894793E-01   0.0000000000E+00  -0.5752729337E-16   0.4625000007E+01  -0.4648452696E-14  -0.4937964878E-14   0.5504598420E-16   0.1780680257E-15   0.7987855092E-15   0.9688894808E-01  -0.4659447404E-01  -0.4659447404E-01  -0.2502340658E-16   0.7423226295E-16   0.5215377714E-16   0.4625000007E+01
   0.1096888948E+01   0.9534055260E+00  -0.2596011439E-16  -0.2250000000E-02   0.6750000000E-03   0.2665991190E-18   0.9913894793E-01  -0.4726947397E-01  -0.2622671351E-16   0.4625000007E+01   0.2150451273E-14   0.1847132741E-14  -0.3600768228E-15   0.5330060177E-16   0.5770497619E-15   0.9688894807E-01  -0.4659447403E-01  -0.4659447403E-01  -0.4909257377E-16   0.2972721361E-16   0.7435051931E-16   0.4625000007E+01
   0.0000000000E+00   0.9534055260E+00  -0.4918239979E-16   0.0000000000E+00   0.6750000000E-03  -0.8704662354E-19   0.0000000000E+00  -0.4726947397E-01  -0.4909535316E-16   0.4625000007E+01  -0.9047443449E-14  -0.8874397879E-14   0.9602244640E-15   0.1385383898E-14  -0.1481271555E-15   0.9688894807E-01  -0.4659447403E-01  -0.4659447403E-01   0.5727754401E-16   0.7981182254E-16  -0.3919831046E-16   0.4625000007E+01
   0.0000000000E+00   0.0000000000E+00   0.9534055260E+00   0.0000000000E+00   0.0000000000E+00   0.6750000000E-03   0.0000000000E+00   0.0000000000E+00  -0.4726947397E-01   0.4625000007E+01  -0.8884609563E-14  -0.8392980238E-14  -0.1912166174E-15   0.1275583479E-14   0.8518530126E-15   0.9688894807E-01  -0.4659447403E-01  -0.4659447403E-01   0.2974106912E-16   0.7644666841E-16   0.4232925118E-16   0.4625000007E+01
   0.1096888948E+01   0.0000000000E+00   0.9534055260E+00  -0.2250000000E-02   0.0000000000E+00   0.6750000000E-03   0.9913894793E-01   0.0000000000E+00  -0.4726947397E-01   0.4625000007E+01  -0.1297074958E-14   0.1711415439E-14  -0.1931398579E-15   0.9561863763E-15  -0.1179291340E-14   0.9688894807E-01  -0.4659447403E-01  -0.4659447403E-01  -0.1537541285E-15   0.9301590158E-16  -0.2776288246E-16   0.4625000007E+01
   0.1096888948E+01   0.9534055260E+00   0.9534055260E+00  -0.2250000000E-02   0.6750000000E-03   0.6750000000E-03   0.9913894793E-01  -0.4726947397E-01  -0.4726947397E-01   0.4625000006E+01   0.3096276689E-14   0.1094957867E-14   0.2153668191E-15  -0.4423178726E-15  -0.1094004183E-14   0.9688894806E-01  -0.4659447403E-01  -0.4659447403E-01  -0.1238315979E-15   0.5597135728E-16  -0.6048484198E-16   0.4625000006E+01
   0.0000000000E+00   0.9534055260E+00   0.9534055260E+00   0.0000000000E+00   0.6750000000E-03   0.6750000000E-03   0.0000000000E+00  -0.4726947397E-01  -0.4726947397E-01   0.4625000006E+01   0.7837334973E-14   0.5695245482E-14  -0.4559091096E-16  -0.1069728001E-14   0.8033316973E-15   0.9688894806E-01  -0.4659447403E-01  -0.4659447403E-01  -0.7031142627E-16  -0.3777359389E-16   0.1226185093E-15   0.4625000006E+01
   0.2193777896E+01   0.0000000000E+00  -0.5233804341E-16  -0.4500000000E-02   0.0000000000E+00   0.2364876634E-17   0.1982778959E+00   0.0000000000E+00  -0.5470292005E-16   0.4625000007E+01  -0.1938956741E-14  -0.2385572475E-14   0.1441836332E-14   0.7090341987E-15  -0.6065155588E-15   0.9688894808E-01  -0.4659447404E-01  -0.4659447404E-01   0.1260463736E-15   0.3285352988E-15  -0.5892066431E-17   0.4625000007E+01
   0.2193777896E+01   0.9534055260E+00  -0.5504215055E-16  -0.4500000000E-02   0.6750000000E-03   0.3779940313E-17   0.1982778959E+00  -0.4726947397E-01  -0.5882209087E-16   0.4625000006E+01   0.6645590521E-14   0.1133574822E-13   0.2523910244E-16  -0.4029925562E-15   0.5356791651E-15   0.9688894807E-01  -0.4659447403E-01  -0.4659447403E-01   0.4320407720E-16   0.2108127451E-15   0.5206326018E-16   0.4625000006E+01
   0.2193777896E+01   0.0000000000E+00   0.9534055260E+00  -0.4500000000E-02   0.0000000000E+00   0.6750000000E-03   0.1982778959E+00   0.0000000000E+00  -0.4726947397E-01   0.4625000006E+01   0.4916773899E-14   0.4587692528E-14  -0.2217142605E-15  -0.3159651319E-15   0.2999527701E-15   0.9688894807E-01  -0.4659447403E-01  -0.4659447403E-01   0.7950467730E-16   0.3818194264E-15  -0.3454477164E-16   0.4625000006E+01
   0.2193777896E+01   0.9534055260E+00   0.9534055260E+00  -0.4500000000E-02   0.6750000000E-03   0.6750000000E-03   0.1982778959E+00  -0.4726947397E-01  -0.4726947397E-01   0.4625000006E+01  -0.8865502154E-14  -0.1191754714E-13  -0.4863371938E-16  -0.1469275907E-14   0.1417341299E-14   0.9688894806E-01  -0.4659447403E-01  -0.4659447403E-01   0.1356691332E-15   0.2551552915E-15   0.5450018385E-16   0.4625000006E+01
     1     2     3     4     5     6     7     8
     2     9    10     3     6    11    12     7
 VARIABLES = X,Y,Z,DU1,DU2,DU3,U1,U2,U3,S11,S22,S33,S12,S13,S23,E11,E22,E33,E12,E13,E23,SMISES
 ZONE, T="0.9400D+01" F=FEPOINT, I=   12 J=    2 ET=BRICK
   0.0000000000E+00   0.0000000000E+00   0.0000000000E+00   0.0000000000E+00   0.0000000000E+00   0.0000000000E+00   0.0000000000E+00   0.0000000000E+00   0.0000000000E+00   0.3500000005E+01   0.1143846049E-13   0.1223340831E-13   0.8185685637E-16  -0.1350775480E-14  -0.1327355985E-14   0.9463894808E-01  -0.4591947404E-01  -0.4591947404E-01   0.1710525452E-16  -0.1501592030E-15  -0.8835739289E-16   0.3500000005E+01
   0.1094638948E+01   0.0000000000E+00  -0.5764296380E-16  -0.2250000000E-02   0.0000000000E+00  -0.1621698797E-17   0.9688894793E-01   0.0000000000E+00  -0.5602126500E-16   0.3500000005E+01  -0.4653897041E-14  -0.5095068502E-14  -0.2569976727E-15  -0.1389286553E-17   0.9456914963E-15   0.9463894808E-01  -0.4591947404E-01  -0.4591947404E-01  -0.8532264620E-16   0.9406825076E-16   0.4173461138E-16   0.3500000005E+01
   0.1094638948E+01   0.9540805260E+00  -0.2677288815E-16  -0.2250000000E-02   0.6750000000E-03  -0.8127737605E-18   0.9688894793E-01  -0.4659447397E-01  -0.2596011439E-16   0.3500000005E+01   0.1908088176E-14   0.1190428809E-14  -0.6163170698E-15   0.2416839822E-16   0.5961344242E-15   0.9463894807E-01  -0.4591947403E-01  -0.4591947403E-01  -0.7605579744E-16   0.1357177581E-16   0.9424719676E-16   0.3500000005E+01
   0.0000000000E+00   0.9540805260E+00  -0.4904059020E-16   0.0000000000E+00   0.6750000000E-03   0.1418095891E-18   0.0000000000E+00  -0.4659447397E-01  -0.4918239979E-16   0.3500000005E+01  -0.9845647363E-14  -0.9753875740E-14   0.1064753731E-14   0.1392156916E-14  -0.2931880218E-15   0.9463894807E-01  -0.4591947403E-01  -0.4591947403E-01   0.7306805912E-16   0.9183797644E-16  -0.6833869205E-16   0.3500000005E+01
   0.0000000000E+00   0.0000000000E+00   0.9540805260E+00   0.0000000000E+00   0.0000000000E+00   0.6750000000E-03   0.0000000000E+00   0.0000000000E+00  -0.4659447397E-01   0.3500000005E+01  -0.9288791137E-14  -0.8958250895E-14  -0.2014694098E-15   0.1258398426E-14   0.1064714395E-14   0.9463894807E-01  -0.4591947403E-01  -0.4591947403E-01  -0.8653335280E-17   0.7246409151E-16   0.5890242958E-16   0.3500000005E+01
   0.1094638948E+01   0.0000000000E+00   0.9540805260E+00  -0.2250000000E-02   0.0000000000E+00   0.6750000000E-03   0.9688894793E-01   0.0000000000E+00  -0.4659447397E-01   0.3500000005E+01  -0.1417527103E-14   0.1823896524E-14  -0.9961756956E-16   0.6794862617E-15  -0.1054325605E-14   0.9463894807E-01  -0.4591947403E-01  -0.4591947403E-01  -0.1040906443E-15   0.1190022225E-15   0.2817366948E-17   0.3500000005E+01
   0.1094638948E+01   0.9540805260E+00   0.9540805260E+00  -0.2250000000E-02   0.6750000000E-03   0.6750000000E-03   0.9688894793E-01  -0.4659447397E-01  -0.4659447397E-01   0.3500000005E+01   0.2950061740E-14   0.1252061450E-14   0.4221474517E-15  -0.4467170869E-15  -0.1158753612E-14   0.9463894806E-01  -0.4591947403E-01  -0.4591947403E-01  -0.8031455938E-16   0.6300623616E-16  -0.1068777327E-15   0.3500000005E+01
   0.0000000000E+00   0.9540805260E+00   0.9540805260E+00   0.0000000000E+00   0.6750000000E-03   0.6750000000E-03   0.0000000000E+00  -0.4659447397E-01  -0.4659447397E-01   0.3500000005E+01   0.8278701925E-14   0.6606464418E-14   0.6375025787E-16  -0.1091361989E-14   0.7964757400E-15   0.9463894806E-01  -0.4591947403E-01  -0.4591947403E-01  -0.7651954016E-16  -0.4060007405E-16   0.1078048797E-15   0.3500000005E+01
   0.2189277896E+01   0.0000000000E+00  -0.5744286416E-16  -0.4500000000E-02   0.0000000000E+00  -0.5104820751E-17   0.1937778959E+00   0.0000000000E+00  -0.5233804341E-16   0.3500000005E+01  -0.2461597718E-14  -0.3191213529E-14   0.1094337576E-14   0.1106658573E-14  -0.6954892958E-15   0.9463894808E-01  -0.4591947404E-01  -0.4591947404E-01   0.1784181819E-15   0.2939580191E-15   0.1757930987E-16   0.3500000005E+01
   0.2189277896E+01   0.9540805260E+00  -0.6062431829E-16  -0.4500000000E-02   0.6750000000E-03  -0.5582167736E-17   0.1937778959E+00  -0.4659447397E-01  -0.5504215055E-16   0.3500000005E+01   0.6241408915E-14   0.1032492949E-13  -0.2308411075E-15  -0.3238448261E-15   0.2783623737E-15   0.9463894807E-01  -0.4591947403E-01  -0.4591947403E-01   0.8621912321E-16   0.2684055557E-15   0.1412664872E-16   0.3500000005E+01
   0.2189277896E+01   0.0000000000E+00   0.9540805260E+00  -0.4500000000E-02   0.0000000000E+00   0.6750000000E-03   0.1937778959E+00   0.0000000000E+00  -0.4659447397E-01   0.3500000005E+01   0.5028525575E-14   0.4801036635E-14  -0.4863817620E-15  -0.1900401823E-15   0.2091882763E-15   0.9463894807E-01  -0.4591947403E-01  -0.4591947403E-01   0.4860085339E-17   0.3847991228E-15  -0.1045929679E-16   0.3500000005E+01
   0.2189277896E+01   0.9540805260E+00   0.9540805260E+00  -0.4500000000E-02   0.6750000000E-03   0.6750000000E-03   0.1937778959E+00  -0.4659447397E-01  -0.4659447397E-01   0.3500000004E+01  -0.8740869076E-14  -0.1218149209E-13  -0.1506614524E-16  -0.1320997686E-14   0.1155132608E-14   0.9463894805E-01  -0.4591947403E-01  -0.4591947403E-01   0.5783262158E-16   0.2980375595E-15   0.7446931606E-16   0.3500000004E+01
     1     2     3     4     5     6     7     8
     2     9    10     3     6    11    12     7
 VARIABLES = X,Y,Z,DU1,DU2,DU3,U1,U2,U3,S11,S22,S33,S12,S13,S23,E11,E22,E33,E12,E13,E23,SMISES
 ZONE, T="0.9450D+01" F=FEPOINT, I=   12 J=    2 ET=BRICK
   0.0000000000E+00   0.0000000000E+00   0.0000000000E+00   0.0000000000E+00   0.0000000000E+00   0.0000000000E+00   0.0000000000E+00   0.0000000000E+00   0.0000000000E+00   0.2375000004E+01   0.1153460861E-13   0.1224592501E-13   0.9414244708E-16  -0.1307102105E-14  -0.1298918932E-14   0.9238894808E-01  -0.4524447404E-01  -0.4524447404E-01  -0.9074986271E-17  -0.1264407397E-15  -0.7616412174E-16   0.2375000004E+01
   0.1092388948E+01   0.0000000000E+00  -0.5698456185E-16  -0.2250000000E-02   0.0000000000E+00   0.6584019472E-18   0.9463894793E-01   0.0000000000E+00  -0.5764296380E-16   0.2375000004E+01  -0.4548319076E-14  -0.4883183168E-14  -0.5127224335E-15  -0.1021906265E-15   0.9103059008E-15   0.9238894808E-01  -0.4524447404E-01  -0.4524447404E-01  -0.2982475167E-16   0.5914106243E-16   0.6631374745E-16   0.2375000004E+01
   0.1092388948E+01   0.9547555260E+00  -0.2636273339E-16  -0.2250000000E-02   0.6750000000E-03   0.4101547611E-18   0.9463894793E-01  -0.4591947397E-01  -0.2677288815E-16   0.2375000003E+01   0.1514065854E-14   0.1082128708E-14  -0.8587908952E-15   0.4679932616E-15   0.6585576245E-15   0.9238894807E-01  -0.4524447403E-01  -0.4524447403E-01  -0.4485752790E-16  -0.1034339878E-16   0.8127262542E-16   0.2375000003E+01
   0.0000000000E+00   0.9547555260E+00  -0.4886425504E-16   0.0000000000E+00   0.6750000000E-03   0.1763351557E-18   0.0000000000E+00  -0.4591947397E-01  -0.4904059020E-16   0.2375000003E+01  -0.9627588309E-14  -0.9564933334E-14   0.7253889722E-15   0.1366542254E-14  -0.2768267734E-15   0.9238894807E-01  -0.4524447403E-01  -0.4524447403E-01   0.4982806733E-16   0.8858795623E-16  -0.6499471647E-16   0.2375000003E+01
   0.0000000000E+00   0.0000000000E+00   0.9547555260E+00   0.0000000000E+00   0.0000000000E+00   0.6750000000E-03   0.0000000000E+00   0.0000000000E+00  -0.4591947397E-01   0.2375000003E+01  -0.9280624663E-14  -0.8939293500E-14  -0.2121815773E-15   0.1240422776E-14   0.1097866788E-14   0.9238894807E-01  -0.4524447403E-01  -0.4524447403E-01  -0.2247049099E-17   0.7362993380E-16   0.4409062461E-16   0.2375000003E+01
   0.1092388948E+01   0.0000000000E+00   0.9547555260E+00  -0.2250000000E-02   0.0000000000E+00   0.6750000000E-03   0.9463894793E-01   0.0000000000E+00  -0.4591947397E-01   0.2375000003E+01  -0.1968653029E-14   0.1234855788E-14   0.1973552456E-15   0.5262119528E-15  -0.1014472589E-14   0.9238894807E-01  -0.4524447403E-01  -0.4524447403E-01  -0.1209887774E-15   0.9316913606E-16  -0.4717803529E-16   0.2375000003E+01
   0.1092388948E+01   0.9547555260E+00   0.9547555260E+00  -0.2250000000E-02   0.6750000000E-03   0.6750000000E-03   0.9463894793E-01  -0.4591947397E-01  -0.4591947397E-01   0.2375000003E+01   0.3065069530E-14   0.1569524737E-14   0.6961862706E-15  -0.1908611015E-15  -0.9325200155E-15   0.9238894805E-01  -0.4524447403E-01  -0.4524447403E-01  -0.1012209181E-15   0.6259166138E-16  -0.7355994595E-16   0.2375000003E+01
   0.0000000000E+00   0.9547555260E+00   0.9547555260E+00   0.0000000000E+00   0.6750000000E-03   0.6750000000E-03   0.0000000000E+00  -0.4591947397E-01  -0.4591947397E-01   0.2375000003E+01   0.8431090602E-14   0.6688103091E-14   0.5819210833E-17  -0.1101717144E-14   0.7770562283E-15   0.9238894806E-01  -0.4524447403E-01  -0.4524447403E-01  -0.6327785037E-16  -0.3627049102E-16   0.1286790485E-15   0.2375000003E+01
   0.2184777896E+01   0.0000000000E+00  -0.5486386042E-16  -0.4500000000E-02   0.0000000000E+00   0.2579003746E-17   0.1892778959E+00   0.0000000000E+00  -0.5744286416E-16   0.2375000004E+01  -0.7893602195E-15  -0.1895766749E-14   0.1426727411E-15   0.5209258753E-15  -0.8610510158E-15   0.9238894807E-01  -0.4524447404E-01  -0.4524447404E-01   0.7850888757E-16   0.1465006496E-15  -0.1270692629E-16   0.2375000004E+01
   0.2184777896E+01   0.9547555260E+00  -0.5900352599E-16  -0.4500000000E-02   0.6750000000E-03   0.1620792293E-17   0.1892778959E+00  -0.4591947397E-01  -0.6062431829E-16   0.2375000003E+01   0.6459468046E-14   0.1059242375E-13  -0.1014179030E-14  -0.2995148647E-15   0.8848678887E-16   0.9238894806E-01  -0.4524447403E-01  -0.4524447403E-01   0.2880941308E-16   0.3674978976E-15   0.8259524131E-16   0.2375000003E+01
   0.2184777896E+01   0.0000000000E+00   0.9547555260E+00  -0.4500000000E-02   0.0000000000E+00   0.6750000000E-03   0.1892778959E+00   0.0000000000E+00  -0.4591947397E-01   0.2375000003E+01   0.4809203220E-14   0.4277034636E-14  -0.4093290967E-15  -0.1188403190E-14   0.1450162563E-15   0.9238894806E-01  -0.4524447403E-01  -0.4524447403E-01   0.6441833250E-16   0.3820460398E-15  -0.2643686165E-17   0.2375000003E+01
   0.2184777896E+01   0.9547555260E+00   0.9547555260E+00  -0.4500000000E-02   0.6750000000E-03   0.6750000000E-03   0.1892778959E+00  -0.4591947397E-01  -0.4591947397E-01   0.2375000003E+01  -0.8105213060E-14  -0.1174321195E-13   0.3376827940E-15  -0.8552621583E-15   0.1148884573E-14   0.9238894805E-01  -0.4524447402E-01  -0.4524447402E-01   0.1255937480E-15   0.2898162667E-15   0.5095676928E-16   0.2375000003E+01
     1     2     3     4     5     6     7     8
     2     9    10     3     6    11    12     7
 VARIABLES = X,Y,Z,DU1,DU2,DU3,U1,U2,U3,S11,S22,S33,S12,S13,S23,E11,E22,E33,E12,E13,E23,SMISES
 ZONE, T="0.9500D+01" F=FEPOINT, I=   12 J=    2 ET=BRICK
   0.0000000000E+00   0.0000000000E+00   0.0000000000E+00   0.0000000000E+00   0.0000000000E+00   0.0000000000E+00   0.0000000000E+00   0.0000000000E+00   0.0000000000E+00   0.1250000002E+01   0.1110199095E-13   0.1164386939E-13   0.1345828526E-15  -0.1430196808E-14  -0.1222323888E-14   0.9013894807E-01  -0.4456947404E-01  -0.4456947404E-01   0.1270523730E-16  -0.1496728676E-15  -0.1104340369E-15   0.1250000002E+01
   0.1090138948E+01   0.0000000000E+00  -0.5792851310E-16  -0.2250000000E-02   0.0000000000E+00  -0.9439512519E-18   0.9238894793E-01   0.0000000000E+00  -0.5698456185E-16   0.1250000002E+01  -0.4514487493E-14  -0.4851709046E-14  -0.2092695606E-15   0.3128435108E-15   0.9037681779E-15   0.9013894807E-01  -0.4456947404E-01  -0.4456947404E-01  -0.6840461372E-16   0.9769337317E-16   0.6610601619E-16   0.1250000002E+01
   0.1090138948E+01   0.9554305260E+00  -0.2733547126E-16  -0.2250000000E-02   0.6750000000E-03  -0.9727378652E-18   0.9238894793E-01  -0.4524447397E-01  -0.2636273339E-16   0.1250000002E+01   0.1821734607E-14   0.1249658522E-14  -0.6425520243E-15   0.3100611207E-15   0.6167425712E-15   0.9013894806E-01  -0.4456947403E-01  -0.4456947403E-01  -0.6019175471E-16   0.2116332038E-16   0.6541650156E-16   0.1250000002E+01
   0.0000000000E+00   0.9554305260E+00  -0.4862483284E-16   0.0000000000E+00   0.6750000000E-03   0.2394221992E-18   0.0000000000E+00  -0.4524447397E-01  -0.4886425504E-16   0.1250000002E+01  -0.9406090775E-14  -0.9599360836E-14   0.6828667276E-15   0.1090820071E-14  -0.4060169067E-15   0.9013894806E-01  -0.4456947403E-01  -0.4456947403E-01   0.6394913712E-16   0.7807246040E-16  -0.4942297426E-16   0.1250000002E+01
   0.0000000000E+00   0.0000000000E+00   0.9554305260E+00   0.0000000000E+00   0.0000000000E+00   0.6750000000E-03   0.0000000000E+00   0.0000000000E+00  -0.4524447397E-01   0.1250000002E+01  -0.8667462253E-14  -0.8287171037E-14  -0.2453009679E-15   0.1140435743E-14   0.1034716608E-14   0.9013894806E-01  -0.4456947403E-01  -0.4456947403E-01  -0.8316540470E-17   0.6360864774E-16   0.4383035587E-16   0.1250000002E+01
   0.1090138948E+01   0.0000000000E+00   0.9554305260E+00  -0.2250000000E-02   0.0000000000E+00   0.6750000000E-03   0.9238894793E-01   0.0000000000E+00  -0.4524447397E-01   0.1250000002E+01  -0.1639936363E-14   0.1638041006E-14  -0.1517031908E-16   0.9936636146E-15  -0.1061246326E-14   0.9013894806E-01  -0.4456947403E-01  -0.4456947403E-01  -0.1107468116E-15   0.1302685025E-15  -0.3689160525E-16   0.1250000002E+01
   0.1090138948E+01   0.9554305260E+00   0.9554305260E+00  -0.2250000000E-02   0.6750000000E-03   0.6750000000E-03   0.9238894793E-01  -0.4524447397E-01  -0.4524447397E-01   0.1250000002E+01   0.3054278637E-14   0.1609165359E-14   0.5136357812E-15  -0.2309115542E-15  -0.9793833366E-15   0.9013894805E-01  -0.4456947403E-01  -0.4456947403E-01  -0.1329310022E-15   0.4381024789E-16  -0.4809785708E-16   0.1250000002E+01
   0.0000000000E+00   0.9554305260E+00   0.9554305260E+00   0.0000000000E+00   0.6750000000E-03   0.6750000000E-03   0.0000000000E+00  -0.4524447397E-01  -0.4524447397E-01   0.1250000002E+01   0.8453450741E-14   0.6658852971E-14   0.6430733184E-16  -0.1268877347E-14   0.6545443156E-15   0.9013894805E-01  -0.4456947403E-01  -0.4456947403E-01  -0.5026260549E-16  -0.3128241628E-16   0.1460484957E-15   0.1250000002E+01
   0.2180277896E+01   0.0000000000E+00  -0.5742873214E-16  -0.4500000000E-02   0.0000000000E+00  -0.2564871726E-17   0.1847778959E+00   0.0000000000E+00  -0.5486386042E-16   0.1250000002E+01  -0.1195583433E-14  -0.1983614896E-14   0.5129446904E-15   0.9821776463E-15  -0.7813654852E-15   0.9013894807E-01  -0.4456947403E-01  -0.4456947403E-01   0.1160695450E-15   0.2109345300E-15  -0.1264672865E-16   0.1250000002E+01
   0.2180277896E+01   0.9554305260E+00  -0.6112626797E-16  -0.4500000000E-02   0.6750000000E-03  -0.2122741979E-17   0.1847778959E+00  -0.4524447397E-01  -0.5900352599E-16   0.1250000002E+01   0.5885848519E-14   0.1037559229E-13  -0.8046137427E-15  -0.4882676159E-15   0.3242582143E-15   0.9013894806E-01  -0.4456947403E-01  -0.4456947403E-01   0.5661546721E-16   0.2727911865E-15   0.5436273411E-16   0.1250000002E+01
   0.2180277896E+01   0.0000000000E+00   0.9554305260E+00  -0.4500000000E-02   0.0000000000E+00   0.6750000000E-03   0.1847778959E+00   0.0000000000E+00  -0.4524447397E-01   0.1250000002E+01   0.5051748646E-14   0.4344564309E-14  -0.7923973931E-15  -0.1241016610E-14   0.1849375476E-15   0.9013894806E-01  -0.4456947403E-01  -0.4456947403E-01   0.1132332545E-15   0.3173021042E-15  -0.2011330478E-16   0.1250000002E+01
   0.2180277896E+01   0.9554305260E+00   0.9554305260E+00  -0.4500000000E-02   0.6750000000E-03   0.6750000000E-03   0.1847778959E+00  -0.4524447397E-01  -0.4524447397E-01   0.1250000002E+01  -0.7723391597E-14  -0.1155486545E-13   0.7040899572E-16  -0.1024955563E-14   0.1268830582E-14   0.9013894805E-01  -0.4456947402E-01  -0.4456947402E-01   0.1997932005E-16   0.2391316201E-15   0.9092086682E-16   0.1250000002E+01
     1     2     3     4     5     6     7     8
     2     9    10     3     6    11    12     7
 VARIABLES = X,Y,Z,DU1,DU2,DU3,U1,U2,U3,S11,S22,S33,S12,S13,S23,E11,E22,E33,E12,E13,E23,SMISES
 ZONE, T="0.9550D+01" F=FEPOINT, I=   12 J=    2 ET=BRICK
   0.0000000000E+00   0.0000000000E+00   0.0000000000E+00   0.0000000000E+00   0.0000000000E+00   0.0000000000E+00   0.0000000000E+00   0.0000000000E+00   0.0000000000E+00   0.1250000002E+00   0.1127760665E-13   0.1189196983E-13   0.1772326167E-15  -0.1424137001E-14  -0.1192236217E-14   0.8788894807E-01  -0.4389447404E-01  -0.4389447404E-01  -0.8225261160E-17  -0.1388824250E-15  -0.1197660684E-15   0.1250000002E+00
   0.1087888948E+01   0.0000000000E+00  -0.5772421528E-16  -0.2250000000E-02   0.0000000000E+00   0.2042978257E-18   0.9013894793E-01   0.0000000000E+00  -0.5792851310E-16   0.1250000002E+00  -0.4641018898E-14  -0.4988648790E-14  -0.4646917141E-15   0.2439538571E-15   0.9215563250E-15   0.8788894807E-01  -0.4389447403E-01  -0.4389447403E-01  -0.4074469724E-16   0.4102949708E-16   0.6857106737E-16   0.1250000002E+00
   0.1087888948E+01   0.9561055260E+00  -0.2705757846E-16  -0.2250000000E-02   0.6750000000E-03   0.2778927930E-18   0.9013894793E-01  -0.4456947397E-01  -0.2733547126E-16   0.1250000002E+00   0.1894671937E-14   0.1338582001E-14  -0.8124083710E-15   0.4594561003E-15   0.6676158552E-15   0.8788894806E-01  -0.4389447403E-01  -0.4389447403E-01  -0.6104872831E-16   0.2197016045E-16   0.6106890872E-16   0.1250000002E+00
   0.0000000000E+00   0.9561055260E+00  -0.4857499096E-16   0.0000000000E+00   0.6750000000E-03   0.4984188619E-19   0.0000000000E+00  -0.4456947397E-01  -0.4862483284E-16   0.1250000002E+00  -0.9429735831E-14  -0.9649026737E-14   0.6377621594E-15   0.1105291592E-14  -0.4132284770E-15   0.8788894806E-01  -0.4389447403E-01  -0.4389447403E-01   0.6133626572E-16   0.7792639568E-16  -0.2926343996E-16   0.1250000002E+00
   0.0000000000E+00   0.0000000000E+00   0.9561055260E+00   0.0000000000E+00   0.0000000000E+00   0.6750000000E-03   0.0000000000E+00   0.0000000000E+00  -0.4456947397E-01   0.1250000002E+00  -0.8488323761E-14  -0.8028949185E-14  -0.2568691449E-15   0.1051967395E-14   0.1004299926E-14   0.8788894806E-01  -0.4389447403E-01  -0.4389447403E-01  -0.3566883091E-17   0.7012439364E-16   0.6362778781E-16   0.1250000002E+00
   0.1087888948E+01   0.0000000000E+00   0.9561055260E+00  -0.2250000000E-02   0.0000000000E+00   0.6750000000E-03   0.9013894793E-01   0.0000000000E+00  -0.4456947397E-01   0.1250000002E+00  -0.1773513344E-14   0.1480858443E-14   0.8610713144E-16   0.9557949285E-15  -0.1030582119E-14   0.8788894806E-01  -0.4389447403E-01  -0.4389447403E-01  -0.9949933877E-16   0.1110462929E-15  -0.3218261164E-16   0.1250000002E+00
   0.1087888948E+01   0.9561055260E+00   0.9561055260E+00  -0.2250000000E-02   0.6750000000E-03   0.6750000000E-03   0.9013894793E-01  -0.4456947397E-01  -0.4456947397E-01   0.1250000002E+00   0.2647238116E-14   0.1204913744E-14   0.5942387655E-15  -0.3757412598E-18  -0.9750429566E-15   0.8788894805E-01  -0.4389447402E-01  -0.4389447402E-01  -0.1150919193E-15   0.8064013686E-16  -0.5155071517E-16   0.1250000002E+00
   0.0000000000E+00   0.9561055260E+00   0.9561055260E+00   0.0000000000E+00   0.6750000000E-03   0.6750000000E-03   0.0000000000E+00  -0.4456947397E-01  -0.4456947397E-01   0.1250000002E+00   0.8669794600E-14   0.6855774607E-14   0.4595214664E-16  -0.1345501914E-14   0.7065604322E-15   0.8788894805E-01  -0.4389447403E-01  -0.4389447403E-01  -0.5772434712E-16  -0.3915578135E-16   0.1127854951E-15   0.1250000002E+00
   0.2175777896E+01   0.0000000000E+00  -0.5669468188E-16  -0.4500000000E-02   0.0000000000E+00   0.7340502613E-18   0.1802778959E+00   0.0000000000E+00  -0.5742873214E-16   0.1250000002E+00  -0.1025493385E-14  -0.1808320679E-14   0.6505025938E-15   0.7688245215E-15  -0.7810413627E-15   0.8788894807E-01  -0.4389447403E-01  -0.4389447403E-01   0.5431492345E-16   0.2356946508E-15  -0.1778340262E-16   0.1250000002E+00
   0.2175777896E+01   0.9561055260E+00  -0.6032372908E-16  -0.4500000000E-02   0.6750000000E-03   0.8025388976E-18   0.1802778959E+00  -0.4456947397E-01  -0.6112626797E-16   0.1250000002E+00   0.6561756070E-14   0.1095819843E-13  -0.6082455953E-15  -0.9954659962E-15   0.3222753779E-15   0.8788894806E-01  -0.4389447403E-01  -0.4389447403E-01   0.1541018445E-16   0.2501086834E-15   0.5594037843E-16   0.1250000002E+00
   0.2175777896E+01   0.0000000000E+00   0.9561055260E+00  -0.4500000000E-02   0.0000000000E+00   0.6750000000E-03   0.1802778959E+00   0.0000000000E+00  -0.4456947397E-01   0.1250000002E+00   0.5132660706E-14   0.4522587499E-14  -0.9806071585E-15  -0.1322008262E-14   0.1917864023E-15   0.8788894806E-01  -0.4389447403E-01  -0.4389447403E-01   0.4163023324E-16   0.2999413877E-15   0.2157537128E-17   0.1250000002E+00
   0.2175777896E+01   0.9561055260E+00   0.9561055260E+00  -0.4500000000E-02   0.6750000000E-03   0.6750000000E-03   0.1802778959E+00  -0.4456947397E-01  -0.4456947397E-01   0.1250000002E+00  -0.8571381509E-14  -0.1240424982E-13  -0.1086470110E-15  -0.1401207581E-14   0.1116090713E-14   0.8788894805E-01  -0.4389447402E-01  -0.4389447402E-01   0.8530512171E-16   0.7786832567E-16   0.3110136026E-16   0.1250000002E+00
     1     2     3     4     5     6     7     8
     2     9    10     3     6    11    12     7
 VARIABLES = X,Y,Z,DU1,DU2,DU3,U1,U2,U3,S11,S22,S33,S12,S13,S23,E11,E22,E33,E12,E13,E23,SMISES
 ZONE, T="0.9600D+01" F=FEPOINT, I=   12 J=    2 ET=BRICK
   0.0000000000E+00   0.0000000000E+00   0.0000000000E+00   0.0000000000E+00   0.0000000000E+00   0.0000000000E+00   0.0000000000E+00   0.0000000000E+00   0.0000000000E+00  -0.1000000002E+01   0.1103736577E-13   0.1179149427E-13   0.1895654867E-15  -0.1449863821E-14  -0.1243998544E-14   0.8563894807E-01  -0.4321947403E-01  -0.4321947403E-01  -0.6340737465E-17  -0.1149327102E-15  -0.9050734348E-16   0.1000000002E+01
   0.1085638948E+01   0.0000000000E+00  -0.5744971303E-16  -0.2250000000E-02   0.0000000000E+00   0.2745022496E-18   0.8788894793E-01   0.0000000000E+00  -0.5772421528E-16  -0.1000000002E+01  -0.4727733924E-14  -0.4951211027E-14  -0.5928042925E-15   0.2449081137E-15   0.8970474949E-15   0.8563894807E-01  -0.4321947403E-01  -0.4321947403E-01  -0.4976219177E-16   0.7459715409E-17   0.5834903627E-16   0.1000000002E+01
   0.1085638948E+01   0.9567805260E+00  -0.2689703058E-16  -0.2250000000E-02   0.6750000000E-03   0.1605478852E-18   0.8788894793E-01  -0.4389447397E-01  -0.2705757846E-16  -0.1000000001E+01   0.1667717864E-14   0.1113238113E-14  -0.8859078726E-15   0.3648805678E-15   0.7014251967E-15   0.8563894806E-01  -0.4321947403E-01  -0.4321947403E-01  -0.6804769798E-16   0.8841913322E-18   0.4525881797E-16   0.1000000001E+01
   0.0000000000E+00   0.9567805260E+00  -0.4882680774E-16   0.0000000000E+00   0.6750000000E-03  -0.2518167870E-18   0.0000000000E+00  -0.4389447397E-01  -0.4857499096E-16  -0.1000000001E+01  -0.9644552980E-14  -0.9577498931E-14   0.7210823404E-15   0.1216615043E-14  -0.4009207873E-15   0.8563894806E-01  -0.4321947403E-01  -0.4321947403E-01   0.6914371192E-16   0.8062409326E-16  -0.2003777481E-16   0.1000000001E+01
   0.0000000000E+00   0.0000000000E+00   0.9567805260E+00   0.0000000000E+00   0.0000000000E+00   0.6750000000E-03   0.0000000000E+00   0.0000000000E+00  -0.4389447397E-01  -0.1000000001E+01  -0.8899483752E-14  -0.8337420229E-14  -0.2379804646E-15   0.1148883885E-14   0.9924069870E-15   0.8563894806E-01  -0.4321947403E-01  -0.4321947403E-01   0.6749680497E-18   0.6836493610E-16   0.3452072977E-16   0.1000000001E+01
   0.1085638948E+01   0.0000000000E+00   0.9567805260E+00  -0.2250000000E-02   0.0000000000E+00   0.6750000000E-03   0.8788894793E-01   0.0000000000E+00  -0.4389447397E-01  -0.1000000001E+01  -0.1806834519E-14   0.1357398406E-14   0.7579319361E-17   0.8843095861E-15  -0.1073882708E-14   0.8563894806E-01  -0.4321947403E-01  -0.4321947403E-01  -0.1214206631E-15   0.6277367929E-16  -0.3539426826E-16   0.1000000001E+01
   0.1085638948E+01   0.9567805260E+00   0.9567805260E+00  -0.2250000000E-02   0.6750000000E-03   0.6750000000E-03   0.8788894793E-01  -0.4389447397E-01  -0.4389447397E-01  -0.1000000001E+01   0.2810554468E-14   0.1383037513E-14   0.5851262194E-15  -0.5976304163E-16  -0.9252623333E-15   0.8563894805E-01  -0.4321947402E-01  -0.4321947402E-01  -0.1094511881E-15   0.1115923716E-15  -0.3448509690E-16   0.1000000001E+01
   0.0000000000E+00   0.9567805260E+00   0.9567805260E+00   0.0000000000E+00   0.6750000000E-03   0.6750000000E-03   0.0000000000E+00  -0.4389447397E-01  -0.4389447397E-01  -0.1000000001E+01   0.8115620058E-14   0.6292902033E-14   0.1059272414E-15  -0.1286355297E-14   0.6871331612E-15   0.8563894805E-01  -0.4321947402E-01  -0.4321947402E-01  -0.5642074283E-16  -0.4909789135E-16   0.1367627623E-15   0.1000000001E+01
   0.2171277896E+01   0.0000000000E+00  -0.5557491306E-16  -0.4500000000E-02   0.0000000000E+00   0.1119768820E-17   0.1757778959E+00   0.0000000000E+00  -0.5669468188E-16  -0.1000000002E+01  -0.1281888142E-14  -0.2150828871E-14   0.4136529734E-15   0.6223760443E-15  -0.8522851287E-15   0.8563894806E-01  -0.4321947403E-01  -0.4321947403E-01   0.9574524588E-16   0.4372590601E-15   0.4933488613E-17   0.1000000002E+01
   0.2171277896E+01   0.9567805260E+00  -0.5954129336E-16  -0.4500000000E-02   0.6750000000E-03   0.7824357171E-18   0.1757778959E+00  -0.4389447397E-01  -0.6032372908E-16  -0.1000000001E+01   0.6319329101E-14   0.1060970424E-13  -0.8182852373E-15  -0.4005304613E-15   0.2753741933E-15   0.8563894805E-01  -0.4321947403E-01  -0.4321947403E-01   0.3923965114E-16   0.1914106563E-15   0.3747896793E-16   0.1000000001E+01
   0.2171277896E+01   0.0000000000E+00   0.9567805260E+00  -0.4500000000E-02   0.0000000000E+00   0.6750000000E-03   0.1757778959E+00   0.0000000000E+00  -0.4389447397E-01  -0.1000000001E+01   0.5119958839E-14   0.4362342968E-14  -0.5726336801E-15  -0.1230131262E-14   0.1816561131E-15   0.8563894805E-01  -0.4321947403E-01  -0.4321947403E-01   0.8487970055E-16   0.3211062075E-15  -0.4579209449E-16   0.1000000001E+01
   0.2171277896E+01   0.9567805260E+00   0.9567805260E+00  -0.4500000000E-02   0.6750000000E-03   0.6750000000E-03   0.1757778959E+00  -0.4389447397E-01  -0.4389447397E-01  -0.1000000001E+01  -0.7763979703E-14  -0.1162828876E-13   0.3010143435E-15  -0.1156329349E-14   0.1108963155E-14   0.8563894804E-01  -0.4321947402E-01  -0.4321947402E-01   0.4421461893E-16   0.2725215712E-15   0.8713233124E-16   0.1000000001E+01
     1     2     3     4     5     6     7     8
     2     9    10     3     6    11    12     7
 VARIABLES = X,Y,Z,DU1,DU2,DU3,U1,U2,U3,S11,S22,S33,S12,S13,S23,E11,E22,E33,E12,E13,E23,SMISES
 ZONE, T="0.9650D+01" F=FEPOINT, I=   12 J=    2 ET=BRICK
   0.0000000000E+00   0.0000000000E+00   0.0000000000E+00   0.0000000000E+00   0.0000000000E+00   0.0000000000E+00   0.0000000000E+00   0.0000000000E+00   0.0000000000E+00  -0.2125000003E+01   0.1147302149E-13   0.1238878615E-13   0.2104569102E-15  -0.1340496507E-14  -0.1355529519E-14   0.8338894806E-01  -0.4254447403E-01  -0.4254447403E-01   0.4433045040E-17  -0.1325353895E-15  -0.1114879812E-15   0.2125000003E+01
   0.1083388948E+01   0.0000000000E+00  -0.5623005772E-16  -0.2250000000E-02   0.0000000000E+00   0.1219655313E-17   0.8563894793E-01   0.0000000000E+00  -0.5744971303E-16  -0.2125000003E+01  -0.4565915404E-14  -0.4592016631E-14  -0.6383525533E-15   0.2629679144E-15   0.7806707738E-15   0.8338894806E-01  -0.4254447403E-01  -0.4254447403E-01  -0.7373734022E-16   0.5772860988E-16   0.6068645520E-16   0.2125000003E+01
   0.1083388948E+01   0.9574555260E+00  -0.2622939387E-16  -0.2250000000E-02   0.6750000000E-03   0.6676367046E-18   0.8563894793E-01  -0.4321947397E-01  -0.2689703058E-16  -0.2125000003E+01   0.1816654982E-14   0.1369843691E-14  -0.9640123117E-15   0.2905754720E-15   0.7530846019E-15   0.8338894805E-01  -0.4254447403E-01  -0.4254447403E-01  -0.1096540281E-15   0.2641343684E-16   0.3263710903E-16   0.2125000003E+01
   0.0000000000E+00   0.9574555260E+00  -0.4930126038E-16   0.0000000000E+00   0.6750000000E-03  -0.4744526359E-18   0.0000000000E+00  -0.4321947397E-01  -0.4882680774E-16  -0.2125000003E+01  -0.9804645692E-14  -0.9542257390E-14   0.7437000420E-15   0.1299121707E-14  -0.2314865442E-15   0.8338894805E-01  -0.4254447403E-01  -0.4254447403E-01   0.9600630164E-16   0.7531667513E-16  -0.7763744538E-17   0.2125000003E+01
   0.0000000000E+00   0.0000000000E+00   0.9574555260E+00   0.0000000000E+00   0.0000000000E+00   0.6750000000E-03   0.0000000000E+00   0.0000000000E+00  -0.4321947397E-01  -0.2125000003E+01  -0.8669637373E-14  -0.8570669285E-14  -0.2105297949E-15   0.1275355484E-14   0.9199490218E-15   0.8338894805E-01  -0.4254447403E-01  -0.4254447403E-01   0.2678855982E-18   0.8426587494E-16   0.4879317602E-16   0.2125000003E+01
   0.1083388948E+01   0.0000000000E+00   0.9574555260E+00  -0.2250000000E-02   0.0000000000E+00   0.6750000000E-03   0.8563894793E-01   0.0000000000E+00  -0.4321947397E-01  -0.2125000003E+01  -0.1999130758E-14   0.1163741086E-14  -0.2525422594E-16   0.9082463727E-15  -0.1162721189E-14   0.8338894805E-01  -0.4254447403E-01  -0.4254447403E-01  -0.1145169099E-15   0.1098073674E-15  -0.3140318430E-16   0.2125000003E+01
   0.1083388948E+01   0.9574555260E+00   0.9574555260E+00  -0.2250000000E-02   0.6750000000E-03   0.6750000000E-03   0.8563894793E-01  -0.4321947397E-01  -0.4321947397E-01  -0.2125000003E+01   0.2749598996E-14   0.1344757987E-14   0.6528695882E-15  -0.2125392574E-15  -0.8276464449E-15   0.8338894804E-01  -0.4254447402E-01  -0.4254447402E-01  -0.8864327425E-16   0.7139550919E-16  -0.2221760365E-16   0.2125000003E+01
   0.0000000000E+00   0.9574555260E+00   0.9574555260E+00   0.0000000000E+00   0.6750000000E-03   0.6750000000E-03   0.0000000000E+00  -0.4321947397E-01  -0.4321947397E-01  -0.2125000003E+01   0.8229996194E-14   0.6223597727E-14   0.1542449880E-16  -0.1076493550E-14   0.7667615611E-15   0.8338894805E-01  -0.4254447402E-01  -0.4254447402E-01  -0.7133927539E-16  -0.3795170541E-16   0.1338122141E-15   0.2125000003E+01
   0.2166777896E+01   0.0000000000E+00  -0.5076517443E-16  -0.4500000000E-02   0.0000000000E+00   0.4809738631E-17   0.1712778959E+00   0.0000000000E+00  -0.5557491306E-16  -0.2125000003E+01  -0.1262566013E-14  -0.2199716938E-14   0.6361215618E-15   0.4780764727E-15  -0.8988385276E-15   0.8338894806E-01  -0.4254447403E-01  -0.4254447403E-01   0.1333486917E-15   0.4410895616E-15  -0.1458533503E-16   0.2125000003E+01
   0.2166777896E+01   0.9574555260E+00  -0.5493582593E-16  -0.4500000000E-02   0.6750000000E-03   0.4605467430E-17   0.1712778959E+00  -0.4321947397E-01  -0.5954129336E-16  -0.2125000003E+01   0.6864014330E-14   0.1110055523E-13  -0.4608490475E-15  -0.4504142850E-15   0.2764478021E-15   0.8338894805E-01  -0.4254447403E-01  -0.4254447403E-01   0.7927612726E-16   0.2536442580E-15   0.6883118525E-16   0.2125000003E+01
   0.2166777896E+01   0.0000000000E+00   0.9574555260E+00  -0.4500000000E-02   0.0000000000E+00   0.6750000000E-03   0.1712778959E+00   0.0000000000E+00  -0.4321947397E-01  -0.2125000003E+01   0.5091838548E-14   0.4387692194E-14  -0.7986267836E-15  -0.1474797528E-14   0.1957461643E-15   0.8338894805E-01  -0.4254447403E-01  -0.4254447403E-01   0.3469664739E-16   0.1569664970E-15  -0.2870446454E-16   0.2125000003E+01
   0.2166777896E+01   0.9574555260E+00   0.9574555260E+00  -0.4500000000E-02   0.6750000000E-03   0.6750000000E-03   0.1712778959E+00  -0.4321947397E-01  -0.4321947397E-01  -0.2125000003E+01  -0.8035459413E-14  -0.1213859535E-13  -0.1678389321E-16  -0.1385682480E-14   0.1180637007E-14   0.8338894804E-01  -0.4254447402E-01  -0.4254447402E-01   0.9833958255E-16   0.3808531079E-15   0.2732638831E-16   0.2125000003E+01
     1     2     3     4     5     6     7     8
     2     9    10     3     6    11    12     7
 VARIABLES = X,Y,Z,DU1,DU2,DU3,U1,U2,U3,S11,S22,S33,S12,S13,S23,E11,E22,E33,E12,E13,E23,SMISES
 ZONE, T="0.9700D+01" F=FEPOINT, I=   12 J=    2 ET=BRICK
   0.0000000000E+00   0.0000000000E+00   0.0000000000E+00   0.0000000000E+00   0.0000000000E+00   0.0000000000E+00   0.0000000000E+00   0.0000000000E+00   0.0000000000E+00  -0.3250000005E+01   0.1153932358E-13   0.1207557532E-13   0.1809477150E-15  -0.1420019823E-14  -0.1282657867E-14   0.8113894806E-01  -0.4186947403E-01  -0.4186947403E-01   0.9706310408E-17  -0.1130591622E-15  -0.1046201596E-15   0.3250000005E+01
   0.1081138948E+01   0.0000000000E+00  -0.5772417480E-16  -0.2250000000E-02   0.0000000000E+00  -0.1494117088E-17   0.8338894793E-01   0.0000000000E+00  -0.5623005772E-16  -0.3250000005E+01  -0.4522556265E-14  -0.5074750028E-14  -0.4974241851E-15   0.2150875385E-15   0.8919703253E-15   0.8113894806E-01  -0.4186947403E-01  -0.4186947403E-01  -0.7269875798E-16   0.2612134220E-16   0.5644994060E-16   0.3250000005E+01
   0.1081138948E+01   0.9581305260E+00  -0.2714337722E-16  -0.2250000000E-02   0.6750000000E-03  -0.9139833428E-18   0.8338894793E-01  -0.4254447397E-01  -0.2622939387E-16  -0.3250000005E+01   0.1962140541E-14   0.9926882677E-15  -0.9694368726E-15   0.3480028544E-15   0.6090373289E-15   0.8113894805E-01  -0.4186947403E-01  -0.4186947403E-01  -0.3772404448E-16   0.9245094146E-16   0.3594857013E-16   0.3250000005E+01
   0.0000000000E+00   0.9581305260E+00  -0.4889550316E-16   0.0000000000E+00   0.6750000000E-03   0.4057572171E-18   0.0000000000E+00  -0.4254447397E-01  -0.4930126038E-16  -0.3250000005E+01  -0.9584229157E-14  -0.9891924214E-14   0.7846485295E-15   0.1192054542E-14  -0.3975805872E-15   0.8113894805E-01  -0.4186947403E-01  -0.4186947403E-01   0.4472946404E-16   0.5770912703E-16   0.1093704427E-16   0.3250000005E+01
   0.0000000000E+00   0.0000000000E+00   0.9581305260E+00   0.0000000000E+00   0.0000000000E+00   0.6750000000E-03   0.0000000000E+00   0.0000000000E+00  -0.4254447397E-01  -0.3250000005E+01  -0.8527772636E-14  -0.8641321555E-14  -0.1785967598E-15   0.1169794226E-14   0.1074874128E-14   0.8113894805E-01  -0.4186947403E-01  -0.4186947403E-01  -0.1355534535E-16   0.6744691430E-16   0.4388371787E-16   0.3250000005E+01
   0.1081138948E+01   0.0000000000E+00   0.9581305260E+00  -0.2250000000E-02   0.0000000000E+00   0.6750000000E-03   0.8338894793E-01   0.0000000000E+00  -0.4254447397E-01  -0.3250000005E+01  -0.1696541596E-14   0.1626155983E-14   0.9017384966E-16   0.9306200437E-15  -0.1100072556E-14   0.8113894805E-01  -0.4186947403E-01  -0.4186947403E-01  -0.8665516671E-16   0.1189949407E-15  -0.2013859098E-16   0.3250000005E+01
   0.1081138948E+01   0.9581305260E+00   0.9581305260E+00  -0.2250000000E-02   0.6750000000E-03   0.6750000000E-03   0.8338894793E-01  -0.4254447397E-01  -0.4254447397E-01  -0.3250000004E+01   0.2626424706E-14   0.1535061480E-14   0.7637426104E-15  -0.1368671274E-15  -0.1072504653E-14   0.8113894804E-01  -0.4186947402E-01  -0.4186947402E-01  -0.1486900931E-15   0.3187526811E-16  -0.3776406287E-16   0.3250000004E+01
   0.0000000000E+00   0.9581305260E+00   0.9581305260E+00   0.0000000000E+00   0.6750000000E-03   0.6750000000E-03   0.0000000000E+00  -0.4254447397E-01  -0.4254447397E-01  -0.3250000004E+01   0.8607053908E-14   0.7016090353E-14  -0.1811003947E-16  -0.1279760774E-14   0.7926227778E-15   0.8113894804E-01  -0.4186947402E-01  -0.4186947402E-01  -0.3384756342E-16  -0.3244966460E-16   0.7921943610E-16   0.3250000004E+01
   0.2162277896E+01   0.0000000000E+00  -0.5701040669E-16  -0.4500000000E-02   0.0000000000E+00  -0.6245232262E-17   0.1667778959E+00   0.0000000000E+00  -0.5076517443E-16  -0.3250000005E+01  -0.2248253471E-14  -0.3044269113E-14   0.9224359857E-15   0.1257471996E-14  -0.7758524975E-15   0.8113894806E-01  -0.4186947403E-01  -0.4186947403E-01   0.1136771993E-15   0.3900216480E-15   0.5445623804E-17   0.3250000005E+01
   0.2162277896E+01   0.9581305260E+00  -0.6051881492E-16  -0.4500000000E-02   0.6750000000E-03  -0.5582988987E-17   0.1667778959E+00  -0.4254447397E-01  -0.5493582593E-16  -0.3250000005E+01   0.7537220393E-14   0.1141357054E-13  -0.4150618739E-15  -0.7122190704E-15   0.3074650776E-15   0.8113894805E-01  -0.4186947403E-01  -0.4186947403E-01   0.5504108118E-16   0.1314203445E-15   0.5182671703E-16   0.3250000005E+01
   0.2162277896E+01   0.0000000000E+00   0.9581305260E+00  -0.4500000000E-02   0.0000000000E+00   0.6750000000E-03   0.1667778959E+00   0.0000000000E+00  -0.4254447397E-01  -0.3250000005E+01   0.6490870475E-14   0.5434699865E-14  -0.1358838626E-14  -0.7168871543E-15   0.3556338511E-15   0.8113894805E-01  -0.4186947403E-01  -0.4186947403E-01   0.2668513692E-16   0.1197201986E-15  -0.2146258068E-17   0.3250000005E+01
   0.2162277896E+01   0.9581305260E+00   0.9581305260E+00  -0.4500000000E-02   0.6750000000E-03   0.6750000000E-03   0.1667778959E+00  -0.4254447397E-01  -0.4254447397E-01  -0.3250000004E+01  -0.8998835631E-14  -0.1274277720E-13  -0.5436234896E-15  -0.1821272840E-14   0.1176520394E-14   0.8113894804E-01  -0.4186947402E-01  -0.4186947402E-01   0.9335336886E-16   0.3974782167E-15  -0.1225352684E-16   0.3250000004E+01
     1     2     3     4     5     6     7     8
     2     9    10     3     6    11    12     7
 VARIABLES = X,Y,Z,DU1,DU2,DU3,U1,U2,U3,S11,S22,S33,S12,S13,S23,E11,E22,E33,E12,E13,E23,SMISES
 ZONE, T="0.9750D+01" F=FEPOINT, I=   12 J=    2 ET=BRICK
   0.0000000000E+00   0.0000000000E+00   0.0000000000E+00   0.0000000000E+00   0.0000000000E+00   0.0000000000E+00   0.0000000000E+00   0.0000000000E+00   0.0000000000E+00  -0.4375000007E+01   0.1072551609E-13   0.1078919369E-13   0.1650562645E-15  -0.1791434864E-14  -0.1204555539E-14   0.7888894806E-01  -0.4119447403E-01  -0.4119447403E-01   0.5110281567E-17  -0.1445351122E-15  -0.9978850936E-16   0.4375000007E+01
   0.1078888948E+01   0.0000000000E+00  -0.6008345474E-16  -0.2250000000E-02   0.0000000000E+00  -0.2359279933E-17   0.8113894793E-01   0.0000000000E+00  -0.5772417480E-16  -0.4375000007E+01  -0.4977534066E-14  -0.5564920485E-14   0.2515609799E-15   0.9392610762E-15   0.9531414395E-15   0.7888894806E-01  -0.4119447403E-01  -0.4119447403E-01  -0.5332192070E-16   0.5625916467E-16   0.5808629323E-16   0.4375000007E+01
   0.1078888948E+01   0.9588055260E+00  -0.2928731855E-16  -0.2250000000E-02   0.6750000000E-03  -0.2143941332E-17   0.8113894793E-01  -0.4186947397E-01  -0.2714337722E-16  -0.4375000006E+01   0.1366392092E-14   0.6690512181E-15  -0.2993352628E-15   0.1375567892E-15   0.6324952114E-15   0.7888894805E-01  -0.4119447403E-01  -0.4119447403E-01  -0.7918870643E-16   0.1357127415E-16   0.4488345610E-16   0.4375000006E+01
   0.0000000000E+00   0.9588055260E+00  -0.4850315492E-16   0.0000000000E+00   0.6750000000E-03   0.3923482411E-18   0.0000000000E+00  -0.4186947397E-01  -0.4889550316E-16  -0.4375000006E+01  -0.9161917332E-14  -0.9929305135E-14   0.5564067755E-15   0.7016196114E-15  -0.6666470603E-15   0.7888894805E-01  -0.4119447403E-01  -0.4119447403E-01   0.6736849516E-16   0.8532436473E-16  -0.1143120435E-16   0.4375000006E+01
   0.0000000000E+00   0.0000000000E+00   0.9588055260E+00   0.0000000000E+00   0.0000000000E+00   0.6750000000E-03   0.0000000000E+00   0.0000000000E+00  -0.4186947397E-01  -0.4375000006E+01  -0.7774920614E-14  -0.7236480579E-14  -0.1572849970E-15   0.7367684619E-15   0.9890873802E-15   0.7888894805E-01  -0.4119447403E-01  -0.4119447403E-01   0.2274693380E-17   0.5469748613E-16   0.4231181466E-16   0.4375000006E+01
   0.1078888948E+01   0.0000000000E+00   0.9588055260E+00  -0.2250000000E-02   0.0000000000E+00   0.6750000000E-03   0.8113894793E-01   0.0000000000E+00  -0.4186947397E-01  -0.4375000006E+01  -0.1311949121E-14   0.1879407697E-14  -0.1999480377E-15   0.1612923458E-14  -0.1037240864E-14   0.7888894805E-01  -0.4119447403E-01  -0.4119447403E-01  -0.1222716588E-15   0.1352805910E-15  -0.1163067989E-16   0.4375000006E+01
   0.1078888948E+01   0.9588055260E+00   0.9588055260E+00  -0.2250000000E-02   0.6750000000E-03   0.6750000000E-03   0.8113894793E-01  -0.4186947397E-01  -0.4186947397E-01  -0.4375000006E+01   0.2959491573E-14   0.1832935692E-14   0.5552370545E-15  -0.3295159087E-15  -0.9829210890E-15   0.7888894804E-01  -0.4119447402E-01  -0.4119447402E-01  -0.1104875865E-15   0.6736888558E-16  -0.4235474269E-16   0.4375000006E+01
   0.0000000000E+00   0.9588055260E+00   0.9588055260E+00   0.0000000000E+00   0.6750000000E-03   0.6750000000E-03   0.0000000000E+00  -0.4186947397E-01  -0.4186947397E-01  -0.4375000006E+01   0.8341845680E-14   0.6733285805E-14   0.1590476186E-15  -0.1520947464E-14   0.4187904350E-15   0.7888894804E-01  -0.4119447402E-01  -0.4119447402E-01  -0.5033297756E-16  -0.3060763313E-16   0.1018566143E-15   0.4375000006E+01
   0.2157777896E+01   0.0000000000E+00  -0.6314742924E-16  -0.4500000000E-02   0.0000000000E+00  -0.6137022549E-17   0.1622778959E+00   0.0000000000E+00  -0.5701040669E-16  -0.4375000007E+01  -0.7683123318E-15  -0.1354435363E-14   0.2656046903E-15   0.4566196306E-15  -0.7920491077E-15   0.7888894805E-01  -0.4119447403E-01  -0.4119447403E-01   0.1072938563E-15   0.2781399359E-15   0.7119532028E-17   0.4375000007E+01
   0.2157777896E+01   0.9588055260E+00  -0.6668247307E-16  -0.4500000000E-02   0.6750000000E-03  -0.6163658155E-17   0.1622778959E+00  -0.4186947397E-01  -0.6051881492E-16  -0.4375000006E+01   0.6345723569E-14   0.1061138115E-13  -0.1044920966E-14  -0.3304882522E-15   0.4209070525E-15   0.7888894804E-01  -0.4119447402E-01  -0.4119447402E-01   0.1187216599E-16   0.1625964679E-15   0.6033770436E-16   0.4375000006E+01
   0.2157777896E+01   0.0000000000E+00   0.9588055260E+00  -0.4500000000E-02   0.0000000000E+00   0.6750000000E-03   0.1622778959E+00   0.0000000000E+00  -0.4186947397E-01  -0.4375000006E+01   0.4931114152E-14   0.4344066106E-14  -0.4050193413E-15  -0.1829054175E-14   0.3957882359E-15   0.7888894804E-01  -0.4119447402E-01  -0.4119447402E-01   0.8707720160E-16   0.2038367033E-15  -0.2615470762E-16   0.4375000006E+01
   0.2157777896E+01   0.9588055260E+00   0.9588055260E+00  -0.4500000000E-02   0.6750000000E-03   0.6750000000E-03   0.1622778959E+00  -0.4186947397E-01  -0.4186947397E-01  -0.4375000006E+01  -0.8489805565E-14  -0.1247883234E-13   0.1969248734E-15  -0.1119674172E-14   0.1213002756E-14   0.7888894803E-01  -0.4119447402E-01  -0.4119447402E-01   0.7682542900E-16   0.3367429550E-15   0.2167857047E-16   0.4375000006E+01
     1     2     3     4     5     6     7     8
     2     9    10     3     6    11    12     7
 VARIABLES = X,Y,Z,DU1,DU2,DU3,U1,U2,U3,S11,S22,S33,S12,S13,S23,E11,E22,E33,E12,E13,E23,SMISES
 ZONE, T="0.9800D+01" F=FEPOINT, I=   12 J=    2 ET=BRICK
   0.0000000000E+00   0.0000000000E+00   0.0000000000E+00   0.0000000000E+00   0.0000000000E+00   0.0000000000E+00   0.0000000000E+00   0.0000000000E+00   0.0000000000E+00  -0.5500000009E+01   0.1142033027E-13   0.1215558596E-13   0.1751253531E-15  -0.1314317654E-14  -0.1522126392E-14   0.7663894805E-01  -0.4051947403E-01  -0.4051947403E-01  -0.2888750855E-17  -0.1342565285E-15  -0.9980762463E-16   0.5500000009E+01
   0.1076638948E+01   0.0000000000E+00  -0.5615845580E-16  -0.2250000000E-02   0.0000000000E+00   0.3924998933E-17   0.7888894793E-01   0.0000000000E+00  -0.6008345474E-16  -0.5500000008E+01  -0.4674215500E-14  -0.4958283362E-14   0.4874191474E-16   0.5784240328E-15   0.8585429592E-15   0.7663894805E-01  -0.4051947403E-01  -0.4051947403E-01  -0.5981250241E-16  -0.1948610555E-17   0.5084807502E-16   0.5500000008E+01
   0.1076638948E+01   0.9594805260E+00  -0.2590850553E-16  -0.2250000000E-02   0.6750000000E-03   0.3378813018E-17   0.7888894793E-01  -0.4119447397E-01  -0.2928731855E-16  -0.5500000008E+01   0.1862006870E-14   0.1660280807E-14  -0.3079758006E-15  -0.2932867351E-15   0.6936275815E-15   0.7663894804E-01  -0.4051947402E-01  -0.4051947402E-01  -0.6021659948E-16   0.1760659244E-16   0.2986418945E-16   0.5500000008E+01
   0.0000000000E+00   0.9594805260E+00  -0.5017933782E-16   0.0000000000E+00   0.6750000000E-03  -0.1676182903E-17   0.0000000000E+00  -0.4119447397E-01  -0.4850315492E-16  -0.5500000008E+01  -0.8352095353E-14  -0.8588675655E-14   0.8128280868E-15   0.1481595674E-14  -0.4132256020E-15   0.7663894804E-01  -0.4051947403E-01  -0.4051947403E-01   0.6765830180E-16   0.9485846334E-16   0.2038376059E-16   0.5500000008E+01
   0.0000000000E+00   0.0000000000E+00   0.9594805260E+00   0.0000000000E+00   0.0000000000E+00   0.6750000000E-03   0.0000000000E+00   0.0000000000E+00  -0.4119447397E-01  -0.5500000008E+01  -0.8554994292E-14  -0.8351079897E-14  -0.1190101822E-15   0.1305159777E-14   0.7901806744E-15   0.7663894804E-01  -0.4051947403E-01  -0.4051947403E-01   0.3726220373E-17   0.7032428739E-16   0.3599035339E-16   0.5500000008E+01
   0.1076638948E+01   0.0000000000E+00   0.9594805260E+00  -0.2250000000E-02   0.0000000000E+00   0.6750000000E-03   0.7888894793E-01   0.0000000000E+00  -0.4119447397E-01  -0.5500000008E+01  -0.1585519362E-14   0.1524563505E-14  -0.6113691271E-15   0.1285391848E-14  -0.1066926095E-14   0.7663894804E-01  -0.4051947402E-01  -0.4051947402E-01  -0.1114586053E-15   0.1055435637E-15  -0.1772267423E-16   0.5500000008E+01
   0.1076638948E+01   0.9594805260E+00   0.9594805260E+00  -0.2250000000E-02   0.6750000000E-03   0.6750000000E-03   0.7888894793E-01  -0.4119447397E-01  -0.4119447397E-01  -0.5500000007E+01   0.1968262009E-14   0.9527284305E-15   0.3231009627E-15  -0.7152681646E-15  -0.7707476985E-15   0.7663894803E-01  -0.4051947402E-01  -0.4051947402E-01  -0.1102799325E-15   0.2171127835E-16  -0.3248080420E-16   0.5500000007E+01
   0.0000000000E+00   0.9594805260E+00   0.9594805260E+00   0.0000000000E+00   0.6750000000E-03   0.6750000000E-03   0.0000000000E+00  -0.4119447397E-01  -0.4119447397E-01  -0.5500000007E+01   0.7132556992E-14   0.5836745518E-14  -0.1160300446E-15  -0.7084778555E-15   0.8700155993E-15   0.7663894804E-01  -0.4051947402E-01  -0.4051947402E-01  -0.7310884222E-16  -0.2041166405E-16   0.7657005431E-16   0.5500000007E+01
   0.2153277896E+01   0.0000000000E+00  -0.4897836621E-16  -0.4500000000E-02   0.0000000000E+00   0.1416906303E-16   0.1577778959E+00   0.0000000000E+00  -0.6314742924E-16  -0.5500000008E+01  -0.3688456530E-15  -0.1404502170E-14  -0.1715283029E-15   0.8500853499E-15  -0.1048680225E-14   0.7663894805E-01  -0.4051947403E-01  -0.4051947403E-01   0.9624954878E-16   0.3055631825E-15  -0.7539503268E-17   0.5500000008E+01
   0.2153277896E+01   0.9594805260E+00  -0.5383681492E-16  -0.4500000000E-02   0.6750000000E-03   0.1284565816E-16   0.1577778959E+00  -0.4119447397E-01  -0.6668247307E-16  -0.5500000008E+01   0.6527131231E-14   0.1086861842E-13  -0.1221935361E-14  -0.2058610919E-15   0.2985223464E-15   0.7663894804E-01  -0.4051947402E-01  -0.4051947402E-01  -0.2342174115E-16   0.1046326794E-15   0.7076053462E-16   0.5500000008E+01
   0.2153277896E+01   0.0000000000E+00   0.9594805260E+00  -0.4500000000E-02   0.0000000000E+00   0.6750000000E-03   0.1577778959E+00   0.0000000000E+00  -0.4119447397E-01  -0.5500000008E+01   0.5164047435E-14   0.4364384616E-14  -0.9029613308E-15  -0.1709080741E-14   0.4346490607E-15   0.7663894804E-01  -0.4051947402E-01  -0.4051947402E-01   0.4487443688E-16   0.2116910047E-15  -0.2423465061E-16   0.5500000008E+01
   0.2153277896E+01   0.9594805260E+00   0.9594805260E+00  -0.4500000000E-02   0.6750000000E-03   0.6750000000E-03   0.1577778959E+00  -0.4119447397E-01  -0.4119447397E-01  -0.5500000007E+01  -0.7443064849E-14  -0.1190738793E-13  -0.1068639413E-15  -0.1118606836E-14   0.1330172552E-14   0.7663894803E-01  -0.4051947402E-01  -0.4051947402E-01   0.1454675732E-15   0.2632700107E-15   0.6229240476E-16   0.5500000007E+01
     1     2     3     4     5     6     7     8
     2     9    10     3     6    11    12     7
 VARIABLES = X,Y,Z,DU1,DU2,DU3,U1,U2,U3,S11,S22,S33,S12,S13,S23,E11,E22,E33,E12,E13,E23,SMISES
 ZONE, T="0.9850D+01" F=FEPOINT, I=   12 J=    2 ET=BRICK
   0.0000000000E+00   0.0000000000E+00   0.0000000000E+00   0.0000000000E+00   0.0000000000E+00   0.0000000000E+00   0.0000000000E+00   0.0000000000E+00   0.0000000000E+00  -0.6625000010E+01   0.1213380858E-13   0.1304230537E-13   0.1540518571E-15  -0.1470281804E-14  -0.1206644853E-14   0.7438894805E-01  -0.3984447403E-01  -0.3984447403E-01   0.5686410291E-17  -0.1456915653E-15  -0.8077551604E-16   0.6625000010E+01
   0.1074388948E+01   0.0000000000E+00  -0.5804067678E-16  -0.2250000000E-02   0.0000000000E+00  -0.1882220972E-17   0.7663894793E-01   0.0000000000E+00  -0.5615845580E-16  -0.6625000010E+01  -0.5326933911E-14  -0.5464786849E-14  -0.8462153063E-15  -0.2057211541E-15   0.1017491368E-14   0.7438894805E-01  -0.3984447403E-01  -0.3984447403E-01  -0.8696795151E-16   0.1771224061E-16   0.6230743240E-16   0.6625000010E+01
   0.1074388948E+01   0.9601555260E+00  -0.2696152811E-16  -0.2250000000E-02   0.6750000000E-03  -0.1053022583E-17   0.7663894793E-01  -0.4051947397E-01  -0.2590850553E-16  -0.6625000009E+01   0.7612138018E-15   0.6095545574E-15  -0.1370543758E-14   0.7797410340E-15   0.7872833131E-15   0.7438894804E-01  -0.3984447402E-01  -0.3984447402E-01  -0.8901879221E-16   0.7371269471E-16   0.5203154735E-16   0.6625000009E+01
   0.0000000000E+00   0.9601555260E+00  -0.4861327962E-16   0.0000000000E+00   0.6750000000E-03   0.1566058205E-17   0.0000000000E+00  -0.4051947397E-01  -0.5017933782E-16  -0.6625000010E+01  -0.9579514255E-14  -0.1063860246E-13   0.5792757767E-15   0.1142407459E-14  -0.2956217003E-15   0.7438894804E-01  -0.3984447402E-01  -0.3984447402E-01   0.6963802863E-16   0.6397801499E-16  -0.2841224250E-16   0.6625000010E+01
   0.0000000000E+00   0.0000000000E+00   0.9601555260E+00   0.0000000000E+00   0.0000000000E+00   0.6750000000E-03   0.0000000000E+00   0.0000000000E+00  -0.4051947397E-01  -0.6625000010E+01  -0.9583213769E-14  -0.9545103395E-14  -0.1165389768E-15   0.9653651601E-15   0.9299043757E-15   0.7438894804E-01  -0.3984447402E-01  -0.3984447402E-01   0.7466210640E-18   0.1032482374E-15   0.1047534420E-16   0.6625000010E+01
   0.1074388948E+01   0.0000000000E+00   0.9601555260E+00  -0.2250000000E-02   0.0000000000E+00   0.6750000000E-03   0.7663894793E-01   0.0000000000E+00  -0.4051947397E-01  -0.6625000009E+01  -0.1443289950E-14   0.1313407575E-14   0.4576136284E-15   0.5365426872E-15  -0.1015087071E-14   0.7438894804E-01  -0.3984447402E-01  -0.3984447402E-01  -0.8882378789E-16   0.9650399211E-16  -0.1922708783E-16   0.6625000009E+01
   0.1074388948E+01   0.9601555260E+00   0.9601555260E+00  -0.2250000000E-02   0.6750000000E-03   0.6750000000E-03   0.7663894793E-01  -0.4051947397E-01  -0.4051947397E-01  -0.6625000009E+01   0.2872773285E-14   0.1862684027E-14   0.1261408767E-14   0.9952127220E-16  -0.6760232796E-15   0.7438894803E-01  -0.3984447402E-01  -0.3984447402E-01  -0.9572399430E-16   0.8465897491E-16  -0.4071680335E-16   0.6625000009E+01
   0.0000000000E+00   0.9601555260E+00   0.9601555260E+00   0.0000000000E+00   0.6750000000E-03   0.6750000000E-03   0.0000000000E+00  -0.4051947397E-01  -0.4051947397E-01  -0.6625000009E+01   0.8343108940E-14   0.7867812616E-14  -0.7558081422E-16  -0.1034200065E-14   0.8799826848E-15   0.7438894803E-01  -0.3984447402E-01  -0.3984447402E-01  -0.6812818352E-16  -0.2939675104E-16   0.1163069876E-15   0.6625000009E+01
   0.2148777896E+01   0.0000000000E+00  -0.5567067518E-16  -0.4500000000E-02   0.0000000000E+00  -0.6692308969E-17   0.1532778959E+00   0.0000000000E+00  -0.4897836621E-16  -0.6625000010E+01  -0.1003967741E-14  -0.2778865433E-14  -0.6812954573E-15   0.4143715099E-15  -0.1310598025E-14   0.7438894805E-01  -0.3984447403E-01  -0.3984447403E-01   0.1273179404E-15   0.3289786551E-15  -0.5313855286E-17   0.6625000010E+01
   0.2148777896E+01   0.9601555260E+00  -0.6194009690E-16  -0.4500000000E-02   0.6750000000E-03  -0.8103281979E-17   0.1532778959E+00  -0.4051947397E-01  -0.5383681492E-16  -0.6625000009E+01   0.6692935217E-14   0.1134245584E-13  -0.1742106847E-14   0.5507483861E-15  -0.2100810715E-15   0.7438894804E-01  -0.3984447402E-01  -0.3984447402E-01   0.5460331932E-16   0.1911882251E-15   0.1361155590E-16   0.6625000009E+01
   0.2148777896E+01   0.0000000000E+00   0.9601555260E+00  -0.4500000000E-02   0.0000000000E+00   0.6750000000E-03   0.1532778959E+00   0.0000000000E+00  -0.4051947397E-01  -0.6625000009E+01   0.4952162091E-14   0.4995325651E-14   0.1547400188E-15  -0.2513887941E-14   0.1799403235E-15   0.7438894804E-01  -0.3984447402E-01  -0.3984447402E-01   0.3606437257E-16   0.3112604935E-15  -0.4582799961E-16   0.6625000009E+01
   0.2148777896E+01   0.9601555260E+00   0.9601555260E+00  -0.4500000000E-02   0.6750000000E-03   0.6750000000E-03   0.1532778959E+00  -0.4051947397E-01  -0.4051947397E-01  -0.6625000008E+01  -0.7459202353E-14  -0.1225931444E-13   0.6114947253E-15  -0.6554148133E-15   0.7670880964E-15   0.7438894803E-01  -0.3984447402E-01  -0.3984447402E-01   0.1122867325E-15   0.2167170135E-15   0.9779554538E-16   0.6625000008E+01
     1     2     3     4     5     6     7     8
     2     9    10     3     6    11    12     7
 VARIABLES = X,Y,Z,DU1,DU2,DU3,U1,U2,U3,S11,S22,S33,S12,S13,S23,E11,E22,E33,E12,E13,E23,SMISES
 ZONE, T="0.9900D+01" F=FEPOINT, I=   12 J=    2 ET=BRICK
   0.0000000000E+00   0.0000000000E+00   0.0000000000E+00   0.0000000000E+00   0.0000000000E+00   0.0000000000E+00   0.0000000000E+00   0.0000000000E+00   0.0000000000E+00  -0.7749969524E+01  -0.1524422707E-04  -0.1524422707E-04   0.1047527452E-15  -0.2098795569E-14  -0.9989259621E-15   0.6773486598E-01  -0.3696743299E-01  -0.3696743299E-01   0.3022901074E-17  -0.1621779512E-15  -0.7766239483E-16   0.7749954279E+01
   0.1067734866E+01   0.0000000000E+00  -0.6261273400E-16  -0.6654082061E-02   0.0000000000E+00  -0.4572057228E-17   0.7438894793E-01   0.0000000000E+00  -0.5804067678E-16  -0.7749969523E+01  -0.1524422709E-04  -0.1524422708E-04   0.8443918056E-15   0.1309746518E-14   0.1205032362E-14   0.6773486598E-01  -0.3696743299E-01  -0.3696743299E-01  -0.6200404288E-16   0.6924613805E-16   0.6905903819E-16   0.7749954279E+01
   0.1067734866E+01   0.9630325671E+00  -0.3005419247E-16  -0.6654082061E-02   0.2877041031E-02  -0.3092664361E-17   0.7438894793E-01  -0.3984447397E-01  -0.2696152811E-16  -0.7749969523E+01  -0.1524422708E-04  -0.1524422708E-04   0.5601910743E-15  -0.6740349037E-15   0.2673391593E-15   0.6773486597E-01  -0.3696743299E-01  -0.3696743299E-01  -0.4636792187E-16   0.6288895115E-16   0.4530322768E-16   0.7749954278E+01
   0.0000000000E+00   0.9630325671E+00  -0.4757974489E-16   0.0000000000E+00   0.2877041031E-02   0.1033534733E-17   0.0000000000E+00  -0.3984447397E-01  -0.4861327962E-16  -0.7749969523E+01  -0.1524422709E-04  -0.1524422709E-04   0.8724599930E-15   0.3686034314E-15  -0.1905137395E-15   0.6773486597E-01  -0.3696743299E-01  -0.3696743299E-01   0.6033473151E-16   0.6920608959E-16  -0.2642733752E-16   0.7749954279E+01
   0.0000000000E+00   0.0000000000E+00   0.9630325671E+00   0.0000000000E+00   0.0000000000E+00   0.2877041031E-02   0.0000000000E+00   0.0000000000E+00  -0.3984447397E-01  -0.7749969523E+01  -0.1524422708E-04  -0.1524422708E-04  -0.1071482299E-15   0.1034206017E-14   0.5300753625E-15   0.6773486597E-01  -0.3696743299E-01  -0.3696743299E-01   0.4942679443E-17   0.9396768800E-16   0.3713462477E-17   0.7749954279E+01
   0.1067734866E+01   0.0000000000E+00   0.9630325671E+00  -0.6654082061E-02   0.0000000000E+00   0.2877041031E-02   0.7438894793E-01   0.0000000000E+00  -0.3984447397E-01  -0.7749969523E+01  -0.1524422708E-04  -0.1524422708E-04  -0.7948513591E-15   0.1646365569E-14  -0.9981781968E-15   0.6773486597E-01  -0.3696743299E-01  -0.3696743299E-01  -0.1352781414E-15   0.1698294120E-15  -0.4312303628E-16   0.7749954278E+01
   0.1067734866E+01   0.9630325671E+00   0.9630325671E+00  -0.6654082061E-02   0.2877041031E-02   0.2877041031E-02   0.7438894793E-01  -0.3984447397E-01  -0.3984447397E-01  -0.7749969522E+01  -0.1524422707E-04  -0.1524422707E-04   0.3156625365E-15  -0.4492988614E-15  -0.9240603510E-15   0.6773486596E-01  -0.3696743298E-01  -0.3696743298E-01  -0.1123923073E-15   0.5442496033E-16  -0.2822068537E-16   0.7749954277E+01
   0.0000000000E+00   0.9630325671E+00   0.9630325671E+00   0.0000000000E+00   0.2877041031E-02   0.2877041031E-02   0.0000000000E+00  -0.3984447397E-01  -0.3984447397E-01  -0.7749969522E+01  -0.1524422707E-04  -0.1524422707E-04   0.5721800566E-16  -0.9853912855E-15   0.2907996878E-15   0.6773486596E-01  -0.3696743299E-01  -0.3696743299E-01  -0.6011445870E-16  -0.3445082023E-16   0.1332597429E-15   0.7749954278E+01
   0.2135469732E+01   0.0000000000E+00  -0.6470380570E-16  -0.1330816412E-01   0.0000000000E+00  -0.9033130517E-17   0.1487778959E+00   0.0000000000E+00  -0.5567067518E-16  -0.7749969523E+01  -0.1524422708E-04  -0.1524422708E-04  -0.3512203013E-15   0.2706090072E-15  -0.1049150873E-14   0.6773486597E-01  -0.3696743299E-01  -0.3696743299E-01   0.1074841584E-15   0.2684344052E-15  -0.5001992868E-17   0.7749954279E+01
   0.2135469732E+01   0.9630325671E+00  -0.7103666232E-16  -0.1330816412E-01   0.2877041031E-02  -0.9096565421E-17   0.1487778959E+00  -0.3984447397E-01  -0.6194009690E-16  -0.7749969522E+01  -0.1524422708E-04  -0.1524422707E-04  -0.1151941730E-14  -0.4943805945E-15  -0.3394097201E-16   0.6773486597E-01  -0.3696743299E-01  -0.3696743299E-01   0.3257519452E-16   0.2284818170E-15   0.3113877848E-16   0.7749954278E+01
   0.2135469732E+01   0.0000000000E+00   0.9630325671E+00  -0.1330816412E-01   0.0000000000E+00   0.2877041031E-02   0.1487778959E+00   0.0000000000E+00  -0.3984447397E-01  -0.7749969522E+01  -0.1524422708E-04  -0.1524422708E-04  -0.1220219900E-14  -0.6218925452E-15   0.9287315212E-15   0.6773486597E-01  -0.3696743299E-01  -0.3696743299E-01   0.7180132739E-16   0.2523687537E-15  -0.3893969409E-17   0.7749954278E+01
   0.2135469732E+01   0.9630325671E+00   0.9630325671E+00  -0.1330816412E-01   0.2877041031E-02   0.2877041031E-02   0.1487778959E+00  -0.3984447397E-01  -0.3984447397E-01  -0.7749969521E+01  -0.1524422709E-04  -0.1524422709E-04  -0.7137501253E-16  -0.1540330851E-14   0.1483753588E-14   0.6773486596E-01  -0.3696743298E-01  -0.3696743298E-01   0.6333977731E-16   0.1822969910E-15   0.3632221223E-16   0.7749954277E+01
     1     2     3     4     5     6     7     8
     2     9    10     3     6    11    12     7
 VARIABLES = X,Y,Z,DU1,DU2,DU3,U1,U2,U3,S11,S22,S33,S12,S13,S23,E11,E22,E33,E12,E13,E23,SMISES
 ZONE, T="0.9950D+01" F=FEPOINT, I=   12 J=    2 ET=BRICK
   0.0000000000E+00   0.0000000000E+00   0.0000000000E+00   0.0000000000E+00   0.0000000000E+00   0.0000000000E+00   0.0000000000E+00   0.0000000000E+00   0.0000000000E+00  -0.8875009449E+01   0.4717420537E-05   0.4717420538E-05  -0.2292304670E-16  -0.1063280525E-14  -0.1098382002E-14   0.4440634003E-01  -0.2575317002E-01  -0.2575317002E-01  -0.3099976416E-17  -0.1487056775E-15  -0.9795593083E-16   0.8875014166E+01
   0.1044406340E+01   0.0000000000E+00  -0.5944143740E-16  -0.2332852591E-01   0.0000000000E+00   0.3171296602E-17   0.6773486587E-01   0.0000000000E+00  -0.6261273400E-16  -0.8875009449E+01   0.4717420525E-05   0.4717420525E-05  -0.3576640443E-15   0.2778888297E-15   0.1018223139E-14   0.4440634003E-01  -0.2575317002E-01  -0.2575317002E-01  -0.7292213489E-16   0.6613015026E-16   0.6316509731E-16   0.8875014166E+01
   0.1044406340E+01   0.9742468300E+00  -0.2537737167E-16  -0.2332852591E-01   0.1121426295E-01   0.4676820808E-17   0.6773486587E-01  -0.3696743294E-01  -0.3005419247E-16  -0.8875009447E+01   0.4717420530E-05   0.4717420529E-05  -0.1188278898E-14   0.8243602559E-15   0.1634348276E-16   0.4440634003E-01  -0.2575317002E-01  -0.2575317002E-01  -0.6259587099E-16   0.5951149854E-16   0.3677193157E-16   0.8875014165E+01
   0.0000000000E+00   0.9742468300E+00  -0.5062185742E-16   0.0000000000E+00   0.1121426295E-01  -0.3042112539E-17   0.0000000000E+00  -0.3696743294E-01  -0.4757974489E-16  -0.8875009448E+01   0.4717420519E-05   0.4717420518E-05   0.8612689202E-15   0.8688517833E-15   0.1646549488E-15   0.4440634003E-01  -0.2575317002E-01  -0.2575317002E-01   0.6967779664E-16   0.7939618722E-16  -0.2231182348E-16   0.8875014165E+01
   0.0000000000E+00   0.0000000000E+00   0.9742468300E+00   0.0000000000E+00   0.0000000000E+00   0.1121426295E-01   0.0000000000E+00   0.0000000000E+00  -0.3696743294E-01  -0.8875009448E+01   0.4717420525E-05   0.4717420523E-05  -0.6074576547E-16   0.8000922746E-15   0.8663780720E-15   0.4440634003E-01  -0.2575317002E-01  -0.2575317002E-01  -0.7809984506E-18   0.4434171411E-16   0.3353450872E-16   0.8875014165E+01
   0.1044406340E+01   0.0000000000E+00   0.9742468300E+00  -0.2332852591E-01   0.0000000000E+00   0.1121426295E-01   0.6773486587E-01   0.0000000000E+00  -0.3696743294E-01  -0.8875009447E+01   0.4717420526E-05   0.4717420527E-05  -0.5401695081E-15   0.8204815286E-15  -0.1115031974E-14   0.4440634003E-01  -0.2575317002E-01  -0.2575317002E-01  -0.1108172756E-15   0.1768841359E-15  -0.2965893020E-16   0.8875014165E+01
   0.1044406340E+01   0.9742468300E+00   0.9742468300E+00  -0.2332852591E-01   0.1121426295E-01   0.1121426295E-01   0.6773486587E-01  -0.3696743294E-01  -0.3696743294E-01  -0.8875009446E+01   0.4717420532E-05   0.4717420530E-05  -0.3423233004E-15  -0.5405742725E-15  -0.2222414478E-15   0.4440634002E-01  -0.2575317002E-01  -0.2575317002E-01  -0.1646956950E-15   0.6429108472E-16  -0.3222717647E-16   0.8875014164E+01
   0.0000000000E+00   0.9742468300E+00   0.9742468300E+00   0.0000000000E+00   0.1121426295E-01   0.1121426295E-01   0.0000000000E+00  -0.3696743294E-01  -0.3696743294E-01  -0.8875009447E+01   0.4717420533E-05   0.4717420534E-05  -0.1318937878E-15  -0.8785918441E-15   0.3631109206E-15   0.4440634002E-01  -0.2575317002E-01  -0.2575317002E-01  -0.3165606380E-16   0.9691126764E-17   0.1193519772E-15   0.8875014164E+01
   0.2088812680E+01   0.0000000000E+00  -0.5054897408E-16  -0.4665705182E-01   0.0000000000E+00   0.1415483162E-16   0.1354697317E+00   0.0000000000E+00  -0.6470380570E-16  -0.8875009448E+01   0.4717420525E-05   0.4717420527E-05   0.1495243285E-14   0.2131102886E-14  -0.4394659416E-15   0.4440634003E-01  -0.2575317002E-01  -0.2575317002E-01   0.1582759717E-15   0.1993525326E-15  -0.7589619735E-17   0.8875014166E+01
   0.2088812680E+01   0.9742468300E+00  -0.5683313197E-16  -0.4665705182E-01   0.1121426295E-01   0.1420353035E-16   0.1354697317E+00  -0.3696743294E-01  -0.7103666232E-16  -0.8875009447E+01   0.4717420539E-05   0.4717420541E-05  -0.5925192602E-15  -0.3316391069E-14   0.1255168151E-14   0.4440634003E-01  -0.2575317002E-01  -0.2575317002E-01   0.6379724759E-16   0.1404783051E-15   0.7100747609E-16   0.8875014165E+01
   0.2088812680E+01   0.0000000000E+00   0.9742468300E+00  -0.4665705182E-01   0.0000000000E+00   0.1121426295E-01   0.1354697317E+00   0.0000000000E+00  -0.3696743294E-01  -0.8875009447E+01   0.4717420532E-05   0.4717420532E-05  -0.3623028600E-15  -0.1314592269E-14  -0.2894966817E-15   0.4440634003E-01  -0.2575317002E-01  -0.2575317002E-01   0.5342574234E-16   0.2307341998E-15  -0.3075530749E-16   0.8875014165E+01
   0.2088812680E+01   0.9742468300E+00   0.9742468300E+00  -0.4665705182E-01   0.1121426295E-01   0.1121426295E-01   0.1354697317E+00  -0.3696743294E-01  -0.3696743294E-01  -0.8875009446E+01   0.4717420513E-05   0.4717420510E-05   0.8235456626E-15  -0.2608567412E-14   0.4852424324E-15   0.4440634002E-01  -0.2575317002E-01  -0.2575317002E-01   0.1561574224E-15   0.2057625900E-15   0.5376966651E-16   0.8875014164E+01
     1     2     3     4     5     6     7     8
     2     9    10     3     6    11    12     7
 VARIABLES = X,Y,Z,DU1,DU2,DU3,U1,U2,U3,S11,S22,S33,S12,S13,S23,E11,E22,E33,E12,E13,E23,SMISES
 ZONE, T="0.1000D+02" F=FEPOINT, I=   12 J=    2 ET=BRICK
   0.0000000000E+00   0.0000000000E+00   0.0000000000E+00   0.0000000000E+00   0.0000000000E+00   0.0000000000E+00   0.0000000000E+00   0.0000000000E+00   0.0000000000E+00  -0.1000000550E+02   0.2740786200E-05   0.2740786199E-05   0.4260153317E-16  -0.1073547710E-14  -0.5991864763E-15   0.1965645776E-01  -0.1382822889E-01  -0.1382822889E-01  -0.2453510878E-17  -0.1609633324E-15  -0.1025411119E-15   0.1000000824E+02
   0.1019656458E+01   0.0000000000E+00  -0.6370001262E-16  -0.2474988223E-01   0.0000000000E+00  -0.4258575214E-17   0.4440633996E-01   0.0000000000E+00  -0.5944143740E-16  -0.1000000550E+02   0.2740786190E-05   0.2740786191E-05   0.9282250023E-16   0.1525116726E-16   0.1140497618E-14   0.1965645776E-01  -0.1382822889E-01  -0.1382822889E-01  -0.6641793126E-16   0.5339678048E-16   0.8212443073E-16   0.1000000824E+02
   0.1019656458E+01   0.9861717711E+00  -0.2453546542E-16  -0.2474988223E-01   0.1192494112E-01   0.8419062424E-18   0.4440633996E-01  -0.2575316998E-01  -0.2537737167E-16  -0.1000000550E+02   0.2740786188E-05   0.2740786186E-05  -0.8088030659E-15   0.5937688691E-15   0.6252188222E-16   0.1965645776E-01  -0.1382822888E-01  -0.1382822888E-01  -0.9627672448E-16   0.1137453928E-15   0.2656241314E-16   0.1000000824E+02
   0.0000000000E+00   0.9861717711E+00  -0.5007478893E-16   0.0000000000E+00   0.1192494112E-01   0.5470684965E-18   0.0000000000E+00  -0.2575316998E-01  -0.5062185742E-16  -0.1000000550E+02   0.2740786189E-05   0.2740786189E-05   0.4957111131E-15   0.9749473712E-15  -0.9683699134E-15   0.1965645776E-01  -0.1382822889E-01  -0.1382822889E-01   0.9935009800E-16   0.8249939328E-16  -0.4848405138E-16   0.1000000824E+02
   0.0000000000E+00   0.0000000000E+00   0.9861717711E+00   0.0000000000E+00   0.0000000000E+00   0.1192494112E-01   0.0000000000E+00   0.0000000000E+00  -0.2575316998E-01  -0.1000000550E+02   0.2740786187E-05   0.2740786186E-05  -0.3978904183E-16   0.8178233204E-16   0.2761162546E-15   0.1965645776E-01  -0.1382822889E-01  -0.1382822889E-01   0.1437133830E-16   0.5790983366E-16   0.5055140698E-16   0.1000000824E+02
   0.1019656458E+01   0.0000000000E+00   0.9861717711E+00  -0.2474988223E-01   0.0000000000E+00   0.1192494112E-01   0.4440633996E-01   0.0000000000E+00  -0.2575316998E-01  -0.1000000550E+02   0.2740786190E-05   0.2740786191E-05  -0.1259792913E-15   0.1185474739E-14  -0.3374839972E-15   0.1965645776E-01  -0.1382822888E-01  -0.1382822888E-01  -0.1225330364E-15   0.1923814398E-15  -0.3967617728E-16   0.1000000824E+02
   0.1019656458E+01   0.9861717711E+00   0.9861717711E+00  -0.2474988223E-01   0.1192494112E-01   0.1192494112E-01   0.4440633996E-01  -0.2575316998E-01  -0.2575316998E-01  -0.1000000549E+02   0.2740786200E-05   0.2740786198E-05   0.6772357252E-16  -0.9433448274E-15  -0.7134237859E-15   0.1965645776E-01  -0.1382822888E-01  -0.1382822888E-01  -0.8713235101E-16   0.4513913611E-16  -0.4893610403E-16   0.1000000824E+02
   0.0000000000E+00   0.9861717711E+00   0.9861717711E+00   0.0000000000E+00   0.1192494112E-01   0.1192494112E-01   0.0000000000E+00  -0.2575316998E-01  -0.2575316998E-01  -0.1000000549E+02   0.2740786192E-05   0.2740786193E-05   0.2441951913E-15  -0.8617035986E-15   0.5724738195E-15   0.1965645776E-01  -0.1382822888E-01  -0.1382822888E-01  -0.6778497477E-16  -0.5025081546E-17   0.9888137916E-16   0.1000000824E+02
   0.2039312915E+01   0.0000000000E+00  -0.6044512479E-16  -0.4949976447E-01   0.0000000000E+00  -0.9896150706E-17   0.8881267993E-01   0.0000000000E+00  -0.5054897408E-16  -0.1000000550E+02   0.2740786199E-05   0.2740786199E-05   0.2328227722E-16   0.7473372424E-15  -0.3666958411E-15   0.1965645776E-01  -0.1382822889E-01  -0.1382822889E-01   0.1610989171E-15   0.3185303131E-15  -0.1100966675E-16   0.1000000824E+02
   0.2039312915E+01   0.9861717711E+00  -0.6863530715E-16  -0.4949976447E-01   0.1192494112E-01  -0.1180217518E-16   0.8881267993E-01  -0.2575316998E-01  -0.5683313197E-16  -0.1000000550E+02   0.2740786189E-05   0.2740786191E-05  -0.2077046201E-14  -0.1056141335E-14   0.8480211349E-15   0.1965645776E-01  -0.1382822888E-01  -0.1382822888E-01   0.1951950881E-16   0.6790244234E-16   0.7514059375E-16   0.1000000824E+02
   0.2039312915E+01   0.0000000000E+00   0.9861717711E+00  -0.4949976447E-01   0.0000000000E+00   0.1192494112E-01   0.8881267993E-01   0.0000000000E+00  -0.2575316998E-01  -0.1000000550E+02   0.2740786192E-05   0.2740786193E-05   0.9702069699E-15  -0.1942515372E-14  -0.6918388518E-15   0.1965645776E-01  -0.1382822888E-01  -0.1382822888E-01   0.1014252563E-15   0.1951203145E-15  -0.2994604405E-16   0.1000000824E+02
   0.2039312915E+01   0.9861717711E+00   0.9861717711E+00  -0.4949976447E-01   0.1192494112E-01   0.1192494112E-01   0.8881267993E-01  -0.2575316998E-01  -0.2575316998E-01  -0.1000000549E+02   0.2740786184E-05   0.2740786183E-05   0.1829523660E-14   0.2808746233E-15   0.4675046330E-15   0.1965645776E-01  -0.1382822888E-01  -0.1382822888E-01   0.1368629721E-15   0.2683747604E-15   0.7341051618E-16   0.1000000824E+02
     1     2     3     4     5     6     7     8
     2     9    10     3     6    11    12     7
