 VARIABLES = X,Y,Z,DU1,DU2,DU3,U1,U2,U3,S11,S22,S33,S12,S13,S23,E11,E22,E33,E12,E13,E23,SMISES
 ZONE, T="0.5000D-01" F=FEPOINT, I=   12 J=    2 ET=BRICK
   0.0000000000E+00   0.0000000000E+00   0.0000000000E+00   0.0000000000E+00   0.0000000000E+00   0.0000000000E+00   0.0000000000E+00   0.0000000000E+00   0.0000000000E+00   0.6250000010E+00   0.1403880394E-15   0.4727790626E-16   0.2024690672E-16  -0.6547995757E-16   0.1694456755E-15   0.1250000002E-02  -0.3750000006E-03  -0.3750000006E-03   0.1196683748E-18  -0.6922786736E-18   0.1581597100E-17   0.6250000010E+00
   0.1001250000E+01   0.0000000000E+00  -0.8861552815E-18   0.1250000000E-02   0.0000000000E+00  -0.8861552815E-18   0.0000000000E+00   0.0000000000E+00   0.0000000000E+00   0.6250000010E+00  -0.5501294861E-16  -0.2686240778E-15   0.1275116905E-15   0.8216048826E-16   0.3638684701E-16   0.1250000002E-02  -0.3750000006E-03  -0.3750000006E-03   0.1507920499E-17   0.1005305777E-17   0.3301428298E-18   0.6250000010E+00
   0.1001250000E+01   0.9996250000E+00  -0.6674214306E-18   0.1250000000E-02  -0.3750000000E-03  -0.6674214306E-18   0.0000000000E+00   0.0000000000E+00   0.0000000000E+00   0.6250000009E+00   0.2973760231E-15  -0.1238322251E-16   0.7971812699E-16   0.6001782610E-16  -0.1365973033E-15   0.1250000002E-02  -0.3750000005E-03  -0.3750000005E-03   0.9231412917E-18   0.1481382510E-18  -0.1373789310E-17   0.6250000009E+00
   0.0000000000E+00   0.9996250000E+00   0.8458947467E-18   0.0000000000E+00  -0.3750000000E-03   0.8458947467E-18   0.0000000000E+00   0.0000000000E+00   0.0000000000E+00   0.6250000009E+00  -0.2744509590E-15  -0.5373148867E-15   0.5324882157E-16  -0.2146090331E-15  -0.4895461084E-17   0.1250000002E-02  -0.3750000005E-03  -0.3750000005E-03   0.5067513608E-18  -0.2233251430E-17   0.1706568077E-18   0.6250000009E+00
   0.0000000000E+00   0.0000000000E+00   0.9996250000E+00   0.0000000000E+00   0.0000000000E+00  -0.3750000000E-03   0.0000000000E+00   0.0000000000E+00   0.0000000000E+00   0.6250000009E+00   0.2101416892E-15   0.4028026369E-15  -0.3375664357E-16  -0.1784225249E-15   0.6361446144E-16   0.1250000002E-02  -0.3750000005E-03  -0.3750000005E-03   0.5920961274E-19  -0.1635207258E-17   0.7249755543E-18   0.6250000009E+00
   0.1001250000E+01   0.0000000000E+00   0.9996250000E+00   0.1250000000E-02   0.0000000000E+00  -0.3750000000E-03   0.0000000000E+00   0.0000000000E+00   0.0000000000E+00   0.6250000009E+00   0.1065743505E-16   0.8784815478E-16   0.1581647380E-15   0.1339559004E-15   0.4506866992E-16   0.1250000002E-02  -0.3750000005E-03  -0.3750000005E-03   0.8243558286E-18   0.9179995236E-18   0.3122459859E-18   0.6250000009E+00
   0.1001250000E+01   0.9996250000E+00   0.9996250000E+00   0.1250000000E-02  -0.3750000000E-03  -0.3750000000E-03   0.0000000000E+00   0.0000000000E+00   0.0000000000E+00   0.6250000008E+00  -0.4213153585E-16   0.1247665939E-15   0.4061282471E-16  -0.5657019558E-16  -0.1295504609E-15   0.1250000002E-02  -0.3750000005E-03  -0.3750000005E-03   0.6120271167E-18   0.8713452618E-18  -0.1239148700E-17   0.6250000008E+00
   0.0000000000E+00   0.9996250000E+00   0.9996250000E+00   0.0000000000E+00  -0.3750000000E-03  -0.3750000000E-03   0.0000000000E+00   0.0000000000E+00   0.0000000000E+00   0.6250000008E+00   0.3198028811E-15   0.3289657484E-15  -0.5167623818E-17  -0.2140280008E-15  -0.9512867358E-16   0.1250000002E-02  -0.3750000005E-03  -0.3750000005E-03  -0.1485701535E-18  -0.2891597594E-17  -0.7880093316E-18   0.6250000008E+00
   0.2002500000E+01   0.0000000000E+00  -0.4263775515E-17   0.2500000000E-02   0.0000000000E+00  -0.4263775515E-17   0.0000000000E+00   0.0000000000E+00   0.0000000000E+00   0.6250000009E+00  -0.4169473764E-15  -0.5188556620E-15   0.5421617291E-15   0.2150048350E-15   0.7988560804E-16   0.1250000002E-02  -0.3750000006E-03  -0.3750000006E-03   0.5615512848E-17   0.3171226089E-17   0.7781388598E-18   0.6250000009E+00
   0.2002500000E+01   0.9996250000E+00  -0.3827596305E-17   0.2500000000E-02  -0.3750000000E-03  -0.3827596305E-17   0.0000000000E+00   0.0000000000E+00   0.0000000000E+00   0.6250000009E+00   0.3919139672E-15   0.4726408672E-15   0.3607171423E-15  -0.2832000887E-15   0.4028711840E-17   0.1250000002E-02  -0.3750000005E-03  -0.3750000005E-03   0.3753405417E-17  -0.3600769119E-17   0.2450306805E-18   0.6250000009E+00
   0.2002500000E+01   0.0000000000E+00   0.9996250000E+00   0.2500000000E-02   0.0000000000E+00  -0.3750000000E-03   0.0000000000E+00   0.0000000000E+00   0.0000000000E+00   0.6250000009E+00   0.1785880773E-19   0.1493196708E-15  -0.1301342398E-15   0.3599670147E-15   0.1007740957E-15   0.1250000002E-02  -0.3750000005E-03  -0.3750000005E-03  -0.1282108567E-17   0.1162721346E-17   0.1321236722E-17   0.6250000009E+00
   0.2002500000E+01   0.9996250000E+00   0.9996250000E+00   0.2500000000E-02  -0.3750000000E-03  -0.3750000000E-03   0.0000000000E+00   0.0000000000E+00   0.0000000000E+00   0.6250000008E+00  -0.2375325346E-15  -0.9702887510E-16  -0.1318195906E-15  -0.1111223166E-15   0.3993192823E-16   0.1250000002E-02  -0.3750000005E-03  -0.3750000005E-03  -0.1417136859E-17  -0.2195410811E-17  -0.2483820677E-18   0.6250000008E+00
     1     2     3     4     5     6     7     8
     2     9    10     3     6    11    12     7
 VARIABLES = X,Y,Z,DU1,DU2,DU3,U1,U2,U3,S11,S22,S33,S12,S13,S23,E11,E22,E33,E12,E13,E23,SMISES
 ZONE, T="0.1000D+00" F=FEPOINT, I=   12 J=    2 ET=BRICK
   0.0000000000E+00   0.0000000000E+00   0.0000000000E+00   0.0000000000E+00   0.0000000000E+00   0.0000000000E+00   0.0000000000E+00   0.0000000000E+00   0.0000000000E+00   0.1250000002E+01   0.2081667985E-15   0.1263946424E-15   0.2248535260E-16  -0.2172766619E-16   0.1155884943E-16   0.2500000004E-02  -0.7500000012E-03  -0.7500000012E-03   0.1635010664E-18  -0.4391088020E-18  -0.5264857909E-19   0.1250000002E+01
   0.1002500000E+01   0.0000000000E+00  -0.1343838928E-18   0.1250000000E-02   0.0000000000E+00   0.7517713887E-18   0.1250000000E-02   0.0000000000E+00  -0.8861552815E-18   0.1250000002E+01   0.1618185163E-15   0.1858555427E-15   0.2667439009E-16   0.1518533131E-16  -0.5244970884E-17   0.2500000004E-02  -0.7500000012E-03  -0.7500000012E-03   0.4181068643E-18   0.4718972205E-18  -0.4595312775E-19   0.1250000002E+01
   0.1002500000E+01   0.9992500000E+00  -0.1137201146E-18   0.1250000000E-02  -0.3750000000E-03   0.5537013160E-18   0.1250000000E-02  -0.3750000000E-03  -0.6674214306E-18   0.1250000002E+01   0.3047773819E-16   0.6440711781E-17   0.3907298793E-16  -0.3533287187E-17   0.1578699605E-16   0.2500000004E-02  -0.7500000011E-03  -0.7500000011E-03   0.5196708039E-18   0.4269772075E-18   0.8476577809E-19   0.1250000002E+01
   0.0000000000E+00   0.9992500000E+00  -0.1073576653E-19   0.0000000000E+00  -0.3750000000E-03  -0.8566305133E-18   0.0000000000E+00  -0.3750000000E-03   0.8458947467E-18   0.1250000002E+01  -0.1008630320E-15  -0.1087983083E-15   0.1360560420E-16   0.2667842668E-16  -0.6691169848E-16   0.2500000004E-02  -0.7500000011E-03  -0.7500000011E-03   0.8484242140E-19  -0.4112998075E-18  -0.4875488487E-18   0.1250000002E+01
   0.0000000000E+00   0.0000000000E+00   0.9992500000E+00   0.0000000000E+00   0.0000000000E+00  -0.3750000000E-03   0.0000000000E+00   0.0000000000E+00  -0.3750000000E-03   0.1250000002E+01   0.1759633688E-16  -0.1849926531E-15  -0.3528866352E-16   0.2040483709E-16   0.1947984916E-16   0.2500000004E-02  -0.7500000011E-03  -0.7500000011E-03  -0.2224859738E-19  -0.1989683415E-18   0.2938237973E-18   0.1250000002E+01
   0.1002500000E+01   0.0000000000E+00   0.9992500000E+00   0.1250000000E-02   0.0000000000E+00  -0.3750000000E-03   0.1250000000E-02   0.0000000000E+00  -0.3750000000E-03   0.1250000002E+01  -0.1008630399E-15  -0.1905704554E-15   0.1568945952E-15   0.4468449048E-16   0.7146174318E-17   0.2500000004E-02  -0.7500000011E-03  -0.7500000011E-03   0.9421967538E-18   0.8176027663E-18  -0.1711786558E-18   0.1250000002E+01
   0.1002500000E+01   0.9992500000E+00   0.9992500000E+00   0.1250000000E-02  -0.3750000000E-03  -0.3750000000E-03   0.1250000000E-02  -0.3750000000E-03  -0.3750000000E-03   0.1250000002E+01   0.1008630399E-15   0.1905704554E-15   0.3759852242E-16  -0.8729120265E-16  -0.2619398283E-16   0.2500000003E-02  -0.7500000010E-03  -0.7500000010E-03   0.5447352393E-18   0.4015436045E-18  -0.1408396980E-18   0.1250000002E+01
   0.0000000000E+00   0.9992500000E+00   0.9992500000E+00   0.0000000000E+00  -0.3750000000E-03  -0.3750000000E-03   0.0000000000E+00  -0.3750000000E-03  -0.3750000000E-03   0.1250000002E+01   0.9442234657E-16   0.1545149216E-15   0.4406487722E-16  -0.9507655327E-17   0.6060336456E-16   0.2500000003E-02  -0.7500000010E-03  -0.7500000010E-03   0.3814194233E-18  -0.4685110468E-18   0.8001983997E-18   0.1250000002E+01
   0.2005000000E+01   0.0000000000E+00  -0.7517419480E-18   0.2500000000E-02   0.0000000000E+00   0.3512033567E-17   0.2500000000E-02   0.0000000000E+00  -0.4263775515E-17   0.1250000002E+01   0.8970740860E-16   0.1585981627E-15   0.9331932886E-16  -0.2282340265E-16  -0.4127510182E-17   0.2500000004E-02  -0.7500000011E-03  -0.7500000011E-03   0.6850662809E-18  -0.1824223496E-17  -0.1603061457E-18   0.1250000002E+01
   0.2005000000E+01   0.9992500000E+00  -0.7469635466E-18   0.2500000000E-02  -0.3750000000E-03   0.3080632758E-17   0.2500000000E-02  -0.3750000000E-03  -0.3827596305E-17   0.1250000002E+01  -0.1970111751E-15  -0.1761944969E-15  -0.2430184006E-16  -0.4678567659E-16   0.1288541379E-16   0.2500000003E-02  -0.7500000010E-03  -0.7500000010E-03  -0.2074471044E-18  -0.2196359170E-17   0.4369159781E-18   0.1250000002E+01
   0.2005000000E+01   0.0000000000E+00   0.9992500000E+00   0.2500000000E-02   0.0000000000E+00  -0.3750000000E-03   0.2500000000E-02   0.0000000000E+00  -0.3750000000E-03   0.1250000002E+01  -0.2450852423E-15   0.5577800538E-17  -0.3384992853E-16  -0.2525729753E-16  -0.6213169997E-16   0.2500000003E-02  -0.7500000010E-03  -0.7500000010E-03   0.7446958140E-18  -0.4880045553E-17  -0.1584368126E-18   0.1250000002E+01
   0.2005000000E+01   0.9992500000E+00   0.9992500000E+00   0.2500000000E-02  -0.3750000000E-03  -0.3750000000E-03   0.2500000000E-02  -0.3750000000E-03  -0.3750000000E-03   0.1250000002E+01  -0.2515259502E-15  -0.3596925780E-15   0.5559376015E-16   0.1344223132E-15  -0.3643695090E-16   0.2500000003E-02  -0.7500000010E-03  -0.7500000010E-03   0.2731713444E-18   0.6055699822E-18  -0.1196196324E-17   0.1250000002E+01
     1     2     3     4     5     6     7     8
     2     9    10     3     6    11    12     7
 VARIABLES = X,Y,Z,DU1,DU2,DU3,U1,U2,U3,S11,S22,S33,S12,S13,S23,E11,E22,E33,E12,E13,E23,SMISES
 ZONE, T="0.1500D+00" F=FEPOINT, I=   12 J=    2 ET=BRICK
   0.0000000000E+00   0.0000000000E+00   0.0000000000E+00   0.0000000000E+00   0.0000000000E+00   0.0000000000E+00   0.0000000000E+00   0.0000000000E+00   0.0000000000E+00   0.1875000003E+01   0.5551113884E-16   0.7310746494E-16   0.2216380958E-16  -0.8923831970E-16   0.2272800131E-16   0.3750000006E-02  -0.1125000002E-02  -0.1125000002E-02   0.2505496712E-18  -0.1310938074E-18  -0.6985236033E-19   0.1875000003E+01
   0.1003750000E+01   0.0000000000E+00  -0.5425809176E-18   0.1250000000E-02   0.0000000000E+00  -0.4081970248E-18   0.2500000000E-02   0.0000000000E+00  -0.1343838928E-18   0.1875000003E+01   0.5551113884E-16   0.5551113884E-16  -0.6083532275E-16   0.3523995822E-16   0.2737465927E-17   0.3750000006E-02  -0.1125000002E-02  -0.1125000002E-02  -0.1492837074E-17  -0.8389760189E-18  -0.9833090571E-19   0.1875000003E+01
   0.1003750000E+01   0.9988750000E+00  -0.4132315135E-18   0.1250000000E-02  -0.3750000000E-03  -0.2995113990E-18   0.2500000000E-02  -0.7500000000E-03  -0.1137201146E-18   0.1875000003E+01  -0.2775557191E-15  -0.2775557191E-15  -0.4170163575E-16  -0.7622267113E-17   0.1002586962E-15   0.3750000005E-02  -0.1125000002E-02  -0.1125000002E-02  -0.2190197547E-17   0.1702905824E-17   0.7811149837E-18   0.1875000003E+01
   0.0000000000E+00   0.9988750000E+00  -0.7283294488E-19   0.0000000000E+00  -0.3750000000E-03  -0.6209717835E-19   0.0000000000E+00  -0.7500000000E-03  -0.1073576653E-19   0.1875000003E+01  -0.1719777680E-15  -0.2376481596E-15  -0.1636943661E-16   0.3096412625E-16  -0.1280574786E-15   0.3750000005E-02  -0.1125000002E-02  -0.1125000002E-02   0.1579918128E-18  -0.8376996850E-18  -0.9571735431E-18   0.1875000003E+01
   0.0000000000E+00   0.0000000000E+00   0.9988750000E+00   0.0000000000E+00   0.0000000000E+00  -0.3750000000E-03   0.0000000000E+00   0.0000000000E+00  -0.7500000000E-03   0.1875000003E+01   0.3319989868E-16   0.2848497793E-16  -0.3994761398E-16  -0.5742528884E-16  -0.2235612298E-16   0.3750000005E-02  -0.1125000002E-02  -0.1125000002E-02  -0.1572998924E-18  -0.1640132491E-18   0.5881806702E-18   0.1875000003E+01
   0.1003750000E+01   0.0000000000E+00   0.9988750000E+00   0.1250000000E-02   0.0000000000E+00  -0.3750000000E-03   0.2500000000E-02   0.0000000000E+00  -0.7500000000E-03   0.1875000003E+01  -0.1110222902E-15  -0.1110222902E-15   0.9396711774E-16   0.1157534107E-15   0.1190942198E-16   0.3750000005E-02  -0.1125000002E-02  -0.1125000002E-02   0.1037205422E-17  -0.5671329619E-18  -0.1983109403E-19   0.1875000003E+01
   0.1003750000E+01   0.9988750000E+00   0.9988750000E+00   0.1250000000E-02  -0.3750000000E-03  -0.3750000000E-03   0.2500000000E-02  -0.7500000000E-03  -0.7500000000E-03   0.1875000002E+01   0.2220445678E-15   0.2220445678E-15  -0.1240693635E-16  -0.9669256187E-16   0.8891891561E-17   0.3750000005E-02  -0.1125000001E-02  -0.1125000001E-02   0.7628076123E-18   0.9413741684E-18   0.7203039311E-18   0.1875000002E+01
   0.0000000000E+00   0.9988750000E+00   0.9988750000E+00   0.0000000000E+00  -0.3750000000E-03  -0.3750000000E-03   0.0000000000E+00  -0.7500000000E-03  -0.7500000000E-03   0.1875000003E+01  -0.2775557210E-16  -0.1015924600E-16   0.1037616425E-15  -0.6760067731E-16   0.6575163686E-16   0.3750000005E-02  -0.1125000002E-02  -0.1125000002E-02   0.1370464535E-17  -0.5588676065E-18  -0.8062035503E-18   0.1875000003E+01
   0.2007500000E+01   0.0000000000E+00  -0.1743531786E-17   0.2500000000E-02   0.0000000000E+00  -0.9917898380E-18   0.5000000000E-02   0.0000000000E+00  -0.7517419480E-18   0.1875000003E+01   0.3885779968E-15   0.3709816707E-15  -0.9475997537E-16  -0.3219812327E-15  -0.8221185830E-16   0.3750000006E-02  -0.1125000002E-02  -0.1125000002E-02  -0.1765914366E-17  -0.5820734129E-17  -0.9065649389E-18   0.1875000003E+01
   0.2007500000E+01   0.9988750000E+00  -0.2131053715E-17   0.2500000000E-02  -0.3750000000E-03  -0.1384090169E-17   0.5000000000E-02  -0.7500000000E-03  -0.7469635466E-18   0.1875000003E+01  -0.5006681226E-16   0.1560357927E-16  -0.1145313318E-15   0.1486297984E-15  -0.2344876003E-16   0.3750000005E-02  -0.1125000002E-02  -0.1125000002E-02  -0.1334683414E-17   0.1006222362E-17   0.3801115398E-19   0.1875000003E+01
   0.2007500000E+01   0.0000000000E+00   0.9988750000E+00   0.2500000000E-02   0.0000000000E+00  -0.3750000000E-03   0.5000000000E-02   0.0000000000E+00  -0.7500000000E-03   0.1875000003E+01  -0.5883113369E-15  -0.5835964162E-15   0.1523352984E-15  -0.2309439161E-15  -0.1918099360E-16   0.3750000005E-02  -0.1125000002E-02  -0.1125000002E-02   0.4215686966E-17  -0.4939378003E-17  -0.3106123025E-18   0.1875000003E+01
   0.2007500000E+01   0.9988750000E+00   0.9988750000E+00   0.2500000000E-02  -0.3750000000E-03  -0.3750000000E-03   0.5000000000E-02  -0.7500000000E-03  -0.7500000000E-03   0.1875000002E+01   0.1387778498E-15   0.1211815237E-15   0.2580000576E-15   0.3965248567E-15   0.3301090237E-16   0.3750000005E-02  -0.1125000001E-02  -0.1125000001E-02   0.3942941941E-17   0.6339912707E-17   0.5455106847E-18   0.1875000002E+01
     1     2     3     4     5     6     7     8
     2     9    10     3     6    11    12     7
 VARIABLES = X,Y,Z,DU1,DU2,DU3,U1,U2,U3,S11,S22,S33,S12,S13,S23,E11,E22,E33,E12,E13,E23,SMISES
 ZONE, T="0.2000D+00" F=FEPOINT, I=   12 J=    2 ET=BRICK
   0.0000000000E+00   0.0000000000E+00   0.0000000000E+00   0.0000000000E+00   0.0000000000E+00   0.0000000000E+00   0.0000000000E+00   0.0000000000E+00   0.0000000000E+00   0.2500000004E+01  -0.6158717716E-16  -0.1063073942E-15   0.1401685855E-16  -0.1373796437E-15  -0.3162705566E-17   0.5000000008E-02  -0.1500000002E-02  -0.1500000002E-02  -0.5347840945E-19  -0.1261806129E-17  -0.6024249565E-18   0.2500000004E+01
   0.1005000000E+01   0.0000000000E+00  -0.7770318051E-18   0.1250000000E-02   0.0000000000E+00  -0.2344508875E-18   0.3750000000E-02   0.0000000000E+00  -0.5425809176E-18   0.2500000004E+01  -0.1746999098E-15  -0.1719777495E-15  -0.1682984024E-15   0.6830161204E-16  -0.6253512083E-17   0.5000000008E-02  -0.1500000002E-02  -0.1500000002E-02  -0.2893625117E-17  -0.1724952534E-17   0.2095193124E-18   0.2500000004E+01
   0.1005000000E+01   0.9985000000E+00  -0.7037358453E-18   0.1250000000E-02  -0.3750000000E-03  -0.2905043318E-18   0.3750000000E-02  -0.1125000000E-02  -0.4132315135E-18   0.2500000004E+01  -0.6567040213E-16   0.2031848342E-16  -0.1260797380E-15   0.5697469508E-16   0.3920836965E-16   0.5000000007E-02  -0.1500000002E-02  -0.1500000002E-02  -0.2398007211E-17   0.7229491284E-18   0.2762763537E-18   0.2500000004E+01
   0.0000000000E+00   0.9985000000E+00  -0.1531832935E-18   0.0000000000E+00  -0.3750000000E-03  -0.8035034862E-19   0.0000000000E+00  -0.1125000000E-02  -0.7283294488E-19   0.2500000004E+01  -0.4878130105E-15  -0.3689889284E-15   0.9643904368E-17  -0.7306894823E-17  -0.1382762640E-15   0.5000000007E-02  -0.1500000002E-02  -0.1500000002E-02  -0.6148312152E-18  -0.1621618039E-18   0.5318595734E-19   0.2500000004E+01
   0.0000000000E+00   0.0000000000E+00   0.9985000000E+00   0.0000000000E+00   0.0000000000E+00  -0.3750000000E-03   0.0000000000E+00   0.0000000000E+00  -0.1125000000E-02   0.2500000004E+01  -0.2466870303E-16  -0.8525946620E-16  -0.4157504969E-16  -0.7081144970E-16   0.1788120138E-16   0.5000000007E-02  -0.1500000002E-02  -0.1500000002E-02   0.5484094090E-18  -0.3700320488E-18   0.8331807048E-18   0.2500000004E+01
   0.1005000000E+01   0.0000000000E+00   0.9985000000E+00   0.1250000000E-02   0.0000000000E+00  -0.3750000000E-03   0.3750000000E-02   0.0000000000E+00  -0.1125000000E-02   0.2500000004E+01   0.1618185032E-15   0.1516592615E-15   0.3359551050E-16   0.1363043840E-15   0.4271647432E-16   0.5000000007E-02  -0.1500000002E-02  -0.1500000002E-02  -0.1117849856E-17  -0.1162632679E-17   0.9158311943E-19   0.2500000004E+01
   0.1005000000E+01   0.9985000000E+00   0.9985000000E+00   0.1250000000E-02  -0.3750000000E-03  -0.3750000000E-03   0.3750000000E-02  -0.1125000000E-02  -0.1125000000E-02   0.2500000003E+01  -0.7855178250E-16   0.5551115586E-16   0.2219967054E-17  -0.8631670669E-16  -0.4683287197E-16   0.5000000007E-02  -0.1500000002E-02  -0.1500000002E-02   0.1850964638E-17   0.1856829487E-17   0.1462535465E-18   0.2500000003E+01
   0.0000000000E+00   0.9985000000E+00   0.9985000000E+00   0.0000000000E+00  -0.3750000000E-03  -0.3750000000E-03   0.0000000000E+00  -0.1125000000E-02  -0.1125000000E-02   0.2500000003E+01   0.1178276682E-15   0.2958814425E-15   0.2527978906E-16  -0.9362498055E-16   0.7598164906E-16   0.5000000007E-02  -0.1500000002E-02  -0.1500000002E-02  -0.4117313617E-18  -0.1418911623E-17  -0.4866352103E-18   0.2500000003E+01
   0.2010000000E+01   0.0000000000E+00  -0.2238130216E-17   0.2500000000E-02   0.0000000000E+00  -0.4945984303E-18   0.7500000000E-02   0.0000000000E+00  -0.1743531786E-17   0.2500000004E+01   0.3852241836E-15   0.2173296627E-15  -0.1150002447E-15  -0.2422546275E-15  -0.1045117374E-15   0.5000000008E-02  -0.1500000002E-02  -0.1500000002E-02  -0.2540353767E-17   0.5425664799E-17  -0.1163833160E-17   0.2500000004E+01
   0.2010000000E+01   0.9985000000E+00  -0.2728197107E-17   0.2500000000E-02  -0.3750000000E-03  -0.5971433911E-18   0.7500000000E-02  -0.1125000000E-02  -0.2131053715E-17   0.2500000003E+01   0.3307094455E-15   0.2877149856E-15  -0.1055855278E-15   0.1501256726E-15   0.4047442023E-16   0.5000000007E-02  -0.1500000002E-02  -0.1500000002E-02  -0.2248789140E-17  -0.5525705255E-17  -0.1447865650E-18   0.2500000003E+01
   0.2010000000E+01   0.0000000000E+00   0.9985000000E+00   0.2500000000E-02   0.0000000000E+00  -0.3750000000E-03   0.7500000000E-02   0.0000000000E+00  -0.1125000000E-02   0.2500000003E+01  -0.1052390919E-16  -0.6639977829E-16  -0.2450148440E-15   0.3008121889E-16  -0.4873570042E-16   0.5000000007E-02  -0.1500000002E-02  -0.1500000002E-02  -0.5264544519E-18  -0.4128774422E-17  -0.4064192312E-19   0.2500000003E+01
   0.2010000000E+01   0.9985000000E+00   0.9985000000E+00   0.2500000000E-02  -0.3750000000E-03  -0.3750000000E-03   0.7500000000E-02  -0.1125000000E-02  -0.1125000000E-02   0.2500000003E+01   0.3981055928E-15  -0.6294822121E-16   0.2341617419E-16   0.1731194837E-15   0.5967536852E-16   0.5000000006E-02  -0.1500000002E-02  -0.1500000002E-02   0.1554031771E-17   0.5570272271E-17   0.1697291102E-17   0.2500000003E+01
     1     2     3     4     5     6     7     8
     2     9    10     3     6    11    12     7
 VARIABLES = X,Y,Z,DU1,DU2,DU3,U1,U2,U3,S11,S22,S33,S12,S13,S23,E11,E22,E33,E12,E13,E23,SMISES
 ZONE, T="0.2500D+00" F=FEPOINT, I=   12 J=    2 ET=BRICK
   0.0000000000E+00   0.0000000000E+00   0.0000000000E+00   0.0000000000E+00   0.0000000000E+00   0.0000000000E+00   0.0000000000E+00   0.0000000000E+00   0.0000000000E+00   0.3125000005E+01  -0.6634115559E-15  -0.1006103734E-14   0.1171219290E-16  -0.4017769992E-15   0.1536988987E-15   0.6250000010E-02  -0.1875000003E-02  -0.1875000003E-02  -0.6560760280E-18  -0.3496546448E-17   0.7246831660E-18   0.3125000005E+01
   0.1006250000E+01   0.0000000000E+00  -0.2807827995E-17   0.1250000000E-02   0.0000000000E+00  -0.2030796190E-17   0.5000000000E-02   0.0000000000E+00  -0.7770318051E-18   0.3125000005E+01  -0.5444320501E-17  -0.4549778108E-15   0.1829532628E-15   0.3835186050E-15   0.1516950948E-15   0.6250000010E-02  -0.1875000003E-02  -0.1875000003E-02   0.1509580610E-17   0.5085054676E-18   0.1416186907E-17   0.3125000005E+01
   0.1006250000E+01   0.9981250000E+00  -0.1932849527E-17   0.1250000000E-02  -0.3750000000E-03  -0.1229113682E-17   0.5000000000E-02  -0.1500000000E-02  -0.7037358453E-18   0.3125000004E+01   0.9070378513E-16  -0.1219109528E-15   0.1416366941E-15  -0.1442904572E-15  -0.6551540997E-16   0.6250000009E-02  -0.1875000003E-02  -0.1875000003E-02  -0.1321229437E-18   0.1843066766E-17   0.1588448826E-18   0.3125000004E+01
   0.0000000000E+00   0.9981250000E+00   0.7127400521E-18   0.0000000000E+00  -0.3750000000E-03   0.8659233456E-18   0.0000000000E+00  -0.1500000000E-02  -0.1531832935E-18   0.3125000005E+01   0.1658040116E-15  -0.3399700315E-15   0.2561403598E-16  -0.2405457967E-15  -0.2564945780E-15   0.6250000009E-02  -0.1875000003E-02  -0.1875000003E-02  -0.2600864239E-19  -0.3998178303E-17  -0.2101965581E-17   0.3125000005E+01
   0.0000000000E+00   0.0000000000E+00   0.9981250000E+00   0.0000000000E+00   0.0000000000E+00  -0.3750000000E-03   0.0000000000E+00   0.0000000000E+00  -0.1500000000E-02   0.3125000005E+01   0.6465446438E-15   0.1006103742E-14  -0.4376540609E-16  -0.2590434146E-15   0.7581693212E-16   0.6250000009E-02  -0.1875000003E-02  -0.1875000003E-02   0.4757925217E-19  -0.5270344008E-17   0.1823697128E-17   0.3125000005E+01
   0.1006250000E+01   0.0000000000E+00   0.9981250000E+00   0.1250000000E-02   0.0000000000E+00  -0.3750000000E-03   0.5000000000E-02   0.0000000000E+00  -0.1500000000E-02   0.3125000004E+01   0.2830000396E-15   0.6472740653E-15  -0.1392714651E-15   0.4066079598E-15   0.9795864003E-16   0.6250000009E-02  -0.1875000003E-02  -0.1875000003E-02  -0.2120356591E-17   0.8569653883E-17   0.1777380700E-17   0.3125000004E+01
   0.1006250000E+01   0.9981250000E+00   0.9981250000E+00   0.1250000000E-02  -0.3750000000E-03  -0.3750000000E-03   0.5000000000E-02  -0.1500000000E-02  -0.1500000000E-02   0.3125000004E+01  -0.4088964802E-15   0.3142072073E-15  -0.1495629204E-15  -0.1971013334E-15  -0.2214595833E-15   0.6250000008E-02  -0.1875000002E-02  -0.1875000002E-02  -0.1752281358E-17  -0.3960032556E-17  -0.3024310739E-17   0.3125000004E+01
   0.0000000000E+00   0.9981250000E+00   0.9981250000E+00   0.0000000000E+00  -0.3750000000E-03  -0.3750000000E-03   0.0000000000E+00  -0.1500000000E-02  -0.1500000000E-02   0.3125000004E+01  -0.1286186124E-15   0.2180590977E-15   0.6399039418E-16  -0.2979008393E-15  -0.1945630826E-15   0.6250000008E-02  -0.1875000003E-02  -0.1875000003E-02   0.1181398194E-17  -0.1695977938E-17  -0.1174045977E-17   0.3125000004E+01
   0.2012500000E+01   0.0000000000E+00  -0.9244043798E-17   0.2500000000E-02   0.0000000000E+00  -0.7005913582E-17   0.1000000000E-01   0.0000000000E+00  -0.2238130216E-17   0.3125000005E+01   0.3791480666E-16  -0.2884443965E-15   0.1458162482E-15  -0.7562804315E-16   0.1489604058E-16   0.6250000009E-02  -0.1875000003E-02  -0.1875000003E-02  -0.2368250800E-17  -0.2667545630E-17   0.4788479426E-18   0.3125000005E+01
   0.2012500000E+01   0.9981250000E+00  -0.9092865536E-17   0.2500000000E-02  -0.3750000000E-03  -0.6364668430E-17   0.1000000000E-01  -0.1500000000E-02  -0.2728197107E-17   0.3125000004E+01  -0.1766926526E-15  -0.2884443830E-15  -0.2660021933E-17  -0.5615889136E-16   0.7687975410E-16   0.6250000009E-02  -0.1875000003E-02  -0.1875000003E-02  -0.3475284156E-17   0.3274029295E-17   0.2683122439E-18   0.3125000004E+01
   0.2012500000E+01   0.0000000000E+00   0.9981250000E+00   0.2500000000E-02   0.0000000000E+00  -0.3750000000E-03   0.1000000000E-01   0.0000000000E+00  -0.1500000000E-02   0.3125000004E+01  -0.2728407757E-15  -0.9614812031E-16  -0.4132976559E-15   0.4350380737E-15   0.1288437697E-15   0.6250000009E-02  -0.1875000003E-02  -0.1875000003E-02   0.8501211939E-18  -0.4118351803E-17   0.1856704212E-17   0.3125000004E+01
   0.2012500000E+01   0.9981250000E+00   0.9981250000E+00   0.2500000000E-02  -0.3750000000E-03  -0.3750000000E-03   0.1000000000E-01  -0.1500000000E-02  -0.1500000000E-02   0.3125000004E+01   0.6946186916E-15   0.2576280786E-16  -0.5179845159E-16   0.2285598391E-15   0.1107632263E-15   0.6250000008E-02  -0.1875000002E-02  -0.1875000002E-02   0.2484263059E-17   0.8468585398E-17   0.3742449621E-17   0.3125000004E+01
     1     2     3     4     5     6     7     8
     2     9    10     3     6    11    12     7
 VARIABLES = X,Y,Z,DU1,DU2,DU3,U1,U2,U3,S11,S22,S33,S12,S13,S23,E11,E22,E33,E12,E13,E23,SMISES
 ZONE, T="0.3000D+00" F=FEPOINT, I=   12 J=    2 ET=BRICK
   0.0000000000E+00   0.0000000000E+00   0.0000000000E+00   0.0000000000E+00   0.0000000000E+00   0.0000000000E+00   0.0000000000E+00   0.0000000000E+00   0.0000000000E+00   0.3750000006E+01  -0.5848597384E-15  -0.1942890235E-15  -0.1283860729E-16   0.3813001390E-17   0.3305492439E-17   0.7500000012E-02  -0.2250000004E-02  -0.2250000004E-02   0.5502531455E-20   0.5283511730E-18  -0.7795377426E-18   0.3750000006E+01
   0.1007500000E+01   0.0000000000E+00  -0.1035704345E-18   0.1250000000E-02   0.0000000000E+00   0.2704257561E-17   0.6250000000E-02   0.0000000000E+00  -0.2807827995E-17   0.3750000006E+01   0.8127394277E-16  -0.5402372754E-15  -0.9692176119E-16  -0.2670703188E-16  -0.3664968558E-16   0.7500000012E-02  -0.2250000003E-02  -0.2250000003E-02  -0.2606113596E-17  -0.9722852818E-18   0.7589183259E-18   0.3750000006E+01
   0.1007500000E+01   0.9977500000E+00  -0.1992912487E-18   0.1250000000E-02  -0.3750000000E-03   0.1733558278E-17   0.6250000000E-02  -0.1875000000E-02  -0.1932849527E-17   0.3750000005E+01   0.5551114474E-15   0.5808742513E-15  -0.1646961457E-15   0.3262207252E-16  -0.1448215200E-16   0.7500000011E-02  -0.2250000003E-02  -0.2250000003E-02  -0.3229737063E-17  -0.2334961140E-17  -0.1563675837E-17   0.3750000005E+01
   0.0000000000E+00   0.9977500000E+00  -0.9006804309E-19   0.0000000000E+00  -0.3750000000E-03  -0.8028080952E-18   0.0000000000E+00  -0.1875000000E-02   0.7127400521E-18   0.3750000005E+01   0.5551111078E-16  -0.2552444822E-15   0.9695121566E-16  -0.6797125019E-17  -0.9892161474E-16   0.7500000011E-02  -0.2250000003E-02  -0.2250000003E-02   0.9273844769E-18   0.1421082008E-17   0.2318475722E-18   0.3750000005E+01
   0.0000000000E+00   0.0000000000E+00   0.9977500000E+00   0.0000000000E+00   0.0000000000E+00  -0.3750000000E-03   0.0000000000E+00   0.0000000000E+00  -0.1875000000E-02   0.3750000005E+01   0.7731704696E-15  -0.3718541748E-16  -0.2992869049E-16   0.1092238076E-15   0.3207587419E-16   0.7500000011E-02  -0.2250000003E-02  -0.2250000003E-02  -0.2499392767E-18  -0.7513223227E-18   0.2854715374E-18   0.3750000005E+01
   0.1007500000E+01   0.0000000000E+00   0.9977500000E+00   0.1250000000E-02   0.0000000000E+00  -0.3750000000E-03   0.6250000000E-02   0.0000000000E+00  -0.1875000000E-02   0.3750000005E+01   0.2974833490E-16   0.3885779968E-15  -0.7630817470E-16   0.1086344413E-15  -0.1145648730E-15   0.7500000011E-02  -0.2250000003E-02  -0.2250000003E-02  -0.7219985200E-18   0.1749952062E-17  -0.1466557204E-17   0.3750000005E+01
   0.1007500000E+01   0.9977500000E+00   0.9977500000E+00   0.1250000000E-02  -0.3750000000E-03  -0.3750000000E-03   0.6250000000E-02  -0.1875000000E-02  -0.1875000000E-02   0.3750000005E+01  -0.5848597732E-15  -0.1556447664E-15  -0.1803345499E-15  -0.1013454980E-15  -0.2242173529E-15   0.7500000010E-02  -0.2250000003E-02  -0.2250000003E-02  -0.4440691452E-19   0.4337067209E-17  -0.4182024079E-18   0.3750000005E+01
   0.0000000000E+00   0.9977500000E+00   0.9977500000E+00   0.0000000000E+00  -0.3750000000E-03  -0.3750000000E-03   0.0000000000E+00  -0.1875000000E-02  -0.1875000000E-02   0.3750000005E+01  -0.6175257193E-15  -0.5351839755E-16   0.3218533358E-16  -0.1605648454E-15   0.1289109409E-15   0.7500000010E-02  -0.2250000003E-02  -0.2250000003E-02  -0.2963974319E-18  -0.2887030286E-17  -0.2442160765E-20   0.3750000005E+01
   0.2015000000E+01   0.0000000000E+00  -0.1075727572E-17   0.2500000000E-02   0.0000000000E+00   0.8168316226E-17   0.1250000000E-01   0.0000000000E+00  -0.9244043798E-17   0.3750000006E+01  -0.1354044740E-14  -0.1270778036E-14   0.9423228021E-15   0.2357823455E-15   0.1193343128E-15   0.7500000011E-02  -0.2250000003E-02  -0.2250000003E-02   0.4376006707E-17  -0.9387470951E-18   0.1002932428E-17   0.3750000006E+01
   0.2015000000E+01   0.9977500000E+00  -0.4257258195E-18   0.2500000000E-02  -0.3750000000E-03   0.8667139717E-17   0.1250000000E-01  -0.1875000000E-02  -0.9092865536E-17   0.3750000005E+01   0.7731704907E-15   0.1032400476E-14   0.7756881858E-15  -0.5822725146E-15   0.2316310649E-15   0.7500000010E-02  -0.2250000003E-02  -0.2250000003E-02  -0.1237780937E-18   0.5124528918E-17   0.2413517309E-17   0.3750000005E+01
   0.2015000000E+01   0.0000000000E+00   0.9977500000E+00   0.2500000000E-02   0.0000000000E+00  -0.3750000000E-03   0.1250000000E-01   0.0000000000E+00  -0.1875000000E-02   0.3750000005E+01   0.3370523389E-15   0.4297489021E-15  -0.7881419077E-15   0.9615464292E-15   0.1115633223E-15   0.7500000010E-02  -0.2250000003E-02  -0.2250000003E-02  -0.6778771092E-17   0.5464996094E-17   0.1056301956E-17   0.3750000005E+01
   0.2015000000E+01   0.9977500000E+00   0.9977500000E+00   0.2500000000E-02  -0.3750000000E-03  -0.3750000000E-03   0.1250000000E-01  -0.1875000000E-02  -0.1875000000E-02   0.3750000005E+01   0.1088867316E-16  -0.6423636441E-15  -0.5935245341E-15  -0.2815562777E-15   0.1946070267E-15   0.7500000010E-02  -0.2250000003E-02  -0.2250000003E-02  -0.4855735911E-17  -0.6521940802E-17   0.3712459091E-17   0.3750000005E+01
     1     2     3     4     5     6     7     8
     2     9    10     3     6    11    12     7
 VARIABLES = X,Y,Z,DU1,DU2,DU3,U1,U2,U3,S11,S22,S33,S12,S13,S23,E11,E22,E33,E12,E13,E23,SMISES
 ZONE, T="0.3500D+00" F=FEPOINT, I=   12 J=    2 ET=BRICK
   0.0000000000E+00   0.0000000000E+00   0.0000000000E+00   0.0000000000E+00   0.0000000000E+00   0.0000000000E+00   0.0000000000E+00   0.0000000000E+00   0.0000000000E+00   0.4375000007E+01  -0.1087911558E-14  -0.8798160601E-16  -0.2176555616E-16  -0.5799734180E-17   0.1110026736E-16   0.8750000014E-02  -0.2625000004E-02  -0.2625000004E-02   0.3967353073E-18   0.2064010745E-17  -0.1113678532E-17   0.4375000007E+01
   0.1008750000E+01   0.0000000000E+00   0.2916527003E-18   0.1250000000E-02   0.0000000000E+00   0.3952231347E-18   0.7500000000E-02   0.0000000000E+00  -0.1035704345E-18   0.4375000007E+01   0.2478073843E-15  -0.1055779572E-15   0.3445503499E-15   0.2009927619E-15  -0.1476304593E-16   0.8750000013E-02  -0.2625000004E-02  -0.2625000004E-02  -0.3930850381E-19  -0.1884203270E-17   0.4113187620E-18   0.4375000007E+01
   0.1008750000E+01   0.9973750000E+00   0.3339285859E-18   0.1250000000E-02  -0.3750000000E-03   0.5332198346E-18   0.7500000000E-02  -0.2250000000E-02  -0.1992912487E-18   0.4375000006E+01   0.3885780309E-15   0.2017260969E-15   0.2407411169E-15  -0.1681883008E-15   0.1830268998E-15   0.8750000012E-02  -0.2625000004E-02  -0.2625000004E-02   0.2491708708E-20   0.4056526136E-17   0.1726321756E-17   0.4375000006E+01
   0.0000000000E+00   0.9973750000E+00  -0.1075953031E-18   0.0000000000E+00  -0.3750000000E-03  -0.1752725999E-19   0.0000000000E+00  -0.2250000000E-02  -0.9006804309E-19   0.4375000006E+01   0.1128548593E-14   0.3025891211E-15   0.4643165752E-16   0.5219533920E-16  -0.9888495480E-16   0.8750000013E-02  -0.2625000004E-02  -0.2625000004E-02   0.3198857255E-18  -0.1368039978E-17   0.1089367124E-17   0.4375000006E+01
   0.0000000000E+00   0.0000000000E+00   0.9973750000E+00   0.0000000000E+00   0.0000000000E+00  -0.3750000000E-03   0.0000000000E+00   0.0000000000E+00  -0.2250000000E-02   0.4375000006E+01   0.1224696716E-14   0.5112183549E-15  -0.2864690570E-16   0.1152909184E-15  -0.1138707926E-15   0.8750000013E-02  -0.2625000004E-02  -0.2625000004E-02   0.2376232514E-18  -0.2130498904E-17   0.1631739234E-18   0.4375000006E+01
   0.1008750000E+01   0.0000000000E+00   0.9973750000E+00   0.1250000000E-02   0.0000000000E+00  -0.3750000000E-03   0.7500000000E-02   0.0000000000E+00  -0.2250000000E-02   0.4375000006E+01   0.1962817763E-15   0.2721113986E-15   0.9763665294E-17   0.2271370060E-15  -0.2199300541E-15   0.8750000012E-02  -0.2625000004E-02  -0.2625000004E-02   0.1073732348E-17   0.8735590059E-18  -0.2219976340E-17   0.4375000006E+01
   0.1008750000E+01   0.9973750000E+00   0.9973750000E+00   0.1250000000E-02  -0.3750000000E-03  -0.3750000000E-03   0.7500000000E-02  -0.2250000000E-02  -0.2250000000E-02   0.4375000006E+01  -0.4183263317E-15  -0.2978742117E-15  -0.1010703532E-15  -0.1827333143E-15  -0.1906711046E-15   0.8750000011E-02  -0.2625000003E-02  -0.2625000003E-02   0.1360620738E-17   0.3238343330E-17  -0.9658881622E-18   0.4375000006E+01
   0.0000000000E+00   0.9973750000E+00   0.9973750000E+00   0.0000000000E+00  -0.3750000000E-03  -0.3750000000E-03   0.0000000000E+00  -0.2250000000E-02  -0.2250000000E-02   0.4375000006E+01  -0.5436887834E-15  -0.2356553660E-15   0.1967561294E-15  -0.1909251992E-15   0.6507957074E-16   0.8750000012E-02  -0.2625000004E-02  -0.2625000004E-02   0.3026767206E-17  -0.2458643141E-17  -0.1617848285E-17   0.4375000006E+01
   0.2017500000E+01   0.0000000000E+00   0.9189328191E-18   0.2500000000E-02   0.0000000000E+00   0.1994660391E-17   0.1500000000E-01   0.0000000000E+00  -0.1075727572E-17   0.4375000007E+01  -0.5179260374E-15  -0.3154705196E-15   0.1108924576E-14  -0.2822482337E-15   0.1643334953E-15   0.8750000013E-02  -0.2625000004E-02  -0.2625000004E-02   0.1058712118E-16   0.1015860527E-16   0.1808545648E-17   0.4375000007E+01
   0.2017500000E+01   0.9973750000E+00   0.1812138956E-17   0.2500000000E-02  -0.3750000000E-03   0.2237864775E-17   0.1500000000E-01  -0.2250000000E-02  -0.4257258195E-18   0.4375000006E+01   0.3319989137E-16   0.8185223964E-15   0.9253389737E-15  -0.5566085928E-15   0.3563119986E-15   0.8750000012E-02  -0.2625000004E-02  -0.2625000004E-02   0.9902519408E-17  -0.3140572811E-17   0.4268527845E-17   0.4375000006E+01
   0.2017500000E+01   0.0000000000E+00   0.9973750000E+00   0.2500000000E-02   0.0000000000E+00  -0.3750000000E-03   0.1500000000E-01   0.0000000000E+00  -0.2250000000E-02   0.4375000006E+01  -0.4475407408E-15   0.8453005020E-16  -0.3983765373E-15   0.8340983130E-15  -0.4591658905E-17   0.8750000012E-02  -0.2625000004E-02  -0.2625000004E-02  -0.2326397711E-18   0.8494763840E-17  -0.3799466689E-18   0.4375000006E+01
   0.2017500000E+01   0.9973750000E+00   0.9973750000E+00   0.2500000000E-02  -0.3750000000E-03  -0.3750000000E-03   0.1500000000E-01  -0.2250000000E-02  -0.2250000000E-02   0.4375000006E+01   0.2701186201E-15  -0.5523892686E-15  -0.3941628391E-15  -0.5015750349E-15   0.1573351507E-15   0.8750000011E-02  -0.2625000003E-02  -0.2625000003E-02  -0.1602955172E-17   0.1629561633E-17   0.4498643645E-17   0.4375000006E+01
     1     2     3     4     5     6     7     8
     2     9    10     3     6    11    12     7
 VARIABLES = X,Y,Z,DU1,DU2,DU3,U1,U2,U3,S11,S22,S33,S12,S13,S23,E11,E22,E33,E12,E13,E23,SMISES
 ZONE, T="0.4000D+00" F=FEPOINT, I=   12 J=    2 ET=BRICK
   0.0000000000E+00   0.0000000000E+00   0.0000000000E+00   0.0000000000E+00   0.0000000000E+00   0.0000000000E+00   0.0000000000E+00   0.0000000000E+00   0.0000000000E+00   0.5000000008E+01  -0.1055441116E-14  -0.9070381637E-16  -0.4285048655E-16   0.3148958601E-16  -0.5402268512E-16   0.1000000002E-01  -0.3000000005E-02  -0.3000000005E-02  -0.1518021270E-17  -0.7567923566E-18  -0.1494562316E-17   0.5000000008E+01
   0.1010000000E+01   0.0000000000E+00   0.6080620854E-18   0.1250000000E-02   0.0000000000E+00   0.3164093852E-18   0.8750000000E-02   0.0000000000E+00   0.2916527003E-18   0.5000000008E+01   0.6095545937E-16  -0.2924298820E-15  -0.2727068071E-15  -0.2819440991E-15  -0.6318515114E-16   0.1000000002E-01  -0.3000000005E-02  -0.3000000005E-02  -0.4625286579E-17  -0.2509053265E-17   0.2010239193E-18   0.5000000008E+01
   0.1010000000E+01   0.9970000000E+00   0.3731409338E-18   0.1250000000E-02  -0.3750000000E-03   0.3921234795E-19   0.8750000000E-02  -0.2625000000E-02   0.3339285859E-18   0.5000000007E+01   0.2274889099E-15   0.3033185322E-15  -0.3093564387E-15   0.1658723661E-15   0.8630097350E-16   0.1000000001E-01  -0.3000000004E-02  -0.3000000004E-02  -0.7200700484E-17   0.7351736344E-18  -0.8423730030E-19   0.5000000007E+01
   0.0000000000E+00   0.9970000000E+00  -0.4084961783E-18   0.0000000000E+00  -0.3750000000E-03  -0.3009008752E-18   0.0000000000E+00  -0.2625000000E-02  -0.1075953031E-18   0.5000000007E+01   0.7704482961E-15  -0.5551116533E-16   0.1459222319E-15   0.7871273216E-16  -0.7148383882E-16   0.1000000001E-01  -0.3000000004E-02  -0.3000000004E-02   0.1741627008E-17   0.2686055562E-17  -0.2120855296E-17   0.5000000007E+01
   0.0000000000E+00   0.0000000000E+00   0.9970000000E+00   0.0000000000E+00   0.0000000000E+00  -0.3750000000E-03   0.0000000000E+00   0.0000000000E+00  -0.2625000000E-02   0.5000000007E+01   0.3764259561E-15  -0.3276225637E-15  -0.3520281841E-18   0.2888780661E-15   0.4740589645E-16   0.1000000001E-01  -0.3000000004E-02  -0.3000000004E-02   0.4614035821E-18  -0.1723669033E-18   0.1171820179E-17   0.5000000007E+01
   0.1010000000E+01   0.0000000000E+00   0.9970000000E+00   0.1250000000E-02   0.0000000000E+00  -0.3750000000E-03   0.8750000000E-02   0.0000000000E+00  -0.2625000000E-02   0.5000000007E+01   0.1055779571E-15   0.1814075794E-15   0.4140173929E-16  -0.1490352575E-15  -0.1359241705E-15   0.1000000001E-01  -0.3000000004E-02  -0.3000000004E-02  -0.7107353145E-19  -0.1826330733E-17  -0.8761562336E-18   0.5000000007E+01
   0.1010000000E+01   0.9970000000E+00   0.9970000000E+00   0.1250000000E-02  -0.3750000000E-03  -0.3750000000E-03   0.8750000000E-02  -0.2625000000E-02  -0.2625000000E-02   0.5000000007E+01  -0.2721113986E-15  -0.2220445803E-15   0.9798578992E-16   0.7035279982E-16  -0.1547811515E-15   0.1000000001E-01  -0.3000000004E-02  -0.3000000004E-02   0.2290388874E-17   0.4315181802E-17  -0.7715216069E-18   0.5000000007E+01
   0.0000000000E+00   0.9970000000E+00   0.9970000000E+00   0.0000000000E+00  -0.3750000000E-03  -0.3750000000E-03   0.0000000000E+00  -0.2625000000E-02  -0.2625000000E-02   0.5000000007E+01  -0.6777517634E-15  -0.3697183488E-15   0.1441965534E-15  -0.4284075457E-16   0.2891315468E-15   0.1000000001E-01  -0.3000000004E-02  -0.3000000004E-02   0.1388388672E-17  -0.7919718328E-19   0.3920008134E-17   0.5000000007E+01
   0.2020000000E+01   0.0000000000E+00   0.2488282923E-17   0.2500000000E-02   0.0000000000E+00   0.1569350104E-17   0.1750000000E-01   0.0000000000E+00   0.9189328191E-18   0.5000000008E+01  -0.6567040170E-16  -0.3533853442E-15   0.6702263582E-15  -0.1400191443E-15   0.9837660588E-16   0.1000000002E-01  -0.3000000005E-02  -0.3000000005E-02   0.3639337120E-17  -0.1066513971E-16   0.1709401907E-17   0.5000000008E+01
   0.2020000000E+01   0.9970000000E+00   0.3046330998E-17   0.2500000000E-02  -0.3750000000E-03   0.1234192043E-17   0.1750000000E-01  -0.2625000000E-02   0.1812138956E-17   0.5000000007E+01   0.1759633863E-16   0.8029188331E-15   0.6474623488E-15  -0.2193396239E-15   0.2658008699E-15   0.1000000001E-01  -0.3000000004E-02  -0.3000000004E-02   0.2587958495E-17   0.1521010495E-16   0.2443320202E-17   0.5000000007E+01
   0.2020000000E+01   0.0000000000E+00   0.9970000000E+00   0.2500000000E-02   0.0000000000E+00  -0.3750000000E-03   0.1750000000E-01   0.0000000000E+00  -0.2625000000E-02   0.5000000007E+01  -0.4983369429E-15   0.1650746101E-15  -0.5360070782E-15   0.7608141075E-15  -0.1020700406E-15   0.1000000001E-01  -0.3000000004E-02  -0.3000000004E-02  -0.3583709458E-17   0.1642712706E-17   0.1418528123E-18   0.5000000007E+01
   0.2020000000E+01   0.9970000000E+00   0.9970000000E+00   0.2500000000E-02  -0.3750000000E-03  -0.3750000000E-03   0.1750000000E-01  -0.2625000000E-02  -0.2625000000E-02   0.5000000006E+01   0.2227739617E-15  -0.5997339242E-15  -0.4430122664E-15  -0.5577630220E-15   0.4511334787E-16   0.1000000001E-01  -0.3000000004E-02  -0.3000000004E-02  -0.3203082381E-17  -0.2491858652E-17  -0.3104985134E-18   0.5000000006E+01
     1     2     3     4     5     6     7     8
     2     9    10     3     6    11    12     7
 VARIABLES = X,Y,Z,DU1,DU2,DU3,U1,U2,U3,S11,S22,S33,S12,S13,S23,E11,E22,E33,E12,E13,E23,SMISES
 ZONE, T="0.4500D+00" F=FEPOINT, I=   12 J=    2 ET=BRICK
   0.0000000000E+00   0.0000000000E+00   0.0000000000E+00   0.0000000000E+00   0.0000000000E+00   0.0000000000E+00   0.0000000000E+00   0.0000000000E+00   0.0000000000E+00   0.5625000009E+01  -0.1341163310E-14  -0.6472740239E-15  -0.4805352962E-16  -0.1222058483E-15   0.1112677913E-15   0.1125000002E-01  -0.3375000005E-02  -0.3375000005E-02   0.2610648787E-18  -0.2675951070E-17   0.7515596037E-18   0.5625000009E+01
   0.1011250000E+01   0.0000000000E+00  -0.7840257806E-18   0.1250000000E-02   0.0000000000E+00  -0.1392087866E-17   0.1000000000E-01   0.0000000000E+00   0.6080620854E-18   0.5625000009E+01  -0.1487417200E-16  -0.4034521689E-15  -0.4118008853E-16   0.1838082276E-15  -0.6044792666E-16   0.1125000002E-01  -0.3375000005E-02  -0.3375000005E-02  -0.4463968110E-17   0.1696741162E-17  -0.1195604957E-17   0.5625000009E+01
   0.1011250000E+01   0.9966250000E+00  -0.9810946566E-18   0.1250000000E-02  -0.3750000000E-03  -0.1354235590E-17   0.1000000000E-01  -0.3000000000E-02   0.3731409338E-18   0.5625000008E+01   0.1962817764E-15   0.2111559393E-15  -0.1993523556E-15   0.2900263073E-15  -0.1597145371E-15   0.1125000002E-01  -0.3375000005E-02  -0.3375000005E-02  -0.2404891420E-17  -0.8265786252E-18  -0.1831763611E-17   0.5625000008E+01
   0.0000000000E+00   0.9966250000E+00   0.3537491613E-18   0.0000000000E+00  -0.3750000000E-03   0.7622453396E-18   0.0000000000E+00  -0.3000000000E-02  -0.4084961783E-18   0.5625000008E+01   0.1083926076E-14   0.2111559051E-15   0.1053710161E-15  -0.2745297331E-15  -0.1792565679E-15   0.1125000002E-01  -0.3375000005E-02  -0.3375000005E-02  -0.4124738811E-19  -0.9257820895E-18  -0.1709123552E-17   0.5625000008E+01
   0.0000000000E+00   0.0000000000E+00   0.9966250000E+00   0.0000000000E+00   0.0000000000E+00  -0.3750000000E-03   0.0000000000E+00   0.0000000000E+00  -0.3000000000E-02   0.5625000008E+01   0.7156665546E-15   0.7949478170E-15   0.6657284249E-17   0.1877206127E-16   0.6699309015E-16   0.1125000002E-01  -0.3375000005E-02  -0.3375000005E-02  -0.5145044067E-18  -0.3552453177E-17   0.2160403822E-17   0.5625000008E+01
   0.1011250000E+01   0.0000000000E+00   0.9966250000E+00   0.1250000000E-02   0.0000000000E+00  -0.3750000000E-03   0.1000000000E-01   0.0000000000E+00  -0.3000000000E-02   0.5625000008E+01   0.2666670781E-15   0.9288153063E-15  -0.1045411401E-15   0.1300866115E-15  -0.1092774827E-15   0.1125000002E-01  -0.3375000005E-02  -0.3375000005E-02  -0.2178537452E-17   0.8648470035E-18   0.4891747979E-18   0.5625000008E+01
   0.1011250000E+01   0.9966250000E+00   0.9966250000E+00   0.1250000000E-02  -0.3750000000E-03  -0.3750000000E-03   0.1000000000E-01  -0.3000000000E-02  -0.3000000000E-02   0.5625000007E+01  -0.6106225862E-15  -0.2111559143E-15   0.6158613094E-16   0.8148793394E-16  -0.3791397066E-15   0.1125000001E-01  -0.3375000004E-02  -0.3375000004E-02   0.6839390019E-18   0.2966254224E-17  -0.9050062867E-18   0.5625000007E+01
   0.0000000000E+00   0.9966250000E+00   0.9966250000E+00   0.0000000000E+00  -0.3750000000E-03  -0.3750000000E-03   0.0000000000E+00  -0.3000000000E-02  -0.3000000000E-02   0.5625000008E+01  -0.2552444297E-15   0.1665334805E-15  -0.4246376170E-16  -0.3897310214E-15   0.1761726796E-15   0.1125000002E-01  -0.3375000005E-02  -0.3375000005E-02   0.4477575356E-18  -0.4334394842E-17  -0.8307596200E-18   0.5625000008E+01
   0.2022500000E+01   0.0000000000E+00  -0.2773687294E-17   0.2500000000E-02   0.0000000000E+00  -0.5261970217E-17   0.2000000000E-01   0.0000000000E+00   0.2488282923E-17   0.5625000009E+01   0.1199182240E-15  -0.9288152455E-15   0.1136138173E-14   0.3682370201E-15   0.1713367103E-15   0.1125000002E-01  -0.3375000005E-02  -0.3375000005E-02   0.6756985619E-17  -0.4499988241E-17   0.2688356187E-17   0.5625000009E+01
   0.2022500000E+01   0.9966250000E+00  -0.1870627907E-17   0.2500000000E-02  -0.3750000000E-03  -0.4916958906E-17   0.2000000000E-01  -0.3000000000E-02   0.3046330998E-17   0.5625000008E+01   0.6031855207E-15   0.1261882112E-14   0.9077825284E-15  -0.8076862235E-15   0.4890447702E-15   0.1125000002E-01  -0.3375000005E-02  -0.3375000005E-02   0.3899955138E-17   0.1071867930E-16   0.5308351392E-17   0.5625000008E+01
   0.2022500000E+01   0.0000000000E+00   0.9966250000E+00   0.2500000000E-02   0.0000000000E+00  -0.3750000000E-03   0.2000000000E-01   0.0000000000E+00  -0.3000000000E-02   0.5625000008E+01   0.4460819298E-15   0.7811415022E-15  -0.1410920057E-14   0.1311244847E-14   0.1455887632E-15   0.1125000002E-01  -0.3375000005E-02  -0.3375000005E-02  -0.1086790402E-16  -0.9943167835E-17   0.1012063050E-17   0.5625000008E+01
   0.2022500000E+01   0.9966250000E+00   0.9966250000E+00   0.2500000000E-02  -0.3750000000E-03  -0.3750000000E-03   0.2000000000E-01  -0.3000000000E-02  -0.3000000000E-02   0.5625000007E+01  -0.1590963369E-15  -0.1358030241E-14  -0.8759919460E-15  -0.1181036625E-14   0.4673017666E-15   0.1125000001E-01  -0.3375000004E-02  -0.3375000004E-02  -0.5495559304E-17   0.8113599771E-17   0.5780227339E-17   0.5625000007E+01
     1     2     3     4     5     6     7     8
     2     9    10     3     6    11    12     7
 VARIABLES = X,Y,Z,DU1,DU2,DU3,U1,U2,U3,S11,S22,S33,S12,S13,S23,E11,E22,E33,E12,E13,E23,SMISES
 ZONE, T="0.5000D+00" F=FEPOINT, I=   12 J=    2 ET=BRICK
   0.0000000000E+00   0.0000000000E+00   0.0000000000E+00   0.0000000000E+00   0.0000000000E+00   0.0000000000E+00   0.0000000000E+00   0.0000000000E+00   0.0000000000E+00   0.6250000010E+01  -0.1596407755E-14  -0.1542355424E-14  -0.3103081101E-16  -0.2813166458E-15   0.2394081982E-15   0.1250000002E-01  -0.3750000006E-02  -0.3750000006E-02   0.1273207156E-17  -0.8990065788E-18   0.5908873347E-18   0.6250000010E+01
   0.1012500000E+01   0.0000000000E+00  -0.1668138154E-17   0.1250000000E-02   0.0000000000E+00  -0.8841123734E-18   0.1125000000E-01   0.0000000000E+00  -0.7840257806E-18   0.6250000010E+01   0.4063696684E-16  -0.1705189475E-15   0.5936207367E-16   0.2262587990E-15  -0.6054946660E-16   0.1250000002E-01  -0.3750000006E-02  -0.3750000006E-02  -0.4057682213E-17  -0.5488102051E-17   0.6512683700E-19   0.6250000010E+01
   0.1012500000E+01   0.9962500000E+00  -0.1837791070E-17   0.1250000000E-02  -0.3750000000E-03  -0.8566964136E-18   0.1125000000E-01  -0.3375000000E-02  -0.9810946566E-18   0.6250000009E+01  -0.1088864105E-16   0.3925635528E-15  -0.1531851609E-15   0.2648410940E-15  -0.5706432838E-16   0.1250000002E-01  -0.3750000005E-02  -0.3750000005E-02  -0.4189185502E-17   0.1079586886E-16  -0.2012085408E-17   0.6250000009E+01
   0.0000000000E+00   0.9962500000E+00   0.1076244910E-17   0.0000000000E+00  -0.3750000000E-03   0.7224957487E-18   0.0000000000E+00  -0.3375000000E-02   0.3537491613E-18   0.6250000009E+01   0.1337711741E-14   0.1745044037E-15   0.3271856051E-16  -0.5079267835E-15  -0.1349752139E-15   0.1250000002E-01  -0.3750000005E-02  -0.3750000005E-02   0.1253421020E-17  -0.7578469677E-17   0.2061088748E-17   0.6250000009E+01
   0.0000000000E+00   0.0000000000E+00   0.9962500000E+00   0.0000000000E+00   0.0000000000E+00  -0.3750000000E-03   0.0000000000E+00   0.0000000000E+00  -0.3375000000E-02   0.6250000009E+01   0.1318852079E-14   0.2360148478E-14   0.6061520553E-17  -0.2401600477E-15  -0.1916089798E-16   0.1250000002E-01  -0.3750000005E-02  -0.3750000005E-02   0.1342251359E-18  -0.2371788447E-17   0.3362202886E-17   0.6250000009E+01
   0.1012500000E+01   0.0000000000E+00   0.9962500000E+00   0.1250000000E-02   0.0000000000E+00  -0.3750000000E-03   0.1125000000E-01   0.0000000000E+00  -0.3375000000E-02   0.6250000009E+01   0.5144744714E-15   0.6363854583E-15   0.9411944142E-16   0.2669679003E-15  -0.3071041384E-16   0.1250000002E-01  -0.3750000005E-02  -0.3750000005E-02   0.1499625540E-17   0.2995122039E-17  -0.1315898756E-17   0.6250000009E+01
   0.1012500000E+01   0.9962500000E+00   0.9962500000E+00   0.1250000000E-02  -0.3750000000E-03  -0.3750000000E-03   0.1125000000E-01  -0.3375000000E-02  -0.3375000000E-02   0.6250000008E+01  -0.6254967491E-15   0.3548441649E-15   0.2950058174E-15   0.2271343267E-15  -0.2505136964E-15   0.1250000002E-01  -0.3750000005E-02  -0.3750000005E-02   0.4017650862E-17   0.4353931293E-17   0.1334085758E-17   0.6250000008E+01
   0.0000000000E+00   0.9962500000E+00   0.9962500000E+00   0.0000000000E+00  -0.3750000000E-03  -0.3750000000E-03   0.0000000000E+00  -0.3375000000E-02  -0.3375000000E-02   0.6250000008E+01  -0.3533852841E-15  -0.6512594584E-15   0.1015420523E-15  -0.3393567501E-15  -0.1441618321E-16   0.1250000002E-01  -0.3750000005E-02  -0.3750000005E-02   0.7316488717E-18  -0.4093637656E-17  -0.5569331406E-17   0.6250000008E+01
   0.2025000000E+01   0.0000000000E+00  -0.4748210635E-17   0.2500000000E-02   0.0000000000E+00  -0.1974523341E-17   0.2250000000E-01   0.0000000000E+00  -0.2773687294E-17   0.6250000009E+01  -0.3917816557E-16  -0.5551112734E-16   0.6081810415E-15  -0.1279285833E-15  -0.1156743699E-15   0.1250000002E-01  -0.3750000006E-02  -0.3750000006E-02   0.2218158089E-17   0.1374047993E-16  -0.2269807044E-17   0.6250000009E+01
   0.2025000000E+01   0.9962500000E+00  -0.5316953622E-17   0.2500000000E-02  -0.3750000000E-03  -0.3446325715E-17   0.2250000000E-01  -0.3375000000E-02  -0.1870627907E-17   0.6250000009E+01   0.7582962467E-16   0.3290813220E-15   0.2998964906E-15  -0.6977654841E-15   0.2700462840E-15   0.1250000002E-01  -0.3750000005E-02  -0.3750000005E-02  -0.4286901341E-17  -0.2545955919E-17   0.3694483281E-17   0.6250000009E+01
   0.2025000000E+01   0.0000000000E+00   0.9962500000E+00   0.2500000000E-02   0.0000000000E+00  -0.3750000000E-03   0.2250000000E-01   0.0000000000E+00  -0.3375000000E-02   0.6250000009E+01  -0.1868519203E-15  -0.3665150865E-16  -0.8473913890E-15   0.8245378957E-15   0.7661687475E-16   0.1250000002E-01  -0.3750000005E-02  -0.3750000005E-02  -0.6752071133E-17   0.1226190530E-16   0.3209766746E-17   0.6250000009E+01
   0.2025000000E+01   0.9962500000E+00   0.9962500000E+00   0.2500000000E-02  -0.3750000000E-03  -0.3750000000E-03   0.2250000000E-01  -0.3375000000E-02  -0.3375000000E-02   0.6250000008E+01   0.5006679506E-16  -0.1228148300E-14  -0.4009822166E-15  -0.8591344933E-15   0.5101897012E-15   0.1250000002E-01  -0.3750000005E-02  -0.3750000005E-02  -0.2800762761E-17  -0.2326943092E-16   0.3819475065E-17   0.6250000008E+01
     1     2     3     4     5     6     7     8
     2     9    10     3     6    11    12     7
 VARIABLES = X,Y,Z,DU1,DU2,DU3,U1,U2,U3,S11,S22,S33,S12,S13,S23,E11,E22,E33,E12,E13,E23,SMISES
 ZONE, T="0.5500D+00" F=FEPOINT, I=   12 J=    2 ET=BRICK
   0.0000000000E+00   0.0000000000E+00   0.0000000000E+00   0.0000000000E+00   0.0000000000E+00   0.0000000000E+00   0.0000000000E+00   0.0000000000E+00   0.0000000000E+00   0.6875000011E+01  -0.1631600400E-14  -0.1561215096E-14  -0.4436776962E-16  -0.1095244629E-16   0.6404979271E-17   0.1375000002E-01  -0.4125000006E-02  -0.4125000006E-02  -0.4121355098E-19   0.7150034026E-17  -0.2491875860E-17   0.6875000011E+01
   0.1013750000E+01   0.0000000000E+00   0.4286641178E-18   0.1250000000E-02   0.0000000000E+00   0.2096802272E-17   0.1250000000E-01   0.0000000000E+00  -0.1668138154E-17   0.6875000011E+01   0.1110222594E-15  -0.1705189475E-15  -0.2370790265E-15  -0.1277913888E-15  -0.7556562516E-16   0.1375000002E-01  -0.4125000006E-02  -0.4125000006E-02  -0.4823362310E-17  -0.1089358854E-16   0.2588539256E-18   0.6875000011E+01
   0.1013750000E+01   0.9958750000E+00   0.2124506197E-18   0.1250000000E-02  -0.3750000000E-03   0.2050241690E-17   0.1250000000E-01  -0.3750000000E-02  -0.1837791070E-17   0.6875000010E+01  -0.2735701632E-15   0.2517929493E-15  -0.3436070172E-15   0.3911640143E-15   0.2251021718E-15   0.1375000002E-01  -0.4125000006E-02  -0.4125000006E-02   0.9132899116E-19   0.1043552379E-16   0.1442382015E-17   0.6875000010E+01
   0.0000000000E+00   0.9958750000E+00  -0.1818770180E-18   0.0000000000E+00  -0.3750000000E-03  -0.1258121928E-17   0.0000000000E+00  -0.3750000000E-02   0.1076244910E-17   0.6875000010E+01   0.1469052496E-14   0.1469052475E-14   0.1331945384E-16   0.3002585739E-16  -0.4413179191E-16   0.1375000002E-01  -0.4125000006E-02  -0.4125000006E-02  -0.9542282238E-18  -0.7370057989E-17   0.3526968045E-17   0.6875000010E+01
   0.0000000000E+00   0.0000000000E+00   0.9958750000E+00   0.0000000000E+00   0.0000000000E+00  -0.3750000000E-03   0.0000000000E+00   0.0000000000E+00  -0.3750000000E-02   0.6875000010E+01   0.1379807536E-14   0.1642489060E-14   0.2563482096E-16   0.4218575821E-16  -0.2917339223E-16   0.1375000002E-01  -0.4125000006E-02  -0.4125000006E-02  -0.1380951034E-17  -0.2055669139E-17   0.2064226616E-17   0.6875000010E+01
   0.1013750000E+01   0.0000000000E+00   0.9958750000E+00   0.1250000000E-02   0.0000000000E+00  -0.3750000000E-03   0.1250000000E-01   0.0000000000E+00  -0.3750000000E-02   0.6875000010E+01   0.3925635527E-15   0.3925635527E-15   0.1334511246E-15  -0.6202486041E-16  -0.1522909474E-15   0.1375000002E-01  -0.4125000006E-02  -0.4125000006E-02   0.7414539321E-17  -0.2485037296E-17  -0.9243114903E-18   0.6875000010E+01
   0.1013750000E+01   0.9958750000E+00   0.9958750000E+00   0.1250000000E-02  -0.3750000000E-03  -0.3750000000E-03   0.1250000000E-01  -0.3750000000E-02  -0.3750000000E-02   0.6875000009E+01  -0.1705189475E-15  -0.2974834404E-16   0.1979140301E-15   0.2319837662E-15  -0.1167769812E-15   0.1375000002E-01  -0.4125000005E-02  -0.4125000005E-02  -0.2401891432E-18   0.4020645540E-17  -0.2238643840E-17   0.6875000009E+01
   0.0000000000E+00   0.9958750000E+00   0.9958750000E+00   0.0000000000E+00  -0.3750000000E-03  -0.3750000000E-03   0.0000000000E+00  -0.3750000000E-02  -0.3750000000E-02   0.6875000009E+01  -0.5808741752E-15  -0.1631600394E-14   0.1079815083E-15  -0.1424808216E-15   0.3240689461E-15   0.1375000002E-01  -0.4125000006E-02  -0.4125000006E-02   0.2756695685E-17  -0.9782232163E-18   0.3742008496E-17   0.6875000009E+01
   0.2027500000E+01   0.0000000000E+00   0.2761362948E-17   0.2500000000E-02   0.0000000000E+00   0.7509573583E-17   0.2500000000E-01   0.0000000000E+00  -0.4748210635E-17   0.6875000010E+01  -0.2478073582E-15   0.7325335624E-15   0.1548839515E-16  -0.7064943613E-15  -0.2758954235E-15   0.1375000002E-01  -0.4125000006E-02  -0.4125000006E-02  -0.6034144744E-17   0.9670232019E-18  -0.2747738650E-17   0.6875000010E+01
   0.2027500000E+01   0.9958750000E+00   0.1354462145E-17   0.2500000000E-02  -0.3750000000E-03   0.6671415768E-17   0.2500000000E-01  -0.3750000000E-02  -0.5316953622E-17   0.6875000010E+01   0.8544444724E-15   0.8544444935E-15  -0.1927575798E-15  -0.2420831071E-15  -0.1875647391E-16   0.1375000002E-01  -0.4125000006E-02  -0.4125000006E-02  -0.6234988579E-17  -0.2004083752E-16  -0.8446064287E-18   0.6875000010E+01
   0.2027500000E+01   0.0000000000E+00   0.9958750000E+00   0.2500000000E-02   0.0000000000E+00  -0.3750000000E-03   0.2500000000E-01   0.0000000000E+00  -0.3750000000E-02   0.6875000010E+01  -0.3885779988E-15  -0.3697183158E-15  -0.2755698649E-15   0.3643742841E-15  -0.4049579340E-16   0.1375000002E-01  -0.4125000006E-02  -0.4125000006E-02  -0.2708596533E-17   0.1287999033E-16   0.1190293578E-17   0.6875000010E+01
   0.2027500000E+01   0.9958750000E+00   0.9958750000E+00   0.2500000000E-02  -0.3750000000E-03  -0.3750000000E-03   0.2500000000E-01  -0.3750000000E-02  -0.3750000000E-02   0.6875000009E+01   0.8029188667E-15  -0.2478073638E-15  -0.2749777208E-16  -0.5915786619E-16   0.3118489280E-15   0.1375000002E-01  -0.4125000005E-02  -0.4125000005E-02   0.9848135608E-18  -0.6612735877E-17   0.5396448151E-17   0.6875000009E+01
     1     2     3     4     5     6     7     8
     2     9    10     3     6    11    12     7
 VARIABLES = X,Y,Z,DU1,DU2,DU3,U1,U2,U3,S11,S22,S33,S12,S13,S23,E11,E22,E33,E12,E13,E23,SMISES
 ZONE, T="0.6000D+00" F=FEPOINT, I=   12 J=    2 ET=BRICK
   0.0000000000E+00   0.0000000000E+00   0.0000000000E+00   0.0000000000E+00   0.0000000000E+00   0.0000000000E+00   0.0000000000E+00   0.0000000000E+00   0.0000000000E+00   0.7500000012E+01  -0.1409555814E-14  -0.3370523223E-15  -0.5451607701E-16   0.2415616633E-15   0.5389587909E-16   0.1500000002E-01  -0.4500000007E-02  -0.4500000007E-02  -0.6961869389E-18   0.5964722863E-18   0.9193054992E-18   0.7500000012E+01
   0.1015000000E+01   0.0000000000E+00   0.1287929710E-17   0.1250000000E-02   0.0000000000E+00   0.8592655922E-18   0.1375000000E-01   0.0000000000E+00   0.4286641178E-18   0.7500000012E+01   0.5152560787E-16  -0.6958820418E-15  -0.1417425974E-15  -0.4180496115E-15   0.4930900954E-17   0.1500000002E-01  -0.4500000007E-02  -0.4500000007E-02  -0.1376232574E-17   0.6357149644E-18   0.2652662905E-18   0.7500000012E+01
   0.1015000000E+01   0.9955000000E+00   0.1539075558E-17   0.1250000000E-02  -0.3750000000E-03   0.1326624938E-17   0.1375000000E-01  -0.4125000000E-02   0.2124506197E-18   0.7500000011E+01   0.7176594102E-15   0.6363853902E-15  -0.2737254704E-15   0.3334859247E-15   0.1031695924E-15   0.1500000002E-01  -0.4500000006E-02  -0.4500000006E-02  -0.4475996357E-18   0.7900023830E-17   0.1364853316E-17   0.7500000011E+01
   0.0000000000E+00   0.9955000000E+00   0.1469619555E-19   0.0000000000E+00  -0.3750000000E-03   0.1965732136E-18   0.0000000000E+00  -0.4125000000E-02  -0.1818770180E-18   0.7500000011E+01   0.1165733993E-14   0.1084460043E-14   0.2990113671E-15   0.2203495507E-15  -0.1476482532E-16   0.1500000002E-01  -0.4500000007E-02  -0.4500000007E-02   0.5749724935E-17   0.2650025171E-18   0.1258062113E-17   0.7500000011E+01
   0.0000000000E+00   0.0000000000E+00   0.9955000000E+00   0.0000000000E+00   0.0000000000E+00  -0.3750000000E-03   0.0000000000E+00   0.0000000000E+00  -0.4125000000E-02   0.7500000011E+01   0.1217259641E-14   0.1257896628E-14   0.3974067692E-16   0.2565238938E-15   0.1322472967E-16   0.1500000002E-01  -0.4500000007E-02  -0.4500000007E-02   0.9473613459E-18   0.5144098738E-17   0.2282039445E-17   0.7500000011E+01
   0.1015000000E+01   0.0000000000E+00   0.9955000000E+00   0.1250000000E-02   0.0000000000E+00  -0.3750000000E-03   0.1375000000E-01   0.0000000000E+00  -0.4125000000E-02   0.7500000011E+01   0.6146081081E-15   0.7771559936E-15   0.2076667249E-15  -0.2758663527E-15  -0.2303773819E-15   0.1500000002E-01  -0.4500000006E-02  -0.4500000006E-02   0.3570307321E-17  -0.5618471303E-17  -0.2594916906E-17   0.7500000011E+01
   0.1015000000E+01   0.9955000000E+00   0.9955000000E+00   0.1250000000E-02  -0.3750000000E-03  -0.3750000000E-03   0.1375000000E-01  -0.4125000000E-02  -0.4125000000E-02   0.7500000010E+01  -0.2300155991E-15  -0.5551114383E-15   0.7207719522E-16   0.2434579026E-16  -0.4329665801E-15   0.1500000002E-01  -0.4500000006E-02  -0.4500000006E-02   0.4569479288E-17   0.5602808175E-17  -0.3427065536E-17   0.7500000010E+01
   0.0000000000E+00   0.9955000000E+00   0.9955000000E+00   0.0000000000E+00  -0.3750000000E-03  -0.3750000000E-03   0.0000000000E+00  -0.4125000000E-02  -0.4125000000E-02   0.7500000010E+01  -0.6026514720E-15  -0.1561215132E-14   0.1276521452E-15  -0.1589700806E-15   0.4315831121E-15   0.1500000002E-01  -0.4500000006E-02  -0.4500000006E-02  -0.8705253459E-18  -0.5879287729E-17   0.7758124374E-17   0.7500000010E+01
   0.2030000000E+01   0.0000000000E+00   0.3068155825E-17   0.2500000000E-02   0.0000000000E+00   0.3067928763E-18   0.2750000000E-01   0.0000000000E+00   0.2761362948E-17   0.7500000011E+01  -0.2127215284E-14  -0.7731705543E-15   0.1827258389E-14   0.3758503947E-15   0.2334048043E-15   0.1500000002E-01  -0.4500000007E-02  -0.4500000007E-02   0.8011059785E-17  -0.1316710896E-16   0.3045348937E-17   0.7500000011E+01
   0.2030000000E+01   0.9955000000E+00   0.4255564366E-17   0.2500000000E-02  -0.3750000000E-03   0.2901102220E-17   0.2750000000E-01  -0.4125000000E-02   0.1354462145E-17   0.7500000010E+01   0.1601852087E-14   0.4698519438E-15   0.1267108232E-14  -0.7314327363E-15   0.2018800121E-15   0.1500000002E-01  -0.4500000006E-02  -0.4500000006E-02   0.2165520421E-17  -0.5850661602E-17   0.2058734448E-17   0.7500000010E+01
   0.2030000000E+01   0.0000000000E+00   0.9955000000E+00   0.2500000000E-02   0.0000000000E+00  -0.3750000000E-03   0.2750000000E-01   0.0000000000E+00  -0.4125000000E-02   0.7500000010E+01  -0.1320311030E-14  -0.7543108656E-15  -0.3570044070E-15   0.1344600396E-14   0.5672518691E-16   0.1500000002E-01  -0.4500000006E-02  -0.4500000006E-02  -0.6138241303E-17  -0.4020960477E-17   0.1991055235E-17   0.7500000010E+01
   0.2030000000E+01   0.9955000000E+00   0.9955000000E+00   0.2500000000E-02  -0.3750000000E-03  -0.3750000000E-03   0.2750000000E-01  -0.4125000000E-02  -0.4125000000E-02   0.7500000010E+01  -0.8326671755E-15  -0.5997339698E-15  -0.5231153357E-15  -0.7316247867E-15   0.1554097144E-15   0.1500000002E-01  -0.4500000006E-02  -0.4500000006E-02  -0.8790056644E-17  -0.6372679110E-17   0.2109051906E-17   0.7500000010E+01
     1     2     3     4     5     6     7     8
     2     9    10     3     6    11    12     7
 VARIABLES = X,Y,Z,DU1,DU2,DU3,U1,U2,U3,S11,S22,S33,S12,S13,S23,E11,E22,E33,E12,E13,E23,SMISES
 ZONE, T="0.6500D+00" F=FEPOINT, I=   12 J=    2 ET=BRICK
   0.0000000000E+00   0.0000000000E+00   0.0000000000E+00   0.0000000000E+00   0.0000000000E+00   0.0000000000E+00   0.0000000000E+00   0.0000000000E+00   0.0000000000E+00   0.8125000013E+01  -0.1864533614E-14  -0.1794148310E-14  -0.5944520163E-16  -0.3608599384E-15  -0.4591555263E-17   0.1625000003E-01  -0.4875000008E-02  -0.4875000008E-02   0.2601892509E-17   0.1584849062E-17   0.8897342684E-18   0.8125000013E+01
   0.1016250000E+01   0.0000000000E+00  -0.7728641209E-18   0.1250000000E-02   0.0000000000E+00  -0.2060793831E-17   0.1500000000E-01   0.0000000000E+00   0.1287929710E-17   0.8125000013E+01   0.7176593239E-15   0.4361181169E-15   0.2077700115E-15   0.3654624574E-15   0.4869377401E-16   0.1625000003E-01  -0.4875000008E-02  -0.4875000008E-02  -0.5027865823E-18  -0.1739191456E-17   0.1230218149E-17   0.8125000013E+01
   0.1016250000E+01   0.9951250000E+00  -0.2728352879E-18   0.1250000000E-02  -0.3750000000E-03  -0.1811910846E-17   0.1500000000E-01  -0.4500000000E-02   0.1539075558E-17   0.8125000012E+01  -0.8584299273E-15  -0.3330668148E-15   0.1461368729E-15  -0.6284012733E-16   0.3511015355E-15   0.1625000002E-01  -0.4875000007E-02  -0.4875000007E-02   0.4928722975E-17   0.1127641913E-16   0.2695588422E-17   0.8125000012E+01
   0.0000000000E+00   0.9951250000E+00  -0.3322826146E-18   0.0000000000E+00  -0.3750000000E-03  -0.3469788102E-18   0.0000000000E+00  -0.4500000000E-02   0.1469619555E-19   0.8125000012E+01   0.2164934542E-14   0.2164934520E-14  -0.2206826174E-15  -0.2533426897E-16  -0.5573648493E-15   0.1625000002E-01  -0.4875000007E-02  -0.4875000007E-02  -0.4048351131E-18  -0.5529228427E-17  -0.3963047999E-17   0.8125000012E+01
   0.0000000000E+00   0.0000000000E+00   0.9951250000E+00   0.0000000000E+00   0.0000000000E+00  -0.3750000000E-03   0.0000000000E+00   0.0000000000E+00  -0.4500000000E-02   0.8125000012E+01   0.1095348655E-14   0.1358030179E-14   0.3517078405E-16  -0.1576306608E-16   0.9079827866E-16   0.1625000002E-01  -0.4875000007E-02  -0.4875000007E-02  -0.1042259171E-17  -0.1026933482E-17  -0.6536435435E-18   0.8125000012E+01
   0.1016250000E+01   0.0000000000E+00   0.9951250000E+00   0.1250000000E-02   0.0000000000E+00  -0.3750000000E-03   0.1500000000E-01   0.0000000000E+00  -0.4500000000E-02   0.8125000012E+01  -0.5152560789E-16  -0.5152560788E-16  -0.2456320816E-15   0.6174759783E-15   0.4620351675E-16   0.1625000002E-01  -0.4875000007E-02  -0.4875000007E-02  -0.9657978282E-19   0.1098808190E-16  -0.1170560991E-17   0.8125000012E+01
   0.1016250000E+01   0.9951250000E+00   0.9951250000E+00   0.1250000000E-02  -0.3750000000E-03  -0.3750000000E-03   0.1500000000E-01  -0.4500000000E-02  -0.4500000000E-02   0.8125000011E+01   0.1922962113E-15   0.3330668148E-15   0.8059611221E-16  -0.7477594404E-16   0.4759256624E-16   0.1625000002E-01  -0.4875000006E-02  -0.4875000006E-02   0.4076197349E-17  -0.8072070257E-17  -0.5981644344E-18   0.8125000011E+01
   0.0000000000E+00   0.9951250000E+00   0.9951250000E+00   0.0000000000E+00  -0.3750000000E-03  -0.3750000000E-03   0.0000000000E+00  -0.4500000000E-02  -0.4500000000E-02   0.8125000011E+01  -0.1358030186E-14  -0.2408756405E-14   0.3819911823E-15  -0.2997796280E-16   0.8681451450E-16   0.1625000002E-01  -0.4875000007E-02  -0.4875000007E-02   0.2938112664E-17   0.2512383079E-17   0.6208872980E-17   0.8125000011E+01
   0.2032500000E+01   0.0000000000E+00   0.2897746807E-17   0.2500000000E-02   0.0000000000E+00  -0.1704090178E-18   0.3000000000E-01   0.0000000000E+00   0.3068155825E-17   0.8125000012E+01   0.1479941192E-14   0.2460282112E-14  -0.1243380171E-14  -0.1847471257E-14  -0.4405335572E-15   0.1625000002E-01  -0.4875000007E-02  -0.4875000007E-02  -0.1501328776E-16  -0.4045182486E-17  -0.5517493667E-17   0.8125000012E+01
   0.2032500000E+01   0.9951250000E+00   0.6360163268E-18   0.2500000000E-02  -0.3750000000E-03  -0.3619548039E-17   0.3000000000E-01  -0.4500000000E-02   0.4255564366E-17   0.8125000011E+01  -0.7296158939E-15  -0.7296158728E-15  -0.1205672975E-14   0.6108347647E-15   0.2386890879E-16   0.1625000002E-01  -0.4875000007E-02  -0.4875000007E-02  -0.1974093799E-16   0.3620942880E-17   0.1699808977E-17   0.8125000011E+01
   0.2032500000E+01   0.0000000000E+00   0.9951250000E+00   0.2500000000E-02   0.0000000000E+00  -0.3750000000E-03   0.3000000000E-01   0.0000000000E+00  -0.4500000000E-02   0.8125000011E+01  -0.2043023664E-14  -0.2024163981E-14   0.7417762940E-15  -0.5089139840E-15  -0.3844371818E-15   0.1625000002E-01  -0.4875000007E-02  -0.4875000007E-02  -0.1588283304E-17  -0.2894254753E-16  -0.2752053518E-18   0.8125000011E+01
   0.2032500000E+01   0.9951250000E+00   0.9951250000E+00   0.2500000000E-02  -0.3750000000E-03  -0.3750000000E-03   0.3000000000E-01  -0.4500000000E-02  -0.4500000000E-02   0.8125000010E+01   0.1254978970E-14   0.2042527398E-15   0.1335137990E-14   0.3051132209E-15   0.1683098102E-15   0.1625000002E-01  -0.4875000006E-02  -0.4875000006E-02   0.4460744712E-17   0.1592559078E-17   0.3334998913E-17   0.8125000010E+01
     1     2     3     4     5     6     7     8
     2     9    10     3     6    11    12     7
 VARIABLES = X,Y,Z,DU1,DU2,DU3,U1,U2,U3,S11,S22,S33,S12,S13,S23,E11,E22,E33,E12,E13,E23,SMISES
 ZONE, T="0.7000D+00" F=FEPOINT, I=   12 J=    2 ET=BRICK
   0.0000000000E+00   0.0000000000E+00   0.0000000000E+00   0.0000000000E+00   0.0000000000E+00   0.0000000000E+00   0.0000000000E+00   0.0000000000E+00   0.0000000000E+00   0.8750000014E+01  -0.1811549194E-14  -0.1180608058E-14  -0.4606288738E-16  -0.1690932598E-15  -0.3031544334E-15   0.1750000003E-01  -0.5250000008E-02  -0.5250000008E-02  -0.2197013468E-17  -0.3346858437E-17  -0.4111030768E-17   0.8750000014E+01
   0.1017500000E+01   0.0000000000E+00   0.7277678047E-18   0.1250000000E-02   0.0000000000E+00   0.1500631926E-17   0.1625000000E-01   0.0000000000E+00  -0.7728641209E-18   0.8750000013E+01   0.6770223571E-15   0.3250958392E-15   0.1872847883E-15   0.7146523654E-15   0.2761168237E-16   0.1750000003E-01  -0.5250000008E-02  -0.5250000008E-02   0.1162034230E-16   0.2228445352E-16  -0.2158322324E-18   0.8750000013E+01
   0.1017500000E+01   0.9947500000E+00   0.1163247869E-17   0.1250000000E-02  -0.3750000000E-03   0.1436083156E-17   0.1625000000E-01  -0.4875000000E-02  -0.2728352879E-18   0.8750000012E+01  -0.4629487772E-15   0.8127402001E-16   0.4872789865E-16  -0.2064092074E-15   0.5008942165E-15   0.1750000002E-01  -0.5250000007E-02  -0.5250000007E-02   0.8880014795E-17  -0.9660929513E-17   0.4529729642E-17   0.8750000012E+01
   0.0000000000E+00   0.9947500000E+00  -0.1926971613E-17   0.0000000000E+00  -0.3750000000E-03  -0.1594688998E-17   0.0000000000E+00  -0.4875000000E-02  -0.3322826146E-18   0.8750000013E+01   0.1845283018E-14   0.2605038161E-14   0.5362876282E-16   0.4700579121E-15  -0.5687709562E-15   0.1750000003E-01  -0.5250000008E-02  -0.5250000008E-02   0.4728430590E-17   0.7100650204E-17   0.1547777652E-17   0.8750000013E+01
   0.0000000000E+00   0.0000000000E+00   0.9947500000E+00   0.0000000000E+00   0.0000000000E+00  -0.3750000000E-03   0.0000000000E+00   0.0000000000E+00  -0.4875000000E-02   0.8750000013E+01   0.1141429961E-14   0.2253111611E-14   0.2710442322E-16  -0.2996559589E-16  -0.2440248819E-16   0.1750000003E-01  -0.5250000008E-02  -0.5250000008E-02   0.1200650605E-17  -0.1187480675E-17   0.3273869943E-17   0.8750000013E+01
   0.1017500000E+01   0.0000000000E+00   0.9947500000E+00   0.1250000000E-02   0.0000000000E+00  -0.3750000000E-03   0.1625000000E-01   0.0000000000E+00  -0.4875000000E-02   0.8750000012E+01   0.1001336366E-15  -0.5471403946E-15  -0.1028851510E-14   0.7534763644E-15  -0.9805059544E-16   0.1750000002E-01  -0.5250000007E-02  -0.5250000007E-02  -0.1071874308E-16   0.1763386348E-16  -0.2869474772E-17   0.8750000012E+01
   0.1017500000E+01   0.9947500000E+00   0.9947500000E+00   0.1250000000E-02  -0.3750000000E-03  -0.3750000000E-03   0.1625000000E-01  -0.4875000000E-02  -0.4875000000E-02   0.8750000011E+01   0.5362517535E-15   0.3628151406E-15  -0.9384617149E-15  -0.7002335780E-15   0.3469635472E-16   0.1750000002E-01  -0.5250000007E-02  -0.5250000007E-02  -0.9326366059E-17  -0.9254808966E-17   0.3230589167E-17   0.8750000011E+01
   0.0000000000E+00   0.9947500000E+00   0.9947500000E+00   0.0000000000E+00  -0.3750000000E-03  -0.3750000000E-03   0.0000000000E+00  -0.4875000000E-02  -0.4875000000E-02   0.8750000012E+01  -0.1984985778E-14  -0.3263200846E-14   0.4599822069E-15  -0.7857552953E-16   0.2476288858E-15   0.1750000002E-01  -0.5250000007E-02  -0.5250000007E-02   0.4459276706E-17  -0.1879650111E-17   0.4460955562E-17   0.8750000012E+01
   0.2035000000E+01   0.0000000000E+00   0.7388536138E-17   0.2500000000E-02   0.0000000000E+00   0.4490789331E-17   0.3250000000E-01   0.0000000000E+00   0.2897746807E-17   0.8750000013E+01   0.9610902417E-15   0.2675423530E-14   0.1495749931E-15  -0.1938445873E-14  -0.1077018835E-15   0.1750000003E-01  -0.5250000008E-02  -0.5250000008E-02  -0.1509421141E-16  -0.4489069083E-17  -0.1248700011E-17   0.8750000013E+01
   0.2035000000E+01   0.9947500000E+00   0.6821608132E-17   0.2500000000E-02  -0.3750000000E-03   0.6185591805E-17   0.3250000000E-01  -0.4875000000E-02   0.6360163268E-18   0.8750000012E+01  -0.4912383035E-15  -0.6225790509E-15  -0.2534294962E-15   0.5211666948E-15   0.3127088835E-15   0.1750000002E-01  -0.5250000007E-02  -0.5250000007E-02  -0.1997473826E-16  -0.7782838289E-17   0.5516236113E-17   0.8750000012E+01
   0.2035000000E+01   0.0000000000E+00   0.9947500000E+00   0.2500000000E-02   0.0000000000E+00  -0.3750000000E-03   0.3250000000E-01   0.0000000000E+00  -0.4875000000E-02   0.8750000012E+01  -0.3990290147E-14  -0.2859748761E-14   0.1756918132E-14  -0.1268767464E-15  -0.5434212915E-15   0.1750000002E-01  -0.5250000007E-02  -0.5250000007E-02   0.1298551330E-16  -0.2727736925E-16  -0.3283990726E-17   0.8750000012E+01
   0.2035000000E+01   0.9947500000E+00   0.9947500000E+00   0.2500000000E-02  -0.3750000000E-03  -0.3750000000E-03   0.3250000000E-01  -0.4875000000E-02  -0.4875000000E-02   0.8750000011E+01   0.2185253051E-14   0.8366526249E-15   0.1759859117E-14   0.6592936907E-16   0.1252335356E-16   0.1750000002E-01  -0.5250000007E-02  -0.5250000007E-02   0.1049517051E-16   0.2216013932E-16  -0.2542261628E-17   0.8750000011E+01
     1     2     3     4     5     6     7     8
     2     9    10     3     6    11    12     7
 VARIABLES = X,Y,Z,DU1,DU2,DU3,U1,U2,U3,S11,S22,S33,S12,S13,S23,E11,E22,E33,E12,E13,E23,SMISES
 ZONE, T="0.7500D+00" F=FEPOINT, I=   12 J=    2 ET=BRICK
   0.0000000000E+00   0.0000000000E+00   0.0000000000E+00   0.0000000000E+00   0.0000000000E+00   0.0000000000E+00   0.0000000000E+00   0.0000000000E+00   0.0000000000E+00   0.9375000015E+01  -0.3263200894E-14  -0.2319511394E-14  -0.4955405885E-16  -0.5246439166E-15  -0.6481573384E-16   0.1875000003E-01  -0.5625000009E-02  -0.5625000009E-02  -0.3070122795E-17  -0.6956367014E-17  -0.3313181946E-17   0.9375000015E+01
   0.1018750000E+01   0.0000000000E+00  -0.1334817008E-17   0.1250000000E-02   0.0000000000E+00  -0.2062584813E-17   0.1750000000E-01   0.0000000000E+00   0.7277678047E-18   0.9375000014E+01   0.1272770762E-14   0.5768887204E-15   0.7814229082E-15   0.1024551494E-14   0.6644562773E-16   0.1875000003E-01  -0.5625000009E-02  -0.5625000009E-02   0.1976185451E-16   0.1736554667E-16  -0.2308320014E-18   0.9375000014E+01
   0.1018750000E+01   0.9943750000E+00  -0.7081968267E-18   0.1250000000E-02  -0.3750000000E-03  -0.1871444695E-17   0.1750000000E-01  -0.5250000000E-02   0.1163247869E-17   0.9375000013E+01  -0.1494815317E-14  -0.4738374183E-15   0.7900521925E-15  -0.3191025310E-15   0.3478825793E-15   0.1875000003E-01  -0.5625000008E-02  -0.5625000008E-02   0.2030689879E-16   0.2581933088E-17   0.2976463875E-17   0.9375000013E+01
   0.0000000000E+00   0.9943750000E+00  -0.7296352290E-18   0.0000000000E+00  -0.3750000000E-03   0.1197336384E-17   0.0000000000E+00  -0.5250000000E-02  -0.1926971613E-17   0.9375000014E+01   0.2361216266E-14   0.2357230734E-14  -0.2963969760E-15   0.1510520959E-16  -0.5552403432E-15   0.1875000003E-01  -0.5625000008E-02  -0.5625000008E-02  -0.3313752176E-18   0.7503639602E-18   0.1028141260E-17   0.9375000014E+01
   0.0000000000E+00   0.0000000000E+00   0.9943750000E+00   0.0000000000E+00   0.0000000000E+00  -0.3750000000E-03   0.0000000000E+00   0.0000000000E+00  -0.5250000000E-02   0.9375000014E+01   0.1343156016E-14   0.2479141681E-14   0.3115967351E-16  -0.2582565029E-15  -0.1055737896E-15   0.1875000003E-01  -0.5625000008E-02  -0.5625000008E-02  -0.1684035340E-18  -0.4956605725E-17   0.3730645357E-17   0.9375000014E+01
   0.1018750000E+01   0.0000000000E+00   0.9943750000E+00   0.1250000000E-02   0.0000000000E+00  -0.3750000000E-03   0.1750000000E-01   0.0000000000E+00  -0.5250000000E-02   0.9375000013E+01  -0.3033184890E-15  -0.7176593238E-15  -0.5240022728E-15   0.7882862751E-15   0.1758692924E-15   0.1875000003E-01  -0.5625000008E-02  -0.5625000008E-02  -0.8712147741E-18   0.2113481862E-16   0.4040918466E-17   0.9375000013E+01
   0.1018750000E+01   0.9943750000E+00   0.9943750000E+00   0.1250000000E-02  -0.3750000000E-03  -0.3750000000E-03   0.1750000000E-01  -0.5250000000E-02  -0.5250000000E-02   0.9375000012E+01   0.7474076496E-15   0.1383793040E-14  -0.3835312586E-15  -0.4485738106E-15   0.1284076200E-15   0.1875000002E-01  -0.5625000007E-02  -0.5625000007E-02   0.2472547061E-17   0.5462152685E-17   0.5275859265E-17   0.9375000012E+01
   0.0000000000E+00   0.9943750000E+00   0.9943750000E+00   0.0000000000E+00  -0.3750000000E-03  -0.3750000000E-03   0.0000000000E+00  -0.5250000000E-02  -0.5250000000E-02   0.9375000013E+01  -0.9367862107E-15  -0.3145275398E-14   0.1795180902E-15   0.2786979361E-16   0.5923709449E-16   0.1875000003E-01  -0.5625000008E-02  -0.5625000008E-02   0.1017225247E-17  -0.5188518877E-17   0.3011524230E-17   0.9375000013E+01
   0.2037500000E+01   0.0000000000E+00   0.2299378195E-17   0.2500000000E-02   0.0000000000E+00  -0.5089157944E-17   0.3500000000E-01   0.0000000000E+00   0.7388536138E-17   0.9375000014E+01   0.3988831348E-14   0.3548727611E-14  -0.2025156937E-14  -0.1892494799E-14  -0.6833033567E-15   0.1875000003E-01  -0.5625000009E-02  -0.5625000009E-02  -0.3117520497E-16  -0.1202389453E-16  -0.7492844108E-17   0.9375000014E+01
   0.2037500000E+01   0.9943750000E+00  -0.1303179383E-17   0.2500000000E-02  -0.3750000000E-03  -0.8124787515E-17   0.3500000000E-01  -0.5250000000E-02   0.6821608132E-17   0.9375000013E+01  -0.2198668398E-14  -0.2254179518E-14  -0.1857656499E-14   0.7974523800E-15  -0.5288399414E-15   0.1875000003E-01  -0.5625000008E-02  -0.5625000008E-02  -0.2581779675E-16  -0.1144317916E-16  -0.4973267569E-17   0.9375000013E+01
   0.2037500000E+01   0.0000000000E+00   0.9943750000E+00   0.2500000000E-02   0.0000000000E+00  -0.3750000000E-03   0.3500000000E-01   0.0000000000E+00  -0.5250000000E-02   0.9375000013E+01  -0.2794416787E-14  -0.4196001708E-14   0.6342188388E-15  -0.9109659809E-15   0.6920319557E-16   0.1875000003E-01  -0.5625000008E-02  -0.5625000008E-02   0.6798203836E-17  -0.4002514087E-16   0.1751112751E-17   0.9375000013E+01
   0.2037500000E+01   0.9943750000E+00   0.9943750000E+00   0.2500000000E-02  -0.3750000000E-03  -0.3750000000E-03   0.3500000000E-01  -0.5250000000E-02  -0.5250000000E-02   0.9375000012E+01   0.1943957871E-14   0.1991497957E-14   0.1229087267E-14   0.7090722808E-15   0.4138443534E-15   0.1875000002E-01  -0.5625000007E-02  -0.5625000007E-02   0.8566966328E-17   0.1182075231E-16   0.4717424147E-17   0.9375000012E+01
     1     2     3     4     5     6     7     8
     2     9    10     3     6    11    12     7
 VARIABLES = X,Y,Z,DU1,DU2,DU3,U1,U2,U3,S11,S22,S33,S12,S13,S23,E11,E22,E33,E12,E13,E23,SMISES
 ZONE, T="0.8000D+00" F=FEPOINT, I=   12 J=    2 ET=BRICK
   0.0000000000E+00   0.0000000000E+00   0.0000000000E+00   0.0000000000E+00   0.0000000000E+00   0.0000000000E+00   0.0000000000E+00   0.0000000000E+00   0.0000000000E+00   0.1000000002E+02   0.1630141680E-14   0.2843415817E-14  -0.5568085361E-16  -0.3485196601E-15  -0.6089361177E-16   0.2000000003E-01  -0.6000000009E-02  -0.6000000009E-02  -0.9898223260E-18  -0.2464584303E-17  -0.6218497142E-18   0.1000000002E+02
   0.1020000000E+01   0.0000000000E+00  -0.1008119435E-17   0.1250000000E-02   0.0000000000E+00   0.3266975736E-18   0.1875000000E-01   0.0000000000E+00  -0.1334817008E-17   0.1000000002E+02   0.5957484051E-15  -0.2924298480E-15  -0.7800380947E-15  -0.5816874914E-15  -0.6896698500E-16   0.2000000003E-01  -0.6000000009E-02  -0.6000000009E-02   0.2764091218E-18  -0.1342175445E-17   0.9239266167E-18   0.1000000002E+02
   0.1020000000E+01   0.9940000000E+00  -0.1080415703E-17   0.1250000000E-02  -0.3750000000E-03  -0.3722188766E-18   0.1875000000E-01  -0.5625000000E-02  -0.7081968267E-18   0.1000000001E+02  -0.1219109187E-15   0.5660000793E-15  -0.5862121177E-15   0.8245563460E-15   0.2783991672E-15   0.2000000003E-01  -0.6000000009E-02  -0.6000000009E-02   0.2697300369E-18   0.1580484564E-16  -0.2676630216E-19   0.1000000001E+02
   0.0000000000E+00   0.9940000000E+00  -0.6270697467E-18   0.0000000000E+00  -0.3750000000E-03   0.1025654823E-18   0.0000000000E+00  -0.5625000000E-02  -0.7296352290E-18   0.1000000001E+02  -0.1008630408E-14  -0.8272228027E-15  -0.2000514097E-16  -0.8347415781E-16  -0.3250709878E-15   0.2000000003E-01  -0.6000000009E-02  -0.6000000009E-02   0.3313541793E-17  -0.4435221048E-17  -0.1493494514E-17   0.1000000001E+02
   0.0000000000E+00   0.0000000000E+00   0.9940000000E+00   0.0000000000E+00   0.0000000000E+00  -0.3750000000E-03   0.0000000000E+00   0.0000000000E+00  -0.5625000000E-02   0.1000000001E+02  -0.7786148503E-15  -0.6487328814E-15   0.4537371299E-16   0.3007776055E-15   0.3142783690E-15   0.2000000003E-01  -0.6000000009E-02  -0.6000000009E-02   0.1122879475E-17   0.3602255760E-17   0.2172810605E-17   0.1000000001E+02
   0.1020000000E+01   0.0000000000E+00   0.9940000000E+00   0.1250000000E-02   0.0000000000E+00  -0.3750000000E-03   0.1875000000E-01   0.0000000000E+00  -0.5625000000E-02   0.1000000001E+02  -0.1069585842E-14  -0.7662673526E-15   0.4951187255E-15  -0.2971896747E-15  -0.1123207009E-15   0.2000000003E-01  -0.6000000009E-02  -0.6000000009E-02   0.9143193554E-17  -0.1249591782E-17  -0.3747449870E-17   0.1000000001E+02
   0.1020000000E+01   0.9940000000E+00   0.9940000000E+00   0.1250000000E-02  -0.3750000000E-03  -0.3750000000E-03   0.1875000000E-01  -0.5625000000E-02  -0.5625000000E-02   0.1000000001E+02   0.1121111518E-14   0.1180608187E-14   0.7389275093E-15   0.6803293607E-15  -0.1105258788E-15   0.2000000003E-01  -0.6000000008E-02  -0.6000000008E-02   0.1209252836E-16   0.1647950857E-16   0.6851351254E-17   0.1000000001E+02
   0.0000000000E+00   0.9940000000E+00   0.9940000000E+00   0.0000000000E+00  -0.3750000000E-03  -0.3750000000E-03   0.0000000000E+00  -0.5625000000E-02  -0.5625000000E-02   0.1000000001E+02  -0.4524511206E-15  -0.2442881307E-14   0.3209217976E-15  -0.2382706304E-15   0.6471118161E-15   0.2000000003E-01  -0.6000000008E-02  -0.6000000008E-02   0.3590763418E-17  -0.6548415633E-17   0.1067030226E-16   0.1000000001E+02
   0.2040000000E+01   0.0000000000E+00   0.2136411632E-18   0.2500000000E-02   0.0000000000E+00  -0.2085737032E-17   0.3750000000E-01   0.0000000000E+00   0.2299378195E-17   0.1000000002E+02  -0.5416960850E-15  -0.9760701966E-16  -0.7189107602E-16  -0.9384169137E-15  -0.2953572563E-15   0.2000000003E-01  -0.6000000009E-02  -0.6000000009E-02   0.4838112973E-17   0.4952025512E-17  -0.1781252169E-17   0.1000000002E+02
   0.2040000000E+01   0.9940000000E+00  -0.1387441705E-17   0.2500000000E-02  -0.3750000000E-03  -0.8426232217E-19   0.3750000000E-01  -0.5625000000E-02  -0.1303179383E-17   0.1000000001E+02  -0.1515133870E-14  -0.1859089343E-14   0.1800471265E-15  -0.2598080673E-15  -0.1748143648E-15   0.2000000003E-01  -0.6000000008E-02  -0.6000000008E-02   0.6440168260E-17  -0.1399084552E-16  -0.1626438280E-17   0.1000000001E+02
   0.2040000000E+01   0.0000000000E+00   0.9940000000E+00   0.2500000000E-02   0.0000000000E+00  -0.3750000000E-03   0.3750000000E-01   0.0000000000E+00  -0.5625000000E-02   0.1000000001E+02   0.1688570453E-14   0.6269555993E-15  -0.1536262421E-15   0.7162228229E-15  -0.1882334819E-15   0.2000000003E-01  -0.6000000008E-02  -0.6000000008E-02  -0.5172520925E-17   0.2395822644E-16  -0.1187398816E-17   0.1000000001E+02
   0.2040000000E+01   0.9940000000E+00   0.9940000000E+00   0.2500000000E-02  -0.3750000000E-03  -0.3750000000E-03   0.3750000000E-01  -0.5625000000E-02  -0.5625000000E-02   0.1000000001E+02   0.1259355508E-14   0.1473429015E-14   0.5613041797E-15  -0.2734470500E-15   0.1202549673E-15   0.2000000003E-01  -0.6000000008E-02  -0.6000000008E-02  -0.2090424996E-17  -0.4049839565E-16   0.7380482630E-17   0.1000000001E+02
     1     2     3     4     5     6     7     8
     2     9    10     3     6    11    12     7
 VARIABLES = X,Y,Z,DU1,DU2,DU3,U1,U2,U3,S11,S22,S33,S12,S13,S23,E11,E22,E33,E12,E13,E23,SMISES
 ZONE, T="0.8500D+00" F=FEPOINT, I=   12 J=    2 ET=BRICK
   0.0000000000E+00   0.0000000000E+00   0.0000000000E+00   0.0000000000E+00   0.0000000000E+00   0.0000000000E+00   0.0000000000E+00   0.0000000000E+00   0.0000000000E+00   0.1062500002E+02  -0.3885494363E-14  -0.3552427547E-14   0.5592649799E-16  -0.8985401037E-15  -0.1548985523E-15   0.3375000005E-01  -0.1262500002E-01  -0.1262500002E-01   0.3145629017E-17  -0.1023451130E-16   0.4043482747E-18   0.1062500002E+02
   0.1033750000E+01   0.0000000000E+00  -0.9893752195E-17   0.1375000000E-01   0.0000000000E+00  -0.8885632761E-17   0.2000000000E-01   0.0000000000E+00  -0.1008119435E-17   0.1062500002E+02  -0.4010608807E-14  -0.5305156869E-14  -0.4408836932E-15  -0.6024881953E-15  -0.2144548274E-15   0.3375000005E-01  -0.1262500002E-01  -0.1262500002E-01  -0.7342438020E-18  -0.3412862615E-17  -0.1938500475E-17   0.1062500002E+02
   0.1033750000E+01   0.9873750000E+00  -0.1105763086E-16   0.1375000000E-01  -0.6625000000E-02  -0.9977215156E-17   0.2000000000E-01  -0.6000000000E-02  -0.1080415703E-17   0.1062500002E+02   0.1843824206E-14   0.1177690472E-14  -0.9736207405E-15   0.1686431621E-14  -0.7334262723E-15   0.3375000005E-01  -0.1262500002E-01  -0.1262500002E-01  -0.8256061459E-17   0.1583851881E-16  -0.1710808313E-16   0.1062500002E+02
   0.0000000000E+00   0.9873750000E+00  -0.2128361150E-17   0.0000000000E+00  -0.6625000000E-02  -0.1501291403E-17   0.0000000000E+00  -0.6000000000E-02  -0.6270697467E-18   0.1062500002E+02  -0.5129870581E-14  -0.5021765929E-14  -0.6477447483E-15  -0.5827213130E-15  -0.1269857553E-14   0.3375000005E-01  -0.1262500002E-01  -0.1262500002E-01  -0.7392725849E-17  -0.7148941611E-17  -0.1877980326E-16   0.1062500002E+02
   0.0000000000E+00   0.0000000000E+00   0.9873750000E+00   0.0000000000E+00   0.0000000000E+00  -0.6625000000E-02   0.0000000000E+00   0.0000000000E+00  -0.6000000000E-02   0.1062500002E+02  -0.1100402266E-14  -0.1381943442E-14   0.6082708691E-16  -0.7689612178E-15   0.5517582405E-15   0.3375000005E-01  -0.1262500002E-01  -0.1262500002E-01  -0.1273314466E-17  -0.1555143362E-16   0.3674121579E-17   0.1062500002E+02
   0.1033750000E+01   0.0000000000E+00   0.9873750000E+00   0.1375000000E-01   0.0000000000E+00  -0.6625000000E-02   0.2000000000E-01   0.0000000000E+00  -0.6000000000E-02   0.1062500002E+02   0.5768887753E-15   0.2152978095E-14   0.1267325496E-14  -0.6730777791E-15   0.7219593997E-16   0.3375000005E-01  -0.1262500002E-01  -0.1262500002E-01   0.2816325640E-16  -0.6175922533E-17   0.1209590516E-17   0.1062500002E+02
   0.1033750000E+01   0.9873750000E+00   0.9873750000E+00   0.1375000000E-01  -0.6625000000E-02  -0.6625000000E-02   0.2000000000E-01  -0.6000000000E-02  -0.6000000000E-02   0.1062500001E+02   0.7452719049E-15   0.1795998198E-14   0.1022146627E-14   0.7437632957E-15  -0.8612885841E-15   0.3375000004E-01  -0.1262500002E-01  -0.1262500002E-01   0.1266901763E-16   0.1145750598E-16  -0.1027902201E-16   0.1062500001E+02
   0.0000000000E+00   0.9873750000E+00   0.9873750000E+00   0.0000000000E+00  -0.6625000000E-02  -0.6625000000E-02   0.0000000000E+00  -0.6000000000E-02  -0.6000000000E-02   0.1062500001E+02   0.4608206745E-14   0.4256280199E-14  -0.5414529874E-15  -0.1597226131E-14  -0.1150381835E-15   0.3375000005E-01  -0.1262500002E-01  -0.1262500002E-01  -0.8565099642E-17  -0.2729959243E-16   0.1841005461E-17   0.1062500001E+02
   0.2067500000E+01   0.0000000000E+00  -0.3303554110E-16   0.2750000000E-01   0.0000000000E+00  -0.3324918227E-16   0.4000000000E-01   0.0000000000E+00   0.2136411632E-18   0.1062500002E+02  -0.6930921770E-14  -0.6700906209E-14   0.1199988424E-14   0.4127230029E-16   0.2293697584E-15   0.3375000005E-01  -0.1262500002E-01  -0.1262500002E-01   0.3708387714E-16  -0.4028685198E-18   0.3727133996E-17   0.1062500002E+02
   0.2067500000E+01   0.9873750000E+00  -0.3145222344E-16   0.2750000000E-01  -0.6625000000E-02  -0.3006478173E-16   0.4000000000E-01  -0.6000000000E-02  -0.1387441705E-17   0.1062500001E+02   0.3976092732E-14   0.4712611836E-14   0.3222830948E-15  -0.9795199682E-15   0.1971245930E-15   0.3375000005E-01  -0.1262500002E-01  -0.1262500002E-01   0.2362622216E-16  -0.6329640757E-17   0.5138230128E-17   0.1062500001E+02
   0.2067500000E+01   0.0000000000E+00   0.9873750000E+00   0.2750000000E-01   0.0000000000E+00  -0.6625000000E-02   0.4000000000E-01   0.0000000000E+00  -0.6000000000E-02   0.1062500001E+02   0.9403160441E-14   0.8352434322E-14  -0.2229293247E-14   0.2405478716E-14   0.7753646292E-15   0.3375000005E-01  -0.1262500002E-01  -0.1262500002E-01  -0.4105983731E-16  -0.4225801428E-17   0.1671963240E-16   0.1062500001E+02
   0.2067500000E+01   0.9873750000E+00   0.9873750000E+00   0.2750000000E-01  -0.6625000000E-02  -0.6625000000E-02   0.4000000000E-01  -0.6000000000E-02  -0.6000000000E-02   0.1062500001E+02  -0.7245128886E-14  -0.5636373548E-14  -0.1789950936E-14  -0.2113762470E-14   0.7326337893E-15   0.3375000004E-01  -0.1262500002E-01  -0.1262500002E-01  -0.3596325833E-16  -0.3686376468E-16   0.8705001225E-17   0.1062500001E+02
     1     2     3     4     5     6     7     8
     2     9    10     3     6    11    12     7
 VARIABLES = X,Y,Z,DU1,DU2,DU3,U1,U2,U3,S11,S22,S33,S12,S13,S23,E11,E22,E33,E12,E13,E23,SMISES
 ZONE, T="0.9000D+00" F=FEPOINT, I=   12 J=    2 ET=BRICK
   0.0000000000E+00   0.0000000000E+00   0.0000000000E+00   0.0000000000E+00   0.0000000000E+00   0.0000000000E+00   0.0000000000E+00   0.0000000000E+00   0.0000000000E+00   0.1125000002E+02  -0.3856422641E-14  -0.4603830316E-14   0.1627734897E-15  -0.7346603230E-15  -0.1216164886E-15   0.4750000007E-01  -0.1925000003E-01  -0.1925000003E-01  -0.2146924273E-17  -0.1970265806E-16   0.4106001308E-17   0.1125000002E+02
   0.1047500000E+01   0.0000000000E+00  -0.7501774725E-17   0.1375000000E-01   0.0000000000E+00   0.2391977470E-17   0.3375000000E-01   0.0000000000E+00  -0.9893752195E-17   0.1125000002E+02  -0.2615926903E-14  -0.2171837674E-14   0.6571047420E-15   0.1417343741E-14   0.3264231487E-15   0.4750000007E-01  -0.1925000003E-01  -0.1925000003E-01   0.3001512183E-16   0.3957772305E-16   0.7315208451E-17   0.1125000002E+02
   0.1047500000E+01   0.9807500000E+00  -0.4952882860E-17   0.1375000000E-01  -0.6625000000E-02   0.6104748000E-17   0.3375000000E-01  -0.1262500000E-01  -0.1105763086E-16   0.1125000002E+02   0.2304637321E-14   0.2223363350E-14   0.2586980885E-15   0.2565516320E-17   0.4360921799E-15   0.4750000007E-01  -0.1925000003E-01  -0.1925000003E-01   0.1512275866E-16  -0.1658395338E-16   0.4663289554E-17   0.1125000002E+02
   0.0000000000E+00   0.9807500000E+00  -0.1754297382E-17   0.0000000000E+00  -0.6625000000E-02   0.3740637679E-18   0.0000000000E+00  -0.1262500000E-01  -0.2128361150E-17   0.1125000002E+02   0.4293608646E-14   0.3987372534E-14  -0.7501129210E-15  -0.7016458265E-16  -0.9196824466E-15   0.4750000007E-01  -0.1925000003E-01  -0.1925000003E-01  -0.1549600294E-16  -0.2615513852E-17  -0.2014686335E-16   0.1125000002E+02
   0.0000000000E+00   0.0000000000E+00   0.9807500000E+00   0.0000000000E+00   0.0000000000E+00  -0.6625000000E-02   0.0000000000E+00   0.0000000000E+00  -0.1262500000E-01   0.1125000002E+02   0.1371445485E-14   0.2655105057E-14  -0.1455580013E-15  -0.1626076825E-15   0.6127988061E-15   0.4750000007E-01  -0.1925000003E-01  -0.1925000003E-01  -0.5600713679E-17  -0.1484323267E-16   0.4918593773E-18   0.1125000002E+02
   0.1047500000E+01   0.0000000000E+00   0.9807500000E+00   0.1375000000E-01   0.0000000000E+00  -0.6625000000E-02   0.3375000000E-01   0.0000000000E+00  -0.1262500000E-01   0.1125000002E+02   0.3816747754E-15   0.1735719539E-14  -0.9297439994E-15   0.2249422697E-14  -0.3482864264E-15   0.4750000007E-01  -0.1925000003E-01  -0.1925000003E-01  -0.1844723778E-17   0.4840894894E-16   0.8793907559E-18   0.1125000002E+02
   0.1047500000E+01   0.9807500000E+00   0.9807500000E+00   0.1375000000E-01  -0.6625000000E-02  -0.6625000000E-02   0.3375000000E-01  -0.1262500000E-01  -0.1262500000E-01   0.1125000001E+02  -0.2706525477E-15  -0.1261882053E-14  -0.6420378829E-15  -0.1059686497E-14   0.9356659406E-16   0.4750000006E-01  -0.1925000003E-01  -0.1925000003E-01  -0.1139060604E-16  -0.3559730249E-16  -0.8471407029E-19   0.1125000001E+02
   0.0000000000E+00   0.9807500000E+00   0.9807500000E+00   0.0000000000E+00  -0.6625000000E-02  -0.6625000000E-02   0.0000000000E+00  -0.1262500000E-01  -0.1262500000E-01   0.1125000002E+02  -0.1990039098E-14  -0.1998761818E-15   0.6369031582E-15  -0.1008470281E-14  -0.1430812738E-15   0.4750000006E-01  -0.1925000003E-01  -0.1925000003E-01   0.1026817030E-16  -0.1018656303E-16   0.2074474995E-16   0.1125000002E+02
   0.2095000000E+01   0.0000000000E+00  -0.1281290189E-16   0.2750000000E-01   0.0000000000E+00   0.2022263921E-16   0.6750000000E-01   0.0000000000E+00  -0.3303554110E-16   0.1125000002E+02   0.6229698958E-15   0.2464658460E-14  -0.7349991326E-15  -0.2140479737E-14   0.2502667547E-16   0.4750000007E-01  -0.1925000003E-01  -0.1925000003E-01   0.1744577122E-16  -0.3562741935E-16  -0.2527743293E-17   0.1125000002E+02
   0.2095000000E+01   0.9807500000E+00  -0.1250548464E-16   0.2750000000E-01  -0.6625000000E-02   0.1894673880E-16   0.6750000000E-01  -0.1262500000E-01  -0.3145222344E-16   0.1125000002E+02  -0.8381114458E-15  -0.1313406872E-15  -0.5404333406E-15   0.5145642992E-15   0.8362256243E-15   0.4750000007E-01  -0.1925000003E-01  -0.1925000003E-01   0.2157160006E-16  -0.9492167558E-19   0.1914639051E-16   0.1125000002E+02
   0.2095000000E+01   0.0000000000E+00   0.9807500000E+00   0.2750000000E-01   0.0000000000E+00  -0.6625000000E-02   0.6750000000E-01   0.0000000000E+00  -0.1262500000E-01   0.1125000002E+02  -0.1761873374E-14  -0.2438895696E-14   0.1047605164E-14  -0.6431114895E-15  -0.5344203594E-15   0.4750000007E-01  -0.1925000003E-01  -0.1925000003E-01   0.2457887284E-16  -0.3222108167E-16   0.1564343151E-18   0.1125000002E+02
   0.2095000000E+01   0.9807500000E+00   0.9807500000E+00   0.2750000000E-01  -0.6625000000E-02  -0.6625000000E-02   0.6750000000E-01  -0.1262500000E-01  -0.1262500000E-01   0.1125000001E+02  -0.5496672317E-15  -0.1451651863E-14   0.1409067826E-14  -0.2226574725E-15  -0.1878568938E-15   0.4750000006E-01  -0.1925000002E-01  -0.1925000002E-01   0.2370052920E-16  -0.1638245764E-17   0.2013619043E-16   0.1125000001E+02
     1     2     3     4     5     6     7     8
     2     9    10     3     6    11    12     7
 VARIABLES = X,Y,Z,DU1,DU2,DU3,U1,U2,U3,S11,S22,S33,S12,S13,S23,E11,E22,E33,E12,E13,E23,SMISES
 ZONE, T="0.9500D+00" F=FEPOINT, I=   12 J=    2 ET=BRICK
   0.0000000000E+00   0.0000000000E+00   0.0000000000E+00   0.0000000000E+00   0.0000000000E+00   0.0000000000E+00   0.0000000000E+00   0.0000000000E+00   0.0000000000E+00   0.1187500002E+02  -0.3427207611E-14  -0.4377800225E-14   0.7483840367E-16  -0.8130258954E-15  -0.1503374601E-15   0.6125000010E-01  -0.2587500004E-01  -0.2587500004E-01  -0.3291314248E-17  -0.2496063080E-16   0.1146039375E-17   0.1187500002E+02
   0.1061250000E+01   0.0000000000E+00  -0.9809021708E-17   0.1375000000E-01   0.0000000000E+00  -0.2307246982E-17   0.4750000000E-01   0.0000000000E+00  -0.7501774725E-17   0.1187500002E+02   0.3062359999E-15   0.1436881144E-15  -0.1042088511E-15   0.5391655413E-15   0.3627978003E-15   0.6125000009E-01  -0.2587500004E-01  -0.2587500004E-01   0.1913742993E-16   0.3032065212E-16   0.1155121254E-16   0.1187500002E+02
   0.1061250000E+01   0.9741250000E+00  -0.5990523591E-17   0.1375000000E-01  -0.6625000000E-02  -0.1037640731E-17   0.4750000000E-01  -0.1925000000E-01  -0.4952882860E-17   0.1187500002E+02  -0.2859748636E-14  -0.2919245306E-14  -0.2904883220E-16   0.2433096581E-15   0.7431977521E-16   0.6125000009E-01  -0.2587500004E-01  -0.2587500004E-01   0.3268061235E-16  -0.2690295445E-16  -0.5800218143E-17   0.1187500002E+02
   0.0000000000E+00   0.9741250000E+00  -0.2697918938E-17   0.0000000000E+00  -0.6625000000E-02  -0.9436215560E-18   0.0000000000E+00  -0.1925000000E-01  -0.1754297382E-17   0.1187500002E+02   0.3704763007E-14   0.3701845403E-14  -0.1679827504E-15  -0.1607475860E-15  -0.2960439627E-15   0.6125000009E-01  -0.2587500004E-01  -0.2587500004E-01  -0.1141874371E-16   0.3252841852E-18  -0.2093830717E-16   0.1187500002E+02
   0.0000000000E+00   0.0000000000E+00   0.9741250000E+00   0.0000000000E+00   0.0000000000E+00  -0.6625000000E-02   0.0000000000E+00   0.0000000000E+00  -0.1925000000E-01   0.1187500002E+02   0.1429873973E-14   0.1056170201E-14  -0.2251455428E-16  -0.1566924811E-15   0.3016420982E-16   0.6125000009E-01  -0.2587500004E-01  -0.2587500004E-01   0.8533980081E-17  -0.9943292737E-17   0.7425054797E-17   0.1187500002E+02
   0.1061250000E+01   0.0000000000E+00   0.9741250000E+00   0.1375000000E-01   0.0000000000E+00  -0.6625000000E-02   0.4750000000E-01   0.0000000000E+00  -0.1925000000E-01   0.1187500002E+02  -0.2437436825E-14  -0.7800735544E-15  -0.1039675717E-14   0.8805294265E-15   0.3226352290E-15   0.6125000009E-01  -0.2587500004E-01  -0.2587500004E-01  -0.1674912966E-16   0.2290430493E-16   0.1735047074E-17   0.1187500002E+02
   0.1061250000E+01   0.9741250000E+00   0.9741250000E+00   0.1375000000E-01  -0.6625000000E-02  -0.6625000000E-02   0.4750000000E-01  -0.1925000000E-01  -0.1925000000E-01   0.1187500002E+02   0.3252312071E-14   0.3192815487E-14  -0.5878823671E-15  -0.8504914023E-15   0.2174387775E-15   0.6125000008E-01  -0.2587500003E-01  -0.2587500003E-01  -0.1238838429E-17   0.5414366561E-18   0.1886269033E-16   0.1187500002E+02
   0.0000000000E+00   0.9741250000E+00   0.9741250000E+00   0.0000000000E+00  -0.6625000000E-02  -0.6625000000E-02   0.0000000000E+00  -0.1925000000E-01  -0.1925000000E-01   0.1187500002E+02  -0.6898646816E-14  -0.5837031941E-14  -0.9783089382E-16   0.4791830386E-15  -0.2838667084E-15   0.6125000008E-01  -0.2587500003E-01  -0.2587500003E-01  -0.5002609798E-18  -0.1173836627E-16  -0.6999603402E-17   0.1187500002E+02
   0.2122500000E+01   0.0000000000E+00  -0.1838027224E-16   0.2750000000E-01   0.0000000000E+00  -0.5567370355E-17   0.9500000000E-01   0.0000000000E+00  -0.1281290189E-16   0.1187500002E+02   0.6470499949E-14   0.5763729187E-14  -0.2882115145E-14  -0.2479099734E-14  -0.3958657982E-15   0.6125000009E-01  -0.2587500004E-01  -0.2587500004E-01  -0.1681004106E-16  -0.3524237928E-16  -0.1133205309E-16   0.1187500002E+02
   0.2122500000E+01   0.9741250000E+00  -0.2056887066E-16   0.2750000000E-01  -0.6625000000E-02  -0.8063386025E-17   0.9500000000E-01  -0.1925000000E-01  -0.1250548464E-16   0.1187500002E+02  -0.1272379765E-14  -0.1031475517E-14  -0.1949937627E-14   0.1863192953E-14  -0.3005870096E-15   0.6125000009E-01  -0.2587500004E-01  -0.2587500004E-01  -0.2151614762E-16  -0.4089975927E-16   0.1097398493E-17   0.1187500002E+02
   0.2122500000E+01   0.0000000000E+00   0.9741250000E+00   0.2750000000E-01   0.0000000000E+00  -0.6625000000E-02   0.9500000000E-01   0.0000000000E+00  -0.1925000000E-01   0.1187500002E+02  -0.2149669405E-14  -0.3433328836E-14   0.1321823052E-14  -0.6120687215E-15   0.9032573461E-16   0.6125000009E-01  -0.2587500004E-01  -0.2587500004E-01   0.4311862495E-16   0.3125310640E-16   0.1393372957E-16   0.1187500002E+02
   0.2122500000E+01   0.9741250000E+00   0.9741250000E+00   0.2750000000E-01  -0.6625000000E-02  -0.6625000000E-02   0.9500000000E-01  -0.1925000000E-01  -0.1925000000E-01   0.1187500002E+02   0.2511416976E-14   0.2663076193E-14   0.1580663167E-14   0.3144265336E-16  -0.5052675168E-15   0.6125000008E-01  -0.2587500003E-01  -0.2587500003E-01   0.4438028328E-16   0.7282182081E-16  -0.2163172196E-16   0.1187500002E+02
     1     2     3     4     5     6     7     8
     2     9    10     3     6    11    12     7
 VARIABLES = X,Y,Z,DU1,DU2,DU3,U1,U2,U3,S11,S22,S33,S12,S13,S23,E11,E22,E33,E12,E13,E23,SMISES
 ZONE, T="0.1000D+01" F=FEPOINT, I=   12 J=    2 ET=BRICK
   0.0000000000E+00   0.0000000000E+00   0.0000000000E+00   0.0000000000E+00   0.0000000000E+00   0.0000000000E+00   0.0000000000E+00   0.0000000000E+00   0.0000000000E+00   0.1250000002E+02  -0.3448307908E-14  -0.6811642675E-14  -0.3703727782E-17  -0.1180440576E-14   0.9834900468E-15   0.7500000012E-01  -0.3250000005E-01  -0.3250000005E-01  -0.3009757301E-17  -0.3868180078E-16   0.1098399275E-16   0.1250000002E+02
   0.1075000000E+01   0.0000000000E+00  -0.2391066939E-16   0.1375000000E-01   0.0000000000E+00  -0.1410164768E-16   0.6125000000E-01   0.0000000000E+00  -0.9809021708E-17   0.1250000002E+02  -0.2745809143E-14  -0.5681778458E-14   0.3756272785E-15   0.2355191880E-15   0.1407823486E-14   0.7500000012E-01  -0.3250000005E-01  -0.3250000005E-01   0.3000892564E-16   0.1686449380E-16   0.2829730889E-16   0.1250000002E+02
   0.1075000000E+01   0.9675000000E+00  -0.1019320431E-16   0.1375000000E-01  -0.6625000000E-02  -0.4202680721E-17   0.6125000000E-01  -0.2587500000E-01  -0.5990523591E-17   0.1250000002E+02  -0.3336503651E-14  -0.5887880716E-14   0.3755993175E-15   0.3648448588E-15  -0.1007068790E-14   0.7500000011E-01  -0.3250000005E-01  -0.3250000005E-01   0.3439895697E-16  -0.1318250932E-16  -0.8923439276E-17   0.1250000002E+02
   0.0000000000E+00   0.9675000000E+00   0.7369447407E-17   0.0000000000E+00  -0.6625000000E-02   0.1006736635E-16   0.0000000000E+00  -0.2587500000E-01  -0.2697918938E-17   0.1250000002E+02   0.1949792928E-14  -0.5827243712E-15   0.1786798991E-15  -0.7825609771E-15  -0.8945510694E-15   0.7500000011E-01  -0.3250000005E-01  -0.3250000005E-01  -0.6561682833E-17  -0.5451577889E-17  -0.1901748811E-16   0.1250000002E+02
   0.0000000000E+00   0.0000000000E+00   0.9675000000E+00   0.0000000000E+00   0.0000000000E+00  -0.6625000000E-02   0.0000000000E+00   0.0000000000E+00  -0.2587500000E-01   0.1250000002E+02   0.3065851172E-14   0.6161450927E-14   0.3541782841E-18  -0.8821274022E-15   0.1352871359E-14   0.7500000011E-01  -0.3250000005E-01  -0.3250000005E-01   0.3415824976E-17  -0.2677311138E-16   0.4278739643E-16   0.1250000002E+02
   0.1075000000E+01   0.0000000000E+00   0.9675000000E+00   0.1375000000E-01   0.0000000000E+00  -0.6625000000E-02   0.6125000000E-01   0.0000000000E+00  -0.2587500000E-01   0.1250000002E+02  -0.9535099944E-15   0.3699319311E-14   0.3240173282E-15   0.1632815220E-15   0.8898118111E-15   0.7500000011E-01  -0.3250000005E-01  -0.3250000005E-01   0.1844047857E-16   0.5060998663E-16   0.1478192333E-16   0.1250000002E+02
   0.1075000000E+01   0.9675000000E+00   0.9675000000E+00   0.1375000000E-01  -0.6625000000E-02  -0.6625000000E-02   0.6125000000E-01  -0.2587500000E-01  -0.2587500000E-01   0.1250000002E+02   0.7198370692E-14   0.6776059037E-14   0.3259911907E-15   0.2460601363E-15  -0.1390532211E-14   0.7500000010E-01  -0.3250000004E-01  -0.3250000004E-01   0.8462262859E-17   0.6470705321E-17  -0.1484816427E-16   0.1250000002E+02
   0.0000000000E+00   0.9675000000E+00   0.9675000000E+00   0.0000000000E+00  -0.6625000000E-02  -0.6625000000E-02   0.0000000000E+00  -0.2587500000E-01  -0.2587500000E-01   0.1250000002E+02  -0.5224450173E-15   0.1292412738E-14  -0.1945561046E-15  -0.9739471746E-15  -0.1218390221E-14   0.7500000010E-01  -0.3250000004E-01  -0.3250000004E-01   0.5235728707E-17  -0.2316946126E-16  -0.2949555884E-16   0.1250000002E+02
   0.2150000000E+01   0.0000000000E+00  -0.8063169793E-16   0.2750000000E-01   0.0000000000E+00  -0.6225142569E-16   0.1225000000E+00   0.0000000000E+00  -0.1838027224E-16   0.1250000002E+02   0.1537950883E-15   0.3649509705E-15   0.3891731816E-15  -0.3865888940E-16   0.1112259886E-14   0.7500000011E-01  -0.3250000005E-01  -0.3250000005E-01   0.2094667559E-16   0.2589296104E-17   0.1513986998E-16   0.1250000002E+02
   0.2150000000E+01   0.9675000000E+00  -0.7150427811E-16   0.2750000000E-01  -0.6625000000E-02  -0.5093540745E-16   0.1225000000E+00  -0.2587500000E-01  -0.2056887066E-16   0.1250000002E+02   0.3065851035E-14   0.2895121205E-15   0.4797986737E-16   0.2198353671E-14  -0.1239665113E-14   0.7500000010E-01  -0.3250000005E-01  -0.3250000005E-01   0.2372476319E-16   0.5596843606E-16  -0.4827118772E-16   0.1250000002E+02
   0.2150000000E+01   0.0000000000E+00   0.9675000000E+00   0.2750000000E-01   0.0000000000E+00  -0.6625000000E-02   0.1225000000E+00   0.0000000000E+00  -0.2587500000E-01   0.1250000002E+02  -0.1277824486E-14   0.2061597420E-14   0.5469550856E-15   0.2526913061E-14   0.1144445695E-14   0.7500000010E-01  -0.3250000005E-01  -0.3250000005E-01   0.1345934788E-17   0.3834153247E-16   0.3685423322E-16   0.1250000002E+02
   0.2150000000E+01   0.9675000000E+00   0.9675000000E+00   0.2750000000E-01  -0.6625000000E-02  -0.6625000000E-02   0.1225000000E+00  -0.2587500000E-01  -0.2587500000E-01   0.1250000002E+02  -0.4199987041E-14   0.1189361363E-14   0.4488558831E-15  -0.1665225565E-15  -0.1389566544E-14   0.7500000010E-01  -0.3250000004E-01  -0.3250000004E-01  -0.6322851308E-17   0.6386756068E-16  -0.2092387103E-16   0.1250000002E+02
     1     2     3     4     5     6     7     8
     2     9    10     3     6    11    12     7
 VARIABLES = X,Y,Z,DU1,DU2,DU3,U1,U2,U3,S11,S22,S33,S12,S13,S23,E11,E22,E33,E12,E13,E23,SMISES
 ZONE, T="0.1050D+01" F=FEPOINT, I=   12 J=    2 ET=BRICK
   0.0000000000E+00   0.0000000000E+00   0.0000000000E+00   0.0000000000E+00   0.0000000000E+00   0.0000000000E+00   0.0000000000E+00   0.0000000000E+00   0.0000000000E+00   0.1137500002E+02   0.2224717461E-14  -0.1641135257E-14  -0.1005229983E-16   0.1822251969E-14   0.6006999177E-14   0.7275000011E-01  -0.3182500005E-01  -0.3182500005E-01  -0.5583858656E-18   0.2980589945E-16   0.5612629326E-16   0.1137500002E+02
   0.1072750000E+01   0.0000000000E+00  -0.1928357158E-16  -0.2250000000E-02   0.0000000000E+00   0.4627097813E-17   0.7500000000E-01   0.0000000000E+00  -0.2391066939E-16   0.1137500002E+02  -0.4175292379E-14  -0.9811380350E-14   0.3824568329E-15   0.2873559686E-14   0.4383145671E-15   0.7275000011E-01  -0.3182500005E-01  -0.3182500005E-01   0.3552588652E-16  -0.1617227172E-16   0.2127921488E-16   0.1137500002E+02
   0.1072750000E+01   0.9681750000E+00  -0.1066527400E-16  -0.2250000000E-02   0.6750000000E-03  -0.4720696890E-18   0.7500000000E-01  -0.3250000000E-01  -0.1019320431E-16   0.1137500002E+02   0.1229216557E-14  -0.3843789172E-14  -0.1105663729E-14   0.2168260589E-14  -0.3332700710E-14   0.7275000010E-01  -0.3182500005E-01  -0.3182500005E-01   0.1053225516E-18   0.1770016017E-16  -0.4481621585E-16   0.1137500002E+02
   0.0000000000E+00   0.9681750000E+00   0.3359862590E-16   0.0000000000E+00   0.6750000000E-03   0.2622917850E-16   0.0000000000E+00  -0.3250000000E-01   0.7369447407E-17   0.1137500002E+02   0.1407705846E-15  -0.8776310294E-14  -0.1090305314E-14  -0.5687122689E-14  -0.1648786896E-15   0.7275000011E-01  -0.3182500005E-01  -0.3182500005E-01  -0.6662229401E-17  -0.6389435567E-16   0.1066163982E-17   0.1137500002E+02
   0.0000000000E+00   0.0000000000E+00   0.9681750000E+00   0.0000000000E+00   0.0000000000E+00   0.6750000000E-03   0.0000000000E+00   0.0000000000E+00  -0.3250000000E-01   0.1137500002E+02   0.1219109460E-14   0.1218903471E-13   0.7601868558E-18  -0.9869311967E-15   0.3387105301E-14   0.7275000011E-01  -0.3182500005E-01  -0.3182500005E-01  -0.6215727717E-17  -0.2608485932E-16   0.4600018340E-16   0.1137500002E+02
   0.1072750000E+01   0.0000000000E+00   0.9681750000E+00  -0.2250000000E-02   0.0000000000E+00   0.6750000000E-03   0.7500000000E-01   0.0000000000E+00  -0.3250000000E-01   0.1137500002E+02   0.2843025196E-14   0.6680979174E-14   0.1630884884E-14   0.1371860263E-14   0.5383474616E-15   0.7275000010E-01  -0.3182500005E-01  -0.3182500005E-01   0.4318306469E-16   0.1752488431E-16   0.1399489720E-16   0.1137500002E+02
   0.1072750000E+01   0.9681750000E+00   0.9681750000E+00  -0.2250000000E-02   0.6750000000E-03   0.6750000000E-03   0.7500000000E-01  -0.3250000000E-01  -0.3250000000E-01   0.1137500001E+02   0.7664237303E-14   0.8425451382E-14   0.2318709716E-14   0.2317305979E-14  -0.3024851775E-14   0.7275000010E-01  -0.3182500004E-01  -0.3182500004E-01   0.5418229780E-16   0.4253580985E-16  -0.4121633748E-16   0.1137500001E+02
   0.0000000000E+00   0.9681750000E+00   0.9681750000E+00   0.0000000000E+00   0.6750000000E-03   0.6750000000E-03   0.0000000000E+00  -0.3250000000E-01  -0.3250000000E-01   0.1137500002E+02  -0.1191496391E-14   0.2127997599E-14   0.1987836115E-14  -0.4360300063E-14  -0.3624366000E-14   0.7275000010E-01  -0.3182500004E-01  -0.3182500004E-01   0.2446825381E-16  -0.6962197007E-16  -0.5201944283E-16   0.1137500002E+02
   0.2145500000E+01   0.0000000000E+00  -0.1160427199E-15  -0.4500000000E-02   0.0000000000E+00  -0.3541102198E-16   0.1500000000E+00   0.0000000000E+00  -0.8063169793E-16   0.1137500002E+02  -0.6895052114E-14  -0.7660251728E-14   0.7030888935E-14   0.3350956708E-14   0.1949970760E-14   0.7275000011E-01  -0.3182500005E-01  -0.3182500005E-01   0.8966837811E-16   0.9569312246E-16   0.1602650986E-16   0.1137500002E+02
   0.2145500000E+01   0.9681750000E+00  -0.1025299644E-15  -0.4500000000E-02   0.6750000000E-03  -0.3102568626E-16   0.1500000000E+00  -0.3250000000E-01  -0.7150427811E-16   0.1137500002E+02   0.1016038871E-13   0.8292937453E-14   0.4937050658E-14  -0.2260192525E-14  -0.3887792333E-15   0.7275000010E-01  -0.3182500004E-01  -0.3182500004E-01   0.6373909284E-16  -0.2503181776E-17  -0.2138551068E-16   0.1137500002E+02
   0.2145500000E+01   0.0000000000E+00   0.9681750000E+00  -0.4500000000E-02   0.0000000000E+00   0.6750000000E-03   0.1500000000E+00   0.0000000000E+00  -0.3250000000E-01   0.1137500002E+02   0.4316062516E-14   0.7044861708E-14  -0.4804526348E-14   0.6610673834E-14   0.2475941636E-14   0.7275000010E-01  -0.3182500004E-01  -0.3182500004E-01   0.8122343216E-17   0.6496515114E-16   0.4644040334E-16   0.1137500002E+02
   0.2145500000E+01   0.9681750000E+00   0.9681750000E+00  -0.4500000000E-02   0.6750000000E-03   0.6750000000E-03   0.1500000000E+00  -0.3250000000E-01  -0.3250000000E-01   0.1137500001E+02  -0.1177419726E-13  -0.5597872054E-14  -0.5613248537E-14  -0.5984844231E-14  -0.5673289576E-16   0.7275000009E-01  -0.3182500004E-01  -0.3182500004E-01  -0.1024001841E-16  -0.7946285844E-16   0.1433924272E-17   0.1137500001E+02
     1     2     3     4     5     6     7     8
     2     9    10     3     6    11    12     7
 VARIABLES = X,Y,Z,DU1,DU2,DU3,U1,U2,U3,S11,S22,S33,S12,S13,S23,E11,E22,E33,E12,E13,E23,SMISES
 ZONE, T="0.1100D+01" F=FEPOINT, I=   12 J=    2 ET=BRICK
   0.0000000000E+00   0.0000000000E+00   0.0000000000E+00   0.0000000000E+00   0.0000000000E+00   0.0000000000E+00   0.0000000000E+00   0.0000000000E+00   0.0000000000E+00   0.1025000002E+02  -0.2359471456E-14  -0.4242864927E-14  -0.6844911553E-17  -0.7787005921E-15   0.8443784237E-15   0.7050000011E-01  -0.3115000005E-01  -0.3115000005E-01  -0.8768164399E-17  -0.1722062319E-16   0.1544641409E-16   0.1025000002E+02
   0.1070500000E+01   0.0000000000E+00  -0.1847451843E-16  -0.2250000000E-02   0.0000000000E+00   0.8090531442E-18   0.7275000000E-01   0.0000000000E+00  -0.1928357158E-16   0.1025000002E+02  -0.1987512766E-14  -0.3577408324E-14  -0.2078209484E-15   0.3000617731E-15   0.1084480264E-14   0.7050000011E-01  -0.3115000005E-01  -0.3115000005E-01   0.6752558431E-16   0.8864433451E-17   0.1922788235E-16   0.1025000002E+02
   0.1070500000E+01   0.9688500000E+00  -0.6396045766E-17  -0.2250000000E-02   0.6750000000E-03   0.4269228236E-17   0.7275000000E-01  -0.3182500000E-01  -0.1066527400E-16   0.1025000001E+02  -0.3295866684E-14  -0.5167303708E-14  -0.3405029341E-15   0.4290928706E-15  -0.7673529997E-15   0.7050000010E-01  -0.3115000004E-01  -0.3115000004E-01   0.4483162120E-16  -0.7838663073E-17  -0.1094062451E-16   0.1025000001E+02
   0.0000000000E+00   0.9688500000E+00   0.6682161222E-17   0.0000000000E+00   0.6750000000E-03  -0.2691646468E-16   0.0000000000E+00  -0.3182500000E-01   0.3359862590E-16   0.1025000001E+02   0.2154436626E-14  -0.1411618490E-15   0.7191057508E-17  -0.3626438625E-15  -0.5676704305E-15   0.7050000010E-01  -0.3115000005E-01  -0.3115000005E-01   0.5931969094E-17  -0.4673824941E-17  -0.1052197161E-16   0.1025000001E+02
   0.0000000000E+00   0.0000000000E+00   0.9688500000E+00   0.0000000000E+00   0.0000000000E+00   0.6750000000E-03   0.0000000000E+00   0.0000000000E+00  -0.3182500000E-01   0.1025000001E+02   0.8925545499E-15   0.3770095305E-14   0.2328180869E-16  -0.4254170923E-15   0.1183938694E-14   0.7050000010E-01  -0.3115000005E-01  -0.3115000005E-01   0.1418065961E-16  -0.1825386849E-16   0.1516382059E-16   0.1025000001E+02
   0.1070500000E+01   0.0000000000E+00   0.9688500000E+00  -0.2250000000E-02   0.0000000000E+00   0.6750000000E-03   0.7275000000E-01   0.0000000000E+00  -0.3182500000E-01   0.1025000001E+02  -0.7721024241E-15   0.3163067489E-14   0.2598145516E-15  -0.2342433743E-15   0.5479743370E-15   0.7050000010E-01  -0.3115000004E-01  -0.3115000004E-01  -0.6344105337E-17   0.3796629802E-16   0.3674484242E-16   0.1025000001E+02
   0.1070500000E+01   0.9688500000E+00   0.9688500000E+00  -0.2250000000E-02   0.6750000000E-03   0.6750000000E-03   0.7275000000E-01  -0.3182500000E-01  -0.3182500000E-01   0.1025000001E+02   0.5752163317E-14   0.5278325986E-14   0.7009314369E-15   0.2819828941E-15  -0.1178390204E-14   0.7050000009E-01  -0.3115000004E-01  -0.3115000004E-01   0.2078178263E-16  -0.1668068430E-16  -0.6122600009E-16   0.1025000001E+02
   0.0000000000E+00   0.9688500000E+00   0.9688500000E+00   0.0000000000E+00   0.6750000000E-03   0.6750000000E-03   0.0000000000E+00  -0.3182500000E-01  -0.3182500000E-01   0.1025000001E+02  -0.1548867384E-14   0.1371763320E-15  -0.5004488540E-15  -0.6684800630E-15  -0.9352187415E-15   0.7050000009E-01  -0.3115000004E-01  -0.3115000004E-01  -0.1480908783E-16  -0.2218421746E-16  -0.3597250071E-16   0.1025000001E+02
   0.2141000000E+01   0.0000000000E+00  -0.5728294558E-16  -0.4500000000E-02   0.0000000000E+00   0.5875977432E-16   0.1455000000E+00   0.0000000000E+00  -0.1160427199E-15   0.1025000002E+02   0.4030613985E-15   0.5695946691E-15  -0.1121213657E-14  -0.1184668429E-14   0.2836910135E-15   0.7050000011E-01  -0.3115000005E-01  -0.3115000005E-01  -0.4675667492E-16  -0.2767073005E-16   0.4884537827E-17   0.1025000002E+02
   0.2141000000E+01   0.9688500000E+00  -0.5250626091E-16  -0.4500000000E-02   0.6750000000E-03   0.5002370346E-16   0.1455000000E+00  -0.3182500000E-01  -0.1025299644E-15   0.1025000001E+02   0.3608615073E-14   0.6984085864E-15  -0.1536461256E-14   0.2084858632E-14  -0.5492771683E-15   0.7050000010E-01  -0.3115000004E-01  -0.3115000004E-01  -0.2217645010E-16  -0.1775996460E-16  -0.1920938085E-16   0.1025000001E+02
   0.2141000000E+01   0.0000000000E+00   0.9688500000E+00  -0.4500000000E-02   0.0000000000E+00   0.6750000000E-03   0.1455000000E+00   0.0000000000E+00  -0.3182500000E-01   0.1025000001E+02   0.5921536471E-15   0.1252195076E-15  -0.2942416415E-15   0.1365682938E-14   0.6932071251E-15   0.7050000010E-01  -0.3115000004E-01  -0.3115000004E-01   0.1038504953E-15  -0.4771577961E-16   0.1925650005E-16   0.1025000001E+02
   0.2141000000E+01   0.9688500000E+00   0.9688500000E+00  -0.4500000000E-02   0.6750000000E-03   0.6750000000E-03   0.1455000000E+00  -0.3182500000E-01  -0.3182500000E-01   0.1025000001E+02  -0.3579934551E-14  -0.7539197209E-15   0.7292788166E-15  -0.1858585273E-14  -0.2584993348E-15   0.7050000009E-01  -0.3115000004E-01  -0.3115000004E-01  -0.2106892249E-17  -0.1968213835E-16  -0.7670895246E-17   0.1025000001E+02
     1     2     3     4     5     6     7     8
     2     9    10     3     6    11    12     7
 VARIABLES = X,Y,Z,DU1,DU2,DU3,U1,U2,U3,S11,S22,S33,S12,S13,S23,E11,E22,E33,E12,E13,E23,SMISES
 ZONE, T="0.1150D+01" F=FEPOINT, I=   12 J=    2 ET=BRICK
   0.0000000000E+00   0.0000000000E+00   0.0000000000E+00   0.0000000000E+00   0.0000000000E+00   0.0000000000E+00   0.0000000000E+00   0.0000000000E+00   0.0000000000E+00   0.9125000014E+01  -0.2355094942E-14  -0.3208080670E-14  -0.1455451986E-17  -0.3843591464E-15   0.3517535170E-15   0.6825000011E-01  -0.3047500005E-01  -0.3047500005E-01  -0.8890904472E-17  -0.3887782336E-16   0.9355515826E-17   0.9125000014E+01
   0.1068250000E+01   0.0000000000E+00  -0.1575609444E-16  -0.2250000000E-02   0.0000000000E+00   0.2718423996E-17   0.7050000000E-01   0.0000000000E+00  -0.1847451843E-16   0.9125000014E+01  -0.1584060572E-14  -0.3133319163E-14   0.2132462840E-15   0.1417787622E-15   0.1170246047E-14   0.6825000011E-01  -0.3047500005E-01  -0.3047500005E-01   0.7309561861E-16   0.3429482494E-16   0.1878517370E-16   0.9125000014E+01
   0.1068250000E+01   0.9695250000E+00  -0.3263378494E-17  -0.2250000000E-02   0.6750000000E-03   0.3132667272E-17   0.7050000000E-01  -0.3115000000E-01  -0.6396045766E-17   0.9125000013E+01  -0.2315525770E-14  -0.4863985151E-14   0.3487855052E-15  -0.7521952953E-15  -0.8066375698E-15   0.6825000010E-01  -0.3047500004E-01  -0.3047500004E-01   0.5919953375E-16  -0.7873271772E-16  -0.1563773540E-16   0.9125000013E+01
   0.0000000000E+00   0.9695250000E+00   0.4225657834E-17   0.0000000000E+00   0.6750000000E-03  -0.2456503388E-17   0.0000000000E+00  -0.3115000000E-01   0.6682161222E-17   0.9125000013E+01   0.3624948029E-14   0.2052453255E-14   0.7685219366E-15   0.7239374850E-15  -0.3254922154E-15   0.6825000010E-01  -0.3047500004E-01  -0.3047500004E-01   0.1509033590E-16   0.1927901584E-16  -0.1477916665E-16   0.9125000013E+01
   0.0000000000E+00   0.0000000000E+00   0.9695250000E+00   0.0000000000E+00   0.0000000000E+00   0.6750000000E-03   0.0000000000E+00   0.0000000000E+00  -0.3115000000E-01   0.9125000013E+01   0.1176622467E-14   0.2868110708E-14  -0.6946769129E-17   0.2401992459E-15   0.9037973677E-15   0.6825000010E-01  -0.3047500004E-01  -0.3047500004E-01   0.2188778653E-18  -0.2288819625E-17   0.1561628331E-16   0.9125000013E+01
   0.1068250000E+01   0.0000000000E+00   0.9695250000E+00  -0.2250000000E-02   0.0000000000E+00   0.6750000000E-03   0.7050000000E-01   0.0000000000E+00  -0.3115000000E-01   0.9125000013E+01  -0.7017171316E-15   0.3222564140E-14  -0.4323671863E-15  -0.5362870946E-15   0.3877647912E-15   0.6825000010E-01  -0.3047500004E-01  -0.3047500004E-01   0.3006589654E-17   0.2362798829E-16   0.2503811453E-16   0.9125000013E+01
   0.1068250000E+01   0.9695250000E+00   0.9695250000E+00  -0.2250000000E-02   0.6750000000E-03   0.6750000000E-03   0.7050000000E-01  -0.3115000000E-01  -0.3115000000E-01   0.9125000012E+01   0.4823348079E-14   0.4530918318E-14  -0.2767629333E-15  -0.5579985924E-15  -0.1517768418E-14   0.6825000009E-01  -0.3047500004E-01  -0.3047500004E-01  -0.4339040277E-17  -0.5765639721E-16  -0.4454999615E-16   0.9125000012E+01
   0.0000000000E+00   0.9695250000E+00   0.9695250000E+00   0.0000000000E+00   0.6750000000E-03   0.6750000000E-03   0.0000000000E+00  -0.3115000000E-01  -0.3115000000E-01   0.9125000012E+01  -0.3007422226E-14  -0.1271311693E-14  -0.8201485600E-15   0.6207483201E-17  -0.5817820338E-15   0.6825000009E-01  -0.3047500004E-01  -0.3047500004E-01  -0.5844710214E-17  -0.2004935471E-16  -0.2122409476E-16   0.9125000012E+01
   0.2136500000E+01   0.0000000000E+00  -0.5002640149E-16  -0.4500000000E-02   0.0000000000E+00   0.7256544097E-17   0.1410000000E+00   0.0000000000E+00  -0.5728294558E-16   0.9125000014E+01  -0.1074353169E-14  -0.1190819905E-14   0.1801158378E-15  -0.1190043491E-15   0.5480762527E-15   0.6825000010E-01  -0.3047500005E-01  -0.3047500005E-01  -0.5873682227E-16  -0.1840910556E-15   0.2553771634E-17   0.9125000014E+01
   0.2136500000E+01   0.9695250000E+00  -0.4381756799E-16  -0.4500000000E-02   0.6750000000E-03   0.8688692916E-17   0.1410000000E+00  -0.3115000000E-01  -0.5250626091E-16   0.9125000013E+01   0.2663466852E-14   0.1621568218E-15  -0.5645397730E-15   0.2109006438E-14  -0.3081253269E-15   0.6825000010E-01  -0.3047500004E-01  -0.3047500004E-01  -0.5622401252E-16   0.1394416300E-15   0.4565392425E-17   0.9125000013E+01
   0.2136500000E+01   0.0000000000E+00   0.9695250000E+00  -0.4500000000E-02   0.0000000000E+00   0.6750000000E-03   0.1410000000E+00   0.0000000000E+00  -0.3115000000E-01   0.9125000013E+01   0.3458050998E-15   0.8646562012E-15  -0.2583179641E-15   0.2737151252E-14   0.9906728242E-15   0.6825000010E-01  -0.3047500004E-01  -0.3047500004E-01  -0.6476704441E-17   0.5234228607E-16   0.3577870684E-16   0.9125000013E+01
   0.2136500000E+01   0.9695250000E+00   0.9695250000E+00  -0.4500000000E-02   0.6750000000E-03   0.6750000000E-03   0.1410000000E+00  -0.3115000000E-01  -0.3115000000E-01   0.9125000012E+01  -0.9298828996E-15   0.1542746625E-14   0.8105509847E-15  -0.1497030476E-14  -0.1266936214E-15   0.6825000009E-01  -0.3047500004E-01  -0.3047500004E-01  -0.1511273283E-16  -0.1163271192E-15  -0.4247472534E-16   0.9125000012E+01
     1     2     3     4     5     6     7     8
     2     9    10     3     6    11    12     7
 VARIABLES = X,Y,Z,DU1,DU2,DU3,U1,U2,U3,S11,S22,S33,S12,S13,S23,E11,E22,E33,E12,E13,E23,SMISES
 ZONE, T="0.1200D+01" F=FEPOINT, I=   12 J=    2 ET=BRICK
   0.0000000000E+00   0.0000000000E+00   0.0000000000E+00   0.0000000000E+00   0.0000000000E+00   0.0000000000E+00   0.0000000000E+00   0.0000000000E+00   0.0000000000E+00   0.8000000013E+01  -0.3089087325E-14  -0.5317895085E-14   0.6952785513E-17  -0.1169616164E-14   0.6945413187E-15   0.6600000010E-01  -0.2980000005E-01  -0.2980000005E-01  -0.2755311710E-17  -0.5297865907E-17   0.1951341660E-16   0.8000000013E+01
   0.1066000000E+01   0.0000000000E+00  -0.2125366372E-16  -0.2250000000E-02   0.0000000000E+00  -0.5497569281E-17   0.6825000000E-01   0.0000000000E+00  -0.1575609444E-16   0.8000000012E+01  -0.1898267771E-14  -0.3669570985E-14  -0.4688519867E-15   0.6596378758E-15   0.1279935932E-14   0.6600000010E-01  -0.2980000005E-01  -0.2980000005E-01   0.5307079480E-16  -0.2571580080E-16   0.2732754420E-16   0.8000000012E+01
   0.1066000000E+01   0.9702000000E+00  -0.8190170117E-17  -0.2250000000E-02   0.6750000000E-03  -0.4926791623E-17   0.6825000000E-01  -0.3047500000E-01  -0.3263378494E-17   0.8000000011E+01  -0.3488162982E-14  -0.6117896296E-14  -0.3429961101E-15  -0.1287030970E-15  -0.7900636995E-15   0.6600000009E-01  -0.2980000004E-01  -0.2980000004E-01   0.5639950437E-16  -0.1665670016E-16  -0.1486519038E-16   0.8000000011E+01
   0.0000000000E+00   0.9702000000E+00   0.5949770808E-17   0.0000000000E+00   0.6750000000E-03   0.1724112974E-17   0.0000000000E+00  -0.3047500000E-01   0.4225657834E-17   0.8000000012E+01   0.2077148136E-14   0.6345353035E-15   0.3110855162E-15  -0.2808262950E-15  -0.7575549746E-15   0.6600000010E-01  -0.2980000004E-01  -0.2980000004E-01   0.9200543857E-17  -0.1763130065E-16  -0.3003847576E-16   0.8000000012E+01
   0.0000000000E+00   0.0000000000E+00   0.9702000000E+00   0.0000000000E+00   0.0000000000E+00   0.6750000000E-03   0.0000000000E+00   0.0000000000E+00  -0.3047500000E-01   0.8000000012E+01   0.2513266367E-14   0.5558799359E-14  -0.2173276702E-16  -0.6637965843E-15   0.1178800672E-14   0.6600000010E-01  -0.2980000004E-01  -0.2980000004E-01   0.7335538321E-17  -0.1802968142E-16   0.9703378933E-17   0.8000000012E+01
   0.1066000000E+01   0.0000000000E+00   0.9702000000E+00  -0.2250000000E-02   0.0000000000E+00   0.6750000000E-03   0.6825000000E-01   0.0000000000E+00  -0.3047500000E-01   0.8000000011E+01  -0.7205768163E-15   0.2981659919E-14  -0.8094800785E-15   0.1071006000E-15   0.7673745227E-15   0.6600000009E-01  -0.2980000004E-01  -0.2980000004E-01  -0.2045534197E-16   0.9380428776E-17   0.1276291553E-16   0.8000000011E+01
   0.1066000000E+01   0.9702000000E+00   0.9702000000E+00  -0.2250000000E-02   0.6750000000E-03   0.6750000000E-03   0.6825000000E-01  -0.3047500000E-01  -0.3047500000E-01   0.8000000010E+01   0.5034503994E-14   0.5814577739E-14  -0.4327285918E-15  -0.6614328812E-16  -0.1270706509E-14   0.6600000009E-01  -0.2980000004E-01  -0.2980000004E-01  -0.2077676697E-16  -0.3122573647E-16  -0.1172351173E-16   0.8000000010E+01
   0.0000000000E+00   0.9702000000E+00   0.9702000000E+00   0.0000000000E+00   0.6750000000E-03   0.6750000000E-03   0.0000000000E+00  -0.3047500000E-01  -0.3047500000E-01   0.8000000011E+01  -0.2606496760E-14  -0.5859272761E-15  -0.3899019013E-15  -0.7241197500E-15  -0.9866753719E-15   0.6600000009E-01  -0.2980000004E-01  -0.2980000004E-01  -0.9359496206E-18  -0.1997828271E-16  -0.1741868676E-16   0.8000000011E+01
   0.2132000000E+01   0.0000000000E+00  -0.6609789009E-16  -0.4500000000E-02   0.0000000000E+00  -0.1607148861E-16   0.1365000000E+00   0.0000000000E+00  -0.5002640149E-16   0.8000000012E+01   0.1235728483E-14   0.7941658759E-15  -0.2021598351E-14  -0.1527054171E-14   0.2741163132E-15   0.6600000010E-01  -0.2980000005E-01  -0.2980000005E-01  -0.5716322943E-16  -0.7197681204E-16   0.2817595056E-17   0.8000000012E+01
   0.2132000000E+01   0.9702000000E+00  -0.6141069588E-16  -0.4500000000E-02   0.6750000000E-03  -0.1759312789E-16   0.1365000000E+00  -0.3047500000E-01  -0.4381756799E-16   0.8000000011E+01   0.2250584916E-14  -0.8246963020E-15  -0.2398951529E-14   0.2683478486E-14  -0.7017485295E-15   0.6600000009E-01  -0.2980000004E-01  -0.2980000004E-01  -0.7121992002E-16   0.1915075097E-16  -0.2339670932E-16   0.8000000011E+01
   0.2132000000E+01   0.0000000000E+00   0.9702000000E+00  -0.4500000000E-02   0.0000000000E+00   0.6750000000E-03   0.1365000000E+00   0.0000000000E+00  -0.3047500000E-01   0.8000000011E+01  -0.6439655747E-15  -0.8725222458E-15   0.2849067840E-16   0.1738372065E-14   0.6890431417E-15   0.6600000009E-01  -0.2980000004E-01  -0.2980000004E-01   0.1510746974E-16  -0.3750154286E-16   0.2518230191E-16   0.8000000011E+01
   0.2132000000E+01   0.9702000000E+00   0.9702000000E+00  -0.4500000000E-02   0.6750000000E-03   0.6750000000E-03   0.1365000000E+00  -0.3047500000E-01  -0.3047500000E-01   0.8000000010E+01  -0.3626030295E-16   0.1707821196E-14   0.1482569452E-14  -0.1302350160E-14  -0.4780590054E-15   0.6600000008E-01  -0.2980000004E-01  -0.2980000004E-01   0.1415390594E-16  -0.8559573613E-16  -0.6710774480E-17   0.8000000010E+01
     1     2     3     4     5     6     7     8
     2     9    10     3     6    11    12     7
 VARIABLES = X,Y,Z,DU1,DU2,DU3,U1,U2,U3,S11,S22,S33,S12,S13,S23,E11,E22,E33,E12,E13,E23,SMISES
 ZONE, T="0.1250D+01" F=FEPOINT, I=   12 J=    2 ET=BRICK
   0.0000000000E+00   0.0000000000E+00   0.0000000000E+00   0.0000000000E+00   0.0000000000E+00   0.0000000000E+00   0.0000000000E+00   0.0000000000E+00   0.0000000000E+00   0.6875000011E+01  -0.2367442425E-14  -0.3863716606E-14  -0.1676363373E-16  -0.4291891714E-15   0.6984564120E-15   0.6375000010E-01  -0.2912500005E-01  -0.2912500005E-01  -0.3052477692E-17  -0.1462676466E-16   0.1623745718E-16   0.6875000011E+01
   0.1063750000E+01   0.0000000000E+00  -0.1634995107E-16  -0.2250000000E-02   0.0000000000E+00   0.4903712645E-17   0.6600000000E-01   0.0000000000E+00  -0.2125366372E-16   0.6875000011E+01  -0.2290831255E-14  -0.3322697796E-14   0.5195491720E-16   0.4525198292E-15   0.8998711379E-15   0.6375000010E-01  -0.2912500004E-01  -0.2912500004E-01   0.4309270567E-16  -0.2726818860E-16   0.2124431949E-16   0.6875000011E+01
   0.1063750000E+01   0.9708750000E+00  -0.5269822458E-17  -0.2250000000E-02   0.6750000000E-03   0.2920347659E-17   0.6600000000E-01  -0.2980000000E-01  -0.8190170117E-17   0.6875000010E+01  -0.2023095922E-14  -0.4541806891E-14  -0.1090586355E-15   0.1029593696E-15  -0.8003753185E-15   0.6375000009E-01  -0.2912500004E-01  -0.2912500004E-01   0.2036005849E-16  -0.4858183212E-16  -0.1098397049E-16   0.6875000010E+01
   0.0000000000E+00   0.9708750000E+00   0.5988162809E-17   0.0000000000E+00   0.6750000000E-03   0.3839200155E-19   0.0000000000E+00  -0.2980000000E-01   0.5949770808E-17   0.6875000010E+01   0.3023755314E-14   0.1717927530E-14   0.2458980444E-15  -0.1697833652E-15  -0.2930665286E-15   0.6375000009E-01  -0.2912500004E-01  -0.2912500004E-01   0.8800064021E-17  -0.1626790889E-16  -0.7034684075E-17   0.6875000010E+01
   0.0000000000E+00   0.0000000000E+00   0.9708750000E+00   0.0000000000E+00   0.0000000000E+00   0.6750000000E-03   0.0000000000E+00   0.0000000000E+00  -0.2980000000E-01   0.6875000010E+01   0.1466525718E-14   0.4841140004E-14   0.2437015855E-16  -0.3954944093E-16   0.8446236612E-15   0.6375000009E-01  -0.2912500004E-01  -0.2912500004E-01   0.6133760224E-17  -0.1954045276E-16   0.3377452054E-16   0.6875000010E+01
   0.1063750000E+01   0.0000000000E+00   0.9708750000E+00  -0.2250000000E-02   0.0000000000E+00   0.6750000000E-03   0.6600000000E-01   0.0000000000E+00  -0.2980000000E-01   0.6875000010E+01   0.1160758289E-15   0.3544742401E-14  -0.5134135670E-16  -0.2869437618E-15   0.2088806115E-15   0.6375000009E-01  -0.2912500004E-01  -0.2912500004E-01   0.9206444111E-17   0.5873917674E-17   0.1165677095E-17   0.6875000010E+01
   0.1063750000E+01   0.9708750000E+00   0.9708750000E+00  -0.2250000000E-02   0.6750000000E-03   0.6750000000E-03   0.6600000000E-01  -0.2980000000E-01  -0.2980000000E-01   0.6875000009E+01   0.3731984888E-14   0.4763851496E-14   0.1766147738E-15   0.1891425769E-15  -0.1579988547E-14   0.6375000008E-01  -0.2912500004E-01  -0.2912500004E-01   0.4023473023E-16  -0.4391196304E-16  -0.3129062731E-16   0.6875000009E+01
   0.0000000000E+00   0.9708750000E+00   0.9708750000E+00   0.0000000000E+00   0.6750000000E-03   0.6750000000E-03   0.0000000000E+00  -0.2980000000E-01  -0.2980000000E-01   0.6875000009E+01  -0.1429874069E-14  -0.1406637876E-14  -0.6014713548E-15  -0.6259429889E-15  -0.8113230979E-15   0.6375000009E-01  -0.2912500004E-01  -0.2912500004E-01  -0.2049047766E-16  -0.2545284271E-16  -0.3758207184E-16   0.6875000009E+01
   0.2127500000E+01   0.0000000000E+00  -0.5161087975E-16  -0.4500000000E-02   0.0000000000E+00   0.1448701035E-16   0.1320000000E+00   0.0000000000E+00  -0.6609789009E-16   0.6875000010E+01  -0.1321769611E-14  -0.1223094881E-14   0.5862640287E-15   0.1386567748E-15   0.5102109199E-15   0.6375000010E-01  -0.2912500004E-01  -0.2912500004E-01  -0.3049478243E-16  -0.8066351364E-16   0.6352207938E-17   0.6875000010E+01
   0.2127500000E+01   0.9708750000E+00  -0.4567760684E-16  -0.4500000000E-02   0.6750000000E-03   0.1573308903E-16   0.1320000000E+00  -0.2980000000E-01  -0.6141069588E-16   0.6875000010E+01   0.4515653065E-14   0.2294816334E-14  -0.1938087343E-15   0.6868402320E-15  -0.3167697321E-16   0.6375000009E-01  -0.2912500004E-01  -0.2912500004E-01  -0.3614908902E-16  -0.9530314686E-16  -0.1020253558E-16   0.6875000010E+01
   0.2127500000E+01   0.0000000000E+00   0.9708750000E+00  -0.4500000000E-02   0.0000000000E+00   0.6750000000E-03   0.1320000000E+00   0.0000000000E+00  -0.2980000000E-01   0.6875000010E+01   0.1025354140E-14   0.6897606926E-15  -0.1577153364E-14   0.2318469662E-14   0.1134426338E-14   0.6375000009E-01  -0.2912500004E-01  -0.2912500004E-01  -0.2887469904E-16  -0.4662623624E-16   0.3599935377E-16   0.6875000010E+01
   0.2127500000E+01   0.9708750000E+00   0.9708750000E+00  -0.4500000000E-02   0.6750000000E-03   0.6750000000E-03   0.1320000000E+00  -0.2980000000E-01  -0.2980000000E-01   0.6875000009E+01  -0.3536379999E-14  -0.2162016778E-14  -0.5447268415E-15  -0.3007115675E-14   0.4566127944E-15   0.6375000008E-01  -0.2912500004E-01  -0.2912500004E-01  -0.3507642109E-16  -0.5795441815E-16  -0.4263421322E-17   0.6875000009E+01
     1     2     3     4     5     6     7     8
     2     9    10     3     6    11    12     7
 VARIABLES = X,Y,Z,DU1,DU2,DU3,U1,U2,U3,S11,S22,S33,S12,S13,S23,E11,E22,E33,E12,E13,E23,SMISES
 ZONE, T="0.1300D+01" F=FEPOINT, I=   12 J=    2 ET=BRICK
   0.0000000000E+00   0.0000000000E+00   0.0000000000E+00   0.0000000000E+00   0.0000000000E+00   0.0000000000E+00   0.0000000000E+00   0.0000000000E+00   0.0000000000E+00   0.5750000009E+01  -0.2735701945E-14  -0.4055283474E-14   0.9546693153E-17  -0.3936651389E-15   0.6074320194E-15   0.6150000010E-01  -0.2845000004E-01  -0.2845000004E-01  -0.2613238892E-17  -0.7302694485E-17   0.1198088030E-16   0.5750000009E+01
   0.1061500000E+01   0.0000000000E+00  -0.1658076448E-16  -0.2250000000E-02   0.0000000000E+00  -0.2308134073E-18   0.6375000000E-01   0.0000000000E+00  -0.1634995107E-16   0.5750000009E+01  -0.1957764397E-14  -0.3464927232E-14   0.8297441302E-16   0.1237609191E-15   0.1024964056E-14   0.6150000009E-01  -0.2845000004E-01  -0.2845000004E-01   0.3017591165E-16  -0.3901585574E-16   0.1805273622E-16   0.5750000009E+01
   0.1061500000E+01   0.9715500000E+00  -0.4854191292E-17  -0.2250000000E-02   0.6750000000E-03   0.4156311657E-18   0.6375000000E-01  -0.2912500000E-01  -0.5269822458E-17   0.5750000008E+01  -0.2426548082E-14  -0.4799044127E-14   0.5883043875E-16  -0.1824257967E-15  -0.7282033532E-15   0.6150000009E-01  -0.2845000004E-01  -0.2845000004E-01   0.2616327697E-16  -0.1865283110E-16  -0.1214670369E-16   0.5750000008E+01
   0.0000000000E+00   0.9715500000E+00   0.5445144123E-17   0.0000000000E+00   0.6750000000E-03  -0.5430186857E-18   0.0000000000E+00  -0.2912500000E-01   0.5988162809E-17   0.5750000008E+01   0.3645266509E-14   0.2160753315E-14   0.3989119708E-15   0.3818115955E-16  -0.4131356869E-15   0.6150000009E-01  -0.2845000004E-01  -0.2845000004E-01   0.8172519254E-17   0.2617901055E-17  -0.3144550073E-16   0.5750000008E+01
   0.0000000000E+00   0.0000000000E+00   0.9715500000E+00   0.0000000000E+00   0.0000000000E+00   0.6750000000E-03   0.0000000000E+00   0.0000000000E+00  -0.2912500000E-01   0.5750000008E+01   0.1117125817E-14   0.4357677174E-14   0.2733503855E-16  -0.1682989668E-15   0.8652386808E-15   0.6150000009E-01  -0.2845000004E-01  -0.2845000004E-01   0.4072394085E-17  -0.8176239243E-17   0.1636753767E-16   0.5750000008E+01
   0.1061500000E+01   0.0000000000E+00   0.9715500000E+00  -0.2250000000E-02   0.0000000000E+00   0.6750000000E-03   0.6375000000E-01   0.0000000000E+00  -0.2912500000E-01   0.5750000008E+01  -0.4092872836E-15   0.2832527354E-14  -0.2929319598E-15   0.2102199293E-16   0.4522635651E-15   0.6150000009E-01  -0.2845000004E-01  -0.2845000004E-01  -0.6282724001E-17  -0.7400541369E-17   0.1441461093E-16   0.5750000008E+01
   0.1061500000E+01   0.9715500000E+00   0.9715500000E+00  -0.2250000000E-02   0.6750000000E-03   0.6750000000E-03   0.6375000000E-01  -0.2912500000E-01  -0.2912500000E-01   0.5750000008E+01   0.4135437047E-14   0.5146985172E-14   0.6939660153E-16  -0.2439120366E-15  -0.1410975662E-14   0.6150000008E-01  -0.2845000004E-01  -0.2845000004E-01  -0.1032998439E-16   0.9455957257E-17  -0.3247620414E-16   0.5750000008E+01
   0.0000000000E+00   0.9715500000E+00   0.9715500000E+00   0.0000000000E+00   0.6750000000E-03   0.6750000000E-03   0.0000000000E+00  -0.2912500000E-01  -0.2912500000E-01   0.5750000008E+01  -0.2410214994E-14  -0.1860886289E-14  -0.5501680492E-15  -0.2527784823E-15  -0.7386859005E-15   0.6150000008E-01  -0.2845000004E-01  -0.2845000004E-01   0.4710323922E-17  -0.4740718612E-16  -0.1094635784E-16   0.5750000008E+01
   0.2123000000E+01   0.0000000000E+00  -0.5139167389E-16  -0.4500000000E-02   0.0000000000E+00   0.2192058601E-18   0.1275000000E+00   0.0000000000E+00  -0.5161087975E-16   0.5750000009E+01   0.2379867382E-15   0.3116280601E-15  -0.5398190574E-15  -0.4036231283E-15   0.2983971643E-15   0.6150000009E-01  -0.2845000004E-01  -0.2845000004E-01   0.1259284939E-16  -0.5199113391E-16   0.7756266781E-17   0.5750000009E+01
   0.2123000000E+01   0.9715500000E+00  -0.4652251408E-16  -0.4500000000E-02   0.6750000000E-03  -0.8449072343E-18   0.1275000000E+00  -0.2912500000E-01  -0.4567760684E-16   0.5750000008E+01   0.3612600663E-14   0.1389041772E-14  -0.1100342474E-14   0.1493189047E-14  -0.4075007043E-15   0.6150000009E-01  -0.2845000004E-01  -0.2845000004E-01   0.1212516149E-16  -0.8758177139E-16  -0.2475030673E-16   0.5750000008E+01
   0.2123000000E+01   0.0000000000E+00   0.9715500000E+00  -0.4500000000E-02   0.0000000000E+00   0.6750000000E-03   0.1275000000E+00   0.0000000000E+00  -0.2912500000E-01   0.5750000008E+01   0.1832572122E-15   0.4664528400E-15  -0.7150364925E-15   0.2179398392E-14   0.9186505089E-15   0.6150000009E-01  -0.2845000004E-01  -0.2845000004E-01   0.2480514611E-17   0.4183145669E-16   0.2504692029E-16   0.5750000008E+01
   0.2123000000E+01   0.9715500000E+00   0.9715500000E+00  -0.4500000000E-02   0.6750000000E-03   0.6750000000E-03   0.1275000000E+00  -0.2912500000E-01  -0.2912500000E-01   0.5750000007E+01  -0.1889905358E-14  -0.6461534993E-15   0.3596682716E-15  -0.2185871322E-14   0.1559397462E-15   0.6150000008E-01  -0.2845000004E-01  -0.2845000004E-01  -0.6218051502E-17  -0.1188000995E-15   0.1212809340E-16   0.5750000007E+01
     1     2     3     4     5     6     7     8
     2     9    10     3     6    11    12     7
 VARIABLES = X,Y,Z,DU1,DU2,DU3,U1,U2,U3,S11,S22,S33,S12,S13,S23,E11,E22,E33,E12,E13,E23,SMISES
 ZONE, T="0.1350D+01" F=FEPOINT, I=   12 J=    2 ET=BRICK
   0.0000000000E+00   0.0000000000E+00   0.0000000000E+00   0.0000000000E+00   0.0000000000E+00   0.0000000000E+00   0.0000000000E+00   0.0000000000E+00   0.0000000000E+00   0.4625000007E+01  -0.2435834955E-14  -0.4475068626E-14  -0.8942863431E-17  -0.6304371428E-15   0.7112319115E-15   0.5925000009E-01  -0.2777500004E-01  -0.2777500004E-01  -0.3898816393E-17  -0.9773232118E-17   0.8565225312E-17   0.4625000007E+01
   0.1059250000E+01   0.0000000000E+00  -0.1801929634E-16  -0.2250000000E-02   0.0000000000E+00  -0.1438531862E-17   0.6150000000E-01   0.0000000000E+00  -0.1658076448E-16   0.4625000007E+01  -0.1942890234E-14  -0.3131860408E-14  -0.6669852120E-16   0.1279247044E-16   0.1171636535E-14   0.5925000009E-01  -0.2777500004E-01  -0.2777500004E-01   0.3088981920E-16  -0.3090971499E-16   0.2506697208E-16   0.4625000007E+01
   0.1059250000E+01   0.9722250000E+00  -0.5573552907E-17  -0.2250000000E-02   0.6750000000E-03  -0.7193616148E-18   0.6150000000E-01  -0.2845000000E-01  -0.4854191292E-17   0.4625000007E+01  -0.2674355475E-14  -0.5779385041E-14  -0.3111625204E-15   0.5396093007E-16  -0.6515467801E-15   0.5925000008E-01  -0.2777500004E-01  -0.2777500004E-01   0.2920891346E-16   0.1327413358E-16   0.7080987654E-17   0.4625000007E+01
   0.0000000000E+00   0.9722250000E+00   0.6077497510E-17   0.0000000000E+00   0.6750000000E-03   0.6323533871E-18   0.0000000000E+00  -0.2845000000E-01   0.5445144123E-17   0.4625000007E+01   0.3288429614E-14   0.1321182970E-14   0.2949812318E-15   0.1510745813E-16  -0.4073268396E-15   0.5925000009E-01  -0.2777500004E-01  -0.2777500004E-01   0.1555064274E-16  -0.1254120180E-16  -0.1536046548E-16   0.4625000007E+01
   0.0000000000E+00   0.0000000000E+00   0.9722250000E+00   0.0000000000E+00   0.0000000000E+00   0.6750000000E-03   0.0000000000E+00   0.0000000000E+00  -0.2845000000E-01   0.4625000007E+01   0.1625622063E-14   0.4688217349E-14   0.4654963938E-16  -0.1655002438E-15   0.1006214477E-14   0.5925000009E-01  -0.2777500004E-01  -0.2777500004E-01   0.2932033801E-17  -0.1586553950E-16   0.3328813489E-16   0.4625000007E+01
   0.1059250000E+01   0.0000000000E+00   0.9722250000E+00  -0.2250000000E-02   0.0000000000E+00   0.6750000000E-03   0.6150000000E-01   0.0000000000E+00  -0.2845000000E-01   0.4625000007E+01  -0.8020591342E-16   0.3217119872E-14   0.1801685620E-15  -0.3977240171E-15   0.3665152716E-15   0.5925000008E-01  -0.2777500004E-01  -0.2777500004E-01   0.4072970506E-17  -0.2080594722E-17   0.1104957423E-16   0.4625000007E+01
   0.1059250000E+01   0.9722250000E+00   0.9722250000E+00  -0.2250000000E-02   0.6750000000E-03   0.6750000000E-03   0.6150000000E-01  -0.2845000000E-01  -0.2845000000E-01   0.4625000006E+01   0.4534903719E-14   0.5461192345E-14   0.3789061746E-15   0.1990484184E-15  -0.1553513539E-14   0.5925000008E-01  -0.2777500004E-01  -0.2777500004E-01   0.2705966338E-17  -0.1491798023E-16  -0.4443636489E-16   0.4625000006E+01
   0.0000000000E+00   0.9722250000E+00   0.9722250000E+00   0.0000000000E+00   0.6750000000E-03   0.6750000000E-03   0.0000000000E+00  -0.2845000000E-01  -0.2845000000E-01   0.4625000006E+01  -0.1725755496E-14  -0.1361285989E-14  -0.5850863237E-15  -0.5528217596E-15  -0.7625547113E-15   0.5925000008E-01  -0.2777500004E-01  -0.2777500004E-01   0.1615813123E-16  -0.2379887683E-16  -0.2068387216E-16   0.4625000006E+01
   0.2118500000E+01   0.0000000000E+00  -0.5656766213E-16  -0.4500000000E-02   0.0000000000E+00  -0.5175988239E-17   0.1230000000E+00   0.0000000000E+00  -0.5139167389E-16   0.4625000007E+01  -0.4167244349E-15  -0.5631349000E-15  -0.3989066431E-15  -0.2060592792E-15   0.2288442220E-15   0.5925000009E-01  -0.2777500004E-01  -0.2777500004E-01  -0.2972252135E-17  -0.1868838212E-16   0.6873588856E-17   0.4625000007E+01
   0.2118500000E+01   0.9722250000E+00  -0.5196573899E-16  -0.4500000000E-02   0.6750000000E-03  -0.5443224916E-17   0.1230000000E+00  -0.2845000000E-01  -0.4652251408E-16   0.4625000006E+01   0.3089230262E-14   0.1459427032E-14  -0.1229772449E-14   0.1473834830E-14  -0.5226531496E-15   0.5925000008E-01  -0.2777500004E-01  -0.2777500004E-01  -0.9634700108E-17  -0.4762227195E-16  -0.3404657927E-16   0.4625000006E+01
   0.2118500000E+01   0.0000000000E+00   0.9722250000E+00  -0.4500000000E-02   0.0000000000E+00   0.6750000000E-03   0.1230000000E+00   0.0000000000E+00  -0.2845000000E-01   0.4625000006E+01  -0.5166880252E-16   0.9819329566E-16  -0.1200026098E-15   0.1678075758E-14   0.9116874814E-15   0.5925000008E-01  -0.2777500004E-01  -0.2777500004E-01  -0.1955951062E-16  -0.1078587118E-15   0.4370270336E-16   0.4625000006E+01
   0.2118500000E+01   0.9722250000E+00   0.9722250000E+00  -0.4500000000E-02   0.6750000000E-03   0.6750000000E-03   0.1230000000E+00  -0.2845000000E-01  -0.2845000000E-01   0.4625000006E+01  -0.2160024022E-14  -0.4796200653E-15   0.5499222445E-15  -0.1903994295E-14   0.1086605028E-15   0.5925000008E-01  -0.2777500004E-01  -0.2777500004E-01  -0.2768046952E-16   0.2458624749E-17   0.2856681759E-16   0.4625000006E+01
     1     2     3     4     5     6     7     8
     2     9    10     3     6    11    12     7
 VARIABLES = X,Y,Z,DU1,DU2,DU3,U1,U2,U3,S11,S22,S33,S12,S13,S23,E11,E22,E33,E12,E13,E23,SMISES
 ZONE, T="0.1400D+01" F=FEPOINT, I=   12 J=    2 ET=BRICK
   0.0000000000E+00   0.0000000000E+00   0.0000000000E+00   0.0000000000E+00   0.0000000000E+00   0.0000000000E+00   0.0000000000E+00   0.0000000000E+00   0.0000000000E+00   0.3500000005E+01  -0.3249642477E-14  -0.4968690675E-14  -0.1302464473E-16  -0.5018486933E-15   0.6379434454E-15   0.5700000009E-01  -0.2710000004E-01  -0.2710000004E-01  -0.1496402265E-17  -0.2586293059E-16   0.1826602527E-16   0.3500000005E+01
   0.1057000000E+01   0.0000000000E+00  -0.1727000264E-16  -0.2250000000E-02   0.0000000000E+00   0.7492937013E-18   0.5925000000E-01   0.0000000000E+00  -0.1801929634E-16   0.3500000005E+01  -0.1820979316E-14  -0.3298393858E-14   0.1765514237E-15   0.9040308198E-16   0.1075248652E-14   0.5700000009E-01  -0.2710000004E-01  -0.2710000004E-01   0.2910689201E-16  -0.1405060631E-16   0.3949049855E-16   0.3500000005E+01
   0.1057000000E+01   0.9729000000E+00  -0.5269803461E-17  -0.2250000000E-02   0.6750000000E-03   0.3037494460E-18   0.5925000000E-01  -0.2777500000E-01  -0.5573552907E-17   0.3500000005E+01  -0.2482059212E-14  -0.5612851590E-14   0.2795260863E-16  -0.8723132479E-16  -0.6419055701E-15   0.5700000008E-01  -0.2710000004E-01  -0.2710000004E-01   0.2477974626E-16  -0.2155741277E-16  -0.2810549403E-16   0.3500000005E+01
   0.0000000000E+00   0.9729000000E+00   0.5738403782E-17   0.0000000000E+00   0.6750000000E-03  -0.3390937281E-18   0.0000000000E+00  -0.2777500000E-01   0.6077497510E-17   0.3500000005E+01   0.3182851612E-14   0.1481738115E-14   0.3524847718E-15   0.1023563391E-15  -0.4181036956E-15   0.5700000008E-01  -0.2710000004E-01  -0.2710000004E-01   0.2696067349E-16   0.1217965200E-18  -0.2764754168E-16   0.3500000005E+01
   0.0000000000E+00   0.0000000000E+00   0.9729000000E+00   0.0000000000E+00   0.0000000000E+00   0.6750000000E-03   0.0000000000E+00   0.0000000000E+00  -0.2777500000E-01   0.3500000005E+01   0.1083925910E-14   0.4457276823E-14   0.3814985105E-16  -0.1768466941E-15   0.1001798455E-14   0.5700000008E-01  -0.2710000004E-01  -0.2710000004E-01  -0.6463818542E-18  -0.1394755805E-16   0.6212928045E-17   0.3500000005E+01
   0.1057000000E+01   0.0000000000E+00   0.9729000000E+00  -0.2250000000E-02   0.0000000000E+00   0.6750000000E-03   0.5925000000E-01   0.0000000000E+00  -0.2777500000E-01   0.3500000005E+01  -0.4132727623E-15   0.2525223352E-14   0.1845107130E-15  -0.3293058246E-15   0.4509008530E-15   0.5700000008E-01  -0.2710000004E-01  -0.2710000004E-01   0.1394907929E-16   0.1853436036E-16  -0.1104493583E-16   0.3500000005E+01
   0.1057000000E+01   0.9729000000E+00   0.9729000000E+00  -0.2250000000E-02   0.6750000000E-03   0.6750000000E-03   0.5925000000E-01  -0.2777500000E-01  -0.2777500000E-01   0.3500000005E+01   0.5182177750E-14   0.6345385120E-14   0.3224030438E-15   0.4212830437E-16  -0.1436148774E-14   0.5700000007E-01  -0.2710000004E-01  -0.2710000004E-01   0.1573920121E-16  -0.1751132236E-16   0.3038356699E-17   0.3500000005E+01
   0.0000000000E+00   0.9729000000E+00   0.9729000000E+00   0.0000000000E+00   0.6750000000E-03   0.6750000000E-03   0.0000000000E+00  -0.2777500000E-01  -0.2777500000E-01   0.3500000005E+01  -0.2225355806E-14  -0.1559560489E-14  -0.4381393979E-15  -0.4216194333E-15  -0.7457661002E-15   0.5700000008E-01  -0.2710000004E-01  -0.2710000004E-01   0.1423359131E-16  -0.1514963843E-16   0.9832419340E-17   0.3500000005E+01
   0.2114000000E+01   0.0000000000E+00  -0.5500184335E-16  -0.4500000000E-02   0.0000000000E+00   0.1565818775E-17   0.1185000000E+00   0.0000000000E+00  -0.5656766213E-16   0.3500000005E+01  -0.2313313102E-15   0.1605027482E-15  -0.4489331710E-15  -0.5124072065E-15   0.3710487091E-15   0.5700000009E-01  -0.2710000004E-01  -0.2710000004E-01  -0.2432859597E-16  -0.4477717556E-16   0.4728958150E-17   0.3500000005E+01
   0.2114000000E+01   0.9729000000E+00  -0.4970616461E-16  -0.4500000000E-02   0.6750000000E-03   0.2259574383E-17   0.1185000000E+00  -0.2777500000E-01  -0.5196573899E-16   0.3500000005E+01   0.2528674480E-14   0.6842637779E-15  -0.1377755648E-14   0.2018289978E-14  -0.4760421330E-15   0.5700000008E-01  -0.2710000004E-01  -0.2710000004E-01  -0.2041181435E-16  -0.5829746230E-16  -0.1271109215E-16   0.3500000005E+01
   0.2114000000E+01   0.0000000000E+00   0.9729000000E+00  -0.4500000000E-02   0.0000000000E+00   0.6750000000E-03   0.1185000000E+00   0.0000000000E+00  -0.2777500000E-01   0.3500000005E+01   0.1054347736E-15   0.6622006360E-15   0.3279563448E-15   0.1806653792E-14   0.7261180742E-15   0.5700000008E-01  -0.2710000004E-01  -0.2710000004E-01   0.5782307618E-16  -0.8910726352E-16   0.3951978268E-16   0.3500000005E+01
   0.2114000000E+01   0.9729000000E+00   0.9729000000E+00  -0.4500000000E-02   0.6750000000E-03   0.6750000000E-03   0.1185000000E+00  -0.2777500000E-01  -0.2777500000E-01   0.3500000004E+01  -0.2570379315E-14  -0.6144123794E-15   0.8413689083E-15  -0.1707298603E-14   0.7060840221E-17   0.5700000007E-01  -0.2710000003E-01  -0.2710000003E-01   0.3058092203E-16  -0.7239569940E-17   0.1823696343E-17   0.3500000004E+01
     1     2     3     4     5     6     7     8
     2     9    10     3     6    11    12     7
 VARIABLES = X,Y,Z,DU1,DU2,DU3,U1,U2,U3,S11,S22,S33,S12,S13,S23,E11,E22,E33,E12,E13,E23,SMISES
 ZONE, T="0.1450D+01" F=FEPOINT, I=   12 J=    2 ET=BRICK
   0.0000000000E+00   0.0000000000E+00   0.0000000000E+00   0.0000000000E+00   0.0000000000E+00   0.0000000000E+00   0.0000000000E+00   0.0000000000E+00   0.0000000000E+00   0.2375000004E+01  -0.2848450004E-14  -0.4521781611E-14   0.1138664068E-16  -0.5161131139E-15   0.6209962267E-15   0.5475000009E-01  -0.2642500004E-01  -0.2642500004E-01  -0.2346227163E-17  -0.2790762774E-16  -0.4126588477E-17   0.2375000004E+01
   0.1054750000E+01   0.0000000000E+00  -0.1709717193E-16  -0.2250000000E-02   0.0000000000E+00   0.1728307135E-18   0.5700000000E-01   0.0000000000E+00  -0.1727000264E-16   0.2375000004E+01  -0.1818986559E-14  -0.3134582590E-14   0.1434995527E-15   0.2799412318E-15   0.1120047779E-14   0.5475000008E-01  -0.2642500004E-01  -0.2642500004E-01   0.2970504237E-16   0.2093712833E-17   0.1863747658E-16   0.2375000004E+01
   0.1054750000E+01   0.9735750000E+00  -0.4888840870E-17  -0.2250000000E-02   0.6750000000E-03   0.3809625905E-18   0.5700000000E-01  -0.2710000000E-01  -0.5269803461E-17   0.2375000003E+01  -0.2681792535E-14  -0.5900566556E-14   0.1467659646E-16  -0.3093992340E-15  -0.5787196798E-15   0.5475000008E-01  -0.2642500004E-01  -0.2642500004E-01   0.3753298820E-16  -0.2415696549E-17   0.3817401985E-17   0.2375000003E+01
   0.0000000000E+00   0.9735750000E+00   0.5559876945E-17   0.0000000000E+00   0.6750000000E-03  -0.1785268370E-18   0.0000000000E+00  -0.2710000000E-01   0.5738403782E-17   0.2375000003E+01   0.3357818519E-14   0.1455610603E-14   0.2945948430E-15   0.2232496880E-15  -0.4103156765E-15   0.5475000008E-01  -0.2642500004E-01  -0.2642500004E-01   0.2250392595E-16  -0.1519512761E-16   0.1840917532E-17   0.2375000003E+01
   0.0000000000E+00   0.0000000000E+00   0.9735750000E+00   0.0000000000E+00   0.0000000000E+00   0.6750000000E-03   0.0000000000E+00   0.0000000000E+00  -0.2710000000E-01   0.2375000003E+01   0.1507429629E-14   0.4657374884E-14   0.5385249488E-16  -0.1574274062E-15   0.9383979422E-15   0.5475000008E-01  -0.2642500004E-01  -0.2642500004E-01  -0.6679532815E-17  -0.1584426143E-16   0.4371468845E-16   0.2375000003E+01
   0.1054750000E+01   0.0000000000E+00   0.9735750000E+00  -0.2250000000E-02   0.0000000000E+00   0.6750000000E-03   0.5700000000E-01   0.0000000000E+00  -0.2710000000E-01   0.2375000003E+01  -0.4112800059E-15   0.2605767896E-14  -0.2094457448E-15  -0.2256708048E-15   0.4022040493E-15   0.5475000008E-01  -0.2642500004E-01  -0.2642500004E-01   0.3037434686E-16   0.2481234354E-16   0.2934598524E-16   0.2375000003E+01
   0.1054750000E+01   0.9735750000E+00   0.9735750000E+00  -0.2250000000E-02   0.6750000000E-03   0.6750000000E-03   0.5700000000E-01  -0.2710000000E-01  -0.2710000000E-01   0.2375000003E+01   0.4982444427E-14   0.6079981403E-14   0.6935059405E-16  -0.6284186417E-16  -0.1418744814E-14   0.5475000007E-01  -0.2642500003E-01  -0.2642500003E-01   0.1035147654E-16  -0.5902435918E-17  -0.2518909970E-16   0.2375000003E+01
   0.0000000000E+00   0.9735750000E+00   0.9735750000E+00   0.0000000000E+00   0.6750000000E-03   0.6750000000E-03   0.0000000000E+00  -0.2710000000E-01  -0.2710000000E-01   0.2375000003E+01  -0.2133655617E-14  -0.1596843639E-14  -0.5156045821E-15  -0.4089785864E-15  -0.8096003214E-15   0.5475000007E-01  -0.2642500004E-01  -0.2642500004E-01   0.1501792196E-16  -0.1344072946E-16  -0.4953733483E-16   0.2375000003E+01
   0.2109500000E+01   0.0000000000E+00  -0.5359041084E-16  -0.4500000000E-02   0.0000000000E+00   0.1411432515E-17   0.1140000000E+00   0.0000000000E+00  -0.5500184335E-16   0.2375000004E+01  -0.4551016662E-15  -0.1441768796E-15  -0.3643600457E-15  -0.5380656866E-15   0.2886749281E-15   0.5475000008E-01  -0.2642500004E-01  -0.2642500004E-01   0.2259466851E-16  -0.7245505536E-16   0.5646912005E-17   0.2375000004E+01
   0.2109500000E+01   0.9735750000E+00  -0.4872990212E-16  -0.4500000000E-02   0.6750000000E-03   0.9762624879E-18   0.1140000000E+00  -0.2710000000E-01  -0.4970616461E-16   0.2375000003E+01   0.3126878104E-14   0.1159924780E-14  -0.1179290937E-14   0.1876148020E-14  -0.5434672181E-15   0.5475000008E-01  -0.2642500004E-01  -0.2642500004E-01   0.1512907905E-16  -0.2852907375E-16  -0.3063704026E-16   0.2375000003E+01
   0.2109500000E+01   0.0000000000E+00   0.9735750000E+00  -0.4500000000E-02   0.0000000000E+00   0.6750000000E-03   0.1140000000E+00   0.0000000000E+00  -0.2710000000E-01   0.2375000003E+01  -0.1406468293E-15  -0.1717920641E-16   0.2941767490E-15   0.1650688542E-14   0.7771844524E-15   0.5475000008E-01  -0.2642500004E-01  -0.2642500004E-01   0.1332564921E-16  -0.9515264059E-16   0.3803891985E-16   0.2375000003E+01
   0.2109500000E+01   0.9735750000E+00   0.9735750000E+00  -0.4500000000E-02   0.6750000000E-03   0.6750000000E-03   0.1140000000E+00  -0.2710000000E-01  -0.2710000000E-01   0.2375000003E+01  -0.1888908973E-14   0.3893766768E-16   0.9070733825E-15  -0.1685597312E-14   0.3799366492E-16   0.5475000007E-01  -0.2642500003E-01  -0.2642500003E-01   0.1021340489E-17   0.2395771302E-16   0.2147405519E-16   0.2375000003E+01
     1     2     3     4     5     6     7     8
     2     9    10     3     6    11    12     7
 VARIABLES = X,Y,Z,DU1,DU2,DU3,U1,U2,U3,S11,S22,S33,S12,S13,S23,E11,E22,E33,E12,E13,E23,SMISES
 ZONE, T="0.1500D+01" F=FEPOINT, I=   12 J=    2 ET=BRICK
   0.0000000000E+00   0.0000000000E+00   0.0000000000E+00   0.0000000000E+00   0.0000000000E+00   0.0000000000E+00   0.0000000000E+00   0.0000000000E+00   0.0000000000E+00   0.1250000002E+01  -0.3056799142E-14  -0.5023156555E-14   0.5807570597E-17  -0.5827264895E-15   0.7497645643E-15   0.5250000008E-01  -0.2575000004E-01  -0.2575000004E-01   0.3719660657E-17  -0.1407069955E-16   0.1353052923E-16   0.1250000002E+01
   0.1052500000E+01   0.0000000000E+00  -0.1838401365E-16  -0.2250000000E-02   0.0000000000E+00  -0.1286841722E-17   0.5475000000E-01   0.0000000000E+00  -0.1709717193E-16   0.1250000002E+01  -0.1866695912E-14  -0.3426380795E-14   0.1626598644E-15   0.3204588334E-15   0.1195690864E-14   0.5250000008E-01  -0.2575000004E-01  -0.2575000004E-01   0.1843315463E-16  -0.3267659629E-16   0.3234887617E-16   0.1250000002E+01
   0.1052500000E+01   0.9742500000E+00  -0.5862231872E-17  -0.2250000000E-02   0.6750000000E-03  -0.9733910016E-18   0.5475000000E-01  -0.2642500000E-01  -0.4888840870E-17   0.1250000002E+01  -0.2551812846E-14  -0.5931409004E-14   0.3757733933E-16  -0.3031784898E-15  -0.7839006305E-15   0.5250000007E-01  -0.2575000004E-01  -0.2575000004E-01   0.2045044484E-16   0.1631552208E-16  -0.1593970387E-16   0.1250000002E+01
   0.0000000000E+00   0.9742500000E+00   0.6087571114E-17   0.0000000000E+00   0.6750000000E-03   0.5276941686E-18   0.0000000000E+00  -0.2642500000E-01   0.5559876945E-17   0.1250000002E+01   0.3590702878E-14   0.1581324701E-14   0.2877997241E-15  -0.2164346954E-16  -0.5967056571E-15   0.5250000008E-01  -0.2575000004E-01  -0.2575000004E-01   0.2113760387E-16  -0.1268784650E-16  -0.1867407261E-16   0.1250000002E+01
   0.0000000000E+00   0.0000000000E+00   0.9742500000E+00   0.0000000000E+00   0.0000000000E+00   0.6750000000E-03   0.0000000000E+00   0.0000000000E+00  -0.2642500000E-01   0.1250000002E+01   0.1613688125E-14   0.5139561212E-14   0.6868136952E-16  -0.2986300159E-15   0.1019767565E-14   0.5250000008E-01  -0.2575000004E-01  -0.2575000004E-01   0.2152769084E-17  -0.1655043744E-16  -0.1627688472E-17   0.1250000002E+01
   0.1052500000E+01   0.0000000000E+00   0.9742500000E+00  -0.2250000000E-02   0.0000000000E+00   0.6750000000E-03   0.5475000000E-01   0.0000000000E+00  -0.2642500000E-01   0.1250000002E+01  -0.3164929673E-15   0.2954803044E-14  -0.3162103562E-15  -0.9414284197E-16   0.4815922241E-15   0.5250000007E-01  -0.2575000004E-01  -0.2575000004E-01   0.4832505318E-17   0.8441280973E-17   0.7635643423E-17   0.1250000002E+01
   0.1052500000E+01   0.9742500000E+00   0.9742500000E+00  -0.2250000000E-02   0.6750000000E-03   0.6750000000E-03   0.5475000000E-01  -0.2642500000E-01  -0.2642500000E-01   0.1250000002E+01   0.4808109208E-14   0.6243161008E-14  -0.2380735592E-16  -0.1067794367E-16  -0.1504236439E-14   0.5250000007E-01  -0.2575000003E-01  -0.2575000003E-01   0.1181835002E-16  -0.1152670193E-16   0.1025762097E-17   0.1250000002E+01
   0.0000000000E+00   0.9742500000E+00   0.9742500000E+00   0.0000000000E+00   0.6750000000E-03   0.6750000000E-03   0.0000000000E+00  -0.2642500000E-01  -0.2642500000E-01   0.1250000002E+01  -0.2361958544E-14  -0.1513163328E-14  -0.5161252529E-15  -0.5523270439E-15  -0.9285814810E-15   0.5250000007E-01  -0.2575000003E-01  -0.2575000003E-01   0.2332219012E-16   0.9600011598E-17  -0.2720870694E-16   0.1250000002E+01
   0.2105000000E+01   0.0000000000E+00  -0.5883362484E-16  -0.4500000000E-02   0.0000000000E+00  -0.5243214003E-17   0.1095000000E+00   0.0000000000E+00  -0.5359041084E-16   0.1250000002E+01  -0.2589045307E-15   0.5859443643E-16  -0.4295095392E-15  -0.3584950860E-15   0.4846550515E-15   0.5250000008E-01  -0.2575000004E-01  -0.2575000004E-01  -0.1650427484E-16   0.1738517681E-16   0.1386738014E-16   0.1250000002E+01
   0.2105000000E+01   0.9742500000E+00  -0.5301666911E-16  -0.4500000000E-02   0.6750000000E-03  -0.4286766983E-17   0.1095000000E+00  -0.2642500000E-01  -0.4872990212E-16   0.1250000002E+01   0.2843197514E-14   0.5304293978E-15  -0.1300039870E-14   0.2152175197E-14  -0.5340706532E-15   0.5250000007E-01  -0.2575000004E-01  -0.2575000004E-01  -0.2162495371E-16  -0.4971188489E-16  -0.1833566815E-16   0.1250000002E+01
   0.2105000000E+01   0.0000000000E+00   0.9742500000E+00  -0.4500000000E-02   0.0000000000E+00   0.6750000000E-03   0.1095000000E+00   0.0000000000E+00  -0.2642500000E-01   0.1250000002E+01  -0.3501999854E-16   0.2562086609E-15   0.3905967664E-16   0.1989618431E-14   0.8742187717E-15   0.5250000007E-01  -0.2575000004E-01  -0.2575000004E-01   0.4573153474E-16  -0.6794035792E-16   0.3497164069E-16   0.1250000002E+01
   0.2105000000E+01   0.9742500000E+00   0.9742500000E+00  -0.4500000000E-02   0.6750000000E-03   0.6750000000E-03   0.1095000000E+00  -0.2642500000E-01  -0.2642500000E-01   0.1250000002E+01  -0.2092543209E-14  -0.9952436540E-16   0.7216611274E-15  -0.1750047536E-14  -0.6988637814E-16   0.5250000007E-01  -0.2575000003E-01  -0.2575000003E-01   0.2405051015E-16  -0.1262501292E-15  -0.5002770857E-17   0.1250000002E+01
     1     2     3     4     5     6     7     8
     2     9    10     3     6    11    12     7
 VARIABLES = X,Y,Z,DU1,DU2,DU3,U1,U2,U3,S11,S22,S33,S12,S13,S23,E11,E22,E33,E12,E13,E23,SMISES
 ZONE, T="0.1550D+01" F=FEPOINT, I=   12 J=    2 ET=BRICK
   0.0000000000E+00   0.0000000000E+00   0.0000000000E+00   0.0000000000E+00   0.0000000000E+00   0.0000000000E+00   0.0000000000E+00   0.0000000000E+00   0.0000000000E+00   0.1250000002E+00  -0.3090626264E-14  -0.4892965618E-14   0.5319287220E-16  -0.6088257655E-15   0.7505166381E-15   0.5025000008E-01  -0.2507500004E-01  -0.2507500004E-01   0.3501788007E-17  -0.5353249430E-16   0.8189161620E-17   0.1250000002E+00
   0.1050250000E+01   0.0000000000E+00  -0.1813088274E-16  -0.2250000000E-02   0.0000000000E+00   0.2531309070E-18   0.5250000000E-01   0.0000000000E+00  -0.1838401365E-16   0.1250000002E+00  -0.1910586635E-14  -0.3411357672E-14  -0.9381546507E-16   0.2015553404E-15   0.1208633939E-14   0.5025000008E-01  -0.2507500004E-01  -0.2507500004E-01   0.1490430980E-16   0.3666935334E-16   0.1911165055E-16   0.1250000002E+00
   0.1050250000E+01   0.9749250000E+00  -0.5515379865E-17  -0.2250000000E-02   0.6750000000E-03   0.3468520074E-18   0.5250000000E-01  -0.2575000000E-01  -0.5862231872E-17   0.1250000002E+00  -0.2661805401E-14  -0.6071332236E-14  -0.1774790651E-15  -0.1775938960E-15  -0.6695460820E-15   0.5025000007E-01  -0.2507500004E-01  -0.2507500004E-01   0.2835122549E-16  -0.4657066336E-16   0.5374977437E-17   0.1250000002E+00
   0.0000000000E+00   0.9749250000E+00   0.6005699905E-17   0.0000000000E+00   0.6750000000E-03  -0.8187120918E-19   0.0000000000E+00  -0.2575000000E-01   0.6087571114E-17   0.1250000002E+00   0.3116347237E-14   0.1292551078E-14   0.3355963955E-15   0.1090639894E-15  -0.4626785157E-15   0.5025000007E-01  -0.2507500004E-01  -0.2507500004E-01   0.2357234905E-16   0.5716682570E-17  -0.2887409686E-16   0.1250000002E+00
   0.0000000000E+00   0.0000000000E+00   0.9749250000E+00   0.0000000000E+00   0.0000000000E+00   0.6750000000E-03   0.0000000000E+00   0.0000000000E+00  -0.2575000000E-01   0.1250000002E+00   0.1426208993E-14   0.4779697310E-14   0.6457770643E-16  -0.2557262366E-15   0.1029505860E-14   0.5025000007E-01  -0.2507500004E-01  -0.2507500004E-01  -0.1192176861E-16  -0.7087793129E-18   0.1971018952E-16   0.1250000002E+00
   0.1050250000E+01   0.0000000000E+00   0.9749250000E+00  -0.2250000000E-02   0.0000000000E+00   0.6750000000E-03   0.5250000000E-01   0.0000000000E+00  -0.2575000000E-01   0.1250000002E+00  -0.3711078553E-15   0.2903724335E-14  -0.6253039411E-16  -0.3608185820E-15   0.4381558385E-15   0.5025000007E-01  -0.2507500004E-01  -0.2507500004E-01   0.4524175484E-16  -0.3720571796E-16   0.1665063485E-16   0.1250000002E+00
   0.1050250000E+01   0.9749250000E+00   0.9749250000E+00  -0.2250000000E-02   0.6750000000E-03   0.6750000000E-03   0.5250000000E-01  -0.2575000000E-01  -0.2575000000E-01   0.1250000002E+00   0.4520111769E-14   0.5869855224E-14   0.2313189007E-15   0.2422681468E-15  -0.1476875591E-14   0.5025000007E-01  -0.2507500003E-01  -0.2507500003E-01   0.1284878921E-16   0.2242419083E-16   0.3121249454E-18   0.1250000002E+00
   0.0000000000E+00   0.9749250000E+00   0.9749250000E+00   0.0000000000E+00   0.6750000000E-03   0.6750000000E-03   0.0000000000E+00  -0.2575000000E-01  -0.2575000000E-01   0.1250000002E+00  -0.1985834989E-14  -0.1287860586E-14  -0.6023741742E-15  -0.6261910504E-15  -0.8257850733E-15   0.5025000007E-01  -0.2507500003E-01  -0.2507500003E-01   0.2460956007E-16  -0.1805039620E-16  -0.2598719432E-16   0.1250000002E+00
   0.2100500000E+01   0.0000000000E+00  -0.5730150230E-16  -0.4500000000E-02   0.0000000000E+00   0.1532122536E-17   0.1050000000E+00   0.0000000000E+00  -0.5883362484E-16   0.1250000002E+00  -0.9813500155E-15  -0.7821525101E-15  -0.3844490144E-15  -0.2577409271E-15   0.3627259338E-15   0.5025000008E-01  -0.2507500004E-01  -0.2507500004E-01   0.1575303338E-16  -0.1654989273E-15   0.1185889736E-16   0.1250000002E+00
   0.2100500000E+01   0.9749250000E+00  -0.5220573691E-16  -0.4500000000E-02   0.6750000000E-03   0.8109321921E-18   0.1050000000E+00  -0.2575000000E-01  -0.5301666911E-16   0.1250000002E+00   0.3052082662E-14   0.9213603643E-15  -0.1259687915E-14   0.1841360756E-14  -0.5773095819E-15   0.5025000007E-01  -0.2507500004E-01  -0.2507500004E-01   0.7023979887E-17   0.6817259607E-16  -0.3900850899E-16   0.1250000002E+00
   0.2100500000E+01   0.0000000000E+00   0.9749250000E+00  -0.4500000000E-02   0.0000000000E+00   0.6750000000E-03   0.1050000000E+00   0.0000000000E+00  -0.2575000000E-01   0.1250000002E+00   0.4973442604E-15   0.3963186671E-15  -0.7207535833E-16   0.1911840418E-14   0.8534048084E-15   0.5025000007E-01  -0.2507500004E-01  -0.2507500004E-01   0.1108440524E-16  -0.1078941418E-17   0.4712293325E-16   0.1250000002E+00
   0.2100500000E+01   0.9749250000E+00   0.9749250000E+00  -0.4500000000E-02   0.6750000000E-03   0.6750000000E-03   0.1050000000E+00  -0.2575000000E-01  -0.2575000000E-01   0.1250000002E+00  -0.2255985301E-14  -0.3548734292E-15   0.6693039979E-15  -0.2018259355E-14   0.3466766104E-16   0.5025000006E-01  -0.2507500003E-01  -0.2507500003E-01   0.7346127587E-17  -0.8418150455E-16   0.4685868321E-17   0.1250000002E+00
     1     2     3     4     5     6     7     8
     2     9    10     3     6    11    12     7
 VARIABLES = X,Y,Z,DU1,DU2,DU3,U1,U2,U3,S11,S22,S33,S12,S13,S23,E11,E22,E33,E12,E13,E23,SMISES
 ZONE, T="0.1600D+01" F=FEPOINT, I=   12 J=    2 ET=BRICK
   0.0000000000E+00   0.0000000000E+00   0.0000000000E+00   0.0000000000E+00   0.0000000000E+00   0.0000000000E+00   0.0000000000E+00   0.0000000000E+00   0.0000000000E+00  -0.1000000002E+01  -0.3141925115E-14  -0.5053950112E-14   0.9057829154E-16  -0.6210803469E-15   0.7548021874E-15   0.4800000008E-01  -0.2440000004E-01  -0.2440000004E-01   0.2372832793E-17  -0.5408697705E-16   0.2521134109E-17   0.1000000002E+01
   0.1048000000E+01   0.0000000000E+00  -0.1859184638E-16  -0.2250000000E-02   0.0000000000E+00  -0.4609636398E-18   0.5025000000E-01   0.0000000000E+00  -0.1813088274E-16  -0.1000000002E+01  -0.1696443936E-14  -0.3334315919E-14   0.8857038492E-16   0.3964648997E-15   0.1184439256E-14   0.4800000007E-01  -0.2440000004E-01  -0.2440000004E-01   0.2155791786E-16   0.1895587378E-16   0.2719637325E-16   0.1000000002E+01
   0.1048000000E+01   0.9756000000E+00  -0.6107665540E-17  -0.2250000000E-02   0.6750000000E-03  -0.5922856755E-18   0.5025000000E-01  -0.2507500000E-01  -0.5515379865E-17  -0.1000000001E+01  -0.2512901648E-14  -0.5929051544E-14   0.3961873063E-16  -0.3187400372E-15  -0.7216166229E-15   0.4800000007E-01  -0.2440000003E-01  -0.2440000003E-01   0.3275475068E-16  -0.2171811311E-16  -0.2293469443E-16   0.1000000001E+01
   0.0000000000E+00   0.9756000000E+00   0.5930146778E-17   0.0000000000E+00   0.6750000000E-03  -0.7555312623E-19   0.0000000000E+00  -0.2507500000E-01   0.6005699905E-17  -0.1000000001E+01   0.3571247292E-14   0.1637018202E-14   0.2341416945E-15   0.3959599594E-16  -0.6337396889E-15   0.4800000007E-01  -0.2440000004E-01  -0.2440000004E-01   0.2159390257E-16   0.5738340715E-17  -0.2309073142E-17   0.1000000001E+01
   0.0000000000E+00   0.0000000000E+00   0.9756000000E+00   0.0000000000E+00   0.0000000000E+00   0.6750000000E-03   0.0000000000E+00   0.0000000000E+00  -0.2507500000E-01  -0.1000000001E+01   0.1955419681E-14   0.5433899240E-14   0.3252282062E-16  -0.2850148377E-15   0.9747185256E-15   0.4800000007E-01  -0.2440000004E-01  -0.2440000004E-01   0.6142073714E-19  -0.1716494424E-16   0.6582924041E-17   0.1000000001E+01
   0.1048000000E+01   0.0000000000E+00   0.9756000000E+00  -0.2250000000E-02   0.0000000000E+00   0.6750000000E-03   0.5025000000E-01   0.0000000000E+00  -0.2507500000E-01  -0.1000000001E+01  -0.3784448094E-15   0.2873893790E-14  -0.1864524683E-15  -0.3038051836E-15   0.4442151784E-15   0.4800000007E-01  -0.2440000003E-01  -0.2440000003E-01   0.1010900990E-16   0.9250104466E-17   0.2828908919E-16   0.1000000001E+01
   0.1048000000E+01   0.9756000000E+00   0.9756000000E+00  -0.2250000000E-02   0.6750000000E-03   0.6750000000E-03   0.5025000000E-01  -0.2507500000E-01  -0.2507500000E-01  -0.1000000001E+01   0.4614816588E-14   0.6103022066E-14  -0.3269385356E-16   0.3002128520E-15  -0.1498322477E-14   0.4800000006E-01  -0.2440000003E-01  -0.2440000003E-01  -0.7076731504E-17  -0.2189436214E-17  -0.2260776613E-16   0.1000000001E+01
   0.0000000000E+00   0.9756000000E+00   0.9756000000E+00   0.0000000000E+00   0.6750000000E-03   0.6750000000E-03   0.0000000000E+00  -0.2507500000E-01  -0.2507500000E-01  -0.1000000001E+01  -0.1954556601E-14  -0.1344588263E-14  -0.5543190405E-15  -0.7583655105E-15  -0.8526634417E-15   0.4800000006E-01  -0.2440000003E-01  -0.2440000003E-01   0.2729090921E-16  -0.2463962795E-16  -0.2244385896E-16   0.1000000001E+01
   0.2096000000E+01   0.0000000000E+00  -0.5963646262E-16  -0.4500000000E-02   0.0000000000E+00  -0.2334960319E-17   0.1005000000E+00   0.0000000000E+00  -0.5730150230E-16  -0.1000000002E+01  -0.1757712896E-15  -0.4666768884E-16  -0.3072260959E-15  -0.1561242579E-15   0.5440415494E-15   0.4800000007E-01  -0.2440000004E-01  -0.2440000004E-01  -0.7689661968E-17  -0.1178758126E-15   0.5093137262E-17   0.1000000002E+01
   0.2096000000E+01   0.9756000000E+00  -0.5369043836E-16  -0.4500000000E-02   0.6750000000E-03  -0.1484701447E-17   0.1005000000E+00  -0.2507500000E-01  -0.5220573691E-16  -0.1000000001E+01   0.2931045671E-14   0.5532876964E-15  -0.1108133559E-14   0.1915398023E-14  -0.6301288045E-15   0.4800000007E-01  -0.2440000003E-01  -0.2440000003E-01  -0.3699716483E-16   0.2155861588E-16  -0.3562112293E-17   0.1000000001E+01
   0.2096000000E+01   0.0000000000E+00   0.9756000000E+00  -0.4500000000E-02   0.0000000000E+00   0.6750000000E-03   0.1005000000E+00   0.0000000000E+00  -0.2507500000E-01  -0.1000000001E+01  -0.1048477762E-16   0.2069558615E-15  -0.1943592677E-15   0.1934784963E-14   0.9569315271E-15   0.4800000007E-01  -0.2440000003E-01  -0.2440000003E-01   0.5381688303E-16  -0.7005554141E-16   0.4103430225E-16   0.1000000001E+01
   0.2096000000E+01   0.9756000000E+00   0.9756000000E+00  -0.4500000000E-02   0.6750000000E-03   0.6750000000E-03   0.1005000000E+00  -0.2507500000E-01  -0.2507500000E-01  -0.1000000001E+01  -0.2063293073E-14  -0.3589560394E-16   0.6588228475E-15  -0.1729902512E-14  -0.6142682571E-16   0.4800000006E-01  -0.2440000003E-01  -0.2440000003E-01   0.3628341946E-16  -0.1537574209E-16  -0.2364170076E-18   0.1000000001E+01
     1     2     3     4     5     6     7     8
     2     9    10     3     6    11    12     7
 VARIABLES = X,Y,Z,DU1,DU2,DU3,U1,U2,U3,S11,S22,S33,S12,S13,S23,E11,E22,E33,E12,E13,E23,SMISES
 ZONE, T="0.1650D+01" F=FEPOINT, I=   12 J=    2 ET=BRICK
   0.0000000000E+00   0.0000000000E+00   0.0000000000E+00   0.0000000000E+00   0.0000000000E+00   0.0000000000E+00   0.0000000000E+00   0.0000000000E+00   0.0000000000E+00  -0.2125000003E+01  -0.3193766636E-14  -0.5309924049E-14   0.1265521664E-15  -0.7296501673E-15   0.8550539015E-15   0.4575000007E-01  -0.2372500004E-01  -0.2372500004E-01  -0.1193903831E-17  -0.3640023915E-16   0.9724612088E-17   0.2125000003E+01
   0.1045750000E+01   0.0000000000E+00  -0.1959100713E-16  -0.2250000000E-02   0.0000000000E+00  -0.9991607504E-18   0.4800000000E-01   0.0000000000E+00  -0.1859184638E-16  -0.2125000003E+01  -0.2028879132E-14  -0.3779134490E-14  -0.5807856881E-16   0.2823384322E-15   0.1185898221E-14   0.4575000007E-01  -0.2372500004E-01  -0.2372500004E-01   0.2907938043E-16   0.1871867319E-17   0.2690127827E-16   0.2125000003E+01
   0.1045750000E+01   0.9762750000E+00  -0.7068529792E-17  -0.2250000000E-02   0.6750000000E-03  -0.9608642517E-18   0.4800000000E-01  -0.2440000000E-01  -0.6107665540E-17  -0.2125000003E+01  -0.2414396092E-14  -0.5830910687E-14  -0.1354208826E-15  -0.2368221762E-15  -0.7723817638E-15   0.4575000007E-01  -0.2372500003E-01  -0.2372500003E-01   0.4050484330E-16  -0.1587543323E-16  -0.1339984371E-16   0.2125000003E+01
   0.0000000000E+00   0.9762750000E+00   0.6411687453E-17   0.0000000000E+00   0.6750000000E-03   0.4815406748E-18   0.0000000000E+00  -0.2440000000E-01   0.5930146778E-17  -0.2125000003E+01   0.2751546169E-14   0.7430308630E-15   0.2804998636E-15  -0.1744659783E-15  -0.6174025678E-15   0.4575000007E-01  -0.2372500003E-01  -0.2372500003E-01   0.2555437857E-16  -0.1375221919E-16  -0.2085295132E-17   0.2125000003E+01
   0.0000000000E+00   0.0000000000E+00   0.9762750000E+00   0.0000000000E+00   0.0000000000E+00   0.6750000000E-03   0.0000000000E+00   0.0000000000E+00  -0.2440000000E-01  -0.2125000003E+01   0.1396042655E-14   0.5086954585E-14   0.2930190228E-16  -0.3681118254E-15   0.1059476977E-14   0.4575000007E-01  -0.2372500003E-01  -0.2372500003E-01  -0.2430827588E-17  -0.2475003313E-16   0.1222908895E-16   0.2125000003E+01
   0.1045750000E+01   0.0000000000E+00   0.9762750000E+00  -0.2250000000E-02   0.0000000000E+00   0.6750000000E-03   0.4800000000E-01   0.0000000000E+00  -0.2440000000E-01  -0.2125000003E+01  -0.2236986896E-15   0.2909815844E-14   0.1594281786E-15  -0.4346592713E-15   0.5051434014E-15   0.4575000007E-01  -0.2372500003E-01  -0.2372500003E-01   0.1783174043E-16  -0.1264551877E-16   0.3066719566E-16   0.2125000003E+01
   0.1045750000E+01   0.9762750000E+00   0.9762750000E+00  -0.2250000000E-02   0.6750000000E-03   0.6750000000E-03   0.4800000000E-01  -0.2440000000E-01  -0.2440000000E-01  -0.2125000003E+01   0.4631781250E-14   0.6204614521E-14   0.3607649379E-15   0.4732642580E-15  -0.1460777789E-14   0.4575000006E-01  -0.2372500003E-01  -0.2372500003E-01  -0.1977881425E-17  -0.2333327505E-16  -0.2397988790E-16   0.2125000003E+01
   0.0000000000E+00   0.9762750000E+00   0.9762750000E+00   0.0000000000E+00   0.6750000000E-03   0.6750000000E-03   0.0000000000E+00  -0.2440000000E-01  -0.2440000000E-01  -0.2125000003E+01  -0.1315764911E-14  -0.7504679252E-15  -0.5207017545E-15  -0.8220002161E-15  -0.8822445631E-15   0.4575000006E-01  -0.2372500003E-01  -0.2372500003E-01   0.2784723992E-16  -0.1325595025E-16  -0.3235259877E-16   0.2125000003E+01
   0.2091500000E+01   0.0000000000E+00  -0.6325518014E-16  -0.4500000000E-02   0.0000000000E+00  -0.3618717518E-17   0.9600000000E-01   0.0000000000E+00  -0.5963646262E-16  -0.2125000003E+01  -0.9072595794E-15  -0.5489901376E-15   0.4692725240E-16  -0.2031092518E-15   0.4357953031E-15   0.4575000007E-01  -0.2372500004E-01  -0.2372500004E-01   0.2437265633E-16  -0.1318687296E-15   0.1054224081E-16   0.2125000003E+01
   0.2091500000E+01   0.9762750000E+00  -0.5782143232E-16  -0.4500000000E-02   0.6750000000E-03  -0.4130993965E-17   0.9600000000E-01  -0.2440000000E-01  -0.5369043836E-16  -0.2125000003E+01   0.2858387497E-14   0.6537860214E-15  -0.9441591925E-15   0.1724986884E-14  -0.5591650059E-15   0.4575000006E-01  -0.2372500003E-01  -0.2372500003E-01  -0.4174619373E-17   0.5350474121E-17  -0.2989944075E-16   0.2125000003E+01
   0.2091500000E+01   0.0000000000E+00   0.9762750000E+00  -0.4500000000E-02   0.0000000000E+00   0.6750000000E-03   0.9600000000E-01   0.0000000000E+00  -0.2440000000E-01  -0.2125000003E+01   0.6016812241E-15   0.1134774760E-14  -0.2257858028E-15   0.2271344124E-14   0.8388198136E-15   0.4575000006E-01  -0.2372500003E-01  -0.2372500003E-01   0.2131746555E-16   0.5569304987E-17   0.3783904793E-16   0.2125000003E+01
   0.2091500000E+01   0.9762750000E+00   0.9762750000E+00  -0.4500000000E-02   0.6750000000E-03   0.6750000000E-03   0.9600000000E-01  -0.2440000000E-01  -0.2440000000E-01  -0.2125000003E+01  -0.2453548000E-14  -0.4620237052E-15   0.7285701590E-15  -0.2106171848E-14  -0.2056175941E-18   0.4575000006E-01  -0.2372500003E-01  -0.2372500003E-01   0.2050264086E-17  -0.6397559833E-16  -0.1281823546E-16   0.2125000003E+01
     1     2     3     4     5     6     7     8
     2     9    10     3     6    11    12     7
 VARIABLES = X,Y,Z,DU1,DU2,DU3,U1,U2,U3,S11,S22,S33,S12,S13,S23,E11,E22,E33,E12,E13,E23,SMISES
 ZONE, T="0.1700D+01" F=FEPOINT, I=   12 J=    2 ET=BRICK
   0.0000000000E+00   0.0000000000E+00   0.0000000000E+00   0.0000000000E+00   0.0000000000E+00   0.0000000000E+00   0.0000000000E+00   0.0000000000E+00   0.0000000000E+00  -0.3250000005E+01  -0.2987494826E-14  -0.5317895003E-14   0.1085462311E-15  -0.7222756410E-15   0.6588114877E-15   0.4350000007E-01  -0.2305000004E-01  -0.2305000004E-01   0.2934960056E-17  -0.3699054235E-16   0.1749038389E-16   0.3250000005E+01
   0.1043500000E+01   0.0000000000E+00  -0.1849153449E-16  -0.2250000000E-02   0.0000000000E+00   0.1099472639E-17   0.4575000000E-01   0.0000000000E+00  -0.1959100713E-16  -0.3250000005E+01  -0.1806105153E-14  -0.2970771321E-14  -0.1969030266E-15   0.4290156039E-15   0.1208861539E-14   0.4350000007E-01  -0.2305000004E-01  -0.2305000004E-01   0.2234421254E-16   0.2294124440E-16   0.2013475183E-16   0.3250000005E+01
   0.1043500000E+01   0.9769500000E+00  -0.5904646521E-17  -0.2250000000E-02   0.6750000000E-03   0.1163883271E-17   0.4575000000E-01  -0.2372500000E-01  -0.7068529792E-17  -0.3250000005E+01  -0.2659481303E-14  -0.5855214663E-14  -0.2533946598E-15  -0.2824339428E-15  -0.6152625137E-15   0.4350000006E-01  -0.2305000003E-01  -0.2305000003E-01   0.3323141923E-16  -0.4993436673E-16   0.1039289655E-16   0.3250000005E+01
   0.0000000000E+00   0.9769500000E+00   0.5350735455E-17   0.0000000000E+00   0.6750000000E-03  -0.1060951999E-17   0.0000000000E+00  -0.2372500000E-01   0.6411687453E-17  -0.3250000005E+01   0.3719637334E-14   0.2384061214E-14   0.2519738426E-15   0.1429734610E-15  -0.7759224730E-15   0.4350000006E-01  -0.2305000003E-01  -0.2305000003E-01   0.2350962181E-16  -0.8921919935E-17  -0.3546769220E-16   0.3250000005E+01
   0.0000000000E+00   0.0000000000E+00   0.9769500000E+00   0.0000000000E+00   0.0000000000E+00   0.6750000000E-03   0.0000000000E+00   0.0000000000E+00  -0.2372500000E-01  -0.3250000005E+01   0.1566659321E-14   0.4674606545E-14   0.4427641101E-16   0.1204449478E-16   0.1110052726E-14   0.4350000006E-01  -0.2305000003E-01  -0.2305000003E-01  -0.9600801366E-17  -0.1469428227E-16   0.1365452173E-16   0.3250000005E+01
   0.1043500000E+01   0.0000000000E+00   0.9769500000E+00  -0.2250000000E-02   0.0000000000E+00   0.6750000000E-03   0.4575000000E-01   0.0000000000E+00  -0.2372500000E-01  -0.3250000005E+01   0.5053560326E-17   0.3474357108E-14  -0.3644870121E-15  -0.5148919026E-15   0.3781598934E-15   0.4350000006E-01  -0.2305000003E-01  -0.2305000003E-01   0.2402419127E-16  -0.2590495756E-16   0.2703163006E-16   0.3250000005E+01
   0.1043500000E+01   0.9769500000E+00   0.9769500000E+00  -0.2250000000E-02   0.6750000000E-03   0.6750000000E-03   0.4575000000E-01  -0.2372500000E-01  -0.2372500000E-01  -0.3250000004E+01   0.4075940387E-14   0.5270354924E-14  -0.2133507587E-16   0.2545441124E-15  -0.1468115760E-14   0.4350000006E-01  -0.2305000003E-01  -0.2305000003E-01  -0.1045822851E-16  -0.2293428704E-16  -0.3126713250E-16   0.3250000004E+01
   0.0000000000E+00   0.9769500000E+00   0.9769500000E+00   0.0000000000E+00   0.6750000000E-03   0.6750000000E-03   0.0000000000E+00  -0.2372500000E-01  -0.2372500000E-01  -0.3250000004E+01  -0.2223363054E-14  -0.7851266193E-15  -0.4899443559E-15  -0.8899947552E-15  -0.7151191361E-15   0.4350000006E-01  -0.2305000003E-01  -0.2305000003E-01   0.4457292535E-16  -0.1666252800E-16  -0.2667275305E-16   0.3250000004E+01
   0.2087000000E+01   0.0000000000E+00  -0.5771243740E-16  -0.4500000000E-02   0.0000000000E+00   0.5542742742E-17   0.9150000000E-01   0.0000000000E+00  -0.6325518014E-16  -0.3250000005E+01  -0.1167583653E-14  -0.1448057105E-14  -0.3388355618E-15   0.5982853162E-16   0.3854321568E-15   0.4350000007E-01  -0.2305000003E-01  -0.2305000003E-01   0.1979431782E-18  -0.3097406857E-16   0.1455891016E-16   0.3250000005E+01
   0.2087000000E+01   0.9769500000E+00  -0.5260222011E-16  -0.4500000000E-02   0.6750000000E-03   0.5219212214E-17   0.9150000000E-01  -0.2372500000E-01  -0.5782143232E-16  -0.3250000005E+01   0.3597726421E-14   0.1103319470E-14  -0.1077432831E-14   0.1769041446E-14  -0.6425034332E-15   0.4350000006E-01  -0.2305000003E-01  -0.2305000003E-01  -0.1833588194E-16  -0.6348613445E-16  -0.3198402842E-16   0.3250000005E+01
   0.2087000000E+01   0.0000000000E+00   0.9769500000E+00  -0.4500000000E-02   0.0000000000E+00   0.6750000000E-03   0.9150000000E-01   0.0000000000E+00  -0.2372500000E-01  -0.3250000005E+01   0.4216347066E-15   0.1524410670E-15  -0.1895050867E-15   0.2081116577E-14   0.9112245377E-15   0.4350000006E-01  -0.2305000003E-01  -0.2305000003E-01   0.4410285239E-17  -0.1099978500E-15   0.3219026642E-16   0.3250000005E+01
   0.2087000000E+01   0.9769500000E+00   0.9769500000E+00  -0.4500000000E-02   0.6750000000E-03   0.6750000000E-03   0.9150000000E-01  -0.2372500000E-01  -0.2372500000E-01  -0.3250000004E+01  -0.2158031232E-14  -0.1567124544E-15   0.7014892108E-15  -0.1964379938E-14   0.8709473598E-16   0.4350000006E-01  -0.2305000003E-01  -0.2305000003E-01  -0.2064755640E-16   0.6027538895E-16   0.8188524960E-17   0.3250000004E+01
     1     2     3     4     5     6     7     8
     2     9    10     3     6    11    12     7
 VARIABLES = X,Y,Z,DU1,DU2,DU3,U1,U2,U3,S11,S22,S33,S12,S13,S23,E11,E22,E33,E12,E13,E23,SMISES
 ZONE, T="0.1750D+01" F=FEPOINT, I=   12 J=    2 ET=BRICK
   0.0000000000E+00   0.0000000000E+00   0.0000000000E+00   0.0000000000E+00   0.0000000000E+00   0.0000000000E+00   0.0000000000E+00   0.0000000000E+00   0.0000000000E+00  -0.4375000007E+01  -0.3078198642E-14  -0.5330047017E-14   0.1118696283E-15  -0.4853253266E-15   0.7957422169E-15   0.4125000006E-01  -0.2237500004E-01  -0.2237500004E-01  -0.1661731625E-17  -0.2688319721E-16   0.6703053831E-17   0.4375000007E+01
   0.1041250000E+01   0.0000000000E+00  -0.1784980827E-16  -0.2250000000E-02   0.0000000000E+00   0.6417262252E-18   0.4350000000E-01   0.0000000000E+00  -0.1849153449E-16  -0.4375000007E+01  -0.1957764397E-14  -0.3035712302E-14   0.3132289212E-15   0.6193362677E-15   0.1049879828E-14   0.4125000006E-01  -0.2237500003E-01  -0.2237500003E-01   0.3348028626E-16  -0.8432659326E-17   0.2465166868E-16   0.4375000007E+01
   0.1041250000E+01   0.9776250000E+00  -0.6042051373E-17  -0.2250000000E-02   0.6750000000E-03  -0.1374048520E-18   0.4350000000E-01  -0.2305000000E-01  -0.5904646521E-17  -0.4375000006E+01  -0.2548459035E-14  -0.5734762543E-14   0.2225425930E-15  -0.6254402990E-15  -0.6395412052E-15   0.4125000006E-01  -0.2237500003E-01  -0.2237500003E-01   0.3344156789E-16   0.4696588370E-17  -0.1482100995E-16   0.4375000006E+01
   0.0000000000E+00   0.9776250000E+00   0.6035156440E-17   0.0000000000E+00   0.6750000000E-03   0.6844209849E-18   0.0000000000E+00  -0.2305000000E-01   0.5350735455E-17  -0.4375000006E+01   0.3375681824E-14   0.1702323870E-14   0.2492176046E-15  -0.7029213811E-16  -0.6328428714E-15   0.4125000006E-01  -0.2237500003E-01  -0.2237500003E-01   0.3679326002E-16  -0.9116440207E-17  -0.1136241951E-16   0.4375000006E+01
   0.0000000000E+00   0.0000000000E+00   0.9776250000E+00   0.0000000000E+00   0.0000000000E+00   0.6750000000E-03   0.0000000000E+00   0.0000000000E+00  -0.2305000000E-01  -0.4375000006E+01   0.2116326444E-14   0.5508003070E-14   0.9277962526E-17  -0.2450418495E-15   0.8099900385E-15   0.4125000006E-01  -0.2237500003E-01  -0.2237500003E-01   0.2109956790E-19  -0.3345403608E-16   0.1200667982E-16   0.4375000006E+01
   0.1041250000E+01   0.0000000000E+00   0.9776250000E+00  -0.2250000000E-02   0.0000000000E+00   0.6750000000E-03   0.4350000000E-01   0.0000000000E+00  -0.2305000000E-01  -0.4375000006E+01  -0.9508007632E-16   0.3050586465E-14  -0.4785558754E-15  -0.1363606536E-15   0.4625755325E-15   0.4125000006E-01  -0.2237500003E-01  -0.2237500003E-01   0.9785115681E-17  -0.5291824593E-17   0.2130696401E-16   0.4375000006E+01
   0.1041250000E+01   0.9776250000E+00   0.9776250000E+00  -0.2250000000E-02   0.6750000000E-03   0.6750000000E-03   0.4350000000E-01  -0.2305000000E-01  -0.2305000000E-01  -0.4375000006E+01   0.4327733302E-14   0.5486955149E-14  -0.2261258001E-15  -0.7023515330E-16  -0.1321673675E-14   0.4125000005E-01  -0.2237500003E-01  -0.2237500003E-01   0.1604975849E-16  -0.5106318870E-17  -0.1158794471E-16   0.4375000006E+01
   0.0000000000E+00   0.9776250000E+00   0.9776250000E+00   0.0000000000E+00   0.6750000000E-03   0.6750000000E-03   0.0000000000E+00  -0.2305000000E-01  -0.2305000000E-01  -0.4375000006E+01  -0.2393882000E-14  -0.1848004859E-14  -0.4511161671E-15  -0.5576829087E-15  -0.1048048148E-14   0.4125000006E-01  -0.2237500003E-01  -0.2237500003E-01   0.3143134375E-16  -0.3487170532E-16  -0.1654925812E-16   0.4375000006E+01
   0.2082500000E+01   0.0000000000E+00  -0.5840416726E-16  -0.4500000000E-02   0.0000000000E+00  -0.6917298581E-18   0.8700000000E-01   0.0000000000E+00  -0.5771243740E-16  -0.4375000007E+01   0.1958909257E-15  -0.4258158325E-15  -0.4336261512E-15  -0.3361538231E-15   0.5889397284E-15   0.4125000006E-01  -0.2237500003E-01  -0.2237500003E-01  -0.2753402175E-17  -0.4312307615E-17   0.1819337260E-16   0.4375000007E+01
   0.2082500000E+01   0.9776250000E+00  -0.5234711732E-16  -0.4500000000E-02   0.6750000000E-03   0.2551027891E-18   0.8700000000E-01  -0.2305000000E-01  -0.5260222011E-16  -0.4375000006E+01   0.2587637217E-14   0.7452192306E-15  -0.1164526102E-14   0.1833161751E-14  -0.5608602872E-15   0.4125000006E-01  -0.2237500003E-01  -0.2237500003E-01  -0.1413037650E-16  -0.5006356544E-16  -0.2367628063E-16   0.4375000006E+01
   0.2082500000E+01   0.0000000000E+00   0.9776250000E+00  -0.4500000000E-02   0.0000000000E+00   0.6750000000E-03   0.8700000000E-01   0.0000000000E+00  -0.2305000000E-01  -0.4375000006E+01   0.9401220646E-16   0.5214300115E-15  -0.2352366135E-15   0.2138069255E-14   0.9080122965E-15   0.4125000006E-01  -0.2237500003E-01  -0.2237500003E-01   0.3615261238E-16   0.3683208264E-16   0.1985900466E-16   0.4375000006E+01
   0.2082500000E+01   0.9776250000E+00   0.9776250000E+00  -0.4500000000E-02   0.6750000000E-03   0.6750000000E-03   0.8700000000E-01  -0.2305000000E-01  -0.2305000000E-01  -0.4375000006E+01  -0.1906238352E-14  -0.1851974069E-15   0.4907420174E-15  -0.1831598337E-14   0.9943182930E-16   0.4125000005E-01  -0.2237500003E-01  -0.2237500003E-01  -0.3722601970E-16  -0.1172749191E-15  -0.1744851251E-17   0.4375000006E+01
     1     2     3     4     5     6     7     8
     2     9    10     3     6    11    12     7
 VARIABLES = X,Y,Z,DU1,DU2,DU3,U1,U2,U3,S11,S22,S33,S12,S13,S23,E11,E22,E33,E12,E13,E23,SMISES
 ZONE, T="0.1800D+01" F=FEPOINT, I=   12 J=    2 ET=BRICK
   0.0000000000E+00   0.0000000000E+00   0.0000000000E+00   0.0000000000E+00   0.0000000000E+00   0.0000000000E+00   0.0000000000E+00   0.0000000000E+00   0.0000000000E+00  -0.5500000009E+01  -0.3242205399E-14  -0.5850890716E-14   0.1091493746E-15  -0.7504254671E-15   0.1130472145E-14   0.3900000006E-01  -0.2170000003E-01  -0.2170000003E-01  -0.2882957695E-17  -0.4043533650E-16   0.5938133598E-17   0.5500000009E+01
   0.1039000000E+01   0.0000000000E+00  -0.2107215487E-16  -0.2250000000E-02   0.0000000000E+00  -0.3222346602E-17   0.4125000000E-01   0.0000000000E+00  -0.1784980827E-16  -0.5500000008E+01  -0.2290831298E-14  -0.3808882851E-14  -0.4141801449E-15   0.7910629053E-16   0.1107160995E-14   0.3900000006E-01  -0.2170000003E-01  -0.2170000003E-01   0.3366056662E-16   0.1457371184E-16   0.2712150882E-16   0.5500000008E+01
   0.1039000000E+01   0.9783000000E+00  -0.8925590420E-17  -0.2250000000E-02   0.6750000000E-03  -0.2883539047E-17   0.4125000000E-01  -0.2237500000E-01  -0.6042051373E-17  -0.5500000008E+01  -0.2407688388E-14  -0.5963710242E-14  -0.6291273862E-15   0.2799307418E-15  -0.1062524233E-14   0.3900000006E-01  -0.2170000003E-01  -0.2170000003E-01   0.1385325545E-16   0.1425572023E-17  -0.7045918107E-17   0.5500000008E+01
   0.0000000000E+00   0.9783000000E+00   0.7835532508E-17   0.0000000000E+00   0.6750000000E-03   0.1800376069E-17   0.0000000000E+00  -0.2237500000E-01   0.6035156440E-17  -0.5500000008E+01   0.2385911063E-14   0.3205235186E-15   0.3910353964E-15  -0.7072623726E-15  -0.7465460714E-15   0.3900000006E-01  -0.2170000003E-01  -0.2170000003E-01   0.3981731056E-16  -0.1849903202E-16  -0.1111090536E-16   0.5500000008E+01
   0.0000000000E+00   0.0000000000E+00   0.9783000000E+00   0.0000000000E+00   0.0000000000E+00   0.6750000000E-03   0.0000000000E+00   0.0000000000E+00  -0.2237500000E-01  -0.5500000008E+01   0.1694014608E-14   0.5498039310E-14   0.4276583771E-16  -0.4887579995E-15   0.1362061661E-14   0.3900000006E-01  -0.2170000003E-01  -0.2170000003E-01  -0.1633477962E-17  -0.4083205878E-16   0.2808049666E-16   0.5500000008E+01
   0.1039000000E+01   0.0000000000E+00   0.9783000000E+00  -0.2250000000E-02   0.0000000000E+00   0.6750000000E-03   0.4125000000E-01   0.0000000000E+00  -0.2237500000E-01  -0.5500000008E+01   0.3083721266E-15   0.3783120038E-14   0.1956205417E-15  -0.6148611418E-15   0.5506137549E-15   0.3900000006E-01  -0.2170000003E-01  -0.2170000003E-01   0.1616658447E-16   0.9859369736E-17   0.3608850654E-16   0.5500000008E+01
   0.1039000000E+01   0.9783000000E+00   0.9783000000E+00  -0.2250000000E-02   0.6750000000E-03   0.6750000000E-03   0.4125000000E-01  -0.2237500000E-01  -0.2237500000E-01  -0.5500000007E+01   0.4693466117E-14   0.6252154636E-14   0.5325542096E-15   0.6194003077E-15  -0.1767308014E-14   0.3900000005E-01  -0.2170000003E-01  -0.2170000003E-01   0.2533044713E-16  -0.8103902696E-17  -0.1175163277E-16   0.5500000007E+01
   0.0000000000E+00   0.9783000000E+00   0.9783000000E+00   0.0000000000E+00   0.6750000000E-03   0.6750000000E-03   0.0000000000E+00  -0.2237500000E-01  -0.2237500000E-01  -0.5500000007E+01  -0.1176622335E-14  -0.2535897654E-15  -0.4914519357E-15  -0.1220123492E-14  -0.1039941414E-14   0.3900000005E-01  -0.2170000003E-01  -0.2170000003E-01   0.2837764436E-16  -0.3518846429E-16  -0.4000290700E-16   0.5500000007E+01
   0.2078000000E+01   0.0000000000E+00  -0.7299192877E-16  -0.4500000000E-02   0.0000000000E+00  -0.1458776151E-16   0.8250000000E-01   0.0000000000E+00  -0.5840416726E-16  -0.5500000008E+01  -0.2369969095E-14  -0.2989683096E-14   0.1085078165E-14   0.6405306201E-15   0.9291605920E-15   0.3900000006E-01  -0.2170000003E-01  -0.2170000003E-01   0.7628984809E-17  -0.3604310305E-16   0.8118377100E-17   0.5500000008E+01
   0.2078000000E+01   0.9783000000E+00  -0.6529174114E-16  -0.4500000000E-02   0.6750000000E-03  -0.1294462382E-16   0.8250000000E-01  -0.2237500000E-01  -0.5234711732E-16  -0.5500000008E+01   0.4768904720E-14   0.2438309028E-14  -0.7874941531E-16   0.1270490181E-14  -0.4746655622E-15   0.3900000005E-01  -0.2170000003E-01  -0.2170000003E-01  -0.1043008980E-16  -0.1211563596E-16  -0.2524065231E-16   0.5500000008E+01
   0.2078000000E+01   0.0000000000E+00   0.9783000000E+00  -0.4500000000E-02   0.0000000000E+00   0.6750000000E-03   0.8250000000E-01   0.0000000000E+00  -0.2237500000E-01  -0.5500000008E+01   0.1567050182E-14   0.2765645762E-14  -0.8181351419E-15   0.3266554761E-14   0.9699436765E-15   0.3900000005E-01  -0.2170000003E-01  -0.2170000003E-01   0.2930477500E-16  -0.1674388009E-16   0.2570754305E-16   0.5500000008E+01
   0.2078000000E+01   0.9783000000E+00   0.9783000000E+00  -0.4500000000E-02   0.6750000000E-03   0.6750000000E-03   0.8250000000E-01  -0.2237500000E-01  -0.2237500000E-01  -0.5500000007E+01  -0.3789631647E-14  -0.1787583389E-14   0.1264991209E-16  -0.2486439514E-14   0.3149028598E-16   0.3900000005E-01  -0.2170000003E-01  -0.2170000003E-01  -0.8050398885E-17  -0.8414476342E-16   0.1836134594E-16   0.5500000007E+01
     1     2     3     4     5     6     7     8
     2     9    10     3     6    11    12     7
 VARIABLES = X,Y,Z,DU1,DU2,DU3,U1,U2,U3,S11,S22,S33,S12,S13,S23,E11,E22,E33,E12,E13,E23,SMISES
 ZONE, T="0.1850D+01" F=FEPOINT, I=   12 J=    2 ET=BRICK
   0.0000000000E+00   0.0000000000E+00   0.0000000000E+00   0.0000000000E+00   0.0000000000E+00   0.0000000000E+00   0.0000000000E+00   0.0000000000E+00   0.0000000000E+00  -0.6625000010E+01  -0.2325346659E-14  -0.3605020584E-14   0.1254455408E-15  -0.2513526260E-15   0.7076775954E-15   0.3675000006E-01  -0.2102500003E-01  -0.2102500003E-01  -0.4175601214E-19  -0.9920559500E-17   0.9299050800E-17   0.6625000010E+01
   0.1036750000E+01   0.0000000000E+00  -0.1574149907E-16  -0.2250000000E-02   0.0000000000E+00   0.5330655803E-17   0.3900000000E-01   0.0000000000E+00  -0.2107215487E-16  -0.6625000010E+01  -0.1643557224E-14  -0.2686312473E-14  -0.5057087025E-15   0.1375592378E-15   0.9056461755E-15   0.3675000006E-01  -0.2102500003E-01  -0.2102500003E-01   0.2614165601E-16  -0.2264256709E-16   0.2943677252E-16   0.6625000010E+01
   0.1036750000E+01   0.9789750000E+00  -0.4508139917E-17  -0.2250000000E-02   0.6750000000E-03   0.4417450503E-17   0.3900000000E-01  -0.2170000000E-01  -0.8925590420E-17  -0.6625000009E+01  -0.2234251818E-14  -0.5096918311E-14  -0.4912618383E-15  -0.1525601232E-15  -0.5214386041E-15   0.3675000005E-01  -0.2102500003E-01  -0.2102500003E-01   0.2045793137E-16   0.1703037431E-16  -0.2016074620E-16   0.6625000009E+01
   0.0000000000E+00   0.9789750000E+00   0.5588994536E-17   0.0000000000E+00   0.6750000000E-03  -0.2246537972E-17   0.0000000000E+00  -0.2170000000E-01   0.7835532508E-17  -0.6625000010E+01   0.2674355438E-14   0.9962826362E-15   0.3798735388E-15   0.2403270870E-15  -0.4133423777E-15   0.3675000005E-01  -0.2102500003E-01  -0.2102500003E-01   0.3645791224E-16  -0.1401923227E-16  -0.3713181331E-17   0.6625000010E+01
   0.0000000000E+00   0.0000000000E+00   0.9789750000E+00   0.0000000000E+00   0.0000000000E+00   0.6750000000E-03   0.0000000000E+00   0.0000000000E+00  -0.2170000000E-01  -0.6625000010E+01   0.1328281750E-14   0.4663717862E-14   0.1383594333E-16  -0.1887835001E-15   0.9172566029E-15   0.3675000005E-01  -0.2102500003E-01  -0.2102500003E-01   0.4924355215E-17  -0.4421440523E-16  -0.7499757174E-17   0.6625000010E+01
   0.1036750000E+01   0.0000000000E+00   0.9789750000E+00  -0.2250000000E-02   0.0000000000E+00   0.6750000000E-03   0.3900000000E-01   0.0000000000E+00  -0.2170000000E-01  -0.6625000009E+01  -0.1005035689E-14   0.1413541643E-14  -0.7389570592E-16  -0.7923884569E-15   0.5774149895E-15   0.3675000005E-01  -0.2102500003E-01  -0.2102500003E-01   0.2058363830E-16  -0.1060338234E-16   0.3157420752E-16   0.6625000009E+01
   0.1036750000E+01   0.9789750000E+00   0.9789750000E+00  -0.2250000000E-02   0.6750000000E-03   0.6750000000E-03   0.3900000000E-01  -0.2170000000E-01  -0.2170000000E-01  -0.6625000009E+01   0.4660800126E-14   0.5925599930E-14   0.2043356181E-15   0.2977512193E-15  -0.1152782921E-14   0.3675000005E-01  -0.2102500003E-01  -0.2102500003E-01   0.1794105411E-16   0.1534493041E-16   0.1059779504E-16   0.6625000009E+01
   0.0000000000E+00   0.9789750000E+00   0.9789750000E+00   0.0000000000E+00   0.6750000000E-03   0.6750000000E-03   0.0000000000E+00  -0.2170000000E-01  -0.2170000000E-01  -0.6625000009E+01  -0.2682326412E-14  -0.1654445282E-14  -0.5079115782E-15  -0.2857951273E-15  -0.7033898693E-15   0.3675000005E-01  -0.2102500003E-01  -0.2102500003E-01   0.3637053915E-16  -0.1657639083E-16  -0.4865542390E-16   0.6625000009E+01
   0.2073500000E+01   0.0000000000E+00  -0.5158766725E-16  -0.4500000000E-02   0.0000000000E+00   0.2140426152E-16   0.7800000000E-01   0.0000000000E+00  -0.7299192877E-16  -0.6625000010E+01   0.1091726773E-15  -0.6966638968E-15  -0.8425928198E-15  -0.1039325944E-14   0.3587538448E-15   0.3675000006E-01  -0.2102500003E-01  -0.2102500003E-01  -0.4073699623E-17  -0.7083809812E-16   0.1044363460E-17   0.6625000010E+01
   0.2073500000E+01   0.9789750000E+00  -0.4695091701E-16  -0.4500000000E-02   0.6750000000E-03   0.1834082413E-16   0.7800000000E-01  -0.2170000000E-01  -0.6529174114E-16  -0.6625000009E+01   0.3776607346E-14   0.1061614595E-14  -0.1541907663E-14   0.2152136032E-14  -0.7298323050E-15   0.3675000005E-01  -0.2102500003E-01  -0.2102500003E-01  -0.2331232249E-16  -0.8646983414E-16  -0.9681635563E-17   0.6625000009E+01
   0.2073500000E+01   0.0000000000E+00   0.9789750000E+00  -0.4500000000E-02   0.0000000000E+00   0.6750000000E-03   0.7800000000E-01   0.0000000000E+00  -0.2170000000E-01  -0.6625000009E+01  -0.4124912979E-15  -0.2430401780E-15   0.6884313991E-15   0.1187177925E-14   0.4224964586E-15   0.3675000005E-01  -0.2102500003E-01  -0.2102500003E-01   0.3660769060E-16   0.2913303653E-16   0.1825404223E-16   0.6625000009E+01
   0.2073500000E+01   0.9789750000E+00   0.9789750000E+00  -0.4500000000E-02   0.6750000000E-03   0.6750000000E-03   0.7800000000E-01  -0.2170000000E-01  -0.2170000000E-01  -0.6625000008E+01  -0.2912342053E-14  -0.1410623573E-14   0.1414953852E-14  -0.1276428311E-14  -0.1431159099E-15   0.3675000005E-01  -0.2102500003E-01  -0.2102500003E-01   0.1241363874E-16  -0.9842995878E-16  -0.1028825750E-16   0.6625000008E+01
     1     2     3     4     5     6     7     8
     2     9    10     3     6    11    12     7
 VARIABLES = X,Y,Z,DU1,DU2,DU3,U1,U2,U3,S11,S22,S33,S12,S13,S23,E11,E22,E33,E12,E13,E23,SMISES
 ZONE, T="0.1900D+01" F=FEPOINT, I=   12 J=    2 ET=BRICK
   0.0000000000E+00   0.0000000000E+00   0.0000000000E+00   0.0000000000E+00   0.0000000000E+00   0.0000000000E+00   0.0000000000E+00   0.0000000000E+00   0.0000000000E+00  -0.7750000012E+01  -0.4551236721E-14  -0.4283110883E-14   0.8286429003E-16  -0.8854928624E-15  -0.8357807258E-15   0.2950000005E-01  -0.1785000003E-01  -0.1785000003E-01  -0.1373539432E-17  -0.3136251292E-16  -0.1364729670E-16   0.7750000012E+01
   0.1029500000E+01   0.0000000000E+00  -0.1576112688E-16  -0.7250000000E-02   0.0000000000E+00  -0.1962780800E-19   0.3675000000E-01   0.0000000000E+00  -0.1574149907E-16  -0.7750000012E+01  -0.7662676302E-15  -0.1058697528E-14   0.6341292373E-15   0.3186404107E-16   0.5283658182E-15   0.2950000005E-01  -0.1785000003E-01  -0.1785000003E-01   0.4433269861E-16  -0.1210446564E-17   0.2853399897E-16   0.7750000012E+01
   0.1029500000E+01   0.9821500000E+00  -0.6004289641E-17  -0.7250000000E-02   0.3175000000E-02  -0.1496149723E-17   0.3675000000E-01  -0.2102500000E-01  -0.4508139917E-17  -0.7750000011E+01  -0.2637703876E-14  -0.4173156297E-14   0.4259103565E-15  -0.4587915319E-15   0.3733719431E-15   0.2950000004E-01  -0.1785000003E-01  -0.1785000003E-01   0.3681968998E-16  -0.2659032973E-16  -0.2108790505E-17   0.7750000011E+01
   0.0000000000E+00   0.9821500000E+00  -0.3873205356E-17   0.0000000000E+00   0.3175000000E-02  -0.9462199892E-17   0.0000000000E+00  -0.2102500000E-01   0.5588994536E-17  -0.7750000011E+01   0.6215503063E-14   0.5374473871E-14   0.4616064531E-15   0.1163128197E-14  -0.2471126450E-16   0.2950000004E-01  -0.1785000003E-01  -0.1785000003E-01   0.3792676199E-16   0.1107549083E-16  -0.2836559515E-16   0.7750000011E+01
   0.0000000000E+00   0.0000000000E+00   0.9821500000E+00   0.0000000000E+00   0.0000000000E+00   0.3175000000E-02   0.0000000000E+00   0.0000000000E+00  -0.2102500000E-01  -0.7750000011E+01   0.4139496159E-15   0.5293483394E-15  -0.8641819568E-16  -0.1331258761E-15  -0.2476399672E-15   0.2950000004E-01  -0.1785000003E-01  -0.1785000003E-01   0.3258925622E-17  -0.4409856768E-16   0.7184782159E-17   0.7750000011E+01
   0.1029500000E+01   0.0000000000E+00   0.9821500000E+00  -0.7250000000E-02   0.0000000000E+00   0.3175000000E-02   0.3675000000E-01   0.0000000000E+00  -0.2102500000E-01  -0.7750000011E+01  -0.3190679688E-14  -0.2380857753E-14   0.2015917616E-15  -0.6531648562E-15  -0.1333095371E-15   0.2950000004E-01  -0.1785000003E-01  -0.1785000003E-01   0.2223689388E-16  -0.1247387856E-16   0.1189390912E-17   0.7750000011E+01
   0.1029500000E+01   0.9821500000E+00   0.9821500000E+00  -0.7250000000E-02   0.3175000000E-02   0.3175000000E-02   0.3675000000E-01  -0.2102500000E-01  -0.2102500000E-01  -0.7750000010E+01   0.5256548513E-14   0.5245659822E-14   0.3697705212E-15  -0.4924339589E-15  -0.5629974879E-15   0.2950000004E-01  -0.1785000002E-01  -0.1785000002E-01   0.2633640623E-16  -0.1754750157E-16   0.1289416590E-16   0.7750000010E+01
   0.0000000000E+00   0.9821500000E+00   0.9821500000E+00   0.0000000000E+00   0.3175000000E-02   0.3175000000E-02   0.0000000000E+00  -0.2102500000E-01  -0.2102500000E-01  -0.7750000010E+01  -0.1127623366E-14  -0.1910223753E-14  -0.1112120308E-14   0.4312344617E-15   0.3963293170E-15   0.2950000004E-01  -0.1785000002E-01  -0.1785000002E-01   0.2257430780E-16   0.3374467587E-17  -0.1795122414E-16   0.7750000010E+01
   0.2059000000E+01   0.0000000000E+00  -0.3449659711E-16  -0.1450000000E-01   0.0000000000E+00   0.1709107015E-16   0.7350000000E-01   0.0000000000E+00  -0.5158766725E-16  -0.7750000012E+01   0.3141967263E-14   0.4005841484E-14  -0.1300787626E-14  -0.8726011624E-15  -0.5942448413E-15   0.2950000004E-01  -0.1785000003E-01  -0.1785000003E-01   0.2216178192E-16  -0.1145416610E-15  -0.9213397690E-17   0.7750000012E+01
   0.2059000000E+01   0.9821500000E+00  -0.3643080102E-16  -0.1450000000E-01   0.3175000000E-02   0.1052011599E-16   0.7350000000E-01  -0.2102500000E-01  -0.4695091701E-16  -0.7750000011E+01   0.3940614153E-14   0.2939954720E-14  -0.2258696940E-14   0.1535986756E-14  -0.2349704914E-15   0.2950000004E-01  -0.1785000002E-01  -0.1785000002E-01  -0.2011905750E-16  -0.5048302671E-16  -0.1743518527E-16   0.7750000011E+01
   0.2059000000E+01   0.0000000000E+00   0.9821500000E+00  -0.1450000000E-01   0.0000000000E+00   0.3175000000E-02   0.7350000000E-01   0.0000000000E+00  -0.2102500000E-01  -0.7750000011E+01  -0.6896560469E-15  -0.1952996980E-14   0.5709189067E-15  -0.1203765384E-15  -0.4513148155E-16   0.2950000004E-01  -0.1785000002E-01  -0.1785000002E-01   0.6474677391E-16  -0.6335320449E-16   0.2885336108E-16   0.7750000011E+01
   0.2059000000E+01   0.9821500000E+00   0.9821500000E+00  -0.1450000000E-01   0.3175000000E-02   0.3175000000E-02   0.7350000000E-01  -0.2102500000E-01  -0.2102500000E-01  -0.7750000010E+01  -0.1558688125E-14  -0.1745540129E-14   0.1229108424E-14  -0.2435380408E-15   0.9021026359E-15   0.2950000004E-01  -0.1785000002E-01  -0.1785000002E-01   0.3638076754E-16  -0.1216671645E-16  -0.8759884285E-17   0.7750000010E+01
     1     2     3     4     5     6     7     8
     2     9    10     3     6    11    12     7
 VARIABLES = X,Y,Z,DU1,DU2,DU3,U1,U2,U3,S11,S22,S33,S12,S13,S23,E11,E22,E33,E12,E13,E23,SMISES
 ZONE, T="0.1950D+01" F=FEPOINT, I=   12 J=    2 ET=BRICK
   0.0000000000E+00   0.0000000000E+00   0.0000000000E+00   0.0000000000E+00   0.0000000000E+00   0.0000000000E+00   0.0000000000E+00   0.0000000000E+00   0.0000000000E+00  -0.8875000014E+01  -0.7524248426E-14  -0.9431946001E-14   0.1771999858E-15  -0.2753120557E-14  -0.1695672701E-14   0.4750000007E-02  -0.5925000009E-02  -0.5925000009E-02  -0.1315527176E-17  -0.8190331158E-16  -0.3519625339E-16   0.8875000014E+01
   0.1004750000E+01   0.0000000000E+00  -0.3093883279E-16  -0.2475000000E-01   0.0000000000E+00  -0.1517770592E-16   0.2950000000E-01   0.0000000000E+00  -0.1576112688E-16  -0.8875000014E+01   0.2226280838E-14   0.2532516930E-14  -0.9985253430E-15  -0.5108043300E-15   0.4114740364E-15   0.4750000007E-02  -0.5925000009E-02  -0.5925000009E-02   0.1156167327E-16  -0.3372630217E-16   0.2341687034E-16   0.8875000014E+01
   0.1004750000E+01   0.9940750000E+00  -0.2022049195E-16  -0.2475000000E-01   0.1192500000E-01  -0.1421620231E-16   0.2950000000E-01  -0.1785000000E-01  -0.6004289641E-17  -0.8875000013E+01   0.1354045296E-14  -0.6334673607E-15  -0.1258711873E-14   0.6687719869E-15   0.1309393348E-14   0.4750000007E-02  -0.5925000008E-02  -0.5925000008E-02   0.1036096609E-16   0.1797043637E-16   0.2564928095E-16   0.8875000013E+01
   0.0000000000E+00   0.9940750000E+00  -0.1934044533E-16   0.0000000000E+00   0.1192500000E-01  -0.1546723997E-16   0.0000000000E+00  -0.1785000000E-01  -0.3873205356E-17  -0.8875000013E+01   0.8098218770E-15   0.1381266116E-14   0.8833108851E-15   0.3970573280E-15  -0.7874347956E-15   0.4750000007E-02  -0.5925000009E-02  -0.5925000009E-02   0.4360219892E-16   0.5958861655E-17  -0.2950617525E-16   0.8875000013E+01
   0.0000000000E+00   0.0000000000E+00   0.9940750000E+00   0.0000000000E+00   0.0000000000E+00   0.1192500000E-01   0.0000000000E+00   0.0000000000E+00  -0.1785000000E-01  -0.8875000013E+01   0.8286815750E-15  -0.2629342514E-14  -0.2461468548E-15  -0.1061038291E-14  -0.2894469500E-15   0.4750000007E-02  -0.5925000009E-02  -0.5925000009E-02  -0.4337036206E-17  -0.6297065370E-16  -0.3049189894E-16   0.8875000013E+01
   0.1004750000E+01   0.0000000000E+00   0.9940750000E+00  -0.2475000000E-01   0.0000000000E+00   0.1192500000E-01   0.2950000000E-01   0.0000000000E+00  -0.1785000000E-01  -0.8875000013E+01  -0.6342492501E-15  -0.8671826644E-15   0.9842096667E-15  -0.6638521822E-15  -0.4201587574E-15   0.4750000007E-02  -0.5925000008E-02  -0.5925000008E-02   0.5457138139E-16  -0.3162568121E-16   0.1021707550E-16   0.8875000013E+01
   0.1004750000E+01   0.9940750000E+00   0.9940750000E+00  -0.2475000000E-01   0.1192500000E-01   0.1192500000E-01   0.2950000000E-01  -0.1785000000E-01  -0.1785000000E-01  -0.8875000012E+01   0.6212976531E-14   0.3442472550E-14   0.8345396590E-15   0.5847191256E-15   0.2632119153E-16   0.4750000006E-02  -0.5925000008E-02  -0.5925000008E-02   0.2800812727E-16   0.3996853219E-17   0.3714593915E-16   0.8875000012E+01
   0.0000000000E+00   0.9940750000E+00   0.9940750000E+00   0.0000000000E+00   0.1192500000E-01   0.1192500000E-01   0.0000000000E+00  -0.1785000000E-01  -0.1785000000E-01  -0.8875000012E+01   0.5838491407E-14   0.4981520037E-14   0.1494978076E-17  -0.6579640555E-15  -0.5753022027E-16   0.4750000006E-02  -0.5925000008E-02  -0.5925000008E-02   0.4388659288E-16  -0.5732590455E-17  -0.3686362899E-17   0.8875000012E+01
   0.2009500000E+01   0.0000000000E+00  -0.2752195857E-16  -0.4950000000E-01   0.0000000000E+00   0.6974638533E-17   0.5900000000E-01   0.0000000000E+00  -0.3449659711E-16  -0.8875000013E+01  -0.3125347497E-14   0.5485997007E-15   0.3988160539E-15   0.4657188028E-15  -0.5968754197E-15   0.4750000007E-02  -0.5925000009E-02  -0.5925000009E-02   0.2824497497E-16  -0.4979659018E-16  -0.1437835774E-16   0.8875000013E+01
   0.2009500000E+01   0.9940750000E+00  -0.3493052713E-16  -0.4950000000E-01   0.1192500000E-01   0.1500273892E-17   0.5900000000E-01  -0.1785000000E-01  -0.3643080102E-16  -0.8875000012E+01   0.1022863836E-13   0.1034510490E-13  -0.1043319130E-14   0.6418188499E-15   0.6881170665E-15   0.4750000007E-02  -0.5925000008E-02  -0.5925000008E-02  -0.3793134353E-16  -0.5362371070E-16  -0.6883325430E-18   0.8875000012E+01
   0.2009500000E+01   0.0000000000E+00   0.9940750000E+00  -0.4950000000E-01   0.0000000000E+00   0.1192500000E-01   0.5900000000E-01   0.0000000000E+00  -0.1785000000E-01  -0.8875000012E+01  -0.4281475930E-15  -0.2098926258E-14   0.1923908931E-15   0.1443537416E-14  -0.1972375428E-14   0.4750000007E-02  -0.5925000008E-02  -0.5925000008E-02   0.5679536495E-16  -0.5526349738E-16  -0.2383882631E-16   0.8875000012E+01
   0.2009500000E+01   0.9940750000E+00   0.9940750000E+00  -0.4950000000E-01   0.1192500000E-01   0.1192500000E-01   0.5900000000E-01  -0.1785000000E-01  -0.1785000000E-01  -0.8875000011E+01  -0.9846963374E-14  -0.1337722252E-13   0.3670551341E-15  -0.2382634767E-14   0.6785376032E-15   0.4750000006E-02  -0.5925000008E-02  -0.5925000008E-02   0.1658628411E-16  -0.4596735207E-16   0.9114761481E-17   0.8875000011E+01
     1     2     3     4     5     6     7     8
     2     9    10     3     6    11    12     7
 VARIABLES = X,Y,Z,DU1,DU2,DU3,U1,U2,U3,S11,S22,S33,S12,S13,S23,E11,E22,E33,E12,E13,E23,SMISES
 ZONE, T="0.2000D+01" F=FEPOINT, I=   12 J=    2 ET=BRICK
   0.0000000000E+00   0.0000000000E+00   0.0000000000E+00   0.0000000000E+00   0.0000000000E+00   0.0000000000E+00   0.0000000000E+00   0.0000000000E+00   0.0000000000E+00  -0.1000000002E+02   0.1382440898E-15  -0.2002670500E-15   0.2090606641E-17   0.1078828690E-15   0.6600911690E-16  -0.2000000003E-01   0.6000000009E-02   0.6000000009E-02  -0.8340927266E-18  -0.3359736687E-16  -0.2184977900E-16   0.1000000002E+02
   0.9800000000E+00   0.0000000000E+00  -0.2060579601E-16  -0.2475000000E-01   0.0000000000E+00   0.1033303678E-16   0.4750000000E-02   0.0000000000E+00  -0.3093883279E-16  -0.1000000002E+02   0.2800251725E-14   0.3195732825E-14  -0.1102064848E-14  -0.2961661410E-15   0.4254634907E-15  -0.2000000003E-01   0.6000000009E-02   0.6000000009E-02  -0.1880823822E-17  -0.5318213277E-16   0.2873603008E-16   0.1000000002E+02
   0.9800000000E+00   0.1006000000E+01  -0.6621965012E-17  -0.2475000000E-01   0.1192500000E-01   0.1359852694E-16   0.4750000000E-02  -0.5925000000E-02  -0.2022049195E-16  -0.1000000001E+02  -0.5516312215E-14  -0.8042994191E-14  -0.1354218844E-14  -0.2848495719E-15   0.6111393244E-15  -0.2000000003E-01   0.6000000009E-02   0.6000000009E-02  -0.4066701517E-17   0.2695031059E-17   0.2339974371E-16   0.1000000001E+02
   0.0000000000E+00   0.1006000000E+01  -0.7983597116E-17   0.0000000000E+00   0.1192500000E-01   0.1135684821E-16   0.0000000000E+00  -0.5925000000E-02  -0.1934044533E-16  -0.1000000001E+02  -0.4317421668E-15   0.2031843492E-15   0.3642420821E-15   0.6694425510E-15  -0.1273250584E-15  -0.2000000003E-01   0.6000000009E-02   0.6000000009E-02   0.4147428740E-16   0.1304492854E-16   0.1657975788E-17   0.1000000001E+02
   0.0000000000E+00   0.0000000000E+00   0.1006000000E+01   0.0000000000E+00   0.0000000000E+00   0.1192500000E-01   0.0000000000E+00   0.0000000000E+00  -0.5925000000E-02  -0.1000000001E+02   0.7358417379E-15   0.1365714950E-14   0.1656825765E-15   0.1775459236E-15   0.3128765064E-15  -0.2000000003E-01   0.6000000009E-02   0.6000000009E-02   0.7069717517E-17  -0.5329765906E-16  -0.1663456215E-16   0.1000000001E+02
   0.9800000000E+00   0.0000000000E+00   0.1006000000E+01  -0.2475000000E-01   0.0000000000E+00   0.1192500000E-01   0.4750000000E-02   0.0000000000E+00  -0.5925000000E-02  -0.1000000001E+02  -0.3724013671E-14  -0.2470102558E-14  -0.1263987847E-14  -0.3103329671E-15   0.1720286684E-15  -0.2000000003E-01   0.6000000009E-02   0.6000000009E-02   0.8184634404E-17  -0.1265170015E-16   0.1464051207E-16   0.1000000001E+02
   0.9800000000E+00   0.1006000000E+01   0.1006000000E+01  -0.2475000000E-01   0.1192500000E-01   0.1192500000E-01   0.4750000000E-02  -0.5925000000E-02  -0.5925000000E-02  -0.1000000001E+02   0.7734622341E-14   0.6976325915E-14  -0.1089359835E-14  -0.1137599717E-14  -0.4880850706E-15  -0.2000000003E-01   0.6000000008E-02   0.6000000008E-02   0.6472779333E-17  -0.3640418420E-16   0.1010058758E-16   0.1000000001E+02
   0.0000000000E+00   0.1006000000E+01   0.1006000000E+01   0.0000000000E+00   0.1192500000E-01   0.1192500000E-01   0.0000000000E+00  -0.5925000000E-02  -0.5925000000E-02  -0.1000000001E+02  -0.5189471806E-14  -0.5194916090E-14  -0.2185431759E-15   0.2045324897E-15  -0.9984166115E-16  -0.2000000003E-01   0.6000000008E-02   0.6000000008E-02   0.3069093615E-16   0.1180408005E-16  -0.3302736229E-16   0.1000000001E+02
   0.1960000000E+01   0.0000000000E+00  -0.3747141131E-16  -0.4950000000E-01   0.0000000000E+00  -0.9949452734E-17   0.9500000000E-02   0.0000000000E+00  -0.2752195857E-16  -0.1000000002E+02  -0.4283215552E-14  -0.3538334635E-14  -0.6213223075E-15  -0.6442993040E-15   0.2918692363E-15  -0.2000000003E-01   0.6000000009E-02   0.6000000009E-02   0.1114509999E-16  -0.7433192111E-16  -0.1006895233E-17   0.1000000002E+02
   0.1960000000E+01   0.1006000000E+01  -0.3558227823E-16  -0.4950000000E-01   0.1192500000E-01  -0.6517511047E-18   0.9500000000E-02  -0.5925000000E-02  -0.3493052713E-16  -0.1000000001E+02   0.7213635843E-14   0.5625198887E-14  -0.8745131880E-15   0.1435427696E-14   0.6766185232E-15  -0.2000000003E-01   0.6000000008E-02   0.6000000008E-02  -0.4651300064E-16  -0.1365402563E-16   0.8038858250E-17   0.1000000001E+02
   0.1960000000E+01   0.0000000000E+00   0.1006000000E+01  -0.4950000000E-01   0.0000000000E+00   0.1192500000E-01   0.9500000000E-02   0.0000000000E+00  -0.5925000000E-02  -0.1000000001E+02  -0.3692025293E-14  -0.4375559925E-14   0.2326848807E-14  -0.1392933272E-14  -0.7951072883E-15  -0.2000000003E-01   0.6000000008E-02   0.6000000008E-02   0.1203807614E-15  -0.1029049722E-15  -0.1634092434E-16   0.1000000001E+02
   0.1960000000E+01   0.1006000000E+01   0.1006000000E+01  -0.4950000000E-01   0.1192500000E-01   0.1192500000E-01   0.9500000000E-02  -0.5925000000E-02  -0.5925000000E-02  -0.1000000001E+02   0.4251904416E-14   0.2356163424E-14   0.2345660537E-14   0.1692230140E-14  -0.1010684346E-14  -0.2000000003E-01   0.6000000008E-02   0.6000000008E-02   0.6658356777E-16   0.1497857678E-16  -0.2720898770E-16   0.1000000001E+02
     1     2     3     4     5     6     7     8
     2     9    10     3     6    11    12     7
 VARIABLES = X,Y,Z,DU1,DU2,DU3,U1,U2,U3,S11,S22,S33,S12,S13,S23,E11,E22,E33,E12,E13,E23,SMISES
 ZONE, T="0.2050D+01" F=FEPOINT, I=   12 J=    2 ET=BRICK
   0.0000000000E+00   0.0000000000E+00   0.0000000000E+00   0.0000000000E+00   0.0000000000E+00   0.0000000000E+00   0.0000000000E+00   0.0000000000E+00   0.0000000000E+00  -0.8875000014E+01   0.2332250025E-14   0.3675406420E-14  -0.2097547062E-16   0.2814365149E-14  -0.9387616830E-15  -0.1775000003E-01   0.5325000008E-02   0.5325000008E-02   0.3378592495E-17  -0.1352969104E-16  -0.2818557951E-16   0.8875000014E+01
   0.9822500000E+00   0.0000000000E+00   0.3306872982E-17   0.2250000000E-02   0.0000000000E+00   0.2391266899E-16  -0.2000000000E-01   0.0000000000E+00  -0.2060579601E-16  -0.8875000014E+01   0.6375524150E-14   0.8173658193E-14  -0.3836327845E-15   0.5093966759E-16  -0.1180584034E-14  -0.1775000003E-01   0.5325000008E-02   0.5325000008E-02  -0.1711979955E-17  -0.2889064197E-16   0.1191826691E-16   0.8875000014E+01
   0.9822500000E+00   0.1005325000E+01   0.8969987794E-17   0.2250000000E-02  -0.6750000000E-03   0.1559195281E-16  -0.2000000000E-01   0.6000000000E-02  -0.6621965012E-17  -0.8875000013E+01  -0.3850195943E-14  -0.1282876882E-14  -0.4482178446E-15  -0.2464332497E-14   0.1371153457E-14  -0.1775000003E-01   0.5325000008E-02   0.5325000008E-02   0.1865338352E-17  -0.3023858707E-16   0.3033519347E-16   0.8875000013E+01
   0.0000000000E+00   0.1005325000E+01  -0.1324638236E-16   0.0000000000E+00  -0.6750000000E-03  -0.5262785247E-17   0.0000000000E+00   0.6000000000E-02  -0.7983597116E-17  -0.8875000013E+01   0.5292131677E-14   0.8558250546E-14   0.7627213110E-15   0.2738339273E-14  -0.1159111667E-14  -0.1775000003E-01   0.5325000008E-02   0.5325000008E-02   0.4410059499E-16   0.4357920773E-16  -0.2302313084E-16   0.8875000013E+01
   0.0000000000E+00   0.0000000000E+00   0.1005325000E+01   0.0000000000E+00   0.0000000000E+00  -0.6750000000E-03   0.0000000000E+00   0.0000000000E+00   0.6000000000E-02  -0.8875000013E+01  -0.8807127062E-14  -0.6253614258E-14   0.1731037368E-15   0.2859874769E-14  -0.3766093623E-15  -0.1775000003E-01   0.5325000008E-02   0.5325000008E-02  -0.1519583317E-17  -0.2336069681E-16  -0.1902438406E-16   0.8875000013E+01
   0.9822500000E+00   0.0000000000E+00   0.1005325000E+01   0.2250000000E-02   0.0000000000E+00  -0.6750000000E-03  -0.2000000000E-01   0.0000000000E+00   0.6000000000E-02  -0.8875000013E+01  -0.6006873791E-14  -0.8092384141E-14  -0.2635723337E-14   0.3632554131E-15   0.2007904826E-15  -0.1775000003E-01   0.5325000008E-02   0.5325000008E-02   0.6946954588E-18  -0.2308309620E-16   0.1311856915E-16   0.8875000013E+01
   0.9822500000E+00   0.1005325000E+01   0.1005325000E+01   0.2250000000E-02  -0.6750000000E-03  -0.6750000000E-03  -0.2000000000E-01   0.6000000000E-02   0.6000000000E-02  -0.8875000012E+01   0.9115497616E-14   0.8465306001E-14  -0.1308125340E-14  -0.3043970683E-14   0.1792319475E-14  -0.1775000002E-01   0.5325000007E-02   0.5325000007E-02   0.7271966001E-18  -0.4598858539E-16   0.3415686473E-16   0.8875000012E+01
   0.0000000000E+00   0.1005325000E+01   0.1005325000E+01   0.0000000000E+00  -0.6750000000E-03  -0.6750000000E-03   0.0000000000E+00   0.6000000000E-02   0.6000000000E-02  -0.8875000012E+01  -0.1840813245E-13  -0.1541850142E-13   0.3219651313E-14   0.4144962694E-14  -0.7147989567E-15  -0.1775000002E-01   0.5325000007E-02   0.5325000007E-02   0.7294721647E-16   0.4891382511E-16  -0.2611744930E-16   0.8875000012E+01
   0.1964500000E+01   0.0000000000E+00   0.4953417737E-16   0.4500000000E-02   0.0000000000E+00   0.8700558867E-16  -0.4000000000E-01   0.0000000000E+00  -0.3747141131E-16  -0.8875000013E+01  -0.1023323289E-14   0.2486617231E-14  -0.5948883990E-14  -0.4118160802E-14  -0.1837898156E-14  -0.1775000003E-01   0.5325000008E-02   0.5325000008E-02  -0.5057068740E-16  -0.1532213678E-15  -0.1925732703E-16   0.8875000013E+01
   0.1964500000E+01   0.1005325000E+01   0.4034029019E-16   0.4500000000E-02  -0.6750000000E-03   0.7592256843E-16  -0.4000000000E-01   0.6000000000E-02  -0.3558227823E-16  -0.8875000012E+01  -0.3838107634E-15   0.1409269885E-14  -0.6286061808E-14   0.4385430836E-14   0.5490953930E-15  -0.1775000002E-01   0.5325000007E-02   0.5325000007E-02  -0.1041065702E-15   0.3467675411E-16  -0.1715313586E-18   0.8875000012E+01
   0.1964500000E+01   0.0000000000E+00   0.1005325000E+01   0.4500000000E-02   0.0000000000E+00  -0.6750000000E-03  -0.4000000000E-01   0.0000000000E+00   0.6000000000E-02  -0.8875000012E+01  -0.6585116905E-14  -0.9388286715E-14   0.3670416024E-14  -0.4246294099E-14  -0.2425130594E-14  -0.1775000002E-01   0.5325000007E-02   0.5325000007E-02   0.1204237936E-15  -0.1041924730E-15  -0.3289145507E-16   0.8875000012E+01
   0.1964500000E+01   0.1005325000E+01   0.1005325000E+01   0.4500000000E-02  -0.6750000000E-03  -0.6750000000E-03  -0.4000000000E-01   0.6000000000E-02   0.6000000000E-02  -0.8875000011E+01   0.6545262070E-14   0.4844344069E-14   0.2584396948E-14   0.3222984590E-14  -0.7183557267E-15  -0.1775000002E-01   0.5325000007E-02   0.5325000007E-02   0.7302427357E-16  -0.5630715142E-17  -0.2025054100E-16   0.8875000011E+01
     1     2     3     4     5     6     7     8
     2     9    10     3     6    11    12     7
 VARIABLES = X,Y,Z,DU1,DU2,DU3,U1,U2,U3,S11,S22,S33,S12,S13,S23,E11,E22,E33,E12,E13,E23,SMISES
 ZONE, T="0.2100D+01" F=FEPOINT, I=   12 J=    2 ET=BRICK
   0.0000000000E+00   0.0000000000E+00   0.0000000000E+00   0.0000000000E+00   0.0000000000E+00   0.0000000000E+00   0.0000000000E+00   0.0000000000E+00   0.0000000000E+00  -0.7750000012E+01  -0.7637404196E-15  -0.9411625036E-15  -0.1884216531E-16   0.1039981868E-15  -0.1145829413E-15  -0.1550000002E-01   0.4650000007E-02   0.4650000007E-02  -0.3357849735E-18  -0.4735337197E-16  -0.1972067535E-16   0.7750000012E+01
   0.9845000000E+00   0.0000000000E+00  -0.2107757519E-16   0.2250000000E-02   0.0000000000E+00  -0.2438444817E-16  -0.1775000000E-01   0.0000000000E+00   0.3306872982E-17  -0.7750000012E+01   0.2822029007E-14   0.3458414397E-14   0.2704392375E-16  -0.2209237265E-15   0.2119340745E-15  -0.1550000002E-01   0.4650000007E-02   0.4650000007E-02   0.1431007304E-16  -0.2026197641E-16   0.2549915276E-16   0.7750000012E+01
   0.9845000000E+00   0.1004650000E+01  -0.8178303399E-17   0.2250000000E-02  -0.6750000000E-03  -0.1714829119E-16  -0.1775000000E-01   0.5325000000E-02   0.8969987794E-17  -0.7750000011E+01  -0.6085229960E-14  -0.7550297019E-14  -0.1406957094E-15   0.1492690995E-15   0.2087037913E-15  -0.1550000002E-01   0.4650000007E-02   0.4650000007E-02   0.9176756765E-17  -0.8490519628E-17   0.1974830470E-16   0.7750000011E+01
   0.0000000000E+00   0.1004650000E+01  -0.8916014482E-17   0.0000000000E+00  -0.6750000000E-03   0.4330367882E-17   0.0000000000E+00   0.5325000000E-02  -0.1324638236E-16  -0.7750000011E+01   0.1602242663E-14   0.1565591189E-14   0.1740986953E-15   0.4580319306E-15  -0.4228918629E-16  -0.1550000002E-01   0.4650000007E-02   0.4650000007E-02   0.3724263083E-16   0.1909215922E-16  -0.1376374516E-16   0.7750000011E+01
   0.0000000000E+00   0.0000000000E+00   0.1004650000E+01   0.0000000000E+00   0.0000000000E+00  -0.6750000000E-03   0.0000000000E+00   0.0000000000E+00   0.5325000000E-02  -0.7750000011E+01   0.1198790578E-14   0.7209676247E-15   0.1947391871E-15  -0.2756097755E-15   0.1949218365E-15  -0.1550000002E-01   0.4650000007E-02   0.4650000007E-02  -0.1952196564E-17  -0.5261883641E-16  -0.1058104043E-16   0.7750000011E+01
   0.9845000000E+00   0.0000000000E+00   0.1004650000E+01   0.2250000000E-02   0.0000000000E+00  -0.6750000000E-03  -0.1775000000E-01   0.0000000000E+00   0.5325000000E-02  -0.7750000011E+01  -0.3946058208E-14  -0.3065850913E-14  -0.1737585522E-15  -0.2541312541E-15   0.3755030055E-15  -0.1550000002E-01   0.4650000007E-02   0.4650000007E-02   0.2871739782E-16  -0.2394213876E-16   0.1736174648E-16   0.7750000011E+01
   0.9845000000E+00   0.1004650000E+01   0.1004650000E+01   0.2250000000E-02  -0.6750000000E-03  -0.6750000000E-03  -0.1775000000E-01   0.5325000000E-02   0.5325000000E-02  -0.7750000010E+01   0.6743392700E-14   0.6854414978E-14  -0.1357685157E-15  -0.8046854993E-15  -0.5341902831E-15  -0.1550000002E-01   0.4650000006E-02   0.4650000006E-02   0.1656727988E-16  -0.9434041471E-17   0.6751178187E-17   0.7750000010E+01
   0.0000000000E+00   0.1004650000E+01   0.1004650000E+01   0.0000000000E+00  -0.6750000000E-03  -0.6750000000E-03   0.0000000000E+00   0.5325000000E-02   0.5325000000E-02  -0.7750000010E+01  -0.3277397853E-14  -0.2282182765E-14  -0.8872614507E-15   0.1713965969E-15  -0.5019647548E-16  -0.1550000002E-01   0.4650000006E-02   0.4650000006E-02   0.2836458250E-16  -0.2880901441E-17  -0.1603053722E-16   0.7750000010E+01
   0.1969000000E+01   0.0000000000E+00  -0.4082848308E-16   0.4500000000E-02   0.0000000000E+00  -0.9036266045E-16  -0.3550000000E-01   0.0000000000E+00   0.4953417737E-16  -0.7750000012E+01  -0.2286950081E-14  -0.1887483441E-14  -0.9438058006E-15   0.1442027637E-15   0.7060549736E-15  -0.1550000002E-01   0.4650000007E-02   0.4650000007E-02   0.3846959086E-17  -0.7032072000E-16   0.8322270977E-17   0.7750000012E+01
   0.1969000000E+01   0.1004650000E+01  -0.3675241005E-16   0.4500000000E-02  -0.6750000000E-03  -0.7709270024E-16  -0.3550000000E-01   0.5325000000E-02   0.4034029019E-16  -0.7750000011E+01   0.4735561766E-14   0.3455887760E-14  -0.9909103748E-15   0.1262696659E-14   0.7729943891E-15  -0.1550000002E-01   0.4650000006E-02   0.4650000006E-02  -0.4587446212E-16  -0.3806862030E-16   0.7818131368E-18   0.7750000011E+01
   0.1969000000E+01   0.0000000000E+00   0.1004650000E+01   0.4500000000E-02   0.0000000000E+00  -0.6750000000E-03  -0.3550000000E-01   0.0000000000E+00   0.5325000000E-02  -0.7750000011E+01   0.9148533145E-16  -0.5327078113E-16   0.7523830940E-17   0.4705079319E-15  -0.6235259448E-15  -0.1550000002E-01   0.4650000006E-02   0.4650000006E-02   0.8517518029E-16  -0.5052228675E-16  -0.1725711652E-16   0.7750000011E+01
   0.1969000000E+01   0.1004650000E+01   0.1004650000E+01   0.4500000000E-02  -0.6750000000E-03  -0.6750000000E-03  -0.3550000000E-01   0.5325000000E-02   0.5325000000E-02  -0.7750000010E+01   0.7583014751E-16  -0.4157991786E-15   0.1293526371E-15   0.8815958873E-15  -0.1308934974E-14  -0.1550000002E-01   0.4650000006E-02   0.4650000006E-02   0.3044231701E-16  -0.1291992431E-16  -0.2011769616E-16   0.7750000010E+01
     1     2     3     4     5     6     7     8
     2     9    10     3     6    11    12     7
 VARIABLES = X,Y,Z,DU1,DU2,DU3,U1,U2,U3,S11,S22,S33,S12,S13,S23,E11,E22,E33,E12,E13,E23,SMISES
 ZONE, T="0.2150D+01" F=FEPOINT, I=   12 J=    2 ET=BRICK
   0.0000000000E+00   0.0000000000E+00   0.0000000000E+00   0.0000000000E+00   0.0000000000E+00   0.0000000000E+00   0.0000000000E+00   0.0000000000E+00   0.0000000000E+00  -0.6625000010E+01   0.1541861992E-15   0.1016601672E-14  -0.4567835494E-16   0.5491769170E-15   0.7558724313E-16  -0.1325000002E-01   0.3975000006E-02   0.3975000006E-02  -0.1141794379E-17  -0.3730488701E-16  -0.1769062889E-16   0.6625000010E+01
   0.9867500000E+00   0.0000000000E+00  -0.1974642573E-16   0.2250000000E-02   0.0000000000E+00   0.1331149456E-17  -0.1550000000E-01   0.0000000000E+00  -0.2107757519E-16  -0.6625000010E+01   0.2984576893E-14   0.3014325218E-14  -0.1110638400E-14  -0.1563292473E-14   0.8286994576E-16  -0.1325000002E-01   0.3975000006E-02   0.3975000006E-02   0.2562947498E-17  -0.4773974024E-16   0.2467670710E-16   0.6625000010E+01
   0.9867500000E+00   0.1003975000E+01  -0.7486779430E-17   0.2250000000E-02  -0.6750000000E-03   0.6915239696E-18  -0.1550000000E-01   0.4650000000E-02  -0.8178303399E-17  -0.6625000009E+01  -0.5115777668E-14  -0.6662118680E-14  -0.1217497855E-14   0.9643555827E-15  -0.3555173701E-15  -0.1325000002E-01   0.3975000006E-02   0.3975000006E-02  -0.3273437913E-17  -0.1494364413E-17   0.1447494111E-16   0.6625000009E+01
   0.0000000000E+00   0.1003975000E+01  -0.7860973483E-17   0.0000000000E+00  -0.6750000000E-03   0.1055040998E-17   0.0000000000E+00   0.4650000000E-02  -0.8916014482E-17  -0.6625000010E+01   0.6059597463E-15   0.3472637221E-15   0.5987135727E-15   0.3428049533E-15   0.2864463218E-15  -0.1325000002E-01   0.3975000006E-02   0.3975000006E-02   0.4080481379E-16   0.1707252046E-16  -0.1006219908E-16   0.6625000010E+01
   0.0000000000E+00   0.0000000000E+00   0.1003975000E+01   0.0000000000E+00   0.0000000000E+00  -0.6750000000E-03   0.0000000000E+00   0.0000000000E+00   0.4650000000E-02  -0.6625000010E+01  -0.4774323967E-15  -0.1106914601E-14   0.2071242073E-15   0.5216611372E-16   0.5315214321E-15  -0.1325000002E-01   0.3975000006E-02   0.3975000006E-02  -0.1736976907E-17  -0.4828886590E-16  -0.1242359024E-16   0.6625000010E+01
   0.9867500000E+00   0.0000000000E+00   0.1003975000E+01   0.2250000000E-02   0.0000000000E+00  -0.6750000000E-03  -0.1550000000E-01   0.0000000000E+00   0.4650000000E-02  -0.6625000009E+01  -0.4411924651E-14  -0.3753761911E-14   0.7242593834E-15  -0.1582217193E-14   0.4415018333E-15  -0.1325000002E-01   0.3975000006E-02   0.3975000006E-02   0.3793040972E-16  -0.3351173697E-16   0.1785121190E-16   0.6625000009E+01
   0.9867500000E+00   0.1003975000E+01   0.1003975000E+01   0.2250000000E-02  -0.6750000000E-03  -0.6750000000E-03  -0.1550000000E-01   0.4650000000E-02   0.4650000000E-02  -0.6625000009E+01   0.6239806869E-14   0.7320281420E-14   0.6440912708E-15  -0.9149668806E-16  -0.9045889229E-15  -0.1325000002E-01   0.3975000005E-02   0.3975000005E-02   0.2686209738E-16  -0.6553168889E-17   0.7105376569E-17   0.6625000009E+01
   0.0000000000E+00   0.1003975000E+01   0.1003975000E+01   0.0000000000E+00  -0.6750000000E-03  -0.6750000000E-03   0.0000000000E+00   0.4650000000E-02   0.4650000000E-02  -0.6625000009E+01  -0.1604092530E-14  -0.7793963808E-15  -0.1232136557E-14   0.1442253391E-15   0.3453871356E-15  -0.1325000002E-01   0.3975000005E-02   0.3975000005E-02   0.2616995215E-16  -0.1176978529E-17  -0.1084406226E-16   0.6625000009E+01
   0.1973500000E+01   0.0000000000E+00  -0.4216134304E-16   0.4500000000E-02   0.0000000000E+00  -0.1332859957E-17  -0.3100000000E-01   0.0000000000E+00  -0.4082848308E-16  -0.6625000010E+01  -0.5750418224E-14  -0.5221069613E-14   0.6629055576E-15   0.1219027639E-14   0.1183052179E-14  -0.1325000002E-01   0.3975000006E-02   0.3975000006E-02   0.1887619111E-16  -0.7529626594E-16   0.1312252568E-16   0.6625000010E+01
   0.1973500000E+01   0.1003975000E+01  -0.3563930088E-16   0.4500000000E-02  -0.6750000000E-03   0.1113109167E-17  -0.3100000000E-01   0.4650000000E-02  -0.3675241005E-16  -0.6625000009E+01   0.7107666679E-14   0.5605948112E-14   0.2876462004E-15   0.6583356226E-15   0.9709914897E-15  -0.1325000002E-01   0.3975000006E-02   0.3975000006E-02  -0.3631566872E-16  -0.3950190126E-16   0.5225679598E-17   0.6625000009E+01
   0.1973500000E+01   0.0000000000E+00   0.1003975000E+01   0.4500000000E-02   0.0000000000E+00  -0.6750000000E-03  -0.3100000000E-01   0.0000000000E+00   0.4650000000E-02  -0.6625000009E+01   0.2937427697E-14   0.3550967950E-14  -0.8318582945E-15   0.1757345666E-14  -0.6063905677E-15  -0.1325000002E-01   0.3975000006E-02   0.3975000006E-02   0.7456629614E-16  -0.6395216285E-16  -0.1840969741E-16   0.6625000009E+01
   0.1973500000E+01   0.1003975000E+01   0.1003975000E+01   0.4500000000E-02  -0.6750000000E-03  -0.6750000000E-03  -0.3100000000E-01   0.4650000000E-02   0.4650000000E-02  -0.6625000008E+01  -0.2810749268E-14  -0.2806763747E-14  -0.5300337981E-15  -0.4090563601E-15  -0.1500477124E-14  -0.1325000002E-01   0.3975000005E-02   0.3975000005E-02   0.4020340192E-16  -0.5436037242E-16  -0.2831745746E-16   0.6625000008E+01
     1     2     3     4     5     6     7     8
     2     9    10     3     6    11    12     7
 VARIABLES = X,Y,Z,DU1,DU2,DU3,U1,U2,U3,S11,S22,S33,S12,S13,S23,E11,E22,E33,E12,E13,E23,SMISES
 ZONE, T="0.2200D+01" F=FEPOINT, I=   12 J=    2 ET=BRICK
   0.0000000000E+00   0.0000000000E+00   0.0000000000E+00   0.0000000000E+00   0.0000000000E+00   0.0000000000E+00   0.0000000000E+00   0.0000000000E+00   0.0000000000E+00  -0.5500000009E+01  -0.1054906908E-14  -0.3062358774E-15  -0.5145014250E-16   0.5062034601E-16  -0.9325006073E-16  -0.1100000002E-01   0.3300000005E-02   0.3300000005E-02  -0.2857123681E-17  -0.4673234035E-16  -0.1632591503E-16   0.5500000009E+01
   0.9890000000E+00   0.0000000000E+00  -0.2207794920E-16   0.2250000000E-02   0.0000000000E+00  -0.2331523473E-17  -0.1325000000E-01   0.0000000000E+00  -0.1974642573E-16  -0.5500000008E+01   0.3404362048E-14   0.3469303029E-14  -0.1938345139E-15  -0.9717645704E-16   0.2153053102E-15  -0.1100000002E-01   0.3300000005E-02   0.3300000005E-02   0.1831991383E-16  -0.2782343786E-16   0.2530343052E-16   0.5500000008E+01
   0.9890000000E+00   0.1003300000E+01  -0.9200814072E-17   0.2250000000E-02  -0.6750000000E-03  -0.1714034642E-17  -0.1325000000E-01   0.3975000000E-02  -0.7486779430E-17  -0.5500000008E+01  -0.5509799986E-14  -0.6924800236E-14  -0.2930926436E-15   0.1762776741E-15  -0.2100291330E-15  -0.1100000002E-01   0.3300000005E-02   0.3300000005E-02   0.1317620893E-16  -0.1186239424E-16   0.1646645484E-16   0.5500000008E+01
   0.0000000000E+00   0.1003300000E+01  -0.8673490017E-17   0.0000000000E+00  -0.6750000000E-03  -0.8125165341E-18   0.0000000000E+00   0.3975000000E-02  -0.7860973483E-17  -0.5500000008E+01   0.1891416438E-14   0.1470901921E-14   0.4499685680E-15   0.1620827570E-15  -0.1905892518E-15  -0.1100000002E-01   0.3300000005E-02   0.3300000005E-02   0.3744212198E-16   0.1774562177E-16  -0.1981519318E-16   0.5500000008E+01
   0.0000000000E+00   0.0000000000E+00   0.1003300000E+01   0.0000000000E+00   0.0000000000E+00  -0.6750000000E-03   0.0000000000E+00   0.0000000000E+00   0.3975000000E-02  -0.5500000008E+01   0.7797348026E-15   0.4786045687E-15   0.2303975969E-15  -0.1641750651E-15   0.4296625706E-15  -0.1100000002E-01   0.3300000005E-02   0.3300000005E-02   0.6158762656E-18  -0.5100685516E-16  -0.1611698346E-16   0.5500000008E+01
   0.9890000000E+00   0.0000000000E+00   0.1003300000E+01   0.2250000000E-02   0.0000000000E+00  -0.6750000000E-03  -0.1325000000E-01   0.0000000000E+00   0.3975000000E-02  -0.5500000008E+01  -0.4017902300E-14  -0.3298784100E-14  -0.7256390734E-15  -0.2367483725E-15   0.4687007659E-15  -0.1100000002E-01   0.3300000005E-02   0.3300000005E-02   0.2021956388E-16  -0.2530345167E-16   0.1764457977E-16   0.5500000008E+01
   0.9890000000E+00   0.1003300000E+01   0.1003300000E+01   0.2250000000E-02  -0.6750000000E-03  -0.6750000000E-03  -0.1325000000E-01   0.3975000000E-02   0.3975000000E-02  -0.5500000007E+01   0.6274999516E-14   0.7057599864E-14  -0.4799457572E-15  -0.1042044408E-14  -0.8517935655E-15  -0.1100000001E-01   0.3300000004E-02   0.3300000004E-02   0.1170842585E-16  -0.2748593421E-16   0.2519416866E-17   0.5500000007E+01
   0.0000000000E+00   0.1003300000E+01   0.1003300000E+01   0.0000000000E+00  -0.6750000000E-03  -0.6750000000E-03   0.0000000000E+00   0.3975000000E-02   0.3975000000E-02  -0.5500000007E+01  -0.3075867204E-14  -0.1743404262E-14  -0.9700251383E-15   0.9341199909E-16  -0.5853146034E-16  -0.1100000001E-01   0.3300000004E-02   0.3300000004E-02   0.2807833734E-16  -0.4889738195E-18  -0.9345451539E-17   0.5500000007E+01
   0.1978000000E+01   0.0000000000E+00  -0.4601522120E-16   0.4500000000E-02   0.0000000000E+00  -0.3853878161E-17  -0.2650000000E-01   0.0000000000E+00  -0.4216134304E-16  -0.5500000008E+01  -0.4278643527E-14  -0.4039002667E-14  -0.9318914431E-18   0.9371845086E-15   0.1207856515E-14  -0.1100000002E-01   0.3300000005E-02   0.3300000005E-02   0.2158067836E-18  -0.1017432327E-15   0.1336116838E-16   0.5500000008E+01
   0.1978000000E+01   0.1003300000E+01  -0.3926978787E-16   0.4500000000E-02  -0.6750000000E-03  -0.3630486988E-17  -0.2650000000E-01   0.3975000000E-02  -0.3563930088E-16  -0.5500000008E+01   0.6033365883E-14   0.4238488008E-14  -0.2219943895E-15   0.8322235451E-15   0.1244403298E-14  -0.1100000002E-01   0.3300000005E-02   0.3300000005E-02  -0.4967789552E-16  -0.1075402445E-16   0.6115756925E-17   0.5500000008E+01
   0.1978000000E+01   0.0000000000E+00   0.1003300000E+01   0.4500000000E-02   0.0000000000E+00  -0.6750000000E-03  -0.2650000000E-01   0.0000000000E+00   0.3975000000E-02  -0.5500000008E+01   0.1469104584E-14   0.1824678177E-14  -0.9225803824E-15   0.1293158787E-14  -0.5224978907E-15  -0.1100000002E-01   0.3300000005E-02   0.3300000005E-02   0.7986681097E-16  -0.5361404957E-16  -0.1735839631E-16   0.5500000008E+01
   0.1978000000E+01   0.1003300000E+01   0.1003300000E+01   0.4500000000E-02  -0.6750000000E-03  -0.6750000000E-03  -0.2650000000E-01   0.3975000000E-02   0.3975000000E-02  -0.5500000007E+01  -0.1845478022E-14  -0.2086577772E-14  -0.4150139616E-15  -0.1965374749E-15  -0.1304740664E-14  -0.1100000001E-01   0.3300000004E-02   0.3300000004E-02   0.4818743573E-16  -0.4097170335E-16  -0.2448375244E-16   0.5500000007E+01
     1     2     3     4     5     6     7     8
     2     9    10     3     6    11    12     7
 VARIABLES = X,Y,Z,DU1,DU2,DU3,U1,U2,U3,S11,S22,S33,S12,S13,S23,E11,E22,E33,E12,E13,E23,SMISES
 ZONE, T="0.2250D+01" F=FEPOINT, I=   12 J=    2 ET=BRICK
   0.0000000000E+00   0.0000000000E+00   0.0000000000E+00   0.0000000000E+00   0.0000000000E+00   0.0000000000E+00   0.0000000000E+00   0.0000000000E+00   0.0000000000E+00  -0.4375000007E+01  -0.4393739403E-15   0.6911674390E-15  -0.3435034978E-16   0.3623821097E-15  -0.3080091557E-15  -0.8750000014E-02   0.2625000004E-02   0.2625000004E-02   0.5913387382E-18  -0.4381490183E-16  -0.1970541887E-16   0.4375000007E+01
   0.9912500000E+00   0.0000000000E+00  -0.1885667145E-16   0.2250000000E-02   0.0000000000E+00   0.3221277758E-17  -0.1100000000E-01   0.0000000000E+00  -0.2207794920E-16  -0.4375000007E+01   0.3378599244E-14   0.3833577055E-14  -0.4767843397E-15  -0.2594105335E-15  -0.7826971749E-17  -0.8750000013E-02   0.2625000004E-02   0.2625000004E-02   0.1054962918E-16  -0.2874194004E-16   0.2447279341E-16   0.4375000007E+01
   0.9912500000E+00   0.1002625000E+01  -0.7011757724E-17   0.2250000000E-02  -0.6750000000E-03   0.2189056348E-17  -0.1100000000E-01   0.3300000000E-02  -0.9200814072E-17  -0.4375000006E+01  -0.5413651880E-14  -0.6464378105E-14  -0.5144226057E-15   0.4761268204E-16   0.5413240896E-16  -0.8750000012E-02   0.2625000004E-02   0.2625000004E-02   0.5632514293E-17  -0.6480999055E-17   0.1966895785E-16   0.4375000006E+01
   0.0000000000E+00   0.1002625000E+01  -0.9803211010E-17   0.0000000000E+00  -0.6750000000E-03  -0.1129720992E-17   0.0000000000E+00   0.3300000000E-02  -0.8673490017E-17  -0.4375000006E+01   0.1869105198E-14   0.1843342431E-14   0.4501833876E-15   0.5927869576E-15   0.1279800401E-15  -0.8750000013E-02   0.2625000004E-02   0.2625000004E-02   0.3972558428E-16   0.1861170956E-16  -0.1587271866E-16   0.4375000006E+01
   0.0000000000E+00   0.0000000000E+00   0.1002625000E+01   0.0000000000E+00   0.0000000000E+00  -0.6750000000E-03   0.0000000000E+00   0.0000000000E+00   0.3300000000E-02  -0.4375000006E+01   0.7316607440E-15   0.5609724238E-16   0.1959115118E-15   0.1273564346E-15   0.1966691391E-15  -0.8750000013E-02   0.2625000004E-02   0.2625000004E-02  -0.1140273854E-17  -0.4472670615E-16  -0.1336888412E-16   0.4375000006E+01
   0.9912500000E+00   0.0000000000E+00   0.1002625000E+01   0.2250000000E-02   0.0000000000E+00  -0.6750000000E-03  -0.1100000000E-01   0.0000000000E+00   0.3300000000E-02  -0.4375000006E+01  -0.4114050449E-14  -0.3799843241E-14  -0.6618044910E-15  -0.5164433229E-15   0.3233460635E-15  -0.8750000012E-02   0.2625000004E-02   0.2625000004E-02   0.2646425092E-16  -0.3103358127E-16   0.1217791740E-16   0.4375000006E+01
   0.9912500000E+00   0.1002625000E+01   0.1002625000E+01   0.2250000000E-02  -0.6750000000E-03  -0.6750000000E-03  -0.1100000000E-01   0.3300000000E-02   0.3300000000E-02  -0.4375000006E+01   0.5723873599E-14   0.6197711061E-14  -0.4672091471E-15  -0.9416952888E-15  -0.6245180291E-15  -0.8750000011E-02   0.2625000003E-02   0.2625000003E-02   0.1567177473E-16  -0.1820040858E-16   0.6053955552E-17   0.4375000006E+01
   0.0000000000E+00   0.1002625000E+01   0.1002625000E+01   0.0000000000E+00  -0.6750000000E-03  -0.6750000000E-03   0.0000000000E+00   0.3300000000E-02   0.3300000000E-02  -0.4375000006E+01  -0.3473341144E-14  -0.2563385520E-14  -0.1048342932E-14   0.3982103824E-15   0.2053305985E-15  -0.8750000012E-02   0.2625000004E-02   0.2625000004E-02   0.2716627585E-16  -0.1777783721E-17  -0.1008114273E-16   0.4375000006E+01
   0.1982500000E+01   0.0000000000E+00  -0.3394306059E-16   0.4500000000E-02   0.0000000000E+00   0.1207216062E-16  -0.2200000000E-01   0.0000000000E+00  -0.4601522120E-16  -0.4375000007E+01  -0.4458058377E-14  -0.3871739815E-14  -0.3197704876E-15   0.3700166630E-15   0.9570019550E-15  -0.8750000013E-02   0.2625000004E-02   0.2625000004E-02   0.5340548056E-17  -0.9842733308E-16   0.1057620290E-16   0.4375000007E+01
   0.1982500000E+01   0.1002625000E+01  -0.2863142530E-16   0.4500000000E-02  -0.6750000000E-03   0.1063836257E-16  -0.2200000000E-01   0.3300000000E-02  -0.3926978787E-16  -0.4375000006E+01   0.6247973421E-14   0.4979188058E-14  -0.4150392244E-15   0.8781437579E-15   0.1334452266E-14  -0.8750000012E-02   0.2625000004E-02   0.2625000004E-02  -0.4235337617E-16  -0.3403083670E-16   0.5717069826E-17   0.4375000006E+01
   0.1982500000E+01   0.0000000000E+00   0.1002625000E+01   0.4500000000E-02   0.0000000000E+00  -0.6750000000E-03  -0.2200000000E-01   0.0000000000E+00   0.3300000000E-02  -0.4375000006E+01   0.1324882431E-14   0.1437363519E-14  -0.5295007518E-15   0.6946811125E-15  -0.8406335426E-15  -0.8750000012E-02   0.2625000004E-02   0.2625000004E-02   0.8050827004E-16  -0.4890840944E-16  -0.1784129671E-16   0.4375000006E+01
   0.1982500000E+01   0.1002625000E+01   0.1002625000E+01   0.4500000000E-02  -0.6750000000E-03  -0.6750000000E-03  -0.2200000000E-01   0.3300000000E-02   0.3300000000E-02  -0.4375000006E+01  -0.7303447582E-15  -0.1884122287E-14  -0.2685089865E-16  -0.3990681445E-15  -0.1129506629E-14  -0.8750000011E-02   0.2625000003E-02   0.2625000003E-02   0.3903904862E-16  -0.6772593867E-16  -0.1990146535E-16   0.4375000006E+01
     1     2     3     4     5     6     7     8
     2     9    10     3     6    11    12     7
 VARIABLES = X,Y,Z,DU1,DU2,DU3,U1,U2,U3,S11,S22,S33,S12,S13,S23,E11,E22,E33,E12,E13,E23,SMISES
 ZONE, T="0.2300D+01" F=FEPOINT, I=   12 J=    2 ET=BRICK
   0.0000000000E+00   0.0000000000E+00   0.0000000000E+00   0.0000000000E+00   0.0000000000E+00   0.0000000000E+00   0.0000000000E+00   0.0000000000E+00   0.0000000000E+00  -0.3250000005E+01  -0.1648662588E-14  -0.1157958219E-14  -0.5549723850E-16  -0.1409399096E-15  -0.1277501959E-15  -0.6500000010E-02   0.1950000003E-02   0.1950000003E-02   0.1169344715E-17  -0.4485909608E-16  -0.1758104518E-16   0.3250000005E+01
   0.9935000000E+00   0.0000000000E+00  -0.2258586860E-16   0.2250000000E-02   0.0000000000E+00  -0.3729197155E-17  -0.8750000000E-02   0.0000000000E+00  -0.1885667145E-16  -0.3250000005E+01   0.2964258409E-14   0.3160540152E-14   0.1193079472E-15   0.1797948088E-15   0.1462803907E-15  -0.6500000010E-02   0.1950000003E-02   0.1950000003E-02   0.1456886672E-16  -0.2832621263E-16   0.2558361737E-16   0.3250000005E+01
   0.9935000000E+00   0.1001950000E+01  -0.9875648320E-17   0.2250000000E-02  -0.6750000000E-03  -0.2863890596E-17  -0.8750000000E-02   0.2625000000E-02  -0.7011757724E-17  -0.3250000005E+01  -0.5898378017E-14  -0.7085889357E-14  -0.2079615957E-16   0.2531924955E-16   0.6400230933E-17  -0.6500000009E-02   0.1950000003E-02   0.1950000003E-02   0.1336375012E-16  -0.5345613645E-17   0.1758298088E-16   0.3250000005E+01
   0.0000000000E+00   0.1001950000E+01  -0.8864317581E-17   0.0000000000E+00  -0.6750000000E-03   0.9388934293E-18   0.0000000000E+00   0.2625000000E-02  -0.9803211010E-17  -0.3250000005E+01   0.2059942613E-14   0.1122231460E-14   0.3287326007E-15   0.1300229220E-15  -0.7748112880E-16  -0.6500000009E-02   0.1950000003E-02   0.1950000003E-02   0.3872516877E-16   0.1175861494E-16  -0.1857186016E-16   0.3250000005E+01
   0.0000000000E+00   0.0000000000E+00   0.1001950000E+01   0.0000000000E+00   0.0000000000E+00  -0.6750000000E-03   0.0000000000E+00   0.0000000000E+00   0.2625000000E-02  -0.3250000005E+01   0.1131127415E-14   0.5497192716E-15   0.2087201091E-15  -0.3680251667E-15   0.3351975957E-15  -0.6500000009E-02   0.1950000003E-02   0.1950000003E-02  -0.3014546027E-18  -0.4939264707E-16  -0.1319247421E-16   0.3250000005E+01
   0.9935000000E+00   0.0000000000E+00   0.1001950000E+01   0.2250000000E-02   0.0000000000E+00  -0.6750000000E-03  -0.8750000000E-02   0.0000000000E+00   0.2625000000E-02  -0.3250000005E+01  -0.3618435662E-14  -0.3389487919E-14  -0.4371077729E-15  -0.1556839931E-15   0.5766038039E-15  -0.6500000009E-02   0.1950000003E-02   0.1950000003E-02   0.2349185953E-16  -0.2658770428E-16   0.1576015408E-16   0.3250000005E+01
   0.9935000000E+00   0.1001950000E+01   0.1001950000E+01   0.2250000000E-02  -0.6750000000E-03  -0.6750000000E-03  -0.8750000000E-02   0.2625000000E-02   0.2625000000E-02  -0.3250000004E+01   0.6482169942E-14   0.7325725750E-14  -0.3586081759E-15  -0.8426820107E-15  -0.6597208593E-15  -0.6500000009E-02   0.1950000003E-02   0.1950000003E-02   0.1382358730E-16  -0.2505783438E-16   0.7807081801E-17   0.3250000004E+01
   0.0000000000E+00   0.1001950000E+01   0.1001950000E+01   0.0000000000E+00  -0.6750000000E-03  -0.6750000000E-03   0.0000000000E+00   0.2625000000E-02   0.2625000000E-02  -0.3250000004E+01  -0.2839482392E-14  -0.1274815649E-14  -0.8703616798E-15  -0.1994224054E-16  -0.1292295375E-15  -0.6500000009E-02   0.1950000003E-02   0.1950000003E-02   0.2699864070E-16  -0.6997296261E-18  -0.1245295740E-16   0.3250000004E+01
   0.1987000000E+01   0.0000000000E+00  -0.4627038400E-16   0.4500000000E-02   0.0000000000E+00  -0.1232732341E-16  -0.1750000000E-01   0.0000000000E+00  -0.3394306059E-16  -0.3250000005E+01  -0.3655139589E-14  -0.3612509869E-14  -0.4206563971E-15   0.6935153349E-16   0.1102589312E-14  -0.6500000010E-02   0.1950000003E-02   0.1950000003E-02   0.5694811293E-17  -0.9037637001E-16   0.1159583326E-16   0.3250000005E+01
   0.1987000000E+01   0.1001950000E+01  -0.4024940242E-16   0.4500000000E-02  -0.6750000000E-03  -0.1161797712E-16  -0.1750000000E-01   0.2625000000E-02  -0.2863142530E-16  -0.3250000005E+01   0.5509995543E-14   0.4213454619E-14  -0.6804354552E-15   0.1480090178E-14   0.1026845097E-14  -0.6500000009E-02   0.1950000003E-02   0.1950000003E-02  -0.4364172003E-16  -0.2808037157E-16   0.4080182422E-17   0.3250000005E+01
   0.1987000000E+01   0.0000000000E+00   0.1001950000E+01   0.4500000000E-02   0.0000000000E+00  -0.6750000000E-03  -0.1750000000E-01   0.0000000000E+00   0.2625000000E-02  -0.3250000005E+01   0.3405559958E-15   0.8544965123E-15  -0.2903507875E-16   0.6026385275E-15  -0.7234069224E-15  -0.6500000009E-02   0.1950000003E-02   0.1950000003E-02   0.8329532768E-16  -0.6430101768E-16  -0.1687103625E-16   0.3250000005E+01
   0.1987000000E+01   0.1001950000E+01   0.1001950000E+01   0.4500000000E-02  -0.6750000000E-03  -0.6750000000E-03  -0.1750000000E-01   0.2625000000E-02   0.2625000000E-02  -0.3250000004E+01  -0.1423700162E-14  -0.1826618402E-14   0.1517401506E-15   0.4309336815E-16  -0.1415900023E-14  -0.6500000008E-02   0.1950000002E-02   0.1950000002E-02   0.4123156811E-16  -0.4627725333E-16  -0.2531768064E-16   0.3250000004E+01
     1     2     3     4     5     6     7     8
     2     9    10     3     6    11    12     7
 VARIABLES = X,Y,Z,DU1,DU2,DU3,U1,U2,U3,S11,S22,S33,S12,S13,S23,E11,E22,E33,E12,E13,E23,SMISES
 ZONE, T="0.2350D+01" F=FEPOINT, I=   12 J=    2 ET=BRICK
   0.0000000000E+00   0.0000000000E+00   0.0000000000E+00   0.0000000000E+00   0.0000000000E+00   0.0000000000E+00   0.0000000000E+00   0.0000000000E+00   0.0000000000E+00  -0.2125000003E+01  -0.1040299709E-14  -0.4010277281E-16  -0.7746247105E-16   0.2215440146E-15  -0.1439508706E-15  -0.4250000007E-02   0.1275000002E-02   0.1275000002E-02   0.6502239995E-18  -0.4155862293E-16  -0.1793132393E-16   0.2125000003E+01
   0.9957500000E+00   0.0000000000E+00  -0.1963340228E-16   0.2250000000E-02   0.0000000000E+00   0.2952466319E-17  -0.6500000000E-02   0.0000000000E+00  -0.2258586860E-16  -0.2125000003E+01   0.3189754566E-14   0.3530258510E-14   0.8772006073E-16  -0.3073315093E-16   0.4156992538E-16  -0.4250000007E-02   0.1275000002E-02   0.1275000002E-02   0.1436362055E-16  -0.3107334453E-16   0.2437282691E-16   0.2125000003E+01
   0.9957500000E+00   0.1001275000E+01  -0.7347338253E-17   0.2250000000E-02  -0.6750000000E-03   0.2528310068E-17  -0.6500000000E-02   0.1950000000E-02  -0.9875648320E-17  -0.2125000003E+01  -0.5461725933E-14  -0.6540207744E-14  -0.1296219344E-15   0.3163175069E-19   0.5697838455E-16  -0.4250000006E-02   0.1275000002E-02   0.1275000002E-02   0.1001787433E-16  -0.9024903119E-17   0.1787216548E-16   0.2125000003E+01
   0.0000000000E+00   0.1001275000E+01  -0.8875206563E-17   0.0000000000E+00  -0.6750000000E-03  -0.1088898207E-19   0.0000000000E+00   0.1950000000E-02  -0.8864317581E-17  -0.2125000003E+01   0.2623683004E-14   0.1613860764E-14   0.3877106746E-15   0.4358298310E-15   0.2316647442E-15  -0.4250000006E-02   0.1275000002E-02   0.1275000002E-02   0.4080024694E-16   0.1653198255E-16  -0.1125481046E-16   0.2125000003E+01
   0.0000000000E+00   0.0000000000E+00   0.1001275000E+01   0.0000000000E+00   0.0000000000E+00  -0.6750000000E-03   0.0000000000E+00   0.0000000000E+00   0.1950000000E-02  -0.2125000003E+01   0.6994572262E-15  -0.1029991115E-15   0.2483811837E-15  -0.8931862850E-16   0.2276051325E-15  -0.4250000006E-02   0.1275000002E-02   0.1275000002E-02   0.8717546004E-18  -0.4637900018E-16  -0.1661106432E-16   0.2125000003E+01
   0.9957500000E+00   0.0000000000E+00   0.1001275000E+01   0.2250000000E-02   0.0000000000E+00  -0.6750000000E-03  -0.6500000000E-02   0.0000000000E+00   0.1950000000E-02  -0.2125000003E+01  -0.3864250294E-14  -0.3683376626E-14  -0.2024630572E-15  -0.5628422819E-15   0.4545299839E-15  -0.4250000006E-02   0.1275000002E-02   0.1275000002E-02   0.2488618779E-16  -0.3337296374E-16   0.1569739595E-16   0.2125000003E+01
   0.9957500000E+00   0.1001275000E+01   0.1001275000E+01   0.2250000000E-02  -0.6750000000E-03  -0.6750000000E-03  -0.6500000000E-02   0.1950000000E-02   0.1950000000E-02  -0.2125000003E+01   0.5903288430E-14   0.6541666581E-14  -0.3414865126E-16  -0.5945851154E-15  -0.6987649031E-15  -0.4250000006E-02   0.1275000002E-02   0.1275000002E-02   0.1940232557E-16  -0.1513281309E-16   0.6922953405E-17   0.2125000003E+01
   0.0000000000E+00   0.1001275000E+01   0.1001275000E+01   0.0000000000E+00  -0.6750000000E-03  -0.6750000000E-03   0.0000000000E+00   0.1950000000E-02   0.1950000000E-02  -0.2125000003E+01  -0.3043663678E-14  -0.1826671014E-14  -0.1050694447E-14   0.2019245730E-15  -0.5296530061E-16  -0.4250000006E-02   0.1275000002E-02   0.1275000002E-02   0.2419555068E-16  -0.2439070676E-17  -0.1283194692E-16   0.2125000003E+01
   0.1991500000E+01   0.0000000000E+00  -0.3633381969E-16   0.4500000000E-02   0.0000000000E+00   0.9936564305E-17  -0.1300000000E-01   0.0000000000E+00  -0.4627038400E-16  -0.2125000003E+01  -0.3882895412E-14  -0.3606336089E-14  -0.2018582362E-15   0.2935822528E-15   0.9812308489E-15  -0.4250000006E-02   0.1275000002E-02   0.1275000002E-02   0.1183129221E-16  -0.7882266654E-16   0.1087178957E-16   0.2125000003E+01
   0.1991500000E+01   0.1001275000E+01  -0.3090002784E-16   0.4500000000E-02  -0.6750000000E-03   0.9349374585E-17  -0.1300000000E-01   0.1950000000E-02  -0.4024940242E-16  -0.2125000003E+01   0.5992995881E-14   0.4864714191E-14  -0.6020541846E-15   0.1267314054E-14   0.1262203737E-14  -0.4250000006E-02   0.1275000002E-02   0.1275000002E-02  -0.4123803862E-16  -0.3454658552E-16   0.5735122693E-17   0.2125000003E+01
   0.1991500000E+01   0.0000000000E+00   0.1001275000E+01   0.4500000000E-02   0.0000000000E+00  -0.6750000000E-03  -0.1300000000E-01   0.0000000000E+00   0.1950000000E-02  -0.2125000003E+01   0.1453234055E-14   0.1637096849E-14  -0.4466072258E-15   0.6208240821E-15  -0.8231820130E-15  -0.4250000006E-02   0.1275000002E-02   0.1275000002E-02   0.7965562567E-16  -0.5204463290E-16  -0.1908911331E-16   0.2125000003E+01
   0.1991500000E+01   0.1001275000E+01   0.1001275000E+01   0.4500000000E-02  -0.6750000000E-03  -0.6750000000E-03  -0.1300000000E-01   0.1950000000E-02   0.1950000000E-02  -0.2125000003E+01  -0.2114600300E-14  -0.2458288865E-14  -0.1097290773E-15  -0.2210003153E-15  -0.1236469579E-14  -0.4250000005E-02   0.1275000002E-02   0.1275000002E-02   0.3536176923E-16  -0.4686725317E-16  -0.2224926580E-16   0.2125000003E+01
     1     2     3     4     5     6     7     8
     2     9    10     3     6    11    12     7
 VARIABLES = X,Y,Z,DU1,DU2,DU3,U1,U2,U3,S11,S22,S33,S12,S13,S23,E11,E22,E33,E12,E13,E23,SMISES
 ZONE, T="0.2400D+01" F=FEPOINT, I=   12 J=    2 ET=BRICK
   0.0000000000E+00   0.0000000000E+00   0.0000000000E+00   0.0000000000E+00   0.0000000000E+00   0.0000000000E+00   0.0000000000E+00   0.0000000000E+00   0.0000000000E+00  -0.1000000002E+01  -0.1005921054E-14  -0.1037315196E-15  -0.1172442179E-15   0.6701725587E-16  -0.1194912695E-15  -0.2000000003E-02   0.6000000009E-03   0.6000000009E-03  -0.6925278999E-19  -0.4141669119E-16  -0.1821196785E-16   0.1000000002E+01
   0.9980000000E+00   0.0000000000E+00  -0.2049910714E-16   0.2250000000E-02   0.0000000000E+00  -0.8657048560E-18  -0.4250000000E-02   0.0000000000E+00  -0.1963340228E-16  -0.1000000002E+01   0.3343771297E-14   0.3556653001E-14   0.1704562422E-15   0.1752904449E-16   0.1089948936E-15  -0.2000000003E-02   0.6000000009E-03   0.6000000009E-03   0.1603030941E-16  -0.3386649656E-16   0.2506866902E-16   0.1000000002E+01
   0.9980000000E+00   0.1000600000E+01  -0.7709111220E-17   0.2250000000E-02  -0.6750000000E-03  -0.3617729672E-18  -0.4250000000E-02   0.1275000000E-02  -0.7347338253E-17  -0.1000000001E+01  -0.5200405451E-14  -0.6533135356E-14  -0.1635191058E-15  -0.2672201647E-16   0.7498055846E-16  -0.2000000003E-02   0.6000000009E-03   0.6000000009E-03   0.1079238513E-16  -0.7213502880E-17   0.1802318523E-16   0.1000000001E+01
   0.0000000000E+00   0.1000600000E+01  -0.8844964288E-17   0.0000000000E+00  -0.6750000000E-03   0.3024227436E-19   0.0000000000E+00   0.1275000000E-02  -0.8875206563E-17  -0.1000000001E+01   0.2751621088E-14   0.1707104372E-14   0.4787007137E-15   0.4944453488E-15   0.1314877401E-15  -0.2000000003E-02   0.6000000009E-03   0.6000000009E-03   0.4133903825E-16   0.1502733165E-16  -0.1373968813E-16   0.1000000001E+01
   0.0000000000E+00   0.0000000000E+00   0.1000600000E+01   0.0000000000E+00   0.0000000000E+00  -0.6750000000E-03   0.0000000000E+00   0.0000000000E+00   0.1275000000E-02  -0.1000000001E+01   0.1122912055E-14   0.4364241388E-15   0.2558850075E-15  -0.2029885696E-15   0.2286837296E-15  -0.2000000003E-02   0.6000000009E-03   0.6000000009E-03  -0.7944583165E-18  -0.4895024315E-16  -0.1478154156E-16   0.1000000001E+01
   0.9980000000E+00   0.0000000000E+00   0.1000600000E+01   0.2250000000E-02   0.0000000000E+00  -0.6750000000E-03  -0.4250000000E-02   0.0000000000E+00   0.1275000000E-02  -0.1000000001E+01  -0.3966474408E-14  -0.3764285865E-14  -0.2326646115E-15  -0.5700449682E-15   0.5206496881E-15  -0.2000000003E-02   0.6000000009E-03   0.6000000009E-03   0.2891634486E-16  -0.3127371096E-16   0.1607294110E-16   0.1000000001E+01
   0.9980000000E+00   0.1000600000E+01   0.1000600000E+01   0.2250000000E-02  -0.6750000000E-03  -0.6750000000E-03  -0.4250000000E-02   0.1275000000E-02   0.1275000000E-02  -0.1000000001E+01   0.5938845796E-14   0.6616135136E-14  -0.2074698682E-16  -0.6298818493E-15  -0.7736198359E-15  -0.2000000003E-02   0.6000000008E-03   0.6000000008E-03   0.1793775703E-16  -0.2305078618E-16   0.5077796140E-17   0.1000000001E+01
   0.0000000000E+00   0.1000600000E+01   0.1000600000E+01   0.0000000000E+00  -0.6750000000E-03  -0.6750000000E-03   0.0000000000E+00   0.1275000000E-02   0.1275000000E-02  -0.1000000001E+01  -0.3238499720E-14  -0.1914336792E-14  -0.1063626573E-14   0.1756835717E-15  -0.1196833416E-15  -0.2000000003E-02   0.6000000008E-03   0.6000000008E-03   0.2576855552E-16   0.5949868795E-18  -0.1293350701E-16   0.1000000001E+01
   0.1996000000E+01   0.0000000000E+00  -0.3918055810E-16   0.4500000000E-02   0.0000000000E+00  -0.2846738402E-17  -0.8500000000E-02   0.0000000000E+00  -0.3633381969E-16  -0.1000000002E+01  -0.4182677771E-14  -0.3441844265E-14  -0.1403058440E-15   0.4187370608E-15   0.9748509198E-15  -0.2000000003E-02   0.6000000009E-03   0.6000000009E-03   0.1148504841E-16  -0.7662328847E-16   0.1107185365E-16   0.1000000002E+01
   0.1996000000E+01   0.1000600000E+01  -0.3391805835E-16   0.4500000000E-02  -0.6750000000E-03  -0.3018030513E-17  -0.8500000000E-02   0.1275000000E-02  -0.3090002784E-16  -0.1000000001E+01   0.5708683621E-14   0.4850022391E-14  -0.7423999854E-15   0.8461469230E-15   0.1270525867E-14  -0.2000000003E-02   0.6000000008E-03   0.6000000008E-03  -0.4175624524E-16  -0.3573294740E-16   0.5303989911E-17   0.1000000001E+01
   0.1996000000E+01   0.0000000000E+00   0.1000600000E+01   0.4500000000E-02   0.0000000000E+00  -0.6750000000E-03  -0.8500000000E-02   0.0000000000E+00   0.1275000000E-02  -0.1000000001E+01   0.1312049862E-14   0.1832929296E-14  -0.1462599012E-16   0.7349274906E-15  -0.9762328070E-15  -0.2000000003E-02   0.6000000008E-03   0.6000000008E-03   0.8281217646E-16  -0.6053336419E-16  -0.2082442655E-16   0.1000000001E+01
   0.1996000000E+01   0.1000600000E+01   0.1000600000E+01   0.4500000000E-02  -0.6750000000E-03  -0.6750000000E-03  -0.8500000000E-02   0.1275000000E-02   0.1275000000E-02  -0.1000000001E+01  -0.1755952977E-14  -0.2173611882E-14   0.1485180875E-15  -0.2949042302E-15  -0.1303287856E-14  -0.2000000003E-02   0.6000000008E-03   0.6000000008E-03   0.3877977435E-16  -0.4150595529E-16  -0.2334642876E-16   0.1000000001E+01
     1     2     3     4     5     6     7     8
     2     9    10     3     6    11    12     7
 VARIABLES = X,Y,Z,DU1,DU2,DU3,U1,U2,U3,S11,S22,S33,S12,S13,S23,E11,E22,E33,E12,E13,E23,SMISES
 ZONE, T="0.2450D+01" F=FEPOINT, I=   12 J=    2 ET=BRICK
   0.0000000000E+00   0.0000000000E+00   0.0000000000E+00   0.0000000000E+00   0.0000000000E+00   0.0000000000E+00   0.0000000000E+00   0.0000000000E+00   0.0000000000E+00   0.1250000002E+00  -0.1140154161E-14  -0.2875910541E-15  -0.1070292000E-15   0.1313563893E-15  -0.1686413674E-15   0.2500000004E-03  -0.7500000012E-04  -0.7500000012E-04   0.1990247378E-18  -0.4170622996E-16  -0.1835439775E-16   0.1250000002E+00
   0.1000250000E+01   0.0000000000E+00  -0.2015455694E-16   0.2250000000E-02   0.0000000000E+00   0.3445501979E-18  -0.2000000000E-02   0.0000000000E+00  -0.2049910714E-16   0.1250000002E+00   0.2923014193E-14   0.3343315408E-14   0.8663479237E-16  -0.7215509600E-16  -0.9955061892E-17   0.2500000004E-03  -0.7500000012E-04  -0.7500000012E-04   0.1489177086E-16  -0.3561095247E-16   0.2433965359E-16   0.1250000002E+00
   0.1000250000E+01   0.9999250000E+00  -0.7897207381E-17   0.2250000000E-02  -0.6750000000E-03  -0.1880961613E-18  -0.2000000000E-02   0.6000000000E-03  -0.7709111220E-17   0.1250000002E+00  -0.5357460185E-14  -0.6459912277E-14  -0.1754577737E-15   0.3837999831E-16   0.1383779243E-15   0.2500000004E-03  -0.7500000011E-04  -0.7500000011E-04   0.9989716866E-17  -0.7414221225E-17   0.1790013271E-16   0.1250000002E+00
   0.0000000000E+00   0.9999250000E+00  -0.9065795242E-17   0.0000000000E+00  -0.6750000000E-03  -0.2208309537E-18   0.0000000000E+00   0.6000000000E-03  -0.8844964288E-17   0.1250000002E+00   0.2585063199E-14   0.1672965886E-14   0.4078510241E-15   0.4401225373E-15   0.1262866947E-15   0.2500000004E-03  -0.7500000011E-04  -0.7500000011E-04   0.4100017609E-16   0.1563601390E-16  -0.1344177000E-16   0.1250000002E+00
   0.0000000000E+00   0.0000000000E+00   0.9999250000E+00   0.0000000000E+00   0.0000000000E+00  -0.6750000000E-03   0.0000000000E+00   0.0000000000E+00   0.6000000000E-03   0.1250000002E+00   0.7741081221E-15  -0.5826996506E-16   0.2496039632E-15  -0.1344137322E-16   0.2858593816E-15   0.2500000004E-03  -0.7500000011E-04  -0.7500000011E-04  -0.1764299901E-18  -0.4720460829E-16  -0.1470690517E-16   0.1250000002E+00
   0.1000250000E+01   0.0000000000E+00   0.9999250000E+00   0.2250000000E-02   0.0000000000E+00  -0.6750000000E-03  -0.2000000000E-02   0.0000000000E+00   0.6000000000E-03   0.1250000002E+00  -0.3633042850E-14  -0.3555007095E-14  -0.2289631523E-15  -0.6749204236E-15   0.4629546806E-15   0.2500000004E-03  -0.7500000011E-04  -0.7500000011E-04   0.2768379240E-16  -0.3078695167E-16   0.1516313365E-16   0.1250000002E+00
   0.1000250000E+01   0.9999250000E+00   0.9999250000E+00   0.2250000000E-02  -0.6750000000E-03  -0.6750000000E-03  -0.2000000000E-02   0.6000000000E-03   0.6000000000E-03   0.1250000002E+00   0.6182096186E-14   0.6758091042E-14  -0.7222022512E-16  -0.6594072912E-15  -0.7284826901E-15   0.2500000003E-03  -0.7500000010E-04  -0.7500000010E-04   0.1717060761E-16  -0.2334001322E-16   0.6429698440E-17   0.1250000002E+00
   0.0000000000E+00   0.9999250000E+00   0.9999250000E+00   0.0000000000E+00  -0.6750000000E-03  -0.6750000000E-03   0.0000000000E+00   0.6000000000E-03   0.6000000000E-03   0.1250000002E+00  -0.3442686674E-14  -0.2082368086E-14  -0.9267361199E-15   0.1479784762E-15   0.1862128018E-16   0.2500000003E-03  -0.7500000010E-04  -0.7500000010E-04   0.2727765154E-16  -0.9828818439E-18  -0.1024126033E-16   0.1250000002E+00
   0.2000500000E+01   0.0000000000E+00  -0.3870293167E-16   0.4500000000E-02   0.0000000000E+00   0.4776264231E-18  -0.4000000000E-02   0.0000000000E+00  -0.3918055810E-16   0.1250000002E+00  -0.4583517736E-14  -0.3923535676E-14  -0.1492100629E-15   0.5362933982E-15   0.1041243017E-14   0.2500000004E-03  -0.7500000011E-04  -0.7500000011E-04   0.1263617082E-16  -0.7387473697E-16   0.1119046116E-16   0.1250000002E+00
   0.2000500000E+01   0.9999250000E+00  -0.3299972013E-16   0.4500000000E-02  -0.6750000000E-03   0.9183382159E-18  -0.4000000000E-02   0.6000000000E-03  -0.3391805835E-16   0.1250000002E+00   0.6013289927E-14   0.5062348099E-14  -0.6300729029E-15   0.9000566836E-15   0.1310982870E-14   0.2500000003E-03  -0.7500000010E-04  -0.7500000010E-04  -0.3908799224E-16  -0.3546200566E-16   0.6456350732E-17   0.1250000002E+00
   0.2000500000E+01   0.0000000000E+00   0.9999250000E+00   0.4500000000E-02   0.0000000000E+00  -0.6750000000E-03  -0.4000000000E-02   0.0000000000E+00   0.6000000000E-03   0.1250000002E+00   0.1322707293E-14   0.1945254858E-14  -0.1134794621E-15   0.7113383889E-15  -0.8963345160E-15   0.2500000003E-03  -0.7500000010E-04  -0.7500000010E-04   0.8195615243E-16  -0.5742233497E-16  -0.1980248717E-16   0.1250000002E+00
   0.2000500000E+01   0.9999250000E+00   0.9999250000E+00   0.4500000000E-02  -0.6750000000E-03  -0.6750000000E-03  -0.4000000000E-02   0.6000000000E-03   0.6000000000E-03   0.1250000002E+00  -0.1924558110E-14  -0.2251978035E-14   0.7174787689E-16   0.3499082666E-16  -0.1303384989E-14   0.2500000003E-03  -0.7500000010E-04  -0.7500000010E-04   0.3563137322E-16  -0.3960015547E-16  -0.2399444811E-16   0.1250000002E+00
     1     2     3     4     5     6     7     8
     2     9    10     3     6    11    12     7
 VARIABLES = X,Y,Z,DU1,DU2,DU3,U1,U2,U3,S11,S22,S33,S12,S13,S23,E11,E22,E33,E12,E13,E23,SMISES
 ZONE, T="0.2500D+01" F=FEPOINT, I=   12 J=    2 ET=BRICK
   0.0000000000E+00   0.0000000000E+00   0.0000000000E+00   0.0000000000E+00   0.0000000000E+00   0.0000000000E+00   0.0000000000E+00   0.0000000000E+00   0.0000000000E+00   0.1250000002E+01  -0.1336132275E-14  -0.4630593887E-15  -0.1345740729E-15   0.1585315729E-15  -0.1539927468E-15   0.2500000004E-02  -0.7500000012E-03  -0.7500000012E-03  -0.2419654053E-18  -0.4134513719E-16  -0.1804564505E-16   0.1250000002E+01
   0.1002500000E+01   0.0000000000E+00  -0.2027219050E-16   0.2250000000E-02   0.0000000000E+00  -0.1176335573E-18   0.2500000000E-03   0.0000000000E+00  -0.2015455694E-16   0.1250000002E+01   0.3132882339E-14   0.3552934454E-14   0.1514793220E-15  -0.1092858516E-15   0.1171845075E-16   0.2500000004E-02  -0.7500000012E-03  -0.7500000012E-03   0.1534615631E-16  -0.3490125408E-16   0.2462879087E-16   0.1250000002E+01
   0.1002500000E+01   0.9992500000E+00  -0.7861374758E-17   0.2250000000E-02  -0.6750000000E-03   0.3583262356E-19   0.2500000000E-03  -0.7500000000E-04  -0.7897207381E-17   0.1250000002E+01  -0.5542635187E-14  -0.6703387332E-14  -0.1059410435E-15  -0.1558252375E-15   0.1293691227E-15   0.2500000004E-02  -0.7500000011E-03  -0.7500000011E-03   0.1079220875E-16  -0.1047130471E-16   0.1734023537E-16   0.1250000002E+01
   0.0000000000E+00   0.9992500000E+00  -0.9108954724E-17   0.0000000000E+00  -0.6750000000E-03  -0.4315948218E-19   0.0000000000E+00  -0.7500000000E-04  -0.9065795242E-17   0.1250000002E+01   0.2903413816E-14   0.1949965613E-14   0.4218279477E-15   0.5476020353E-15   0.4673008950E-16   0.2500000004E-02  -0.7500000011E-03  -0.7500000011E-03   0.4117632849E-16   0.1644017746E-16  -0.1437353189E-16   0.1250000002E+01
   0.0000000000E+00   0.0000000000E+00   0.9992500000E+00   0.0000000000E+00   0.0000000000E+00  -0.6750000000E-03   0.0000000000E+00   0.0000000000E+00  -0.7500000000E-04   0.1250000002E+01   0.1330945350E-14   0.4254019913E-15   0.2728104875E-15  -0.6380519460E-16   0.2476132567E-15   0.2500000004E-02  -0.7500000011E-03  -0.7500000011E-03   0.1976182648E-18  -0.4756880478E-16  -0.1519759405E-16   0.1250000002E+01
   0.1002500000E+01   0.0000000000E+00   0.9992500000E+00   0.2250000000E-02   0.0000000000E+00  -0.6750000000E-03   0.2500000000E-03   0.0000000000E+00  -0.7500000000E-04   0.1250000002E+01  -0.3783341032E-14  -0.3654259959E-14  -0.3677060810E-15  -0.6337216904E-15   0.5291547270E-15   0.2500000004E-02  -0.7500000011E-03  -0.7500000011E-03   0.2637155061E-16  -0.3096822494E-16   0.1530200325E-16   0.1250000002E+01
   0.1002500000E+01   0.9992500000E+00   0.9992500000E+00   0.2250000000E-02  -0.6750000000E-03  -0.6750000000E-03   0.2500000000E-03  -0.7500000000E-04  -0.7500000000E-04   0.1250000002E+01   0.6073905108E-14   0.6726161042E-14  -0.1666102670E-15  -0.5985317894E-15  -0.7411301792E-15   0.2500000003E-02  -0.7500000010E-03  -0.7500000010E-03   0.1677671221E-16  -0.2119573803E-16   0.7071117580E-17   0.1250000002E+01
   0.0000000000E+00   0.9992500000E+00   0.9992500000E+00   0.0000000000E+00  -0.6750000000E-03  -0.6750000000E-03   0.0000000000E+00  -0.7500000000E-04  -0.7500000000E-04   0.1250000002E+01  -0.3483718427E-14  -0.2103047978E-14  -0.9951941211E-15   0.1605819104E-15   0.3231295728E-16   0.2500000003E-02  -0.7500000010E-03  -0.7500000010E-03   0.2609951899E-16  -0.8214019252E-18  -0.1060227572E-16   0.1250000002E+01
   0.2005000000E+01   0.0000000000E+00  -0.3909287227E-16   0.4500000000E-02   0.0000000000E+00  -0.3899405955E-18   0.5000000000E-03   0.0000000000E+00  -0.3870293167E-16   0.1250000002E+01  -0.3678496052E-14  -0.3247057093E-14  -0.4472825777E-15   0.3303553969E-15   0.1067520220E-14   0.2500000004E-02  -0.7500000011E-03  -0.7500000011E-03   0.8594278381E-17  -0.7664612194E-16   0.1165544305E-16   0.1250000002E+01
   0.2005000000E+01   0.9992500000E+00  -0.3330527198E-16   0.4500000000E-02  -0.6750000000E-03  -0.3055518455E-18   0.5000000000E-03  -0.7500000000E-04  -0.3299972013E-16   0.1250000002E+01   0.5634713265E-14   0.4442620453E-14  -0.7884581646E-15   0.1255861791E-14   0.1276375846E-14   0.2500000003E-02  -0.7500000010E-03  -0.7500000010E-03  -0.4118955334E-16  -0.2781655642E-16   0.5299394426E-17   0.1250000002E+01
   0.2005000000E+01   0.0000000000E+00   0.9992500000E+00   0.4500000000E-02   0.0000000000E+00  -0.6750000000E-03   0.5000000000E-03   0.0000000000E+00  -0.7500000000E-04   0.1250000002E+01   0.9002977304E-15   0.1407299365E-14   0.2887480277E-16   0.8832998988E-15  -0.9365044469E-15   0.2500000003E-02  -0.7500000010E-03  -0.7500000010E-03   0.8466666214E-16  -0.5874385284E-16  -0.1978099756E-16   0.1250000002E+01
   0.2005000000E+01   0.9992500000E+00   0.9992500000E+00   0.4500000000E-02  -0.6750000000E-03  -0.6750000000E-03   0.5000000000E-03  -0.7500000000E-04  -0.7500000000E-04   0.1250000002E+01  -0.1644067804E-14  -0.2088485917E-14   0.2988331109E-15   0.1542919410E-15  -0.1376065995E-14   0.2500000003E-02  -0.7500000010E-03  -0.7500000010E-03   0.3922151540E-16  -0.3972713742E-16  -0.2486049478E-16   0.1250000002E+01
     1     2     3     4     5     6     7     8
     2     9    10     3     6    11    12     7
 VARIABLES = X,Y,Z,DU1,DU2,DU3,U1,U2,U3,S11,S22,S33,S12,S13,S23,E11,E22,E33,E12,E13,E23,SMISES
 ZONE, T="0.2550D+01" F=FEPOINT, I=   12 J=    2 ET=BRICK
   0.0000000000E+00   0.0000000000E+00   0.0000000000E+00   0.0000000000E+00   0.0000000000E+00   0.0000000000E+00   0.0000000000E+00   0.0000000000E+00   0.0000000000E+00   0.2375000004E+01  -0.8939870088E-15   0.2791840720E-15  -0.1654955566E-15   0.4011916459E-15  -0.2594387869E-15   0.4750000007E-02  -0.1425000002E-02  -0.1425000002E-02  -0.9265016628E-20  -0.3837609988E-16  -0.1937003538E-16   0.2375000004E+01
   0.1004750000E+01   0.0000000000E+00  -0.1853247707E-16   0.2250000000E-02   0.0000000000E+00   0.1739713425E-17   0.2500000000E-02   0.0000000000E+00  -0.2027219050E-16   0.2375000004E+01   0.3394202811E-14   0.3843736284E-14   0.2765539107E-15  -0.1621273672E-15  -0.6157652484E-16   0.4750000007E-02  -0.1425000002E-02  -0.1425000002E-02   0.1567648319E-16  -0.3629656527E-16   0.2417416266E-16   0.2375000004E+01
   0.1004750000E+01   0.9985750000E+00  -0.6483585348E-17   0.2250000000E-02  -0.6750000000E-03   0.1377789410E-17   0.2500000000E-02  -0.7500000000E-03  -0.7861374758E-17   0.2375000003E+01  -0.5481315017E-14  -0.6511722754E-14  -0.4813916240E-16  -0.4160999463E-15   0.2713997518E-15   0.4750000007E-02  -0.1425000002E-02  -0.1425000002E-02   0.1062011072E-16  -0.1115113368E-16   0.1829468450E-16   0.2375000003E+01
   0.0000000000E+00   0.9985750000E+00  -0.9611197376E-17   0.0000000000E+00  -0.6750000000E-03  -0.5022426518E-18   0.0000000000E+00  -0.7500000000E-03  -0.9108954724E-17   0.2375000003E+01   0.3009903548E-14   0.2264488650E-14   0.4379156630E-15   0.8352408616E-15   0.1100091705E-15   0.4750000007E-02  -0.1425000002E-02  -0.1425000002E-02   0.4153752619E-16   0.1842917656E-16  -0.1281758404E-16   0.2375000003E+01
   0.0000000000E+00   0.0000000000E+00   0.9985750000E+00   0.0000000000E+00   0.0000000000E+00  -0.6750000000E-03   0.0000000000E+00   0.0000000000E+00  -0.7500000000E-03   0.2375000003E+01   0.8933815160E-15  -0.1166366465E-16   0.2836346017E-15   0.3253718401E-16   0.1168070215E-15   0.4750000007E-02  -0.1425000002E-02  -0.1425000002E-02   0.1018285716E-18  -0.4645947594E-16  -0.1631090509E-16   0.2375000003E+01
   0.1004750000E+01   0.0000000000E+00   0.9985750000E+00   0.2250000000E-02   0.0000000000E+00  -0.6750000000E-03   0.2500000000E-02   0.0000000000E+00  -0.7500000000E-03   0.2375000003E+01  -0.4076135633E-14  -0.4266973050E-14  -0.4784968225E-15  -0.4604512462E-15   0.5070230761E-15   0.4750000007E-02  -0.1425000002E-02  -0.1425000002E-02   0.2549360138E-16  -0.2962205421E-16   0.1507367589E-16   0.2375000003E+01
   0.1004750000E+01   0.9985750000E+00   0.9985750000E+00   0.2250000000E-02  -0.6750000000E-03  -0.6750000000E-03   0.2500000000E-02  -0.7500000000E-03  -0.7500000000E-03   0.2375000003E+01   0.6072544024E-14   0.6733233402E-14  -0.2506910162E-15  -0.8062426660E-15  -0.6034716910E-15   0.4750000006E-02  -0.1425000002E-02  -0.1425000002E-02   0.1620135752E-16  -0.2240160565E-16   0.8235878069E-17   0.2375000003E+01
   0.0000000000E+00   0.9985750000E+00   0.9985750000E+00   0.0000000000E+00  -0.6750000000E-03  -0.6750000000E-03   0.0000000000E+00  -0.7500000000E-03  -0.7500000000E-03   0.2375000003E+01  -0.3806043257E-14  -0.2827695113E-14  -0.9591860138E-15   0.4797145402E-15   0.5107916577E-16   0.4750000006E-02  -0.1425000002E-02  -0.1425000002E-02   0.2630320593E-16   0.2182598968E-17  -0.1001757426E-16   0.2375000003E+01
   0.2009500000E+01   0.0000000000E+00  -0.3253891240E-16   0.4500000000E-02   0.0000000000E+00   0.6553959869E-17   0.5000000000E-02   0.0000000000E+00  -0.3909287227E-16   0.2375000004E+01  -0.3979141328E-14  -0.3254044889E-14  -0.5886377918E-15  -0.3194541327E-15   0.8944013278E-15   0.4750000007E-02  -0.1425000002E-02  -0.1425000002E-02   0.8152401213E-17  -0.7442631028E-16   0.9681246915E-17   0.2375000004E+01
   0.2009500000E+01   0.9985750000E+00  -0.2769643458E-16   0.4500000000E-02  -0.6750000000E-03   0.5608837397E-17   0.5000000000E-02  -0.7500000000E-03  -0.3330527198E-16   0.2375000003E+01   0.5086856554E-14   0.4104522836E-14  -0.9761563470E-15   0.1635829511E-14   0.1268434423E-14   0.4750000007E-02  -0.1425000002E-02  -0.1425000002E-02  -0.4349517232E-16  -0.2766264363E-16   0.5736558905E-17   0.2375000003E+01
   0.2009500000E+01   0.0000000000E+00   0.9985750000E+00   0.4500000000E-02   0.0000000000E+00  -0.6750000000E-03   0.5000000000E-02   0.0000000000E+00  -0.7500000000E-03   0.2375000003E+01   0.3547984730E-15   0.5451019611E-15   0.5562822240E-15   0.3051003264E-15  -0.1063047584E-14   0.4750000007E-02  -0.1425000002E-02  -0.1425000002E-02   0.8997491218E-16  -0.6883371043E-16  -0.2098995992E-16   0.2375000003E+01
   0.2009500000E+01   0.9985750000E+00   0.9985750000E+00   0.4500000000E-02  -0.6750000000E-03  -0.6750000000E-03   0.5000000000E-02  -0.7500000000E-03  -0.7500000000E-03   0.2375000003E+01  -0.1039472381E-14  -0.1695642342E-14   0.7290612398E-15   0.1046876844E-15  -0.1273654191E-14   0.4750000006E-02  -0.1425000002E-02  -0.1425000002E-02   0.4456722087E-16  -0.3771482057E-16  -0.2377532749E-16   0.2375000003E+01
     1     2     3     4     5     6     7     8
     2     9    10     3     6    11    12     7
 VARIABLES = X,Y,Z,DU1,DU2,DU3,U1,U2,U3,S11,S22,S33,S12,S13,S23,E11,E22,E33,E12,E13,E23,SMISES
 ZONE, T="0.2600D+01" F=FEPOINT, I=   12 J=    2 ET=BRICK
   0.0000000000E+00   0.0000000000E+00   0.0000000000E+00   0.0000000000E+00   0.0000000000E+00   0.0000000000E+00   0.0000000000E+00   0.0000000000E+00   0.0000000000E+00   0.3500000005E+01  -0.6499959120E-15   0.7107565048E-15  -0.1783440911E-15   0.3977928286E-15  -0.1975547546E-15   0.7000000011E-02  -0.2100000003E-02  -0.2100000003E-02  -0.6392297378E-18  -0.4036599338E-16  -0.1794853785E-16   0.3500000005E+01
   0.1007000000E+01   0.0000000000E+00  -0.1809615924E-16   0.2250000000E-02   0.0000000000E+00   0.4363178354E-18   0.4750000000E-02   0.0000000000E+00  -0.1853247707E-16   0.3500000005E+01   0.3748317581E-14   0.4197851071E-14  -0.2075570040E-15  -0.4650620106E-15  -0.1016825575E-15   0.7000000011E-02  -0.2100000003E-02  -0.2100000003E-02   0.1200602407E-16  -0.3743377597E-16   0.2377544668E-16   0.3500000005E+01
   0.1007000000E+01   0.9979000000E+00  -0.6209371018E-17   0.2250000000E-02  -0.6750000000E-03   0.2742143293E-18   0.4750000000E-02  -0.1425000000E-02  -0.6483585348E-17   0.3500000005E+01  -0.5428526009E-14  -0.6196252194E-14  -0.4779058275E-15   0.1278040501E-15   0.2806152839E-15   0.7000000010E-02  -0.2100000003E-02  -0.2100000003E-02   0.6832185090E-17  -0.1720461973E-17   0.1767895004E-16   0.3500000005E+01
   0.0000000000E+00   0.9979000000E+00  -0.9242189326E-17   0.0000000000E+00  -0.6750000000E-03   0.3690080501E-18   0.0000000000E+00  -0.1425000000E-02  -0.9611197376E-17   0.3500000005E+01   0.2216512278E-14   0.1655227152E-14   0.4124523152E-15   0.7600128990E-15   0.3524586701E-15   0.7000000010E-02  -0.2100000003E-02  -0.2100000003E-02   0.4102923372E-16   0.1731504715E-16  -0.1202598142E-16   0.3500000005E+01
   0.0000000000E+00   0.0000000000E+00   0.9979000000E+00   0.0000000000E+00   0.0000000000E+00  -0.6750000000E-03   0.0000000000E+00   0.0000000000E+00  -0.1425000000E-02   0.3500000005E+01   0.2746901785E-15  -0.6737141368E-15   0.2913613926E-15   0.1016394899E-15   0.1366154932E-15   0.7000000010E-02  -0.2100000003E-02  -0.2100000003E-02   0.1871961682E-18  -0.4571831582E-16  -0.1778265297E-16   0.3500000005E+01
   0.1007000000E+01   0.0000000000E+00   0.9979000000E+00   0.2250000000E-02   0.0000000000E+00  -0.6750000000E-03   0.4750000000E-02   0.0000000000E+00  -0.1425000000E-02   0.3500000005E+01  -0.3917768672E-14  -0.3845924538E-14   0.2112069541E-16  -0.8827987474E-15   0.4124869610E-15   0.7000000010E-02  -0.2100000003E-02  -0.2100000003E-02   0.3187615008E-16  -0.3473569106E-16   0.1425467890E-16   0.3500000005E+01
   0.1007000000E+01   0.9979000000E+00   0.9979000000E+00   0.2250000000E-02  -0.6750000000E-03  -0.6750000000E-03   0.4750000000E-02  -0.1425000000E-02  -0.1425000000E-02   0.3500000005E+01   0.5779384729E-14   0.6177392568E-14   0.2109335164E-15  -0.2535570312E-15  -0.6191135570E-15   0.7000000009E-02  -0.2100000003E-02  -0.2100000003E-02   0.2323015959E-16  -0.1978572802E-16   0.7981791153E-17   0.3500000005E+01
   0.0000000000E+00   0.9979000000E+00   0.9979000000E+00   0.0000000000E+00  -0.6750000000E-03  -0.6750000000E-03   0.0000000000E+00  -0.1425000000E-02  -0.1425000000E-02   0.3500000005E+01  -0.3071881705E-14  -0.2351500208E-14  -0.1030981017E-14   0.3590844712E-15   0.1330167672E-15   0.7000000009E-02  -0.2100000003E-02  -0.2100000003E-02   0.2477212529E-16   0.1704618587E-17  -0.7385046841E-17   0.3500000005E+01
   0.2014000000E+01   0.0000000000E+00  -0.3054417199E-16   0.4500000000E-02   0.0000000000E+00   0.1994740410E-17   0.9500000000E-02   0.0000000000E+00  -0.3253891240E-16   0.3500000005E+01  -0.4136414060E-14  -0.3739669569E-14  -0.3998281029E-15  -0.1137178325E-15   0.7862528498E-15   0.7000000011E-02  -0.2100000003E-02  -0.2100000003E-02   0.8253695791E-17  -0.7513046149E-16   0.8286953911E-17   0.3500000005E+01
   0.2014000000E+01   0.9979000000E+00  -0.2618490430E-16   0.4500000000E-02  -0.6750000000E-03   0.1511530278E-17   0.9500000000E-02  -0.1425000000E-02  -0.2769643458E-16   0.3500000005E+01   0.7062314826E-14   0.6036621973E-14  -0.7125732650E-15   0.1461103839E-14   0.1184440652E-14   0.7000000010E-02  -0.2100000003E-02  -0.2100000003E-02  -0.4208771985E-16  -0.3239794971E-16   0.3865814305E-17   0.3500000005E+01
   0.2014000000E+01   0.0000000000E+00   0.9979000000E+00   0.4500000000E-02   0.0000000000E+00  -0.6750000000E-03   0.9500000000E-02   0.0000000000E+00  -0.1425000000E-02   0.3500000005E+01   0.1367512144E-14   0.1741945404E-14  -0.6355889111E-18   0.6213946900E-15  -0.1032871029E-14   0.7000000010E-02  -0.2100000003E-02  -0.2100000003E-02   0.8640984738E-16  -0.6239167501E-16  -0.2034684630E-16   0.3500000005E+01
   0.2014000000E+01   0.9979000000E+00   0.9979000000E+00   0.4500000000E-02  -0.6750000000E-03  -0.6750000000E-03   0.9500000000E-02  -0.1425000000E-02  -0.1425000000E-02   0.3500000004E+01  -0.2315329982E-14  -0.2713533305E-14   0.1088752626E-15  -0.1201163086E-15  -0.1414153260E-14   0.7000000009E-02  -0.2100000003E-02  -0.2100000003E-02   0.3789798728E-16  -0.4149134756E-16  -0.2706066250E-16   0.3500000004E+01
     1     2     3     4     5     6     7     8
     2     9    10     3     6    11    12     7
 VARIABLES = X,Y,Z,DU1,DU2,DU3,U1,U2,U3,S11,S22,S33,S12,S13,S23,E11,E22,E33,E12,E13,E23,SMISES
 ZONE, T="0.2650D+01" F=FEPOINT, I=   12 J=    2 ET=BRICK
   0.0000000000E+00   0.0000000000E+00   0.0000000000E+00   0.0000000000E+00   0.0000000000E+00   0.0000000000E+00   0.0000000000E+00   0.0000000000E+00   0.0000000000E+00   0.4625000007E+01  -0.1333191990E-14  -0.1620137079E-15  -0.1867978831E-15   0.1155688420E-15  -0.1660201266E-15   0.9250000015E-02  -0.2775000004E-02  -0.2775000004E-02   0.3886005552E-18  -0.4374164096E-16  -0.1764519055E-16   0.4625000007E+01
   0.1009250000E+01   0.0000000000E+00  -0.2024152890E-16   0.2250000000E-02   0.0000000000E+00  -0.2145369659E-17   0.7000000000E-02   0.0000000000E+00  -0.1809615924E-16   0.4625000007E+01   0.3384043531E-14   0.3565451144E-14   0.3083510399E-15  -0.2523433993E-15   0.2074257302E-16   0.9250000014E-02  -0.2775000004E-02  -0.2775000004E-02   0.1466218479E-16  -0.3250811590E-16   0.2502488288E-16   0.4625000007E+01
   0.1009250000E+01   0.9972250000E+00  -0.7691260296E-17   0.2250000000E-02  -0.6750000000E-03  -0.1481889278E-17   0.7000000000E-02  -0.2100000000E-02  -0.6209371018E-17   0.4625000007E+01  -0.5312059402E-14  -0.6444059612E-14  -0.1899452796E-15  -0.2682580791E-16   0.2931207617E-15   0.9250000013E-02  -0.2775000004E-02  -0.2775000004E-02   0.8151722219E-17  -0.3979416799E-17   0.1745464283E-16   0.4625000007E+01
   0.0000000000E+00   0.9972250000E+00  -0.9057602610E-17   0.0000000000E+00  -0.6750000000E-03   0.1845867157E-18   0.0000000000E+00  -0.2100000000E-02  -0.9242189326E-17   0.4625000007E+01   0.2657879294E-14   0.1333582884E-14   0.4605936525E-15   0.5995791900E-15   0.2405089437E-15   0.9250000013E-02  -0.2775000004E-02  -0.2775000004E-02   0.4290209320E-16   0.1535543358E-16  -0.1165356257E-16   0.4625000007E+01
   0.0000000000E+00   0.0000000000E+00   0.9972250000E+00   0.0000000000E+00   0.0000000000E+00  -0.6750000000E-03   0.0000000000E+00   0.0000000000E+00  -0.2100000000E-02   0.4625000007E+01   0.9787387396E-15   0.1074533948E-16   0.2764139154E-15  -0.1342247775E-15   0.1790418600E-15   0.9250000013E-02  -0.2775000004E-02  -0.2775000004E-02  -0.9146363230E-19  -0.4640944276E-16  -0.1806497410E-16   0.4625000007E+01
   0.1009250000E+01   0.0000000000E+00   0.9972250000E+00   0.2250000000E-02   0.0000000000E+00  -0.6750000000E-03   0.7000000000E-02   0.0000000000E+00  -0.2100000000E-02   0.4625000007E+01  -0.4326665177E-14  -0.4042206305E-14   0.1117175162E-15  -0.5622592855E-15   0.4543205094E-15   0.9250000013E-02  -0.2775000004E-02  -0.2775000004E-02   0.3491571965E-16  -0.3832200391E-16   0.1461076660E-16   0.4625000007E+01
   0.1009250000E+01   0.9972250000E+00   0.9972250000E+00   0.2250000000E-02  -0.6750000000E-03  -0.6750000000E-03   0.7000000000E-02  -0.2100000000E-02  -0.2100000000E-02   0.4625000006E+01   0.6306206649E-14   0.6698770168E-14   0.2440450547E-15  -0.3349810217E-15  -0.7305765511E-15   0.9250000012E-02  -0.2775000004E-02  -0.2775000004E-02   0.2331267209E-16  -0.8837519100E-17   0.7555261757E-17   0.4625000006E+01
   0.0000000000E+00   0.9972250000E+00   0.9972250000E+00   0.0000000000E+00  -0.6750000000E-03  -0.6750000000E-03   0.0000000000E+00  -0.2100000000E-02  -0.2100000000E-02   0.4625000006E+01  -0.2469959483E-14  -0.1493604138E-14  -0.9885011088E-15   0.1059875909E-15  -0.4876354798E-16   0.9250000012E-02  -0.2775000004E-02  -0.2775000004E-02   0.2446517401E-16  -0.2887054171E-17  -0.1170383149E-16   0.4625000006E+01
   0.2018500000E+01   0.0000000000E+00  -0.3758733937E-16   0.4500000000E-02   0.0000000000E+00  -0.7043167378E-17   0.1400000000E-01   0.0000000000E+00  -0.3054417199E-16   0.4625000007E+01  -0.5284017916E-14  -0.4131699211E-14   0.1558741741E-15  -0.1341569780E-15   0.8147641028E-15   0.9250000014E-02  -0.2775000004E-02  -0.2775000004E-02   0.1461297304E-16  -0.7497229224E-16   0.9521302805E-17   0.4625000007E+01
   0.2018500000E+01   0.9972250000E+00  -0.3308926435E-16   0.4500000000E-02  -0.6750000000E-03  -0.6904360045E-17   0.1400000000E-01  -0.2100000000E-02  -0.2618490430E-16   0.4625000006E+01   0.5995451011E-14   0.5196517689E-14  -0.5056874628E-15   0.1114334265E-14   0.1354778808E-14   0.9250000013E-02  -0.2775000004E-02  -0.2775000004E-02  -0.4244706731E-16  -0.5147216180E-16   0.5763010473E-17   0.4625000006E+01
   0.2018500000E+01   0.0000000000E+00   0.9972250000E+00   0.4500000000E-02   0.0000000000E+00  -0.6750000000E-03   0.1400000000E-01   0.0000000000E+00  -0.2100000000E-02   0.4625000006E+01   0.3195079904E-15   0.1331056109E-14   0.7939501507E-15   0.9987457690E-15  -0.1135518876E-14   0.9250000013E-02  -0.2775000004E-02  -0.2775000004E-02   0.8847079319E-16  -0.5749799304E-16  -0.2246208996E-16   0.4625000006E+01
   0.2018500000E+01   0.9972250000E+00   0.9972250000E+00   0.4500000000E-02  -0.6750000000E-03  -0.6750000000E-03   0.1400000000E-01  -0.2100000000E-02  -0.2100000000E-02   0.4625000006E+01  -0.2299726480E-14  -0.2528674175E-14   0.6474935635E-15  -0.3683886599E-15  -0.1340398005E-14   0.9250000012E-02  -0.2775000004E-02  -0.2775000004E-02   0.4390064359E-16  -0.4559547043E-16  -0.2696884614E-16   0.4625000006E+01
     1     2     3     4     5     6     7     8
     2     9    10     3     6    11    12     7
 VARIABLES = X,Y,Z,DU1,DU2,DU3,U1,U2,U3,S11,S22,S33,S12,S13,S23,E11,E22,E33,E12,E13,E23,SMISES
 ZONE, T="0.2700D+01" F=FEPOINT, I=   12 J=    2 ET=BRICK
   0.0000000000E+00   0.0000000000E+00   0.0000000000E+00   0.0000000000E+00   0.0000000000E+00   0.0000000000E+00   0.0000000000E+00   0.0000000000E+00   0.0000000000E+00   0.5750000009E+01  -0.1067058913E-14  -0.1972063698E-15  -0.1824210846E-15  -0.3516796152E-16  -0.1021015274E-15   0.1150000002E-01  -0.3450000005E-02  -0.3450000005E-02   0.4777397672E-19  -0.4856147767E-16  -0.1827128389E-16   0.5750000009E+01
   0.1011500000E+01   0.0000000000E+00  -0.2165399922E-16   0.2250000000E-02   0.0000000000E+00  -0.1412470330E-17   0.9250000000E-02   0.0000000000E+00  -0.2024152890E-16   0.5750000009E+01   0.3358280752E-14   0.3635836471E-14  -0.2836247193E-16  -0.1840838976E-15   0.1442517876E-15   0.1150000002E-01  -0.3450000005E-02  -0.3450000005E-02   0.1034563610E-16  -0.2755725879E-16   0.2649580711E-16   0.5750000009E+01
   0.1011500000E+01   0.9965500000E+00  -0.8501147754E-17   0.2250000000E-02  -0.6750000000E-03  -0.8098874578E-18   0.9250000000E-02  -0.2775000000E-02  -0.7691260296E-17   0.5750000008E+01  -0.5670889082E-14  -0.7091333653E-14  -0.4028417681E-15  -0.3900278488E-17   0.3071736808E-15   0.1150000002E-01  -0.3450000005E-02  -0.3450000005E-02   0.4174949886E-17  -0.1272349067E-16   0.1769235683E-16   0.5750000008E+01
   0.0000000000E+00   0.9965500000E+00  -0.8776866698E-17   0.0000000000E+00  -0.6750000000E-03   0.2807359118E-18   0.0000000000E+00  -0.2775000000E-02  -0.9057602610E-17   0.5750000008E+01   0.2225212709E-14   0.9584201930E-15   0.3228523988E-15   0.5740502633E-15  -0.4575219289E-16   0.1150000002E-01  -0.3450000005E-02  -0.3450000005E-02   0.4109637093E-16   0.2029882885E-16  -0.1277597351E-16   0.5750000008E+01
   0.0000000000E+00   0.0000000000E+00   0.9965500000E+00   0.0000000000E+00   0.0000000000E+00  -0.6750000000E-03   0.0000000000E+00   0.0000000000E+00  -0.2775000000E-02   0.5750000008E+01   0.4216345387E-15   0.2545672326E-15   0.2608747317E-15  -0.1863617977E-15   0.3668711633E-15   0.1150000002E-01  -0.3450000005E-02  -0.3450000005E-02  -0.2163515569E-18  -0.4643271024E-16  -0.1798675431E-16   0.5750000008E+01
   0.1011500000E+01   0.0000000000E+00   0.9965500000E+00   0.2250000000E-02   0.0000000000E+00  -0.6750000000E-03   0.9250000000E-02   0.0000000000E+00  -0.2775000000E-02   0.5750000008E+01  -0.3705153934E-14  -0.3132250658E-14  -0.1659019366E-15  -0.5978807849E-15   0.5197628640E-15   0.1150000002E-01  -0.3450000005E-02  -0.3450000005E-02   0.3117594211E-16  -0.4295924409E-16   0.1686453705E-16   0.5750000008E+01
   0.1011500000E+01   0.9965500000E+00   0.9965500000E+00   0.2250000000E-02  -0.6750000000E-03  -0.6750000000E-03   0.9250000000E-02  -0.2775000000E-02  -0.2775000000E-02   0.5750000008E+01   0.6350829172E-14   0.7224133305E-14  -0.4267965366E-16  -0.3027638513E-15  -0.7915800852E-15   0.1150000002E-01  -0.3450000005E-02  -0.3450000005E-02   0.2262252101E-16  -0.1065422898E-16   0.3297739872E-17   0.5750000008E+01
   0.0000000000E+00   0.9965500000E+00   0.9965500000E+00   0.0000000000E+00  -0.6750000000E-03  -0.6750000000E-03   0.0000000000E+00  -0.2775000000E-02  -0.2775000000E-02   0.5750000008E+01  -0.2815907811E-14  -0.1756285696E-14  -0.8575173206E-15  -0.6588038766E-16  -0.1717803851E-15   0.1150000002E-01  -0.3450000005E-02  -0.3450000005E-02   0.2609507318E-16  -0.5247388191E-17  -0.1179161286E-16   0.5750000008E+01
   0.2023000000E+01   0.0000000000E+00  -0.4308489539E-16   0.4500000000E-02   0.0000000000E+00  -0.5497556021E-17   0.1850000000E-01   0.0000000000E+00  -0.3758733937E-16   0.5750000009E+01  -0.4307128506E-14  -0.3814965292E-14  -0.6954393345E-15  -0.1934401766E-15   0.8969585176E-15   0.1150000002E-01  -0.3450000005E-02  -0.3450000005E-02   0.6190101828E-17  -0.8809787184E-16   0.9819159024E-17   0.5750000009E+01
   0.2023000000E+01   0.9965500000E+00  -0.3817855233E-16   0.4500000000E-02  -0.6750000000E-03  -0.5089287978E-17   0.1850000000E-01  -0.2775000000E-02  -0.3308926435E-16   0.5750000008E+01   0.6517362641E-14   0.5084036618E-14  -0.1108025649E-14   0.1476594555E-14   0.1101613970E-14   0.1150000002E-01  -0.3450000005E-02  -0.3450000005E-02  -0.4858450506E-16  -0.1228745617E-16   0.3617678329E-17   0.5750000008E+01
   0.2023000000E+01   0.0000000000E+00   0.9965500000E+00   0.4500000000E-02   0.0000000000E+00  -0.6750000000E-03   0.1850000000E-01   0.0000000000E+00  -0.2775000000E-02   0.5750000008E+01   0.9281379354E-15   0.1715648681E-14   0.5439558884E-15   0.8932723427E-15  -0.1014593674E-14   0.1150000002E-01  -0.3450000005E-02  -0.3450000005E-02   0.9332378330E-16  -0.5310889628E-16  -0.2107755476E-16   0.5750000008E+01
   0.2023000000E+01   0.9965500000E+00   0.9965500000E+00   0.4500000000E-02  -0.6750000000E-03  -0.6750000000E-03   0.1850000000E-01  -0.2775000000E-02  -0.2775000000E-02   0.5750000007E+01  -0.1236118778E-14  -0.1740629455E-14   0.6471917170E-15   0.2957907594E-16  -0.1485889113E-14   0.1150000001E-01  -0.3450000004E-02  -0.3450000004E-02   0.5151377054E-16  -0.5235402022E-16  -0.2820999082E-16   0.5750000007E+01
     1     2     3     4     5     6     7     8
     2     9    10     3     6    11    12     7
 VARIABLES = X,Y,Z,DU1,DU2,DU3,U1,U2,U3,S11,S22,S33,S12,S13,S23,E11,E22,E33,E12,E13,E23,SMISES
 ZONE, T="0.2750D+01" F=FEPOINT, I=   12 J=    2 ET=BRICK
   0.0000000000E+00   0.0000000000E+00   0.0000000000E+00   0.0000000000E+00   0.0000000000E+00   0.0000000000E+00   0.0000000000E+00   0.0000000000E+00   0.0000000000E+00   0.6875000011E+01  -0.1255369651E-14   0.8594981193E-15  -0.1796587913E-15   0.6644965346E-16  -0.1008868111E-15   0.1375000002E-01  -0.4125000006E-02  -0.4125000006E-02  -0.8184507340E-18  -0.4589286430E-16  -0.1555544217E-16   0.6875000011E+01
   0.1013750000E+01   0.0000000000E+00  -0.1990771357E-16   0.2250000000E-02   0.0000000000E+00   0.1746285660E-17   0.1150000000E-01   0.0000000000E+00  -0.2165399922E-16   0.6875000011E+01   0.4227599329E-14   0.4238487970E-14  -0.6078124560E-15  -0.7020773859E-15   0.4683897042E-18   0.1375000002E-01  -0.4125000006E-02  -0.4125000006E-02   0.6299070813E-17  -0.3916105790E-16   0.2517340300E-16   0.6875000011E+01
   0.1013750000E+01   0.9958750000E+00  -0.7429670446E-17   0.2250000000E-02  -0.6750000000E-03   0.1071477308E-17   0.1150000000E-01  -0.3450000000E-02  -0.8501147754E-17   0.6875000010E+01  -0.5589615087E-14  -0.7065570787E-14  -0.9042011395E-15   0.7301898231E-15   0.3990386419E-15   0.1375000002E-01  -0.4125000006E-02  -0.4125000006E-02  -0.1445386078E-17   0.3001443463E-17   0.1933491010E-16   0.6875000010E+01
   0.0000000000E+00   0.9958750000E+00  -0.8737535594E-17   0.0000000000E+00  -0.6750000000E-03   0.3933110432E-19   0.0000000000E+00  -0.3450000000E-02  -0.8776866698E-17   0.6875000010E+01   0.1054034348E-14  -0.2390549340E-15   0.5435042073E-15   0.5817009122E-15   0.4316261857E-15   0.1375000002E-01  -0.4125000006E-02  -0.4125000006E-02   0.4445815206E-16   0.1995701123E-16  -0.1222821244E-16   0.6875000010E+01
   0.0000000000E+00   0.0000000000E+00   0.9958750000E+00   0.0000000000E+00   0.0000000000E+00  -0.6750000000E-03   0.0000000000E+00   0.0000000000E+00  -0.3450000000E-02   0.6875000010E+01   0.7369349058E-16  -0.6613666815E-15   0.2343528955E-15  -0.7362044629E-16   0.3040579768E-15   0.1375000002E-01  -0.4125000006E-02  -0.4125000006E-02   0.1643073270E-18  -0.4890139466E-16  -0.1869040168E-16   0.6875000010E+01
   0.1013750000E+01   0.0000000000E+00   0.9958750000E+00   0.2250000000E-02   0.0000000000E+00  -0.6750000000E-03   0.1150000000E-01   0.0000000000E+00  -0.3450000000E-02   0.6875000010E+01  -0.4604220862E-14  -0.4401035924E-14   0.8057343264E-15  -0.1251923727E-14   0.4753614349E-15   0.1375000002E-01  -0.4125000006E-02  -0.4125000006E-02   0.4030332375E-16  -0.3952945380E-16   0.1452132794E-16   0.6875000010E+01
   0.1013750000E+01   0.9958750000E+00   0.9958750000E+00   0.2250000000E-02  -0.6750000000E-03  -0.6750000000E-03   0.1150000000E-01  -0.3450000000E-02  -0.3450000000E-02   0.6875000009E+01   0.6816695590E-14   0.7775259154E-14   0.7765552183E-15   0.4075537019E-15  -0.6045113930E-15   0.1375000002E-01  -0.4125000005E-02  -0.4125000005E-02   0.3138859228E-16  -0.1045827671E-16   0.1036001250E-16   0.6875000009E+01
   0.0000000000E+00   0.9958750000E+00   0.9958750000E+00   0.0000000000E+00  -0.6750000000E-03  -0.6750000000E-03   0.0000000000E+00  -0.3450000000E-02  -0.3450000000E-02   0.6875000009E+01  -0.2014447792E-14  -0.1705684951E-14  -0.8581793390E-15   0.1502833165E-15   0.1524813985E-15   0.1375000002E-01  -0.4125000006E-02  -0.4125000006E-02   0.2472971281E-16  -0.3471810450E-18  -0.2920613436E-17   0.6875000009E+01
   0.2027500000E+01   0.0000000000E+00  -0.3602369740E-16   0.4500000000E-02   0.0000000000E+00   0.7061197988E-17   0.2300000000E-01   0.0000000000E+00  -0.4308489539E-16   0.6875000010E+01  -0.5494639814E-14  -0.5307787861E-14  -0.5366902332E-15  -0.1103204559E-14   0.6310627609E-15   0.1375000002E-01  -0.4125000006E-02  -0.4125000006E-02   0.1054488002E-16  -0.1005166862E-15   0.6585878367E-17   0.6875000010E+01
   0.2027500000E+01   0.9958750000E+00  -0.3248689639E-16   0.4500000000E-02  -0.6750000000E-03   0.5691655935E-17   0.2300000000E-01  -0.3450000000E-02  -0.3817855233E-16   0.6875000010E+01   0.7044184500E-14   0.6820681028E-14  -0.1053715529E-14   0.1499306040E-14   0.9840698680E-15   0.1375000002E-01  -0.4125000006E-02  -0.4125000006E-02  -0.4184275296E-16  -0.1658228067E-16   0.4327917681E-17   0.6875000010E+01
   0.2027500000E+01   0.0000000000E+00   0.9958750000E+00   0.4500000000E-02   0.0000000000E+00  -0.6750000000E-03   0.2300000000E-01   0.0000000000E+00  -0.3450000000E-02   0.6875000010E+01   0.6694417829E-15   0.1913923048E-14   0.1377379745E-14   0.8630803693E-15  -0.1291876788E-14   0.1375000002E-01  -0.4125000006E-02  -0.4125000006E-02   0.9871499010E-16  -0.7791557804E-16  -0.2386271820E-16   0.6875000010E+01
   0.2027500000E+01   0.9958750000E+00   0.9958750000E+00   0.4500000000E-02  -0.6750000000E-03  -0.6750000000E-03   0.2300000000E-01  -0.3450000000E-02  -0.3450000000E-02   0.6875000009E+01  -0.2221904015E-14  -0.3662667014E-14   0.1300176406E-14  -0.2956154884E-16  -0.1642468001E-14   0.1375000002E-01  -0.4125000005E-02  -0.4125000005E-02   0.6026148346E-16  -0.2874786967E-16  -0.3126530754E-16   0.6875000009E+01
     1     2     3     4     5     6     7     8
     2     9    10     3     6    11    12     7
 VARIABLES = X,Y,Z,DU1,DU2,DU3,U1,U2,U3,S11,S22,S33,S12,S13,S23,E11,E22,E33,E12,E13,E23,SMISES
 ZONE, T="0.2800D+01" F=FEPOINT, I=   12 J=    2 ET=BRICK
   0.0000000000E+00   0.0000000000E+00   0.0000000000E+00   0.0000000000E+00   0.0000000000E+00   0.0000000000E+00   0.0000000000E+00   0.0000000000E+00   0.0000000000E+00   0.8000000013E+01  -0.3148192827E-14  -0.2222295212E-14  -0.1988783362E-15  -0.2523180291E-15  -0.2376498941E-15   0.1600000003E-01  -0.4800000008E-02  -0.4800000008E-02  -0.9393696563E-18  -0.4921166507E-16  -0.1743116409E-16   0.8000000013E+01
   0.1016000000E+01   0.0000000000E+00  -0.2308709874E-16   0.2250000000E-02   0.0000000000E+00  -0.3179385178E-17   0.1375000000E-01   0.0000000000E+00  -0.1990771357E-16   0.8000000012E+01   0.3247258415E-14   0.3328532349E-14   0.9980608253E-15   0.7666034246E-15  -0.7354735656E-16   0.1600000002E-01  -0.4800000007E-02  -0.4800000007E-02   0.2523873037E-16  -0.2103679562E-16   0.2358837708E-16   0.8000000012E+01
   0.1016000000E+01   0.9952000000E+00  -0.1091632708E-16   0.2250000000E-02  -0.6750000000E-03  -0.3486656637E-17   0.1375000000E-01  -0.4125000000E-02  -0.7429670446E-17   0.8000000011E+01  -0.5186162961E-14  -0.6924800184E-14   0.3409801420E-15  -0.2460676190E-15   0.1566109295E-15   0.1600000002E-01  -0.4800000007E-02  -0.4800000007E-02   0.1602745625E-16  -0.1175153057E-16   0.1899898348E-16   0.8000000011E+01
   0.0000000000E+00   0.9952000000E+00  -0.9410093348E-17   0.0000000000E+00  -0.6750000000E-03  -0.6725577538E-18   0.0000000000E+00  -0.4125000000E-02  -0.8737535594E-17   0.8000000012E+01   0.3376072548E-14   0.2214324022E-14   0.1797673007E-15   0.1517596775E-15  -0.3524534647E-15   0.1600000002E-01  -0.4800000007E-02  -0.4800000007E-02   0.3887423213E-16   0.1343903036E-16  -0.2167613216E-16   0.8000000012E+01
   0.0000000000E+00   0.0000000000E+00   0.9952000000E+00   0.0000000000E+00   0.0000000000E+00  -0.6750000000E-03   0.0000000000E+00   0.0000000000E+00  -0.4125000000E-02   0.8000000012E+01   0.1537301700E-14   0.8631969848E-15   0.2327293809E-15  -0.3379848176E-15   0.4969508803E-15   0.1600000002E-01  -0.4800000007E-02  -0.4800000007E-02  -0.1035798464E-17  -0.5491182777E-16  -0.1319173766E-16   0.8000000012E+01
   0.1016000000E+01   0.0000000000E+00   0.9952000000E+00   0.2250000000E-02   0.0000000000E+00  -0.6750000000E-03   0.1375000000E-01   0.0000000000E+00  -0.4125000000E-02   0.8000000011E+01  -0.3816176228E-14  -0.3734902208E-14  -0.5212955550E-15   0.3415411150E-15   0.4073621235E-15   0.1600000002E-01  -0.4800000007E-02  -0.4800000007E-02   0.2953116885E-16  -0.1949629754E-16   0.1266864177E-16   0.8000000011E+01
   0.1016000000E+01   0.9952000000E+00   0.9952000000E+00   0.2250000000E-02  -0.6750000000E-03  -0.6750000000E-03   0.1375000000E-01  -0.4125000000E-02  -0.4125000000E-02   0.8000000010E+01   0.6080176581E-14   0.7493717947E-14  -0.5429282569E-15  -0.7982781775E-15  -0.1003614351E-14   0.1600000002E-01  -0.4800000006E-02  -0.4800000006E-02   0.1790684666E-16  -0.2830235174E-16   0.6402776652E-17   0.8000000010E+01
   0.0000000000E+00   0.9952000000E+00   0.9952000000E+00   0.0000000000E+00  -0.6750000000E-03  -0.6750000000E-03   0.0000000000E+00  -0.4125000000E-02  -0.4125000000E-02   0.8000000011E+01  -0.2875404405E-14  -0.1640352945E-14  -0.7685176896E-15  -0.6175618136E-15  -0.3551710254E-15   0.1600000002E-01  -0.4800000006E-02  -0.4800000006E-02   0.2705439412E-16  -0.5159112017E-17  -0.7363142579E-17   0.8000000011E+01
   0.2032000000E+01   0.0000000000E+00  -0.4826387815E-16   0.4500000000E-02   0.0000000000E+00  -0.1224018075E-16   0.2750000000E-01   0.0000000000E+00  -0.3602369740E-16   0.8000000012E+01  -0.5459447251E-14  -0.4327446980E-14   0.1010946639E-14   0.6133429810E-18   0.1291075372E-14   0.1600000002E-01  -0.4800000007E-02  -0.4800000007E-02   0.2049551086E-16  -0.8116057999E-16   0.1501288219E-16   0.8000000012E+01
   0.2032000000E+01   0.9952000000E+00  -0.4130566872E-16   0.4500000000E-02  -0.6750000000E-03  -0.8818772325E-17   0.2750000000E-01  -0.4125000000E-02  -0.3248689639E-16   0.8000000011E+01   0.5144458129E-14   0.5699569504E-14   0.1660872635E-15   0.1669559025E-15   0.1738620098E-14   0.1600000002E-01  -0.4800000007E-02  -0.4800000007E-02  -0.3639516151E-16  -0.3331232644E-16   0.9043601816E-17   0.8000000011E+01
   0.2032000000E+01   0.0000000000E+00   0.9952000000E+00   0.4500000000E-02   0.0000000000E+00  -0.6750000000E-03   0.2750000000E-01   0.0000000000E+00  -0.4125000000E-02   0.8000000011E+01   0.3973304202E-15   0.1440085607E-14  -0.4835729556E-16   0.1667073616E-14  -0.7223459009E-15   0.1600000002E-01  -0.4800000007E-02  -0.4800000007E-02   0.9866439070E-16  -0.6932846215E-16  -0.1795468796E-16   0.8000000011E+01
   0.2032000000E+01   0.9952000000E+00   0.9952000000E+00   0.4500000000E-02  -0.6750000000E-03  -0.6750000000E-03   0.2750000000E-01  -0.4125000000E-02  -0.4125000000E-02   0.8000000010E+01  -0.1398666772E-14  -0.3240355209E-14  -0.2644989242E-15  -0.8845762648E-15  -0.8577588826E-15   0.1600000002E-01  -0.4800000006E-02  -0.4800000006E-02   0.4057261856E-16  -0.5131401869E-16  -0.1551997037E-16   0.8000000010E+01
     1     2     3     4     5     6     7     8
     2     9    10     3     6    11    12     7
 VARIABLES = X,Y,Z,DU1,DU2,DU3,U1,U2,U3,S11,S22,S33,S12,S13,S23,E11,E22,E33,E12,E13,E23,SMISES
 ZONE, T="0.2850D+01" F=FEPOINT, I=   12 J=    2 ET=BRICK
   0.0000000000E+00   0.0000000000E+00   0.0000000000E+00   0.0000000000E+00   0.0000000000E+00   0.0000000000E+00   0.0000000000E+00   0.0000000000E+00   0.0000000000E+00   0.9125000014E+01  -0.2725880923E-14  -0.1309812902E-14  -0.2162270279E-15  -0.4515515608E-15   0.4272518722E-15   0.1825000003E-01  -0.5475000009E-02  -0.5475000009E-02  -0.4840904523E-18  -0.5320885895E-16  -0.1135081226E-16   0.9125000014E+01
   0.1018250000E+01   0.0000000000E+00  -0.2505930835E-16   0.2250000000E-02   0.0000000000E+00  -0.1972209609E-17   0.1600000000E-01   0.0000000000E+00  -0.2308709874E-16   0.9125000014E+01   0.3631850906E-14   0.3783510150E-14   0.8547153315E-15   0.3950026764E-15   0.2232290957E-15   0.1825000003E-01  -0.5475000008E-02  -0.5475000008E-02   0.2247657093E-16  -0.2095576741E-16   0.2793018891E-16   0.9125000014E+01
   0.1018250000E+01   0.9945250000E+00  -0.1133918988E-16   0.2250000000E-02  -0.6750000000E-03  -0.4228627998E-18   0.1600000000E-01  -0.4800000000E-02  -0.1091632708E-16   0.9125000013E+01  -0.5429984798E-14  -0.7431303612E-14   0.6925980346E-16   0.4795742333E-15   0.4642872736E-16   0.1825000003E-01  -0.5475000008E-02  -0.5475000008E-02   0.1433602405E-16  -0.1822391658E-16   0.1565524350E-16   0.9125000013E+01
   0.0000000000E+00   0.9945250000E+00  -0.5889828125E-17   0.0000000000E+00  -0.6750000000E-03   0.3520265223E-17   0.0000000000E+00  -0.4800000000E-02  -0.9410093348E-17   0.9125000013E+01   0.3690279799E-14   0.6991901789E-15   0.8679514020E-16  -0.4263456639E-15   0.4216265670E-16   0.1825000003E-01  -0.5475000008E-02  -0.5475000008E-02   0.3927351452E-16   0.1011051636E-16  -0.9323063725E-17   0.9125000013E+01
   0.0000000000E+00   0.0000000000E+00   0.9945250000E+00   0.0000000000E+00   0.0000000000E+00  -0.6750000000E-03   0.0000000000E+00   0.0000000000E+00  -0.4800000000E-02   0.9125000013E+01   0.1659212705E-14   0.1097589086E-14   0.2287396179E-15  -0.9336705239E-15   0.4591571171E-15   0.1825000003E-01  -0.5475000008E-02  -0.5475000008E-02  -0.1671235361E-17  -0.5342062911E-16  -0.1476375129E-16   0.9125000013E+01
   0.1018250000E+01   0.0000000000E+00   0.9945250000E+00   0.2250000000E-02   0.0000000000E+00  -0.6750000000E-03   0.1600000000E-01   0.0000000000E+00  -0.4800000000E-02   0.9125000013E+01  -0.3675405556E-14  -0.3612991221E-14   0.8043745498E-15  -0.2184957965E-15   0.5953368463E-15   0.1825000003E-01  -0.5475000008E-02  -0.5475000008E-02   0.4103897454E-16  -0.3831345143E-16   0.1464531700E-16   0.9125000013E+01
   0.1018250000E+01   0.9945250000E+00   0.9945250000E+00   0.2250000000E-02  -0.6750000000E-03  -0.6750000000E-03   0.1600000000E-01  -0.4800000000E-02  -0.4800000000E-02   0.9125000012E+01   0.6080176563E-14   0.7564103239E-14   0.5999068081E-15   0.1885150383E-15  -0.1256552811E-14   0.1825000002E-01  -0.5475000007E-02  -0.5475000007E-02   0.3162895971E-16  -0.1392646763E-16   0.7031793126E-17   0.9125000012E+01
   0.0000000000E+00   0.9945250000E+00   0.9945250000E+00   0.0000000000E+00  -0.6750000000E-03  -0.6750000000E-03   0.0000000000E+00  -0.4800000000E-02  -0.4800000000E-02   0.9125000012E+01  -0.1107018743E-14  -0.2917525054E-15  -0.9247500220E-15  -0.9476771653E-15  -0.6276673407E-15   0.1825000002E-01  -0.5475000007E-02  -0.5475000007E-02   0.2660499250E-16  -0.1092143628E-16  -0.1935224821E-16   0.9125000012E+01
   0.2036500000E+01   0.0000000000E+00  -0.5570783572E-16   0.4500000000E-02   0.0000000000E+00  -0.7443957575E-17   0.3200000000E-01   0.0000000000E+00  -0.4826387815E-16   0.9125000014E+01  -0.5881759019E-14  -0.4714566109E-14   0.9745848214E-15   0.3601723323E-15   0.1122281211E-14   0.1825000003E-01  -0.5475000008E-02  -0.5475000008E-02   0.3266694702E-16  -0.8347881655E-16   0.1068734017E-16   0.9125000014E+01
   0.2036500000E+01   0.9945250000E+00  -0.4955678948E-16   0.4500000000E-02  -0.6750000000E-03  -0.8251120764E-17   0.3200000000E-01  -0.4800000000E-02  -0.4130566872E-16   0.9125000013E+01   0.5880977066E-14   0.6304747707E-14  -0.9582781106E-16   0.1384804411E-15   0.1250190845E-14   0.1825000003E-01  -0.5475000008E-02  -0.5475000008E-02  -0.3307418314E-16  -0.2660376340E-16   0.1014280740E-16   0.9125000013E+01
   0.2036500000E+01   0.0000000000E+00   0.9945250000E+00   0.4500000000E-02   0.0000000000E+00  -0.6750000000E-03   0.3200000000E-01   0.0000000000E+00  -0.4800000000E-02   0.9125000013E+01   0.2095330622E-14   0.2884834127E-14   0.9214247758E-16   0.1764710162E-14  -0.6459851407E-15   0.1825000003E-01  -0.5475000008E-02  -0.5475000008E-02   0.9136307352E-16  -0.7082457800E-16  -0.1760037969E-16   0.9125000013E+01
   0.2036500000E+01   0.9945250000E+00   0.9945250000E+00   0.4500000000E-02  -0.6750000000E-03  -0.6750000000E-03   0.3200000000E-01  -0.4800000000E-02  -0.4800000000E-02   0.9125000012E+01  -0.3936237315E-14  -0.4832777486E-14  -0.2362983113E-15  -0.6426597798E-15  -0.1197711135E-14   0.1825000002E-01  -0.5475000007E-02  -0.5475000007E-02   0.5604278380E-16  -0.1992316313E-16  -0.2583206306E-16   0.9125000012E+01
     1     2     3     4     5     6     7     8
     2     9    10     3     6    11    12     7
 VARIABLES = X,Y,Z,DU1,DU2,DU3,U1,U2,U3,S11,S22,S33,S12,S13,S23,E11,E22,E33,E12,E13,E23,SMISES
 ZONE, T="0.2900D+01" F=FEPOINT, I=   12 J=    2 ET=BRICK
   0.0000000000E+00   0.0000000000E+00   0.0000000000E+00   0.0000000000E+00   0.0000000000E+00   0.0000000000E+00   0.0000000000E+00   0.0000000000E+00   0.0000000000E+00   0.1025000002E+02  -0.6769546583E-14  -0.5987337207E-14  -0.1851334582E-15  -0.5069934548E-15   0.9568025430E-15   0.2550000004E-01  -0.8650000014E-02  -0.8650000014E-02   0.7917228823E-18  -0.4769887770E-16  -0.4486456782E-17   0.1025000002E+02
   0.1025500000E+01   0.0000000000E+00  -0.2643668907E-16   0.7250000000E-02   0.0000000000E+00  -0.1377380722E-17   0.1825000000E-01   0.0000000000E+00  -0.2505930835E-16   0.1025000002E+02   0.2066650228E-14   0.2229198027E-14   0.3922291249E-15   0.3337477650E-15   0.7351438853E-17   0.2550000004E-01  -0.8650000013E-02  -0.8650000013E-02   0.1450001968E-16  -0.3616309276E-16   0.2348867285E-16   0.1025000002E+02
   0.1025500000E+01   0.9913500000E+00  -0.1434335250E-16   0.7250000000E-02  -0.3175000000E-02  -0.3004162619E-17   0.1825000000E-01  -0.5475000000E-02  -0.1133918988E-16   0.1025000001E+02  -0.3753761892E-14  -0.7090265717E-14  -0.4946587864E-15   0.3232460811E-15  -0.6768807959E-15   0.2550000004E-01  -0.8650000012E-02  -0.8650000012E-02   0.8731711296E-17   0.5026270049E-17   0.4977403639E-17   0.1025000001E+02
   0.0000000000E+00   0.9913500000E+00  -0.1443067676E-17   0.0000000000E+00  -0.3175000000E-02   0.4446760449E-17   0.0000000000E+00  -0.5475000000E-02  -0.5889828125E-17   0.1025000001E+02   0.2908747314E-14  -0.1375431736E-14   0.4413711748E-15  -0.1279005604E-14  -0.1648732988E-15   0.2550000004E-01  -0.8650000013E-02  -0.8650000013E-02   0.4530911699E-16  -0.1042508919E-16  -0.1081330387E-16   0.1025000001E+02
   0.0000000000E+00   0.0000000000E+00   0.9913500000E+00   0.0000000000E+00   0.0000000000E+00  -0.3175000000E-02   0.0000000000E+00   0.0000000000E+00  -0.5475000000E-02   0.1025000001E+02   0.6099452807E-15   0.2376195081E-14   0.2852036269E-15  -0.1099159772E-14   0.4442274048E-15   0.2550000004E-01  -0.8650000013E-02  -0.8650000013E-02  -0.9909934719E-18  -0.5816318486E-16  -0.1079495481E-16   0.1025000001E+02
   0.1025500000E+01   0.0000000000E+00   0.9913500000E+00   0.7250000000E-02   0.0000000000E+00  -0.3175000000E-02   0.1825000000E-01   0.0000000000E+00  -0.5475000000E-02   0.1025000001E+02  -0.1333048934E-14  -0.2080456497E-14   0.1000215889E-14  -0.3481698399E-15   0.5630905536E-15   0.2550000004E-01  -0.8650000012E-02  -0.8650000012E-02   0.5329928759E-16  -0.3913647089E-16   0.1719708726E-16   0.1025000001E+02
   0.1025500000E+01   0.9913500000E+00   0.9913500000E+00   0.7250000000E-02  -0.3175000000E-02  -0.3175000000E-02   0.1825000000E-01  -0.5475000000E-02  -0.5475000000E-02   0.1025000001E+02   0.3426530358E-14   0.5972071814E-14   0.1926526708E-14   0.1144035118E-14  -0.1273515996E-14   0.2550000003E-01  -0.8650000011E-02  -0.8650000011E-02   0.4635915938E-16   0.4521841853E-17  -0.6327525927E-18   0.1025000001E+02
   0.0000000000E+00   0.9913500000E+00   0.9913500000E+00   0.0000000000E+00  -0.3175000000E-02  -0.3175000000E-02   0.0000000000E+00  -0.5475000000E-02  -0.5475000000E-02   0.1025000001E+02   0.1650069656E-14   0.2216069787E-14  -0.4885523188E-15  -0.8887695995E-15  -0.1616236657E-14   0.2550000003E-01  -0.8650000012E-02  -0.8650000012E-02   0.3129543648E-16  -0.1341710801E-16  -0.3018072529E-16   0.1025000001E+02
   0.2051000000E+01   0.0000000000E+00  -0.6315082295E-16   0.1450000000E-01   0.0000000000E+00  -0.7442987228E-17   0.3650000000E-01   0.0000000000E+00  -0.5570783572E-16   0.1025000002E+02  -0.8299163381E-14  -0.7067029399E-14   0.1297632130E-14   0.5437406553E-15   0.1454660333E-15   0.2550000004E-01  -0.8650000013E-02  -0.8650000013E-02   0.3807392909E-16  -0.3803602531E-16   0.3068694586E-17   0.1025000002E+02
   0.2051000000E+01   0.9913500000E+00  -0.6159700625E-16   0.1450000000E-01  -0.3175000000E-02  -0.1204021677E-16   0.3650000000E-01  -0.5475000000E-02  -0.4955678948E-16   0.1025000001E+02   0.1019344535E-13   0.1375199378E-13   0.4128579016E-15  -0.1821171122E-14   0.9815605005E-15   0.2550000004E-01  -0.8650000012E-02  -0.8650000012E-02  -0.3434224697E-16  -0.1062038183E-15   0.1162872227E-16   0.1025000001E+02
   0.2051000000E+01   0.0000000000E+00   0.9913500000E+00   0.1450000000E-01   0.0000000000E+00  -0.3175000000E-02   0.3650000000E-01   0.0000000000E+00  -0.5475000000E-02   0.1025000001E+02   0.5343266417E-14   0.5365043648E-14  -0.1953555769E-14   0.2287225189E-14  -0.4330956139E-15   0.2550000004E-01  -0.8650000012E-02  -0.8650000012E-02   0.6141122245E-16  -0.5051406593E-16  -0.2070807603E-16   0.1025000001E+02
   0.2051000000E+01   0.9913500000E+00   0.9913500000E+00   0.1450000000E-01  -0.3175000000E-02  -0.3175000000E-02   0.3650000000E-01  -0.5475000000E-02  -0.5475000000E-02   0.1025000001E+02  -0.8669949629E-14  -0.1044922368E-13  -0.1087532437E-14  -0.1698174361E-14  -0.6990927894E-16   0.2550000003E-01  -0.8650000011E-02  -0.8650000011E-02   0.3859980425E-16  -0.9389290676E-16  -0.2110603197E-16   0.1025000001E+02
     1     2     3     4     5     6     7     8
     2     9    10     3     6    11    12     7
 VARIABLES = X,Y,Z,DU1,DU2,DU3,U1,U2,U3,S11,S22,S33,S12,S13,S23,E11,E22,E33,E12,E13,E23,SMISES
 ZONE, T="0.2950D+01" F=FEPOINT, I=   12 J=    2 ET=BRICK
   0.0000000000E+00   0.0000000000E+00   0.0000000000E+00   0.0000000000E+00   0.0000000000E+00   0.0000000000E+00   0.0000000000E+00   0.0000000000E+00   0.0000000000E+00   0.1137500002E+02  -0.1762475003E-13  -0.2462178620E-13   0.9318852496E-16  -0.6262119572E-14  -0.1984880235E-14   0.5025000008E-01  -0.2057500003E-01  -0.2057500003E-01   0.3332428385E-17  -0.1802129773E-15  -0.5026847576E-16   0.1137500002E+02
   0.1050250000E+01   0.0000000000E+00  -0.9532344272E-16   0.2475000000E-01   0.0000000000E+00  -0.6888675365E-16   0.2550000000E-01   0.0000000000E+00  -0.2643668907E-16   0.1137500002E+02   0.4939423254E-14   0.3976160719E-15   0.7943018828E-15  -0.9198070328E-15   0.2115016254E-14   0.5025000008E-01  -0.2057500003E-01  -0.2057500003E-01   0.2807265139E-16  -0.5971541066E-16   0.6701054652E-16   0.1137500002E+02
   0.1050250000E+01   0.9794250000E+00  -0.6191386247E-16   0.2475000000E-01  -0.1192500000E-01  -0.4757050997E-16   0.2550000000E-01  -0.8650000000E-02  -0.1434335250E-16   0.1137500002E+02  -0.5403154188E-14  -0.1036727318E-13   0.4353129912E-15  -0.7131312553E-15  -0.2299232438E-14   0.5025000007E-01  -0.2057500003E-01  -0.2057500003E-01   0.2230041022E-16  -0.3029431290E-16  -0.2792199657E-16   0.1137500002E+02
   0.0000000000E+00   0.9794250000E+00  -0.2649761775E-16   0.0000000000E+00  -0.1192500000E-01  -0.2505455007E-16   0.0000000000E+00  -0.8650000000E-02  -0.1443067676E-17   0.1137500002E+02  -0.5347937036E-15  -0.3859341336E-14   0.1188034628E-14  -0.1173802771E-14  -0.4436862553E-14   0.5025000007E-01  -0.2057500003E-01  -0.2057500003E-01   0.6191823233E-16  -0.1860733277E-16  -0.1245768295E-15   0.1137500002E+02
   0.0000000000E+00   0.0000000000E+00   0.9794250000E+00   0.0000000000E+00   0.0000000000E+00  -0.1192500000E-01   0.0000000000E+00   0.0000000000E+00  -0.8650000000E-02   0.1137500002E+02   0.3728389809E-14   0.2072876203E-14   0.1993088246E-15  -0.4630789693E-14   0.4558254473E-17   0.5025000007E-01  -0.2057500003E-01  -0.2057500003E-01  -0.5944734629E-17  -0.1387582988E-15  -0.3121284595E-16   0.1137500002E+02
   0.1050250000E+01   0.0000000000E+00   0.9794250000E+00   0.2475000000E-01   0.0000000000E+00  -0.1192500000E-01   0.2550000000E-01   0.0000000000E+00  -0.8650000000E-02   0.1137500002E+02  -0.3236369737E-14   0.6175262788E-15  -0.8846161251E-15   0.5027416167E-15   0.2143492920E-14   0.5025000007E-01  -0.2057500003E-01  -0.2057500003E-01   0.2849842686E-16  -0.3679423765E-16   0.5972670675E-16   0.1137500002E+02
   0.1050250000E+01   0.9794250000E+00   0.9794250000E+00   0.2475000000E-01  -0.1192500000E-01  -0.1192500000E-01   0.2550000000E-01  -0.8650000000E-02  -0.8650000000E-02   0.1137500001E+02   0.4816158747E-14   0.8913876669E-14  -0.4728404798E-15  -0.1672876619E-14  -0.2594150038E-14   0.5025000007E-01  -0.2057500003E-01  -0.2057500003E-01   0.1673453785E-16  -0.2273753238E-16  -0.4755749706E-16   0.1137500001E+02
   0.0000000000E+00   0.9794250000E+00   0.9794250000E+00   0.0000000000E+00  -0.1192500000E-01  -0.1192500000E-01   0.0000000000E+00  -0.8650000000E-02  -0.8650000000E-02   0.1137500002E+02   0.4275817283E-14   0.9111903894E-14  -0.1609548209E-14  -0.1228211451E-14  -0.2964515936E-14   0.5025000007E-01  -0.2057500003E-01  -0.2057500003E-01   0.4455740272E-17  -0.3505482543E-16  -0.4907635050E-16   0.1137500002E+02
   0.2100500000E+01   0.0000000000E+00  -0.2138744865E-15   0.4950000000E-01   0.0000000000E+00  -0.1507236635E-15   0.5100000000E-01   0.0000000000E+00  -0.6315082295E-16   0.1137500002E+02  -0.4664108220E-14  -0.4086151549E-14   0.7995417149E-15   0.1673989027E-14   0.1882532636E-14   0.5025000008E-01  -0.2057500003E-01  -0.2057500003E-01   0.3480497149E-16  -0.3279252743E-16   0.4276241902E-16   0.1137500002E+02
   0.2100500000E+01   0.9794250000E+00  -0.1918355886E-15   0.4950000000E-01  -0.1192500000E-01  -0.1302385824E-15   0.5100000000E-01  -0.8650000000E-02  -0.6159700625E-16   0.1137500002E+02   0.3676864449E-14   0.2402243824E-14  -0.6677483235E-15  -0.1004088694E-14   0.2752300226E-15   0.5025000007E-01  -0.2057500003E-01  -0.2057500003E-01  -0.5477943995E-16  -0.8408848460E-16   0.3007891645E-17   0.1137500002E+02
   0.2100500000E+01   0.0000000000E+00   0.9794250000E+00   0.4950000000E-01   0.0000000000E+00  -0.1192500000E-01   0.5100000000E-01   0.0000000000E+00  -0.8650000000E-02   0.1137500002E+02   0.5079517269E-14   0.9113753180E-14   0.1294140587E-14   0.2303632235E-14  -0.1612870791E-15   0.5025000007E-01  -0.2057500003E-01  -0.2057500003E-01   0.9833793546E-16  -0.5760199778E-16  -0.1610387755E-16   0.1137500002E+02
   0.2100500000E+01   0.9794250000E+00   0.9794250000E+00   0.4950000000E-01  -0.1192500000E-01  -0.1192500000E-01   0.5100000000E-01  -0.8650000000E-02  -0.8650000000E-02   0.1137500001E+02  -0.1658559054E-15   0.5289584625E-15   0.1131257515E-14  -0.8094864348E-15  -0.2195747751E-14   0.5025000006E-01  -0.2057500003E-01  -0.2057500003E-01   0.6467343209E-16  -0.5130270492E-16  -0.6320538743E-16   0.1137500001E+02
     1     2     3     4     5     6     7     8
     2     9    10     3     6    11    12     7
 VARIABLES = X,Y,Z,DU1,DU2,DU3,U1,U2,U3,S11,S22,S33,S12,S13,S23,E11,E22,E33,E12,E13,E23,SMISES
 ZONE, T="0.3000D+01" F=FEPOINT, I=   12 J=    2 ET=BRICK
   0.0000000000E+00   0.0000000000E+00   0.0000000000E+00   0.0000000000E+00   0.0000000000E+00   0.0000000000E+00   0.0000000000E+00   0.0000000000E+00   0.0000000000E+00   0.1250000002E+02  -0.4081775629E-14  -0.5086811472E-14   0.1886894453E-15   0.6067760967E-15   0.1616341443E-14   0.7500000012E-01  -0.3250000005E-01  -0.3250000005E-01  -0.1259316395E-17  -0.7776724098E-16   0.2053735169E-16   0.1250000002E+02
   0.1075000000E+01   0.0000000000E+00  -0.5314885836E-16   0.2475000000E-01   0.0000000000E+00   0.4217458436E-16   0.5025000000E-01   0.0000000000E+00  -0.9532344272E-16   0.1250000002E+02   0.1879407512E-14   0.6066364594E-15  -0.1319283348E-15   0.6452108042E-15   0.3441271207E-15   0.7500000012E-01  -0.3250000005E-01  -0.3250000005E-01   0.4916496444E-16  -0.1711825141E-16   0.4461077632E-16   0.1250000002E+02
   0.1075000000E+01   0.9675000000E+00  -0.2812624123E-16   0.2475000000E-01  -0.1192500000E-01   0.3378762124E-16   0.5025000000E-01  -0.2057500000E-01  -0.6191386247E-16   0.1250000002E+02  -0.4631051577E-14  -0.7929836132E-14  -0.5269462907E-18   0.2391960813E-15  -0.4136942375E-15   0.7500000011E-01  -0.3250000005E-01  -0.3250000005E-01   0.3668512406E-16  -0.1379491223E-16  -0.1937096569E-16   0.1250000002E+02
   0.0000000000E+00   0.9675000000E+00   0.3858607878E-17   0.0000000000E+00  -0.1192500000E-01   0.3035622562E-16   0.0000000000E+00  -0.2057500000E-01  -0.2649761775E-16   0.1250000002E+02  -0.2974854431E-16  -0.4506223906E-14  -0.7394705598E-15  -0.1075723315E-14  -0.1286441173E-15   0.7500000011E-01  -0.3250000005E-01  -0.3250000005E-01   0.3641237526E-16  -0.3215058160E-16  -0.8442314550E-16   0.1250000002E+02
   0.0000000000E+00   0.0000000000E+00   0.9675000000E+00   0.0000000000E+00   0.0000000000E+00  -0.1192500000E-01   0.0000000000E+00   0.0000000000E+00  -0.2057500000E-01   0.1250000002E+02   0.2690011620E-14   0.7416143784E-14  -0.8137329597E-16  -0.1143130674E-14   0.1816548011E-15   0.7500000011E-01  -0.3250000005E-01  -0.3250000005E-01   0.3320039256E-17  -0.1338666476E-15  -0.3270998234E-16   0.1250000002E+02
   0.1075000000E+01   0.0000000000E+00   0.9675000000E+00   0.2475000000E-01   0.0000000000E+00  -0.1192500000E-01   0.5025000000E-01   0.0000000000E+00  -0.2057500000E-01   0.1250000002E+02  -0.3504886750E-14  -0.5059198664E-14   0.3498001628E-15  -0.5077895563E-15   0.1147750504E-14   0.7500000011E-01  -0.3250000005E-01  -0.3250000005E-01   0.3717050354E-16   0.1038029578E-16   0.6916595244E-16   0.1250000002E+02
   0.1075000000E+01   0.9675000000E+00   0.9675000000E+00   0.2475000000E-01  -0.1192500000E-01  -0.1192500000E-01   0.5025000000E-01  -0.2057500000E-01  -0.2057500000E-01   0.1250000002E+02   0.4186962566E-14   0.6554013999E-14   0.3240469534E-15   0.1138090295E-14  -0.5029440294E-15   0.7500000010E-01  -0.3250000004E-01  -0.3250000004E-01   0.4134505974E-16   0.1413289636E-16  -0.1774185412E-16   0.1250000002E+02
   0.0000000000E+00   0.9675000000E+00   0.9675000000E+00   0.0000000000E+00  -0.1192500000E-01  -0.1192500000E-01   0.0000000000E+00  -0.2057500000E-01  -0.2057500000E-01   0.1250000002E+02   0.6171558190E-14   0.6141809969E-14   0.2348896525E-16   0.3085825101E-15  -0.1492058215E-14   0.7500000010E-01  -0.3250000004E-01  -0.3250000004E-01   0.1764256597E-16   0.1279849668E-16  -0.8701438417E-16   0.1250000002E+02
   0.2150000000E+01   0.0000000000E+00  -0.1398463194E-15   0.4950000000E-01   0.0000000000E+00   0.7402816711E-16   0.1005000000E+00   0.0000000000E+00  -0.2138744865E-15   0.1250000002E+02   0.1487422013E-15  -0.1803968579E-14  -0.8155385773E-15  -0.4860741801E-15   0.5275134225E-15   0.7500000011E-01  -0.3250000005E-01  -0.3250000005E-01  -0.2846667179E-16  -0.5355176124E-16   0.3435272403E-16   0.1250000002E+02
   0.2150000000E+01   0.9675000000E+00  -0.1238694864E-15   0.4950000000E-01  -0.1192500000E-01   0.6796610224E-16   0.1005000000E+00  -0.2057500000E-01  -0.1918355886E-15   0.1250000002E+02   0.1148041375E-13   0.1284826459E-13  -0.5622989943E-15   0.3233750948E-15  -0.9852069057E-15   0.7500000010E-01  -0.3250000005E-01  -0.3250000005E-01  -0.9953314606E-16  -0.7572449693E-16  -0.2864770105E-16   0.1250000002E+02
   0.2150000000E+01   0.0000000000E+00   0.9675000000E+00   0.4950000000E-01   0.0000000000E+00  -0.1192500000E-01   0.1005000000E+00   0.0000000000E+00  -0.2057500000E-01   0.1250000002E+02   0.3548437860E-15   0.1338102111E-14   0.1878931938E-15   0.1783482588E-14   0.6303849614E-15   0.7500000010E-01  -0.3250000005E-01  -0.3250000005E-01   0.1218800565E-15  -0.1260185467E-15   0.4361510468E-18   0.1250000002E+02
   0.2150000000E+01   0.9675000000E+00   0.9675000000E+00   0.4950000000E-01  -0.1192500000E-01  -0.1192500000E-01   0.1005000000E+00  -0.2057500000E-01  -0.2057500000E-01   0.1250000002E+02  -0.5489481509E-14  -0.6466904667E-14  -0.6973303548E-15  -0.1895341717E-14   0.3886822048E-15   0.7500000010E-01  -0.3250000004E-01  -0.3250000004E-01   0.4888128407E-16  -0.3542819761E-16  -0.1597706490E-16   0.1250000002E+02
     1     2     3     4     5     6     7     8
     2     9    10     3     6    11    12     7
 VARIABLES = X,Y,Z,DU1,DU2,DU3,U1,U2,U3,S11,S22,S33,S12,S13,S23,E11,E22,E33,E12,E13,E23,SMISES
 ZONE, T="0.3050D+01" F=FEPOINT, I=   12 J=    2 ET=BRICK
   0.0000000000E+00   0.0000000000E+00   0.0000000000E+00   0.0000000000E+00   0.0000000000E+00   0.0000000000E+00   0.0000000000E+00   0.0000000000E+00   0.0000000000E+00   0.1137500002E+02  -0.5803011873E-14  -0.1054693595E-13   0.1537425620E-15  -0.2528212654E-14   0.2708447445E-14   0.7275000011E-01  -0.3182500005E-01  -0.3182500005E-01   0.1516689735E-17  -0.1282457181E-15   0.1245645715E-16   0.1137500002E+02
   0.1072750000E+01   0.0000000000E+00  -0.7695221136E-16  -0.2250000000E-02   0.0000000000E+00  -0.2380335300E-16   0.7500000000E-01   0.0000000000E+00  -0.5314885836E-16   0.1137500002E+02  -0.2469524820E-16  -0.2169917188E-15   0.2613582027E-14   0.1893538956E-14   0.1328794387E-14   0.7275000011E-01  -0.3182500005E-01  -0.3182500005E-01   0.6168555607E-16   0.4363057663E-17   0.5658800021E-16   0.1137500002E+02
   0.1072750000E+01   0.9681750000E+00  -0.4672122856E-16  -0.2250000000E-02   0.6750000000E-03  -0.1859498733E-16   0.7500000000E-01  -0.3250000000E-01  -0.2812624123E-16   0.1137500002E+02  -0.4485227582E-14  -0.9433404332E-14   0.1037366510E-14   0.1514104901E-15  -0.1391312617E-14   0.7275000010E-01  -0.3182500005E-01  -0.3182500005E-01   0.2999884119E-16  -0.1584425020E-16  -0.3647645225E-16   0.1137500002E+02
   0.0000000000E+00   0.9681750000E+00   0.9526364189E-17   0.0000000000E+00   0.6750000000E-03   0.5667756311E-17   0.0000000000E+00  -0.3250000000E-01   0.3858607878E-17   0.1137500002E+02   0.3682986144E-14  -0.4898110387E-14  -0.2429335002E-14  -0.4367871222E-14  -0.2036031296E-14   0.7275000011E-01  -0.3182500005E-01  -0.3182500005E-01   0.2383312103E-16  -0.6124684001E-16  -0.5044582041E-16   0.1137500002E+02
   0.0000000000E+00   0.0000000000E+00   0.9681750000E+00   0.0000000000E+00   0.0000000000E+00   0.6750000000E-03   0.0000000000E+00   0.0000000000E+00  -0.3250000000E-01   0.1137500002E+02   0.4371679165E-14   0.1151240315E-13  -0.4913896239E-16  -0.3202650865E-14   0.1158388487E-14   0.7275000011E-01  -0.3182500005E-01  -0.3182500005E-01  -0.1454155281E-17  -0.1569359075E-15  -0.2974173262E-16   0.1137500002E+02
   0.1072750000E+01   0.0000000000E+00   0.9681750000E+00  -0.2250000000E-02   0.0000000000E+00   0.6750000000E-03   0.7500000000E-01   0.0000000000E+00  -0.3250000000E-01   0.1137500002E+02   0.3460917322E-15   0.2564402050E-14   0.1626534518E-14   0.2407872720E-15   0.1165119749E-14   0.7275000010E-01  -0.3182500005E-01  -0.3182500005E-01   0.6339922123E-16  -0.1273040429E-16   0.8541448990E-16   0.1137500002E+02
   0.1072750000E+01   0.9681750000E+00   0.9681750000E+00  -0.2250000000E-02   0.6750000000E-03   0.6750000000E-03   0.7500000000E-01  -0.3250000000E-01  -0.3250000000E-01   0.1137500001E+02   0.4514976257E-14   0.9744694214E-14   0.1683647275E-14   0.5028139566E-15  -0.2486346105E-14   0.7275000010E-01  -0.3182500004E-01  -0.3182500004E-01   0.3572483517E-16  -0.1133946127E-16  -0.4782878116E-16   0.1137500001E+02
   0.0000000000E+00   0.9681750000E+00   0.9681750000E+00   0.0000000000E+00   0.6750000000E-03   0.6750000000E-03   0.0000000000E+00  -0.3250000000E-01  -0.3250000000E-01   0.1137500002E+02   0.1165452822E-13   0.1318599525E-13  -0.1007248878E-14  -0.3217603061E-14  -0.3495601367E-14   0.7275000010E-01  -0.3182500004E-01  -0.3182500004E-01   0.6226119479E-17  -0.2556193732E-16  -0.1092428790E-15   0.1137500002E+02
   0.2145500000E+01   0.0000000000E+00  -0.2165597947E-15  -0.4500000000E-02   0.0000000000E+00  -0.7671347538E-16   0.1500000000E+00   0.0000000000E+00  -0.1398463194E-15   0.1137500002E+02  -0.4781251931E-14  -0.6499961471E-14   0.3126261173E-14   0.4326989615E-14   0.1453373629E-14   0.7275000011E-01  -0.3182500005E-01  -0.3182500005E-01   0.4476354149E-16  -0.1166726109E-15   0.4771820457E-16   0.1137500002E+02
   0.2145500000E+01   0.9681750000E+00  -0.1958040044E-15  -0.4500000000E-02   0.6750000000E-03  -0.7193451801E-16   0.1500000000E+00  -0.3250000000E-01  -0.1238694864E-15   0.1137500002E+02   0.7393193422E-14   0.8873134454E-14   0.1784008720E-14  -0.8973756551E-15   0.2430490205E-15   0.7275000010E-01  -0.3182500004E-01  -0.3182500004E-01  -0.5708985211E-16  -0.6746287852E-16   0.1367602955E-16   0.1137500002E+02
   0.2145500000E+01   0.0000000000E+00   0.9681750000E+00  -0.4500000000E-02   0.0000000000E+00   0.6750000000E-03   0.1500000000E+00   0.0000000000E+00  -0.3250000000E-01   0.1137500002E+02   0.7041267006E-14   0.8464629094E-14  -0.1065588336E-14   0.4226099358E-14   0.1282476177E-14   0.7275000010E-01  -0.3182500004E-01  -0.3182500004E-01   0.8834092325E-16  -0.8987698488E-16  -0.4937543166E-17   0.1137500002E+02
   0.2145500000E+01   0.9681750000E+00   0.9681750000E+00  -0.4500000000E-02   0.6750000000E-03   0.6750000000E-03   0.1500000000E+00  -0.3250000000E-01  -0.3250000000E-01   0.1137500001E+02  -0.5165844426E-14  -0.6312718511E-14  -0.1142996528E-14  -0.3531033988E-14   0.1389157822E-14   0.7275000009E-01  -0.3182500004E-01  -0.3182500004E-01   0.1058363509E-15  -0.4515607044E-16  -0.1847978267E-16   0.1137500001E+02
     1     2     3     4     5     6     7     8
     2     9    10     3     6    11    12     7
 VARIABLES = X,Y,Z,DU1,DU2,DU3,U1,U2,U3,S11,S22,S33,S12,S13,S23,E11,E22,E33,E12,E13,E23,SMISES
 ZONE, T="0.3100D+01" F=FEPOINT, I=   12 J=    2 ET=BRICK
   0.0000000000E+00   0.0000000000E+00   0.0000000000E+00   0.0000000000E+00   0.0000000000E+00   0.0000000000E+00   0.0000000000E+00   0.0000000000E+00   0.0000000000E+00   0.1025000002E+02  -0.3942072986E-14  -0.5924922928E-14   0.1530396144E-15   0.5247012277E-15   0.1613547704E-14   0.7050000011E-01  -0.3115000005E-01  -0.3115000005E-01  -0.1708160062E-16  -0.1098121235E-15  -0.4443572532E-17   0.1025000002E+02
   0.1070500000E+01   0.0000000000E+00  -0.5325892189E-16  -0.2250000000E-02   0.0000000000E+00   0.2369328947E-16   0.7275000000E-01   0.0000000000E+00  -0.7695221136E-16   0.1025000002E+02   0.1627614600E-14   0.2488962020E-14  -0.6580005712E-15  -0.3772928801E-15   0.9135192429E-16   0.7050000011E-01  -0.3115000005E-01  -0.3115000005E-01   0.5327491242E-16   0.1440305874E-16   0.5070305832E-16   0.1025000002E+02
   0.1070500000E+01   0.9688500000E+00  -0.2941919391E-16  -0.2250000000E-02   0.6750000000E-03   0.1730203465E-16   0.7275000000E-01  -0.3182500000E-01  -0.4672122856E-16   0.1025000001E+02  -0.4075940257E-14  -0.6586679991E-14  -0.7318982497E-15   0.7711965853E-16  -0.6265324513E-15   0.7050000010E-01  -0.3115000004E-01  -0.3115000004E-01   0.8698690740E-17  -0.3108782189E-16  -0.4927600776E-16   0.1025000001E+02
   0.0000000000E+00   0.9688500000E+00   0.3745811733E-17   0.0000000000E+00   0.6750000000E-03  -0.5780552455E-17   0.0000000000E+00  -0.3182500000E-01   0.9526364189E-17   0.1025000001E+02   0.7949476013E-15  -0.3076349487E-14  -0.6031437834E-15  -0.1656859955E-14  -0.5508598231E-15   0.7050000010E-01  -0.3115000005E-01  -0.3115000005E-01   0.4684079841E-16  -0.1607062574E-16  -0.4153272066E-16   0.1025000001E+02
   0.0000000000E+00   0.0000000000E+00   0.9688500000E+00   0.0000000000E+00   0.0000000000E+00   0.6750000000E-03   0.0000000000E+00   0.0000000000E+00  -0.3182500000E-01   0.1025000001E+02  -0.8754400681E-15   0.4455870368E-14  -0.3153239272E-16   0.2495979940E-15   0.6261967445E-15   0.7050000010E-01  -0.3115000005E-01  -0.3115000005E-01   0.1803291809E-16  -0.1121767394E-15   0.1939122614E-16   0.1025000001E+02
   0.1070500000E+01   0.0000000000E+00   0.9688500000E+00  -0.2250000000E-02   0.0000000000E+00   0.6750000000E-03   0.7275000000E-01   0.0000000000E+00  -0.3182500000E-01   0.1025000001E+02  -0.1936768506E-14  -0.2703035599E-14   0.2761237635E-15  -0.1000887402E-14   0.5264262612E-15   0.7050000010E-01  -0.3115000004E-01  -0.3115000004E-01   0.1502419884E-16  -0.1383933846E-16   0.5703416798E-16   0.1025000001E+02
   0.1070500000E+01   0.9688500000E+00   0.9688500000E+00  -0.2250000000E-02   0.6750000000E-03   0.6750000000E-03   0.7275000000E-01  -0.3182500000E-01  -0.3182500000E-01   0.1025000001E+02   0.2077539109E-14   0.5950294600E-14   0.9535670750E-15   0.5486117128E-15  -0.1204994950E-14   0.7050000009E-01  -0.3115000004E-01  -0.3115000004E-01   0.4304317119E-16   0.7077638703E-16  -0.1156606925E-16   0.1025000001E+02
   0.0000000000E+00   0.9688500000E+00   0.9688500000E+00   0.0000000000E+00   0.6750000000E-03   0.6750000000E-03   0.0000000000E+00  -0.3182500000E-01  -0.3182500000E-01   0.1025000001E+02   0.4688699161E-14   0.4661477780E-14   0.1933387012E-15   0.3736451261E-15  -0.1300663130E-14   0.7050000009E-01  -0.3115000004E-01  -0.3115000004E-01   0.1584554772E-16  -0.2961780361E-16  -0.1526584474E-15   0.1025000001E+02
   0.2141000000E+01   0.0000000000E+00  -0.1367942891E-15  -0.4500000000E-02   0.0000000000E+00   0.7976550569E-16   0.1455000000E+00   0.0000000000E+00  -0.2165597947E-15   0.1025000002E+02  -0.4209807529E-14  -0.4865443398E-14  -0.4290695055E-16   0.2026909455E-14   0.5849874021E-15   0.7050000011E-01  -0.3115000005E-01  -0.3115000005E-01  -0.2313635612E-16  -0.8392767315E-16   0.3534100720E-16   0.1025000002E+02
   0.2141000000E+01   0.9688500000E+00  -0.1205921986E-15  -0.4500000000E-02   0.6750000000E-03   0.7521180583E-16   0.1455000000E+00  -0.3182500000E-01  -0.1958040044E-15   0.1025000001E+02   0.8407659138E-14   0.9592643562E-14  -0.3483402616E-15  -0.4174271754E-15   0.2867534803E-15   0.7050000010E-01  -0.3115000004E-01  -0.3115000004E-01  -0.9153255395E-16  -0.1223802772E-15   0.1227578631E-16   0.1025000001E+02
   0.2141000000E+01   0.0000000000E+00   0.9688500000E+00  -0.4500000000E-02   0.0000000000E+00   0.6750000000E-03   0.1455000000E+00   0.0000000000E+00  -0.3182500000E-01   0.1025000001E+02   0.5030518287E-14   0.5830910195E-14  -0.1739424938E-14   0.2810004077E-14   0.2580368486E-16   0.7050000010E-01  -0.3115000004E-01  -0.3115000004E-01   0.1535394803E-15  -0.1056997231E-15  -0.1187906887E-16   0.1025000001E+02
   0.2141000000E+01   0.9688500000E+00   0.9688500000E+00  -0.4500000000E-02   0.6750000000E-03   0.6750000000E-03   0.1455000000E+00  -0.3182500000E-01  -0.3182500000E-01   0.1025000001E+02  -0.5279393496E-14  -0.8529178942E-14  -0.1751134388E-14  -0.2759798403E-14   0.1085325697E-14   0.7050000009E-01  -0.3115000004E-01  -0.3115000004E-01   0.9813795717E-16  -0.3852754254E-16  -0.2944017453E-16   0.1025000001E+02
     1     2     3     4     5     6     7     8
     2     9    10     3     6    11    12     7
 VARIABLES = X,Y,Z,DU1,DU2,DU3,U1,U2,U3,S11,S22,S33,S12,S13,S23,E11,E22,E33,E12,E13,E23,SMISES
 ZONE, T="0.3150D+01" F=FEPOINT, I=   12 J=    2 ET=BRICK
   0.0000000000E+00   0.0000000000E+00   0.0000000000E+00   0.0000000000E+00   0.0000000000E+00   0.0000000000E+00   0.0000000000E+00   0.0000000000E+00   0.0000000000E+00   0.9125000014E+01  -0.5725332634E-14  -0.7227442006E-14   0.1356767349E-15   0.5485061946E-15   0.1594892768E-14   0.6825000011E-01  -0.3047500005E-01  -0.3047500005E-01  -0.6103920204E-18  -0.1016128622E-15  -0.3696973562E-17   0.9125000014E+01
   0.1068250000E+01   0.0000000000E+00  -0.5107999231E-16  -0.2250000000E-02   0.0000000000E+00   0.2178929581E-17   0.7050000000E-01   0.0000000000E+00  -0.5325892189E-16   0.9125000014E+01   0.3092681660E-14   0.4146325309E-14   0.1112640634E-14   0.9244805055E-15   0.1137860382E-15   0.6825000011E-01  -0.3047500005E-01  -0.3047500005E-01   0.4716968090E-16  -0.1171969957E-16   0.4595309801E-16   0.9125000014E+01
   0.1068250000E+01   0.9695250000E+00  -0.2713884456E-16  -0.2250000000E-02   0.6750000000E-03   0.2280349343E-17   0.7050000000E-01  -0.3115000000E-01  -0.2941919391E-16   0.9125000013E+01  -0.4083911233E-14  -0.6927717849E-14   0.6053810802E-15  -0.4232656443E-15  -0.2812832855E-16   0.6825000010E-01  -0.3047500004E-01  -0.3047500004E-01   0.1901059808E-16  -0.3718808337E-16  -0.2376948194E-16   0.9125000013E+01
   0.0000000000E+00   0.9695250000E+00   0.3797411697E-17   0.0000000000E+00   0.6750000000E-03   0.5159996406E-19   0.0000000000E+00  -0.3115000000E-01   0.3745811733E-17   0.9125000013E+01   0.2900385570E-14  -0.1803578719E-14  -0.9652323977E-15  -0.1429893693E-14  -0.4054475530E-15   0.6825000010E-01  -0.3047500004E-01  -0.3047500004E-01   0.4294840274E-16  -0.5892822304E-18  -0.3748214844E-16   0.9125000013E+01
   0.0000000000E+00   0.0000000000E+00   0.9695250000E+00   0.0000000000E+00   0.0000000000E+00   0.6750000000E-03   0.0000000000E+00   0.0000000000E+00  -0.3115000000E-01   0.9125000013E+01   0.1277460386E-15   0.4748300222E-14  -0.1794273497E-16  -0.7924847232E-16   0.1278507414E-15   0.6825000010E-01  -0.3047500004E-01  -0.3047500004E-01  -0.6475549517E-18  -0.1072190593E-15  -0.1039354544E-16   0.9125000013E+01
   0.1068250000E+01   0.0000000000E+00   0.9695250000E+00  -0.2250000000E-02   0.0000000000E+00   0.6750000000E-03   0.7050000000E-01   0.0000000000E+00  -0.3115000000E-01   0.9125000013E+01  -0.2047790784E-14  -0.3390946666E-14   0.7492008671E-15  -0.2254934216E-15   0.3040297563E-15   0.6825000010E-01  -0.3047500004E-01  -0.3047500004E-01   0.6288515608E-16  -0.4027379622E-16   0.6061464852E-16   0.9125000013E+01
   0.1068250000E+01   0.9695250000E+00   0.9695250000E+00  -0.2250000000E-02   0.6750000000E-03   0.6750000000E-03   0.7050000000E-01  -0.3115000000E-01  -0.3115000000E-01   0.9125000012E+01   0.2491879944E-14   0.5262383534E-14   0.1168320636E-14   0.3164315605E-15  -0.8734267820E-15   0.6825000009E-01  -0.3047500004E-01  -0.3047500004E-01   0.8879430727E-16   0.5385712076E-16  -0.2760009762E-16   0.9125000012E+01
   0.0000000000E+00   0.9695250000E+00   0.9695250000E+00   0.0000000000E+00   0.6750000000E-03   0.6750000000E-03   0.0000000000E+00  -0.3115000000E-01  -0.3115000000E-01   0.9125000012E+01   0.4584580113E-14   0.4531595829E-14   0.3965407850E-15   0.4469088384E-15  -0.1647430473E-14   0.6825000009E-01  -0.3047500004E-01  -0.3047500004E-01   0.5057334780E-17  -0.2071541369E-16  -0.1233257837E-15   0.9125000012E+01
   0.2136500000E+01   0.0000000000E+00  -0.1241113592E-15  -0.4500000000E-02   0.0000000000E+00   0.1268292987E-16   0.1410000000E+00   0.0000000000E+00  -0.1367942891E-15   0.9125000014E+01  -0.2367051229E-14  -0.2631191398E-14  -0.5009950091E-15   0.9668849633E-15  -0.7121641871E-16   0.6825000010E-01  -0.3047500005E-01  -0.3047500005E-01  -0.1974872178E-17  -0.1130173185E-15   0.1368557549E-16   0.9125000014E+01
   0.2136500000E+01   0.9695250000E+00  -0.1113142737E-15  -0.4500000000E-02   0.6750000000E-03   0.9277924818E-17   0.1410000000E+00  -0.3115000000E-01  -0.1205921986E-15   0.9125000013E+01   0.6080176614E-14   0.9251605716E-14  -0.1386227281E-14  -0.2300490011E-15   0.1495948062E-15   0.6825000010E-01  -0.3047500004E-01  -0.3047500004E-01  -0.1189459677E-15  -0.9848490428E-16   0.2989040530E-16   0.9125000013E+01
   0.2136500000E+01   0.0000000000E+00   0.9695250000E+00  -0.4500000000E-02   0.0000000000E+00   0.6750000000E-03   0.1410000000E+00   0.0000000000E+00  -0.3115000000E-01   0.9125000013E+01   0.9346501570E-15   0.1779664551E-14   0.1050376540E-15   0.8759318760E-15  -0.1918064496E-15   0.6825000010E-01  -0.3047500004E-01  -0.3047500004E-01   0.1050170629E-15  -0.1063383339E-15  -0.1177790365E-16   0.9125000013E+01
   0.2136500000E+01   0.9695250000E+00   0.9695250000E+00  -0.4500000000E-02   0.6750000000E-03   0.6750000000E-03   0.1410000000E+00  -0.3115000000E-01  -0.3115000000E-01   0.9125000012E+01  -0.4552695383E-14  -0.8161310485E-14  -0.6469932102E-15  -0.1954665763E-14   0.1341596901E-14   0.6825000009E-01  -0.3047500004E-01  -0.3047500004E-01   0.1550922137E-15   0.3195069564E-16  -0.2523974358E-16   0.9125000012E+01
     1     2     3     4     5     6     7     8
     2     9    10     3     6    11    12     7
 VARIABLES = X,Y,Z,DU1,DU2,DU3,U1,U2,U3,S11,S22,S33,S12,S13,S23,E11,E22,E33,E12,E13,E23,SMISES
 ZONE, T="0.3200D+01" F=FEPOINT, I=   12 J=    2 ET=BRICK
   0.0000000000E+00   0.0000000000E+00   0.0000000000E+00   0.0000000000E+00   0.0000000000E+00   0.0000000000E+00   0.0000000000E+00   0.0000000000E+00   0.0000000000E+00   0.8000000013E+01  -0.3677932587E-14  -0.4535685479E-14   0.1417615129E-15   0.1159284121E-14   0.1523493240E-14   0.6600000010E-01  -0.2980000005E-01  -0.2980000005E-01  -0.1073335609E-17  -0.8248015732E-16   0.1570669220E-16   0.8000000013E+01
   0.1066000000E+01   0.0000000000E+00  -0.4831079420E-16  -0.2250000000E-02   0.0000000000E+00   0.2769198113E-17   0.6825000000E-01   0.0000000000E+00  -0.5107999231E-16   0.8000000012E+01   0.1586977633E-14   0.3247258397E-14   0.9649404515E-16  -0.1112661720E-15  -0.2102591054E-15   0.6600000010E-01  -0.2980000005E-01  -0.2980000005E-01   0.5097370321E-16  -0.4695603182E-16   0.4935999565E-16   0.8000000012E+01
   0.1066000000E+01   0.9702000000E+00  -0.2606017468E-16  -0.2250000000E-02   0.6750000000E-03   0.1078669883E-17   0.6825000000E-01  -0.3047500000E-01  -0.2713884456E-16   0.8000000011E+01  -0.3924281013E-14  -0.6161450515E-14  -0.7647859710E-16  -0.2747175088E-15  -0.2731637730E-15   0.6600000009E-01  -0.2980000004E-01  -0.2980000004E-01   0.3713392531E-16   0.1150803834E-16  -0.5259181749E-16   0.8000000011E+01
   0.0000000000E+00   0.9702000000E+00   0.3384372465E-17   0.0000000000E+00   0.6750000000E-03  -0.4130392323E-18   0.0000000000E+00  -0.3047500000E-01   0.3797411697E-17   0.8000000012E+01   0.1629073640E-14  -0.2609024143E-14  -0.1029873166E-14  -0.1240126951E-14  -0.1321520697E-15   0.6600000010E-01  -0.2980000004E-01  -0.2980000004E-01   0.5398753135E-16  -0.2503759760E-16  -0.6898802940E-16   0.8000000012E+01
   0.0000000000E+00   0.0000000000E+00   0.9702000000E+00   0.0000000000E+00   0.0000000000E+00   0.6750000000E-03   0.0000000000E+00   0.0000000000E+00  -0.3047500000E-01   0.8000000012E+01  -0.1958909519E-15   0.3999433772E-14   0.1192804704E-16   0.2603504160E-15   0.2718412292E-16   0.6600000010E-01  -0.2980000004E-01  -0.2980000004E-01  -0.9467321804E-17  -0.1375606959E-15  -0.4567929671E-16   0.8000000012E+01
   0.1066000000E+01   0.0000000000E+00   0.9702000000E+00  -0.2250000000E-02   0.0000000000E+00   0.6750000000E-03   0.6825000000E-01   0.0000000000E+00  -0.3047500000E-01   0.8000000011E+01  -0.2451242977E-14  -0.3713124857E-14   0.5902514304E-15  -0.1205468533E-14   0.4643328754E-15   0.6600000009E-01  -0.2980000004E-01  -0.2980000004E-01   0.6709081473E-16   0.2930844474E-16   0.5606492562E-16   0.8000000011E+01
   0.1066000000E+01   0.9702000000E+00   0.9702000000E+00  -0.2250000000E-02   0.6750000000E-03   0.6750000000E-03   0.6825000000E-01  -0.3047500000E-01  -0.3047500000E-01   0.8000000010E+01   0.2177672746E-14   0.5695584054E-14   0.1104094517E-14   0.2705887765E-15  -0.6351688164E-15   0.6600000009E-01  -0.2980000004E-01  -0.2980000004E-01   0.5014100920E-16  -0.4438492743E-16  -0.2052941499E-16   0.8000000010E+01
   0.0000000000E+00   0.9702000000E+00   0.9702000000E+00   0.0000000000E+00   0.6750000000E-03   0.6750000000E-03   0.0000000000E+00  -0.3047500000E-01  -0.3047500000E-01   0.8000000011E+01   0.4882454261E-14   0.4737307414E-14   0.8794505178E-16   0.1033874473E-14  -0.1320068365E-14   0.6600000009E-01  -0.2980000004E-01  -0.2980000004E-01   0.1396598339E-16   0.1588818610E-16  -0.7358200272E-16   0.8000000011E+01
   0.2132000000E+01   0.0000000000E+00  -0.1205127630E-15  -0.4500000000E-02   0.0000000000E+00   0.3598596222E-17   0.1365000000E+00   0.0000000000E+00  -0.1241113592E-15   0.8000000012E+01  -0.3119903214E-14  -0.3302769445E-14  -0.9298614856E-15   0.1421217319E-14   0.1622101138E-15   0.6600000010E-01  -0.2980000005E-01  -0.2980000005E-01  -0.3098365046E-16  -0.2046988050E-15   0.2436879545E-16   0.8000000012E+01
   0.2132000000E+01   0.9702000000E+00  -0.1064547527E-15  -0.4500000000E-02   0.6750000000E-03   0.4859521024E-17   0.1365000000E+00  -0.3047500000E-01  -0.1113142737E-15   0.8000000011E+01   0.6159991734E-14   0.8258917315E-14  -0.1091009803E-14   0.2813305594E-15   0.3114850373E-15   0.6600000009E-01  -0.2980000004E-01  -0.2980000004E-01  -0.1187275974E-15  -0.5045641368E-16   0.2787940192E-16   0.8000000011E+01
   0.2132000000E+01   0.0000000000E+00   0.9702000000E+00  -0.4500000000E-02   0.0000000000E+00   0.6750000000E-03   0.1365000000E+00   0.0000000000E+00  -0.3047500000E-01   0.8000000011E+01   0.4269695237E-14   0.5214843284E-14  -0.7874712365E-15   0.1831029114E-14  -0.3099667556E-15   0.6600000009E-01  -0.2980000004E-01  -0.2980000004E-01   0.1218974821E-15  -0.1203384221E-15  -0.2086117407E-16   0.8000000011E+01
   0.2132000000E+01   0.9702000000E+00   0.9702000000E+00  -0.4500000000E-02   0.6750000000E-03   0.6750000000E-03   0.1365000000E+00  -0.3047500000E-01  -0.3047500000E-01   0.8000000010E+01  -0.5169830107E-14  -0.9011378454E-14  -0.1324792184E-14  -0.2151825262E-14   0.1039441311E-14   0.6600000008E-01  -0.2980000004E-01  -0.2980000004E-01   0.7621560368E-16  -0.7497912469E-16  -0.1416727910E-16   0.8000000010E+01
     1     2     3     4     5     6     7     8
     2     9    10     3     6    11    12     7
 VARIABLES = X,Y,Z,DU1,DU2,DU3,U1,U2,U3,S11,S22,S33,S12,S13,S23,E11,E22,E33,E12,E13,E23,SMISES
 ZONE, T="0.3250D+01" F=FEPOINT, I=   12 J=    2 ET=BRICK
   0.0000000000E+00   0.0000000000E+00   0.0000000000E+00   0.0000000000E+00   0.0000000000E+00   0.0000000000E+00   0.0000000000E+00   0.0000000000E+00   0.0000000000E+00   0.6875000011E+01  -0.3561465960E-14  -0.4397441564E-14   0.1244440821E-15   0.1299138672E-14   0.1308559958E-14   0.6375000010E-01  -0.2912500005E-01  -0.2912500005E-01   0.1500786523E-16  -0.7090091992E-16   0.6397027503E-17   0.6875000011E+01
   0.1063750000E+01   0.0000000000E+00  -0.4640685967E-16  -0.2250000000E-02   0.0000000000E+00   0.1903934526E-17   0.6600000000E-01   0.0000000000E+00  -0.4831079420E-16   0.6875000011E+01   0.2123229386E-14   0.3843006820E-14   0.5541438207E-15   0.2305730633E-16  -0.1977118990E-15   0.6375000010E-01  -0.2912500004E-01  -0.2912500004E-01   0.3544362485E-16  -0.3970315403E-16   0.4707730480E-16   0.6875000011E+01
   0.1063750000E+01   0.9708750000E+00  -0.2406964526E-16  -0.2250000000E-02   0.6750000000E-03   0.1990529423E-17   0.6600000000E-01  -0.2980000000E-01  -0.2606017468E-16   0.6875000010E+01  -0.3721096074E-14  -0.6461851407E-14   0.4691810013E-15  -0.7007167556E-15  -0.1252000282E-15   0.6375000009E-01  -0.2912500004E-01  -0.2912500004E-01   0.7834734009E-17   0.5953223423E-16  -0.3335569136E-16   0.6875000010E+01
   0.0000000000E+00   0.9708750000E+00   0.2256115993E-17   0.0000000000E+00   0.6750000000E-03  -0.1128256472E-17   0.0000000000E+00  -0.2980000000E-01   0.3384372465E-17   0.6875000010E+01   0.1912073668E-14  -0.1356571846E-14  -0.7431559879E-15  -0.7355658547E-15  -0.1891977673E-15   0.6375000009E-01  -0.2912500004E-01  -0.2912500004E-01   0.6539851158E-16  -0.4565708877E-16  -0.6900265070E-16   0.6875000010E+01
   0.0000000000E+00   0.0000000000E+00   0.9708750000E+00   0.0000000000E+00   0.0000000000E+00   0.6750000000E-03   0.0000000000E+00   0.0000000000E+00  -0.2980000000E-01   0.6875000010E+01  -0.1015142786E-14   0.2029322096E-14   0.1316309639E-16   0.8047814448E-15   0.1303053698E-16   0.6375000009E-01  -0.2912500004E-01  -0.2912500004E-01  -0.1130019638E-17  -0.1535881122E-15  -0.3074455028E-16   0.6875000010E+01
   0.1063750000E+01   0.0000000000E+00   0.9708750000E+00  -0.2250000000E-02   0.0000000000E+00   0.6750000000E-03   0.6600000000E-01   0.0000000000E+00  -0.2980000000E-01   0.6875000010E+01  -0.2351109341E-14  -0.3028131525E-14   0.4281016315E-15  -0.1233741902E-14   0.2587251466E-15   0.6375000009E-01  -0.2912500004E-01  -0.2912500004E-01   0.4837242970E-16   0.4878777315E-16   0.4144096857E-16   0.6875000010E+01
   0.1063750000E+01   0.9708750000E+00   0.9708750000E+00  -0.2250000000E-02   0.6750000000E-03   0.6750000000E-03   0.6600000000E-01  -0.2980000000E-01  -0.2980000000E-01   0.6875000009E+01   0.2188561387E-14   0.4574472536E-14   0.8821834708E-15  -0.2023433005E-16  -0.7644403648E-15   0.6375000008E-01  -0.2912500004E-01  -0.2912500004E-01   0.7826300870E-16  -0.3921182819E-16  -0.3820667431E-16   0.6875000009E+01
   0.0000000000E+00   0.9708750000E+00   0.9708750000E+00   0.0000000000E+00   0.6750000000E-03   0.6750000000E-03   0.0000000000E+00  -0.2980000000E-01  -0.2980000000E-01   0.6875000009E+01   0.4107824923E-14   0.4336381869E-14   0.2856962994E-15   0.1167878342E-14  -0.1175243512E-14   0.6375000009E-01  -0.2912500004E-01  -0.2912500004E-01   0.4848667073E-17   0.1628422722E-16  -0.8307733117E-16   0.6875000009E+01
   0.2127500000E+01   0.0000000000E+00  -0.1125219545E-15  -0.4500000000E-02   0.0000000000E+00   0.7990808515E-17   0.1320000000E+00   0.0000000000E+00  -0.1205127630E-15   0.6875000010E+01  -0.4368370000E-14  -0.4529458955E-14  -0.3306469861E-15   0.1948982296E-14   0.1344314716E-16   0.6375000010E-01  -0.2912500004E-01  -0.2912500004E-01   0.2894521714E-16  -0.9612315635E-16   0.2667528924E-16   0.6875000010E+01
   0.2127500000E+01   0.9708750000E+00  -0.9917870247E-16  -0.4500000000E-02   0.6750000000E-03   0.7276050244E-17   0.1320000000E+00  -0.2980000000E-01  -0.1064547527E-15   0.6875000010E+01   0.7231036420E-14   0.1029941431E-13  -0.6221115164E-15  -0.3497534832E-15   0.1692386296E-15   0.6375000009E-01  -0.2912500004E-01  -0.2912500004E-01  -0.3883991311E-16  -0.9788881917E-16   0.1496720686E-16   0.6875000010E+01
   0.2127500000E+01   0.0000000000E+00   0.9708750000E+00  -0.4500000000E-02   0.0000000000E+00   0.6750000000E-03   0.1320000000E+00   0.0000000000E+00  -0.2980000000E-01   0.6875000010E+01   0.3572354317E-14   0.3122820682E-14  -0.7469373226E-15   0.1902719691E-14   0.3833926035E-16   0.6375000009E-01  -0.2912500004E-01  -0.2912500004E-01   0.1354353790E-15  -0.1074799111E-15  -0.2875257147E-17   0.6875000010E+01
   0.2127500000E+01   0.9708750000E+00   0.9708750000E+00  -0.4500000000E-02   0.6750000000E-03   0.6750000000E-03   0.1320000000E+00  -0.2980000000E-01  -0.2980000000E-01   0.6875000009E+01  -0.5245659721E-14  -0.7803548658E-14  -0.1480676070E-14  -0.2423506700E-14   0.1390101084E-14   0.6375000008E-01  -0.2912500004E-01  -0.2912500004E-01   0.6847309861E-16  -0.6384947695E-16   0.9588475943E-17   0.6875000009E+01
     1     2     3     4     5     6     7     8
     2     9    10     3     6    11    12     7
 VARIABLES = X,Y,Z,DU1,DU2,DU3,U1,U2,U3,S11,S22,S33,S12,S13,S23,E11,E22,E33,E12,E13,E23,SMISES
 ZONE, T="0.3300D+01" F=FEPOINT, I=   12 J=    2 ET=BRICK
   0.0000000000E+00   0.0000000000E+00   0.0000000000E+00   0.0000000000E+00   0.0000000000E+00   0.0000000000E+00   0.0000000000E+00   0.0000000000E+00   0.0000000000E+00   0.5750000009E+01  -0.3016513795E-14  -0.3666366907E-14   0.1396749682E-15   0.1470139199E-14   0.1451646356E-14   0.6150000010E-01  -0.2845000004E-01  -0.2845000004E-01  -0.2531495909E-17  -0.7479160953E-16   0.7270295928E-17   0.5750000009E+01
   0.1061500000E+01   0.0000000000E+00  -0.4694577293E-16  -0.2250000000E-02   0.0000000000E+00  -0.5389132548E-18   0.6375000000E-01   0.0000000000E+00  -0.4640685967E-16   0.5750000009E+01   0.2295207114E-14   0.3469302952E-14  -0.4801336124E-15  -0.8878965125E-15  -0.2569580284E-15   0.6150000009E-01  -0.2845000004E-01  -0.2845000004E-01   0.5003318848E-16  -0.1404200543E-16   0.3783341212E-16   0.5750000009E+01
   0.1061500000E+01   0.9715500000E+00  -0.2491407607E-16  -0.2250000000E-02   0.6750000000E-03  -0.8444308134E-18   0.6375000000E-01  -0.2912500000E-01  -0.2406964526E-16   0.5750000008E+01  -0.3959473616E-14  -0.6746310279E-14  -0.4270232665E-15  -0.2067701830E-16  -0.3988945869E-15   0.6150000009E-01  -0.2845000004E-01  -0.2845000004E-01   0.4864141801E-16  -0.1805202219E-17  -0.3761761383E-16   0.5750000008E+01
   0.0000000000E+00   0.9715500000E+00   0.3020120516E-17   0.0000000000E+00   0.6750000000E-03   0.7640045228E-18   0.0000000000E+00  -0.2912500000E-01   0.2256115993E-17   0.5750000008E+01   0.2534469927E-15  -0.3123498618E-14  -0.5171033207E-15  -0.9582791404E-15  -0.4001677323E-16   0.6150000009E-01  -0.2845000004E-01  -0.2845000004E-01   0.5499708601E-16  -0.4100533435E-16  -0.5788391550E-16   0.5750000008E+01
   0.0000000000E+00   0.0000000000E+00   0.9715500000E+00   0.0000000000E+00   0.0000000000E+00   0.6750000000E-03   0.0000000000E+00   0.0000000000E+00  -0.2912500000E-01   0.5750000008E+01  -0.1177495253E-14   0.1768099356E-14   0.2141083815E-16   0.7032994553E-15   0.2543508730E-15   0.6150000009E-01  -0.2845000004E-01  -0.2845000004E-01  -0.5125343615E-17  -0.1358695811E-15  -0.3598070049E-16   0.5750000008E+01
   0.1061500000E+01   0.0000000000E+00   0.9715500000E+00  -0.2250000000E-02   0.0000000000E+00   0.6750000000E-03   0.6375000000E-01   0.0000000000E+00  -0.2912500000E-01   0.5750000008E+01  -0.2608346533E-14  -0.3350309699E-14   0.6571620711E-15  -0.1635348453E-14   0.3457238451E-15   0.6150000009E-01  -0.2845000004E-01  -0.2845000004E-01   0.3030528112E-16   0.8468023060E-17   0.5933610536E-16   0.5750000008E+01
   0.1061500000E+01   0.9715500000E+00   0.9715500000E+00  -0.2250000000E-02   0.6750000000E-03   0.6750000000E-03   0.6375000000E-01  -0.2912500000E-01  -0.2912500000E-01   0.5750000008E+01   0.2552835369E-14   0.5251494893E-14   0.1064615034E-14   0.4341003653E-15  -0.8715695514E-15   0.6150000008E-01  -0.2845000004E-01  -0.2845000004E-01   0.2890232825E-16  -0.6251650548E-17  -0.3098126955E-16   0.5750000008E+01
   0.0000000000E+00   0.9715500000E+00   0.9715500000E+00   0.0000000000E+00   0.6750000000E-03   0.6750000000E-03   0.0000000000E+00  -0.2912500000E-01  -0.2912500000E-01   0.5750000008E+01   0.4434718023E-14   0.5118982191E-14   0.2538062520E-15   0.1033458141E-14  -0.9305793925E-15   0.6150000008E-01  -0.2845000004E-01  -0.2845000004E-01   0.1226170159E-16   0.1528116205E-17  -0.8482780169E-16   0.5750000008E+01
   0.2123000000E+01   0.0000000000E+00  -0.1191668351E-15  -0.4500000000E-02   0.0000000000E+00  -0.6644880655E-17   0.1275000000E+00   0.0000000000E+00  -0.1125219545E-15   0.5750000009E+01  -0.5530847852E-14  -0.5060266338E-14   0.2392178127E-15   0.2513854752E-14   0.5771877489E-15   0.6150000009E-01  -0.2845000004E-01  -0.2845000004E-01   0.1459218549E-16  -0.1694301734E-15   0.2918254573E-16   0.5750000009E+01
   0.2123000000E+01   0.9715500000E+00  -0.1029196396E-15  -0.4500000000E-02   0.6750000000E-03  -0.3740937140E-17   0.1275000000E+00  -0.2912500000E-01  -0.9917870247E-16   0.5750000008E+01   0.8182892326E-14   0.1026820713E-13  -0.1080489814E-15  -0.3005226589E-15   0.4507221838E-15   0.6150000009E-01  -0.2845000004E-01  -0.2845000004E-01  -0.7720160738E-16  -0.3668096177E-16   0.3252377154E-16   0.5750000008E+01
   0.2123000000E+01   0.0000000000E+00   0.9715500000E+00  -0.4500000000E-02   0.0000000000E+00   0.6750000000E-03   0.1275000000E+00   0.0000000000E+00  -0.2912500000E-01   0.5750000008E+01   0.4988617862E-14   0.5507273154E-14  -0.9383021833E-15   0.2684797817E-14  -0.1768473731E-15   0.6150000009E-01  -0.2845000004E-01  -0.2845000004E-01   0.1148961714E-15  -0.2071869397E-16  -0.1496718696E-16   0.5750000008E+01
   0.2123000000E+01   0.9715500000E+00   0.9715500000E+00  -0.4500000000E-02   0.6750000000E-03   0.6750000000E-03   0.1275000000E+00  -0.2912500000E-01  -0.2912500000E-01   0.5750000007E+01  -0.5805485999E-14  -0.8948964120E-14  -0.1643097361E-14  -0.2457674787E-14   0.8547440393E-15   0.6150000008E-01  -0.2845000004E-01  -0.2845000004E-01   0.1313890601E-15  -0.1290131417E-15  -0.3153958529E-16   0.5750000007E+01
     1     2     3     4     5     6     7     8
     2     9    10     3     6    11    12     7
 VARIABLES = X,Y,Z,DU1,DU2,DU3,U1,U2,U3,S11,S22,S33,S12,S13,S23,E11,E22,E33,E12,E13,E23,SMISES
 ZONE, T="0.3350D+01" F=FEPOINT, I=   12 J=    2 ET=BRICK
   0.0000000000E+00   0.0000000000E+00   0.0000000000E+00   0.0000000000E+00   0.0000000000E+00   0.0000000000E+00   0.0000000000E+00   0.0000000000E+00   0.0000000000E+00   0.4625000007E+01  -0.3465317800E-14  -0.4655408181E-14   0.1491832837E-15   0.1230132984E-14   0.1309561167E-14   0.5925000009E-01  -0.2777500004E-01  -0.2777500004E-01  -0.3574040106E-17  -0.8698109028E-16   0.6573976833E-17   0.4625000007E+01
   0.1059250000E+01   0.0000000000E+00  -0.4823562865E-16  -0.2250000000E-02   0.0000000000E+00  -0.1289855724E-17   0.6150000000E-01   0.0000000000E+00  -0.4694577293E-16   0.4625000007E+01   0.2193614713E-14   0.3519369795E-14   0.7722927219E-15   0.8343345299E-16  -0.1379453611E-15   0.5925000009E-01  -0.2777500004E-01  -0.2777500004E-01   0.6516403000E-16  -0.1053540445E-16   0.4811674428E-16   0.4625000007E+01
   0.1059250000E+01   0.9722250000E+00  -0.2569046744E-16  -0.2250000000E-02   0.6750000000E-03  -0.7763913683E-18   0.6150000000E-01  -0.2845000000E-01  -0.2491407607E-16   0.4625000007E+01  -0.3721096049E-14  -0.6670480632E-14   0.7332730057E-15  -0.9866418719E-15  -0.3199782747E-15   0.5925000008E-01  -0.2777500004E-01  -0.2777500004E-01   0.3231272878E-16  -0.1181095133E-16  -0.2316747480E-16   0.4625000007E+01
   0.0000000000E+00   0.9722250000E+00   0.2410920531E-17   0.0000000000E+00   0.6750000000E-03  -0.6091999846E-18   0.0000000000E+00  -0.2845000000E-01   0.3020120516E-17   0.4625000007E+01   0.1966126000E-14  -0.1749330837E-14  -0.6154164555E-15  -0.9193440149E-15  -0.3965546796E-15   0.5925000009E-01  -0.2777500004E-01  -0.2777500004E-01   0.6177576726E-16  -0.3589412411E-16  -0.6787433590E-16   0.4625000007E+01
   0.0000000000E+00   0.0000000000E+00   0.9722250000E+00   0.0000000000E+00   0.0000000000E+00   0.6750000000E-03   0.0000000000E+00   0.0000000000E+00  -0.2845000000E-01   0.4625000007E+01   0.1411614142E-15   0.3754348542E-14   0.8775827895E-17   0.5032824075E-15   0.1055532023E-15   0.5925000009E-01  -0.2777500004E-01  -0.2777500004E-01  -0.1211586625E-16  -0.1345234085E-15  -0.5768707538E-16   0.4625000007E+01
   0.1059250000E+01   0.0000000000E+00   0.9722250000E+00  -0.2250000000E-02   0.0000000000E+00   0.6750000000E-03   0.6150000000E-01   0.0000000000E+00  -0.2845000000E-01   0.4625000007E+01  -0.2491879919E-14  -0.3344865353E-14  -0.1800549875E-15  -0.7016372711E-15   0.3951024152E-15   0.5925000008E-01  -0.2777500004E-01  -0.2777500004E-01   0.4011371801E-16  -0.1862558398E-16   0.4979701260E-16   0.4625000007E+01
   0.1059250000E+01   0.9722250000E+00   0.9722250000E+00  -0.2250000000E-02   0.6750000000E-03   0.6750000000E-03   0.6150000000E-01  -0.2845000000E-01  -0.2845000000E-01   0.4625000006E+01   0.3309672939E-14   0.5826924849E-14   0.2371499834E-15  -0.5636829101E-15  -0.7177014600E-15   0.5925000008E-01  -0.2777500004E-01  -0.2777500004E-01   0.5218876507E-16  -0.3120367987E-16  -0.3176558363E-16   0.4625000006E+01
   0.0000000000E+00   0.9722250000E+00   0.9722250000E+00   0.0000000000E+00   0.6750000000E-03   0.6750000000E-03   0.0000000000E+00  -0.2845000000E-01  -0.2845000000E-01   0.4625000006E+01   0.3345543120E-14   0.3989170313E-14   0.4769193961E-15   0.1157518033E-14  -0.1410435526E-14   0.5925000008E-01  -0.2777500004E-01  -0.2777500004E-01   0.1683288982E-16   0.1055475811E-16  -0.5709030068E-16   0.4625000006E+01
   0.2118500000E+01   0.0000000000E+00  -0.1222410077E-15  -0.4500000000E-02   0.0000000000E+00  -0.3074172607E-17   0.1230000000E+00   0.0000000000E+00  -0.1191668351E-15   0.4625000007E+01  -0.3376072583E-14  -0.3112661450E-14  -0.1003580313E-15   0.1720660963E-14   0.7268881724E-15   0.5925000009E-01  -0.2777500004E-01  -0.2777500004E-01  -0.1178976167E-16  -0.1716718510E-15   0.4031742321E-16   0.4625000007E+01
   0.2118500000E+01   0.9722250000E+00  -0.1052913013E-15  -0.4500000000E-02   0.6750000000E-03  -0.2371661707E-17   0.1230000000E+00  -0.2845000000E-01  -0.1029196396E-15   0.4625000006E+01   0.6126257913E-14   0.8328039315E-14  -0.5555094047E-15   0.4609483979E-15   0.4557054487E-15   0.5925000008E-01  -0.2777500004E-01  -0.2777500004E-01  -0.1217213146E-15  -0.6972409222E-16   0.1065501422E-16   0.4625000006E+01
   0.2118500000E+01   0.0000000000E+00   0.9722250000E+00  -0.4500000000E-02   0.0000000000E+00   0.6750000000E-03   0.1230000000E+00   0.0000000000E+00  -0.2845000000E-01   0.4625000006E+01   0.2416050167E-14   0.3480387051E-14   0.3278937610E-15   0.1932593664E-14  -0.1311366670E-15   0.5925000008E-01  -0.2777500004E-01  -0.2777500004E-01   0.1236534415E-15  -0.1131412751E-16  -0.3519943882E-16   0.4625000006E+01
   0.2118500000E+01   0.9722250000E+00   0.9722250000E+00  -0.4500000000E-02   0.6750000000E-03   0.6750000000E-03   0.1230000000E+00  -0.2845000000E-01  -0.2845000000E-01   0.4625000006E+01  -0.3958014756E-14  -0.7142129835E-14  -0.6144610398E-15  -0.1678711123E-14   0.7551443111E-15   0.5925000008E-01  -0.2777500004E-01  -0.2777500004E-01   0.1525809920E-15  -0.8786270954E-16   0.3476354465E-17   0.4625000006E+01
     1     2     3     4     5     6     7     8
     2     9    10     3     6    11    12     7
 VARIABLES = X,Y,Z,DU1,DU2,DU3,U1,U2,U3,S11,S22,S33,S12,S13,S23,E11,E22,E33,E12,E13,E23,SMISES
 ZONE, T="0.3400D+01" F=FEPOINT, I=   12 J=    2 ET=BRICK
   0.0000000000E+00   0.0000000000E+00   0.0000000000E+00   0.0000000000E+00   0.0000000000E+00   0.0000000000E+00   0.0000000000E+00   0.0000000000E+00   0.0000000000E+00   0.3500000005E+01  -0.3279195334E-14  -0.4512644848E-14   0.1499624836E-15   0.1221138791E-14   0.1369052159E-14   0.5700000009E-01  -0.2710000004E-01  -0.2710000004E-01   0.3384780646E-17  -0.6536596998E-16   0.1802798251E-17   0.3500000005E+01
   0.1057000000E+01   0.0000000000E+00  -0.4749865398E-16  -0.2250000000E-02   0.0000000000E+00   0.7369746737E-18   0.5925000000E-01   0.0000000000E+00  -0.4823562865E-16   0.3500000005E+01   0.2173296205E-14   0.3918836442E-14   0.3885282419E-15  -0.2296848842E-15  -0.2119198657E-15   0.5700000009E-01  -0.2710000004E-01  -0.2710000004E-01   0.5151710935E-16  -0.4403591174E-16   0.4236524858E-16   0.3500000005E+01
   0.1057000000E+01   0.9729000000E+00  -0.2539720341E-16  -0.2250000000E-02   0.6750000000E-03   0.2932640314E-18   0.5925000000E-01  -0.2777500000E-01  -0.2569046744E-16   0.3500000005E+01  -0.4362925819E-14  -0.6866762399E-14   0.3052199138E-15  -0.4878177818E-15  -0.3298745220E-15   0.5700000008E-01  -0.2710000004E-01  -0.2710000004E-01   0.4510039792E-16   0.2538853245E-16  -0.3998800549E-16   0.3500000005E+01
   0.0000000000E+00   0.9729000000E+00   0.2627126683E-17   0.0000000000E+00   0.6750000000E-03   0.2162061517E-18   0.0000000000E+00  -0.2777500000E-01   0.2410920531E-17   0.3500000005E+01   0.1419181058E-14  -0.2230605394E-14  -0.8611371474E-15  -0.9916168634E-15  -0.2976774282E-15   0.5700000008E-01  -0.2710000004E-01  -0.2710000004E-01   0.4977230172E-16  -0.5308728498E-16  -0.4876106304E-16   0.3500000005E+01
   0.0000000000E+00   0.0000000000E+00   0.9729000000E+00   0.0000000000E+00   0.0000000000E+00   0.6750000000E-03   0.0000000000E+00   0.0000000000E+00  -0.2777500000E-01   0.3500000005E+01  -0.5980797745E-15   0.2635229762E-14   0.4861049024E-16   0.5752541950E-15   0.1523149476E-15   0.5700000008E-01  -0.2710000004E-01  -0.2710000004E-01   0.5186511464E-18  -0.1413246000E-15  -0.4189584452E-16   0.3500000005E+01
   0.1057000000E+01   0.0000000000E+00   0.9729000000E+00  -0.2250000000E-02   0.0000000000E+00   0.6750000000E-03   0.5925000000E-01   0.0000000000E+00  -0.2777500000E-01   0.3500000005E+01  -0.2749117180E-14  -0.3663058073E-14   0.3074988349E-15  -0.1080025130E-14   0.4424309188E-15   0.5700000008E-01  -0.2710000004E-01  -0.2710000004E-01   0.2716057055E-16  -0.1165354807E-16   0.6421531965E-16   0.3500000005E+01
   0.1057000000E+01   0.9729000000E+00   0.9729000000E+00  -0.2250000000E-02   0.6750000000E-03   0.6750000000E-03   0.5925000000E-01  -0.2777500000E-01  -0.2777500000E-01   0.3500000005E+01   0.2642080365E-14   0.5579117431E-14   0.9665122710E-15  -0.9372082576E-16  -0.4677750597E-15   0.5700000007E-01  -0.2710000004E-01  -0.2710000004E-01   0.4932298536E-16  -0.5119948508E-16  -0.2216243816E-16   0.3500000005E+01
   0.0000000000E+00   0.9729000000E+00   0.9729000000E+00   0.0000000000E+00   0.6750000000E-03   0.6750000000E-03   0.0000000000E+00  -0.2777500000E-01  -0.2777500000E-01   0.3500000005E+01   0.4554102303E-14   0.4699392549E-14   0.2219306807E-15   0.1271735766E-14  -0.1253986929E-14   0.5700000008E-01  -0.2710000004E-01  -0.2710000004E-01   0.6489849918E-19   0.2595570549E-16  -0.9555738725E-16   0.3500000005E+01
   0.2114000000E+01   0.0000000000E+00  -0.1170736939E-15  -0.4500000000E-02   0.0000000000E+00   0.5167313809E-17   0.1185000000E+00   0.0000000000E+00  -0.1222410077E-15   0.3500000005E+01  -0.2782121441E-14  -0.2981854602E-14  -0.1249410251E-14   0.1523345890E-14   0.1851334203E-15   0.5700000009E-01  -0.2710000004E-01  -0.2710000004E-01  -0.6805165457E-16  -0.1362314427E-15   0.2308990348E-16   0.3500000005E+01
   0.2114000000E+01   0.9729000000E+00  -0.1029165542E-15  -0.4500000000E-02   0.6750000000E-03   0.2374747116E-17   0.1185000000E+00  -0.2777500000E-01  -0.1052913013E-15   0.3500000005E+01   0.5966432122E-14   0.8557520941E-14  -0.1470309282E-14   0.1849709811E-15   0.1976746564E-15   0.5700000008E-01  -0.2710000004E-01  -0.2710000004E-01  -0.1432472194E-15   0.2879381170E-17   0.2159026181E-16   0.3500000005E+01
   0.2114000000E+01   0.0000000000E+00   0.9729000000E+00  -0.4500000000E-02   0.0000000000E+00   0.6750000000E-03   0.1185000000E+00   0.0000000000E+00  -0.2777500000E-01   0.3500000005E+01   0.3217705641E-14   0.3437757278E-14  -0.2706720052E-15   0.1221988461E-14  -0.1548449162E-15   0.5700000008E-01  -0.2710000004E-01  -0.2710000004E-01   0.1634305256E-15  -0.6249368239E-16  -0.9001284156E-17   0.3500000005E+01
   0.2114000000E+01   0.9729000000E+00   0.9729000000E+00  -0.4500000000E-02   0.6750000000E-03   0.6750000000E-03   0.1185000000E+00  -0.2777500000E-01  -0.2777500000E-01   0.3500000004E+01  -0.5014914744E-14  -0.8207196304E-14  -0.9507674888E-15  -0.1701641279E-14   0.8359044991E-15   0.5700000007E-01  -0.2710000003E-01  -0.2710000003E-01   0.1238205038E-15   0.1414666599E-17  -0.5249368795E-16   0.3500000004E+01
     1     2     3     4     5     6     7     8
     2     9    10     3     6    11    12     7
 VARIABLES = X,Y,Z,DU1,DU2,DU3,U1,U2,U3,S11,S22,S33,S12,S13,S23,E11,E22,E33,E12,E13,E23,SMISES
 ZONE, T="0.3450D+01" F=FEPOINT, I=   12 J=    2 ET=BRICK
   0.0000000000E+00   0.0000000000E+00   0.0000000000E+00   0.0000000000E+00   0.0000000000E+00   0.0000000000E+00   0.0000000000E+00   0.0000000000E+00   0.0000000000E+00   0.2375000004E+01  -0.2794104490E-14  -0.4077353846E-14   0.1871134217E-15   0.1105030813E-14   0.1432012902E-14   0.5475000009E-01  -0.2642500004E-01  -0.2642500004E-01  -0.6076663467E-17  -0.7233595452E-16   0.4345706964E-17   0.2375000004E+01
   0.1054750000E+01   0.0000000000E+00  -0.4849566941E-16  -0.2250000000E-02   0.0000000000E+00  -0.9970154344E-18   0.5700000000E-01   0.0000000000E+00  -0.4749865398E-16   0.2375000004E+01   0.2183455459E-14   0.3522091943E-14  -0.9633233375E-16  -0.2923692783E-15  -0.1083976869E-15   0.5475000008E-01  -0.2642500004E-01  -0.2642500004E-01   0.4149923437E-16  -0.3345739891E-16   0.4969727530E-16   0.2375000004E+01
   0.1054750000E+01   0.9735750000E+00  -0.2587321157E-16  -0.2250000000E-02   0.6750000000E-03  -0.4760081677E-18   0.5700000000E-01  -0.2710000000E-01  -0.2539720341E-16   0.2375000003E+01  -0.3971625632E-14  -0.6943321442E-14  -0.9960384238E-16  -0.1902138580E-15  -0.4625316715E-15   0.5475000008E-01  -0.2642500004E-01  -0.2642500004E-01   0.9024357507E-17   0.1353184052E-16  -0.4417960314E-16   0.2375000003E+01
   0.0000000000E+00   0.9735750000E+00   0.2975072149E-17   0.0000000000E+00   0.6750000000E-03   0.3479454659E-18   0.0000000000E+00  -0.2710000000E-01   0.2627126683E-17   0.2375000003E+01   0.7427903591E-15  -0.2698829290E-14  -0.5763286643E-15  -0.1064543776E-14  -0.3786843764E-15   0.5475000008E-01  -0.2642500004E-01  -0.2642500004E-01   0.5293992104E-16  -0.4164609461E-16  -0.4229946097E-16   0.2375000003E+01
   0.0000000000E+00   0.0000000000E+00   0.9735750000E+00   0.0000000000E+00   0.0000000000E+00   0.6750000000E-03   0.0000000000E+00   0.0000000000E+00  -0.2710000000E-01   0.2375000003E+01  -0.3211557138E-15   0.3224635250E-14  -0.4847032420E-17   0.6471018060E-15   0.3541576983E-15   0.5475000008E-01  -0.2642500004E-01  -0.2642500004E-01   0.1739091548E-17  -0.1500515044E-15  -0.3107546284E-16   0.2375000003E+01
   0.1054750000E+01   0.0000000000E+00   0.9735750000E+00  -0.2250000000E-02   0.0000000000E+00   0.6750000000E-03   0.5700000000E-01   0.0000000000E+00  -0.2710000000E-01   0.2375000003E+01  -0.2655691200E-14  -0.3425409909E-14   0.2418224333E-15  -0.1266371734E-14   0.4554262766E-15   0.5475000008E-01  -0.2642500004E-01  -0.2642500004E-01   0.3390126408E-16  -0.1870771117E-16   0.6644428100E-16   0.2375000003E+01
   0.1054750000E+01   0.9735750000E+00   0.9735750000E+00  -0.2250000000E-02   0.6750000000E-03   0.6750000000E-03   0.5700000000E-01  -0.2710000000E-01  -0.2710000000E-01   0.2375000003E+01   0.2844535874E-14   0.5864839648E-14   0.8196781983E-15   0.1756677996E-15  -0.6432367395E-15   0.5475000007E-01  -0.2642500003E-01  -0.2642500003E-01   0.5264225725E-16  -0.2306710416E-16  -0.2469405408E-16   0.2375000003E+01
   0.0000000000E+00   0.9735750000E+00   0.9735750000E+00   0.0000000000E+00   0.6750000000E-03   0.6750000000E-03   0.0000000000E+00  -0.2710000000E-01  -0.2710000000E-01   0.2375000003E+01   0.4305200797E-14   0.5020939114E-14   0.3937073630E-15   0.1010680333E-14  -0.1274171310E-14   0.5475000007E-01  -0.2642500004E-01  -0.2642500004E-01   0.6437651790E-17   0.1274856390E-16  -0.1015092216E-15   0.2375000003E+01
   0.2109500000E+01   0.0000000000E+00  -0.1215822841E-15  -0.4500000000E-02   0.0000000000E+00  -0.4508590160E-17   0.1140000000E+00   0.0000000000E+00  -0.1170736939E-15   0.2375000004E+01  -0.3727634390E-14  -0.3711034294E-14  -0.1680337543E-15   0.2229145569E-14   0.4450740315E-15   0.5475000008E-01  -0.2642500004E-01  -0.2642500004E-01  -0.2612801297E-16  -0.9301753317E-16   0.2389181689E-16   0.2375000004E+01
   0.2109500000E+01   0.9735750000E+00  -0.1060409382E-15  -0.4500000000E-02   0.6750000000E-03  -0.3124383988E-17   0.1140000000E+00  -0.2710000000E-01  -0.1029165542E-15   0.2375000003E+01   0.6733526631E-14   0.8828004253E-14  -0.4985055328E-15  -0.2118565347E-15   0.3458921836E-15   0.5475000008E-01  -0.2642500004E-01  -0.2642500004E-01  -0.1329275819E-15  -0.1592399096E-15   0.3790052105E-16   0.2375000003E+01
   0.2109500000E+01   0.0000000000E+00   0.9735750000E+00  -0.4500000000E-02   0.0000000000E+00   0.6750000000E-03   0.1140000000E+00   0.0000000000E+00  -0.2710000000E-01   0.2375000003E+01   0.3434937550E-14   0.3945159337E-14  -0.5099987719E-15   0.2456199781E-14  -0.1285102666E-15   0.5475000008E-01  -0.2642500004E-01  -0.2642500004E-01   0.1302507867E-15  -0.4790334314E-16  -0.2211850075E-16   0.2375000003E+01
   0.2109500000E+01   0.9735750000E+00   0.9735750000E+00  -0.4500000000E-02   0.6750000000E-03   0.6750000000E-03   0.1140000000E+00  -0.2710000000E-01  -0.2710000000E-01   0.2375000003E+01  -0.4841842835E-14  -0.8456898701E-14  -0.1125592371E-14  -0.1937471793E-14   0.7682714603E-15   0.5475000007E-01  -0.2642500003E-01  -0.2642500003E-01   0.1466805950E-15   0.8805391160E-17  -0.3602595574E-16   0.2375000003E+01
     1     2     3     4     5     6     7     8
     2     9    10     3     6    11    12     7
 VARIABLES = X,Y,Z,DU1,DU2,DU3,U1,U2,U3,S11,S22,S33,S12,S13,S23,E11,E22,E33,E12,E13,E23,SMISES
 ZONE, T="0.3500D+01" F=FEPOINT, I=   12 J=    2 ET=BRICK
   0.0000000000E+00   0.0000000000E+00   0.0000000000E+00   0.0000000000E+00   0.0000000000E+00   0.0000000000E+00   0.0000000000E+00   0.0000000000E+00   0.0000000000E+00   0.1250000002E+01  -0.2815735206E-14  -0.4040386561E-14   0.1996476717E-15   0.1236527117E-14   0.1343326567E-14   0.5250000008E-01  -0.2575000004E-01  -0.2575000004E-01   0.8441962210E-18  -0.4997366422E-16   0.8709578874E-17   0.1250000002E+01
   0.1052500000E+01   0.0000000000E+00  -0.4741889319E-16  -0.2250000000E-02   0.0000000000E+00   0.1076776222E-17   0.5475000000E-01   0.0000000000E+00  -0.4849566941E-16   0.1250000002E+01   0.2129305396E-14   0.3533612278E-14   0.2001356653E-15  -0.2972973104E-15  -0.1768770124E-15   0.5250000008E-01  -0.2575000004E-01  -0.2575000004E-01   0.5057251232E-16  -0.6031509383E-16   0.3806226102E-16   0.1250000002E+01
   0.1052500000E+01   0.9742500000E+00  -0.2515100976E-16  -0.2250000000E-02   0.6750000000E-03   0.7222018117E-18   0.5475000000E-01  -0.2642500000E-01  -0.2587321157E-16   0.1250000002E+01  -0.3756653438E-14  -0.6649797448E-14   0.1391735404E-15  -0.4911895840E-15  -0.4229657057E-15   0.5250000007E-01  -0.2575000004E-01  -0.2575000004E-01   0.2881538373E-16   0.1616836969E-16  -0.3616225109E-16   0.1250000002E+01
   0.0000000000E+00   0.9742500000E+00   0.2635420429E-17   0.0000000000E+00   0.6750000000E-03  -0.3396517196E-18   0.0000000000E+00  -0.2642500000E-01   0.2975072149E-17   0.1250000002E+01   0.1113687421E-14  -0.2367208135E-14  -0.6106632679E-15  -0.9034510590E-15  -0.2806415509E-15   0.5250000008E-01  -0.2575000004E-01  -0.2575000004E-01   0.4055702603E-16  -0.2861863864E-16  -0.4283715213E-16   0.1250000002E+01
   0.0000000000E+00   0.0000000000E+00   0.9742500000E+00   0.0000000000E+00   0.0000000000E+00   0.6750000000E-03   0.0000000000E+00   0.0000000000E+00  -0.2642500000E-01   0.1250000002E+01  -0.7915547583E-15   0.2583619523E-14  -0.7685225507E-17   0.8478317125E-15   0.2668175705E-15   0.5250000008E-01  -0.2575000004E-01  -0.2575000004E-01  -0.1020325691E-16  -0.1489461137E-15  -0.5230620851E-16   0.1250000002E+01
   0.1052500000E+01   0.0000000000E+00   0.9742500000E+00  -0.2250000000E-02   0.0000000000E+00   0.6750000000E-03   0.5475000000E-01   0.0000000000E+00  -0.2642500000E-01   0.1250000002E+01  -0.2777237451E-14  -0.3494167186E-14   0.3710502882E-15  -0.1274278332E-14   0.3248727033E-15   0.5250000007E-01  -0.2575000004E-01  -0.2575000004E-01   0.5114204361E-16   0.1716744062E-17   0.5348144475E-16   0.1250000002E+01
   0.1052500000E+01   0.9742500000E+00   0.9742500000E+00  -0.2250000000E-02   0.6750000000E-03   0.6750000000E-03   0.5475000000E-01  -0.2642500000E-01  -0.2642500000E-01   0.1250000002E+01   0.2628567295E-14   0.5487052561E-14   0.8143190688E-15   0.3931566290E-16  -0.6195849974E-15   0.5250000007E-01  -0.2575000003E-01  -0.2575000003E-01   0.2838873894E-16  -0.4114332246E-16  -0.2734031857E-17   0.1250000002E+01
   0.0000000000E+00   0.9742500000E+00   0.9742500000E+00   0.0000000000E+00   0.6750000000E-03   0.6750000000E-03   0.0000000000E+00  -0.2642500000E-01  -0.2642500000E-01   0.1250000002E+01   0.4106512693E-14   0.4561926893E-14   0.3151874825E-15   0.1073929343E-14  -0.1181744547E-14   0.5250000007E-01  -0.2575000003E-01  -0.2575000003E-01   0.2812856843E-16   0.3346985021E-16  -0.7575901239E-16   0.1250000002E+01
   0.2105000000E+01   0.0000000000E+00  -0.1179940293E-15  -0.4500000000E-02   0.0000000000E+00   0.3588254737E-17   0.1095000000E+00   0.0000000000E+00  -0.1215822841E-15   0.1250000002E+01  -0.3801422398E-14  -0.3686316703E-14  -0.1653320160E-15   0.1935709595E-14   0.3580975544E-15   0.5250000008E-01  -0.2575000004E-01  -0.2575000004E-01  -0.5054387670E-16  -0.1528802653E-15   0.2905862398E-16   0.1250000002E+01
   0.2105000000E+01   0.9742500000E+00  -0.1028743954E-15  -0.4500000000E-02   0.6750000000E-03   0.3166542769E-17   0.1095000000E+00  -0.2642500000E-01  -0.1060409382E-15   0.1250000002E+01   0.6744499906E-14   0.9272275785E-14  -0.5506124962E-15  -0.1596817567E-15   0.3806009949E-15   0.5250000007E-01  -0.2575000004E-01  -0.2575000004E-01  -0.1136446816E-15  -0.8721754570E-16   0.4444801328E-16   0.1250000002E+01
   0.2105000000E+01   0.0000000000E+00   0.9742500000E+00  -0.4500000000E-02   0.0000000000E+00   0.6750000000E-03   0.1095000000E+00   0.0000000000E+00  -0.2642500000E-01   0.1250000002E+01   0.3614170040E-14   0.3971371494E-14  -0.3715671189E-15   0.1902233973E-14  -0.4538497426E-16   0.5250000007E-01  -0.2575000004E-01  -0.2575000004E-01   0.1596864712E-15  -0.4474504275E-16  -0.2515604729E-16   0.1250000002E+01
   0.2105000000E+01   0.9742500000E+00   0.9742500000E+00  -0.4500000000E-02   0.6750000000E-03   0.6750000000E-03   0.1095000000E+00  -0.2642500000E-01  -0.2642500000E-01   0.1250000002E+01  -0.4895677058E-14  -0.8215216160E-14  -0.1065301249E-14  -0.2042969521E-14   0.8760113865E-15   0.5250000007E-01  -0.2575000003E-01  -0.2575000003E-01   0.9808694806E-16  -0.1250037785E-16  -0.3606711093E-16   0.1250000002E+01
     1     2     3     4     5     6     7     8
     2     9    10     3     6    11    12     7
 VARIABLES = X,Y,Z,DU1,DU2,DU3,U1,U2,U3,S11,S22,S33,S12,S13,S23,E11,E22,E33,E12,E13,E23,SMISES
 ZONE, T="0.3550D+01" F=FEPOINT, I=   12 J=    2 ET=BRICK
   0.0000000000E+00   0.0000000000E+00   0.0000000000E+00   0.0000000000E+00   0.0000000000E+00   0.0000000000E+00   0.0000000000E+00   0.0000000000E+00   0.0000000000E+00   0.1250000002E+00  -0.2945166645E-14  -0.4097333263E-14   0.2014858564E-15   0.1184733877E-14   0.1295336642E-14   0.5025000008E-01  -0.2507500004E-01  -0.2507500004E-01  -0.6862555203E-17  -0.8019672940E-16   0.5130846416E-17   0.1250000002E+00
   0.1050250000E+01   0.0000000000E+00  -0.4778135340E-16  -0.2250000000E-02   0.0000000000E+00  -0.3624602037E-18   0.5250000000E-01   0.0000000000E+00  -0.4741889319E-16   0.1250000002E+00   0.2442725382E-14   0.3872679473E-14   0.2659452138E-15  -0.2843777713E-15  -0.1388905767E-15   0.5025000008E-01  -0.2507500004E-01  -0.2507500004E-01   0.6302201947E-16  -0.1396687659E-16   0.5299766068E-16   0.1250000002E+00
   0.1050250000E+01   0.9749250000E+00  -0.2532782154E-16  -0.2250000000E-02   0.6750000000E-03  -0.1768117812E-18   0.5250000000E-01  -0.2575000000E-01  -0.2515100976E-16   0.1250000002E+00  -0.3786982182E-14  -0.6677337287E-14   0.2309488380E-15  -0.5859025023E-15  -0.3395280513E-15   0.5025000007E-01  -0.2507500004E-01  -0.2507500004E-01   0.4438594807E-16  -0.8028539392E-17  -0.4441393039E-16   0.1250000002E+00
   0.0000000000E+00   0.9749250000E+00   0.2408503812E-17   0.0000000000E+00   0.6750000000E-03  -0.2269166173E-18   0.0000000000E+00  -0.2575000000E-01   0.2635420429E-17   0.1250000002E+00   0.1076026169E-14  -0.2406263840E-14  -0.6140933335E-15  -0.8381786389E-15  -0.3283872031E-15   0.5025000007E-01  -0.2507500004E-01  -0.2507500004E-01   0.4250240448E-16  -0.3770845804E-16  -0.5376942236E-16   0.1250000002E+00
   0.0000000000E+00   0.0000000000E+00   0.9749250000E+00   0.0000000000E+00   0.0000000000E+00   0.6750000000E-03   0.0000000000E+00   0.0000000000E+00  -0.2575000000E-01   0.1250000002E+00  -0.5694023147E-15   0.2792948362E-14  -0.8564151368E-17   0.7105718391E-15   0.1781513141E-15   0.5025000007E-01  -0.2507500004E-01  -0.2507500004E-01   0.4264847753E-17  -0.1501482708E-15  -0.3021741151E-16   0.1250000002E+00
   0.1050250000E+01   0.0000000000E+00   0.9749250000E+00  -0.2250000000E-02   0.0000000000E+00   0.6750000000E-03   0.5250000000E-01   0.0000000000E+00  -0.2575000000E-01   0.1250000002E+00  -0.2786907432E-14  -0.3478189958E-14   0.2093573167E-15  -0.1011606073E-14   0.3593102855E-15   0.5025000007E-01  -0.2507500004E-01  -0.2507500004E-01   0.3664266829E-16   0.9031907740E-19   0.5895297478E-16   0.1250000002E+00
   0.1050250000E+01   0.9749250000E+00   0.9749250000E+00  -0.2250000000E-02   0.6750000000E-03   0.6750000000E-03   0.5250000000E-01  -0.2575000000E-01  -0.2575000000E-01   0.1250000002E+00   0.2837198906E-14   0.5698473078E-14   0.5852100903E-15  -0.5961268127E-16  -0.5620155811E-15   0.5025000007E-01  -0.2507500003E-01  -0.2507500003E-01   0.3895360005E-16  -0.2939549243E-16  -0.2288023509E-16   0.1250000002E+00
   0.0000000000E+00   0.9749250000E+00   0.9749250000E+00   0.0000000000E+00   0.6750000000E-03   0.6750000000E-03   0.0000000000E+00  -0.2575000000E-01  -0.2575000000E-01   0.1250000002E+00   0.4114783779E-14   0.4483495186E-14   0.3774428755E-15   0.1104196639E-14  -0.1170210076E-14   0.5025000007E-01  -0.2507500003E-01  -0.2507500003E-01   0.8789201132E-17   0.1335703128E-16  -0.1000383394E-15   0.1250000002E+00
   0.2100500000E+01   0.0000000000E+00  -0.1185390297E-15  -0.4500000000E-02   0.0000000000E+00  -0.5450003848E-18   0.1050000000E+00   0.0000000000E+00  -0.1179940293E-15   0.1250000002E+00  -0.3242709219E-14  -0.3122399355E-14  -0.3429447433E-15   0.1633807650E-14   0.3737020125E-15   0.5025000008E-01  -0.2507500004E-01  -0.2507500004E-01  -0.3337668766E-16  -0.1806181086E-15   0.2521445317E-16   0.1250000002E+00
   0.2100500000E+01   0.9749250000E+00  -0.1033346965E-15  -0.4500000000E-02   0.6750000000E-03  -0.4603011037E-18   0.1050000000E+00  -0.2575000000E-01  -0.1028743954E-15   0.1250000002E+00   0.6378228687E-14   0.8814471247E-14  -0.6622731070E-15   0.4363835244E-16   0.2962758501E-15   0.5025000007E-01  -0.2507500004E-01  -0.2507500004E-01  -0.1525287750E-15  -0.1406633224E-15   0.2026264989E-16   0.1250000002E+00
   0.2100500000E+01   0.0000000000E+00   0.9749250000E+00  -0.4500000000E-02   0.0000000000E+00   0.6750000000E-03   0.1050000000E+00   0.0000000000E+00  -0.2575000000E-01   0.1250000002E+00   0.3175119401E-14   0.3622833366E-14  -0.1476474577E-15   0.1450643683E-14  -0.6171996917E-16   0.5025000007E-01  -0.2507500004E-01  -0.2507500004E-01   0.9790464461E-16  -0.6638562858E-16  -0.1555336209E-16   0.1250000002E+00
   0.2100500000E+01   0.9749250000E+00   0.9749250000E+00  -0.4500000000E-02   0.6750000000E-03   0.6750000000E-03   0.1050000000E+00  -0.2575000000E-01  -0.2575000000E-01   0.1250000002E+00  -0.4829959904E-14  -0.8155723986E-14  -0.9425164261E-15  -0.1873943466E-14   0.7709134174E-15   0.5025000006E-01  -0.2507500003E-01  -0.2507500003E-01   0.1338307320E-15  -0.6527137860E-16  -0.4015173374E-16   0.1250000002E+00
     1     2     3     4     5     6     7     8
     2     9    10     3     6    11    12     7
 VARIABLES = X,Y,Z,DU1,DU2,DU3,U1,U2,U3,S11,S22,S33,S12,S13,S23,E11,E22,E33,E12,E13,E23,SMISES
 ZONE, T="0.3600D+01" F=FEPOINT, I=   12 J=    2 ET=BRICK
   0.0000000000E+00   0.0000000000E+00   0.0000000000E+00   0.0000000000E+00   0.0000000000E+00   0.0000000000E+00   0.0000000000E+00   0.0000000000E+00   0.0000000000E+00  -0.1000000002E+01  -0.2744487001E-14  -0.3793442052E-14   0.2175889629E-15   0.1331747307E-14   0.1286849313E-14   0.4800000008E-01  -0.2440000004E-01  -0.2440000004E-01   0.6222015606E-17  -0.7831769203E-16   0.1338702346E-16   0.1000000002E+01
   0.1048000000E+01   0.0000000000E+00  -0.4700368630E-16  -0.2250000000E-02   0.0000000000E+00   0.7776670906E-18   0.5025000000E-01   0.0000000000E+00  -0.4778135340E-16  -0.1000000002E+01   0.2022001641E-14   0.3494701080E-14   0.1533234442E-15  -0.3421098360E-15  -0.2153763899E-15   0.4800000007E-01  -0.2440000004E-01  -0.2440000004E-01   0.5011303189E-16  -0.8734606939E-17   0.4303543214E-16   0.1000000002E+01
   0.1048000000E+01   0.9756000000E+00  -0.2495485272E-16  -0.2250000000E-02   0.6750000000E-03   0.3729688249E-18   0.5025000000E-01  -0.2507500000E-01  -0.2532782154E-16  -0.1000000001E+01  -0.3846360868E-14  -0.6653515995E-14   0.8738080770E-16  -0.6060888570E-15  -0.3881964944E-15   0.4800000007E-01  -0.2440000003E-01  -0.2440000003E-01   0.4344280895E-16   0.1804778768E-16  -0.4333316456E-16   0.1000000001E+01
   0.0000000000E+00   0.9756000000E+00   0.2401661276E-17   0.0000000000E+00   0.6750000000E-03  -0.6842535597E-20   0.0000000000E+00  -0.2507500000E-01   0.2408503812E-17  -0.1000000001E+01   0.1062393011E-14  -0.2365348857E-14  -0.5743437161E-15  -0.8105847429E-15  -0.2689452774E-15   0.4800000007E-01  -0.2440000004E-01  -0.2440000004E-01   0.4729751668E-16  -0.2973444653E-16  -0.6245879176E-16   0.1000000001E+01
   0.0000000000E+00   0.0000000000E+00   0.9756000000E+00   0.0000000000E+00   0.0000000000E+00   0.6750000000E-03   0.0000000000E+00   0.0000000000E+00  -0.2507500000E-01  -0.1000000001E+01  -0.7027102224E-15   0.2653506650E-14  -0.1663370672E-16   0.7535914599E-15   0.2512744236E-15   0.4800000007E-01  -0.2440000004E-01  -0.2440000004E-01  -0.3282599475E-17  -0.1355793660E-15  -0.5168137703E-16   0.1000000001E+01
   0.1048000000E+01   0.0000000000E+00   0.9756000000E+00  -0.2250000000E-02   0.0000000000E+00   0.6750000000E-03   0.5025000000E-01   0.0000000000E+00  -0.2507500000E-01  -0.1000000001E+01  -0.2692244952E-14  -0.3467407995E-14   0.2299069652E-15  -0.1079253718E-14   0.3249973676E-15   0.4800000007E-01  -0.2440000003E-01  -0.2440000003E-01   0.4806733008E-16  -0.2641150794E-16   0.6495308700E-16   0.1000000001E+01
   0.1048000000E+01   0.9756000000E+00   0.9756000000E+00  -0.2250000000E-02   0.6750000000E-03   0.6750000000E-03   0.5025000000E-01  -0.2507500000E-01  -0.2507500000E-01  -0.1000000001E+01   0.2731156119E-14   0.5549004403E-14   0.6155797051E-15  -0.5181672197E-16  -0.5478965171E-15   0.4800000006E-01  -0.2440000003E-01  -0.2440000003E-01   0.3108457901E-16   0.5210036410E-17  -0.1309535948E-16   0.1000000001E+01
   0.0000000000E+00   0.9756000000E+00   0.9756000000E+00   0.0000000000E+00   0.6750000000E-03   0.6750000000E-03   0.0000000000E+00  -0.2507500000E-01  -0.2507500000E-01  -0.1000000001E+01   0.4072814613E-14   0.4386728788E-14   0.4011063840E-15   0.1094444666E-14  -0.1149211920E-14   0.4800000006E-01  -0.2440000003E-01  -0.2440000003E-01   0.1108243373E-16  -0.9377660691E-17  -0.8853013846E-16   0.1000000001E+01
   0.2096000000E+01   0.0000000000E+00  -0.1165531173E-15  -0.4500000000E-02   0.0000000000E+00   0.1985912377E-17   0.1005000000E+00   0.0000000000E+00  -0.1185390297E-15  -0.1000000002E+01  -0.4244381718E-14  -0.4001653782E-14   0.7308472240E-17   0.1632452238E-14   0.3402804672E-15   0.4800000007E-01  -0.2440000004E-01  -0.2440000004E-01  -0.2553391481E-16  -0.1875891611E-15   0.2810104235E-16   0.1000000002E+01
   0.2096000000E+01   0.9756000000E+00  -0.1015429167E-15  -0.4500000000E-02   0.6750000000E-03   0.1791779835E-17   0.1005000000E+00  -0.2507500000E-01  -0.1033346965E-15  -0.1000000001E+01   0.6292742423E-14   0.8939342382E-14  -0.3244990250E-15  -0.2163863845E-16   0.4272888137E-15   0.4800000007E-01  -0.2440000003E-01  -0.2440000003E-01  -0.1155371837E-15  -0.1264548504E-15   0.3195015939E-16   0.1000000001E+01
   0.2096000000E+01   0.0000000000E+00   0.9756000000E+00  -0.4500000000E-02   0.0000000000E+00   0.6750000000E-03   0.1005000000E+00   0.0000000000E+00  -0.2507500000E-01  -0.1000000001E+01   0.3538206898E-14   0.3797899146E-14  -0.4261452839E-15   0.2103150770E-14  -0.4596951927E-16   0.4800000007E-01  -0.2440000003E-01  -0.2440000003E-01   0.1017994220E-15  -0.5976364985E-16  -0.2369660084E-16   0.1000000001E+01
   0.2096000000E+01   0.9756000000E+00   0.9756000000E+00  -0.4500000000E-02   0.6750000000E-03   0.6750000000E-03   0.1005000000E+00  -0.2507500000E-01  -0.2507500000E-01  -0.1000000001E+01  -0.4980438363E-14  -0.8406284833E-14  -0.1163459559E-14  -0.2186903314E-14   0.8618390128E-15   0.4800000006E-01  -0.2440000003E-01  -0.2440000003E-01   0.1283720840E-15  -0.1235400732E-15  -0.3167630046E-16   0.1000000001E+01
     1     2     3     4     5     6     7     8
     2     9    10     3     6    11    12     7
 VARIABLES = X,Y,Z,DU1,DU2,DU3,U1,U2,U3,S11,S22,S33,S12,S13,S23,E11,E22,E33,E12,E13,E23,SMISES
 ZONE, T="0.3650D+01" F=FEPOINT, I=   12 J=    2 ET=BRICK
   0.0000000000E+00   0.0000000000E+00   0.0000000000E+00   0.0000000000E+00   0.0000000000E+00   0.0000000000E+00   0.0000000000E+00   0.0000000000E+00   0.0000000000E+00  -0.2125000003E+01  -0.2578767623E-14  -0.3632802293E-14   0.2405407891E-15   0.1363586033E-14   0.1236916406E-14   0.4575000007E-01  -0.2372500004E-01  -0.2372500004E-01  -0.6951225954E-17  -0.9234475944E-16   0.3596195139E-17   0.2125000003E+01
   0.1045750000E+01   0.0000000000E+00  -0.4673034840E-16  -0.2250000000E-02   0.0000000000E+00   0.2733379088E-18   0.4800000000E-01   0.0000000000E+00  -0.4700368630E-16  -0.2125000003E+01   0.2163136963E-14   0.3645995649E-14   0.4036706734E-16  -0.4853903817E-15  -0.1804671593E-15   0.4575000007E-01  -0.2372500004E-01  -0.2372500004E-01   0.6038810467E-16  -0.1475255607E-17   0.5068661697E-16   0.2125000003E+01
   0.1045750000E+01   0.9762750000E+00  -0.2445751671E-16  -0.2250000000E-02   0.6750000000E-03   0.4973360110E-18   0.4800000000E-01  -0.2440000000E-01  -0.2495485272E-16  -0.2125000003E+01  -0.4097522102E-14  -0.6899232907E-14   0.3531640672E-16  -0.5685577367E-15  -0.3594465790E-15   0.4575000007E-01  -0.2372500003E-01  -0.2372500003E-01   0.3903387345E-16  -0.3413402261E-16  -0.3850805506E-16   0.2125000003E+01
   0.0000000000E+00   0.9762750000E+00   0.2094629007E-17   0.0000000000E+00   0.6750000000E-03  -0.3070322699E-18   0.0000000000E+00  -0.2440000000E-01   0.2401661276E-17  -0.2125000003E+01   0.7997603222E-15  -0.2380903549E-14  -0.5352213557E-15  -0.6859993280E-15  -0.2601484435E-15   0.4575000007E-01  -0.2372500003E-01  -0.2372500003E-01   0.4735553110E-16  -0.2258202431E-16  -0.6087643955E-16   0.2125000003E+01
   0.0000000000E+00   0.0000000000E+00   0.9762750000E+00   0.0000000000E+00   0.0000000000E+00   0.6750000000E-03   0.0000000000E+00   0.0000000000E+00  -0.2440000000E-01  -0.2125000003E+01  -0.1220952088E-14   0.1797749984E-14  -0.3756624760E-16   0.8173809189E-15   0.2454147968E-15   0.4575000007E-01  -0.2372500003E-01  -0.2372500003E-01   0.7887177755E-18  -0.1353496586E-15  -0.4748747616E-16   0.2125000003E+01
   0.1045750000E+01   0.0000000000E+00   0.9762750000E+00  -0.2250000000E-02   0.0000000000E+00   0.6750000000E-03   0.4800000000E-01   0.0000000000E+00  -0.2440000000E-01  -0.2125000003E+01  -0.2842543147E-14  -0.3231120945E-14   0.2582971848E-15  -0.1116983068E-14   0.3376667723E-15   0.4575000007E-01  -0.2372500003E-01  -0.2372500003E-01   0.4301067127E-16  -0.4992528837E-16   0.5082336900E-16   0.2125000003E+01
   0.1045750000E+01   0.9762750000E+00   0.9762750000E+00  -0.2250000000E-02   0.6750000000E-03   0.6750000000E-03   0.4800000000E-01  -0.2440000000E-01  -0.2440000000E-01  -0.2125000003E+01   0.2596728472E-14   0.5402424765E-14   0.5945517896E-15  -0.1996615782E-15  -0.6023315040E-15   0.4575000006E-01  -0.2372500003E-01  -0.2372500003E-01   0.5116196534E-16  -0.3917770877E-17  -0.1817927432E-16   0.2125000003E+01
   0.0000000000E+00   0.9762750000E+00   0.9762750000E+00   0.0000000000E+00   0.6750000000E-03   0.6750000000E-03   0.0000000000E+00  -0.2440000000E-01  -0.2440000000E-01  -0.2125000003E+01   0.4512371170E-14   0.4832361345E-14   0.3006788439E-15   0.1215181461E-14  -0.1058415857E-14   0.4575000006E-01  -0.2372500003E-01  -0.2372500003E-01   0.7280338391E-17   0.3559312676E-17  -0.7756113039E-16   0.2125000003E+01
   0.2091500000E+01   0.0000000000E+00  -0.1149479802E-15  -0.4500000000E-02   0.0000000000E+00   0.1605137162E-17   0.9600000000E-01   0.0000000000E+00  -0.1165531173E-15  -0.2125000003E+01  -0.3669401085E-14  -0.4118934427E-14  -0.3143795653E-15   0.1757474998E-14   0.3557262903E-15   0.4575000007E-01  -0.2372500004E-01  -0.2372500004E-01  -0.2213107889E-17  -0.1738920479E-15   0.3513014098E-16   0.2125000003E+01
   0.2091500000E+01   0.9762750000E+00  -0.9990186163E-16  -0.4500000000E-02   0.6750000000E-03   0.1641055058E-17   0.9600000000E-01  -0.2440000000E-01  -0.1015429167E-15  -0.2125000003E+01   0.6495149073E-14   0.8898656528E-14  -0.5253195326E-15   0.3482197184E-15   0.3253895930E-15   0.4575000006E-01  -0.2372500003E-01  -0.2372500003E-01  -0.9384302067E-16  -0.4133038578E-16   0.6768055327E-17   0.2125000003E+01
   0.2091500000E+01   0.0000000000E+00   0.9762750000E+00  -0.4500000000E-02   0.0000000000E+00   0.6750000000E-03   0.9600000000E-01   0.0000000000E+00  -0.2440000000E-01  -0.2125000003E+01   0.3698348518E-14   0.3729555469E-14  -0.5668971624E-15   0.2153241430E-14   0.6631882872E-17   0.4575000006E-01  -0.2372500003E-01  -0.2372500003E-01   0.1105412113E-15  -0.2218874313E-16  -0.3354144239E-16   0.2125000003E+01
   0.2091500000E+01   0.9762750000E+00   0.9762750000E+00  -0.4500000000E-02   0.6750000000E-03   0.6750000000E-03   0.9600000000E-01  -0.2440000000E-01  -0.2440000000E-01  -0.2125000003E+01  -0.4897353989E-14  -0.8405106115E-14  -0.1287984852E-14  -0.1957207301E-14   0.8810805717E-15   0.4575000006E-01  -0.2372500003E-01  -0.2372500003E-01   0.1391174720E-15  -0.1421374546E-15  -0.7680079035E-17   0.2125000003E+01
     1     2     3     4     5     6     7     8
     2     9    10     3     6    11    12     7
 VARIABLES = X,Y,Z,DU1,DU2,DU3,U1,U2,U3,S11,S22,S33,S12,S13,S23,E11,E22,E33,E12,E13,E23,SMISES
 ZONE, T="0.3700D+01" F=FEPOINT, I=   12 J=    2 ET=BRICK
   0.0000000000E+00   0.0000000000E+00   0.0000000000E+00   0.0000000000E+00   0.0000000000E+00   0.0000000000E+00   0.0000000000E+00   0.0000000000E+00   0.0000000000E+00  -0.3250000005E+01  -0.2627206354E-14  -0.3812581814E-14   0.2286334230E-15   0.1380290001E-14   0.1429397562E-14   0.4350000007E-01  -0.2305000004E-01  -0.2305000004E-01   0.5351952805E-18  -0.8861032413E-16   0.1176704210E-16   0.3250000005E+01
   0.1043500000E+01   0.0000000000E+00  -0.4694345057E-16  -0.2250000000E-02   0.0000000000E+00  -0.2131021728E-18   0.4575000000E-01   0.0000000000E+00  -0.4673034840E-16  -0.3250000005E+01   0.2567318547E-14   0.3883643787E-14   0.2192779124E-15  -0.5093875730E-15  -0.5701833929E-16   0.4350000007E-01  -0.2305000004E-01  -0.2305000004E-01   0.6047425918E-16   0.3170040840E-17   0.4202384807E-16   0.3250000005E+01
   0.1043500000E+01   0.9769500000E+00  -0.2406229827E-16  -0.2250000000E-02   0.6750000000E-03   0.3952184427E-18   0.4575000000E-01  -0.2372500000E-01  -0.2445751671E-16  -0.3250000005E+01  -0.4398118440E-14  -0.7453080971E-14   0.2494159753E-15  -0.7293814625E-15  -0.3407553078E-15   0.4350000006E-01  -0.2305000003E-01  -0.2305000003E-01   0.3134090568E-16  -0.3165212952E-16  -0.1701953646E-16   0.3250000005E+01
   0.0000000000E+00   0.9769500000E+00   0.3027003801E-17   0.0000000000E+00   0.6750000000E-03   0.9323747944E-18   0.0000000000E+00  -0.2372500000E-01   0.2094629007E-17  -0.3250000005E+01   0.1453110358E-14  -0.2453379392E-14  -0.6275384854E-15  -0.7280490150E-15  -0.3533423494E-15   0.4350000006E-01  -0.2305000003E-01  -0.2305000003E-01   0.5443468675E-16  -0.2297471781E-16  -0.5702376268E-16   0.3250000005E+01
   0.0000000000E+00   0.0000000000E+00   0.9769500000E+00   0.0000000000E+00   0.0000000000E+00   0.6750000000E-03   0.0000000000E+00   0.0000000000E+00  -0.2372500000E-01  -0.3250000005E+01  -0.1166802048E-14   0.2534366728E-14  -0.2736464237E-16   0.7035949443E-15   0.1621300930E-15   0.4350000006E-01  -0.2305000003E-01  -0.2305000003E-01   0.3393733462E-17  -0.1414257981E-15  -0.3709374671E-16   0.3250000005E+01
   0.1043500000E+01   0.0000000000E+00   0.9769500000E+00  -0.2250000000E-02   0.0000000000E+00   0.6750000000E-03   0.4575000000E-01   0.0000000000E+00  -0.2372500000E-01  -0.3250000005E+01  -0.2976606056E-14  -0.3339421024E-14   0.3142718659E-15  -0.1179713133E-14   0.4636753799E-15   0.4350000006E-01  -0.2305000003E-01  -0.2305000003E-01   0.3285308996E-16  -0.1921961356E-16   0.6261757235E-16   0.3250000005E+01
   0.1043500000E+01   0.9769500000E+00   0.9769500000E+00  -0.2250000000E-02   0.6750000000E-03   0.6750000000E-03   0.4575000000E-01  -0.2372500000E-01  -0.2372500000E-01  -0.3250000004E+01   0.3106488009E-14   0.6139673189E-14   0.6064237218E-15  -0.3764221498E-15  -0.5261211749E-15   0.4350000006E-01  -0.2305000003E-01  -0.2305000003E-01   0.5707205199E-16  -0.2901703842E-16  -0.2864099277E-16   0.3250000004E+01
   0.0000000000E+00   0.9769500000E+00   0.9769500000E+00   0.0000000000E+00   0.6750000000E-03   0.6750000000E-03   0.0000000000E+00  -0.2372500000E-01  -0.2372500000E-01  -0.3250000004E+01   0.4017121122E-14   0.4069714819E-14   0.3769554164E-15   0.1436426037E-14  -0.1299415716E-14   0.4350000006E-01  -0.2305000003E-01  -0.2305000003E-01   0.6154204456E-17  -0.7049187368E-18  -0.1089888725E-15   0.3250000004E+01
   0.2087000000E+01   0.0000000000E+00  -0.1169258290E-15  -0.4500000000E-02   0.0000000000E+00  -0.1977848872E-17   0.9150000000E-01   0.0000000000E+00  -0.1149479802E-15  -0.3250000005E+01  -0.2697591343E-14  -0.3137694838E-14  -0.9709574220E-15   0.1177186322E-14   0.3124895587E-15   0.4350000007E-01  -0.2305000003E-01  -0.2305000003E-01  -0.4123355608E-17  -0.1597853777E-15   0.2854777068E-16   0.3250000005E+01
   0.2087000000E+01   0.9769500000E+00  -0.1022191780E-15  -0.4500000000E-02   0.6750000000E-03  -0.2317316412E-17   0.9150000000E-01  -0.2372500000E-01  -0.9990186163E-16  -0.3250000005E+01   0.6054413790E-14   0.8466087723E-14  -0.1073089307E-14   0.9865049692E-15  -0.4128636379E-16   0.4350000006E-01  -0.2305000003E-01  -0.2305000003E-01  -0.6744157599E-16  -0.7859106643E-16   0.6727894483E-17   0.3250000005E+01
   0.2087000000E+01   0.0000000000E+00   0.9769500000E+00  -0.4500000000E-02   0.0000000000E+00   0.6750000000E-03   0.9150000000E-01   0.0000000000E+00  -0.2372500000E-01  -0.3250000005E+01   0.3523746374E-14   0.3712056907E-14  -0.1201174073E-15   0.1786923461E-14  -0.3021837108E-16   0.4350000006E-01  -0.2305000003E-01  -0.2305000003E-01   0.1455948658E-15  -0.4049675946E-16  -0.1920113661E-16   0.3250000005E+01
   0.2087000000E+01   0.9769500000E+00   0.9769500000E+00  -0.4500000000E-02   0.6750000000E-03   0.6750000000E-03   0.9150000000E-01  -0.2372500000E-01  -0.2372500000E-01  -0.3250000004E+01  -0.4266777599E-14  -0.7840200096E-14  -0.8851380564E-15  -0.1558058166E-14   0.6855866528E-15   0.4350000006E-01  -0.2305000003E-01  -0.2305000003E-01   0.8621524276E-16  -0.1588062109E-15  -0.3727806642E-16   0.3250000004E+01
     1     2     3     4     5     6     7     8
     2     9    10     3     6    11    12     7
 VARIABLES = X,Y,Z,DU1,DU2,DU3,U1,U2,U3,S11,S22,S33,S12,S13,S23,E11,E22,E33,E12,E13,E23,SMISES
 ZONE, T="0.3750D+01" F=FEPOINT, I=   12 J=    2 ET=BRICK
   0.0000000000E+00   0.0000000000E+00   0.0000000000E+00   0.0000000000E+00   0.0000000000E+00   0.0000000000E+00   0.0000000000E+00   0.0000000000E+00   0.0000000000E+00  -0.4375000007E+01  -0.2498587731E-14  -0.3572940906E-14   0.2628505020E-15   0.1493068030E-14   0.1389724653E-14   0.4125000006E-01  -0.2237500004E-01  -0.2237500004E-01  -0.3887745857E-18  -0.8410479957E-16   0.1422335216E-17   0.4375000007E+01
   0.1041250000E+01   0.0000000000E+00  -0.4639801118E-16  -0.2250000000E-02   0.0000000000E+00   0.5454393882E-18   0.4350000000E-01   0.0000000000E+00  -0.4694345057E-16  -0.4375000007E+01   0.2188170358E-14   0.3282451018E-14   0.1645925558E-15  -0.3397957082E-15  -0.1749190456E-15   0.4125000006E-01  -0.2237500003E-01  -0.2237500003E-01   0.6880958653E-16  -0.4568168411E-17   0.4439334622E-16   0.4375000007E+01
   0.1041250000E+01   0.9776250000E+00  -0.2424842692E-16  -0.2250000000E-02   0.6750000000E-03  -0.1861286517E-18   0.4350000000E-01  -0.2305000000E-01  -0.2406229827E-16  -0.4375000006E+01  -0.4014984764E-14  -0.7029310319E-14   0.1808411082E-15  -0.6588359289E-15  -0.6367209228E-15   0.4125000006E-01  -0.2237500003E-01  -0.2237500003E-01   0.6465885495E-16   0.1828662757E-16  -0.4028153768E-16   0.4375000006E+01
   0.0000000000E+00   0.9776250000E+00   0.2735697708E-17   0.0000000000E+00   0.6750000000E-03  -0.2913060932E-18   0.0000000000E+00  -0.2305000000E-01   0.3027003801E-17  -0.4375000006E+01   0.1610943385E-14  -0.2315864852E-14  -0.4074939441E-15  -0.7838675530E-15  -0.2838787615E-15   0.4125000006E-01  -0.2237500003E-01  -0.2237500003E-01   0.5277554230E-16  -0.3309761880E-16  -0.4632451767E-16   0.4375000006E+01
   0.0000000000E+00   0.0000000000E+00   0.9776250000E+00   0.0000000000E+00   0.0000000000E+00   0.6750000000E-03   0.0000000000E+00   0.0000000000E+00  -0.2305000000E-01  -0.4375000006E+01  -0.1454517004E-14   0.2191140636E-14  -0.4036775614E-16   0.7345454412E-15   0.1685267643E-15   0.4125000006E-01  -0.2237500003E-01  -0.2237500003E-01   0.2011839245E-17  -0.1236040466E-15  -0.3408239954E-16   0.4375000006E+01
   0.1041250000E+01   0.0000000000E+00   0.9776250000E+00  -0.2250000000E-02   0.0000000000E+00   0.6750000000E-03   0.4350000000E-01   0.0000000000E+00  -0.2305000000E-01  -0.4375000006E+01  -0.2856153936E-14  -0.3107946626E-14   0.1727487704E-15  -0.1055906425E-14   0.3073148513E-15   0.4125000006E-01  -0.2237500003E-01  -0.2237500003E-01   0.4384170270E-16  -0.2221534541E-16   0.5980789066E-16   0.4375000006E+01
   0.1041250000E+01   0.9776250000E+00   0.9776250000E+00  -0.2250000000E-02   0.6750000000E-03   0.6750000000E-03   0.4350000000E-01  -0.2305000000E-01  -0.2305000000E-01  -0.4375000006E+01   0.2445798614E-14   0.5519620770E-14   0.5613887062E-15  -0.4457929543E-15  -0.7587863655E-15   0.4125000005E-01  -0.2237500003E-01  -0.2237500003E-01   0.3762941077E-16  -0.3747228360E-16  -0.1725687199E-16   0.4375000006E+01
   0.0000000000E+00   0.9776250000E+00   0.9776250000E+00   0.0000000000E+00   0.6750000000E-03   0.6750000000E-03   0.0000000000E+00  -0.2305000000E-01  -0.2305000000E-01  -0.4375000006E+01   0.4741488156E-14   0.4773763366E-14   0.1253267167E-15   0.1265823671E-14  -0.1155826256E-14   0.4125000006E-01  -0.2237500003E-01  -0.2237500003E-01   0.2416095491E-17  -0.4267493055E-17  -0.9512584472E-16   0.4375000006E+01
   0.2082500000E+01   0.0000000000E+00  -0.1168960877E-15  -0.4500000000E-02   0.0000000000E+00   0.2974138549E-19   0.8700000000E-01   0.0000000000E+00  -0.1169258290E-15  -0.4375000007E+01  -0.4724477477E-14  -0.5578921815E-14   0.4241999862E-15   0.2453514052E-14   0.5008363832E-15   0.4125000006E-01  -0.2237500003E-01  -0.2237500003E-01  -0.4436705377E-17  -0.1526617404E-15   0.1925622659E-16   0.4375000007E+01
   0.2082500000E+01   0.9776250000E+00  -0.1012536185E-15  -0.4500000000E-02   0.6750000000E-03   0.9655595351E-18   0.8700000000E-01  -0.2305000000E-01  -0.1022191780E-15  -0.4375000006E+01   0.7098966233E-14   0.9753003208E-14   0.1076876824E-15  -0.3566007239E-15   0.3466312902E-15   0.4125000006E-01  -0.2237500003E-01  -0.2237500003E-01  -0.8381019177E-16  -0.1280734640E-15   0.3576107592E-16   0.4375000006E+01
   0.2082500000E+01   0.0000000000E+00   0.9776250000E+00  -0.4500000000E-02   0.0000000000E+00   0.6750000000E-03   0.8700000000E-01   0.0000000000E+00  -0.2305000000E-01  -0.4375000006E+01   0.5154617403E-14   0.5095120515E-14  -0.1509927769E-14   0.2816362543E-14   0.2464574888E-15   0.4125000006E-01  -0.2237500003E-01  -0.2237500003E-01   0.9900836904E-16  -0.1382492487E-15  -0.1287280460E-16   0.4375000006E+01
   0.2082500000E+01   0.9776250000E+00   0.9776250000E+00  -0.4500000000E-02   0.6750000000E-03   0.6750000000E-03   0.8700000000E-01  -0.2305000000E-01  -0.2305000000E-01  -0.4375000006E+01  -0.4787959694E-14  -0.8785152865E-14  -0.1942277255E-14  -0.2199671569E-14   0.1188273877E-14   0.4125000005E-01  -0.2237500003E-01  -0.2237500003E-01   0.7355339616E-16  -0.7381647446E-16  -0.3718057635E-16   0.4375000006E+01
     1     2     3     4     5     6     7     8
     2     9    10     3     6    11    12     7
 VARIABLES = X,Y,Z,DU1,DU2,DU3,U1,U2,U3,S11,S22,S33,S12,S13,S23,E11,E22,E33,E12,E13,E23,SMISES
 ZONE, T="0.3800D+01" F=FEPOINT, I=   12 J=    2 ET=BRICK
   0.0000000000E+00   0.0000000000E+00   0.0000000000E+00   0.0000000000E+00   0.0000000000E+00   0.0000000000E+00   0.0000000000E+00   0.0000000000E+00   0.0000000000E+00  -0.5500000009E+01  -0.3218239872E-14  -0.3725863499E-14   0.3062020173E-15   0.1341771768E-14   0.1234840587E-14   0.3900000006E-01  -0.2170000003E-01  -0.2170000003E-01  -0.2483735865E-17  -0.9133474043E-16   0.4354763980E-17   0.5500000009E+01
   0.1039000000E+01   0.0000000000E+00  -0.4566379149E-16  -0.2250000000E-02   0.0000000000E+00   0.7342196894E-18   0.4125000000E-01   0.0000000000E+00  -0.4639801118E-16  -0.5500000008E+01   0.3031726175E-14   0.4863984710E-14   0.3355524025E-15   0.1202016083E-15  -0.8137456241E-16   0.3900000006E-01  -0.2170000003E-01  -0.2170000003E-01   0.7769234744E-16   0.4184766547E-16   0.5106279710E-16   0.5500000008E+01
   0.1039000000E+01   0.9783000000E+00  -0.2295332174E-16  -0.2250000000E-02   0.6750000000E-03   0.1295105180E-17   0.4125000000E-01  -0.2237500000E-01  -0.2424842692E-16  -0.5500000008E+01  -0.4907148582E-14  -0.7471940622E-14   0.4191744694E-15  -0.8260598744E-15  -0.6962549369E-17   0.3900000006E-01  -0.2170000003E-01  -0.2170000003E-01   0.4997089536E-16  -0.3130740658E-16  -0.4280770514E-16   0.5500000008E+01
   0.0000000000E+00   0.9783000000E+00   0.1865404626E-17   0.0000000000E+00   0.6750000000E-03  -0.8702930815E-18   0.0000000000E+00  -0.2237500000E-01   0.2735697708E-17  -0.5500000008E+01   0.1348795705E-14  -0.1867060811E-14  -0.5756509376E-15  -0.5069875608E-15  -0.2893993148E-15   0.3900000006E-01  -0.2170000003E-01  -0.2170000003E-01   0.5574843415E-16  -0.2431292839E-16  -0.3463258759E-16   0.5500000008E+01
   0.0000000000E+00   0.0000000000E+00   0.9783000000E+00   0.0000000000E+00   0.0000000000E+00   0.6750000000E-03   0.0000000000E+00   0.0000000000E+00  -0.2237500000E-01  -0.5500000008E+01  -0.1184398409E-14   0.2351500290E-14  -0.5944014002E-16   0.5518355944E-15  -0.7346452663E-16   0.3900000006E-01  -0.2170000003E-01  -0.2170000003E-01   0.4216206363E-18  -0.1360820729E-15  -0.3447634625E-16   0.5500000008E+01
   0.1039000000E+01   0.0000000000E+00   0.9783000000E+00  -0.2250000000E-02   0.0000000000E+00   0.6750000000E-03   0.4125000000E-01   0.0000000000E+00  -0.2237500000E-01  -0.5500000008E+01  -0.3415250896E-14  -0.4127465692E-14  -0.4602344486E-16  -0.7302036231E-15   0.3957303710E-15   0.3900000006E-01  -0.2170000003E-01  -0.2170000003E-01   0.2585496084E-16  -0.1527346329E-17   0.4932010680E-16   0.5500000008E+01
   0.1039000000E+01   0.9783000000E+00   0.9783000000E+00  -0.2250000000E-02   0.6750000000E-03   0.6750000000E-03   0.4125000000E-01  -0.2237500000E-01  -0.2237500000E-01  -0.5500000007E+01   0.3570895637E-14   0.6350829095E-14   0.2383057766E-15  -0.7162329356E-15  -0.1641641056E-15   0.3900000005E-01  -0.2170000003E-01  -0.2170000003E-01   0.4599342799E-16  -0.4970068740E-17   0.1171092204E-16   0.5500000007E+01
   0.0000000000E+00   0.9783000000E+00   0.9783000000E+00   0.0000000000E+00   0.6750000000E-03   0.6750000000E-03   0.0000000000E+00  -0.2237500000E-01  -0.2237500000E-01  -0.5500000007E+01   0.3547998545E-14   0.3387248116E-14   0.4667873668E-15   0.1781888467E-14  -0.1287708210E-14   0.3900000005E-01  -0.2170000003E-01  -0.2170000003E-01   0.2922492928E-17   0.1032085690E-17  -0.1214005958E-15   0.5500000007E+01
   0.2078000000E+01   0.0000000000E+00  -0.1093731448E-15  -0.4500000000E-02   0.0000000000E+00   0.7522942873E-17   0.8250000000E-01   0.0000000000E+00  -0.1168960877E-15  -0.5500000008E+01  -0.1370038866E-14  -0.1648323815E-14  -0.2064985711E-14  -0.2743867463E-15   0.9264965659E-16   0.3900000006E-01  -0.2170000003E-01  -0.2170000003E-01  -0.3608631201E-16  -0.1701835806E-15   0.2400913011E-16   0.5500000008E+01
   0.2078000000E+01   0.9783000000E+00  -0.9576186758E-16  -0.4500000000E-02   0.6750000000E-03   0.5491750924E-17   0.8250000000E-01  -0.2237500000E-01  -0.1012536185E-15  -0.5500000008E+01   0.4704550044E-14   0.7457457332E-14  -0.2052205196E-14   0.1292061485E-14  -0.1133390941E-15   0.3900000005E-01  -0.2170000003E-01  -0.2170000003E-01  -0.1086782418E-15  -0.1154054422E-15   0.2544735580E-16   0.5500000008E+01
   0.2078000000E+01   0.0000000000E+00   0.9783000000E+00  -0.4500000000E-02   0.0000000000E+00   0.6750000000E-03   0.8250000000E-01   0.0000000000E+00  -0.2237500000E-01  -0.5500000008E+01   0.1561801222E-14   0.1934241498E-14   0.1014377970E-14   0.5930057542E-15  -0.3612312079E-15   0.3900000005E-01  -0.2170000003E-01  -0.2170000003E-01   0.1273188524E-15  -0.1057306972E-15  -0.1813346064E-16   0.5500000008E+01
   0.2078000000E+01   0.9783000000E+00   0.9783000000E+00  -0.4500000000E-02   0.6750000000E-03   0.6750000000E-03   0.8250000000E-01  -0.2237500000E-01  -0.2237500000E-01  -0.5500000007E+01  -0.3061136064E-14  -0.7120014092E-14   0.6693005766E-16  -0.7492872511E-15   0.5147399092E-15   0.3900000005E-01  -0.2170000003E-01  -0.2170000003E-01   0.9459601419E-16  -0.1633063372E-15  -0.4450619493E-16   0.5500000007E+01
     1     2     3     4     5     6     7     8
     2     9    10     3     6    11    12     7
 VARIABLES = X,Y,Z,DU1,DU2,DU3,U1,U2,U3,S11,S22,S33,S12,S13,S23,E11,E22,E33,E12,E13,E23,SMISES
 ZONE, T="0.3850D+01" F=FEPOINT, I=   12 J=    2 ET=BRICK
   0.0000000000E+00   0.0000000000E+00   0.0000000000E+00   0.0000000000E+00   0.0000000000E+00   0.0000000000E+00   0.0000000000E+00   0.0000000000E+00   0.0000000000E+00  -0.6625000010E+01  -0.2785768727E-14  -0.3699032766E-14   0.3047909561E-15   0.9002199317E-15   0.1386782064E-14   0.3675000006E-01  -0.2102500003E-01  -0.2102500003E-01   0.2637750962E-17  -0.9211806113E-16   0.4018374155E-17   0.6625000010E+01
   0.1036750000E+01   0.0000000000E+00  -0.4905607779E-16  -0.2250000000E-02   0.0000000000E+00  -0.3392286300E-17   0.3900000000E-01   0.0000000000E+00  -0.4566379149E-16  -0.6625000010E+01   0.2889496721E-14   0.4660799762E-14  -0.2902754643E-16   0.3113282526E-15  -0.8987475318E-16   0.3675000006E-01  -0.2102500003E-01  -0.2102500003E-01   0.5875701267E-16   0.1174224634E-16   0.3814698347E-16   0.6625000010E+01
   0.1036750000E+01   0.9789750000E+00  -0.2636052579E-16  -0.2250000000E-02   0.6750000000E-03  -0.3407204056E-17   0.3900000000E-01  -0.2170000000E-01  -0.2295332174E-16  -0.6625000009E+01  -0.5004755495E-14  -0.7937807039E-14  -0.3326472564E-16  -0.3445038057E-15  -0.2715113179E-15   0.3675000005E-01  -0.2102500003E-01  -0.2102500003E-01   0.3889036056E-16  -0.1631012726E-16  -0.1601968665E-16   0.6625000009E+01
   0.0000000000E+00   0.9789750000E+00   0.2584740931E-17   0.0000000000E+00   0.6750000000E-03   0.7193363052E-18   0.0000000000E+00  -0.2170000000E-01   0.1865404626E-17  -0.6625000010E+01   0.7151325006E-15  -0.2508890490E-14  -0.6441356576E-15  -0.1148028641E-14  -0.6095504122E-15   0.3675000005E-01  -0.2102500003E-01  -0.2102500003E-01   0.5220691774E-16  -0.3235590533E-16  -0.4267670581E-16   0.6625000010E+01
   0.0000000000E+00   0.0000000000E+00   0.9789750000E+00   0.0000000000E+00   0.0000000000E+00   0.6750000000E-03   0.0000000000E+00   0.0000000000E+00  -0.2170000000E-01  -0.6625000010E+01  -0.2702617625E-15   0.2626529396E-14  -0.2412959856E-16   0.3165407784E-15   0.2903129848E-15   0.3675000005E-01  -0.2102500003E-01  -0.2102500003E-01   0.5821963368E-18  -0.1378546568E-15  -0.4540300096E-16   0.6625000010E+01
   0.1036750000E+01   0.0000000000E+00   0.9789750000E+00  -0.2250000000E-02   0.0000000000E+00   0.6750000000E-03   0.3900000000E-01   0.0000000000E+00  -0.2170000000E-01  -0.6625000009E+01  -0.3390946857E-14  -0.3875672743E-14  -0.1839753400E-15  -0.6308198077E-15   0.4031172965E-15   0.3675000005E-01  -0.2102500003E-01  -0.2102500003E-01   0.2511633190E-16  -0.1809921488E-16   0.6836310378E-16   0.6625000009E+01
   0.1036750000E+01   0.9789750000E+00   0.9789750000E+00  -0.2250000000E-02   0.6750000000E-03   0.6750000000E-03   0.3900000000E-01  -0.2170000000E-01  -0.2170000000E-01  -0.6625000009E+01   0.3339421230E-14   0.6827584212E-14   0.3342799482E-15  -0.2881672509E-15  -0.4785537662E-15   0.3675000005E-01  -0.2102500003E-01  -0.2102500003E-01   0.2659953917E-16  -0.2083827625E-16  -0.2953384611E-16   0.6625000009E+01
   0.0000000000E+00   0.9789750000E+00   0.9789750000E+00   0.0000000000E+00   0.6750000000E-03   0.6750000000E-03   0.0000000000E+00  -0.2170000000E-01  -0.2170000000E-01  -0.6625000009E+01   0.5178869676E-14   0.5958552607E-14   0.4455815553E-15   0.1053330390E-14  -0.1363212111E-14   0.3675000005E-01  -0.2102500003E-01  -0.2102500003E-01   0.1352563801E-16   0.1585374791E-17  -0.1061330413E-15   0.6625000009E+01
   0.2073500000E+01   0.0000000000E+00  -0.1207534645E-15  -0.4500000000E-02   0.0000000000E+00  -0.1138031967E-16   0.7800000000E-01   0.0000000000E+00  -0.1093731448E-15  -0.6625000010E+01  -0.3226939969E-14  -0.4182976722E-14  -0.1041340436E-14   0.6190014412E-15   0.2964749870E-15   0.3675000006E-01  -0.2102500003E-01  -0.2102500003E-01  -0.2847959772E-16  -0.1990497486E-15   0.2658308682E-16   0.6625000010E+01
   0.2073500000E+01   0.9789750000E+00  -0.1061457665E-15  -0.4500000000E-02   0.6750000000E-03  -0.1038389893E-16   0.7800000000E-01  -0.2170000000E-01  -0.9576186758E-16  -0.6625000009E+01   0.6732894978E-14   0.9372057754E-14  -0.1001199076E-14   0.4621819511E-15   0.8843283886E-16   0.3675000005E-01  -0.2102500003E-01  -0.2102500003E-01  -0.9320465025E-16  -0.3619530947E-17   0.2838485821E-16   0.6625000009E+01
   0.2073500000E+01   0.0000000000E+00   0.9789750000E+00  -0.4500000000E-02   0.0000000000E+00   0.6750000000E-03   0.7800000000E-01   0.0000000000E+00  -0.2170000000E-01  -0.6625000009E+01   0.2952301928E-14   0.3035034439E-14  -0.1983117522E-17   0.1740714275E-14  -0.9622098326E-16   0.3675000005E-01  -0.2102500003E-01  -0.2102500003E-01   0.1185473820E-15  -0.1109228379E-15  -0.1973590397E-16   0.6625000009E+01
   0.2073500000E+01   0.9789750000E+00   0.9789750000E+00  -0.4500000000E-02   0.6750000000E-03   0.6750000000E-03   0.7800000000E-01  -0.2170000000E-01  -0.2170000000E-01  -0.6625000008E+01  -0.3630392192E-14  -0.8174725761E-14  -0.5904038599E-15  -0.1662096854E-14   0.8098916375E-15   0.3675000005E-01  -0.2102500003E-01  -0.2102500003E-01   0.8899381823E-16  -0.1137654892E-15  -0.3467084200E-16   0.6625000008E+01
     1     2     3     4     5     6     7     8
     2     9    10     3     6    11    12     7
 VARIABLES = X,Y,Z,DU1,DU2,DU3,U1,U2,U3,S11,S22,S33,S12,S13,S23,E11,E22,E33,E12,E13,E23,SMISES
 ZONE, T="0.3900D+01" F=FEPOINT, I=   12 J=    2 ET=BRICK
   0.0000000000E+00   0.0000000000E+00   0.0000000000E+00   0.0000000000E+00   0.0000000000E+00   0.0000000000E+00   0.0000000000E+00   0.0000000000E+00   0.0000000000E+00  -0.7750000012E+01  -0.5894783557E-14  -0.6244574294E-14   0.2061212396E-15   0.7408590443E-16   0.7744225410E-15   0.2950000005E-01  -0.1785000003E-01  -0.1785000003E-01   0.8310286563E-18  -0.9196840884E-16   0.1255597633E-16   0.7750000012E+01
   0.1029500000E+01   0.0000000000E+00  -0.5037165106E-16  -0.7250000000E-02   0.0000000000E+00  -0.1315573272E-17   0.3675000000E-01   0.0000000000E+00  -0.4905607779E-16  -0.7750000012E+01   0.5852296591E-14   0.6702755474E-14   0.4967586357E-15   0.4346261013E-15  -0.2802707923E-15   0.2950000005E-01  -0.1785000003E-01  -0.1785000003E-01   0.7082690437E-16  -0.2958781978E-17   0.4232724476E-16   0.7750000012E+01
   0.1029500000E+01   0.9821500000E+00  -0.2919659803E-16  -0.7250000000E-02   0.3175000000E-02  -0.2836072239E-17   0.3675000000E-01  -0.2102500000E-01  -0.2636052579E-16  -0.7750000011E+01  -0.9654666980E-14  -0.1062411917E-13   0.4870259726E-15  -0.5676878000E-15   0.3739544027E-16   0.2950000004E-01  -0.1785000003E-01  -0.1785000003E-01   0.5257224100E-16  -0.2760912770E-16  -0.2896127119E-16   0.7750000011E+01
   0.0000000000E+00   0.9821500000E+00   0.8178767178E-18   0.0000000000E+00   0.3175000000E-02  -0.1766864214E-17   0.0000000000E+00  -0.2102500000E-01   0.2584740931E-17  -0.7750000011E+01   0.1834784883E-14  -0.6918971330E-15  -0.4140714956E-15  -0.1300251245E-14  -0.5491577257E-15   0.2950000004E-01  -0.1785000003E-01  -0.1785000003E-01   0.5530913068E-16  -0.3479731509E-16  -0.6916648686E-16   0.7750000011E+01
   0.0000000000E+00   0.0000000000E+00   0.9821500000E+00   0.0000000000E+00   0.0000000000E+00   0.3175000000E-02   0.0000000000E+00   0.0000000000E+00  -0.2102500000E-01  -0.7750000011E+01   0.2157745142E-14   0.3059729729E-14   0.2170665925E-16   0.1091242459E-15   0.2794724029E-16   0.2950000004E-01  -0.1785000003E-01  -0.1785000003E-01   0.7272431765E-17  -0.1219029588E-15  -0.5850409422E-16   0.7750000011E+01
   0.1029500000E+01   0.0000000000E+00   0.9821500000E+00  -0.7250000000E-02   0.0000000000E+00   0.3175000000E-02   0.3675000000E-01   0.0000000000E+00  -0.2102500000E-01  -0.7750000011E+01  -0.3734902140E-14  -0.3794398705E-14  -0.6348906736E-15  -0.1876084504E-15   0.5024630904E-15   0.2950000004E-01  -0.1785000003E-01  -0.1785000003E-01   0.1367086135E-16  -0.2764199746E-16   0.5490342601E-16   0.7750000011E+01
   0.1029500000E+01   0.9821500000E+00   0.9821500000E+00  -0.7250000000E-02   0.3175000000E-02   0.3175000000E-02   0.3675000000E-01  -0.2102500000E-01  -0.2102500000E-01  -0.7750000010E+01   0.6058399195E-14   0.8484947415E-14   0.1078550710E-15  -0.4435025120E-15  -0.8611084672E-16   0.2950000004E-01  -0.1785000002E-01  -0.1785000002E-01   0.5206280947E-16   0.1537751629E-16  -0.1673129936E-16   0.7750000010E+01
   0.0000000000E+00   0.9821500000E+00   0.9821500000E+00   0.0000000000E+00   0.3175000000E-02   0.3175000000E-02   0.0000000000E+00  -0.2102500000E-01  -0.2102500000E-01  -0.7750000010E+01   0.2191765793E-14   0.2451529816E-14   0.8730727389E-15   0.1020325328E-14  -0.1190474601E-14   0.2950000004E-01  -0.1785000002E-01  -0.1785000002E-01   0.1396832078E-17  -0.1957219935E-16  -0.1064573212E-15   0.7750000010E+01
   0.2059000000E+01   0.0000000000E+00  -0.1174223568E-15  -0.1450000000E-01   0.0000000000E+00   0.3331107629E-17   0.7350000000E-01   0.0000000000E+00  -0.1207534645E-15  -0.7750000012E+01  -0.4488558948E-15  -0.1399448515E-14  -0.1779233681E-14   0.9913020123E-16   0.2186211314E-16   0.2950000004E-01  -0.1785000003E-01  -0.1785000003E-01  -0.2919182070E-16  -0.1271843284E-15   0.2751982684E-16   0.7750000012E+01
   0.2059000000E+01   0.9821500000E+00  -0.1050068410E-15  -0.1450000000E-01   0.3175000000E-02   0.1138925529E-17   0.7350000000E-01  -0.2102500000E-01  -0.1061457665E-15  -0.7750000011E+01   0.6079108607E-14   0.6948427110E-14  -0.1606758576E-14   0.8861893973E-15  -0.2827483705E-16   0.2950000004E-01  -0.1785000002E-01  -0.1785000002E-01  -0.1143974408E-15  -0.8109568796E-16   0.1167195404E-16   0.7750000011E+01
   0.2059000000E+01   0.0000000000E+00   0.9821500000E+00  -0.1450000000E-01   0.0000000000E+00   0.3175000000E-02   0.7350000000E-01   0.0000000000E+00  -0.2102500000E-01  -0.7750000011E+01   0.1608468846E-14  -0.4632354411E-15  -0.1446143721E-15   0.1335373977E-14   0.1292418080E-15   0.2950000004E-01  -0.1785000002E-01  -0.1785000002E-01   0.7115901830E-16  -0.7016676499E-16  -0.2419489805E-16   0.7750000011E+01
   0.2059000000E+01   0.9821500000E+00   0.9821500000E+00  -0.1450000000E-01   0.3175000000E-02   0.3175000000E-02   0.7350000000E-01  -0.2102500000E-01  -0.2102500000E-01  -0.7750000010E+01  -0.2794130309E-14  -0.5198901308E-14  -0.1003448182E-14  -0.1907642280E-14   0.1203468098E-14   0.2950000004E-01  -0.1785000002E-01  -0.1785000002E-01   0.9453133632E-16  -0.1471328020E-15  -0.1197059469E-16   0.7750000010E+01
     1     2     3     4     5     6     7     8
     2     9    10     3     6    11    12     7
 VARIABLES = X,Y,Z,DU1,DU2,DU3,U1,U2,U3,S11,S22,S33,S12,S13,S23,E11,E22,E33,E12,E13,E23,SMISES
 ZONE, T="0.3950D+01" F=FEPOINT, I=   12 J=    2 ET=BRICK
   0.0000000000E+00   0.0000000000E+00   0.0000000000E+00   0.0000000000E+00   0.0000000000E+00   0.0000000000E+00   0.0000000000E+00   0.0000000000E+00   0.0000000000E+00  -0.8875000014E+01  -0.3361980262E-14  -0.6075905198E-14  -0.3683587149E-16  -0.1980442268E-14  -0.2604070471E-15   0.4750000007E-02  -0.5925000009E-02  -0.5925000009E-02  -0.2902624045E-17  -0.1284759757E-15  -0.1149861725E-16   0.8875000014E+01
   0.1004750000E+01   0.0000000000E+00  -0.7005259270E-16  -0.2475000000E-01   0.0000000000E+00  -0.1968094163E-16   0.2950000000E-01   0.0000000000E+00  -0.5037165106E-16  -0.8875000014E+01   0.4831318369E-14   0.4284178024E-14  -0.2416574988E-15  -0.5766942612E-15   0.2246624123E-15   0.4750000007E-02  -0.5925000009E-02  -0.5925000009E-02   0.6493455696E-16  -0.5294185097E-17   0.4723945380E-16   0.8875000014E+01
   0.1004750000E+01   0.9940750000E+00  -0.4811057322E-16  -0.2475000000E-01   0.1192500000E-01  -0.1891397519E-16   0.2950000000E-01  -0.1785000000E-01  -0.2919659803E-16  -0.8875000013E+01  -0.1106023737E-13  -0.1073514148E-13  -0.4785442299E-15  -0.3422353248E-15  -0.5045155530E-15   0.4750000007E-02  -0.5925000008E-02  -0.5925000008E-02   0.4916843726E-16  -0.1663994222E-16  -0.3908692258E-16   0.8875000013E+01
   0.0000000000E+00   0.9940750000E+00  -0.3594906665E-17   0.0000000000E+00   0.1192500000E-01  -0.4412783383E-17   0.0000000000E+00  -0.1785000000E-01   0.8178767178E-18  -0.8875000013E+01  -0.1857631126E-14  -0.5186164081E-14  -0.2758025626E-16  -0.1710026525E-14  -0.1817637864E-14   0.4750000007E-02  -0.5925000009E-02  -0.5925000009E-02   0.5898302985E-16  -0.6710185399E-16  -0.8362277696E-16   0.8875000013E+01
   0.0000000000E+00   0.0000000000E+00   0.9940750000E+00   0.0000000000E+00   0.0000000000E+00   0.1192500000E-01   0.0000000000E+00   0.0000000000E+00  -0.1785000000E-01  -0.8875000013E+01   0.8055501301E-15   0.6241425702E-15  -0.4044380877E-16  -0.7724208945E-15   0.3864858723E-15   0.4750000007E-02  -0.5925000009E-02  -0.5925000009E-02  -0.1419623698E-18  -0.1385552014E-15  -0.4675960169E-16   0.8875000013E+01
   0.1004750000E+01   0.0000000000E+00   0.9940750000E+00  -0.2475000000E-01   0.0000000000E+00   0.1192500000E-01   0.2950000000E-01   0.0000000000E+00  -0.1785000000E-01  -0.8875000013E+01  -0.4230516903E-14  -0.1944739167E-14  -0.6031680550E-15  -0.1890964996E-15   0.7113946278E-15   0.4750000007E-02  -0.5925000008E-02  -0.5925000008E-02   0.1792367987E-16  -0.2220717711E-16   0.6688056055E-16   0.8875000013E+01
   0.1004750000E+01   0.9940750000E+00   0.9940750000E+00  -0.2475000000E-01   0.1192500000E-01   0.1192500000E-01   0.2950000000E-01  -0.1785000000E-01  -0.1785000000E-01  -0.8875000012E+01   0.7128766821E-14   0.1046527087E-13   0.4917946796E-16   0.1829330364E-15  -0.1915945623E-15   0.4750000006E-02  -0.5925000008E-02  -0.5925000008E-02   0.3309849329E-16  -0.1668697824E-16  -0.1457545420E-16   0.8875000012E+01
   0.0000000000E+00   0.9940750000E+00   0.9940750000E+00   0.0000000000E+00   0.1192500000E-01   0.1192500000E-01   0.0000000000E+00  -0.1785000000E-01  -0.1785000000E-01  -0.8875000012E+01   0.3012762465E-14   0.4125902970E-14   0.3437561165E-15   0.6825504179E-15  -0.1678008737E-14   0.4750000006E-02  -0.5925000008E-02  -0.5925000008E-02   0.2087735135E-16   0.1846507791E-16  -0.1128940668E-15   0.8875000012E+01
   0.2009500000E+01   0.0000000000E+00  -0.1600884886E-15  -0.4950000000E-01   0.0000000000E+00  -0.4266613180E-16   0.5900000000E-01   0.0000000000E+00  -0.1174223568E-15  -0.8875000013E+01  -0.1622462361E-13  -0.1529872595E-13  -0.7466180360E-15   0.5141507252E-15  -0.1505522967E-15   0.4750000007E-02  -0.5925000009E-02  -0.5925000009E-02  -0.3586086129E-16  -0.1419405388E-15   0.1864276083E-16   0.8875000013E+01
   0.2009500000E+01   0.9940750000E+00  -0.1520598550E-15  -0.4950000000E-01   0.1192500000E-01  -0.4705301400E-16   0.5900000000E-01  -0.1785000000E-01  -0.1050068410E-15  -0.8875000012E+01   0.1031866443E-13   0.1129608787E-13  -0.2289631071E-15  -0.6662999521E-15  -0.2732313279E-15   0.4750000007E-02  -0.5925000008E-02  -0.5925000008E-02  -0.1168425352E-15  -0.8472798767E-16  -0.5877761903E-18   0.8875000012E+01
   0.2009500000E+01   0.0000000000E+00   0.9940750000E+00  -0.4950000000E-01   0.0000000000E+00   0.1192500000E-01   0.5900000000E-01   0.0000000000E+00  -0.1785000000E-01  -0.8875000012E+01   0.3995447487E-14   0.1750306926E-14  -0.1902661669E-14   0.3511072427E-14   0.1820738240E-15   0.4750000007E-02  -0.5925000008E-02  -0.5925000008E-02   0.3331594710E-16  -0.7124663695E-16  -0.8316891288E-17   0.8875000012E+01
   0.2009500000E+01   0.9940750000E+00   0.9940750000E+00  -0.4950000000E-01   0.1192500000E-01   0.1192500000E-01   0.5900000000E-01  -0.1785000000E-01  -0.1785000000E-01  -0.8875000011E+01  -0.3349527678E-14  -0.2480208973E-14  -0.1338250081E-14  -0.2291953935E-14   0.1286161440E-14   0.4750000006E-02  -0.5925000008E-02  -0.5925000008E-02   0.8550434342E-16  -0.1165108165E-15  -0.1140230695E-16   0.8875000011E+01
     1     2     3     4     5     6     7     8
     2     9    10     3     6    11    12     7
 VARIABLES = X,Y,Z,DU1,DU2,DU3,U1,U2,U3,S11,S22,S33,S12,S13,S23,E11,E22,E33,E12,E13,E23,SMISES
 ZONE, T="0.4000D+01" F=FEPOINT, I=   12 J=    2 ET=BRICK
   0.0000000000E+00   0.0000000000E+00   0.0000000000E+00   0.0000000000E+00   0.0000000000E+00   0.0000000000E+00   0.0000000000E+00   0.0000000000E+00   0.0000000000E+00  -0.1000000002E+02  -0.1831581224E-14  -0.2293462204E-14   0.3467057133E-16   0.4337365940E-15   0.7255821791E-15  -0.2000000003E-01   0.6000000009E-02   0.6000000009E-02   0.4367170879E-18  -0.8754901114E-16   0.1455284355E-16   0.1000000002E+02
   0.9800000000E+00   0.0000000000E+00  -0.5243419052E-16  -0.2475000000E-01   0.0000000000E+00   0.1761840218E-16   0.4750000000E-02   0.0000000000E+00  -0.7005259270E-16  -0.1000000002E+02   0.5644058137E-14   0.4644857557E-14   0.9172935408E-15   0.6593670999E-15   0.9310262272E-16  -0.2000000003E-01   0.6000000009E-02   0.6000000009E-02   0.8686108097E-16   0.1196681954E-16   0.4130544766E-16   0.1000000002E+02
   0.9800000000E+00   0.1006000000E+01  -0.3209730121E-16  -0.2475000000E-01   0.1192500000E-01   0.1601327201E-16   0.4750000000E-02  -0.5925000000E-02  -0.4811057322E-16  -0.1000000001E+02  -0.6494517207E-14  -0.7352947270E-14   0.5792630199E-15  -0.4435711575E-15  -0.6972664445E-16  -0.2000000003E-01   0.6000000009E-02   0.6000000009E-02   0.7528458952E-16  -0.3918108330E-16  -0.3828772019E-16   0.1000000001E+02
   0.0000000000E+00   0.1006000000E+01   0.5771518835E-17   0.0000000000E+00   0.1192500000E-01   0.9366425500E-17   0.0000000000E+00  -0.5925000000E-02  -0.3594906665E-17  -0.1000000001E+02   0.2102233934E-14   0.4161901882E-15  -0.3025038637E-15  -0.6632025087E-15  -0.1177085474E-15  -0.2000000003E-01   0.6000000009E-02   0.6000000009E-02   0.4798610254E-16  -0.5950987003E-16  -0.5255120199E-16   0.1000000001E+02
   0.0000000000E+00   0.0000000000E+00   0.1006000000E+01   0.0000000000E+00   0.0000000000E+00   0.1192500000E-01   0.0000000000E+00   0.0000000000E+00  -0.5925000000E-02  -0.1000000001E+02  -0.5057219438E-15   0.1147655939E-14  -0.1121212403E-15  -0.8405807050E-15  -0.2129947417E-16  -0.2000000003E-01   0.6000000009E-02   0.6000000009E-02  -0.2993891810E-17  -0.1435369056E-15  -0.5519726992E-16   0.1000000001E+02
   0.9800000000E+00   0.0000000000E+00   0.1006000000E+01  -0.2475000000E-01   0.0000000000E+00   0.1192500000E-01   0.4750000000E-02   0.0000000000E+00  -0.5925000000E-02  -0.1000000001E+02  -0.5406071681E-14  -0.4200768596E-14   0.2258643672E-15   0.6489248409E-15   0.8525586740E-16  -0.2000000003E-01   0.6000000009E-02   0.6000000009E-02   0.3412744693E-16   0.1201604605E-16   0.5728752554E-16   0.1000000001E+02
   0.9800000000E+00   0.1006000000E+01   0.1006000000E+01  -0.2475000000E-01   0.1192500000E-01   0.1192500000E-01   0.4750000000E-02  -0.5925000000E-02  -0.5925000000E-02  -0.1000000001E+02   0.4377122706E-14   0.5235552670E-14   0.8746793391E-16  -0.5275768200E-15  -0.2116480149E-15  -0.2000000003E-01   0.6000000008E-02   0.6000000008E-02   0.4199488042E-16  -0.3608634944E-16  -0.5504581354E-17   0.1000000001E+02
   0.0000000000E+00   0.1006000000E+01   0.1006000000E+01   0.0000000000E+00   0.1192500000E-01   0.1192500000E-01   0.0000000000E+00  -0.5925000000E-02  -0.5925000000E-02  -0.1000000001E+02   0.1954065209E-14   0.2627102134E-14  -0.7822188096E-15   0.4234017703E-15  -0.1268447757E-14  -0.2000000003E-01   0.6000000008E-02   0.6000000008E-02  -0.2129370323E-17   0.2663632692E-16  -0.1204359127E-15   0.1000000001E+02
   0.1960000000E+01   0.0000000000E+00  -0.1290857736E-15  -0.4950000000E-01   0.0000000000E+00   0.3100271501E-16   0.9500000000E-02   0.0000000000E+00  -0.1600884886E-15  -0.1000000002E+02  -0.1402809066E-13  -0.1261853494E-13  -0.4693548339E-15  -0.5604607694E-15   0.1043415723E-14  -0.2000000003E-01   0.6000000009E-02   0.6000000009E-02  -0.2685808540E-16  -0.1219004271E-15   0.3662780036E-16   0.1000000002E+02
   0.1960000000E+01   0.1006000000E+01  -0.1119266349E-15  -0.4950000000E-01   0.1192500000E-01   0.4013322005E-16   0.9500000000E-02  -0.5925000000E-02  -0.1520598550E-15  -0.1000000001E+02   0.1093035498E-13   0.8873524925E-14  -0.2309739413E-15   0.9812918944E-15   0.4535262603E-15  -0.2000000003E-01   0.6000000008E-02   0.6000000008E-02  -0.9813236901E-16  -0.9110209503E-16   0.3701980133E-16   0.1000000001E+02
   0.1960000000E+01   0.0000000000E+00   0.1006000000E+01  -0.4950000000E-01   0.0000000000E+00   0.1192500000E-01   0.9500000000E-02   0.0000000000E+00  -0.5925000000E-02  -0.1000000001E+02   0.9053864752E-14   0.6452811932E-14  -0.1011160094E-14   0.1274447485E-14  -0.7997369308E-15  -0.2000000003E-01   0.6000000008E-02   0.6000000008E-02   0.3966885397E-16  -0.7641839946E-16  -0.1909590873E-16   0.1000000001E+02
   0.1960000000E+01   0.1006000000E+01   0.1006000000E+01  -0.4950000000E-01   0.1192500000E-01   0.1192500000E-01   0.9500000000E-02  -0.5925000000E-02  -0.5925000000E-02  -0.1000000001E+02  -0.8357201065E-14  -0.1102863932E-13  -0.4338884023E-15  -0.2364694364E-14   0.4328801571E-15  -0.2000000003E-01   0.6000000008E-02   0.6000000008E-02   0.6129106621E-16  -0.1253263592E-15  -0.3823366280E-16   0.1000000001E+02
     1     2     3     4     5     6     7     8
     2     9    10     3     6    11    12     7
 VARIABLES = X,Y,Z,DU1,DU2,DU3,U1,U2,U3,S11,S22,S33,S12,S13,S23,E11,E22,E33,E12,E13,E23,SMISES
 ZONE, T="0.4050D+01" F=FEPOINT, I=   12 J=    2 ET=BRICK
   0.0000000000E+00   0.0000000000E+00   0.0000000000E+00   0.0000000000E+00   0.0000000000E+00   0.0000000000E+00   0.0000000000E+00   0.0000000000E+00   0.0000000000E+00  -0.8875000014E+01  -0.7735613566E-15  -0.6207532010E-14   0.5044244342E-16   0.4575650501E-15  -0.2635873336E-14  -0.1775000003E-01   0.5325000008E-02   0.5325000008E-02   0.3383849957E-17  -0.9499432393E-16  -0.2283219906E-16   0.8875000014E+01
   0.9822500000E+00   0.0000000000E+00  -0.3717562214E-16   0.2250000000E-02   0.0000000000E+00   0.1525856838E-16  -0.2000000000E-01   0.0000000000E+00  -0.5243419052E-16  -0.8875000014E+01   0.3892396279E-14   0.1112051578E-13  -0.1805487759E-14  -0.1341029392E-16  -0.8520514446E-15  -0.1775000003E-01   0.5325000008E-02   0.5325000008E-02   0.5584590771E-16   0.1381172095E-16   0.3127981600E-16   0.8875000014E+01
   0.9822500000E+00   0.1005325000E+01  -0.2173887409E-16   0.2250000000E-02  -0.6750000000E-03   0.1035842712E-16  -0.2000000000E-01   0.6000000000E-02  -0.3209730121E-16  -0.8875000013E+01  -0.1401136700E-13  -0.6539425595E-14  -0.1431514458E-14  -0.6737413888E-15   0.4019388590E-14  -0.1775000003E-01   0.5325000008E-02   0.5325000008E-02   0.5442006013E-16  -0.4748510028E-16  -0.9300017911E-19   0.8875000013E+01
   0.0000000000E+00   0.1005325000E+01  -0.1161432075E-16   0.0000000000E+00  -0.6750000000E-03  -0.1738583959E-16   0.0000000000E+00   0.6000000000E-02   0.5771518835E-17  -0.8875000013E+01   0.7309783171E-14   0.9943502161E-14  -0.3647642167E-14   0.2473400826E-14  -0.3505149607E-14  -0.1775000003E-01   0.5325000008E-02   0.5325000008E-02   0.1356592938E-16  -0.1780097852E-16  -0.7850060564E-16   0.8875000013E+01
   0.0000000000E+00   0.0000000000E+00   0.1005325000E+01   0.0000000000E+00   0.0000000000E+00  -0.6750000000E-03   0.0000000000E+00   0.0000000000E+00   0.6000000000E-02  -0.8875000013E+01  -0.1277592604E-13  -0.1466301891E-13  -0.9495913529E-16   0.4515474804E-14   0.1020411731E-14  -0.1775000003E-01   0.5325000008E-02   0.5325000008E-02   0.1548162628E-17  -0.9327300343E-16  -0.4895329185E-16   0.8875000013E+01
   0.9822500000E+00   0.0000000000E+00   0.1005325000E+01   0.2250000000E-02   0.0000000000E+00  -0.6750000000E-03  -0.2000000000E-01   0.0000000000E+00   0.6000000000E-02  -0.8875000013E+01  -0.5135419482E-14  -0.6237671184E-14  -0.3113369667E-14   0.2677362406E-14  -0.9186223517E-15  -0.1775000003E-01   0.5325000008E-02   0.5325000008E-02  -0.8065423048E-17   0.4524397919E-16   0.5254023052E-16   0.8875000013E+01
   0.9822500000E+00   0.1005325000E+01   0.1005325000E+01   0.2250000000E-02  -0.6750000000E-03  -0.6750000000E-03  -0.2000000000E-01   0.6000000000E-02   0.6000000000E-02  -0.8875000012E+01   0.4633968598E-14   0.3775538802E-14  -0.1750870981E-14  -0.1472019932E-14   0.3786996618E-14  -0.1775000002E-01   0.5325000007E-02   0.5325000007E-02   0.2218080399E-16  -0.3157881353E-16   0.2619173958E-16   0.8875000012E+01
   0.0000000000E+00   0.1005325000E+01   0.1005325000E+01   0.0000000000E+00  -0.6750000000E-03  -0.6750000000E-03   0.0000000000E+00   0.6000000000E-02   0.6000000000E-02  -0.8875000012E+01  -0.1104070133E-13  -0.6858505671E-14   0.2975476466E-14   0.3884344861E-14  -0.2244307388E-15  -0.1775000002E-01   0.5325000007E-02   0.5325000007E-02   0.3647994660E-16   0.5047006055E-16  -0.9762045107E-16   0.8875000012E+01
   0.1964500000E+01   0.0000000000E+00  -0.3820265119E-16   0.4500000000E-02   0.0000000000E+00   0.9088312243E-16  -0.4000000000E-01   0.0000000000E+00  -0.1290857736E-15  -0.8875000013E+01  -0.6495976139E-14  -0.2009680059E-14  -0.7144178879E-14  -0.4541544692E-14  -0.5404872119E-15  -0.1775000003E-01   0.5325000008E-02   0.5325000008E-02  -0.1006992024E-15  -0.1914226428E-15   0.1828159010E-16   0.8875000013E+01
   0.1964500000E+01   0.1005325000E+01  -0.2934838213E-16   0.4500000000E-02  -0.6750000000E-03   0.8257825280E-16  -0.4000000000E-01   0.6000000000E-02  -0.1119266349E-15  -0.8875000012E+01   0.8956257790E-14   0.7194775469E-14  -0.2235893494E-14   0.3418892222E-14   0.4798184765E-15  -0.1775000002E-01   0.5325000007E-02   0.5325000007E-02  -0.1242486935E-15  -0.2814586732E-16   0.3029932533E-16   0.8875000012E+01
   0.1964500000E+01   0.0000000000E+00   0.1005325000E+01   0.4500000000E-02   0.0000000000E+00  -0.6750000000E-03  -0.4000000000E-01   0.0000000000E+00   0.6000000000E-02  -0.8875000012E+01   0.2829036778E-14   0.4303869944E-15   0.3231112934E-15  -0.2496347901E-14  -0.4134762780E-14  -0.1775000002E-01   0.5325000007E-02   0.5325000007E-02   0.5780947428E-16  -0.1502913592E-15  -0.5872452387E-16   0.8875000012E+01
   0.1964500000E+01   0.1005325000E+01   0.1005325000E+01   0.4500000000E-02  -0.6750000000E-03  -0.6750000000E-03  -0.4000000000E-01   0.6000000000E-02   0.6000000000E-02  -0.8875000011E+01  -0.5403830983E-14  -0.1205185805E-13   0.2023522079E-15  -0.6765861890E-15  -0.1194153071E-14  -0.1775000002E-01   0.5325000007E-02   0.5325000007E-02   0.7567126711E-16  -0.1200732093E-15  -0.4147633511E-16   0.8875000011E+01
     1     2     3     4     5     6     7     8
     2     9    10     3     6    11    12     7
 VARIABLES = X,Y,Z,DU1,DU2,DU3,U1,U2,U3,S11,S22,S33,S12,S13,S23,E11,E22,E33,E12,E13,E23,SMISES
 ZONE, T="0.4100D+01" F=FEPOINT, I=   12 J=    2 ET=BRICK
   0.0000000000E+00   0.0000000000E+00   0.0000000000E+00   0.0000000000E+00   0.0000000000E+00   0.0000000000E+00   0.0000000000E+00   0.0000000000E+00   0.0000000000E+00  -0.7750000012E+01  -0.3117767432E-14  -0.4165966929E-14   0.5222656031E-16   0.7855432723E-15   0.5883226515E-15  -0.1550000002E-01   0.4650000007E-02   0.4650000007E-02   0.2354808998E-17  -0.8631337261E-16   0.8737330036E-17   0.7750000012E+01
   0.9845000000E+00   0.0000000000E+00  -0.5115860233E-16   0.2250000000E-02   0.0000000000E+00  -0.1398298020E-16  -0.1775000000E-01   0.0000000000E+00  -0.3717562214E-16  -0.7750000012E+01   0.6461851234E-14   0.5584561536E-14   0.1133136057E-14   0.6170115737E-15  -0.4961477067E-16  -0.1550000002E-01   0.4650000007E-02   0.4650000007E-02   0.8851583627E-16   0.1086192441E-16   0.3910105762E-16   0.7750000012E+01
   0.9845000000E+00   0.1004650000E+01  -0.3153677133E-16   0.2250000000E-02  -0.6750000000E-03  -0.9797897240E-17  -0.1775000000E-01   0.5325000000E-02  -0.2173887409E-16  -0.7750000011E+01  -0.6432102908E-14  -0.7182428223E-14   0.1067643494E-14  -0.6789982436E-15  -0.1541751916E-15  -0.1550000002E-01   0.4650000007E-02   0.4650000007E-02   0.8029570225E-16  -0.4459763994E-16  -0.3798940785E-16   0.7750000011E+01
   0.0000000000E+00   0.1004650000E+01   0.5134431526E-17   0.0000000000E+00  -0.6750000000E-03   0.1674875228E-16   0.0000000000E+00   0.5325000000E-02  -0.1161432075E-16  -0.7750000011E+01   0.2615249528E-14   0.1259745849E-14  -0.2058827313E-15  -0.6261373442E-15   0.1124078137E-15  -0.1550000002E-01   0.4650000007E-02   0.4650000007E-02   0.5015975547E-16  -0.4890445286E-16  -0.3937317605E-16   0.7750000011E+01
   0.0000000000E+00   0.0000000000E+00   0.1004650000E+01   0.0000000000E+00   0.0000000000E+00  -0.6750000000E-03   0.0000000000E+00   0.0000000000E+00   0.5325000000E-02  -0.7750000011E+01  -0.1132677535E-14   0.2253893145E-14  -0.1214940792E-15  -0.8494970913E-15  -0.2656852833E-15  -0.1550000002E-01   0.4650000007E-02   0.4650000007E-02   0.7736127872E-18  -0.1456171584E-15  -0.5521987618E-16   0.7750000011E+01
   0.9845000000E+00   0.0000000000E+00   0.1004650000E+01   0.2250000000E-02   0.0000000000E+00  -0.6750000000E-03  -0.1775000000E-01   0.0000000000E+00   0.5325000000E-02  -0.7750000011E+01  -0.4395982459E-14  -0.4555612661E-14  -0.4386023652E-15   0.1083708367E-14   0.9173454866E-16  -0.1550000002E-01   0.4650000007E-02   0.4650000007E-02   0.2054481827E-16   0.1281261903E-16   0.6115899150E-16   0.7750000011E+01
   0.9845000000E+00   0.1004650000E+01   0.1004650000E+01   0.2250000000E-02  -0.6750000000E-03  -0.6750000000E-03  -0.1775000000E-01   0.5325000000E-02   0.5325000000E-02  -0.7750000010E+01   0.3900367672E-14   0.5931434743E-14  -0.9057611386E-15  -0.1016268732E-14  -0.1682283863E-15  -0.1550000002E-01   0.4650000006E-02   0.4650000006E-02   0.3412553768E-16  -0.3172362660E-16  -0.1631775432E-16   0.7750000010E+01
   0.0000000000E+00   0.1004650000E+01   0.1004650000E+01   0.0000000000E+00  -0.6750000000E-03  -0.6750000000E-03   0.0000000000E+00   0.5325000000E-02   0.5325000000E-02  -0.7750000010E+01   0.1071331155E-14  -0.3344727083E-16  -0.9242236979E-15   0.7857372411E-15  -0.1160525846E-14  -0.1550000002E-01   0.4650000006E-02   0.4650000006E-02  -0.4519117602E-17   0.2195934469E-16  -0.1156902875E-15   0.7750000010E+01
   0.1969000000E+01   0.0000000000E+00  -0.1279271380E-15   0.4500000000E-02   0.0000000000E+00  -0.8972448679E-16  -0.3550000000E-01   0.0000000000E+00  -0.3820265119E-16  -0.7750000012E+01  -0.1023408220E-13  -0.8585080879E-14  -0.6688046055E-15  -0.1083887576E-14   0.1594257587E-14  -0.1550000002E-01   0.4650000007E-02   0.4650000007E-02  -0.2613298364E-16  -0.1403515724E-15   0.4038122218E-16   0.7750000012E+01
   0.1969000000E+01   0.1004650000E+01  -0.1079624672E-15   0.4500000000E-02  -0.6750000000E-03  -0.7861408507E-16  -0.3550000000E-01   0.5325000000E-02  -0.2934838213E-16  -0.7750000011E+01   0.1128374056E-13   0.9627836015E-14  -0.3401423911E-16   0.8607493550E-15   0.1843502056E-15  -0.1550000002E-01   0.4650000006E-02   0.4650000006E-02  -0.9700246379E-16  -0.7701628308E-16   0.2566830256E-16   0.7750000011E+01
   0.1969000000E+01   0.0000000000E+00   0.1004650000E+01   0.4500000000E-02   0.0000000000E+00  -0.6750000000E-03  -0.3550000000E-01   0.0000000000E+00   0.5325000000E-02  -0.7750000011E+01   0.7113501637E-14   0.7225982685E-14  -0.7946850209E-15   0.1556456701E-14  -0.5376184131E-15  -0.1550000002E-01   0.4650000006E-02   0.4650000006E-02   0.4291894562E-16  -0.7291800946E-16  -0.1717748686E-16   0.7750000011E+01
   0.1969000000E+01   0.1004650000E+01   0.1004650000E+01   0.4500000000E-02  -0.6750000000E-03  -0.6750000000E-03  -0.3550000000E-01   0.5325000000E-02   0.5325000000E-02  -0.7750000010E+01  -0.6223473587E-14  -0.8027051825E-14  -0.8525744234E-15  -0.1683554859E-14  -0.9849970642E-16  -0.1550000002E-01   0.4650000006E-02   0.4650000006E-02   0.6931221698E-16  -0.1179036661E-15  -0.2963384197E-16   0.7750000010E+01
     1     2     3     4     5     6     7     8
     2     9    10     3     6    11    12     7
 VARIABLES = X,Y,Z,DU1,DU2,DU3,U1,U2,U3,S11,S22,S33,S12,S13,S23,E11,E22,E33,E12,E13,E23,SMISES
 ZONE, T="0.4150D+01" F=FEPOINT, I=   12 J=    2 ET=BRICK
   0.0000000000E+00   0.0000000000E+00   0.0000000000E+00   0.0000000000E+00   0.0000000000E+00   0.0000000000E+00   0.0000000000E+00   0.0000000000E+00   0.0000000000E+00  -0.6625000010E+01  -0.2893196151E-14  -0.2918958954E-14   0.5958707400E-16   0.7446554750E-15   0.6684674615E-15  -0.1325000002E-01   0.3975000006E-02   0.3975000006E-02  -0.1030300200E-17  -0.9387596119E-16   0.1209325720E-16   0.6625000010E+01
   0.9867500000E+00   0.0000000000E+00  -0.5125594142E-16   0.2250000000E-02   0.0000000000E+00  -0.9733908781E-19  -0.1550000000E-01   0.0000000000E+00  -0.5115860233E-16  -0.6625000010E+01   0.6088147366E-14   0.5088946749E-14   0.2107564057E-15  -0.1796749151E-15  -0.2757294023E-17  -0.1325000002E-01   0.3975000006E-02   0.3975000006E-02   0.8299935320E-16   0.2312918442E-16   0.3882446317E-16   0.6625000010E+01
   0.9867500000E+00   0.1003975000E+01  -0.3144961659E-16   0.2250000000E-02  -0.6750000000E-03   0.8715474603E-19  -0.1550000000E-01   0.4650000000E-02  -0.3153677133E-16  -0.6625000009E+01  -0.6754281082E-14  -0.7434221104E-14   0.8018077527E-16   0.1787559622E-15   0.3598423510E-16  -0.1325000002E-01   0.3975000006E-02   0.3975000006E-02   0.7348953311E-16  -0.3863987921E-16  -0.3672249540E-16   0.6625000009E+01
   0.0000000000E+00   0.1003975000E+01   0.5582881575E-17   0.0000000000E+00  -0.6750000000E-03   0.4484500491E-18   0.0000000000E+00   0.4650000000E-02   0.5134431526E-17  -0.6625000010E+01   0.2391746159E-14   0.8087536147E-15  -0.1475319174E-15  -0.5932556480E-15   0.3044115753E-15  -0.1325000002E-01   0.3975000006E-02   0.3975000006E-02   0.4867021937E-16  -0.4863918910E-16  -0.4178409793E-16   0.6625000010E+01
   0.0000000000E+00   0.0000000000E+00   0.1003975000E+01   0.0000000000E+00   0.0000000000E+00  -0.6750000000E-03   0.0000000000E+00   0.0000000000E+00   0.4650000000E-02  -0.6625000010E+01  -0.1515811164E-14   0.1643270652E-14  -0.1324210054E-15  -0.7124546000E-15  -0.9149441454E-16  -0.1325000002E-01   0.3975000006E-02   0.3975000006E-02  -0.1452430001E-17  -0.1515523126E-15  -0.5996507207E-16   0.6625000010E+01
   0.9867500000E+00   0.0000000000E+00   0.1003975000E+01   0.2250000000E-02   0.0000000000E+00  -0.6750000000E-03  -0.1550000000E-01   0.0000000000E+00   0.4650000000E-02  -0.6625000009E+01  -0.3911256313E-14  -0.4000501222E-14   0.5569413996E-15   0.6949388489E-16   0.2766215495E-16  -0.1325000002E-01   0.3975000006E-02   0.3975000006E-02   0.3459531342E-16   0.9415612495E-17   0.6370057630E-16   0.6625000009E+01
   0.9867500000E+00   0.1003975000E+01   0.1003975000E+01   0.2250000000E-02  -0.6750000000E-03  -0.6750000000E-03  -0.1550000000E-01   0.4650000000E-02   0.4650000000E-02  -0.6625000009E+01   0.5346575047E-14   0.6730368087E-14   0.7674194565E-17  -0.4808540417E-16  -0.6175906049E-16  -0.1325000002E-01   0.3975000005E-02   0.3975000005E-02   0.3715244417E-16  -0.1299942133E-16  -0.1877243647E-16   0.6625000009E+01
   0.0000000000E+00   0.1003975000E+01   0.1003975000E+01   0.0000000000E+00  -0.6750000000E-03  -0.6750000000E-03   0.0000000000E+00   0.4650000000E-02   0.4650000000E-02  -0.6625000009E+01   0.1783546247E-14   0.8101085497E-15  -0.6463663564E-15   0.5052093176E-15  -0.8880171805E-15  -0.1325000002E-01   0.3975000005E-02   0.3975000005E-02   0.1968851456E-17   0.2156642462E-16  -0.1042034696E-15   0.6625000009E+01
   0.1973500000E+01   0.0000000000E+00  -0.1279970758E-15   0.4500000000E-02   0.0000000000E+00  -0.6993781749E-19  -0.3100000000E-01   0.0000000000E+00  -0.1279271380E-15  -0.6625000010E+01  -0.1179675624E-13  -0.1054177722E-13  -0.6314285039E-15  -0.1399951812E-14   0.1230816069E-14  -0.1325000002E-01   0.3975000006E-02   0.3975000006E-02  -0.3839781514E-16  -0.1452366504E-15   0.3875338269E-16   0.6625000010E+01
   0.1973500000E+01   0.1003975000E+01  -0.1098951431E-15   0.4500000000E-02  -0.6750000000E-03  -0.1932675869E-17  -0.3100000000E-01   0.4650000000E-02  -0.1079624672E-15  -0.6625000009E+01   0.1209210363E-13   0.1118905113E-13  -0.2424646593E-15   0.1076839879E-14  -0.1544909167E-15  -0.1325000002E-01   0.3975000006E-02   0.3975000006E-02  -0.1154683940E-15  -0.6400558089E-16   0.2036365547E-16   0.6625000009E+01
   0.1973500000E+01   0.0000000000E+00   0.1003975000E+01   0.4500000000E-02   0.0000000000E+00  -0.6750000000E-03  -0.3100000000E-01   0.0000000000E+00   0.4650000000E-02  -0.6625000009E+01   0.5698501305E-14   0.6563834398E-14   0.2923196891E-15   0.1493119481E-14  -0.7467860000E-15  -0.1325000002E-01   0.3975000006E-02   0.3975000006E-02   0.4324014175E-16  -0.7940952685E-16  -0.2058738303E-16   0.6625000009E+01
   0.1973500000E+01   0.1003975000E+01   0.1003975000E+01   0.4500000000E-02  -0.6750000000E-03  -0.6750000000E-03  -0.3100000000E-01   0.4650000000E-02   0.4650000000E-02  -0.6625000008E+01  -0.7298503819E-14  -0.8323467183E-14  -0.1714624356E-15  -0.1056111864E-14  -0.2692624774E-15  -0.1325000002E-01   0.3975000005E-02   0.3975000005E-02   0.8408165436E-16  -0.1429840552E-15  -0.2972242001E-16   0.6625000008E+01
     1     2     3     4     5     6     7     8
     2     9    10     3     6    11    12     7
 VARIABLES = X,Y,Z,DU1,DU2,DU3,U1,U2,U3,S11,S22,S33,S12,S13,S23,E11,E22,E33,E12,E13,E23,SMISES
 ZONE, T="0.4200D+01" F=FEPOINT, I=   12 J=    2 ET=BRICK
   0.0000000000E+00   0.0000000000E+00   0.0000000000E+00   0.0000000000E+00   0.0000000000E+00   0.0000000000E+00   0.0000000000E+00   0.0000000000E+00   0.0000000000E+00  -0.5500000009E+01  -0.3102893304E-14  -0.3354152234E-14   0.5272047501E-16   0.1147070973E-14   0.3590536271E-15  -0.1100000002E-01   0.3300000005E-02   0.3300000005E-02  -0.2244244219E-17  -0.8768466771E-16   0.7417114985E-17   0.5500000009E+01
   0.9890000000E+00   0.0000000000E+00  -0.4830495517E-16   0.2250000000E-02   0.0000000000E+00   0.2950986256E-17  -0.1325000000E-01   0.0000000000E+00  -0.5125594142E-16  -0.5500000008E+01   0.6239806620E-14   0.5377391118E-14   0.2922992276E-15  -0.3176281754E-15  -0.1635106124E-15  -0.1100000002E-01   0.3300000005E-02   0.3300000005E-02   0.8601293380E-16   0.1430045563E-16   0.3827656801E-16   0.5500000008E+01
   0.9890000000E+00   0.1003300000E+01  -0.2939243289E-16   0.2250000000E-02  -0.6750000000E-03   0.2057183699E-17  -0.1325000000E-01   0.3975000000E-02  -0.3144961659E-16  -0.5500000008E+01  -0.6199169669E-14  -0.6812709877E-14   0.1943668761E-15  -0.1547759778E-15   0.1914861697E-16  -0.1100000002E-01   0.3300000005E-02   0.3300000005E-02   0.7192731063E-16  -0.3716829183E-16  -0.3886614747E-16   0.5500000008E+01
   0.0000000000E+00   0.1003300000E+01   0.4078064227E-17   0.0000000000E+00  -0.6750000000E-03  -0.1504817348E-17   0.0000000000E+00   0.3975000000E-02   0.5582881575E-17  -0.5500000008E+01   0.2191478864E-14   0.1616582819E-14  -0.4355139789E-16  -0.1336530353E-15   0.4063089652E-15  -0.1100000002E-01   0.3300000005E-02   0.3300000005E-02   0.5160875864E-16  -0.4652795444E-16  -0.3851958254E-16   0.5500000008E+01
   0.0000000000E+00   0.0000000000E+00   0.1003300000E+01   0.0000000000E+00   0.0000000000E+00  -0.6750000000E-03   0.0000000000E+00   0.0000000000E+00   0.3975000000E-02  -0.5500000008E+01  -0.2159099774E-14   0.5118043337E-15  -0.1557579056E-15  -0.2709919748E-15  -0.2101686955E-15  -0.1100000002E-01   0.3300000005E-02   0.3300000005E-02   0.1353594774E-17  -0.1420000698E-15  -0.6027492583E-16   0.5500000008E+01
   0.9890000000E+00   0.0000000000E+00   0.1003300000E+01   0.2250000000E-02   0.0000000000E+00  -0.6750000000E-03  -0.1325000000E-01   0.0000000000E+00   0.3975000000E-02  -0.5500000008E+01  -0.4355345474E-14  -0.4359330918E-14   0.3544714222E-15  -0.1096547045E-15  -0.8438101907E-16  -0.1100000002E-01   0.3300000005E-02   0.3300000005E-02   0.2344288206E-16   0.8105344894E-17   0.6210618408E-16   0.5500000008E+01
   0.9890000000E+00   0.1003300000E+01   0.1003300000E+01   0.2250000000E-02  -0.6750000000E-03  -0.6750000000E-03  -0.1325000000E-01   0.3975000000E-02   0.3975000000E-02  -0.5500000007E+01   0.4639804330E-14   0.6038471533E-14  -0.2312378828E-15  -0.6232472443E-15  -0.5550213058E-16  -0.1100000001E-01   0.3300000004E-02   0.3300000004E-02   0.3305415867E-16  -0.2320077250E-16  -0.1588615738E-16   0.5500000007E+01
   0.0000000000E+00   0.1003300000E+01   0.1003300000E+01   0.0000000000E+00  -0.6750000000E-03  -0.6750000000E-03   0.0000000000E+00   0.3975000000E-02   0.3975000000E-02  -0.5500000007E+01   0.1060442481E-14   0.4437507172E-16  -0.8125776449E-15   0.1014852573E-14  -0.6393418095E-15  -0.1100000001E-01   0.3300000004E-02   0.3300000004E-02  -0.1477400784E-17   0.2533393630E-16  -0.1026753659E-15   0.5500000007E+01
   0.1978000000E+01   0.0000000000E+00  -0.1191313142E-15   0.4500000000E-02   0.0000000000E+00   0.8865761568E-17  -0.2650000000E-01   0.0000000000E+00  -0.1279970758E-15  -0.5500000008E+01  -0.1261600801E-13  -0.1072119203E-13  -0.1206656839E-15  -0.1045604022E-14   0.1339408085E-14  -0.1100000002E-01   0.3300000005E-02   0.3300000005E-02  -0.4138044332E-16  -0.1558018323E-15   0.3682329119E-16   0.5500000008E+01
   0.1978000000E+01   0.1003300000E+01  -0.1003584941E-15   0.4500000000E-02  -0.6750000000E-03   0.9536648981E-17  -0.2650000000E-01   0.3975000000E-02  -0.1098951431E-15  -0.5500000008E+01   0.1140419260E-13   0.1043274755E-13   0.3308817853E-15   0.1026335094E-14   0.2472026445E-15  -0.1100000002E-01   0.3300000005E-02   0.3300000005E-02  -0.1039696464E-15  -0.6176567047E-16   0.2969995799E-16   0.5500000008E+01
   0.1978000000E+01   0.0000000000E+00   0.1003300000E+01   0.4500000000E-02   0.0000000000E+00  -0.6750000000E-03  -0.2650000000E-01   0.0000000000E+00   0.3975000000E-02  -0.5500000008E+01   0.7452012741E-14   0.7784545643E-14  -0.3655800953E-15   0.2150747239E-14  -0.8674491790E-15  -0.1100000002E-01   0.3300000005E-02   0.3300000005E-02   0.5447478592E-16  -0.9139406182E-16  -0.2173638993E-16   0.5500000008E+01
   0.1978000000E+01   0.1003300000E+01   0.1003300000E+01   0.4500000000E-02  -0.6750000000E-03  -0.6750000000E-03  -0.2650000000E-01   0.3975000000E-02   0.3975000000E-02  -0.5500000007E+01  -0.6656674055E-14  -0.8134622494E-14  -0.7189138781E-15  -0.1485969916E-14  -0.8368810430E-16  -0.1100000001E-01   0.3300000004E-02   0.3300000004E-02   0.6864004009E-16  -0.1226456821E-15  -0.3346144374E-16   0.5500000007E+01
     1     2     3     4     5     6     7     8
     2     9    10     3     6    11    12     7
 VARIABLES = X,Y,Z,DU1,DU2,DU3,U1,U2,U3,S11,S22,S33,S12,S13,S23,E11,E22,E33,E12,E13,E23,SMISES
 ZONE, T="0.4250D+01" F=FEPOINT, I=   12 J=    2 ET=BRICK
   0.0000000000E+00   0.0000000000E+00   0.0000000000E+00   0.0000000000E+00   0.0000000000E+00   0.0000000000E+00   0.0000000000E+00   0.0000000000E+00   0.0000000000E+00  -0.4375000007E+01  -0.2433307951E-14  -0.2155752191E-14   0.5320470371E-16   0.1341137904E-14   0.3444000421E-15  -0.8750000014E-02   0.2625000004E-02   0.2625000004E-02  -0.3756924236E-18  -0.8173336311E-16   0.6720593046E-17   0.4375000007E+01
   0.9912500000E+00   0.0000000000E+00  -0.4682423142E-16   0.2250000000E-02   0.0000000000E+00   0.1480723750E-17  -0.1100000000E-01   0.0000000000E+00  -0.4830495517E-16  -0.4375000007E+01   0.6335954785E-14   0.5832368954E-14   0.9257086929E-15   0.3402575249E-16  -0.1666571263E-15  -0.8750000013E-02   0.2625000004E-02   0.2625000004E-02   0.8770016545E-16   0.9124150678E-17   0.3632098529E-16   0.4375000007E+01
   0.9912500000E+00   0.1002625000E+01  -0.2792957127E-16   0.2250000000E-02  -0.6750000000E-03   0.1462861613E-17  -0.1100000000E-01   0.3300000000E-02  -0.2939243289E-16  -0.4375000006E+01  -0.6487614013E-14  -0.7005006107E-14   0.1032482748E-14  -0.1007136047E-14   0.1324737787E-15  -0.8750000012E-02   0.2625000004E-02   0.2625000004E-02   0.8238301284E-16  -0.3756429190E-16  -0.3592448609E-16   0.4375000006E+01
   0.0000000000E+00   0.1002625000E+01   0.3929043416E-17   0.0000000000E+00  -0.6750000000E-03  -0.1490208106E-18   0.0000000000E+00   0.3300000000E-02   0.4078064227E-17  -0.4375000006E+01   0.3386427307E-14   0.2273286747E-14  -0.2357720597E-15   0.2097407702E-15   0.4161199340E-15  -0.8750000013E-02   0.2625000004E-02   0.2625000004E-02   0.4841588924E-16  -0.4594161488E-16  -0.3491814949E-16   0.4375000006E+01
   0.0000000000E+00   0.0000000000E+00   0.1002625000E+01   0.0000000000E+00   0.0000000000E+00  -0.6750000000E-03   0.0000000000E+00   0.0000000000E+00   0.3300000000E-02  -0.4375000006E+01  -0.1925632572E-14   0.8285382552E-15  -0.1862430269E-15  -0.7546811503E-16  -0.4475631529E-15  -0.8750000013E-02   0.2625000004E-02   0.2625000004E-02  -0.1031895218E-17  -0.1379757419E-15  -0.5943523013E-16   0.4375000006E+01
   0.9912500000E+00   0.0000000000E+00   0.1002625000E+01   0.2250000000E-02   0.0000000000E+00  -0.6750000000E-03  -0.1100000000E-01   0.0000000000E+00   0.3300000000E-02  -0.4375000006E+01  -0.4118426706E-14  -0.4359330893E-14  -0.4539327087E-16   0.1252293898E-15  -0.9520357324E-16  -0.8750000012E-02   0.2625000004E-02   0.2625000004E-02   0.2011287929E-16   0.1137587385E-16   0.6271966971E-16   0.4375000006E+01
   0.9912500000E+00   0.1002625000E+01   0.1002625000E+01   0.2250000000E-02  -0.6750000000E-03  -0.6750000000E-03  -0.1100000000E-01   0.3300000000E-02   0.3300000000E-02  -0.4375000006E+01   0.4825197447E-14   0.6057331208E-14  -0.6721213979E-15  -0.1207127466E-14   0.1129802326E-15  -0.8750000011E-02   0.2625000003E-02   0.2625000003E-02   0.2507991832E-16  -0.2171520484E-16  -0.1477082446E-16   0.4375000006E+01
   0.0000000000E+00   0.1002625000E+01   0.1002625000E+01   0.0000000000E+00  -0.6750000000E-03  -0.6750000000E-03   0.0000000000E+00   0.3300000000E-02   0.3300000000E-02  -0.4375000006E+01   0.6535387911E-15  -0.7248098945E-15  -0.7855809456E-15   0.1501375073E-14  -0.8244465853E-15  -0.8750000012E-02   0.2625000004E-02   0.2625000004E-02   0.2006782029E-17   0.3022486177E-16  -0.1124014597E-15   0.4375000006E+01
   0.1982500000E+01   0.0000000000E+00  -0.1150041055E-15   0.4500000000E-02   0.0000000000E+00   0.4127208735E-17  -0.2200000000E-01   0.0000000000E+00  -0.1191313142E-15  -0.4375000007E+01  -0.1099184459E-13  -0.9958910176E-14  -0.7845414169E-15  -0.1315065442E-14   0.1292693121E-14  -0.8750000013E-02   0.2625000004E-02   0.2625000004E-02  -0.4014551605E-16  -0.1544656329E-15   0.3726115887E-16   0.4375000007E+01
   0.1982500000E+01   0.1002625000E+01  -0.9648385974E-16   0.4500000000E-02  -0.6750000000E-03   0.3874634349E-17  -0.2200000000E-01   0.3300000000E-02  -0.1003584941E-15  -0.4375000006E+01   0.1106767420E-13   0.9776043670E-14   0.1699162421E-15   0.1434842638E-14  -0.3612539393E-16  -0.8750000012E-02   0.2625000004E-02   0.2625000004E-02  -0.1038570471E-15  -0.8189606086E-16   0.2631501680E-16   0.4375000006E+01
   0.1982500000E+01   0.0000000000E+00   0.1002625000E+01   0.4500000000E-02   0.0000000000E+00  -0.6750000000E-03  -0.2200000000E-01   0.0000000000E+00   0.3300000000E-02  -0.4375000006E+01   0.7795434378E-14   0.7852404280E-14  -0.7698067632E-15   0.1799080419E-14  -0.6045537076E-15  -0.8750000012E-02   0.2625000004E-02   0.2625000004E-02   0.4515502603E-16  -0.7412754032E-16  -0.1946068384E-16   0.4375000006E+01
   0.1982500000E+01   0.1002625000E+01   0.1002625000E+01   0.4500000000E-02  -0.6750000000E-03  -0.6750000000E-03  -0.2200000000E-01   0.3300000000E-02   0.3300000000E-02  -0.4375000006E+01  -0.6442066545E-14  -0.7609259383E-14  -0.9386248389E-15  -0.1031899316E-14  -0.1287926561E-15  -0.8750000011E-02   0.2625000003E-02   0.2625000003E-02   0.6515876493E-16  -0.1395530627E-15  -0.3062569913E-16   0.4375000006E+01
     1     2     3     4     5     6     7     8
     2     9    10     3     6    11    12     7
 VARIABLES = X,Y,Z,DU1,DU2,DU3,U1,U2,U3,S11,S22,S33,S12,S13,S23,E11,E22,E33,E12,E13,E23,SMISES
 ZONE, T="0.4300D+01" F=FEPOINT, I=   12 J=    2 ET=BRICK
   0.0000000000E+00   0.0000000000E+00   0.0000000000E+00   0.0000000000E+00   0.0000000000E+00   0.0000000000E+00   0.0000000000E+00   0.0000000000E+00   0.0000000000E+00  -0.3250000005E+01  -0.3540274739E-14  -0.4180841102E-14   0.5506760969E-16   0.5646018033E-15   0.4344003346E-15  -0.6500000010E-02   0.1950000003E-02   0.1950000003E-02   0.3037086194E-18  -0.9040852940E-16   0.8652560346E-17   0.3250000005E+01
   0.9935000000E+00   0.0000000000E+00  -0.5135811825E-16   0.2250000000E-02   0.0000000000E+00  -0.4533886831E-17  -0.8750000000E-02   0.0000000000E+00  -0.4682423142E-16  -0.3250000005E+01   0.6537680822E-14   0.5755080465E-14   0.9459749508E-15   0.6042446121E-15   0.1314000611E-15  -0.6500000010E-02   0.1950000003E-02   0.1950000003E-02   0.8547799426E-16   0.2004111184E-16   0.4140976273E-16   0.3250000005E+01
   0.9935000000E+00   0.1001950000E+01  -0.3098915904E-16   0.2250000000E-02  -0.6750000000E-03  -0.3059587769E-17  -0.8750000000E-02   0.2625000000E-02  -0.2792957127E-16  -0.3250000005E+01  -0.6663577288E-14  -0.7241924850E-14   0.8081952498E-15  -0.6053538037E-15   0.4780916031E-16  -0.6500000009E-02   0.1950000003E-02   0.1950000003E-02   0.7192709495E-16  -0.3196606549E-16  -0.3645541536E-16   0.3250000005E+01
   0.0000000000E+00   0.1001950000E+01   0.4526301796E-17   0.0000000000E+00  -0.6750000000E-03   0.5972583798E-18   0.0000000000E+00   0.2625000000E-02   0.3929043416E-17  -0.3250000005E+01   0.2923282981E-14   0.1359879529E-14  -0.2814137874E-15  -0.2778467638E-15   0.3739129550E-16  -0.6500000009E-02   0.1950000003E-02   0.1950000003E-02   0.5105335746E-16  -0.5104775228E-16  -0.4275150689E-16   0.3250000005E+01
   0.0000000000E+00   0.0000000000E+00   0.1001950000E+01   0.0000000000E+00   0.0000000000E+00  -0.6750000000E-03   0.0000000000E+00   0.0000000000E+00   0.2625000000E-02  -0.3250000005E+01  -0.1366340183E-14   0.1777138076E-14  -0.1713377369E-15  -0.7818441584E-15  -0.1346612404E-15  -0.6500000009E-02   0.1950000003E-02   0.1950000003E-02   0.1485819945E-17  -0.1481474484E-15  -0.5828993106E-16   0.3250000005E+01
   0.9935000000E+00   0.0000000000E+00   0.1001950000E+01   0.2250000000E-02   0.0000000000E+00  -0.6750000000E-03  -0.8750000000E-02   0.0000000000E+00   0.2625000000E-02  -0.3250000005E+01  -0.4941664046E-14  -0.4858931193E-14  -0.7720230658E-16   0.7885361865E-15   0.1527239131E-15  -0.6500000009E-02   0.1950000003E-02   0.1950000003E-02   0.1731965314E-16   0.2285235290E-16   0.6377732870E-16   0.3250000005E+01
   0.9935000000E+00   0.1001950000E+01   0.1001950000E+01   0.2250000000E-02  -0.6750000000E-03  -0.6750000000E-03  -0.8750000000E-02   0.2625000000E-02   0.2625000000E-02  -0.3250000004E+01   0.5078449136E-14   0.6730368087E-14  -0.5978321403E-15  -0.8402420962E-15   0.1951904356E-16  -0.6500000009E-02   0.1950000003E-02   0.1950000003E-02   0.3518268766E-16  -0.2039026032E-16  -0.1916565334E-16   0.3250000004E+01
   0.0000000000E+00   0.1001950000E+01   0.1001950000E+01   0.0000000000E+00  -0.6750000000E-03  -0.6750000000E-03   0.0000000000E+00   0.2625000000E-02   0.2625000000E-02  -0.3250000004E+01   0.1129564503E-14   0.6693379311E-15  -0.7627817658E-15   0.8809659412E-15  -0.9910257668E-15  -0.6500000009E-02   0.1950000003E-02   0.1950000003E-02  -0.2108804758E-17   0.2364862045E-16  -0.1059542717E-15   0.3250000004E+01
   0.1987000000E+01   0.0000000000E+00  -0.1257870375E-15   0.4500000000E-02   0.0000000000E+00  -0.1078293198E-16  -0.1750000000E-01   0.0000000000E+00  -0.1150041055E-15  -0.3250000005E+01  -0.1072444816E-13  -0.9279895072E-14  -0.1123878388E-14  -0.1940771953E-14   0.1099646771E-14  -0.6500000010E-02   0.1950000003E-02   0.1950000003E-02  -0.4306940298E-16  -0.1572157329E-15   0.3566916085E-16   0.3250000005E+01
   0.1987000000E+01   0.1001950000E+01  -0.1082572043E-15   0.4500000000E-02  -0.6750000000E-03  -0.1177334458E-16  -0.1750000000E-01   0.2625000000E-02  -0.9648385974E-16  -0.3250000005E+01   0.1084582508E-13   0.9690250289E-14  -0.6277831206E-15   0.1842887607E-14  -0.1213184218E-15  -0.6500000009E-02   0.1950000003E-02   0.1950000003E-02  -0.1114354438E-15  -0.6042719614E-16   0.2386797075E-16   0.3250000005E+01
   0.1987000000E+01   0.0000000000E+00   0.1001950000E+01   0.4500000000E-02   0.0000000000E+00  -0.6750000000E-03  -0.1750000000E-01   0.0000000000E+00   0.2625000000E-02  -0.3250000005E+01   0.5922734123E-14   0.6045374464E-14   0.2834793742E-15   0.1547480009E-14  -0.7318458771E-15  -0.6500000009E-02   0.1950000003E-02   0.1950000003E-02   0.5359097193E-16  -0.8413780079E-16  -0.2145503049E-16   0.3250000005E+01
   0.1987000000E+01   0.1001950000E+01   0.1001950000E+01   0.4500000000E-02  -0.6750000000E-03  -0.6750000000E-03  -0.1750000000E-01   0.2625000000E-02   0.2625000000E-02  -0.3250000004E+01  -0.6322343883E-14  -0.6850429133E-14   0.8548486597E-16  -0.8580182381E-15  -0.2240645281E-15  -0.6500000008E-02   0.1950000002E-02   0.1950000002E-02   0.6944005312E-16  -0.1259168773E-15  -0.3074346652E-16   0.3250000004E+01
     1     2     3     4     5     6     7     8
     2     9    10     3     6    11    12     7
 VARIABLES = X,Y,Z,DU1,DU2,DU3,U1,U2,U3,S11,S22,S33,S12,S13,S23,E11,E22,E33,E12,E13,E23,SMISES
 ZONE, T="0.4350D+01" F=FEPOINT, I=   12 J=    2 ET=BRICK
   0.0000000000E+00   0.0000000000E+00   0.0000000000E+00   0.0000000000E+00   0.0000000000E+00   0.0000000000E+00   0.0000000000E+00   0.0000000000E+00   0.0000000000E+00  -0.2125000003E+01  -0.2984166916E-14  -0.3656839068E-14   0.3072099745E-16   0.7567897964E-15   0.5004361250E-15  -0.4250000007E-02   0.1275000002E-02   0.1275000002E-02   0.5235046293E-18  -0.8944755402E-16   0.9189248930E-17   0.2125000003E+01
   0.9957500000E+00   0.0000000000E+00  -0.5026652383E-16   0.2250000000E-02   0.0000000000E+00   0.1091594418E-17  -0.6500000000E-02   0.0000000000E+00  -0.5135811825E-16  -0.2125000003E+01   0.6434095626E-14   0.6081439658E-14   0.8286957104E-15   0.2990717544E-15   0.7195417926E-16  -0.4250000007E-02   0.1275000002E-02   0.1275000002E-02   0.8408549015E-16   0.1603052821E-16   0.4033749005E-16   0.2125000003E+01
   0.9957500000E+00   0.1001275000E+01  -0.3022637776E-16   0.2250000000E-02  -0.6750000000E-03   0.7627812817E-18  -0.6500000000E-02   0.1950000000E-02  -0.3098915904E-16  -0.2125000003E+01  -0.6767162484E-14  -0.7383424870E-14   0.6414354498E-15  -0.4975877580E-15   0.1670836288E-15  -0.4250000006E-02   0.1275000002E-02   0.1275000002E-02   0.7324099024E-16  -0.3265117047E-16  -0.3715893703E-16   0.2125000003E+01
   0.0000000000E+00   0.1001275000E+01   0.4810928564E-17   0.0000000000E+00  -0.6750000000E-03   0.2846267681E-18   0.0000000000E+00   0.1950000000E-02   0.4526301796E-17  -0.2125000003E+01   0.2896523820E-14   0.1185544328E-14  -0.3473659346E-15  -0.2598034108E-15   0.1825075035E-15  -0.4250000006E-02   0.1275000002E-02   0.1275000002E-02   0.4915645748E-16  -0.5063856919E-16  -0.4080716390E-16   0.2125000003E+01
   0.0000000000E+00   0.0000000000E+00   0.1001275000E+01   0.0000000000E+00   0.0000000000E+00  -0.6750000000E-03   0.0000000000E+00   0.0000000000E+00   0.1950000000E-02  -0.2125000003E+01  -0.1827029240E-14   0.1234543364E-14  -0.1411680493E-15  -0.5049680975E-15  -0.2149833750E-15  -0.4250000006E-02   0.1275000002E-02   0.1275000002E-02  -0.8144640043E-19  -0.1435788995E-15  -0.5612768714E-16   0.2125000003E+01
   0.9957500000E+00   0.0000000000E+00   0.1001275000E+01   0.2250000000E-02   0.0000000000E+00  -0.6750000000E-03  -0.6500000000E-02   0.0000000000E+00   0.1950000000E-02  -0.2125000003E+01  -0.4388545351E-14  -0.4475068100E-14   0.2045367826E-15   0.4899890641E-15  -0.1246427486E-15  -0.4250000006E-02   0.1275000002E-02   0.1275000002E-02   0.2473370485E-16   0.2032026383E-16   0.5894698321E-16   0.2125000003E+01
   0.9957500000E+00   0.1001275000E+01   0.1001275000E+01   0.2250000000E-02  -0.6750000000E-03  -0.6750000000E-03  -0.6500000000E-02   0.1950000000E-02   0.1950000000E-02  -0.2125000003E+01   0.5298500973E-14   0.6374260563E-14  -0.2913981947E-15  -0.6955432326E-15  -0.5175758703E-16  -0.4250000006E-02   0.1275000002E-02   0.1275000002E-02   0.3481241680E-16  -0.2598096575E-16  -0.1308614179E-16   0.2125000003E+01
   0.0000000000E+00   0.1001275000E+01   0.1001275000E+01   0.0000000000E+00  -0.6750000000E-03  -0.6750000000E-03   0.0000000000E+00   0.1950000000E-02   0.1950000000E-02  -0.2125000003E+01   0.1645764758E-14   0.9576845542E-15  -0.6777463353E-15   0.8287945175E-15  -0.9294841170E-15  -0.4250000006E-02   0.1275000002E-02   0.1275000002E-02   0.2351535136E-18   0.2341039427E-16  -0.1124269971E-15   0.2125000003E+01
   0.1991500000E+01   0.0000000000E+00  -0.1229068196E-15   0.4500000000E-02   0.0000000000E+00   0.2880217900E-17  -0.1300000000E-01   0.0000000000E+00  -0.1257870375E-15  -0.2125000003E+01  -0.1160963733E-13  -0.1003537150E-13  -0.7571760596E-15  -0.1820326832E-14   0.1087557299E-14  -0.4250000006E-02   0.1275000002E-02   0.1275000002E-02  -0.3771736643E-16  -0.1499564728E-15   0.3584499632E-16   0.2125000003E+01
   0.1991500000E+01   0.1001275000E+01  -0.1053619547E-15   0.4500000000E-02  -0.6750000000E-03   0.2895249605E-17  -0.1300000000E-01   0.1950000000E-02  -0.1082572043E-15  -0.2125000003E+01   0.1120963661E-13   0.1015157102E-13  -0.3617034955E-15   0.1367675939E-14   0.7198780910E-16  -0.4250000006E-02   0.1275000002E-02   0.1275000002E-02  -0.1049390883E-15  -0.8310088291E-16   0.2481825697E-16   0.2125000003E+01
   0.1991500000E+01   0.0000000000E+00   0.1001275000E+01   0.4500000000E-02   0.0000000000E+00  -0.6750000000E-03  -0.1300000000E-01   0.0000000000E+00   0.1950000000E-02  -0.2125000003E+01   0.6368549043E-14   0.6593413497E-14   0.1274549516E-15   0.1614780962E-14  -0.7936558901E-15  -0.4250000006E-02   0.1275000002E-02   0.1275000002E-02   0.5154790378E-16  -0.9140868845E-16  -0.2257961348E-16   0.2125000003E+01
   0.1991500000E+01   0.1001275000E+01   0.1001275000E+01   0.4500000000E-02  -0.6750000000E-03  -0.6750000000E-03  -0.1300000000E-01   0.1950000000E-02   0.1950000000E-02  -0.2125000003E+01  -0.6853418276E-14  -0.7735983003E-14  -0.1735320417E-15  -0.1035352749E-14  -0.8854268139E-16  -0.4250000005E-02   0.1275000002E-02   0.1275000002E-02   0.7107354091E-16  -0.1270222274E-15  -0.2767941900E-16   0.2125000003E+01
     1     2     3     4     5     6     7     8
     2     9    10     3     6    11    12     7
 VARIABLES = X,Y,Z,DU1,DU2,DU3,U1,U2,U3,S11,S22,S33,S12,S13,S23,E11,E22,E33,E12,E13,E23,SMISES
 ZONE, T="0.4400D+01" F=FEPOINT, I=   12 J=    2 ET=BRICK
   0.0000000000E+00   0.0000000000E+00   0.0000000000E+00   0.0000000000E+00   0.0000000000E+00   0.0000000000E+00   0.0000000000E+00   0.0000000000E+00   0.0000000000E+00  -0.1000000002E+01  -0.2755450430E-14  -0.3272927123E-14   0.3413909112E-16   0.8185515185E-15   0.5597789759E-15  -0.2000000003E-02   0.6000000009E-03   0.6000000009E-03   0.2219047952E-19  -0.8835975184E-16   0.1031823864E-16   0.1000000002E+01
   0.9980000000E+00   0.0000000000E+00  -0.4987785992E-16   0.2250000000E-02   0.0000000000E+00   0.3886639091E-18  -0.4250000000E-02   0.0000000000E+00  -0.5026652383E-16  -0.1000000002E+01   0.6579314198E-14   0.5951459971E-14   0.7460237004E-15   0.2616277550E-15   0.2052358631E-16  -0.2000000003E-02   0.6000000009E-03   0.6000000009E-03   0.8258801549E-16   0.1436914725E-16   0.3989643093E-16   0.1000000002E+01
   0.9980000000E+00   0.1000600000E+01  -0.2993860168E-16   0.2250000000E-02  -0.6750000000E-03   0.2877760861E-18  -0.4250000000E-02   0.1275000000E-02  -0.3022637776E-16  -0.1000000001E+01  -0.6665303074E-14  -0.7234852485E-14   0.6226767575E-15  -0.4244812384E-15   0.7211295728E-16  -0.2000000003E-02   0.6000000009E-03   0.6000000009E-03   0.7370005258E-16  -0.3136604021E-16  -0.3751360995E-16   0.1000000001E+01
   0.0000000000E+00   0.1000600000E+01   0.4983876425E-17   0.0000000000E+00  -0.6750000000E-03   0.1729478605E-18   0.0000000000E+00   0.1275000000E-02   0.4810928564E-17  -0.1000000001E+01   0.2578197632E-14   0.9447246999E-15  -0.2257331561E-15  -0.2734605694E-15   0.2276250608E-15  -0.2000000003E-02   0.6000000009E-03   0.6000000009E-03   0.4886214387E-16  -0.5034839535E-16  -0.3995374096E-16   0.1000000001E+01
   0.0000000000E+00   0.0000000000E+00   0.1000600000E+01   0.0000000000E+00   0.0000000000E+00  -0.6750000000E-03   0.0000000000E+00   0.0000000000E+00   0.1275000000E-02  -0.1000000001E+01  -0.1894923616E-14   0.1283431447E-14  -0.1233575489E-15  -0.5984455130E-15  -0.3045914955E-15  -0.2000000003E-02   0.6000000009E-03   0.6000000009E-03  -0.1404670809E-18  -0.1450208860E-15  -0.5930175958E-16   0.1000000001E+01
   0.9980000000E+00   0.0000000000E+00   0.1000600000E+01   0.2250000000E-02   0.0000000000E+00  -0.6750000000E-03  -0.4250000000E-02   0.0000000000E+00   0.1275000000E-02  -0.1000000001E+01  -0.4576393649E-14  -0.4633799748E-14   0.6916951978E-16   0.6174634552E-15  -0.4664362771E-16  -0.2000000003E-02   0.6000000009E-03   0.6000000009E-03   0.2361295988E-16   0.1957103926E-16   0.6076665457E-16   0.1000000001E+01
   0.9980000000E+00   0.1000600000E+01   0.1000600000E+01   0.2250000000E-02  -0.6750000000E-03  -0.6750000000E-03  -0.4250000000E-02   0.1275000000E-02   0.1275000000E-02  -0.1000000001E+01   0.5006338059E-14   0.6236114376E-14  -0.3245318600E-15  -0.8889488888E-15  -0.9267832051E-16  -0.2000000003E-02   0.6000000008E-03   0.6000000008E-03   0.3368196169E-16  -0.2281030239E-16  -0.1516960166E-16   0.1000000001E+01
   0.0000000000E+00   0.1000600000E+01   0.1000600000E+01   0.0000000000E+00  -0.6750000000E-03  -0.6750000000E-03   0.0000000000E+00   0.1275000000E-02   0.1275000000E-02  -0.1000000001E+01   0.1455327751E-14   0.6550465400E-15  -0.7677221104E-15   0.1016875556E-14  -0.9463370356E-15  -0.2000000003E-02   0.6000000008E-03   0.6000000008E-03  -0.2844185082E-18   0.2445411882E-16  -0.1071273780E-15   0.1000000001E+01
   0.1996000000E+01   0.0000000000E+00  -0.1224970566E-15   0.4500000000E-02   0.0000000000E+00   0.4097629673E-18  -0.8500000000E-02   0.0000000000E+00  -0.1229068196E-15  -0.1000000002E+01  -0.1136505026E-13  -0.9782168638E-14  -0.9389419631E-15  -0.1973180136E-14   0.1216906637E-14  -0.2000000003E-02   0.6000000009E-03   0.6000000009E-03  -0.4414390093E-16  -0.1426404468E-15   0.3572160814E-16   0.1000000002E+01
   0.1996000000E+01   0.1000600000E+01  -0.1043740413E-15   0.4500000000E-02  -0.6750000000E-03   0.9879133941E-18  -0.8500000000E-02   0.1275000000E-02  -0.1053619547E-15  -0.1000000001E+01   0.1095996997E-13   0.9738408936E-14  -0.5647249006E-15   0.1430312059E-14   0.1328038024E-15  -0.2000000003E-02   0.6000000008E-03   0.6000000008E-03  -0.1133943376E-15  -0.7386275202E-16   0.2852796543E-16   0.1000000001E+01
   0.1996000000E+01   0.0000000000E+00   0.1000600000E+01   0.4500000000E-02   0.0000000000E+00  -0.6750000000E-03  -0.8500000000E-02   0.0000000000E+00   0.1275000000E-02  -0.1000000001E+01   0.7120902895E-14   0.7274336788E-14  -0.2083133061E-15   0.1689455311E-14  -0.7890733111E-15  -0.2000000003E-02   0.6000000008E-03   0.6000000008E-03   0.4376350451E-16  -0.9280125227E-16  -0.2011562018E-16   0.1000000001E+01
   0.1996000000E+01   0.1000600000E+01   0.1000600000E+01   0.4500000000E-02  -0.6750000000E-03  -0.6750000000E-03  -0.8500000000E-02   0.1275000000E-02   0.1275000000E-02  -0.1000000001E+01  -0.6564840402E-14  -0.7645230332E-14  -0.3870518386E-15  -0.1162568409E-14  -0.6524664379E-16  -0.2000000003E-02   0.6000000008E-03   0.6000000008E-03   0.6887552609E-16  -0.1207519638E-15  -0.3075162971E-16   0.1000000001E+01
     1     2     3     4     5     6     7     8
     2     9    10     3     6    11    12     7
 VARIABLES = X,Y,Z,DU1,DU2,DU3,U1,U2,U3,S11,S22,S33,S12,S13,S23,E11,E22,E33,E12,E13,E23,SMISES
 ZONE, T="0.4450D+01" F=FEPOINT, I=   12 J=    2 ET=BRICK
   0.0000000000E+00   0.0000000000E+00   0.0000000000E+00   0.0000000000E+00   0.0000000000E+00   0.0000000000E+00   0.0000000000E+00   0.0000000000E+00   0.0000000000E+00   0.1250000002E+00  -0.2759851157E-14  -0.3305116792E-14   0.5028574864E-16   0.6638983005E-15   0.5517836897E-15   0.2500000004E-03  -0.7500000012E-04  -0.7500000012E-04  -0.1194705636E-19  -0.8982403571E-16   0.1004964209E-16   0.1250000002E+00
   0.1000250000E+01   0.0000000000E+00  -0.5043074117E-16   0.2250000000E-02   0.0000000000E+00  -0.5528812483E-18  -0.2000000000E-02   0.0000000000E+00  -0.4987785992E-16   0.1250000002E+00   0.6455049084E-14   0.5820322703E-14   0.7777169580E-15   0.4452876241E-15   0.6169779608E-16   0.2500000004E-03  -0.7500000012E-04  -0.7500000012E-04   0.8333214388E-16   0.1582222030E-16   0.4025460915E-16   0.1250000002E+00
   0.1000250000E+01   0.9999250000E+00  -0.3029991014E-16   0.2250000000E-02  -0.6750000000E-03  -0.3613084623E-18  -0.2000000000E-02   0.6000000000E-03  -0.2993860168E-16   0.1250000002E+00  -0.6474039851E-14  -0.7126108696E-14   0.6941725205E-15  -0.3762659069E-15   0.8473191504E-16   0.2500000004E-03  -0.7500000011E-04  -0.7500000011E-04   0.7365714699E-16  -0.3152469286E-16  -0.3680022745E-16   0.1250000002E+00
   0.0000000000E+00   0.9999250000E+00   0.5037990953E-17   0.0000000000E+00  -0.6750000000E-03   0.5411452813E-19   0.0000000000E+00   0.6000000000E-03   0.4983876425E-17   0.1250000002E+00   0.2416032744E-14   0.7925945078E-15  -0.2235691900E-15  -0.3294041599E-15   0.2552461119E-15   0.2500000004E-03  -0.7500000011E-04  -0.7500000011E-04   0.4929638831E-16  -0.5115295896E-16  -0.4053522989E-16   0.1250000002E+00
   0.0000000000E+00   0.0000000000E+00   0.9999250000E+00   0.0000000000E+00   0.0000000000E+00  -0.6750000000E-03   0.0000000000E+00   0.0000000000E+00   0.6000000000E-03   0.1250000002E+00  -0.1882546495E-14   0.1348497436E-14  -0.1209944312E-15  -0.6779830323E-15  -0.2800935574E-15   0.2500000004E-03  -0.7500000011E-04  -0.7500000011E-04   0.1606020656E-18  -0.1457312245E-15  -0.5823783406E-16   0.1250000002E+00
   0.1000250000E+01   0.0000000000E+00   0.9999250000E+00   0.2250000000E-02   0.0000000000E+00  -0.6750000000E-03  -0.2000000000E-02   0.0000000000E+00   0.6000000000E-03   0.1250000002E+00  -0.4400053463E-14  -0.4454670657E-14   0.1480857449E-15   0.6196028251E-15  -0.2982384316E-16   0.2500000004E-03  -0.7500000011E-04  -0.7500000011E-04   0.2402879863E-16   0.1847614983E-16   0.6134180447E-16   0.1250000002E+00
   0.1000250000E+01   0.9999250000E+00   0.9999250000E+00   0.2250000000E-02  -0.6750000000E-03  -0.6750000000E-03  -0.2000000000E-02   0.6000000000E-03   0.6000000000E-03   0.1250000002E+00   0.4899079907E-14   0.6055997850E-14  -0.2638300245E-15  -0.7965879522E-15  -0.1326390895E-15   0.2500000003E-03  -0.7500000010E-04  -0.7500000010E-04   0.3461740123E-16  -0.2099007996E-16  -0.1680866888E-16   0.1250000002E+00
   0.0000000000E+00   0.9999250000E+00   0.9999250000E+00   0.0000000000E+00  -0.6750000000E-03  -0.6750000000E-03   0.0000000000E+00   0.6000000000E-03   0.6000000000E-03   0.1250000002E+00   0.1609504034E-14   0.8997353299E-15  -0.7438289746E-15   0.8760045892E-15  -0.9942685339E-15   0.2500000003E-03  -0.7500000010E-04  -0.7500000010E-04  -0.4745058596E-18   0.2375626011E-16  -0.1088677327E-15   0.1250000002E+00
   0.2000500000E+01   0.0000000000E+00  -0.1234540941E-15   0.4500000000E-02   0.0000000000E+00  -0.9570375263E-18  -0.4000000000E-02   0.0000000000E+00  -0.1224970566E-15   0.1250000002E+00  -0.1154511956E-13  -0.1008016574E-13  -0.7516832926E-15  -0.2128996115E-14   0.1237697127E-14   0.2500000004E-03  -0.7500000011E-04  -0.7500000011E-04  -0.4137932150E-16  -0.1424381200E-15   0.3647987388E-16   0.1250000002E+00
   0.2000500000E+01   0.9999250000E+00  -0.1052722233E-15   0.4500000000E-02  -0.6750000000E-03  -0.8981820020E-18  -0.4000000000E-02   0.6000000000E-03  -0.1043740413E-15   0.1250000002E+00   0.1166110223E-13   0.1050719541E-13  -0.3256369186E-15   0.1609028987E-14   0.4424483806E-17   0.2500000004E-03  -0.7500000011E-04  -0.7500000011E-04  -0.1091648292E-15  -0.8042977914E-16   0.2588219688E-16   0.1250000002E+00
   0.2000500000E+01   0.0000000000E+00   0.9999250000E+00   0.4500000000E-02   0.0000000000E+00  -0.6750000000E-03  -0.4000000000E-02   0.0000000000E+00   0.6000000000E-03   0.1250000002E+00   0.7076413431E-14   0.7300563970E-14  -0.1585280826E-15   0.2113021479E-14  -0.7026170794E-15   0.2500000004E-03  -0.7500000011E-04  -0.7500000011E-04   0.4603501626E-16  -0.8669825088E-16  -0.2004819560E-16   0.1250000002E+00
   0.2000500000E+01   0.9999250000E+00   0.9999250000E+00   0.4500000000E-02  -0.6750000000E-03  -0.6750000000E-03  -0.4000000000E-02   0.6000000000E-03   0.6000000000E-03   0.1250000002E+00  -0.6973556180E-14  -0.7797647446E-14  -0.4336246292E-15  -0.1370781651E-14  -0.1237637875E-15   0.2500000003E-03  -0.7500000010E-04  -0.7500000010E-04   0.6699483676E-16  -0.1268227012E-15  -0.3050343756E-16   0.1250000002E+00
     1     2     3     4     5     6     7     8
     2     9    10     3     6    11    12     7
 VARIABLES = X,Y,Z,DU1,DU2,DU3,U1,U2,U3,S11,S22,S33,S12,S13,S23,E11,E22,E33,E12,E13,E23,SMISES
 ZONE, T="0.4500D+01" F=FEPOINT, I=   12 J=    2 ET=BRICK
   0.0000000000E+00   0.0000000000E+00   0.0000000000E+00   0.0000000000E+00   0.0000000000E+00   0.0000000000E+00   0.0000000000E+00   0.0000000000E+00   0.0000000000E+00   0.1250000002E+01  -0.2896634636E-14  -0.3540870660E-14   0.5630496295E-16   0.6896203705E-15   0.4863695373E-15   0.2500000004E-02  -0.7500000012E-03  -0.7500000012E-03   0.6570421517E-19  -0.9055063132E-16   0.9451668922E-17   0.1250000002E+01
   0.1002500000E+01   0.0000000000E+00  -0.5069246861E-16   0.2250000000E-02   0.0000000000E+00  -0.2617274408E-18   0.2500000000E-03   0.0000000000E+00  -0.5043074117E-16   0.1250000002E+01   0.6219123428E-14   0.5809595240E-14   0.8641523150E-15   0.2346147328E-15   0.1070771907E-15   0.2500000004E-02  -0.7500000012E-03  -0.7500000012E-03   0.8418085637E-16   0.1469894638E-16   0.4068076036E-16   0.1250000002E+01
   0.1002500000E+01   0.9992500000E+00  -0.3036453897E-16   0.2250000000E-02  -0.6750000000E-03  -0.6462883299E-19   0.2500000000E-03  -0.7500000000E-04  -0.3029991014E-16   0.1250000002E+01  -0.6874830952E-14  -0.7278843300E-14   0.7568927835E-15  -0.3995284834E-15   0.1953973715E-15   0.2500000004E-02  -0.7500000011E-03  -0.7500000011E-03   0.7438068605E-16  -0.3233383518E-16  -0.3551618405E-16   0.1250000002E+01
   0.0000000000E+00   0.9992500000E+00   0.4630000276E-17   0.0000000000E+00  -0.6750000000E-03  -0.4079906767E-18   0.0000000000E+00  -0.7500000000E-04   0.5037990953E-17   0.1250000002E+01   0.2350526367E-14   0.9274442078E-15  -0.3462523829E-15  -0.2600952755E-15   0.1863661925E-15   0.2500000004E-02  -0.7500000011E-03  -0.7500000011E-03   0.4805675104E-16  -0.4954619041E-16  -0.4130979231E-16   0.1250000002E+01
   0.0000000000E+00   0.0000000000E+00   0.9992500000E+00   0.0000000000E+00   0.0000000000E+00  -0.6750000000E-03   0.0000000000E+00   0.0000000000E+00  -0.7500000000E-04   0.1250000002E+01  -0.1817185838E-14   0.1324748976E-14  -0.1203231789E-15  -0.6699996297E-15  -0.2756100479E-15   0.2500000004E-02  -0.7500000011E-03  -0.7500000011E-03  -0.1963812406E-19  -0.1451917503E-15  -0.5818445409E-16   0.1250000002E+01
   0.1002500000E+01   0.0000000000E+00   0.9992500000E+00   0.2250000000E-02   0.0000000000E+00  -0.6750000000E-03   0.2500000000E-03   0.0000000000E+00  -0.7500000000E-04   0.1250000002E+01  -0.4470450994E-14  -0.4506542221E-14   0.1399441169E-15   0.6009429046E-15  -0.1273719705E-16   0.2500000004E-02  -0.7500000011E-03  -0.7500000011E-03   0.2425016404E-16   0.1705622684E-16   0.6115799920E-16   0.1250000002E+01
   0.1002500000E+01   0.9992500000E+00   0.9992500000E+00   0.2250000000E-02  -0.6750000000E-03  -0.6750000000E-03   0.2500000000E-03  -0.7500000000E-04  -0.7500000000E-04   0.1250000002E+01   0.5149199163E-14   0.6264234662E-14  -0.2820287001E-15  -0.9270373516E-15  -0.3737615712E-16   0.2500000003E-02  -0.7500000010E-03  -0.7500000010E-03   0.3468546573E-16  -0.2395891751E-16  -0.1540357733E-16   0.1250000002E+01
   0.0000000000E+00   0.9992500000E+00   0.9992500000E+00   0.0000000000E+00  -0.6750000000E-03  -0.6750000000E-03   0.0000000000E+00  -0.7500000000E-04  -0.7500000000E-04   0.1250000002E+01   0.1700461845E-14   0.9927437067E-15  -0.7584410418E-15   0.8971463008E-15  -0.9342929549E-15   0.2500000003E-02  -0.7500000010E-03  -0.7500000010E-03  -0.8694199679E-18   0.2418390473E-16  -0.1079318856E-15   0.1250000002E+01
   0.2005000000E+01   0.0000000000E+00  -0.1235833585E-15   0.4500000000E-02   0.0000000000E+00  -0.1292643896E-18   0.5000000000E-03   0.0000000000E+00  -0.1234540941E-15   0.1250000002E+01  -0.1137081043E-13  -0.9986799239E-14  -0.1286846542E-14  -0.2341751011E-14   0.1158193608E-14   0.2500000004E-02  -0.7500000011E-03  -0.7500000011E-03  -0.4715044524E-16  -0.1508394784E-15   0.3554030194E-16   0.1250000002E+01
   0.2005000000E+01   0.9992500000E+00  -0.1057843124E-15   0.4500000000E-02  -0.6750000000E-03  -0.5120890750E-18   0.5000000000E-03  -0.7500000000E-04  -0.1052722233E-15   0.1250000002E+01   0.1144760062E-13   0.1025057481E-13  -0.6975005474E-15   0.1695942976E-14  -0.7425496702E-16   0.2500000003E-02  -0.7500000010E-03  -0.7500000010E-03  -0.1140829620E-15  -0.7510768201E-16   0.2512063475E-16   0.1250000002E+01
   0.2005000000E+01   0.0000000000E+00   0.9992500000E+00   0.4500000000E-02   0.0000000000E+00  -0.6750000000E-03   0.5000000000E-03   0.0000000000E+00  -0.7500000000E-04   0.1250000002E+01   0.6768331563E-14   0.6904667322E-14   0.3792917928E-15   0.1658663210E-14  -0.7029764544E-15   0.2500000003E-02  -0.7500000010E-03  -0.7500000010E-03   0.5049824659E-16  -0.9091215624E-16  -0.1944295191E-16   0.1250000002E+01
   0.2005000000E+01   0.9992500000E+00   0.9992500000E+00   0.4500000000E-02  -0.6750000000E-03  -0.6750000000E-03   0.5000000000E-03  -0.7500000000E-04  -0.7500000000E-04   0.1250000002E+01  -0.6616948838E-14  -0.7449397888E-14  -0.2177202399E-16  -0.8712185957E-15  -0.2783986241E-15   0.2500000003E-02  -0.7500000010E-03  -0.7500000010E-03   0.7117859634E-16  -0.1260806801E-15  -0.3129341998E-16   0.1250000002E+01
     1     2     3     4     5     6     7     8
     2     9    10     3     6    11    12     7
 VARIABLES = X,Y,Z,DU1,DU2,DU3,U1,U2,U3,S11,S22,S33,S12,S13,S23,E11,E22,E33,E12,E13,E23,SMISES
 ZONE, T="0.4550D+01" F=FEPOINT, I=   12 J=    2 ET=BRICK
   0.0000000000E+00   0.0000000000E+00   0.0000000000E+00   0.0000000000E+00   0.0000000000E+00   0.0000000000E+00   0.0000000000E+00   0.0000000000E+00   0.0000000000E+00   0.2375000004E+01  -0.3182174451E-14  -0.3772940981E-14   0.5030358196E-16   0.7600141499E-15   0.4918665357E-15   0.4750000007E-02  -0.1425000002E-02  -0.1425000002E-02  -0.6204587057E-18  -0.9028595643E-16   0.8967831323E-17   0.2375000004E+01
   0.1004750000E+01   0.0000000000E+00  -0.4977713489E-16   0.2250000000E-02   0.0000000000E+00   0.9153337222E-18   0.2500000000E-02   0.0000000000E+00  -0.5069246861E-16   0.2375000004E+01   0.6461851196E-14   0.5980576631E-14   0.1141216398E-14   0.4505168383E-15   0.7229507443E-16   0.4750000007E-02  -0.1425000002E-02  -0.1425000002E-02   0.8784169957E-16   0.1710418322E-16   0.4027944014E-16   0.2375000004E+01
   0.1004750000E+01   0.9985750000E+00  -0.2972726574E-16   0.2250000000E-02  -0.6750000000E-03   0.6372732276E-18   0.2500000000E-02  -0.7500000000E-03  -0.3036453897E-16   0.2375000003E+01  -0.6800362391E-14  -0.6910850753E-14   0.9885755981E-15  -0.3070695888E-15   0.2200249353E-15   0.4750000007E-02  -0.1425000002E-02  -0.1425000002E-02   0.7803580875E-16  -0.3395765871E-16  -0.3433295821E-16   0.2375000003E+01
   0.0000000000E+00   0.9985750000E+00   0.4647717367E-17   0.0000000000E+00  -0.6750000000E-03   0.1771709104E-19   0.0000000000E+00  -0.7500000000E-03   0.4630000276E-17   0.2375000003E+01   0.3206283068E-14   0.1404235089E-14  -0.4488482762E-15  -0.2626270163E-15   0.1660009719E-15   0.4750000007E-02  -0.1425000002E-02  -0.1425000002E-02   0.4637128467E-16  -0.4865896805E-16  -0.4222162031E-16   0.2375000003E+01
   0.0000000000E+00   0.0000000000E+00   0.9985750000E+00   0.0000000000E+00   0.0000000000E+00  -0.6750000000E-03   0.0000000000E+00   0.0000000000E+00  -0.7500000000E-03   0.2375000003E+01  -0.1555914223E-14   0.1275082618E-14  -0.1160028655E-15  -0.6270568731E-15  -0.3756687797E-15   0.4750000007E-02  -0.1425000002E-02  -0.1425000002E-02   0.2034187434E-18  -0.1438906353E-15  -0.5863602797E-16   0.2375000003E+01
   0.1004750000E+01   0.0000000000E+00   0.9985750000E+00   0.2250000000E-02   0.0000000000E+00  -0.6750000000E-03   0.2500000000E-02   0.0000000000E+00  -0.7500000000E-03   0.2375000003E+01  -0.4588278687E-14  -0.4588812572E-14   0.2003115629E-15   0.8094244583E-15  -0.2212852233E-16   0.4750000007E-02  -0.1425000002E-02  -0.1425000002E-02   0.2486379635E-16   0.1886208350E-16   0.6083200012E-16   0.2375000003E+01
   0.1004750000E+01   0.9985750000E+00   0.9985750000E+00   0.2250000000E-02  -0.6750000000E-03  -0.6750000000E-03   0.2500000000E-02  -0.7500000000E-03  -0.7500000000E-03   0.2375000003E+01   0.4871278731E-14   0.5984953155E-14  -0.1989030794E-15  -0.9825668587E-15   0.5597555312E-17   0.4750000006E-02  -0.1425000002E-02  -0.1425000002E-02   0.3428109950E-16  -0.2268028396E-16  -0.1487518119E-16   0.2375000003E+01
   0.0000000000E+00   0.9985750000E+00   0.9985750000E+00   0.0000000000E+00  -0.6750000000E-03  -0.6750000000E-03   0.0000000000E+00  -0.7500000000E-03  -0.7500000000E-03   0.2375000003E+01   0.1902735026E-14   0.1046760296E-14  -0.8055408771E-15   0.1078099252E-14  -0.9049956062E-15   0.4750000006E-02  -0.1425000002E-02  -0.1425000002E-02  -0.6499742283E-18   0.2431696664E-16  -0.1071364441E-15   0.2375000003E+01
   0.2009500000E+01   0.0000000000E+00  -0.1198629629E-15   0.4500000000E-02   0.0000000000E+00   0.3720395615E-17   0.5000000000E-02   0.0000000000E+00  -0.1235833585E-15   0.2375000004E+01  -0.1111229675E-13  -0.9640255064E-14  -0.1604417866E-14  -0.2630429578E-14   0.1085652809E-14   0.4750000007E-02  -0.1425000002E-02  -0.1425000002E-02  -0.4947303991E-16  -0.1566306755E-15   0.3493142371E-16   0.2375000004E+01
   0.2009500000E+01   0.9985750000E+00  -0.1023476037E-15   0.4500000000E-02  -0.6750000000E-03   0.3436708690E-17   0.5000000000E-02  -0.7500000000E-03  -0.1057843124E-15   0.2375000003E+01   0.1107729945E-13   0.9993835758E-14  -0.1056722019E-14   0.1552855463E-14  -0.1099605195E-16   0.4750000007E-02  -0.1425000002E-02  -0.1425000002E-02  -0.1171222716E-15  -0.6991625668E-16   0.2494600140E-16   0.2375000003E+01
   0.2009500000E+01   0.0000000000E+00   0.9985750000E+00   0.4500000000E-02   0.0000000000E+00  -0.6750000000E-03   0.5000000000E-02   0.0000000000E+00  -0.7500000000E-03   0.2375000003E+01   0.6607922975E-14   0.6440393142E-14   0.2071317781E-16   0.1689807529E-14  -0.6906271933E-15   0.4750000007E-02  -0.1425000002E-02  -0.1425000002E-02   0.4534245257E-16  -0.8835206688E-16  -0.1959385897E-16   0.2375000003E+01
   0.2009500000E+01   0.9985750000E+00   0.9985750000E+00   0.4500000000E-02  -0.6750000000E-03  -0.6750000000E-03   0.5000000000E-02  -0.7500000000E-03  -0.7500000000E-03   0.2375000003E+01  -0.7054877405E-14  -0.8122932990E-14  -0.3004520965E-15  -0.1169600067E-14  -0.1032637739E-15   0.4750000006E-02  -0.1425000002E-02  -0.1425000002E-02   0.6912547672E-16  -0.1302351861E-15  -0.2938757202E-16   0.2375000003E+01
     1     2     3     4     5     6     7     8
     2     9    10     3     6    11    12     7
 VARIABLES = X,Y,Z,DU1,DU2,DU3,U1,U2,U3,S11,S22,S33,S12,S13,S23,E11,E22,E33,E12,E13,E23,SMISES
 ZONE, T="0.4600D+01" F=FEPOINT, I=   12 J=    2 ET=BRICK
   0.0000000000E+00   0.0000000000E+00   0.0000000000E+00   0.0000000000E+00   0.0000000000E+00   0.0000000000E+00   0.0000000000E+00   0.0000000000E+00   0.0000000000E+00   0.3500000005E+01  -0.2629055761E-14  -0.3112518556E-14   0.3432384903E-16   0.6710247274E-15   0.5566439275E-15   0.7000000011E-02  -0.2100000003E-02  -0.2100000003E-02   0.3164975106E-18  -0.9145475445E-16   0.1101377162E-16   0.3500000005E+01
   0.1007000000E+01   0.0000000000E+00  -0.5051774387E-16   0.2250000000E-02   0.0000000000E+00  -0.7406089783E-18   0.4750000000E-02   0.0000000000E+00  -0.4977713489E-16   0.3500000005E+01   0.6502488158E-14   0.6104480319E-14   0.7563834336E-15   0.2950104978E-15   0.1492588179E-15   0.7000000011E-02  -0.2100000003E-02  -0.2100000003E-02   0.8150549513E-16   0.1468235974E-16   0.4091425057E-16   0.3500000005E+01
   0.1007000000E+01   0.9979000000E+00  -0.3003910288E-16   0.2250000000E-02  -0.6750000000E-03  -0.3118371394E-18   0.4750000000E-02  -0.1425000000E-02  -0.2972726574E-16   0.3500000005E+01  -0.7109125222E-14  -0.7232495007E-14   0.6434080246E-15  -0.1039646358E-15   0.2525218841E-15   0.7000000010E-02  -0.2100000003E-02  -0.2100000003E-02   0.7299493441E-16  -0.3605663709E-16  -0.3516290818E-16   0.3500000005E+01
   0.0000000000E+00   0.9979000000E+00   0.5155457310E-17   0.0000000000E+00  -0.6750000000E-03   0.5077399430E-18   0.0000000000E+00  -0.1425000000E-02   0.4647717367E-17   0.3500000005E+01   0.2630123705E-14   0.4452090299E-15  -0.5075684530E-15  -0.3397662104E-15   0.1572869472E-15   0.7000000010E-02  -0.2100000003E-02  -0.2100000003E-02   0.4686415666E-16  -0.4741643781E-16  -0.4129892683E-16   0.3500000005E+01
   0.0000000000E+00   0.0000000000E+00   0.9979000000E+00   0.0000000000E+00   0.0000000000E+00  -0.6750000000E-03   0.0000000000E+00   0.0000000000E+00  -0.1425000000E-02   0.3500000005E+01  -0.1319529430E-14   0.1368971027E-14  -0.1026961316E-15  -0.5982809502E-15  -0.2122845571E-15   0.7000000010E-02  -0.2100000003E-02  -0.2100000003E-02  -0.5146627979E-18  -0.1452635679E-15  -0.5853340585E-16   0.3500000005E+01
   0.1007000000E+01   0.0000000000E+00   0.9979000000E+00   0.2250000000E-02   0.0000000000E+00  -0.6750000000E-03   0.4750000000E-02   0.0000000000E+00  -0.1425000000E-02   0.3500000005E+01  -0.4669552613E-14  -0.4464908842E-14   0.1956078382E-15   0.4985190706E-15  -0.6725637322E-16   0.7000000010E-02  -0.2100000003E-02  -0.2100000003E-02   0.2765906109E-16   0.1840490671E-16   0.6057856064E-16   0.3500000005E+01
   0.1007000000E+01   0.9979000000E+00   0.9979000000E+00   0.2250000000E-02  -0.6750000000E-03  -0.6750000000E-03   0.4750000000E-02  -0.1425000000E-02  -0.1425000000E-02   0.3500000005E+01   0.5305938028E-14   0.6240197621E-14  -0.1769428679E-15  -0.8454766214E-15  -0.1462142956E-15   0.7000000009E-02  -0.2100000003E-02  -0.2100000003E-02   0.3461523507E-16  -0.1834755472E-16  -0.1501469472E-16   0.3500000005E+01
   0.0000000000E+00   0.9979000000E+00   0.9979000000E+00   0.0000000000E+00  -0.6750000000E-03  -0.6750000000E-03   0.0000000000E+00  -0.1425000000E-02  -0.1425000000E-02   0.3500000005E+01   0.1576375836E-14   0.1125579050E-14  -0.7077147904E-15   0.8426708375E-15  -0.9863180169E-15   0.7000000009E-02  -0.2100000003E-02  -0.2100000003E-02   0.5340782913E-18   0.2043244914E-16  -0.1090936979E-15   0.3500000005E+01
   0.2014000000E+01   0.0000000000E+00  -0.1236605213E-15   0.4500000000E-02   0.0000000000E+00  -0.3797558429E-17   0.9500000000E-02   0.0000000000E+00  -0.1198629629E-15   0.3500000005E+01  -0.1175757799E-13  -0.1036707724E-13  -0.1158963176E-14  -0.2502542387E-14   0.1278245412E-14   0.7000000011E-02  -0.2100000003E-02  -0.2100000003E-02  -0.4617556229E-16  -0.1504969367E-15   0.3683723485E-16   0.3500000005E+01
   0.2014000000E+01   0.9979000000E+00  -0.1051464352E-15   0.4500000000E-02  -0.6750000000E-03  -0.2798831443E-17   0.9500000000E-02  -0.1425000000E-02  -0.1023476037E-15   0.3500000005E+01   0.1226009585E-13   0.1081607668E-13  -0.5223744853E-15   0.1289748363E-14   0.2476722143E-16   0.7000000010E-02  -0.2100000003E-02  -0.2100000003E-02  -0.1133156653E-15  -0.7134545688E-16   0.2545852489E-16   0.3500000005E+01
   0.2014000000E+01   0.0000000000E+00   0.9979000000E+00   0.4500000000E-02   0.0000000000E+00  -0.6750000000E-03   0.9500000000E-02   0.0000000000E+00  -0.1425000000E-02   0.3500000005E+01   0.7100086172E-14   0.7433882427E-14   0.8165818385E-16   0.1906743932E-14  -0.7632787248E-15   0.7000000010E-02  -0.2100000003E-02  -0.2100000003E-02   0.4407719981E-16  -0.9120056470E-16  -0.2011017378E-16   0.3500000005E+01
   0.2014000000E+01   0.9979000000E+00   0.9979000000E+00   0.4500000000E-02  -0.6750000000E-03  -0.6750000000E-03   0.9500000000E-02  -0.1425000000E-02  -0.1425000000E-02   0.3500000004E+01  -0.7031836670E-14  -0.8338536792E-14  -0.3411188183E-15  -0.1386481792E-14  -0.2520976693E-15   0.7000000009E-02  -0.2100000003E-02  -0.2100000003E-02   0.6738325943E-16  -0.1255220102E-15  -0.3185095749E-16   0.3500000004E+01
     1     2     3     4     5     6     7     8
     2     9    10     3     6    11    12     7
 VARIABLES = X,Y,Z,DU1,DU2,DU3,U1,U2,U3,S11,S22,S33,S12,S13,S23,E11,E22,E33,E12,E13,E23,SMISES
 ZONE, T="0.4650D+01" F=FEPOINT, I=   12 J=    2 ET=BRICK
   0.0000000000E+00   0.0000000000E+00   0.0000000000E+00   0.0000000000E+00   0.0000000000E+00   0.0000000000E+00   0.0000000000E+00   0.0000000000E+00   0.0000000000E+00   0.4625000007E+01  -0.3330382126E-14  -0.4210589427E-14   0.2759913867E-16   0.5036619642E-15   0.5377928559E-15   0.9250000015E-02  -0.2775000004E-02  -0.2775000004E-02   0.2804442017E-18  -0.9194095201E-16   0.1066829236E-16   0.4625000007E+01
   0.1009250000E+01   0.0000000000E+00  -0.5227345604E-16   0.2250000000E-02   0.0000000000E+00  -0.1755712176E-17   0.7000000000E-02   0.0000000000E+00  -0.5051774387E-16   0.4625000007E+01   0.6432102856E-14   0.5795717432E-14   0.1266426518E-14   0.6963005585E-15   0.2828884765E-15   0.9250000014E-02  -0.2775000004E-02  -0.2775000004E-02   0.8854644530E-16   0.1844107207E-16   0.4210722136E-16   0.4625000007E+01
   0.1009250000E+01   0.9972250000E+00  -0.3110283260E-16   0.2250000000E-02  -0.6750000000E-03  -0.1063729719E-17   0.7000000000E-02  -0.2100000000E-02  -0.3003910288E-16   0.4625000007E+01  -0.6583762109E-14  -0.7637406000E-14   0.1156566607E-14  -0.6357808879E-15   0.8185674764E-16   0.9250000013E-02  -0.2775000004E-02  -0.2775000004E-02   0.7749371936E-16  -0.3641561125E-16  -0.3758650648E-16   0.4625000007E+01
   0.0000000000E+00   0.9972250000E+00   0.5078252187E-17   0.0000000000E+00  -0.6750000000E-03  -0.7720512339E-19   0.0000000000E+00  -0.2100000000E-02   0.5155457310E-17   0.4625000007E+01   0.2841279607E-14   0.8940130508E-15  -0.2253030349E-15  -0.3551981353E-15  -0.7833107762E-16   0.9250000013E-02  -0.2775000004E-02  -0.2775000004E-02   0.5211712912E-16  -0.4971818346E-16  -0.4402723906E-16   0.4625000007E+01
   0.0000000000E+00   0.0000000000E+00   0.9972250000E+00   0.0000000000E+00   0.0000000000E+00  -0.6750000000E-03   0.0000000000E+00   0.0000000000E+00  -0.2100000000E-02   0.4625000007E+01  -0.5220549413E-15   0.2192937726E-14  -0.8213881746E-16  -0.7168312908E-15  -0.1268241197E-15   0.9250000013E-02  -0.2775000004E-02  -0.2775000004E-02  -0.7440189481E-18  -0.1464441074E-15  -0.5769303908E-16   0.4625000007E+01
   0.1009250000E+01   0.0000000000E+00   0.9972250000E+00   0.2250000000E-02   0.0000000000E+00  -0.6750000000E-03   0.7000000000E-02   0.0000000000E+00  -0.2100000000E-02   0.4625000007E+01  -0.4406871057E-14  -0.4222545769E-14  -0.4058029887E-15   0.8900353815E-15  -0.3134423025E-16   0.9250000013E-02  -0.2775000004E-02  -0.2775000004E-02   0.2268332012E-16   0.1956267712E-16   0.6163416187E-16   0.4625000007E+01
   0.1009250000E+01   0.9972250000E+00   0.9972250000E+00   0.2250000000E-02  -0.6750000000E-03  -0.6750000000E-03   0.7000000000E-02  -0.2100000000E-02  -0.2100000000E-02   0.4625000006E+01   0.5165167424E-14   0.6175256639E-14  -0.8441825121E-15  -0.1255490151E-14  -0.4548876832E-15   0.9250000012E-02  -0.2775000004E-02  -0.2775000004E-02   0.3296257008E-16  -0.2347810488E-16  -0.1825915248E-16   0.4625000006E+01
   0.0000000000E+00   0.9972250000E+00   0.9972250000E+00   0.0000000000E+00  -0.6750000000E-03  -0.6750000000E-03   0.0000000000E+00  -0.2100000000E-02  -0.2100000000E-02   0.4625000006E+01   0.7883311786E-15   0.8155528599E-15  -0.6363192711E-15   0.5939083947E-15  -0.1077837342E-14   0.9250000012E-02  -0.2775000004E-02  -0.2775000004E-02  -0.2518921031E-18   0.1919826607E-16  -0.1112959768E-15   0.4625000006E+01
   0.2018500000E+01   0.0000000000E+00  -0.1308423305E-15   0.4500000000E-02   0.0000000000E+00  -0.7181809152E-17   0.1400000000E-01   0.0000000000E+00  -0.1236605213E-15   0.4625000007E+01  -0.1210697785E-13  -0.1036036956E-13  -0.7035383782E-15  -0.2041287696E-14   0.1617984305E-14   0.9250000014E-02  -0.2775000004E-02  -0.2775000004E-02  -0.4439911801E-16  -0.1589466255E-15   0.4149623410E-16   0.4625000007E+01
   0.2018500000E+01   0.9972250000E+00  -0.1106446437E-15   0.4500000000E-02  -0.6750000000E-03  -0.5498208526E-17   0.1400000000E-01  -0.2100000000E-02  -0.1051464352E-15   0.4625000006E+01   0.1218971055E-13   0.1065970251E-13  -0.3625086718E-15   0.1503064122E-14   0.2552193486E-18   0.9250000013E-02  -0.2775000004E-02  -0.2775000004E-02  -0.1156037369E-15  -0.6521998819E-16   0.2560785730E-16   0.4625000006E+01
   0.2018500000E+01   0.0000000000E+00   0.9972250000E+00   0.4500000000E-02   0.0000000000E+00  -0.6750000000E-03   0.1400000000E-01   0.0000000000E+00  -0.2100000000E-02   0.4625000006E+01   0.6584152890E-14   0.7530759990E-14   0.2359312487E-15   0.2123627525E-14  -0.4872040628E-15   0.9250000013E-02  -0.2775000004E-02  -0.2775000004E-02   0.4645568368E-16  -0.8552095242E-16  -0.1909837277E-16   0.4625000006E+01
   0.2018500000E+01   0.9972250000E+00   0.9972250000E+00   0.4500000000E-02  -0.6750000000E-03  -0.6750000000E-03   0.1400000000E-01  -0.2100000000E-02  -0.2100000000E-02   0.4625000006E+01  -0.6769155125E-14  -0.7299962551E-14  -0.2568601292E-15  -0.9365681037E-15  -0.2643028175E-15   0.9250000012E-02  -0.2775000004E-02  -0.2775000004E-02   0.6352026464E-16  -0.1294333947E-15  -0.3112652172E-16   0.4625000006E+01
     1     2     3     4     5     6     7     8
     2     9    10     3     6    11    12     7
 VARIABLES = X,Y,Z,DU1,DU2,DU3,U1,U2,U3,S11,S22,S33,S12,S13,S23,E11,E22,E33,E12,E13,E23,SMISES
 ZONE, T="0.4700D+01" F=FEPOINT, I=   12 J=    2 ET=BRICK
   0.0000000000E+00   0.0000000000E+00   0.0000000000E+00   0.0000000000E+00   0.0000000000E+00   0.0000000000E+00   0.0000000000E+00   0.0000000000E+00   0.0000000000E+00   0.5750000009E+01  -0.4012848822E-14  -0.4706933631E-14   0.3209369950E-16   0.4310229051E-15   0.6812121231E-15   0.1150000002E-01  -0.3450000005E-02  -0.3450000005E-02  -0.8980446253E-18  -0.8783589099E-16   0.1092390652E-16   0.5750000009E+01
   0.1011500000E+01   0.0000000000E+00  -0.5287168018E-16   0.2250000000E-02   0.0000000000E+00  -0.5982241429E-18   0.9250000000E-02   0.0000000000E+00  -0.5227345604E-16   0.5750000009E+01   0.5381376640E-14   0.4846583676E-14   0.2035600737E-14   0.1244786634E-14   0.1491956911E-15   0.1150000002E-01  -0.3450000005E-02  -0.3450000005E-02   0.9951131684E-16   0.1773919838E-16   0.4125635530E-16   0.5750000009E+01
   0.1011500000E+01   0.9965500000E+00  -0.3235391601E-16   0.2250000000E-02  -0.6750000000E-03  -0.1251083406E-17   0.9250000000E-02  -0.2775000000E-02  -0.3110283260E-16   0.5750000008E+01  -0.5462650617E-14  -0.6440464851E-14   0.1683305089E-14  -0.8055616397E-15  -0.4773794806E-16   0.1150000002E-01  -0.3450000005E-02  -0.3450000005E-02   0.8692757488E-16  -0.2888430717E-16  -0.3984264730E-16   0.5750000008E+01
   0.0000000000E+00   0.9965500000E+00   0.5727975116E-17   0.0000000000E+00  -0.6750000000E-03   0.6497229296E-18   0.0000000000E+00  -0.2775000000E-02   0.5078252187E-17   0.5750000008E+01   0.3603561512E-14   0.7341873180E-15  -0.2632732341E-15  -0.7770207158E-15  -0.1731528712E-15   0.1150000002E-01  -0.3450000005E-02  -0.3450000005E-02   0.5041503329E-16  -0.6050851762E-16  -0.4329289081E-16   0.5750000008E+01
   0.0000000000E+00   0.0000000000E+00   0.9965500000E+00   0.0000000000E+00   0.0000000000E+00  -0.6750000000E-03   0.0000000000E+00   0.0000000000E+00  -0.2775000000E-02   0.5750000008E+01  -0.3594948257E-17   0.2830586482E-14  -0.1220992628E-15  -0.9148212761E-15  -0.2248051196E-15   0.1150000002E-01  -0.3450000005E-02  -0.3450000005E-02   0.1597650579E-17  -0.1486277861E-15  -0.5662901058E-16   0.5750000008E+01
   0.1011500000E+01   0.0000000000E+00   0.9965500000E+00   0.2250000000E-02   0.0000000000E+00  -0.6750000000E-03   0.9250000000E-02   0.0000000000E+00  -0.2775000000E-02   0.5750000008E+01  -0.3951893280E-14  -0.3954419892E-14  -0.2337346126E-15   0.1404134758E-14  -0.1974897540E-16   0.1150000002E-01  -0.3450000005E-02  -0.3450000005E-02   0.1990848011E-16   0.2396815058E-16   0.6097833284E-16   0.5750000008E+01
   0.1011500000E+01   0.9965500000E+00   0.9965500000E+00   0.2250000000E-02  -0.6750000000E-03  -0.6750000000E-03   0.9250000000E-02  -0.2775000000E-02  -0.2775000000E-02   0.5750000008E+01   0.4883626227E-14   0.6469145363E-14  -0.6897445097E-15  -0.1372613250E-14  -0.4666977958E-15   0.1150000002E-01  -0.3450000005E-02  -0.3450000005E-02   0.2959589121E-16  -0.2746030736E-16  -0.2080864325E-16   0.5750000008E+01
   0.0000000000E+00   0.9965500000E+00   0.9965500000E+00   0.0000000000E+00  -0.6750000000E-03  -0.6750000000E-03   0.0000000000E+00  -0.2775000000E-02  -0.2775000000E-02   0.5750000008E+01   0.9969604428E-15   0.6403190223E-15  -0.6014104571E-15   0.5523486187E-15  -0.1347260840E-14   0.1150000002E-01  -0.3450000005E-02  -0.3450000005E-02   0.1115353520E-17   0.2172789235E-16  -0.1170947590E-15   0.5750000008E+01
   0.2023000000E+01   0.0000000000E+00  -0.1330388934E-15   0.4500000000E-02   0.0000000000E+00  -0.2196562961E-17   0.1850000000E-01   0.0000000000E+00  -0.1308423305E-15   0.5750000009E+01  -0.1352596367E-13  -0.1100691424E-13   0.5729289424E-15  -0.1397172402E-14   0.1663043936E-14   0.1150000002E-01  -0.3450000005E-02  -0.3450000005E-02  -0.3828700310E-16  -0.1486497267E-15   0.4007172384E-16   0.5750000009E+01
   0.2023000000E+01   0.9965500000E+00  -0.1126457919E-15   0.4500000000E-02  -0.6750000000E-03  -0.2001148220E-17   0.1850000000E-01  -0.2775000000E-02  -0.1106446437E-15   0.5750000008E+01   0.1118360676E-13   0.1039429877E-13   0.4539809830E-15   0.4708649816E-15   0.4595780556E-15   0.1150000002E-01  -0.3450000005E-02  -0.3450000005E-02  -0.1143927463E-15  -0.8668001129E-16   0.3195193182E-16   0.5750000008E+01
   0.2023000000E+01   0.0000000000E+00   0.9965500000E+00   0.4500000000E-02   0.0000000000E+00  -0.6750000000E-03   0.1850000000E-01   0.0000000000E+00  -0.2775000000E-02   0.5750000008E+01   0.7154138442E-14   0.7940919794E-14  -0.3228073152E-15   0.2778134067E-14  -0.4356542637E-15   0.1150000002E-01  -0.3450000005E-02  -0.3450000005E-02   0.4433189946E-16  -0.7914883795E-16  -0.1783203004E-16   0.5750000008E+01
   0.2023000000E+01   0.9965500000E+00   0.9965500000E+00   0.4500000000E-02  -0.6750000000E-03  -0.6750000000E-03   0.1850000000E-01  -0.2775000000E-02  -0.2775000000E-02   0.5750000007E+01  -0.7540866871E-14  -0.8446107504E-14  -0.5641626528E-15  -0.1914136427E-14   0.3031459811E-15   0.1150000001E-01  -0.3450000004E-02  -0.3450000004E-02   0.6481031074E-16  -0.1449587261E-15  -0.2572660269E-16   0.5750000007E+01
     1     2     3     4     5     6     7     8
     2     9    10     3     6    11    12     7
 VARIABLES = X,Y,Z,DU1,DU2,DU3,U1,U2,U3,S11,S22,S33,S12,S13,S23,E11,E22,E33,E12,E13,E23,SMISES
 ZONE, T="0.4750D+01" F=FEPOINT, I=   12 J=    2 ET=BRICK
   0.0000000000E+00   0.0000000000E+00   0.0000000000E+00   0.0000000000E+00   0.0000000000E+00   0.0000000000E+00   0.0000000000E+00   0.0000000000E+00   0.0000000000E+00   0.6875000011E+01  -0.2453092512E-14  -0.3187084907E-14   0.3358927039E-16   0.8239757025E-15   0.6353269586E-15   0.1375000002E-01  -0.4125000006E-02  -0.4125000006E-02   0.4196001503E-18  -0.8519324351E-16   0.1150350749E-16   0.6875000011E+01
   0.1013750000E+01   0.0000000000E+00  -0.4973828877E-16   0.2250000000E-02   0.0000000000E+00   0.3133391415E-17   0.1150000000E-01   0.0000000000E+00  -0.5287168018E-16   0.6875000011E+01   0.6220946908E-14   0.5625198503E-14  -0.3940370513E-16  -0.5954691014E-15   0.6528730349E-16   0.1375000002E-01  -0.4125000006E-02  -0.4125000006E-02   0.7437517181E-16   0.1485582642E-17   0.3953634822E-16   0.6875000011E+01
   0.1013750000E+01   0.9958750000E+00  -0.2969160654E-16   0.2250000000E-02  -0.6750000000E-03   0.2662309468E-17   0.1150000000E-01  -0.3450000000E-02  -0.3235391601E-16   0.6875000010E+01  -0.6442991463E-14  -0.6949494959E-14  -0.1871234887E-16   0.5475157385E-15   0.1558919096E-15   0.1375000002E-01  -0.4125000006E-02  -0.4125000006E-02   0.6446929923E-16  -0.2281927552E-16  -0.3850645859E-16   0.6875000010E+01
   0.0000000000E+00   0.9958750000E+00   0.5491080922E-17   0.0000000000E+00  -0.6750000000E-03  -0.2368941945E-18   0.0000000000E+00  -0.3450000000E-02   0.5727975116E-17   0.6875000010E+01   0.2409537946E-14  -0.9974316883E-16  -0.2785593104E-15  -0.3256674408E-15   0.2130321916E-15   0.1375000002E-01  -0.4125000006E-02  -0.4125000006E-02   0.5299745334E-16  -0.5000053654E-16  -0.3803091822E-16   0.6875000010E+01
   0.0000000000E+00   0.0000000000E+00   0.9958750000E+00   0.0000000000E+00   0.0000000000E+00  -0.6750000000E-03   0.0000000000E+00   0.0000000000E+00  -0.3450000000E-02   0.6875000010E+01  -0.2370255681E-14  -0.1563220976E-15  -0.1194087848E-15  -0.4249566721E-15   0.3650918111E-16   0.1375000002E-01  -0.4125000006E-02  -0.4125000006E-02   0.4663630472E-18  -0.1447346470E-15  -0.5556254403E-16   0.6875000010E+01
   0.1013750000E+01   0.0000000000E+00   0.9958750000E+00   0.2250000000E-02   0.0000000000E+00  -0.6750000000E-03   0.1150000000E-01   0.0000000000E+00  -0.3450000000E-02   0.6875000010E+01  -0.4650692919E-14  -0.4041138189E-14   0.1010836805E-14  -0.2598354366E-15  -0.9297183495E-16   0.1375000002E-01  -0.4125000006E-02  -0.4125000006E-02   0.3297611316E-16   0.1766350868E-16   0.5991820331E-16   0.6875000010E+01
   0.1013750000E+01   0.9958750000E+00   0.9958750000E+00   0.2250000000E-02  -0.6750000000E-03  -0.6750000000E-03   0.1150000000E-01  -0.3450000000E-02  -0.3450000000E-02   0.6875000009E+01   0.5094782079E-14   0.6215893615E-14   0.5598476258E-15  -0.2021003329E-15  -0.2043709400E-15   0.1375000002E-01  -0.4125000005E-02  -0.4125000005E-02   0.4594356638E-16  -0.1885086080E-16  -0.1705926435E-16   0.6875000009E+01
   0.0000000000E+00   0.9958750000E+00   0.9958750000E+00   0.0000000000E+00  -0.6750000000E-03  -0.6750000000E-03   0.0000000000E+00  -0.3450000000E-02  -0.3450000000E-02   0.6875000009E+01   0.1928302366E-14   0.1733479432E-14  -0.6369197796E-15   0.8016782689E-15  -0.6014060163E-15   0.1375000002E-01  -0.4125000006E-02  -0.4125000006E-02  -0.9835172116E-18   0.2683868089E-16  -0.1086545362E-15   0.6875000009E+01
   0.2027500000E+01   0.0000000000E+00  -0.1223996025E-15   0.4500000000E-02   0.0000000000E+00   0.1063929099E-16   0.2300000000E-01   0.0000000000E+00  -0.1330388934E-15   0.6875000010E+01  -0.1350963049E-13  -0.1168719263E-13  -0.5568272860E-15  -0.2083918166E-14   0.1192745710E-14   0.1375000002E-01  -0.4125000006E-02  -0.4125000006E-02  -0.3964099480E-16  -0.1421920115E-15   0.3645537179E-16   0.6875000010E+01
   0.2027500000E+01   0.9958750000E+00  -0.1044711928E-15   0.4500000000E-02  -0.6750000000E-03   0.8174599133E-17   0.2300000000E-01  -0.3450000000E-02  -0.1126457919E-15   0.6875000010E+01   0.1444136337E-13   0.1240086640E-13   0.1054965745E-15   0.1050003115E-14  -0.3411474676E-15   0.1375000002E-01  -0.4125000006E-02  -0.4125000006E-02  -0.1112385145E-15  -0.7644706722E-16   0.2349407809E-16   0.6875000010E+01
   0.2027500000E+01   0.0000000000E+00   0.9958750000E+00   0.4500000000E-02   0.0000000000E+00  -0.6750000000E-03   0.2300000000E-01   0.0000000000E+00  -0.3450000000E-02   0.6875000010E+01   0.9483079768E-14   0.8948286843E-14  -0.3506660953E-15   0.2331075009E-14  -0.7061406764E-15   0.1375000002E-01  -0.4125000006E-02  -0.4125000006E-02   0.4240017811E-16  -0.9460270805E-16  -0.2242151008E-16   0.6875000010E+01
   0.2027500000E+01   0.9958750000E+00   0.9958750000E+00   0.4500000000E-02  -0.6750000000E-03  -0.6750000000E-03   0.2300000000E-01  -0.3450000000E-02  -0.3450000000E-02   0.6875000009E+01  -0.9485215564E-14  -0.1009729702E-13  -0.5388858796E-15  -0.1771410038E-14  -0.3016138212E-15   0.1375000002E-01  -0.4125000005E-02  -0.4125000005E-02   0.6307720895E-16  -0.1384261436E-15  -0.3092692616E-16   0.6875000009E+01
     1     2     3     4     5     6     7     8
     2     9    10     3     6    11    12     7
 VARIABLES = X,Y,Z,DU1,DU2,DU3,U1,U2,U3,S11,S22,S33,S12,S13,S23,E11,E22,E33,E12,E13,E23,SMISES
 ZONE, T="0.4800D+01" F=FEPOINT, I=   12 J=    2 ET=BRICK
   0.0000000000E+00   0.0000000000E+00   0.0000000000E+00   0.0000000000E+00   0.0000000000E+00   0.0000000000E+00   0.0000000000E+00   0.0000000000E+00   0.0000000000E+00   0.8000000013E+01  -0.3870619451E-14  -0.4813241059E-14   0.4891043526E-16   0.8043066343E-15   0.5488320359E-15   0.1600000003E-01  -0.4800000008E-02  -0.4800000008E-02  -0.4142258481E-18  -0.8681990191E-16   0.1011736676E-16   0.8000000013E+01
   0.1016000000E+01   0.0000000000E+00  -0.5033737219E-16   0.2250000000E-02   0.0000000000E+00  -0.5990834189E-18   0.1375000000E-01   0.0000000000E+00  -0.4973828877E-16   0.8000000012E+01   0.5199969027E-14   0.5199969027E-14   0.1280619477E-14   0.6975254454E-15   0.5470141088E-16   0.1600000002E-01  -0.4800000007E-02  -0.4800000007E-02   0.9064560780E-16   0.2170240708E-16   0.3981843100E-16   0.8000000012E+01
   0.1016000000E+01   0.9952000000E+00  -0.3030530014E-16   0.2250000000E-02  -0.6750000000E-03  -0.6136936023E-18   0.1375000000E-01  -0.4125000000E-02  -0.2969160654E-16   0.8000000011E+01  -0.6413243205E-14  -0.7323198827E-14   0.1227419235E-14  -0.5322455702E-15   0.2278433266E-15   0.1600000002E-01  -0.4800000007E-02  -0.4800000007E-02   0.8489533871E-16  -0.3102972260E-16  -0.4039284922E-16   0.8000000011E+01
   0.0000000000E+00   0.9952000000E+00   0.4971613013E-17   0.0000000000E+00  -0.6750000000E-03  -0.5194679089E-18   0.0000000000E+00  -0.4125000000E-02   0.5491080922E-17   0.8000000012E+01   0.3220427755E-14   0.5798058660E-15  -0.3363500910E-15  -0.3016296248E-15   0.2948545246E-16   0.1600000002E-01  -0.4800000007E-02  -0.4800000007E-02   0.5027568460E-16  -0.5326046549E-16  -0.3960970382E-16   0.8000000012E+01
   0.0000000000E+00   0.0000000000E+00   0.9952000000E+00   0.0000000000E+00   0.0000000000E+00  -0.6750000000E-03   0.0000000000E+00   0.0000000000E+00  -0.4125000000E-02   0.8000000012E+01  -0.7197955553E-15   0.1484708202E-14  -0.1497712062E-15  -0.8874343042E-15  -0.3477165049E-15   0.1600000002E-01  -0.4800000007E-02  -0.4800000007E-02   0.5258324136E-18  -0.1493648553E-15  -0.5974494479E-16   0.8000000012E+01
   0.1016000000E+01   0.0000000000E+00   0.9952000000E+00   0.2250000000E-02   0.0000000000E+00  -0.6750000000E-03   0.1375000000E-01   0.0000000000E+00  -0.4125000000E-02   0.8000000011E+01  -0.3992530247E-14  -0.4030249548E-14  -0.1371817508E-15   0.9869870672E-15  -0.4117856537E-16   0.1600000002E-01  -0.4800000007E-02  -0.4800000007E-02   0.2093328385E-16   0.2313587238E-16   0.6347936738E-16   0.8000000011E+01
   0.1016000000E+01   0.9952000000E+00   0.9952000000E+00   0.2250000000E-02  -0.6750000000E-03  -0.6750000000E-03   0.1375000000E-01  -0.4125000000E-02  -0.4125000000E-02   0.8000000010E+01   0.4983759820E-14   0.6700619761E-14  -0.5344356283E-15  -0.1197836049E-14  -0.1271319132E-15   0.1600000002E-01  -0.4800000006E-02  -0.4800000006E-02   0.3529014667E-16  -0.2223910593E-16  -0.1944249577E-16   0.8000000010E+01
   0.0000000000E+00   0.9952000000E+00   0.9952000000E+00   0.0000000000E+00  -0.6750000000E-03  -0.6750000000E-03   0.0000000000E+00  -0.4125000000E-02  -0.4125000000E-02   0.8000000011E+01   0.2996195194E-15   0.1049944882E-14  -0.5777693713E-15   0.8561117176E-15  -0.9567019362E-15   0.1600000002E-01  -0.4800000006E-02  -0.4800000006E-02  -0.4622575894E-19   0.2752293368E-16  -0.1126669906E-15   0.8000000011E+01
   0.2032000000E+01   0.0000000000E+00  -0.1243010997E-15   0.4500000000E-02   0.0000000000E+00  -0.1901497202E-17   0.2750000000E-01   0.0000000000E+00  -0.1223996025E-15   0.8000000012E+01  -0.1231414824E-13  -0.9476176785E-14  -0.1441050405E-14  -0.2525908643E-14   0.1137140384E-14   0.1600000002E-01  -0.4800000007E-02  -0.4800000007E-02  -0.5821930110E-16  -0.1580988036E-15   0.3437839950E-16   0.8000000012E+01
   0.2032000000E+01   0.9952000000E+00  -0.1067670449E-15   0.4500000000E-02  -0.6750000000E-03  -0.2295852117E-17   0.2750000000E-01  -0.4125000000E-02  -0.1044711928E-15   0.8000000011E+01   0.1187005901E-13   0.1058931720E-13  -0.8822089109E-15   0.1326849702E-14  -0.1979836755E-15   0.1600000002E-01  -0.4800000007E-02  -0.4800000007E-02  -0.1299674852E-15  -0.7788760877E-16   0.2513018080E-16   0.8000000011E+01
   0.2032000000E+01   0.0000000000E+00   0.9952000000E+00   0.4500000000E-02   0.0000000000E+00  -0.6750000000E-03   0.2750000000E-01   0.0000000000E+00  -0.4125000000E-02   0.8000000011E+01   0.8661301349E-14   0.6944441403E-14  -0.2177338090E-15   0.2194357721E-14  -0.5277068289E-15   0.1600000002E-01  -0.4800000007E-02  -0.4800000007E-02   0.5263594610E-16  -0.1010531363E-15  -0.1863714433E-16   0.8000000011E+01
   0.2032000000E+01   0.9952000000E+00   0.9952000000E+00   0.4500000000E-02  -0.6750000000E-03  -0.6750000000E-03   0.2750000000E-01  -0.4125000000E-02  -0.4125000000E-02   0.8000000010E+01  -0.7590933598E-14  -0.8341258960E-14  -0.2711854251E-15  -0.1354674000E-14   0.1536797340E-15   0.1600000002E-01  -0.4800000006E-02  -0.4800000006E-02   0.7468788677E-16  -0.1226608080E-15  -0.2687218853E-16   0.8000000010E+01
     1     2     3     4     5     6     7     8
     2     9    10     3     6    11    12     7
 VARIABLES = X,Y,Z,DU1,DU2,DU3,U1,U2,U3,S11,S22,S33,S12,S13,S23,E11,E22,E33,E12,E13,E23,SMISES
 ZONE, T="0.4850D+01" F=FEPOINT, I=   12 J=    2 ET=BRICK
   0.0000000000E+00   0.0000000000E+00   0.0000000000E+00   0.0000000000E+00   0.0000000000E+00   0.0000000000E+00   0.0000000000E+00   0.0000000000E+00   0.0000000000E+00   0.9125000014E+01  -0.6156006055E-14  -0.7094642170E-14   0.3291871642E-16   0.4588427358E-15   0.7284170662E-15   0.1825000003E-01  -0.5475000009E-02  -0.5475000009E-02   0.1712312131E-17  -0.8987523458E-16   0.1171276911E-16   0.9125000014E+01
   0.1018250000E+01   0.0000000000E+00  -0.5543751449E-16   0.2250000000E-02   0.0000000000E+00  -0.5100142305E-17   0.1600000000E-01   0.0000000000E+00  -0.5033737219E-16   0.9125000014E+01   0.5210857668E-14   0.3805287259E-14   0.3084548827E-14   0.2103204075E-14   0.4351964386E-15   0.1825000003E-01  -0.5475000008E-02  -0.5475000008E-02   0.1063646688E-15   0.2708329456E-16   0.4302778877E-16   0.9125000014E+01
   0.1018250000E+01   0.9945250000E+00  -0.3342861665E-16   0.2250000000E-02  -0.6750000000E-03  -0.3123316504E-17   0.1600000000E-01  -0.4800000000E-02  -0.3030530014E-16   0.9125000013E+01  -0.4877790835E-14  -0.7437138770E-14   0.2850585280E-14  -0.1975228323E-14  -0.3930058246E-15   0.1825000003E-01  -0.5475000008E-02  -0.5475000008E-02   0.9974615272E-16  -0.5228621696E-16  -0.4436716251E-16   0.9125000013E+01
   0.0000000000E+00   0.9945250000E+00   0.5926486819E-17   0.0000000000E+00  -0.6750000000E-03   0.9548738064E-18   0.0000000000E+00  -0.4800000000E-02   0.4971613013E-17   0.9125000013E+01   0.5501828935E-14   0.2166392848E-14  -0.8234566993E-16  -0.5990659100E-15  -0.4729179236E-15   0.1825000003E-01  -0.5475000008E-02  -0.5475000008E-02   0.5553579196E-16  -0.4850141453E-16  -0.4188625668E-16   0.9125000013E+01
   0.0000000000E+00   0.0000000000E+00   0.9945250000E+00   0.0000000000E+00   0.0000000000E+00  -0.6750000000E-03   0.0000000000E+00   0.0000000000E+00  -0.4800000000E-02   0.9125000013E+01   0.2279264962E-14   0.5814968367E-14  -0.1525517156E-15  -0.1356342548E-14  -0.3351953207E-15   0.1825000003E-01  -0.5475000008E-02  -0.5475000008E-02   0.7412334043E-19  -0.1524909560E-15  -0.6272342038E-16   0.9125000013E+01
   0.1018250000E+01   0.0000000000E+00   0.9945250000E+00   0.2250000000E-02   0.0000000000E+00  -0.6750000000E-03   0.1600000000E-01   0.0000000000E+00  -0.4800000000E-02   0.9125000013E+01  -0.3892396610E-14  -0.2221226946E-14  -0.1739272688E-14   0.2340210037E-14   0.1291265728E-16   0.1825000003E-01  -0.5475000008E-02  -0.5475000008E-02   0.4624301654E-17   0.3094538068E-16   0.6482785866E-16   0.9125000013E+01
   0.1018250000E+01   0.9945250000E+00   0.9945250000E+00   0.2250000000E-02  -0.6750000000E-03  -0.6750000000E-03   0.1600000000E-01  -0.4800000000E-02  -0.4800000000E-02   0.9125000012E+01   0.4187744142E-14   0.6703537426E-14  -0.2337817054E-14  -0.2757095547E-14  -0.1107750724E-14   0.1825000002E-01  -0.5475000007E-02  -0.5475000007E-02   0.1176999374E-16  -0.4054709141E-16  -0.3003796025E-16   0.9125000012E+01
   0.0000000000E+00   0.9945250000E+00   0.9945250000E+00   0.0000000000E+00  -0.6750000000E-03  -0.6750000000E-03   0.0000000000E+00  -0.4800000000E-02  -0.4800000000E-02   0.9125000012E+01  -0.2069958709E-14  -0.7764784044E-15  -0.7094343416E-15   0.1797586584E-15  -0.1721775273E-14   0.1825000002E-01  -0.5475000007E-02  -0.5475000007E-02  -0.1703156076E-17   0.1605465564E-16  -0.1205704593E-15   0.9125000012E+01
   0.2036500000E+01   0.0000000000E+00  -0.1479423609E-15   0.4500000000E-02   0.0000000000E+00  -0.2364126122E-16   0.3200000000E-01   0.0000000000E+00  -0.1243010997E-15   0.9125000014E+01  -0.1354375545E-13  -0.1141945786E-13   0.1432775713E-14  -0.8168547033E-15   0.2465301766E-14   0.1825000003E-01  -0.5475000008E-02  -0.5475000008E-02  -0.3840795293E-16  -0.1412361094E-15   0.4922995031E-16   0.9125000014E+01
   0.2036500000E+01   0.9945250000E+00  -0.1234086086E-15   0.4500000000E-02  -0.6750000000E-03  -0.1664156376E-16   0.3200000000E-01  -0.4800000000E-02  -0.1067670449E-15   0.9125000013E+01   0.1094270254E-13   0.9159442759E-14   0.1487146391E-14   0.5111853231E-15   0.3317532741E-15   0.1825000003E-01  -0.5475000008E-02  -0.5475000008E-02  -0.1139500244E-15  -0.7154045484E-16   0.3175647219E-16   0.9125000013E+01
   0.2036500000E+01   0.0000000000E+00   0.9945250000E+00   0.4500000000E-02   0.0000000000E+00  -0.6750000000E-03   0.3200000000E-01   0.0000000000E+00  -0.4800000000E-02   0.9125000013E+01   0.6810182942E-14   0.6616818864E-14  -0.1027416432E-14   0.3830772582E-14   0.5763557342E-15   0.1825000003E-01  -0.5475000008E-02  -0.5475000008E-02   0.4546615792E-16  -0.9561119456E-16  -0.5479993080E-17   0.9125000013E+01
   0.2036500000E+01   0.9945250000E+00   0.9945250000E+00   0.4500000000E-02  -0.6750000000E-03  -0.6750000000E-03   0.3200000000E-01  -0.4800000000E-02  -0.4800000000E-02   0.9125000012E+01  -0.6353355528E-14  -0.6612051559E-14  -0.1467918389E-14  -0.1840924875E-14   0.4340454282E-15   0.1825000002E-01  -0.5475000007E-02  -0.5475000007E-02   0.6298262039E-16  -0.1059959161E-15  -0.2287278318E-16   0.9125000012E+01
     1     2     3     4     5     6     7     8
     2     9    10     3     6    11    12     7
 VARIABLES = X,Y,Z,DU1,DU2,DU3,U1,U2,U3,S11,S22,S33,S12,S13,S23,E11,E22,E33,E12,E13,E23,SMISES
 ZONE, T="0.4900D+01" F=FEPOINT, I=   12 J=    2 ET=BRICK
   0.0000000000E+00   0.0000000000E+00   0.0000000000E+00   0.0000000000E+00   0.0000000000E+00   0.0000000000E+00   0.0000000000E+00   0.0000000000E+00   0.0000000000E+00   0.1025000002E+02  -0.4421745304E-14  -0.5952144204E-14   0.4661098210E-16   0.1048682865E-14   0.1163453700E-14   0.2550000004E-01  -0.8650000014E-02  -0.8650000014E-02  -0.1707819809E-17  -0.8999341828E-16   0.2283733040E-16   0.1025000002E+02
   0.1025500000E+01   0.0000000000E+00  -0.4957090947E-16   0.7250000000E-02   0.0000000000E+00   0.5866605022E-17   0.1825000000E-01   0.0000000000E+00  -0.5543751449E-16   0.1025000002E+02   0.5879908895E-14   0.5132501122E-14   0.1128733799E-14   0.2893107160E-15   0.3691268836E-15   0.2550000004E-01  -0.8650000013E-02  -0.8650000013E-02   0.1001308237E-15   0.3048620784E-16   0.4370414940E-16   0.1025000002E+02
   0.1025500000E+01   0.9913500000E+00  -0.2855420174E-16   0.7250000000E-02  -0.3175000000E-02   0.4874414906E-17   0.1825000000E-01  -0.5475000000E-02  -0.3342861665E-16   0.1025000001E+02  -0.7196234425E-14  -0.9725833880E-14   0.6862212052E-15   0.6557411492E-15  -0.8185950680E-15   0.2550000004E-01  -0.8650000012E-02  -0.8650000012E-02   0.8503471434E-16  -0.3892531714E-16  -0.5089795455E-16   0.1025000001E+02
   0.0000000000E+00   0.9913500000E+00   0.1055838359E-16   0.0000000000E+00  -0.3175000000E-02   0.4631896770E-17   0.0000000000E+00  -0.5475000000E-02   0.5926486819E-17   0.1025000001E+02   0.3311522373E-14   0.1185374838E-14   0.2805479328E-16  -0.7560696465E-15   0.4915993330E-15   0.2550000004E-01  -0.8650000013E-02  -0.8650000013E-02   0.5580849931E-16  -0.4810682677E-16  -0.3632335225E-16   0.1025000001E+02
   0.0000000000E+00   0.0000000000E+00   0.9913500000E+00   0.0000000000E+00   0.0000000000E+00  -0.3175000000E-02   0.0000000000E+00   0.0000000000E+00  -0.5475000000E-02   0.1025000001E+02  -0.2063890879E-15   0.4557462544E-14  -0.1143884889E-15  -0.1162663584E-14  -0.5039891673E-16   0.2550000004E-01  -0.8650000013E-02  -0.8650000013E-02  -0.5639386194E-18  -0.1485575399E-15  -0.5881445843E-16   0.1025000001E+02
   0.1025500000E+01   0.0000000000E+00   0.9913500000E+00   0.7250000000E-02   0.0000000000E+00  -0.3175000000E-02   0.1825000000E-01   0.0000000000E+00  -0.5475000000E-02   0.1025000001E+02  -0.4287877656E-14  -0.3599966435E-14   0.7728739535E-15   0.6459887187E-15  -0.9575003539E-16   0.2550000004E-01  -0.8650000012E-02  -0.8650000012E-02   0.3626897631E-16   0.1185710713E-16   0.6170408662E-16   0.1025000001E+02
   0.1025500000E+01   0.9913500000E+00   0.9913500000E+00   0.7250000000E-02  -0.3175000000E-02  -0.3175000000E-02   0.1825000000E-01  -0.5475000000E-02  -0.5475000000E-02   0.1025000001E+02   0.3177654729E-14   0.6876973762E-14   0.1657021551E-15  -0.6158920369E-15  -0.1064298315E-14   0.2550000003E-01  -0.8650000011E-02  -0.8650000011E-02   0.4058637851E-16  -0.2055552750E-16  -0.3020877912E-16   0.1025000001E+02
   0.0000000000E+00   0.9913500000E+00   0.9913500000E+00   0.0000000000E+00  -0.3175000000E-02  -0.3175000000E-02   0.0000000000E+00  -0.5475000000E-02  -0.5475000000E-02   0.1025000001E+02   0.7476942091E-15   0.9429082998E-15  -0.1184151024E-14  -0.8029385368E-16  -0.1105342397E-14   0.2550000003E-01  -0.8650000012E-02  -0.8650000012E-02  -0.8976325307E-17   0.1470301235E-16  -0.1082842524E-15   0.1025000001E+02
   0.2051000000E+01   0.0000000000E+00  -0.1328910449E-15   0.1450000000E-01   0.0000000000E+00   0.1505131602E-16   0.3650000000E-01   0.0000000000E+00  -0.1479423609E-15   0.1025000002E+02  -0.1614441689E-13  -0.1490722959E-13   0.1199880193E-14   0.1075965324E-14   0.1185386934E-14   0.2550000004E-01  -0.8650000013E-02  -0.8650000013E-02  -0.4478167907E-16  -0.1491183115E-15   0.3557434531E-16   0.1025000002E+02
   0.2051000000E+01   0.9913500000E+00  -0.1134804429E-15   0.1450000000E-01  -0.3175000000E-02   0.9928165728E-17   0.3650000000E-01  -0.5475000000E-02  -0.1234086086E-15   0.1025000001E+02   0.1503419397E-13   0.1622860838E-13   0.6742815998E-15  -0.1460370001E-14   0.2655750277E-15   0.2550000004E-01  -0.8650000012E-02  -0.8650000012E-02  -0.1364127285E-15  -0.8667313850E-16   0.3255676216E-16   0.1025000001E+02
   0.2051000000E+01   0.0000000000E+00   0.9913500000E+00   0.1450000000E-01   0.0000000000E+00  -0.3175000000E-02   0.3650000000E-01   0.0000000000E+00  -0.5475000000E-02   0.1025000001E+02   0.1504294695E-13   0.1445011610E-13  -0.2832166540E-14   0.2976442988E-14   0.4831839373E-15   0.2550000004E-01  -0.8650000012E-02  -0.8650000012E-02   0.8477298541E-17  -0.9867905398E-16  -0.4784572892E-17   0.1025000001E+02
   0.2051000000E+01   0.9913500000E+00   0.9913500000E+00   0.1450000000E-01  -0.3175000000E-02  -0.3175000000E-02   0.3650000000E-01  -0.5475000000E-02  -0.5475000000E-02   0.1025000001E+02  -0.1206342299E-13  -0.1298426709E-13  -0.2523979353E-14  -0.2055777753E-14   0.1255087107E-14   0.2550000003E-01  -0.8650000011E-02  -0.8650000011E-02   0.5709415251E-16  -0.1106517177E-15  -0.9861096901E-17   0.1025000001E+02
     1     2     3     4     5     6     7     8
     2     9    10     3     6    11    12     7
 VARIABLES = X,Y,Z,DU1,DU2,DU3,U1,U2,U3,S11,S22,S33,S12,S13,S23,E11,E22,E33,E12,E13,E23,SMISES
 ZONE, T="0.4950D+01" F=FEPOINT, I=   12 J=    2 ET=BRICK
   0.0000000000E+00   0.0000000000E+00   0.0000000000E+00   0.0000000000E+00   0.0000000000E+00   0.0000000000E+00   0.0000000000E+00   0.0000000000E+00   0.0000000000E+00   0.1137500002E+02  -0.5081652315E-14  -0.1424429090E-14  -0.2220908273E-17   0.4881653650E-14   0.3465181057E-14   0.5025000008E-01  -0.2057500003E-01  -0.2057500003E-01  -0.1860647108E-17   0.1852762333E-16   0.8708116900E-16   0.1137500002E+02
   0.1050250000E+01   0.0000000000E+00   0.6146441841E-19   0.2475000000E-01   0.0000000000E+00   0.4963237389E-16   0.2550000000E-01   0.0000000000E+00  -0.4957090947E-16   0.1137500002E+02   0.4992512489E-14   0.1214837152E-14   0.3037294735E-14   0.3161436263E-14  -0.8602233223E-15   0.5025000008E-01  -0.2057500003E-01  -0.2057500003E-01   0.1582590283E-15   0.9835883978E-16   0.1502266786E-16   0.1137500002E+02
   0.1050250000E+01   0.9794250000E+00   0.9048904503E-17   0.2475000000E-01  -0.1192500000E-01   0.3760310624E-16   0.2550000000E-01  -0.8650000000E-02  -0.2855420174E-16   0.1137500002E+02  -0.2655209159E-14  -0.1577652360E-14   0.2661460134E-14  -0.1357829611E-14  -0.7779804051E-15   0.5025000007E-01  -0.2057500003E-01  -0.2057500003E-01   0.1458321756E-15  -0.8164016961E-16  -0.6644249071E-16   0.1137500002E+02
   0.0000000000E+00   0.9794250000E+00   0.3980082264E-16   0.0000000000E+00  -0.1192500000E-01   0.2924243905E-16   0.0000000000E+00  -0.8650000000E-02   0.1055838359E-16   0.1137500002E+02   0.1723296772E-13   0.1184906370E-13  -0.3407201455E-15  -0.7047951799E-15   0.2338936759E-14   0.5025000007E-01  -0.2057500003E-01  -0.2057500003E-01   0.4794661695E-16  -0.4588064033E-16   0.2903295811E-16   0.1137500002E+02
   0.0000000000E+00   0.0000000000E+00   0.9794250000E+00   0.0000000000E+00   0.0000000000E+00  -0.1192500000E-01   0.0000000000E+00   0.0000000000E+00  -0.8650000000E-02   0.1137500002E+02   0.8088292939E-14   0.1416807912E-13   0.1228955839E-15  -0.2212534653E-15  -0.8737783734E-15   0.5025000007E-01  -0.2057500003E-01  -0.2057500003E-01   0.1593324604E-17  -0.1442747470E-15  -0.8699949123E-16   0.1137500002E+02
   0.1050250000E+01   0.0000000000E+00   0.9794250000E+00   0.2475000000E-01   0.0000000000E+00  -0.1192500000E-01   0.2550000000E-01   0.0000000000E+00  -0.8650000000E-02   0.1137500002E+02  -0.1049793655E-13  -0.1135344889E-13  -0.1154417643E-14   0.2148474568E-14   0.8098118973E-15   0.5025000007E-01  -0.2057500003E-01  -0.2057500003E-01   0.1060536608E-16   0.6656745491E-16   0.8459038777E-16   0.1137500002E+02
   0.1050250000E+01   0.9794250000E+00   0.9794250000E+00   0.2475000000E-01  -0.1192500000E-01  -0.1192500000E-01   0.2550000000E-01  -0.8650000000E-02  -0.8650000000E-02   0.1137500001E+02   0.1259745303E-14   0.3195732202E-14  -0.9920496410E-15  -0.1588471261E-14   0.3527250873E-15   0.5025000007E-01  -0.2057500003E-01  -0.2057500003E-01   0.2125084238E-16  -0.4995275215E-16  -0.8439761835E-17   0.1137500001E+02
   0.0000000000E+00   0.9794250000E+00   0.9794250000E+00   0.0000000000E+00  -0.1192500000E-01  -0.1192500000E-01   0.0000000000E+00  -0.8650000000E-02  -0.8650000000E-02   0.1137500002E+02  -0.1650762326E-13  -0.1928172163E-13  -0.8228067900E-15   0.2550666025E-14  -0.2062057037E-14   0.5025000007E-01  -0.2057500003E-01  -0.2057500003E-01  -0.1562539079E-16   0.7807417349E-16  -0.1259357798E-15   0.1137500002E+02
   0.2100500000E+01   0.0000000000E+00  -0.5156867534E-16   0.4950000000E-01   0.0000000000E+00   0.8132236951E-16   0.5100000000E-01   0.0000000000E+00  -0.1328910449E-15   0.1137500002E+02  -0.4321220106E-14  -0.1414322229E-14   0.2597109052E-15   0.1177127460E-14   0.7853242783E-15   0.5025000008E-01  -0.2057500003E-01  -0.2057500003E-01  -0.4747911102E-16  -0.1954253687E-15   0.4174189605E-16   0.1137500002E+02
   0.2100500000E+01   0.9794250000E+00  -0.3223591468E-16   0.4950000000E-01  -0.1192500000E-01   0.8124452824E-16   0.5100000000E-01  -0.8650000000E-02  -0.1134804429E-15   0.1137500002E+02   0.7537663007E-14   0.7749210008E-14   0.4107822748E-15  -0.3585625388E-17   0.8252482366E-15   0.5025000007E-01  -0.2057500003E-01  -0.2057500003E-01  -0.1240107485E-15  -0.6849076290E-16   0.5261608540E-16   0.1137500002E+02
   0.2100500000E+01   0.0000000000E+00   0.9794250000E+00   0.4950000000E-01   0.0000000000E+00  -0.1192500000E-01   0.5100000000E-01   0.0000000000E+00  -0.8650000000E-02   0.1137500002E+02   0.1698409220E-13   0.1652075246E-13  -0.1887736959E-14   0.2946433019E-14   0.1241424414E-16   0.5025000007E-01  -0.2057500003E-01  -0.2057500003E-01   0.2528809752E-16  -0.5618787693E-16  -0.1435742361E-16   0.1137500002E+02
   0.2100500000E+01   0.9794250000E+00   0.9794250000E+00   0.4950000000E-01  -0.1192500000E-01  -0.1192500000E-01   0.5100000000E-01  -0.8650000000E-02  -0.8650000000E-02   0.1137500001E+02  -0.1235119042E-13  -0.1290192538E-13  -0.1405579009E-14  -0.1654541509E-14   0.8968349612E-15   0.5025000006E-01  -0.2057500003E-01  -0.2057500003E-01   0.4615279753E-16  -0.1183479788E-15   0.2161128491E-17   0.1137500001E+02
     1     2     3     4     5     6     7     8
     2     9    10     3     6    11    12     7
 VARIABLES = X,Y,Z,DU1,DU2,DU3,U1,U2,U3,S11,S22,S33,S12,S13,S23,E11,E22,E33,E12,E13,E23,SMISES
 ZONE, T="0.5000D+01" F=FEPOINT, I=   12 J=    2 ET=BRICK
   0.0000000000E+00   0.0000000000E+00   0.0000000000E+00   0.0000000000E+00   0.0000000000E+00   0.0000000000E+00   0.0000000000E+00   0.0000000000E+00   0.0000000000E+00   0.1250000002E+02  -0.6564120462E-14  -0.4126683314E-14   0.5818422043E-16   0.3000241847E-15  -0.7728275868E-15   0.7500000012E-01  -0.3250000005E-01  -0.3250000005E-01   0.4116480681E-18  -0.8638214490E-17   0.3795750997E-16   0.1250000002E+02
   0.1075000000E+01   0.0000000000E+00  -0.1668229792E-16   0.2475000000E-01   0.0000000000E+00  -0.1674376234E-16   0.5025000000E-01   0.0000000000E+00   0.6146441841E-19   0.1250000002E+02   0.6034485495E-14   0.6337804121E-14  -0.1507089666E-14  -0.1443139025E-14  -0.1508882745E-15   0.7500000012E-01  -0.3250000005E-01  -0.3250000005E-01   0.8353262466E-16  -0.7063692792E-17   0.1856298844E-16   0.1250000002E+02
   0.1075000000E+01   0.9675000000E+00  -0.6802195268E-17   0.2475000000E-01  -0.1192500000E-01  -0.1585109977E-16   0.5025000000E-01  -0.2057500000E-01   0.9048904503E-17   0.1250000002E+02  -0.1193830853E-13  -0.1125039749E-13  -0.4735327109E-15   0.3213977718E-16   0.3737588124E-15   0.7500000011E-01  -0.3250000005E-01  -0.3250000005E-01   0.1124988759E-15  -0.4954648699E-16  -0.3208474311E-16   0.1250000002E+02
   0.0000000000E+00   0.9675000000E+00   0.1067964448E-16   0.0000000000E+00  -0.1192500000E-01  -0.2912117816E-16   0.0000000000E+00  -0.2057500000E-01   0.3980082264E-16   0.1250000002E+02   0.6597567847E-14   0.9687332401E-14   0.1048142907E-14   0.1012678501E-14   0.9189699535E-15   0.7500000011E-01  -0.3250000005E-01  -0.3250000005E-01   0.6812717028E-16  -0.2454192349E-16   0.3679463396E-17   0.1250000002E+02
   0.0000000000E+00   0.0000000000E+00   0.9675000000E+00   0.0000000000E+00   0.0000000000E+00  -0.1192500000E-01   0.0000000000E+00   0.0000000000E+00  -0.2057500000E-01   0.1250000002E+02   0.8595969227E-14   0.9725051928E-14  -0.8714973952E-16  -0.2129630382E-16  -0.7036997079E-15   0.7500000011E-01  -0.3250000005E-01  -0.3250000005E-01   0.3530996282E-17  -0.1420132571E-15  -0.8432957367E-16   0.1250000002E+02
   0.1075000000E+01   0.0000000000E+00   0.9675000000E+00   0.2475000000E-01   0.0000000000E+00  -0.1192500000E-01   0.5025000000E-01   0.0000000000E+00  -0.2057500000E-01   0.1250000002E+02  -0.6966218617E-14  -0.5996766362E-14  -0.7191896737E-15  -0.1181589182E-14   0.3653908994E-16   0.7500000011E-01  -0.3250000005E-01  -0.3250000005E-01   0.8656233760E-17   0.3471213574E-16   0.5483030625E-16   0.1250000002E+02
   0.1075000000E+01   0.9675000000E+00   0.9675000000E+00   0.2475000000E-01  -0.1192500000E-01  -0.1192500000E-01   0.5025000000E-01  -0.2057500000E-01  -0.2057500000E-01   0.1250000002E+02   0.8342040549E-14   0.7876174157E-14  -0.1486329149E-14  -0.1215859317E-14   0.8344972052E-16   0.7500000010E-01  -0.3250000004E-01  -0.3250000004E-01  -0.1897780399E-16  -0.3109406614E-16  -0.3130980886E-17   0.1250000002E+02
   0.0000000000E+00   0.9675000000E+00   0.9675000000E+00   0.0000000000E+00  -0.1192500000E-01  -0.1192500000E-01   0.0000000000E+00  -0.2057500000E-01  -0.2057500000E-01   0.1250000002E+02  -0.1525887058E-13  -0.1656430722E-13  -0.5100047303E-15   0.1180465114E-14   0.9592226343E-15   0.7500000010E-01  -0.3250000004E-01  -0.3250000004E-01  -0.2518684803E-17   0.7055465386E-16  -0.5415046331E-16   0.1250000002E+02
   0.2150000000E+01   0.0000000000E+00  -0.6116768141E-16   0.4950000000E-01   0.0000000000E+00  -0.9599006070E-17   0.1005000000E+00   0.0000000000E+00  -0.5156867534E-16   0.1250000002E+02  -0.1367267412E-13  -0.1473428917E-13  -0.2855360415E-14  -0.1738889359E-14  -0.3965784144E-16   0.7500000011E-01  -0.3250000005E-01  -0.3250000005E-01  -0.9760561838E-16  -0.1152763116E-15   0.4365638429E-16   0.1250000002E+02
   0.2150000000E+01   0.9675000000E+00  -0.4704986256E-16   0.4950000000E-01  -0.1192500000E-01  -0.1481394788E-16   0.1005000000E+00  -0.2057500000E-01  -0.3223591468E-16   0.1250000002E+02   0.1177576049E-13   0.9855715604E-14  -0.1259734518E-14   0.3398351385E-14  -0.1068883580E-14   0.7500000010E-01  -0.3250000005E-01  -0.3250000005E-01  -0.1441459862E-15  -0.2227537797E-16  -0.2172511323E-16   0.1250000002E+02
   0.2150000000E+01   0.0000000000E+00   0.9675000000E+00   0.4950000000E-01   0.0000000000E+00  -0.1192500000E-01   0.1005000000E+00   0.0000000000E+00  -0.2057500000E-01   0.1250000002E+02   0.9063399494E-14   0.7002584008E-14   0.1958764032E-14  -0.3414138858E-15  -0.1092593297E-15   0.7500000010E-01  -0.3250000005E-01  -0.3250000005E-01   0.7705677940E-16  -0.1213953534E-15  -0.1922889857E-16   0.1250000002E+02
   0.2150000000E+01   0.9675000000E+00   0.9675000000E+00   0.4950000000E-01  -0.1192500000E-01  -0.1192500000E-01   0.1005000000E+00  -0.2057500000E-01  -0.2057500000E-01   0.1250000002E+02  -0.3628138956E-15   0.7800748003E-15   0.2393089558E-15   0.2844924171E-14  -0.1281335551E-14   0.7500000010E-01  -0.3250000004E-01  -0.3250000004E-01   0.1003743995E-15  -0.2070219507E-16  -0.2059923061E-16   0.1250000002E+02
     1     2     3     4     5     6     7     8
     2     9    10     3     6    11    12     7
 VARIABLES = X,Y,Z,DU1,DU2,DU3,U1,U2,U3,S11,S22,S33,S12,S13,S23,E11,E22,E33,E12,E13,E23,SMISES
 ZONE, T="0.5050D+01" F=FEPOINT, I=   12 J=    2 ET=BRICK
   0.0000000000E+00   0.0000000000E+00   0.0000000000E+00   0.0000000000E+00   0.0000000000E+00   0.0000000000E+00   0.0000000000E+00   0.0000000000E+00   0.0000000000E+00   0.1137500002E+02   0.1163885423E-14   0.3579154111E-14   0.8325950244E-16   0.1520733728E-14   0.5207633138E-14   0.7275000011E-01  -0.3182500005E-01  -0.3182500005E-01  -0.4182471469E-17   0.6517715826E-17   0.9361290634E-16   0.1137500002E+02
   0.1072750000E+01   0.0000000000E+00  -0.2591372505E-16  -0.2250000000E-02   0.0000000000E+00  -0.9231427128E-17   0.7500000000E-01   0.0000000000E+00  -0.1668229792E-16   0.1137500002E+02   0.4361180454E-14  -0.1613027610E-14  -0.9124452798E-15   0.1456731514E-14   0.1022208239E-15   0.7275000011E-01  -0.3182500005E-01  -0.3182500005E-01   0.1052446663E-15   0.5032397828E-16   0.1571240632E-16   0.1137500002E+02
   0.1072750000E+01   0.9681750000E+00  -0.1465975247E-16  -0.2250000000E-02   0.6750000000E-03  -0.7857557203E-17   0.7500000000E-01  -0.3250000000E-01  -0.6802195268E-17   0.1137500002E+02  -0.3094244724E-14  -0.6417724403E-14  -0.2515188468E-14   0.5594413936E-14  -0.3673889409E-14   0.7275000010E-01  -0.3182500005E-01  -0.3182500005E-01   0.6931248328E-16  -0.3566186186E-16  -0.7275275299E-16   0.1137500002E+02
   0.0000000000E+00   0.9681750000E+00   0.4182697811E-16   0.0000000000E+00   0.6750000000E-03   0.3114733362E-16   0.0000000000E+00  -0.3250000000E-01   0.1067964448E-16   0.1137500002E+02   0.4713107335E-14  -0.2784987597E-14  -0.6025353603E-15  -0.5674004501E-14   0.1258613656E-14   0.7275000011E-01  -0.3182500005E-01  -0.3182500005E-01   0.6494245019E-16  -0.7924096109E-16   0.3765890762E-16   0.1137500002E+02
   0.0000000000E+00   0.0000000000E+00   0.9681750000E+00   0.0000000000E+00   0.0000000000E+00   0.6750000000E-03   0.0000000000E+00   0.0000000000E+00  -0.3250000000E-01   0.1137500002E+02   0.1336779245E-13   0.2455140046E-13  -0.1145321979E-15  -0.5188472843E-14   0.3361733708E-15   0.7275000011E-01  -0.3182500005E-01  -0.3182500005E-01  -0.4487578737E-17  -0.1809663686E-15  -0.7879538225E-16   0.1137500002E+02
   0.1072750000E+01   0.0000000000E+00   0.9681750000E+00  -0.2250000000E-02   0.0000000000E+00   0.6750000000E-03   0.7500000000E-01   0.0000000000E+00  -0.3250000000E-01   0.1137500002E+02  -0.6950276416E-14  -0.3567300139E-14   0.4045316512E-14  -0.1941782406E-15   0.1681529029E-14   0.7275000010E-01  -0.3182500005E-01  -0.3182500005E-01   0.5448100508E-16   0.2168618257E-16   0.6734197102E-16   0.1137500002E+02
   0.1072750000E+01   0.9681750000E+00   0.9681750000E+00  -0.2250000000E-02   0.6750000000E-03   0.6750000000E-03   0.7500000000E-01  -0.3250000000E-01  -0.3250000000E-01   0.1137500001E+02   0.6218810998E-14   0.1085491649E-13   0.2991479990E-14   0.4084436325E-14  -0.2548041981E-14   0.7275000010E-01  -0.3182500004E-01  -0.3182500004E-01   0.3663829668E-16   0.2669203347E-16  -0.6309273497E-17   0.1137500001E+02
   0.0000000000E+00   0.9681750000E+00   0.9681750000E+00   0.0000000000E+00   0.6750000000E-03   0.6750000000E-03   0.0000000000E+00  -0.3250000000E-01  -0.3250000000E-01   0.1137500002E+02  -0.5777639247E-14  -0.6229308277E-14  -0.1412481561E-14  -0.3113411236E-14  -0.3746312168E-14   0.7275000010E-01  -0.3182500004E-01  -0.3182500004E-01  -0.2779490092E-16   0.1989315961E-16  -0.1505630698E-15   0.1137500002E+02
   0.2145500000E+01   0.0000000000E+00  -0.1414132802E-15  -0.4500000000E-02   0.0000000000E+00  -0.8024559880E-16   0.1500000000E+00   0.0000000000E+00  -0.6116768141E-16   0.1137500002E+02  -0.2026284398E-13  -0.1840560457E-13   0.7838832330E-14   0.4532422491E-14   0.3150297863E-14   0.7275000011E-01  -0.3182500005E-01  -0.3182500005E-01   0.5999913543E-16  -0.7813640568E-16   0.6122223978E-16   0.1137500002E+02
   0.2145500000E+01   0.9681750000E+00  -0.1108210442E-15  -0.4500000000E-02   0.6750000000E-03  -0.6377118168E-16   0.1500000000E+00  -0.3250000000E-01  -0.4704986256E-16   0.1137500002E+02   0.1984558555E-13   0.1680297039E-13   0.5745240756E-14  -0.2888789409E-14   0.1420317183E-14   0.7275000010E-01  -0.3182500004E-01  -0.3182500004E-01  -0.1021634112E-16  -0.7051037994E-16   0.4446007158E-16   0.1137500002E+02
   0.2145500000E+01   0.0000000000E+00   0.9681750000E+00  -0.4500000000E-02   0.0000000000E+00   0.6750000000E-03   0.1500000000E+00   0.0000000000E+00  -0.3250000000E-01   0.1137500002E+02   0.1813377880E-13   0.1914824464E-13  -0.4853629899E-14   0.7812739662E-14   0.1560974444E-14   0.7275000010E-01  -0.3182500004E-01  -0.3182500004E-01  -0.2558094088E-16   0.3934862965E-17   0.8844537658E-17   0.1137500002E+02
   0.2145500000E+01   0.9681750000E+00   0.9681750000E+00  -0.4500000000E-02   0.6750000000E-03   0.6750000000E-03   0.1500000000E+00  -0.3250000000E-01  -0.3250000000E-01   0.1137500001E+02  -0.1626739538E-13  -0.1430340492E-13  -0.5750944241E-14  -0.6077680828E-14  -0.3144102276E-15   0.7275000009E-01  -0.3182500004E-01  -0.3182500004E-01   0.1401237364E-16  -0.2266977459E-15  -0.2110157884E-16   0.1137500001E+02
     1     2     3     4     5     6     7     8
     2     9    10     3     6    11    12     7
 VARIABLES = X,Y,Z,DU1,DU2,DU3,U1,U2,U3,S11,S22,S33,S12,S13,S23,E11,E22,E33,E12,E13,E23,SMISES
 ZONE, T="0.5100D+01" F=FEPOINT, I=   12 J=    2 ET=BRICK
   0.0000000000E+00   0.0000000000E+00   0.0000000000E+00   0.0000000000E+00   0.0000000000E+00   0.0000000000E+00   0.0000000000E+00   0.0000000000E+00   0.0000000000E+00   0.1025000002E+02  -0.5593600197E-14  -0.6163585758E-14   0.8483955151E-16  -0.3965093164E-15  -0.7995332524E-15   0.7050000011E-01  -0.3115000005E-01  -0.3115000005E-01   0.5097676610E-17  -0.2835554840E-16   0.2600577997E-16   0.1025000002E+02
   0.1070500000E+01   0.0000000000E+00  -0.1777832135E-16  -0.2250000000E-02   0.0000000000E+00   0.8135403693E-17   0.7275000000E-01   0.0000000000E+00  -0.2591372505E-16   0.1025000002E+02   0.7077240863E-14   0.7513359066E-14  -0.9051413815E-15  -0.3911773846E-15  -0.1619597101E-15   0.7050000011E-01  -0.3115000005E-01  -0.3115000005E-01   0.6324710417E-16   0.3806737157E-16   0.1568646774E-16   0.1025000002E+02
   0.1070500000E+01   0.9688500000E+00  -0.7873939610E-17  -0.2250000000E-02   0.6750000000E-03   0.6785812860E-17   0.7275000000E-01  -0.3182500000E-01  -0.1465975247E-16   0.1025000001E+02  -0.8268737691E-14  -0.7832619574E-14  -0.7217531747E-15   0.1820901647E-14   0.2910671088E-15   0.7050000010E-01  -0.3115000004E-01  -0.3115000004E-01   0.5153262754E-16  -0.5052017421E-16  -0.3832200742E-16   0.1025000001E+02
   0.0000000000E+00   0.9688500000E+00   0.1061622328E-16   0.0000000000E+00   0.6750000000E-03  -0.3121075483E-16   0.0000000000E+00  -0.3182500000E-01   0.4182697811E-16   0.1025000001E+02   0.8472990518E-14   0.1090060673E-13   0.2822949655E-15   0.2287904134E-15   0.3730220219E-16   0.7050000010E-01  -0.3115000005E-01  -0.3115000005E-01   0.9312357164E-16  -0.1802238276E-16   0.1637617459E-16   0.1025000001E+02
   0.0000000000E+00   0.0000000000E+00   0.9688500000E+00   0.0000000000E+00   0.0000000000E+00   0.6750000000E-03   0.0000000000E+00   0.0000000000E+00  -0.3182500000E-01   0.1025000001E+02   0.8567288941E-14   0.7931971432E-14  -0.7968411205E-16  -0.1480686594E-15   0.2551089963E-15   0.7050000010E-01  -0.3115000005E-01  -0.3115000005E-01   0.2216905583E-18  -0.1355079305E-15  -0.6778063814E-16   0.1025000001E+02
   0.1070500000E+01   0.0000000000E+00   0.9688500000E+00  -0.2250000000E-02   0.0000000000E+00   0.6750000000E-03   0.7275000000E-01   0.0000000000E+00  -0.3182500000E-01   0.1025000001E+02  -0.8231018390E-14  -0.7128766557E-14   0.4083355895E-15   0.3692340796E-15   0.2458896694E-15   0.7050000010E-01  -0.3115000004E-01  -0.3115000004E-01   0.2797212984E-16   0.3679999373E-16   0.5648832550E-16   0.1025000001E+02
   0.1070500000E+01   0.9688500000E+00   0.9688500000E+00  -0.2250000000E-02   0.6750000000E-03   0.6750000000E-03   0.7275000000E-01  -0.3182500000E-01  -0.3182500000E-01   0.1025000001E+02   0.7884145182E-14   0.7832619574E-14  -0.4679087236E-15  -0.2487157716E-15   0.1329909651E-15   0.7050000009E-01  -0.3115000004E-01  -0.3115000004E-01   0.3704151132E-16  -0.2550584614E-16  -0.1086872231E-16   0.1025000001E+02
   0.0000000000E+00   0.9688500000E+00   0.9688500000E+00   0.0000000000E+00   0.6750000000E-03   0.6750000000E-03   0.0000000000E+00  -0.3182500000E-01  -0.3182500000E-01   0.1025000001E+02  -0.1189660370E-13  -0.1337654488E-13  -0.5394560804E-15   0.4160854979E-15   0.9750375126E-15   0.7050000009E-01  -0.3115000004E-01  -0.3115000004E-01  -0.2273835378E-16   0.5129007201E-16  -0.6854484517E-16   0.1025000001E+02
   0.2141000000E+01   0.0000000000E+00  -0.5354648875E-16  -0.4500000000E-02   0.0000000000E+00   0.8786679146E-16   0.1455000000E+00   0.0000000000E+00  -0.1414132802E-15   0.1025000002E+02  -0.1017469017E-13  -0.8169385959E-14  -0.1694368799E-14  -0.2429039239E-14   0.3714380630E-15   0.7050000011E-01  -0.3115000005E-01  -0.3115000005E-01   0.4599845855E-16  -0.1244247397E-15   0.4383407433E-16   0.1025000002E+02
   0.2141000000E+01   0.9688500000E+00  -0.3733586169E-16  -0.4500000000E-02   0.6750000000E-03   0.7348518254E-16   0.1455000000E+00  -0.3182500000E-01  -0.1108210442E-15   0.1025000001E+02   0.1198584856E-13   0.8685996106E-14  -0.1068614254E-14   0.1101195516E-14   0.1928928505E-15   0.7050000010E-01  -0.3115000004E-01  -0.3115000004E-01  -0.3453852636E-16  -0.5571008220E-16   0.1724256056E-16   0.1025000001E+02
   0.2141000000E+01   0.0000000000E+00   0.9688500000E+00  -0.4500000000E-02   0.0000000000E+00   0.6750000000E-03   0.1455000000E+00   0.0000000000E+00  -0.3182500000E-01   0.1025000001E+02   0.7970186441E-14   0.6401000285E-14   0.1408582881E-14  -0.1396109041E-14  -0.9274640424E-15   0.7050000010E-01  -0.3115000004E-01  -0.3115000004E-01   0.5360755293E-16  -0.6103502046E-16  -0.3887817824E-16   0.1025000001E+02
   0.2141000000E+01   0.9688500000E+00   0.9688500000E+00  -0.4500000000E-02   0.6750000000E-03   0.6750000000E-03   0.1455000000E+00  -0.3182500000E-01  -0.3182500000E-01   0.1025000001E+02  -0.6254680318E-14  -0.6979242980E-14  -0.1682144253E-15  -0.2385169882E-15  -0.1242425188E-14   0.7050000009E-01  -0.3115000004E-01  -0.3115000004E-01   0.8301953004E-16  -0.1448831273E-15  -0.2606910126E-16   0.1025000001E+02
     1     2     3     4     5     6     7     8
     2     9    10     3     6    11    12     7
 VARIABLES = X,Y,Z,DU1,DU2,DU3,U1,U2,U3,S11,S22,S33,S12,S13,S23,E11,E22,E33,E12,E13,E23,SMISES
 ZONE, T="0.5150D+01" F=FEPOINT, I=   12 J=    2 ET=BRICK
   0.0000000000E+00   0.0000000000E+00   0.0000000000E+00   0.0000000000E+00   0.0000000000E+00   0.0000000000E+00   0.0000000000E+00   0.0000000000E+00   0.0000000000E+00   0.9125000014E+01  -0.5857740522E-14  -0.6946186123E-14   0.1177674279E-15  -0.3648702002E-15  -0.6261031656E-15   0.6825000011E-01  -0.3047500005E-01  -0.3047500005E-01   0.9938078236E-17  -0.3965093830E-16   0.2409990539E-16   0.9125000014E+01
   0.1068250000E+01   0.0000000000E+00  -0.1902068356E-16  -0.2250000000E-02   0.0000000000E+00  -0.1242362208E-17   0.7050000000E-01   0.0000000000E+00  -0.1777832135E-16   0.9125000014E+01   0.6592514717E-14   0.6067151691E-14   0.2828422809E-15  -0.6389928091E-15   0.9709883737E-17   0.6825000011E-01  -0.3047500005E-01  -0.3047500005E-01   0.8526372384E-16   0.5613893706E-16   0.2267087198E-16   0.9125000014E+01
   0.1068250000E+01   0.9695250000E+00  -0.8198918850E-17  -0.2250000000E-02   0.6750000000E-03  -0.3249792396E-18   0.7050000000E-01  -0.3115000000E-01  -0.7873939610E-17   0.9125000013E+01  -0.8279626332E-14  -0.8035804513E-14   0.5300204486E-15   0.1251197087E-14   0.7189800021E-16   0.6825000010E-01  -0.3047500004E-01  -0.3047500004E-01   0.1038803198E-15  -0.3405257983E-16  -0.4013980929E-16   0.9125000013E+01
   0.0000000000E+00   0.9695250000E+00   0.1144680004E-16   0.0000000000E+00   0.6750000000E-03   0.8305767606E-18   0.0000000000E+00  -0.3115000000E-01   0.1061622328E-16   0.9125000013E+01   0.1036873146E-13   0.1231560699E-13   0.5368189589E-15   0.4235710921E-15   0.2042741204E-15   0.6825000010E-01  -0.3047500004E-01  -0.3047500004E-01   0.8570286424E-16  -0.3559623071E-16   0.4226128034E-16   0.9125000013E+01
   0.0000000000E+00   0.0000000000E+00   0.9695250000E+00   0.0000000000E+00   0.0000000000E+00   0.6750000000E-03   0.0000000000E+00   0.0000000000E+00  -0.3115000000E-01   0.9125000013E+01   0.7963178615E-14   0.7475534841E-14  -0.1140040074E-15   0.1605721793E-16   0.2308391697E-15   0.6825000010E-01  -0.3047500004E-01  -0.3047500004E-01  -0.1048836994E-16  -0.1084803211E-15  -0.6217505477E-16   0.9125000013E+01
   0.1068250000E+01   0.0000000000E+00   0.9695250000E+00  -0.2250000000E-02   0.0000000000E+00   0.6750000000E-03   0.7050000000E-01   0.0000000000E+00  -0.3115000000E-01   0.9125000013E+01  -0.7857314522E-14  -0.5896632762E-14   0.1558166096E-14  -0.1210173649E-15   0.2812600818E-15   0.6825000010E-01  -0.3047500004E-01  -0.3047500004E-01   0.4619332275E-16   0.2088612044E-17   0.4468015196E-16   0.9125000013E+01
   0.1068250000E+01   0.9695250000E+00   0.9695250000E+00  -0.2250000000E-02   0.6750000000E-03   0.6750000000E-03   0.7050000000E-01  -0.3115000000E-01  -0.3115000000E-01   0.9125000012E+01   0.8309374658E-14   0.7399419123E-14   0.2189396390E-15  -0.4722290219E-15  -0.2682253573E-15   0.6825000009E-01  -0.3047500004E-01  -0.3047500004E-01   0.4583296914E-16   0.2559683750E-16   0.2577770125E-16   0.9125000012E+01
   0.0000000000E+00   0.9695250000E+00   0.9695250000E+00   0.0000000000E+00   0.6750000000E-03   0.6750000000E-03   0.0000000000E+00  -0.3115000000E-01  -0.3115000000E-01   0.9125000012E+01  -0.1055198868E-13  -0.1260191555E-13  -0.7857628662E-15   0.3721537536E-15   0.1041161837E-14   0.6825000009E-01  -0.3047500004E-01  -0.3047500004E-01  -0.2170384045E-16   0.1077076968E-16  -0.1008489846E-15   0.9125000012E+01
   0.2136500000E+01   0.0000000000E+00  -0.6332356017E-16  -0.4500000000E-02   0.0000000000E+00  -0.9777071414E-17   0.1410000000E+00   0.0000000000E+00  -0.5354648875E-16   0.9125000014E+01  -0.1098305335E-13  -0.9406964110E-14  -0.5136418266E-15  -0.1192356448E-14   0.4537659520E-15   0.6825000010E-01  -0.3047500005E-01  -0.3047500005E-01   0.2918588864E-17  -0.4464309680E-16   0.2336223790E-16   0.9125000014E+01
   0.2136500000E+01   0.9695250000E+00  -0.4672012926E-16  -0.4500000000E-02   0.6750000000E-03  -0.9384267565E-17   0.1410000000E+00  -0.3115000000E-01  -0.3733586169E-16   0.9125000013E+01   0.1045292276E-13   0.8581486000E-14  -0.3017885417E-15   0.3293721658E-15  -0.3191396588E-15   0.6825000010E-01  -0.3047500004E-01  -0.3047500004E-01  -0.4979385618E-16  -0.1588313495E-15   0.4090485791E-16   0.9125000013E+01
   0.2136500000E+01   0.0000000000E+00   0.9695250000E+00  -0.4500000000E-02   0.0000000000E+00   0.6750000000E-03   0.1410000000E+00   0.0000000000E+00  -0.3115000000E-01   0.9125000013E+01   0.9706296925E-14   0.8374029630E-14   0.1051741021E-14  -0.3006049895E-15  -0.1657640688E-15   0.6825000010E-01  -0.3047500004E-01  -0.3047500004E-01   0.8487164928E-16  -0.6668235382E-16  -0.1143875495E-16   0.9125000013E+01
   0.2136500000E+01   0.9695250000E+00   0.9695250000E+00  -0.4500000000E-02   0.6750000000E-03   0.6750000000E-03   0.1410000000E+00  -0.3115000000E-01  -0.3115000000E-01   0.9125000012E+01  -0.8184155036E-14  -0.6415769550E-14  -0.7666827104E-15   0.5763331680E-15  -0.9045578436E-15   0.6825000009E-01  -0.3047500004E-01  -0.3047500004E-01   0.2400372491E-16  -0.1401095903E-15  -0.2997981698E-16   0.9125000012E+01
     1     2     3     4     5     6     7     8
     2     9    10     3     6    11    12     7
 VARIABLES = X,Y,Z,DU1,DU2,DU3,U1,U2,U3,S11,S22,S33,S12,S13,S23,E11,E22,E33,E12,E13,E23,SMISES
 ZONE, T="0.5200D+01" F=FEPOINT, I=   12 J=    2 ET=BRICK
   0.0000000000E+00   0.0000000000E+00   0.0000000000E+00   0.0000000000E+00   0.0000000000E+00   0.0000000000E+00   0.0000000000E+00   0.0000000000E+00   0.0000000000E+00   0.8000000013E+01  -0.6770222882E-14  -0.8183764274E-14   0.1084892007E-15  -0.5778548914E-15  -0.9348042529E-15   0.6600000010E-01  -0.2980000005E-01  -0.2980000005E-01   0.6062777341E-17  -0.1752315481E-16   0.1791646227E-16   0.8000000013E+01
   0.1066000000E+01   0.0000000000E+00  -0.1981556585E-16  -0.2250000000E-02   0.0000000000E+00  -0.7948822860E-18   0.6825000000E-01   0.0000000000E+00  -0.1902068356E-16   0.8000000012E+01   0.5752944475E-14   0.5390129334E-14   0.2759462130E-15   0.3765685400E-15  -0.2297351504E-15   0.6600000010E-01  -0.2980000005E-01  -0.2980000005E-01   0.8933598083E-16   0.1972430730E-16   0.1437924543E-16   0.8000000012E+01
   0.1066000000E+01   0.9702000000E+00  -0.1024651064E-16  -0.2250000000E-02   0.6750000000E-03  -0.2047591790E-17   0.6825000000E-01  -0.3047500000E-01  -0.8198918850E-17   0.8000000011E+01  -0.7491581716E-14  -0.6944441321E-14   0.4632053519E-15   0.9179830257E-15  -0.4375673916E-16   0.6600000009E-01  -0.2980000004E-01  -0.2980000004E-01   0.9685946497E-16  -0.2515465084E-17  -0.1881970680E-16   0.8000000011E+01
   0.0000000000E+00   0.9702000000E+00   0.9783317991E-17   0.0000000000E+00   0.6750000000E-03  -0.1663482048E-17   0.0000000000E+00  -0.3047500000E-01   0.1144680004E-16   0.8000000012E+01   0.9487065314E-14   0.1219223722E-13   0.6630184604E-15   0.2177987269E-15  -0.8803319284E-16   0.6600000010E-01  -0.2980000004E-01  -0.2980000004E-01   0.9525112438E-16  -0.4405706259E-16   0.3227596951E-16   0.8000000012E+01
   0.0000000000E+00   0.0000000000E+00   0.9702000000E+00   0.0000000000E+00   0.0000000000E+00   0.6750000000E-03   0.0000000000E+00   0.0000000000E+00  -0.3047500000E-01   0.8000000012E+01   0.9459452790E-14   0.9031305674E-14  -0.9308245647E-16  -0.2136394120E-15   0.1019872118E-15   0.6600000010E-01  -0.2980000004E-01  -0.2980000004E-01   0.9935978063E-17  -0.1118720921E-15  -0.5736111321E-16   0.8000000012E+01
   0.1066000000E+01   0.0000000000E+00   0.9702000000E+00  -0.2250000000E-02   0.0000000000E+00   0.6750000000E-03   0.6825000000E-01   0.0000000000E+00  -0.3047500000E-01   0.8000000011E+01  -0.7210040509E-14  -0.5855995795E-14  -0.1507187400E-15   0.8999417921E-15   0.2078598044E-15   0.6600000009E-01  -0.2980000004E-01  -0.2980000004E-01  -0.7092052698E-17   0.3013282133E-16   0.4250005733E-16   0.8000000011E+01
   0.1066000000E+01   0.9702000000E+00   0.9702000000E+00  -0.2250000000E-02   0.6750000000E-03   0.6750000000E-03   0.6825000000E-01  -0.3047500000E-01  -0.3047500000E-01   0.8000000010E+01   0.7854396924E-14   0.7632352387E-14  -0.1275825738E-14  -0.1146013225E-14  -0.3111902159E-15   0.6600000009E-01  -0.2980000004E-01  -0.2980000004E-01   0.2056174221E-16  -0.3873901533E-16   0.9793198147E-17   0.8000000010E+01
   0.0000000000E+00   0.9702000000E+00   0.9702000000E+00   0.0000000000E+00   0.6750000000E-03   0.6750000000E-03   0.0000000000E+00  -0.3047500000E-01  -0.3047500000E-01   0.8000000011E+01  -0.1165676729E-13  -0.1314069398E-13  -0.8171154770E-15   0.2468465255E-15   0.1029531801E-14   0.6600000009E-01  -0.2980000004E-01  -0.2980000004E-01  -0.7413566763E-17   0.4517772372E-16  -0.6698167408E-16   0.8000000011E+01
   0.2132000000E+01   0.0000000000E+00  -0.6425181834E-16  -0.4500000000E-02   0.0000000000E+00  -0.9282581714E-18   0.1365000000E+00   0.0000000000E+00  -0.6332356017E-16   0.8000000012E+01  -0.9826749189E-14  -0.8857297044E-14   0.8930988099E-16  -0.1136270973E-14   0.8210396675E-15   0.6600000010E-01  -0.2980000005E-01  -0.2980000005E-01  -0.1324017088E-16  -0.2181871071E-15   0.2736203406E-16   0.8000000012E+01
   0.2132000000E+01   0.9702000000E+00  -0.4573932419E-16  -0.4500000000E-02   0.6750000000E-03   0.9808050718E-18   0.1365000000E+00  -0.3047500000E-01  -0.4672012926E-16   0.8000000011E+01   0.1070617464E-13   0.8401537279E-14   0.1587440637E-15  -0.1280424050E-15   0.5122035140E-15   0.6600000009E-01  -0.2980000004E-01  -0.2980000004E-01  -0.8582072614E-16   0.3235244565E-16   0.6368651511E-16   0.8000000011E+01
   0.2132000000E+01   0.0000000000E+00   0.9702000000E+00  -0.4500000000E-02   0.0000000000E+00   0.6750000000E-03   0.1365000000E+00   0.0000000000E+00  -0.3047500000E-01   0.8000000011E+01   0.8632334716E-14   0.7078022722E-14   0.2053800848E-15  -0.1635701101E-15  -0.2369260392E-15   0.6600000009E-01  -0.2980000004E-01  -0.2980000004E-01   0.5383274640E-16   0.6655558377E-17  -0.1270326731E-16   0.8000000011E+01
   0.2132000000E+01   0.9702000000E+00   0.9702000000E+00  -0.4500000000E-02   0.6750000000E-03   0.6750000000E-03   0.1365000000E+00  -0.3047500000E-01  -0.3047500000E-01   0.8000000010E+01  -0.6066369611E-14  -0.6077258392E-14  -0.1202378232E-14  -0.9346315309E-15  -0.4335970615E-15   0.6600000008E-01  -0.2980000004E-01  -0.2980000004E-01   0.6833371254E-16  -0.1838744689E-15  -0.3120150361E-16   0.8000000010E+01
     1     2     3     4     5     6     7     8
     2     9    10     3     6    11    12     7
 VARIABLES = X,Y,Z,DU1,DU2,DU3,U1,U2,U3,S11,S22,S33,S12,S13,S23,E11,E22,E33,E12,E13,E23,SMISES
 ZONE, T="0.5250D+01" F=FEPOINT, I=   12 J=    2 ET=BRICK
   0.0000000000E+00   0.0000000000E+00   0.0000000000E+00   0.0000000000E+00   0.0000000000E+00   0.0000000000E+00   0.0000000000E+00   0.0000000000E+00   0.0000000000E+00   0.6875000011E+01  -0.4790681384E-14  -0.6557608082E-14   0.8250932932E-16  -0.3996871797E-15  -0.4237032364E-15   0.6375000010E-01  -0.2912500005E-01  -0.2912500005E-01   0.1146591927E-17  -0.1475435795E-16   0.2110744726E-16   0.6875000011E+01
   0.1063750000E+01   0.0000000000E+00  -0.2039545875E-16  -0.2250000000E-02   0.0000000000E+00  -0.5798929048E-18   0.6600000000E-01   0.0000000000E+00  -0.1981556585E-16   0.6875000011E+01   0.6137536915E-14   0.5956129345E-14  -0.1244039875E-14  -0.1406455590E-14   0.1797872251E-15   0.6375000010E-01  -0.2912500004E-01  -0.2912500004E-01   0.1013927174E-15   0.2358123425E-16   0.3775343676E-16   0.6875000011E+01
   0.1063750000E+01   0.9708750000E+00  -0.8730653053E-17  -0.2250000000E-02   0.6750000000E-03   0.1515857587E-17   0.6600000000E-01  -0.2980000000E-01  -0.1024651064E-16   0.6875000010E+01  -0.8016944810E-14  -0.8775241187E-14  -0.9671245747E-15   0.1799267020E-14  -0.7826537096E-16   0.6375000009E-01  -0.2912500004E-01  -0.2912500004E-01   0.9278464242E-16  -0.5088668962E-16  -0.5784086349E-16   0.6875000010E+01
   0.0000000000E+00   0.9708750000E+00   0.1242664043E-16   0.0000000000E+00   0.6750000000E-03   0.2643322437E-17   0.0000000000E+00  -0.2980000000E-01   0.9783317991E-17   0.6875000010E+01   0.8014027255E-14   0.1119848093E-13   0.9386309506E-15   0.2667396745E-15   0.1957767794E-15   0.6375000009E-01  -0.2912500004E-01  -0.2912500004E-01   0.9403729346E-16  -0.3858688491E-16   0.4107631202E-16   0.6875000010E+01
   0.0000000000E+00   0.0000000000E+00   0.9708750000E+00   0.0000000000E+00   0.0000000000E+00   0.6750000000E-03   0.0000000000E+00   0.0000000000E+00  -0.2980000000E-01   0.6875000010E+01   0.7986414730E-14   0.8473667544E-14  -0.1110280189E-15  -0.2158697595E-16   0.4075196261E-15   0.6375000009E-01  -0.2912500004E-01  -0.2912500004E-01   0.2596744236E-17  -0.1112444071E-15  -0.6746807122E-16   0.6875000010E+01
   0.1063750000E+01   0.0000000000E+00   0.9708750000E+00  -0.2250000000E-02   0.0000000000E+00   0.6750000000E-03   0.6600000000E-01   0.0000000000E+00  -0.2980000000E-01   0.6875000010E+01  -0.7735403603E-14  -0.5763833115E-14   0.1048398219E-14  -0.6091112438E-15   0.2987582880E-15   0.6375000009E-01  -0.2912500004E-01  -0.2912500004E-01   0.2254289225E-16   0.2005334423E-16   0.3279666598E-16   0.6875000010E+01
   0.1063750000E+01   0.9708750000E+00   0.9708750000E+00  -0.2250000000E-02   0.6750000000E-03   0.6750000000E-03   0.6600000000E-01  -0.2980000000E-01  -0.2980000000E-01   0.6875000009E+01   0.8238989365E-14   0.8057581795E-14  -0.2372499681E-15  -0.3251734970E-15  -0.6537476810E-15   0.6375000008E-01  -0.2912500004E-01  -0.2912500004E-01   0.4560310898E-16   0.2275029431E-16   0.6011245316E-16   0.6875000009E+01
   0.0000000000E+00   0.9708750000E+00   0.9708750000E+00   0.0000000000E+00   0.6750000000E-03   0.6750000000E-03   0.0000000000E+00  -0.2980000000E-01  -0.2980000000E-01   0.6875000009E+01  -0.1107482518E-13  -0.1284175188E-13  -0.7801496494E-15   0.2918581840E-15   0.1246816575E-14   0.6375000009E-01  -0.2912500004E-01  -0.2912500004E-01  -0.7816699055E-17   0.3022038660E-16  -0.8223864965E-16   0.6875000009E+01
   0.2127500000E+01   0.0000000000E+00  -0.7053435417E-16  -0.4500000000E-02   0.0000000000E+00  -0.6282535832E-17   0.1320000000E+00   0.0000000000E+00  -0.6425181834E-16   0.6875000010E+01  -0.1257547567E-13  -0.1155595671E-13  -0.7594372384E-16  -0.5576879085E-15   0.1017210875E-14   0.6375000010E-01  -0.2912500004E-01  -0.2912500004E-01   0.1003219060E-16  -0.1124608680E-15   0.3292984923E-16   0.6875000010E+01
   0.2127500000E+01   0.9708750000E+00  -0.5101874102E-16  -0.4500000000E-02   0.6750000000E-03  -0.5279416835E-17   0.1320000000E+00  -0.2980000000E-01  -0.4573932419E-16   0.6875000010E+01   0.1189767136E-13   0.7656656126E-14  -0.2963472968E-17   0.1117078822E-14  -0.1214963713E-15   0.6375000009E-01  -0.2912500004E-01  -0.2912500004E-01  -0.4133430917E-16  -0.4747150745E-16   0.5533429984E-16   0.6875000010E+01
   0.2127500000E+01   0.0000000000E+00   0.9708750000E+00  -0.4500000000E-02   0.0000000000E+00   0.6750000000E-03   0.1320000000E+00   0.0000000000E+00  -0.2980000000E-01   0.6875000010E+01   0.9823831432E-14   0.9742948496E-14   0.9576194209E-15   0.4131434219E-15  -0.4903586294E-15   0.6375000009E-01  -0.2912500004E-01  -0.2912500004E-01   0.7054542329E-16   0.3330265920E-16  -0.9664273619E-17   0.6875000010E+01
   0.2127500000E+01   0.9708750000E+00   0.9708750000E+00  -0.4500000000E-02   0.6750000000E-03   0.6750000000E-03   0.1320000000E+00  -0.2980000000E-01  -0.2980000000E-01   0.6875000009E+01  -0.7417496696E-14  -0.6397977735E-14  -0.6020308821E-15   0.4362308717E-15  -0.1512947934E-14   0.6375000008E-01  -0.2912500004E-01  -0.2912500004E-01   0.7504744838E-16  -0.6946786737E-16  -0.5697416488E-16   0.6875000009E+01
     1     2     3     4     5     6     7     8
     2     9    10     3     6    11    12     7
 VARIABLES = X,Y,Z,DU1,DU2,DU3,U1,U2,U3,S11,S22,S33,S12,S13,S23,E11,E22,E33,E12,E13,E23,SMISES
 ZONE, T="0.5300D+01" F=FEPOINT, I=   12 J=    2 ET=BRICK
   0.0000000000E+00   0.0000000000E+00   0.0000000000E+00   0.0000000000E+00   0.0000000000E+00   0.0000000000E+00   0.0000000000E+00   0.0000000000E+00   0.0000000000E+00   0.5750000009E+01  -0.5999240608E-14  -0.8097241425E-14   0.9475931866E-16  -0.6779087986E-15  -0.3869630987E-15   0.6150000010E-01  -0.2845000004E-01  -0.2845000004E-01   0.2933534775E-17  -0.2659006635E-16   0.3272981510E-16   0.5750000009E+01
   0.1061500000E+01   0.0000000000E+00  -0.2126793175E-16  -0.2250000000E-02   0.0000000000E+00  -0.8724729976E-18   0.6375000000E-01   0.0000000000E+00  -0.2039545875E-16   0.5750000009E+01   0.6035944480E-14   0.6061707327E-14  -0.4924521325E-15  -0.5926780412E-15   0.5825842774E-16   0.6150000009E-01  -0.2845000004E-01  -0.2845000004E-01   0.8038272125E-16   0.4837013603E-16   0.2202957365E-16   0.5750000009E+01
   0.1061500000E+01   0.9715500000E+00  -0.1009003021E-16  -0.2250000000E-02   0.6750000000E-03  -0.1359377161E-17   0.6375000000E-01  -0.2912500000E-01  -0.8730653053E-17   0.5750000008E+01  -0.8355455998E-14  -0.8521989448E-14  -0.3662322442E-15   0.1659484294E-14   0.8659839053E-16   0.6150000009E-01  -0.2845000004E-01  -0.2845000004E-01   0.8955529467E-16  -0.5667108050E-16  -0.3271804355E-16   0.5750000008E+01
   0.0000000000E+00   0.9715500000E+00   0.1260984010E-16   0.0000000000E+00   0.6750000000E-03   0.1831996735E-18   0.0000000000E+00  -0.2912500000E-01   0.1242664043E-16   0.5750000008E+01   0.9243438908E-14   0.1185989972E-13   0.5298792163E-15  -0.5207439868E-16  -0.2912827633E-17   0.6150000009E-01  -0.2845000004E-01  -0.2845000004E-01   0.7510378181E-16  -0.8023575665E-17   0.1505970549E-16   0.5750000008E+01
   0.0000000000E+00   0.0000000000E+00   0.9715500000E+00   0.0000000000E+00   0.0000000000E+00   0.6750000000E-03   0.0000000000E+00   0.0000000000E+00  -0.2912500000E-01   0.5750000008E+01   0.8296440925E-14   0.8846641952E-14  -0.9681973876E-16  -0.3107348882E-15   0.3343071608E-15   0.6150000009E-01  -0.2845000004E-01  -0.2845000004E-01  -0.2731537818E-17  -0.1342066445E-15  -0.8949265517E-16   0.5750000008E+01
   0.1061500000E+01   0.0000000000E+00   0.9715500000E+00  -0.2250000000E-02   0.0000000000E+00   0.6750000000E-03   0.6375000000E-01   0.0000000000E+00  -0.2912500000E-01   0.5750000008E+01  -0.7811233234E-14  -0.6087470140E-14   0.1077588627E-14  -0.6312832606E-16   0.4501771683E-15   0.6150000009E-01  -0.2845000004E-01  -0.2845000004E-01   0.2691398862E-16   0.4646895994E-16   0.7174480001E-16   0.5750000008E+01
   0.1061500000E+01   0.9715500000E+00   0.9715500000E+00  -0.2250000000E-02   0.6750000000E-03   0.6750000000E-03   0.6375000000E-01  -0.2912500000E-01  -0.2912500000E-01   0.5750000008E+01   0.8470463788E-14   0.8425841333E-14  -0.6061834662E-16  -0.2025504193E-15  -0.3270892972E-15   0.6150000008E-01  -0.2845000004E-01  -0.2845000004E-01   0.1760958167E-16  -0.1094832859E-16   0.6864388749E-17   0.5750000008E+01
   0.0000000000E+00   0.9715500000E+00   0.9715500000E+00   0.0000000000E+00   0.6750000000E-03   0.6750000000E-03   0.0000000000E+00  -0.2912500000E-01  -0.2912500000E-01   0.5750000008E+01  -0.1080849655E-13  -0.1253823785E-13  -0.6475749495E-15   0.1915842953E-15   0.8691230504E-15   0.6150000008E-01  -0.2845000004E-01  -0.2845000004E-01   0.3204330506E-17   0.6686656426E-16  -0.6562989496E-16   0.5750000008E+01
   0.2123000000E+01   0.0000000000E+00  -0.7079012854E-16  -0.4500000000E-02   0.0000000000E+00  -0.2557743701E-18   0.1275000000E+00   0.0000000000E+00  -0.7053435417E-16   0.5750000009E+01  -0.9942486370E-14  -0.9087508075E-14  -0.1117488622E-14  -0.1035596307E-14   0.6216499580E-15   0.6150000009E-01  -0.2845000004E-01  -0.2845000004E-01   0.6976384888E-17  -0.7836285691E-16   0.2480061054E-16   0.5750000009E+01
   0.2123000000E+01   0.9715500000E+00  -0.5333431815E-16  -0.4500000000E-02   0.6750000000E-03  -0.2315577128E-17   0.1275000000E+00  -0.2912500000E-01  -0.5101874102E-16   0.5750000008E+01   0.1070889674E-13   0.7309444598E-14  -0.8882843588E-15   0.9727130699E-15  -0.2164990817E-15   0.6150000009E-01  -0.2845000004E-01  -0.2845000004E-01  -0.8787645393E-16   0.6586836408E-16   0.5118959957E-16   0.5750000008E+01
   0.2123000000E+01   0.0000000000E+00   0.9715500000E+00  -0.4500000000E-02   0.0000000000E+00   0.6750000000E-03   0.1275000000E+00   0.0000000000E+00  -0.2912500000E-01   0.5750000008E+01   0.9413671669E-14   0.8530403828E-14   0.1013826297E-14  -0.8659737678E-15  -0.4771434832E-15   0.6150000009E-01  -0.2845000004E-01  -0.2845000004E-01   0.5763710662E-16   0.1314164414E-16  -0.2901230033E-16   0.5750000008E+01
   0.2123000000E+01   0.9715500000E+00   0.9715500000E+00  -0.4500000000E-02   0.6750000000E-03   0.6750000000E-03   0.1275000000E+00  -0.2912500000E-01  -0.2912500000E-01   0.5750000007E+01  -0.6925528969E-14  -0.5913447084E-14  -0.4782370464E-15   0.3352257920E-15  -0.1244043117E-14   0.6150000008E-01  -0.2845000004E-01  -0.2845000004E-01   0.8491474932E-16  -0.3593999452E-16  -0.1711885584E-17   0.5750000007E+01
     1     2     3     4     5     6     7     8
     2     9    10     3     6    11    12     7
 VARIABLES = X,Y,Z,DU1,DU2,DU3,U1,U2,U3,S11,S22,S33,S12,S13,S23,E11,E22,E33,E12,E13,E23,SMISES
 ZONE, T="0.5350D+01" F=FEPOINT, I=   12 J=    2 ET=BRICK
   0.0000000000E+00   0.0000000000E+00   0.0000000000E+00   0.0000000000E+00   0.0000000000E+00   0.0000000000E+00   0.0000000000E+00   0.0000000000E+00   0.0000000000E+00   0.4625000007E+01  -0.5551699884E-14  -0.7040341475E-14   0.1069087009E-15  -0.1528004085E-15  -0.4531374656E-15   0.5925000009E-01  -0.2777500004E-01  -0.2777500004E-01   0.7556269887E-17  -0.1829579783E-16   0.1517576266E-16   0.4625000007E+01
   0.1059250000E+01   0.0000000000E+00  -0.1848187414E-16  -0.2250000000E-02   0.0000000000E+00   0.2786057616E-17   0.6150000000E-01   0.0000000000E+00  -0.2126793175E-16   0.4625000007E+01   0.5839662704E-14   0.5870869871E-14  -0.9231837932E-15  -0.1155527633E-14  -0.1431331574E-15   0.5925000009E-01  -0.2777500004E-01  -0.2777500004E-01   0.7784210127E-16   0.4073209525E-16   0.2757947029E-16   0.4625000007E+01
   0.1059250000E+01   0.9722250000E+00  -0.8419967264E-17  -0.2250000000E-02   0.6750000000E-03   0.1670062950E-17   0.6150000000E-01  -0.2845000000E-01  -0.1009003021E-16   0.4625000007E+01  -0.7482151855E-14  -0.7669003789E-14  -0.7691051967E-15   0.1675968116E-14  -0.6353915354E-16   0.5925000008E-01  -0.2777500004E-01  -0.2777500004E-01   0.8860500531E-16  -0.1183214721E-16  -0.2930417854E-16   0.4625000007E+01
   0.0000000000E+00   0.9722250000E+00   0.1229286973E-16   0.0000000000E+00   0.6750000000E-03  -0.3169703772E-18   0.0000000000E+00  -0.2845000000E-01   0.1260984010E-16   0.4625000007E+01   0.8534675446E-14   0.1115186567E-13   0.9346700226E-15   0.1783825031E-15   0.4233415757E-15   0.5925000009E-01  -0.2777500004E-01  -0.2777500004E-01   0.8266303985E-16  -0.3108769903E-16   0.3643112868E-16   0.4625000007E+01
   0.0000000000E+00   0.0000000000E+00   0.9722250000E+00   0.0000000000E+00   0.0000000000E+00   0.6750000000E-03   0.0000000000E+00   0.0000000000E+00  -0.2845000000E-01   0.4625000007E+01   0.8228048361E-14   0.8429578933E-14  -0.7728446816E-16   0.8272273698E-16   0.1743161577E-15   0.5925000009E-01  -0.2777500004E-01  -0.2777500004E-01   0.1803572099E-17  -0.1237344757E-15  -0.6128795146E-16   0.4625000007E+01
   0.1059250000E+01   0.0000000000E+00   0.9722250000E+00  -0.2250000000E-02   0.0000000000E+00   0.6750000000E-03   0.6150000000E-01   0.0000000000E+00  -0.2845000000E-01   0.4625000007E+01  -0.7796359062E-14  -0.6547892262E-14   0.1125218767E-14  -0.5701147744E-15   0.2260069293E-15   0.5925000008E-01  -0.2777500004E-01  -0.2777500004E-01   0.3484593096E-16   0.3275714022E-16   0.4888467827E-16   0.4625000007E+01
   0.1059250000E+01   0.9722250000E+00   0.9722250000E+00  -0.2250000000E-02   0.6750000000E-03   0.6750000000E-03   0.6150000000E-01  -0.2845000000E-01  -0.2845000000E-01   0.4625000006E+01   0.8133411408E-14   0.8042707623E-14  -0.5801247612E-16  -0.8594597345E-16  -0.5139371599E-15   0.5925000008E-01  -0.2777500004E-01  -0.2777500004E-01   0.3369237458E-16   0.1446025376E-16  -0.4757832363E-18   0.4625000006E+01
   0.0000000000E+00   0.9722250000E+00   0.9722250000E+00   0.0000000000E+00   0.6750000000E-03   0.6750000000E-03   0.0000000000E+00  -0.2845000000E-01  -0.2845000000E-01   0.4625000006E+01  -0.1111128117E-13  -0.1323776698E-13  -0.8541532558E-15   0.4609769788E-15   0.1211021954E-14   0.5925000008E-01  -0.2777500004E-01  -0.2777500004E-01  -0.2607245871E-16   0.4253896263E-16  -0.3882541729E-16   0.4625000006E+01
   0.2118500000E+01   0.0000000000E+00  -0.6489274920E-16  -0.4500000000E-02   0.0000000000E+00   0.5897379338E-17   0.1230000000E+00   0.0000000000E+00  -0.7079012854E-16   0.4625000007E+01  -0.1260250180E-13  -0.1148756408E-13   0.7249943269E-15   0.2591426552E-15   0.9298962333E-15   0.5925000009E-01  -0.2777500004E-01  -0.2777500004E-01   0.4488272487E-17  -0.9705392593E-16   0.3581302423E-16   0.4625000007E+01
   0.2118500000E+01   0.9722250000E+00  -0.4581197286E-16  -0.4500000000E-02   0.6750000000E-03   0.7522345289E-17   0.1230000000E+00  -0.2845000000E-01  -0.5333431815E-16   0.4625000006E+01   0.1183200097E-13   0.8827300571E-14   0.7080625205E-15  -0.1261216338E-15   0.1847999408E-15   0.5925000008E-01  -0.2777500004E-01  -0.2777500004E-01  -0.7362125579E-16   0.2282425237E-16   0.5297473714E-16   0.4625000006E+01
   0.2118500000E+01   0.0000000000E+00   0.9722250000E+00  -0.4500000000E-02   0.0000000000E+00   0.6750000000E-03   0.1230000000E+00   0.0000000000E+00  -0.2845000000E-01   0.4625000006E+01   0.1084407992E-13   0.1046114178E-13   0.5028995765E-16   0.2726229455E-15  -0.3361534659E-15   0.5925000008E-01  -0.2777500004E-01  -0.2777500004E-01   0.1128445026E-16  -0.3051381238E-16  -0.2010955738E-16   0.4625000006E+01
   0.2118500000E+01   0.9722250000E+00   0.9722250000E+00  -0.4500000000E-02   0.6750000000E-03   0.6750000000E-03   0.1230000000E+00  -0.2845000000E-01  -0.2845000000E-01   0.4625000006E+01  -0.7784492838E-14  -0.6941666513E-14  -0.1468789318E-14  -0.6836534322E-15  -0.9524909754E-15   0.5925000008E-01  -0.2777500004E-01  -0.2777500004E-01   0.4383819093E-16  -0.6186958870E-16  -0.1009409036E-16   0.4625000006E+01
     1     2     3     4     5     6     7     8
     2     9    10     3     6    11    12     7
 VARIABLES = X,Y,Z,DU1,DU2,DU3,U1,U2,U3,S11,S22,S33,S12,S13,S23,E11,E22,E33,E12,E13,E23,SMISES
 ZONE, T="0.5400D+01" F=FEPOINT, I=   12 J=    2 ET=BRICK
   0.0000000000E+00   0.0000000000E+00   0.0000000000E+00   0.0000000000E+00   0.0000000000E+00   0.0000000000E+00   0.0000000000E+00   0.0000000000E+00   0.0000000000E+00   0.3500000005E+01  -0.5754155414E-14  -0.7922541520E-14   0.7961689922E-16  -0.4233587859E-15  -0.3489608959E-15   0.5700000009E-01  -0.2710000004E-01  -0.2710000004E-01   0.7237482446E-17  -0.2356498954E-16   0.2821826637E-16   0.3500000005E+01
   0.1057000000E+01   0.0000000000E+00  -0.2036878540E-16  -0.2250000000E-02   0.0000000000E+00  -0.1886911265E-17   0.5925000000E-01   0.0000000000E+00  -0.1848187414E-16   0.3500000005E+01   0.6000751834E-14   0.6148425591E-14  -0.5437453049E-15  -0.8142949146E-15  -0.4268854182E-16   0.5700000009E-01  -0.2710000004E-01  -0.2710000004E-01   0.8575226738E-16   0.4501609202E-16   0.2537098974E-16   0.3500000005E+01
   0.1057000000E+01   0.9729000000E+00  -0.9818411288E-17  -0.2250000000E-02   0.6750000000E-03  -0.1398444024E-17   0.5925000000E-01  -0.2777500000E-01  -0.8419967264E-17   0.3500000005E+01  -0.7628366822E-14  -0.8179492739E-14  -0.5169958454E-15   0.1643459029E-14  -0.1209296089E-15   0.5700000008E-01  -0.2710000004E-01  -0.2710000004E-01   0.7908971075E-16  -0.1791176564E-16  -0.3506780163E-16   0.3500000005E+01
   0.0000000000E+00   0.9729000000E+00   0.1289013326E-16   0.0000000000E+00   0.6750000000E-03   0.5972635331E-18   0.0000000000E+00  -0.2777500000E-01   0.1229286973E-16   0.3500000005E+01   0.8274716082E-14   0.1111866576E-13   0.6643591670E-15  -0.8464601799E-17   0.2307450663E-15   0.5700000008E-01  -0.2710000004E-01  -0.2710000004E-01   0.9016816297E-16  -0.4776250934E-16   0.2182669253E-16   0.3500000005E+01
   0.0000000000E+00   0.0000000000E+00   0.9729000000E+00   0.0000000000E+00   0.0000000000E+00   0.6750000000E-03   0.0000000000E+00   0.0000000000E+00  -0.2777500000E-01   0.3500000005E+01   0.7871940874E-14   0.8640200926E-14  -0.6089098521E-16  -0.9363092703E-16   0.3150120287E-15   0.5700000008E-01  -0.2710000004E-01  -0.2710000004E-01  -0.1455834763E-16  -0.1174190373E-15  -0.7632922112E-16   0.3500000005E+01
   0.1057000000E+01   0.0000000000E+00   0.9729000000E+00  -0.2250000000E-02   0.0000000000E+00   0.6750000000E-03   0.5925000000E-01   0.0000000000E+00  -0.2777500000E-01   0.3500000005E+01  -0.7750277775E-14  -0.6148425590E-14   0.1235540233E-14  -0.5127647739E-15   0.2191345560E-15   0.5700000008E-01  -0.2710000004E-01  -0.2710000004E-01   0.5816012498E-16  -0.9186237939E-17   0.3595689960E-16   0.3500000005E+01
   0.1057000000E+01   0.9729000000E+00   0.9729000000E+00  -0.2250000000E-02   0.6750000000E-03   0.6750000000E-03   0.5925000000E-01  -0.2777500000E-01  -0.2777500000E-01   0.3500000005E+01   0.7839522727E-14   0.7987196484E-14   0.5984021098E-16   0.2902586701E-16  -0.6526530920E-15   0.5700000007E-01  -0.2710000004E-01  -0.2710000004E-01   0.2981073218E-16   0.6207879474E-16   0.2474237883E-16   0.3500000005E+01
   0.0000000000E+00   0.9729000000E+00   0.9729000000E+00   0.0000000000E+00   0.6750000000E-03   0.6750000000E-03   0.0000000000E+00  -0.2777500000E-01  -0.2777500000E-01   0.3500000005E+01  -0.9932470291E-14  -0.1234467828E-13  -0.9347527547E-15  -0.6670165299E-17   0.1007411794E-14   0.5700000008E-01  -0.2710000004E-01  -0.2710000004E-01  -0.9027256097E-17   0.2304291302E-16  -0.5456156718E-16   0.3500000005E+01
   0.2114000000E+01   0.0000000000E+00  -0.7141435335E-16  -0.4500000000E-02   0.0000000000E+00  -0.6521604146E-17   0.1185000000E+00   0.0000000000E+00  -0.6489274920E-16   0.3500000005E+01  -0.1125715747E-13  -0.1071638631E-13   0.7495116210E-15   0.1915684957E-15   0.1016490368E-14   0.5700000009E-01  -0.2710000004E-01  -0.2710000004E-01   0.3295828987E-16  -0.4993292284E-16   0.3528009922E-16   0.3500000005E+01
   0.2114000000E+01   0.9729000000E+00  -0.5187156528E-16  -0.4500000000E-02   0.6750000000E-03  -0.6059592422E-17   0.1185000000E+00  -0.2777500000E-01  -0.4581197286E-16   0.3500000005E+01   0.1122264176E-13   0.8505656301E-14   0.7886724249E-15  -0.1992547952E-15   0.3995535160E-16   0.5700000008E-01  -0.2710000004E-01  -0.2710000004E-01  -0.4405177020E-16  -0.4218118248E-16   0.2887847691E-16   0.3500000005E+01
   0.2114000000E+01   0.0000000000E+00   0.9729000000E+00  -0.4500000000E-02   0.0000000000E+00   0.6750000000E-03   0.1185000000E+00   0.0000000000E+00  -0.2777500000E-01   0.3500000005E+01   0.1071546135E-13   0.1038331942E-13  -0.3370643832E-15   0.5869679991E-15  -0.1033982754E-15   0.5700000008E-01  -0.2710000004E-01  -0.2710000004E-01   0.1206641133E-16   0.1103037822E-15  -0.6372233500E-17   0.3500000005E+01
   0.2114000000E+01   0.9729000000E+00   0.9729000000E+00  -0.4500000000E-02   0.6750000000E-03   0.6750000000E-03   0.1185000000E+00  -0.2777500000E-01  -0.2777500000E-01   0.3500000004E+01  -0.8064236820E-14  -0.7279643776E-14  -0.1950618406E-14  -0.1005973385E-14  -0.9126328291E-15   0.5700000007E-01  -0.2710000003E-01  -0.2710000003E-01   0.5087623745E-16  -0.1724348190E-15  -0.9419684890E-17   0.3500000004E+01
     1     2     3     4     5     6     7     8
     2     9    10     3     6    11    12     7
 VARIABLES = X,Y,Z,DU1,DU2,DU3,U1,U2,U3,S11,S22,S33,S12,S13,S23,E11,E22,E33,E12,E13,E23,SMISES
 ZONE, T="0.5450D+01" F=FEPOINT, I=   12 J=    2 ET=BRICK
   0.0000000000E+00   0.0000000000E+00   0.0000000000E+00   0.0000000000E+00   0.0000000000E+00   0.0000000000E+00   0.0000000000E+00   0.0000000000E+00   0.0000000000E+00   0.2375000004E+01  -0.5777827700E-14  -0.7715638039E-14   0.6191683799E-16  -0.4575765128E-15  -0.4567949906E-15   0.5475000009E-01  -0.2642500004E-01  -0.2642500004E-01   0.1820129977E-17  -0.4676635160E-16   0.2058474464E-16   0.2375000004E+01
   0.1054750000E+01   0.0000000000E+00  -0.1964848561E-16  -0.2250000000E-02   0.0000000000E+00   0.7202997907E-18   0.5700000000E-01   0.0000000000E+00  -0.2036878540E-16   0.2375000004E+01   0.6205200074E-14   0.6398225745E-14  -0.5479950999E-15  -0.5255043506E-15  -0.4010895680E-16   0.5475000008E-01  -0.2642500004E-01  -0.2642500004E-01   0.8282587909E-16   0.8491951271E-16   0.2965190783E-16   0.2375000004E+01
   0.1054750000E+01   0.9735750000E+00  -0.9188075303E-17  -0.2250000000E-02   0.6750000000E-03   0.6303359850E-18   0.5700000000E-01  -0.2710000000E-01  -0.9818411288E-17   0.2375000003E+01  -0.8041978224E-14  -0.8211233813E-14  -0.5083370637E-15   0.1529979751E-14   0.7592346706E-16   0.5475000008E-01  -0.2642500004E-01  -0.2642500004E-01   0.1073000909E-15  -0.3323425354E-16  -0.5352791633E-16   0.2375000003E+01
   0.0000000000E+00   0.9735750000E+00   0.1238787149E-16   0.0000000000E+00   0.6750000000E-03  -0.5022617730E-18   0.0000000000E+00  -0.2710000000E-01   0.1289013326E-16   0.2375000003E+01   0.8854496210E-14   0.1169980699E-13   0.6030978746E-15   0.1225454264E-15   0.1476864311E-15   0.5475000008E-01  -0.2642500004E-01  -0.2642500004E-01   0.7795793907E-16  -0.1965096138E-16   0.3494797642E-16   0.2375000003E+01
   0.0000000000E+00   0.0000000000E+00   0.9735750000E+00   0.0000000000E+00   0.0000000000E+00   0.6750000000E-03   0.0000000000E+00   0.0000000000E+00  -0.2710000000E-01   0.2375000003E+01   0.8520842970E-14   0.9247104976E-14  -0.3736618961E-16  -0.1434436972E-15   0.2380900032E-15   0.5475000008E-01  -0.2642500004E-01  -0.2642500004E-01   0.2487956800E-17  -0.1308320520E-15  -0.8111920947E-16   0.2375000003E+01
   0.1054750000E+01   0.0000000000E+00   0.9735750000E+00  -0.2250000000E-02   0.0000000000E+00   0.6750000000E-03   0.5700000000E-01   0.0000000000E+00  -0.2710000000E-01   0.2375000003E+01  -0.8058311224E-14  -0.6686670127E-14   0.8932065011E-15  -0.2250936661E-15   0.2286960916E-15   0.5475000008E-01  -0.2642500004E-01  -0.2642500004E-01   0.4852347960E-16   0.1559710279E-16   0.5052080349E-16   0.2375000003E+01
   0.1054750000E+01   0.9735750000E+00   0.9735750000E+00  -0.2250000000E-02   0.6750000000E-03   0.6750000000E-03   0.5700000000E-01  -0.2710000000E-01  -0.2710000000E-01   0.2375000003E+01   0.8473185953E-14   0.8211233813E-14  -0.1961876111E-15  -0.1860266612E-15  -0.3488368217E-15   0.5475000007E-01  -0.2642500003E-01  -0.2642500003E-01   0.3090819313E-16   0.1263903966E-16   0.2350982996E-16   0.2375000003E+01
   0.0000000000E+00   0.9735750000E+00   0.9735750000E+00   0.0000000000E+00   0.6750000000E-03   0.6750000000E-03   0.0000000000E+00  -0.2710000000E-01  -0.2710000000E-01   0.2375000003E+01  -0.1085321678E-13  -0.1299022652E-13  -0.7084008053E-15   0.2303941033E-15   0.9041333895E-15   0.5475000007E-01  -0.2642500004E-01  -0.2642500004E-01  -0.8234141831E-17   0.2987371282E-16  -0.5261612738E-16   0.2375000003E+01
   0.2109500000E+01   0.0000000000E+00  -0.6668202157E-16  -0.4500000000E-02   0.0000000000E+00   0.4732331781E-17   0.1140000000E+00   0.0000000000E+00  -0.7141435335E-16   0.2375000004E+01  -0.1044689935E-13  -0.9706030161E-14  -0.2095837555E-15  -0.1117038366E-14   0.6802251820E-15   0.5475000008E-01  -0.2642500004E-01  -0.2642500004E-01  -0.1849473455E-16  -0.1823950504E-15   0.3727238677E-16   0.2375000004E+01
   0.2109500000E+01   0.9735750000E+00  -0.4890042024E-16  -0.4500000000E-02   0.6750000000E-03   0.2971145041E-17   0.1140000000E+00  -0.2710000000E-01  -0.5187156528E-16   0.2375000003E+01   0.1031523910E-13   0.8001803562E-14  -0.1027777923E-15   0.9526619077E-15  -0.8049366492E-16   0.5475000008E-01  -0.2642500004E-01  -0.2642500004E-01  -0.1002745561E-15   0.6455376638E-16   0.5434943151E-16   0.2375000003E+01
   0.2109500000E+01   0.0000000000E+00   0.9735750000E+00  -0.4500000000E-02   0.0000000000E+00   0.6750000000E-03   0.1140000000E+00   0.0000000000E+00  -0.2710000000E-01   0.2375000003E+01   0.8950892049E-14   0.8174563223E-14   0.1000810327E-14  -0.4270067680E-15  -0.4117321213E-15   0.5475000008E-01  -0.2642500004E-01  -0.2642500004E-01   0.1336071748E-16   0.5718058346E-16  -0.3412128411E-16   0.2375000003E+01
   0.2109500000E+01   0.9735750000E+00   0.9735750000E+00  -0.4500000000E-02   0.6750000000E-03   0.6750000000E-03   0.1140000000E+00  -0.2710000000E-01  -0.2710000000E-01   0.2375000003E+01  -0.6830741955E-14  -0.6134495271E-14  -0.6920248659E-15  -0.1056904925E-16  -0.9233142397E-15   0.5475000007E-01  -0.2642500003E-01  -0.2642500003E-01   0.5637178828E-16  -0.1410294387E-15   0.2845480632E-17   0.2375000003E+01
     1     2     3     4     5     6     7     8
     2     9    10     3     6    11    12     7
 VARIABLES = X,Y,Z,DU1,DU2,DU3,U1,U2,U3,S11,S22,S33,S12,S13,S23,E11,E22,E33,E12,E13,E23,SMISES
 ZONE, T="0.5500D+01" F=FEPOINT, I=   12 J=    2 ET=BRICK
   0.0000000000E+00   0.0000000000E+00   0.0000000000E+00   0.0000000000E+00   0.0000000000E+00   0.0000000000E+00   0.0000000000E+00   0.0000000000E+00   0.0000000000E+00   0.1250000002E+01  -0.5701998074E-14  -0.7592597246E-14   0.2674504929E-16  -0.4537494744E-15  -0.4308830219E-15   0.5250000008E-01  -0.2575000004E-01  -0.2575000004E-01  -0.1046226530E-17  -0.4075596007E-16   0.2766692999E-16   0.1250000002E+01
   0.1052500000E+01   0.0000000000E+00  -0.1953163460E-16  -0.2250000000E-02   0.0000000000E+00   0.1168510127E-18   0.5475000000E-01   0.0000000000E+00  -0.1964848561E-16   0.1250000002E+01   0.5983155500E-14   0.6020803358E-14  -0.5720265476E-15  -0.6283443232E-15  -0.4095149152E-16   0.5250000008E-01  -0.2575000004E-01  -0.2575000004E-01   0.1042030340E-15   0.6007224670E-16   0.2139920283E-16   0.1250000002E+01
   0.1052500000E+01   0.9742500000E+00  -0.9028606874E-17  -0.2250000000E-02   0.6750000000E-03   0.1594684288E-18   0.5475000000E-01  -0.2642500000E-01  -0.9188075303E-17   0.1250000002E+01  -0.7645963145E-14  -0.7970596548E-14  -0.5268812316E-15   0.1479045105E-14  -0.4749266279E-16   0.5250000007E-01  -0.2575000004E-01  -0.2575000004E-01   0.1173805250E-15  -0.4544373998E-16  -0.3064021176E-16   0.1250000002E+01
   0.0000000000E+00   0.9742500000E+00   0.1255795234E-16   0.0000000000E+00   0.6750000000E-03   0.1700808511E-18   0.0000000000E+00  -0.2642500000E-01   0.1238787149E-16   0.1250000002E+01   0.8735040477E-14   0.1165804016E-13   0.7302591036E-15   0.1681144308E-15   0.2159181883E-15   0.5250000008E-01  -0.2575000004E-01  -0.2575000004E-01   0.7704521453E-16  -0.1379152151E-16   0.2393986501E-16   0.1250000002E+01
   0.0000000000E+00   0.0000000000E+00   0.9742500000E+00   0.0000000000E+00   0.0000000000E+00   0.6750000000E-03   0.0000000000E+00   0.0000000000E+00  -0.2642500000E-01   0.1250000002E+01   0.8248998550E-14   0.8939205013E-14  -0.4631118477E-17   0.4518661776E-16   0.3343899530E-15   0.5250000008E-01  -0.2575000004E-01  -0.2575000004E-01   0.3702914798E-17  -0.1403254787E-15  -0.9481446942E-16   0.1250000002E+01
   0.1052500000E+01   0.0000000000E+00   0.9742500000E+00  -0.2250000000E-02   0.0000000000E+00   0.6750000000E-03   0.5475000000E-01   0.0000000000E+00  -0.2642500000E-01   0.1250000002E+01  -0.7767874098E-14  -0.6324121909E-14   0.8483683469E-15  -0.4555500991E-15   0.2506761343E-15   0.5250000007E-01  -0.2575000004E-01  -0.2575000004E-01   0.1831589146E-16   0.3371684580E-16   0.6206602155E-16   0.1250000002E+01
   0.1052500000E+01   0.9742500000E+00   0.9742500000E+00  -0.2250000000E-02   0.6750000000E-03   0.6750000000E-03   0.5475000000E-01  -0.2642500000E-01  -0.2642500000E-01   0.1250000002E+01   0.8049415299E-14   0.7942840966E-14  -0.2348133526E-15  -0.3137337927E-15  -0.4451476561E-15   0.5250000007E-01  -0.2575000003E-01  -0.2575000003E-01   0.1102164656E-16   0.4856603671E-17  -0.5552928500E-17   0.1250000002E+01
   0.0000000000E+00   0.9742500000E+00   0.9742500000E+00   0.0000000000E+00   0.6750000000E-03   0.6750000000E-03   0.0000000000E+00  -0.2642500000E-01  -0.2642500000E-01   0.1250000002E+01  -0.1065421287E-13  -0.1283843378E-13  -0.8239233433E-15   0.2684883676E-15   0.1027069272E-14   0.5250000007E-01  -0.2575000003E-01  -0.2575000003E-01   0.2596312338E-17   0.2928111487E-16  -0.6876138546E-17   0.1250000002E+01
   0.2105000000E+01   0.0000000000E+00  -0.6795107087E-16  -0.4500000000E-02   0.0000000000E+00  -0.1269049297E-17   0.1095000000E+00   0.0000000000E+00  -0.6668202157E-16   0.1250000002E+01  -0.1156256654E-13  -0.1084659729E-13   0.2217525663E-15  -0.7811194611E-15   0.7700462331E-15   0.5250000008E-01  -0.2575000004E-01  -0.2575000004E-01  -0.5211416215E-17  -0.1882713628E-15   0.3146545383E-16   0.1250000002E+01
   0.2105000000E+01   0.9742500000E+00  -0.4968122219E-16  -0.4500000000E-02   0.6750000000E-03  -0.7808019471E-18   0.1095000000E+00  -0.2642500000E-01  -0.4890042024E-16   0.1250000002E+01   0.1063097657E-13   0.8095629938E-14   0.2561899180E-15   0.6047268739E-15  -0.3759011573E-16   0.5250000007E-01  -0.2575000004E-01  -0.2575000004E-01  -0.7347608589E-16   0.1050157527E-15   0.5563247506E-16   0.1250000002E+01
   0.2105000000E+01   0.0000000000E+00   0.9742500000E+00  -0.4500000000E-02   0.0000000000E+00   0.6750000000E-03   0.1095000000E+00   0.0000000000E+00  -0.2642500000E-01   0.1250000002E+01   0.1020706288E-13   0.9444478354E-14   0.3650343560E-15   0.3615953177E-15  -0.3459129517E-15   0.5250000007E-01  -0.2575000004E-01  -0.2575000004E-01   0.4527582366E-16   0.7900305968E-16  -0.2472419050E-16   0.1250000002E+01
   0.2105000000E+01   0.9742500000E+00   0.9742500000E+00  -0.4500000000E-02   0.6750000000E-03   0.6750000000E-03   0.1095000000E+00  -0.2642500000E-01  -0.2642500000E-01   0.1250000002E+01  -0.7473835012E-14  -0.6752688407E-14  -0.1267632758E-14  -0.2381160424E-15  -0.9207676255E-15   0.5250000007E-01  -0.2575000003E-01  -0.2575000003E-01   0.4941990151E-16  -0.1180857712E-15   0.1650815899E-17   0.1250000002E+01
     1     2     3     4     5     6     7     8
     2     9    10     3     6    11    12     7
 VARIABLES = X,Y,Z,DU1,DU2,DU3,U1,U2,U3,S11,S22,S33,S12,S13,S23,E11,E22,E33,E12,E13,E23,SMISES
 ZONE, T="0.5550D+01" F=FEPOINT, I=   12 J=    2 ET=BRICK
   0.0000000000E+00   0.0000000000E+00   0.0000000000E+00   0.0000000000E+00   0.0000000000E+00   0.0000000000E+00   0.0000000000E+00   0.0000000000E+00   0.0000000000E+00   0.1250000002E+00  -0.5756102547E-14  -0.7594660017E-14   0.9692157290E-17  -0.3973398480E-15  -0.4658408078E-15   0.5025000008E-01  -0.2507500004E-01  -0.2507500004E-01  -0.8288695040E-18  -0.2055894414E-16   0.1812593545E-16   0.1250000002E+00
   0.1050250000E+01   0.0000000000E+00  -0.1911048636E-16  -0.2250000000E-02   0.0000000000E+00   0.4211482369E-18   0.5250000000E-01   0.0000000000E+00  -0.1953163460E-16   0.1250000002E+00   0.6216222218E-14   0.6346797853E-14  -0.4608906533E-15  -0.6846975842E-15  -0.5216457273E-16   0.5025000008E-01  -0.2507500004E-01  -0.2507500004E-01   0.8648326011E-16   0.3175765300E-16   0.2395221290E-16   0.1250000002E+00
   0.1050250000E+01   0.9749250000E+00  -0.8732665176E-17  -0.2250000000E-02   0.6750000000E-03   0.2959416983E-18   0.5250000000E-01  -0.2575000000E-01  -0.9028606874E-17   0.1250000002E+00  -0.7634260458E-14  -0.7865966083E-14  -0.4850505588E-15   0.1457192142E-14  -0.3689475310E-16   0.5025000007E-01  -0.2507500004E-01  -0.2507500004E-01   0.9398923722E-16  -0.5037870105E-16  -0.3921460935E-16   0.1250000002E+00
   0.0000000000E+00   0.9749250000E+00   0.1239732125E-16   0.0000000000E+00   0.6750000000E-03  -0.1606310882E-18   0.0000000000E+00  -0.2575000000E-01   0.1255795234E-16   0.1250000002E+00   0.8796822184E-14   0.1168655523E-13   0.7127644640E-15   0.1939578195E-15   0.2355510828E-15   0.5025000007E-01  -0.2507500004E-01  -0.2507500004E-01   0.8385460635E-16  -0.2566390152E-16   0.4408607000E-16   0.1250000002E+00
   0.0000000000E+00   0.0000000000E+00   0.9749250000E+00   0.0000000000E+00   0.0000000000E+00   0.6750000000E-03   0.0000000000E+00   0.0000000000E+00  -0.2575000000E-01   0.1250000002E+00   0.8231854817E-14   0.8924850186E-14   0.7710924155E-17   0.2673570776E-16   0.2761854876E-15   0.5025000007E-01  -0.2507500004E-01  -0.2507500004E-01  -0.2980919297E-17  -0.1376016631E-15  -0.7961230024E-16   0.1250000002E+00
   0.1050250000E+01   0.0000000000E+00   0.9749250000E+00  -0.2250000000E-02   0.0000000000E+00   0.6750000000E-03   0.5250000000E-01   0.0000000000E+00  -0.2575000000E-01   0.1250000002E+00  -0.7904045403E-14  -0.6439476532E-14   0.8318538491E-15  -0.3581007619E-15   0.2329838465E-15   0.5025000007E-01  -0.2507500004E-01  -0.2507500004E-01   0.3419708981E-16   0.1008414767E-16   0.5300723336E-16   0.1250000002E+00
   0.1050250000E+01   0.9749250000E+00   0.9749250000E+00  -0.2250000000E-02   0.6750000000E-03   0.6750000000E-03   0.5250000000E-01  -0.2575000000E-01  -0.2575000000E-01   0.1250000002E+00   0.8108213536E-14   0.8022455885E-14  -0.2230654120E-15  -0.3265317562E-15  -0.3978164383E-15   0.5025000007E-01  -0.2507500003E-01  -0.2507500003E-01   0.2920692731E-16  -0.6917130618E-17   0.1695262716E-16   0.1250000002E+00
   0.0000000000E+00   0.9749250000E+00   0.9749250000E+00   0.0000000000E+00   0.6750000000E-03   0.6750000000E-03   0.0000000000E+00  -0.2575000000E-01  -0.2575000000E-01   0.1250000002E+00  -0.1078826360E-13  -0.1305500393E-13  -0.8615998145E-15   0.3347274932E-15   0.1000671880E-14   0.5025000007E-01  -0.2507500003E-01  -0.2507500003E-01  -0.3752782427E-17   0.4216179101E-16  -0.5680893414E-16   0.1250000002E+00
   0.2100500000E+01   0.0000000000E+00  -0.6595854986E-16  -0.4500000000E-02   0.0000000000E+00   0.1992521003E-17   0.1050000000E+00   0.0000000000E+00  -0.6795107087E-16   0.1250000002E+00  -0.1112645824E-13  -0.1042089733E-13   0.1876098664E-15  -0.8435441863E-15   0.7025282241E-15   0.5025000008E-01  -0.2507500004E-01  -0.2507500004E-01  -0.3721306076E-16  -0.3057975805E-16   0.2896142933E-16   0.1250000002E+00
   0.2100500000E+01   0.9749250000E+00  -0.4787561313E-16  -0.4500000000E-02   0.6750000000E-03   0.1805609062E-17   0.1050000000E+00  -0.2575000000E-01  -0.4968122219E-16   0.1250000002E+00   0.1063337070E-13   0.8172924069E-14   0.2881468697E-15   0.5915161185E-15   0.1466281038E-16   0.5025000007E-01  -0.2507500004E-01  -0.2507500004E-01  -0.1150474444E-15   0.1720605605E-16   0.4904299660E-16   0.1250000002E+00
   0.2100500000E+01   0.0000000000E+00   0.9749250000E+00  -0.4500000000E-02   0.0000000000E+00   0.6750000000E-03   0.1050000000E+00   0.0000000000E+00  -0.2575000000E-01   0.1250000002E+00   0.9742834320E-14   0.8874872060E-14   0.5091401671E-15   0.5203823489E-16  -0.3245383382E-15   0.5025000007E-01  -0.2507500004E-01  -0.2507500004E-01   0.1686696693E-16   0.1030517223E-15  -0.1693000555E-16   0.1250000002E+00
   0.2100500000E+01   0.9749250000E+00   0.9749250000E+00  -0.4500000000E-02   0.6750000000E-03   0.6750000000E-03   0.1050000000E+00  -0.2575000000E-01  -0.2575000000E-01   0.1250000002E+00  -0.7306317422E-14  -0.6605240212E-14  -0.1141094296E-14  -0.1346342815E-15  -0.9683847295E-15   0.5025000006E-01  -0.2507500003E-01  -0.2507500003E-01   0.3562160635E-16  -0.1094604094E-15  -0.3069761873E-16   0.1250000002E+00
     1     2     3     4     5     6     7     8
     2     9    10     3     6    11    12     7
 VARIABLES = X,Y,Z,DU1,DU2,DU3,U1,U2,U3,S11,S22,S33,S12,S13,S23,E11,E22,E33,E12,E13,E23,SMISES
 ZONE, T="0.5600D+01" F=FEPOINT, I=   12 J=    2 ET=BRICK
   0.0000000000E+00   0.0000000000E+00   0.0000000000E+00   0.0000000000E+00   0.0000000000E+00   0.0000000000E+00   0.0000000000E+00   0.0000000000E+00   0.0000000000E+00  -0.1000000002E+01  -0.5395143372E-14  -0.7246150814E-14  -0.5637291828E-17  -0.2866096085E-15  -0.4727075701E-15   0.4800000008E-01  -0.2440000004E-01  -0.2440000004E-01   0.3767172107E-17  -0.3259199976E-16   0.2424157885E-16   0.1000000002E+01
   0.1048000000E+01   0.0000000000E+00  -0.1897805449E-16  -0.2250000000E-02   0.0000000000E+00   0.1324318681E-18   0.5025000000E-01   0.0000000000E+00  -0.1911048636E-16  -0.1000000002E+01   0.5942883226E-14   0.5870869882E-14  -0.5994239685E-15  -0.9346501204E-15  -0.5381667253E-16   0.4800000007E-01  -0.2440000004E-01  -0.2440000004E-01   0.6486329547E-16   0.2161270479E-16   0.2142035848E-16   0.1000000002E+01
   0.1048000000E+01   0.9756000000E+00  -0.8753758941E-17  -0.2250000000E-02   0.6750000000E-03  -0.2109376555E-19   0.5025000000E-01  -0.2507500000E-01  -0.8732665176E-17  -0.1000000001E+01  -0.7447590890E-14  -0.7608048324E-14  -0.6375375499E-15   0.1699439927E-14  -0.1431627562E-15   0.4800000007E-01  -0.2440000003E-01  -0.2440000003E-01   0.9511704849E-16  -0.3586026014E-16  -0.2610562320E-16   0.1000000001E+01
   0.0000000000E+00   0.9756000000E+00   0.1244472328E-16   0.0000000000E+00   0.6750000000E-03   0.4740203166E-19   0.0000000000E+00  -0.2507500000E-01   0.1239732125E-16  -0.1000000001E+01   0.8400661393E-14   0.1118470087E-13   0.7497233866E-15   0.1439417436E-15   0.2810363251E-15   0.4800000007E-01  -0.2440000004E-01  -0.2440000004E-01   0.7336232973E-16  -0.3084489314E-16   0.3505435929E-16   0.1000000001E+01
   0.0000000000E+00   0.0000000000E+00   0.9756000000E+00   0.0000000000E+00   0.0000000000E+00   0.6750000000E-03   0.0000000000E+00   0.0000000000E+00  -0.2507500000E-01  -0.1000000001E+01   0.7763956569E-14   0.8472938088E-14   0.4285717576E-16   0.4618117256E-16   0.3290529741E-15   0.4800000007E-01  -0.2440000004E-01  -0.2440000004E-01   0.1228697665E-17  -0.1353391134E-15  -0.7932301076E-16   0.1000000001E+01
   0.1048000000E+01   0.0000000000E+00   0.9756000000E+00  -0.2250000000E-02   0.0000000000E+00   0.6750000000E-03   0.5025000000E-01   0.0000000000E+00  -0.2507500000E-01  -0.1000000001E+01  -0.7906020288E-14  -0.6447029233E-14   0.9393824288E-15  -0.5790842600E-15   0.2317388116E-15   0.4800000007E-01  -0.2440000003E-01  -0.2440000003E-01   0.3561541934E-16  -0.1573503570E-16   0.5590542465E-16   0.1000000001E+01
   0.1048000000E+01   0.9756000000E+00   0.9756000000E+00  -0.2250000000E-02   0.6750000000E-03   0.6750000000E-03   0.5025000000E-01  -0.2507500000E-01  -0.2507500000E-01  -0.1000000001E+01   0.7930591223E-14   0.7832815054E-14  -0.6568674742E-16  -0.1564050880E-15  -0.3564269571E-15   0.4800000006E-01  -0.2440000003E-01  -0.2440000003E-01   0.7575272896E-17   0.1171787880E-16   0.1674928470E-16   0.1000000001E+01
   0.0000000000E+00   0.9756000000E+00   0.9756000000E+00   0.0000000000E+00   0.6750000000E-03   0.6750000000E-03   0.0000000000E+00  -0.2507500000E-01  -0.2507500000E-01  -0.1000000001E+01  -0.1056604891E-13  -0.1282269675E-13  -0.9197579842E-15   0.3089245287E-15   0.1017673842E-14   0.4800000006E-01  -0.2440000003E-01  -0.2440000003E-01  -0.3902534059E-17   0.1447758904E-16  -0.6840941961E-16   0.1000000001E+01
   0.2096000000E+01   0.0000000000E+00  -0.6654690480E-16  -0.4500000000E-02   0.0000000000E+00  -0.5883549364E-18   0.1005000000E+00   0.0000000000E+00  -0.6595854986E-16  -0.1000000002E+01  -0.1177055094E-13  -0.1102850303E-13   0.4651136663E-15  -0.5351620835E-15   0.7484705321E-15   0.4800000007E-01  -0.2440000004E-01  -0.2440000004E-01  -0.3459669707E-16  -0.1115663127E-15   0.3083837211E-16   0.1000000002E+01
   0.2096000000E+01   0.9756000000E+00  -0.4822622937E-16  -0.4500000000E-02   0.6750000000E-03  -0.3506162371E-18   0.1005000000E+00  -0.2507500000E-01  -0.4787561313E-16  -0.1000000001E+01   0.1160247048E-13   0.9092339600E-14   0.5003394006E-15   0.8502488306E-16   0.1195706958E-15   0.4800000007E-01  -0.2440000003E-01  -0.2440000003E-01  -0.1145351247E-15   0.4550754560E-17   0.3831571100E-16   0.1000000001E+01
   0.2096000000E+01   0.0000000000E+00   0.9756000000E+00  -0.4500000000E-02   0.0000000000E+00   0.6750000000E-03   0.1005000000E+00   0.0000000000E+00  -0.2507500000E-01  -0.1000000001E+01   0.1065618279E-13   0.9962804836E-14   0.4020637562E-15   0.1178425667E-15  -0.3349476667E-15   0.4800000007E-01  -0.2440000003E-01  -0.2440000003E-01   0.2139170818E-16   0.1658909746E-16  -0.1056997746E-16   0.1000000001E+01
   0.2096000000E+01   0.9756000000E+00   0.9756000000E+00  -0.4500000000E-02   0.6750000000E-03   0.6750000000E-03   0.1005000000E+00  -0.2507500000E-01  -0.2507500000E-01  -0.1000000001E+01  -0.7786765699E-14  -0.7356736765E-14  -0.1138464760E-14  -0.1891195576E-15  -0.9501628646E-15   0.4800000006E-01  -0.2440000003E-01  -0.2440000003E-01   0.5458845030E-16  -0.1143085570E-15  -0.1314331761E-16   0.1000000001E+01
     1     2     3     4     5     6     7     8
     2     9    10     3     6    11    12     7
 VARIABLES = X,Y,Z,DU1,DU2,DU3,U1,U2,U3,S11,S22,S33,S12,S13,S23,E11,E22,E33,E12,E13,E23,SMISES
 ZONE, T="0.5650D+01" F=FEPOINT, I=   12 J=    2 ET=BRICK
   0.0000000000E+00   0.0000000000E+00   0.0000000000E+00   0.0000000000E+00   0.0000000000E+00   0.0000000000E+00   0.0000000000E+00   0.0000000000E+00   0.0000000000E+00  -0.2125000003E+01  -0.5720955474E-14  -0.7619854627E-14   0.1875049981E-16  -0.4777559931E-15  -0.5086777849E-15   0.4575000007E-01  -0.2372500004E-01  -0.2372500004E-01   0.3110768117E-17  -0.2078874170E-16   0.2437848751E-16   0.2125000003E+01
   0.1045750000E+01   0.0000000000E+00  -0.1984435074E-16  -0.2250000000E-02   0.0000000000E+00  -0.8662962509E-18   0.4800000000E-01   0.0000000000E+00  -0.1897805449E-16  -0.2125000003E+01   0.6187603768E-14   0.6206658928E-14  -0.3400147042E-15  -0.6481488791E-15   0.2771596240E-16   0.4575000007E-01  -0.2372500004E-01  -0.2372500004E-01   0.8191359052E-16   0.2303129883E-16   0.2689227299E-16   0.2125000003E+01
   0.1045750000E+01   0.9762750000E+00  -0.9212989477E-17  -0.2250000000E-02   0.6750000000E-03  -0.4592305353E-18   0.4800000000E-01  -0.2440000000E-01  -0.8753758941E-17  -0.2125000003E+01  -0.7678433641E-14  -0.7784741010E-14  -0.3299905313E-15   0.1431577018E-14  -0.5607241881E-16   0.4575000007E-01  -0.2372500003E-01  -0.2372500003E-01   0.8982080092E-16  -0.3727867318E-16  -0.3022549282E-16   0.2125000003E+01
   0.0000000000E+00   0.9762750000E+00   0.1216877415E-16   0.0000000000E+00   0.6750000000E-03  -0.2759491333E-18   0.0000000000E+00  -0.2440000000E-01   0.1244472328E-16  -0.2125000003E+01   0.8948286907E-14   0.1165309404E-13   0.7587680093E-15   0.1581691583E-15   0.1717711095E-15   0.4575000007E-01  -0.2372500003E-01  -0.2372500003E-01   0.8152424881E-16  -0.3849714926E-16   0.3593612456E-16   0.2125000003E+01
   0.0000000000E+00   0.0000000000E+00   0.9762750000E+00   0.0000000000E+00   0.0000000000E+00   0.6750000000E-03   0.0000000000E+00   0.0000000000E+00  -0.2440000000E-01  -0.2125000003E+01   0.8234756080E-14   0.8969451550E-14   0.2922321296E-16   0.1614151765E-16   0.3412815224E-15   0.4575000007E-01  -0.2372500003E-01  -0.2372500003E-01   0.2775405809E-17  -0.1428981354E-15  -0.7590245308E-16   0.2125000003E+01
   0.1045750000E+01   0.0000000000E+00   0.9762750000E+00  -0.2250000000E-02   0.0000000000E+00   0.6750000000E-03   0.4800000000E-01   0.0000000000E+00  -0.2440000000E-01  -0.2125000003E+01  -0.7633811164E-14  -0.6042118243E-14   0.7463415449E-15  -0.2864655395E-15   0.2602273841E-15   0.4575000007E-01  -0.2372500003E-01  -0.2372500003E-01   0.2428656133E-16   0.4762163081E-17   0.5690313039E-16   0.2125000003E+01
   0.1045750000E+01   0.9762750000E+00   0.9762750000E+00  -0.2250000000E-02   0.6750000000E-03   0.6750000000E-03   0.4800000000E-01  -0.2440000000E-01  -0.2440000000E-01  -0.2125000003E+01   0.7930226534E-14   0.7792178091E-14  -0.3114304502E-15  -0.3990696568E-15  -0.3582024624E-15   0.4575000006E-01  -0.2372500003E-01  -0.2372500003E-01   0.4117454473E-16  -0.8649401384E-17  -0.4636129950E-18   0.2125000003E+01
   0.0000000000E+00   0.9762750000E+00   0.9762750000E+00   0.0000000000E+00   0.6750000000E-03   0.6750000000E-03   0.0000000000E+00  -0.2440000000E-01  -0.2440000000E-01  -0.2125000003E+01  -0.1042808505E-13  -0.1278069866E-13  -0.9097667253E-15   0.3142050703E-15   0.9879543424E-15   0.4575000006E-01  -0.2372500003E-01  -0.2372500003E-01  -0.1235583637E-16   0.3065123681E-16  -0.5856497005E-16   0.2125000003E+01
   0.2091500000E+01   0.0000000000E+00  -0.6784097701E-16  -0.4500000000E-02   0.0000000000E+00  -0.1294072206E-17   0.9600000000E-01   0.0000000000E+00  -0.6654690480E-16  -0.2125000003E+01  -0.1091665359E-13  -0.1035148070E-13   0.3173440719E-16  -0.7399442820E-15   0.6941490813E-15   0.4575000007E-01  -0.2372500004E-01  -0.2372500004E-01  -0.4984761529E-16  -0.7219408968E-16   0.2577660191E-16   0.2125000003E+01
   0.2091500000E+01   0.9762750000E+00  -0.4985584223E-16  -0.4500000000E-02   0.6750000000E-03  -0.1629612866E-17   0.9600000000E-01  -0.2440000000E-01  -0.4822622937E-16  -0.2125000003E+01   0.1020511544E-13   0.7703102180E-14   0.1072320485E-15   0.3270628410E-15  -0.3533690633E-16   0.4575000006E-01  -0.2372500003E-01  -0.2372500003E-01  -0.8364837653E-16   0.7470717303E-17   0.5774509046E-16   0.2125000003E+01
   0.2091500000E+01   0.0000000000E+00   0.9762750000E+00  -0.4500000000E-02   0.0000000000E+00   0.6750000000E-03   0.9600000000E-01   0.0000000000E+00  -0.2440000000E-01  -0.2125000003E+01   0.9675623787E-14   0.9209054194E-14   0.5297149144E-15   0.5713018247E-16  -0.3636667048E-15   0.4575000006E-01  -0.2372500003E-01  -0.2372500003E-01   0.5593574333E-16   0.3267255303E-16  -0.1513603558E-16   0.2125000003E+01
   0.2091500000E+01   0.9762750000E+00   0.9762750000E+00  -0.4500000000E-02   0.6750000000E-03   0.6750000000E-03   0.9600000000E-01  -0.2440000000E-01  -0.2440000000E-01  -0.2125000003E+01  -0.7387214495E-14  -0.7015601210E-14  -0.1021569833E-14   0.2122361921E-15  -0.1047030297E-14   0.4575000006E-01  -0.2372500003E-01  -0.2372500003E-01   0.5158170932E-17  -0.8547350273E-16  -0.1296595582E-16   0.2125000003E+01
     1     2     3     4     5     6     7     8
     2     9    10     3     6    11    12     7
 VARIABLES = X,Y,Z,DU1,DU2,DU3,U1,U2,U3,S11,S22,S33,S12,S13,S23,E11,E22,E33,E12,E13,E23,SMISES
 ZONE, T="0.5700D+01" F=FEPOINT, I=   12 J=    2 ET=BRICK
   0.0000000000E+00   0.0000000000E+00   0.0000000000E+00   0.0000000000E+00   0.0000000000E+00   0.0000000000E+00   0.0000000000E+00   0.0000000000E+00   0.0000000000E+00  -0.3250000005E+01  -0.5712789048E-14  -0.7236623280E-14   0.3915442616E-16  -0.3860219422E-15  -0.5840678466E-15   0.4350000007E-01  -0.2305000004E-01  -0.2305000004E-01   0.1669339588E-17  -0.2408970997E-16   0.2960749719E-16   0.3250000005E+01
   0.1043500000E+01   0.0000000000E+00  -0.1943497118E-16  -0.2250000000E-02   0.0000000000E+00   0.4093795652E-18   0.4575000000E-01   0.0000000000E+00  -0.1984435074E-16  -0.3250000005E+01   0.5828774106E-14   0.5597299717E-14  -0.4452629727E-15  -0.8138740441E-15  -0.5338301311E-16   0.4350000007E-01  -0.2305000004E-01  -0.2305000004E-01   0.9050530982E-16   0.4795806980E-16   0.1901901339E-16   0.3250000005E+01
   0.1043500000E+01   0.9769500000E+00  -0.9225578833E-17  -0.2250000000E-02   0.6750000000E-03  -0.1258935682E-19   0.4575000000E-01  -0.2372500000E-01  -0.9212989477E-17  -0.3250000005E+01  -0.7249218677E-14  -0.7436070611E-14  -0.4704648887E-15   0.1585963119E-14  -0.1056157523E-15   0.4350000006E-01  -0.2305000003E-01  -0.2305000003E-01   0.1015055685E-15  -0.5243195544E-16  -0.3426572366E-16   0.3250000005E+01
   0.0000000000E+00   0.9769500000E+00   0.1192171249E-16   0.0000000000E+00   0.6750000000E-03  -0.2470616561E-18   0.0000000000E+00  -0.2372500000E-01   0.1216877415E-16  -0.3250000005E+01   0.8251675453E-14   0.1091348816E-13   0.7826632590E-15   0.2156500979E-15   0.2283846096E-15   0.4350000006E-01  -0.2305000003E-01  -0.2305000003E-01   0.8058222511E-16  -0.3479994081E-16   0.3595814559E-16   0.3250000005E+01
   0.0000000000E+00   0.0000000000E+00   0.9769500000E+00   0.0000000000E+00   0.0000000000E+00   0.6750000000E-03   0.0000000000E+00   0.0000000000E+00  -0.2372500000E-01  -0.3250000005E+01   0.7762181953E-14   0.8453882996E-14   0.6212492290E-17   0.7279181262E-16   0.3939623710E-15   0.4350000006E-01  -0.2305000003E-01  -0.2305000003E-01  -0.5072341223E-17  -0.1535573194E-15  -0.8618617624E-16   0.3250000005E+01
   0.1043500000E+01   0.0000000000E+00   0.9769500000E+00  -0.2250000000E-02   0.0000000000E+00   0.6750000000E-03   0.4575000000E-01   0.0000000000E+00  -0.2372500000E-01  -0.3250000005E+01  -0.7441514931E-14  -0.5930366575E-14   0.9402263564E-15  -0.5830994038E-15   0.2434924823E-15   0.4350000006E-01  -0.2305000003E-01  -0.2305000003E-01   0.3180468196E-16   0.1521646702E-16   0.5667403282E-16   0.3250000005E+01
   0.1043500000E+01   0.9769500000E+00   0.9769500000E+00  -0.2250000000E-02   0.6750000000E-03   0.6750000000E-03   0.4575000000E-01  -0.2372500000E-01  -0.2372500000E-01  -0.3250000004E+01   0.7667544999E-14   0.7769137469E-14  -0.2813149970E-15  -0.3036070383E-15  -0.3455811878E-15   0.4350000006E-01  -0.2305000003E-01  -0.2305000003E-01   0.4487431785E-17  -0.5623138992E-16   0.1056590161E-16   0.3250000004E+01
   0.0000000000E+00   0.9769500000E+00   0.9769500000E+00   0.0000000000E+00   0.6750000000E-03   0.6750000000E-03   0.0000000000E+00  -0.2372500000E-01  -0.2372500000E-01  -0.3250000004E+01  -0.1001301487E-13  -0.1240218222E-13  -0.9272895079E-15   0.2982202374E-15   0.1087418357E-14   0.4350000006E-01  -0.2305000003E-01  -0.2305000003E-01  -0.9877476285E-17   0.5457835177E-16  -0.4407340238E-16   0.3250000004E+01
   0.2087000000E+01   0.0000000000E+00  -0.6770629786E-16  -0.4500000000E-02   0.0000000000E+00   0.1346791465E-18   0.9150000000E-01   0.0000000000E+00  -0.6784097701E-16  -0.3250000005E+01  -0.1106559066E-13  -0.1030005281E-13   0.4055347276E-15  -0.7141231544E-15   0.6849858493E-15   0.4350000007E-01  -0.2305000003E-01  -0.2305000003E-01  -0.6165755942E-16  -0.1792243494E-15   0.3603708806E-16   0.3250000005E+01
   0.2087000000E+01   0.9769500000E+00  -0.4973331535E-16  -0.4500000000E-02   0.6750000000E-03   0.1225268838E-18   0.9150000000E-01  -0.2372500000E-01  -0.4985584223E-16  -0.3250000005E+01   0.1051713443E-13   0.7608582146E-14   0.4171612659E-15   0.1960031208E-15   0.3079572030E-16   0.4350000006E-01  -0.2305000003E-01  -0.2305000003E-01  -0.1389772258E-15   0.1717054746E-16   0.3685762038E-16   0.3250000005E+01
   0.2087000000E+01   0.0000000000E+00   0.9769500000E+00  -0.4500000000E-02   0.0000000000E+00   0.6750000000E-03   0.9150000000E-01   0.0000000000E+00  -0.2372500000E-01  -0.3250000005E+01   0.1062203542E-13   0.9748926806E-14   0.3310209534E-15   0.4133027175E-15  -0.2384070375E-15   0.4350000006E-01  -0.2305000003E-01  -0.2305000003E-01   0.4105662628E-16  -0.5598739613E-16  -0.1743988160E-16   0.3250000005E+01
   0.2087000000E+01   0.9769500000E+00   0.9769500000E+00  -0.4500000000E-02   0.6750000000E-03   0.6750000000E-03   0.9150000000E-01  -0.2372500000E-01  -0.2372500000E-01  -0.3250000004E+01  -0.7750759066E-14  -0.6786021808E-14  -0.1248642304E-14   0.7590629424E-16  -0.9484571698E-15   0.4350000006E-01  -0.2305000003E-01  -0.2305000003E-01   0.6257850118E-16  -0.3639878547E-16  -0.3979718698E-17   0.3250000004E+01
     1     2     3     4     5     6     7     8
     2     9    10     3     6    11    12     7
 VARIABLES = X,Y,Z,DU1,DU2,DU3,U1,U2,U3,S11,S22,S33,S12,S13,S23,E11,E22,E33,E12,E13,E23,SMISES
 ZONE, T="0.5750D+01" F=FEPOINT, I=   12 J=    2 ET=BRICK
   0.0000000000E+00   0.0000000000E+00   0.0000000000E+00   0.0000000000E+00   0.0000000000E+00   0.0000000000E+00   0.0000000000E+00   0.0000000000E+00   0.0000000000E+00  -0.4375000007E+01  -0.5384437113E-14  -0.6368034072E-14   0.6514687679E-16  -0.2620987732E-15  -0.5903179402E-15   0.4125000006E-01  -0.2237500004E-01  -0.2237500004E-01   0.4654699682E-17  -0.1689125865E-16   0.2900843649E-16   0.4375000007E+01
   0.1041250000E+01   0.0000000000E+00  -0.1825477918E-16  -0.2250000000E-02   0.0000000000E+00   0.1180192003E-17   0.4350000000E-01   0.0000000000E+00  -0.1943497118E-16  -0.4375000007E+01   0.5960114867E-14   0.5839662790E-14  -0.1234628480E-14  -0.1294965125E-14  -0.1726116610E-15   0.4125000006E-01  -0.2237500003E-01  -0.2237500003E-01   0.8094435643E-16   0.2395499754E-16   0.1628185416E-16   0.4375000007E+01
   0.1041250000E+01   0.9776250000E+00  -0.8639664763E-17  -0.2250000000E-02   0.6750000000E-03   0.5859140706E-18   0.4350000000E-01  -0.2305000000E-01  -0.9225578833E-17  -0.4375000006E+01  -0.7669003832E-14  -0.7501011592E-14  -0.1034307369E-14   0.1984666345E-14  -0.1294684923E-15   0.4125000006E-01  -0.2237500003E-01  -0.2237500003E-01   0.9094342774E-16  -0.3327772243E-16  -0.2180028413E-16   0.4375000006E+01
   0.0000000000E+00   0.9776250000E+00   0.1190651326E-16   0.0000000000E+00   0.6750000000E-03  -0.1519923046E-19   0.0000000000E+00  -0.2305000000E-01   0.1192171249E-16  -0.4375000006E+01   0.8022923183E-14   0.1076999542E-13   0.6918283284E-15   0.2517422122E-15   0.3499404470E-15   0.4125000006E-01  -0.2237500003E-01  -0.2237500003E-01   0.8144087736E-16  -0.3643169551E-16   0.3265324696E-16   0.4375000006E+01
   0.0000000000E+00   0.0000000000E+00   0.9776250000E+00   0.0000000000E+00   0.0000000000E+00   0.6750000000E-03   0.0000000000E+00   0.0000000000E+00  -0.2305000000E-01  -0.4375000006E+01   0.7315370618E-14   0.7172945740E-14  -0.2451351832E-16   0.3137826113E-15   0.5155816932E-15   0.4125000006E-01  -0.2237500003E-01  -0.2237500003E-01  -0.4740293321E-17  -0.1229100602E-15  -0.7853828485E-16   0.4375000006E+01
   0.1041250000E+01   0.0000000000E+00   0.9776250000E+00  -0.2250000000E-02   0.0000000000E+00   0.6750000000E-03   0.4350000000E-01   0.0000000000E+00  -0.2305000000E-01  -0.4375000006E+01  -0.7669003832E-14  -0.5784151651E-14   0.1256887393E-14  -0.1031853710E-14   0.2518097752E-15   0.4125000006E-01  -0.2237500003E-01  -0.2237500003E-01   0.2759947595E-16  -0.1832630937E-16   0.5245022631E-16   0.4375000006E+01
   0.1041250000E+01   0.9776250000E+00   0.9776250000E+00  -0.2250000000E-02   0.6750000000E-03   0.6750000000E-03   0.4350000000E-01  -0.2305000000E-01  -0.2305000000E-01  -0.4375000006E+01   0.7343907950E-14   0.7486137429E-14   0.1096099824E-15   0.1472303773E-15  -0.2212533216E-15   0.4125000005E-01  -0.2237500003E-01  -0.2237500003E-01   0.2188391362E-16   0.1775861747E-17   0.8117214775E-17   0.4375000006E+01
   0.0000000000E+00   0.9776250000E+00   0.9776250000E+00   0.0000000000E+00   0.6750000000E-03   0.6750000000E-03   0.0000000000E+00  -0.2305000000E-01  -0.2305000000E-01  -0.4375000006E+01  -0.1003406279E-13  -0.1184780022E-13  -0.9889250713E-15   0.4264891079E-15   0.1341406005E-14   0.4125000006E-01  -0.2237500003E-01  -0.2237500003E-01  -0.7663217267E-17   0.1963664495E-16  -0.6026202378E-16   0.4375000006E+01
   0.2082500000E+01   0.0000000000E+00  -0.6291771906E-16  -0.4500000000E-02   0.0000000000E+00   0.4788578803E-17   0.8700000000E-01   0.0000000000E+00  -0.6770629786E-16  -0.4375000007E+01  -0.1107973538E-13  -0.1115775337E-13  -0.4234906289E-15  -0.9438367194E-15   0.3259331224E-15   0.4125000006E-01  -0.2237500003E-01  -0.2237500003E-01  -0.3520748649E-16  -0.5317670190E-16   0.4013272843E-16   0.4375000007E+01
   0.2082500000E+01   0.9776250000E+00  -0.4683187119E-16  -0.4500000000E-02   0.6750000000E-03   0.2901444156E-17   0.8700000000E-01  -0.2305000000E-01  -0.4973331535E-16  -0.4375000006E+01   0.1086779762E-13   0.8236801031E-14  -0.1087464433E-15   0.3260594008E-15  -0.1810118618E-15   0.4125000006E-01  -0.2237500003E-01  -0.2237500003E-01  -0.1097729557E-15  -0.4488341236E-19   0.2566082306E-16   0.4375000006E+01
   0.2082500000E+01   0.0000000000E+00   0.9776250000E+00  -0.4500000000E-02   0.0000000000E+00   0.6750000000E-03   0.8700000000E-01   0.0000000000E+00  -0.2305000000E-01  -0.4375000006E+01   0.1157535018E-13   0.9938500870E-14  -0.2394667348E-15   0.7627275935E-16  -0.3129883550E-15   0.4125000006E-01  -0.2237500003E-01  -0.2237500003E-01   0.3422438874E-16   0.9657672576E-16  -0.2901372723E-16   0.4375000006E+01
   0.2082500000E+01   0.9776250000E+00   0.9776250000E+00  -0.4500000000E-02   0.6750000000E-03   0.6750000000E-03   0.8700000000E-01  -0.2305000000E-01  -0.2305000000E-01  -0.4375000006E+01  -0.7659325831E-14  -0.7047973958E-14  -0.1271376313E-14   0.1732490829E-15  -0.8864520815E-15   0.4125000005E-01  -0.2237500003E-01  -0.2237500003E-01   0.7955689161E-16  -0.1956591038E-15   0.1480182040E-16   0.4375000006E+01
     1     2     3     4     5     6     7     8
     2     9    10     3     6    11    12     7
 VARIABLES = X,Y,Z,DU1,DU2,DU3,U1,U2,U3,S11,S22,S33,S12,S13,S23,E11,E22,E33,E12,E13,E23,SMISES
 ZONE, T="0.5800D+01" F=FEPOINT, I=   12 J=    2 ET=BRICK
   0.0000000000E+00   0.0000000000E+00   0.0000000000E+00   0.0000000000E+00   0.0000000000E+00   0.0000000000E+00   0.0000000000E+00   0.0000000000E+00   0.0000000000E+00  -0.5500000009E+01  -0.5749974452E-14  -0.6369297379E-14   0.1915474196E-16  -0.4606374977E-16  -0.6905446410E-15   0.3900000006E-01  -0.2170000003E-01  -0.2170000003E-01   0.6724627191E-17  -0.2412261095E-16   0.2435297555E-16   0.5500000009E+01
   0.1039000000E+01   0.0000000000E+00  -0.1617814426E-16  -0.2250000000E-02   0.0000000000E+00   0.2076634914E-17   0.4125000000E-01   0.0000000000E+00  -0.1825477918E-16  -0.5500000008E+01   0.5884285245E-14   0.6189062644E-14  -0.5589590053E-15  -0.9266378608E-15  -0.2085432910E-15   0.3900000006E-01  -0.2170000003E-01  -0.2170000003E-01   0.7492646499E-16   0.4702166440E-16   0.2063844613E-16   0.5500000008E+01
   0.1039000000E+01   0.9783000000E+00  -0.6864763159E-17  -0.2250000000E-02   0.6750000000E-03   0.1774901604E-17   0.4125000000E-01  -0.2237500000E-01  -0.8639664763E-17  -0.5500000008E+01  -0.7001411284E-14  -0.6985078288E-14  -0.5337224577E-15   0.1605667984E-14   0.4873246614E-16   0.3900000006E-01  -0.2170000003E-01  -0.2170000003E-01   0.7880390548E-16  -0.5237520650E-16  -0.1170411080E-16   0.5500000008E+01
   0.0000000000E+00   0.9783000000E+00   0.1154588863E-16   0.0000000000E+00   0.6750000000E-03  -0.3606246315E-18   0.0000000000E+00  -0.2237500000E-01   0.1190651326E-16  -0.5500000008E+01   0.8861764090E-14   0.1180657687E-13   0.5492656986E-15   0.4469831728E-15   0.4733025357E-15   0.3900000006E-01  -0.2170000003E-01  -0.2170000003E-01   0.8464366056E-16  -0.3523326694E-16   0.2661553860E-16   0.5500000008E+01
   0.0000000000E+00   0.0000000000E+00   0.9783000000E+00   0.0000000000E+00   0.0000000000E+00   0.6750000000E-03   0.0000000000E+00   0.0000000000E+00  -0.2237500000E-01  -0.5500000008E+01   0.7516367279E-14   0.7545920121E-14  -0.2703877827E-17   0.2610433212E-15   0.2139323794E-15   0.3900000006E-01  -0.2170000003E-01  -0.2170000003E-01  -0.7099699619E-17  -0.1434626082E-15  -0.8283849320E-16   0.5500000008E+01
   0.1039000000E+01   0.0000000000E+00   0.9783000000E+00  -0.2250000000E-02   0.0000000000E+00   0.6750000000E-03   0.4125000000E-01   0.0000000000E+00  -0.2237500000E-01  -0.5500000008E+01  -0.8033277858E-14  -0.6492381176E-14   0.1036296111E-14  -0.6437810377E-15   0.1660302680E-15   0.3900000006E-01  -0.2170000003E-01  -0.2170000003E-01   0.3133094837E-16  -0.7191125197E-18   0.4536999693E-16   0.5500000008E+01
   0.1039000000E+01   0.9783000000E+00   0.9783000000E+00  -0.2250000000E-02   0.6750000000E-03   0.6750000000E-03   0.4125000000E-01  -0.2237500000E-01  -0.2237500000E-01  -0.5500000007E+01   0.7268078327E-14   0.7399419123E-14  -0.2197133430E-15  -0.1994602856E-15  -0.3926509639E-18   0.3900000005E-01  -0.2170000003E-01  -0.2170000003E-01   0.8830204913E-17  -0.2942480145E-16  -0.3839181505E-17   0.5500000007E+01
   0.0000000000E+00   0.9783000000E+00   0.9783000000E+00   0.0000000000E+00   0.6750000000E-03   0.6750000000E-03   0.0000000000E+00  -0.2237500000E-01  -0.2237500000E-01  -0.5500000007E+01  -0.1039960013E-13  -0.1323975978E-13  -0.9295383264E-15   0.7567970930E-15   0.1144348978E-14   0.3900000005E-01  -0.2170000003E-01  -0.2170000003E-01  -0.1121269025E-16   0.3496993839E-16  -0.2824070322E-16   0.5500000007E+01
   0.2078000000E+01   0.0000000000E+00  -0.5440061029E-16  -0.4500000000E-02   0.0000000000E+00   0.8517108766E-17   0.8250000000E-01   0.0000000000E+00  -0.6291771906E-16  -0.5500000008E+01  -0.1067356107E-13  -0.9983852855E-14  -0.3381471590E-15  -0.1098528836E-14   0.2522149352E-15   0.3900000006E-01  -0.2170000003E-01  -0.2170000003E-01  -0.5102292662E-16  -0.1617072502E-15   0.3513430516E-16   0.5500000008E+01
   0.2078000000E+01   0.9783000000E+00  -0.3861816264E-16  -0.4500000000E-02   0.6750000000E-03   0.8213708555E-17   0.8250000000E-01  -0.2237500000E-01  -0.4683187119E-16  -0.5500000008E+01   0.1064648248E-13   0.8283611802E-14  -0.1169719297E-15   0.2388584223E-15  -0.4747568509E-16   0.3900000005E-01  -0.2170000003E-01  -0.2170000003E-01  -0.1188047568E-15   0.3778555399E-16   0.2125730880E-16   0.5500000008E+01
   0.2078000000E+01   0.0000000000E+00   0.9783000000E+00  -0.4500000000E-02   0.0000000000E+00   0.6750000000E-03   0.8250000000E-01   0.0000000000E+00  -0.2237500000E-01  -0.5500000008E+01   0.1059427986E-13   0.8866726763E-14   0.3928823476E-15  -0.3978716690E-15  -0.5065192614E-15   0.3900000005E-01  -0.2170000003E-01  -0.2170000003E-01   0.5225105746E-16   0.1237473356E-16  -0.2080643200E-16   0.5500000008E+01
   0.2078000000E+01   0.9783000000E+00   0.9783000000E+00  -0.4500000000E-02   0.6750000000E-03   0.6750000000E-03   0.8250000000E-01  -0.2237500000E-01  -0.2237500000E-01  -0.5500000007E+01  -0.7253151525E-14  -0.6687880938E-14  -0.9271118937E-15   0.4713316419E-15  -0.9817333246E-15   0.3900000005E-01  -0.2170000003E-01  -0.2170000003E-01   0.6990561578E-16  -0.1238925877E-15   0.2801713035E-17   0.5500000007E+01
     1     2     3     4     5     6     7     8
     2     9    10     3     6    11    12     7
 VARIABLES = X,Y,Z,DU1,DU2,DU3,U1,U2,U3,S11,S22,S33,S12,S13,S23,E11,E22,E33,E12,E13,E23,SMISES
 ZONE, T="0.5850D+01" F=FEPOINT, I=   12 J=    2 ET=BRICK
   0.0000000000E+00   0.0000000000E+00   0.0000000000E+00   0.0000000000E+00   0.0000000000E+00   0.0000000000E+00   0.0000000000E+00   0.0000000000E+00   0.0000000000E+00  -0.6625000010E+01  -0.5882044654E-14  -0.7487882208E-14   0.4292320895E-16  -0.5431987196E-15  -0.5316630411E-15   0.3675000006E-01  -0.2102500003E-01  -0.2102500003E-01   0.3399677757E-17  -0.2982236405E-16   0.2704064453E-16   0.6625000010E+01
   0.1036750000E+01   0.0000000000E+00  -0.2092759199E-16  -0.2250000000E-02   0.0000000000E+00  -0.4749447724E-17   0.3900000000E-01   0.0000000000E+00  -0.1617814426E-16  -0.6625000010E+01   0.5308855314E-14   0.5330632596E-14  -0.5988580688E-15  -0.6689331919E-15  -0.3660874656E-16   0.3675000006E-01  -0.2102500003E-01  -0.2102500003E-01   0.9031095367E-16   0.1476223684E-16   0.1459737938E-16   0.6625000010E+01
   0.1036750000E+01   0.9789750000E+00  -0.1078651862E-16  -0.2250000000E-02   0.6750000000E-03  -0.3921755459E-17   0.3900000000E-01  -0.2170000000E-01  -0.6864763159E-17  -0.6625000009E+01  -0.6462632841E-14  -0.7735403603E-14  -0.5079705603E-15   0.1466900995E-14  -0.4943106101E-15   0.3675000005E-01  -0.2102500003E-01  -0.2102500003E-01   0.9741468739E-16  -0.2966551556E-16  -0.2525222624E-16   0.6625000009E+01
   0.0000000000E+00   0.9789750000E+00   0.1248162086E-16   0.0000000000E+00   0.6750000000E-03   0.9357322273E-18   0.0000000000E+00  -0.2170000000E-01   0.1154588863E-16  -0.6625000010E+01   0.7884145319E-14   0.1125545087E-13   0.7855120574E-15  -0.1111566082E-15   0.1135207402E-15   0.3675000005E-01  -0.2102500003E-01  -0.2102500003E-01   0.8289701677E-16  -0.4279053937E-16   0.3198037816E-16   0.6625000010E+01
   0.0000000000E+00   0.0000000000E+00   0.9789750000E+00   0.0000000000E+00   0.0000000000E+00   0.6750000000E-03   0.0000000000E+00   0.0000000000E+00  -0.2170000000E-01  -0.6625000010E+01   0.8105408015E-14   0.8568356810E-14  -0.3029403867E-16   0.7698769714E-16   0.6094018199E-15   0.3675000005E-01  -0.2102500003E-01  -0.2102500003E-01  -0.1337151111E-17  -0.1557604807E-15  -0.7014075096E-16   0.6625000010E+01
   0.1036750000E+01   0.0000000000E+00   0.9789750000E+00  -0.2250000000E-02   0.0000000000E+00   0.6750000000E-03   0.3900000000E-01   0.0000000000E+00  -0.2170000000E-01  -0.6625000009E+01  -0.7654129669E-14  -0.5774721756E-14   0.6655583376E-15  -0.4966799806E-15   0.3320100303E-15   0.3675000005E-01  -0.2102500003E-01  -0.2102500003E-01   0.1517528439E-16   0.2908898795E-16   0.7339434144E-16   0.6625000009E+01
   0.1036750000E+01   0.9789750000E+00   0.9789750000E+00  -0.2250000000E-02   0.6750000000E-03   0.6750000000E-03   0.3900000000E-01  -0.2170000000E-01  -0.2170000000E-01  -0.6625000009E+01   0.6884944651E-14   0.7957448158E-14  -0.4779600623E-15  -0.2826627620E-15  -0.5411387081E-15   0.3675000005E-01  -0.2102500003E-01  -0.2102500003E-01   0.1791946358E-16  -0.7691367577E-16   0.5985749102E-17   0.6625000009E+01
   0.0000000000E+00   0.9789750000E+00   0.9789750000E+00   0.0000000000E+00   0.6750000000E-03   0.6750000000E-03   0.0000000000E+00  -0.2170000000E-01  -0.2170000000E-01  -0.6625000009E+01  -0.1050590751E-13  -0.1288093004E-13  -0.9695573838E-15   0.1424814411E-15   0.9418903234E-15   0.3675000005E-01  -0.2102500003E-01  -0.2102500003E-01  -0.7821843315E-17   0.4388268687E-16  -0.5440253839E-16   0.6625000009E+01
   0.2073500000E+01   0.0000000000E+00  -0.7391990738E-16  -0.4500000000E-02   0.0000000000E+00  -0.1951929709E-16   0.7800000000E-01   0.0000000000E+00  -0.5440061029E-16  -0.6625000010E+01  -0.1188464694E-13  -0.1197972729E-13   0.7836548781E-15  -0.1734249271E-15   0.9161575266E-15   0.3675000006E-01  -0.2102500003E-01  -0.2102500003E-01  -0.5115614807E-16  -0.9342501876E-16   0.4942375032E-16   0.6625000010E+01
   0.2073500000E+01   0.9789750000E+00  -0.5467049386E-16  -0.4500000000E-02   0.6750000000E-03  -0.1605233122E-16   0.7800000000E-01  -0.2170000000E-01  -0.3861816264E-16  -0.6625000009E+01   0.1142091632E-13   0.8731686343E-14   0.8883476147E-15  -0.3933983248E-15   0.3067936902E-15   0.3675000005E-01  -0.2102500003E-01  -0.2102500003E-01  -0.1284954864E-15  -0.5246707420E-16   0.4460932488E-16   0.6625000009E+01
   0.2073500000E+01   0.0000000000E+00   0.9789750000E+00  -0.4500000000E-02   0.0000000000E+00   0.6750000000E-03   0.7800000000E-01   0.0000000000E+00  -0.2170000000E-01  -0.6625000009E+01   0.1281346226E-13   0.1134334180E-13  -0.1134506969E-14   0.9364731769E-15  -0.2116197345E-16   0.3675000005E-01  -0.2102500003E-01  -0.2102500003E-01   0.3951503110E-16  -0.1681922730E-16  -0.2353895821E-16   0.6625000009E+01
   0.2073500000E+01   0.9789750000E+00   0.9789750000E+00  -0.4500000000E-02   0.6750000000E-03   0.6750000000E-03   0.7800000000E-01  -0.2170000000E-01  -0.2170000000E-01  -0.6625000008E+01  -0.8105407705E-14  -0.7994385496E-14  -0.2039075961E-14  -0.4347997299E-15  -0.8253756386E-15   0.3675000005E-01  -0.2102500003E-01  -0.2102500003E-01   0.6894500600E-16   0.7491831689E-16  -0.2370455672E-17   0.6625000008E+01
     1     2     3     4     5     6     7     8
     2     9    10     3     6    11    12     7
 VARIABLES = X,Y,Z,DU1,DU2,DU3,U1,U2,U3,S11,S22,S33,S12,S13,S23,E11,E22,E33,E12,E13,E23,SMISES
 ZONE, T="0.5900D+01" F=FEPOINT, I=   12 J=    2 ET=BRICK
   0.0000000000E+00   0.0000000000E+00   0.0000000000E+00   0.0000000000E+00   0.0000000000E+00   0.0000000000E+00   0.0000000000E+00   0.0000000000E+00   0.0000000000E+00  -0.7750000012E+01  -0.1022504309E-13  -0.1221945864E-13   0.1315244674E-15  -0.3356828730E-15   0.2911899694E-15   0.2950000005E-01  -0.1785000003E-01  -0.1785000003E-01   0.4166782102E-17  -0.1268273105E-16   0.3206205004E-16   0.7750000012E+01
   0.1029500000E+01   0.0000000000E+00  -0.1955468557E-16  -0.7250000000E-02   0.0000000000E+00   0.1372906418E-17   0.3675000000E-01   0.0000000000E+00  -0.2092759199E-16  -0.7750000012E+01   0.7738321078E-14   0.8781076309E-14  -0.3798003678E-15   0.1530597338E-15  -0.3413374383E-15   0.2950000005E-01  -0.1785000003E-01  -0.1785000003E-01   0.9501765902E-16   0.1695526723E-17   0.1440764552E-16   0.7750000012E+01
   0.1029500000E+01   0.9821500000E+00  -0.1143668211E-16  -0.7250000000E-02   0.3175000000E-02  -0.6501634917E-18   0.3675000000E-01  -0.2102500000E-01  -0.1078651862E-16  -0.7750000011E+01  -0.8840572879E-14  -0.9092365692E-14  -0.1292703321E-14   0.2102469215E-14  -0.1090604107E-15   0.2950000004E-01  -0.1785000003E-01  -0.1785000003E-01   0.7830783644E-16  -0.1734433050E-16  -0.2511759979E-16   0.7750000011E+01
   0.0000000000E+00   0.9821500000E+00   0.1646762460E-16   0.0000000000E+00   0.3175000000E-02   0.3986003749E-17   0.0000000000E+00  -0.2102500000E-01   0.1248162086E-16  -0.7750000011E+01   0.8740048365E-14   0.1090206528E-13  -0.7963140965E-15  -0.1139724859E-14  -0.2635550753E-15   0.2950000004E-01  -0.1785000003E-01  -0.1785000003E-01   0.6734281997E-16  -0.6019734344E-16   0.4931183486E-16   0.7750000011E+01
   0.0000000000E+00   0.0000000000E+00   0.9821500000E+00   0.0000000000E+00   0.0000000000E+00   0.3175000000E-02   0.0000000000E+00   0.0000000000E+00  -0.2102500000E-01  -0.7750000011E+01   0.9795828041E-14   0.1125399195E-13  -0.6987775421E-16   0.3027793183E-16   0.7038076735E-15   0.2950000004E-01  -0.1785000003E-01  -0.1785000003E-01   0.7801021541E-18  -0.1674722726E-15  -0.6839467870E-16   0.7750000011E+01
   0.1029500000E+01   0.0000000000E+00   0.9821500000E+00  -0.7250000000E-02   0.0000000000E+00   0.3175000000E-02   0.3675000000E-01   0.0000000000E+00  -0.2102500000E-01  -0.7750000011E+01  -0.7930617257E-14  -0.5799416413E-14   0.1762978146E-14  -0.4435678590E-15   0.5992763027E-16   0.2950000004E-01  -0.1785000003E-01  -0.1785000003E-01   0.2407153407E-16   0.2686908091E-16   0.6592106885E-16   0.7750000011E+01
   0.1029500000E+01   0.9821500000E+00   0.9821500000E+00  -0.7250000000E-02   0.3175000000E-02   0.3175000000E-02   0.3675000000E-01  -0.2102500000E-01  -0.2102500000E-01  -0.7750000010E+01   0.8301403491E-14   0.8959566213E-14   0.7915904169E-15   0.4596678541E-15  -0.3576918287E-15   0.2950000004E-01  -0.1785000002E-01  -0.1785000002E-01   0.4328944681E-16  -0.6143236037E-16   0.6602471886E-17   0.7750000010E+01
   0.0000000000E+00   0.9821500000E+00   0.9821500000E+00   0.0000000000E+00   0.3175000000E-02   0.3175000000E-02   0.0000000000E+00  -0.2102500000E-01  -0.2102500000E-01  -0.7750000010E+01  -0.8329693073E-14  -0.1061945614E-13  -0.8673761608E-15  -0.7138583821E-15   0.3843838007E-15   0.2950000004E-01  -0.1785000002E-01  -0.1785000002E-01  -0.1888076114E-16   0.2774301381E-16  -0.6671081092E-16   0.7750000010E+01
   0.2059000000E+01   0.0000000000E+00  -0.6749019129E-16  -0.1450000000E-01   0.0000000000E+00   0.6429716093E-17   0.7350000000E-01   0.0000000000E+00  -0.7391990738E-16  -0.7750000012E+01  -0.9708432323E-14  -0.9474431229E-14   0.6467764030E-15  -0.7071567883E-15   0.1282020338E-15   0.2950000004E-01  -0.1785000003E-01  -0.1785000003E-01  -0.4086643671E-16  -0.8770945798E-16   0.3902977107E-16   0.7750000012E+01
   0.2059000000E+01   0.9821500000E+00  -0.5282666003E-16  -0.1450000000E-01   0.3175000000E-02   0.1843833827E-17   0.7350000000E-01  -0.2102500000E-01  -0.5467049386E-16  -0.7750000011E+01   0.1578092461E-13   0.1557375415E-13  -0.5271487050E-16  -0.7091706388E-15   0.7375957182E-15   0.2950000004E-01  -0.1785000002E-01  -0.1785000002E-01  -0.1498072173E-15  -0.8817272370E-16   0.4333011243E-16   0.7750000011E+01
   0.2059000000E+01   0.0000000000E+00   0.9821500000E+00  -0.1450000000E-01   0.0000000000E+00   0.3175000000E-02   0.7350000000E-01   0.0000000000E+00  -0.2102500000E-01  -0.7750000011E+01   0.1521278874E-13   0.1248185402E-13  -0.1666404212E-14  -0.3655147438E-15  -0.1583785974E-15   0.2950000004E-01  -0.1785000002E-01  -0.1785000002E-01   0.3011062738E-16  -0.8697681264E-16  -0.3288665909E-16   0.7750000011E+01
   0.2059000000E+01   0.9821500000E+00   0.9821500000E+00  -0.1450000000E-01   0.3175000000E-02   0.3175000000E-02   0.7350000000E-01  -0.2102500000E-01  -0.2102500000E-01  -0.7750000010E+01  -0.1580668724E-13  -0.1604652364E-13  -0.2330671012E-14  -0.2311711038E-14   0.2293237504E-15   0.2950000004E-01  -0.1785000002E-01  -0.1785000002E-01   0.8656620775E-16  -0.1321023953E-16   0.2851786624E-16   0.7750000010E+01
     1     2     3     4     5     6     7     8
     2     9    10     3     6    11    12     7
 VARIABLES = X,Y,Z,DU1,DU2,DU3,U1,U2,U3,S11,S22,S33,S12,S13,S23,E11,E22,E33,E12,E13,E23,SMISES
 ZONE, T="0.5950D+01" F=FEPOINT, I=   12 J=    2 ET=BRICK
   0.0000000000E+00   0.0000000000E+00   0.0000000000E+00   0.0000000000E+00   0.0000000000E+00   0.0000000000E+00   0.0000000000E+00   0.0000000000E+00   0.0000000000E+00  -0.8875000014E+01  -0.1088573219E-13  -0.1105479232E-13   0.1842847069E-15   0.7514131761E-15  -0.6044778082E-15   0.4750000007E-02  -0.5925000009E-02  -0.5925000009E-02  -0.5613615964E-18   0.1286698772E-16   0.1903244406E-16   0.8875000014E+01
   0.1004750000E+01   0.0000000000E+00   0.2069084554E-17  -0.2475000000E-01   0.0000000000E+00   0.2162377012E-16   0.2950000000E-01   0.0000000000E+00  -0.1955468557E-16  -0.8875000014E+01   0.1112343305E-13   0.1253989210E-13   0.3221246913E-16   0.1555653384E-16  -0.9476513316E-15   0.4750000007E-02  -0.5925000009E-02  -0.5925000009E-02   0.1206679366E-15   0.1393629100E-16  -0.1028537866E-16   0.8875000014E+01
   0.1004750000E+01   0.9940750000E+00   0.6102312182E-18  -0.2475000000E-01   0.1192500000E-01   0.1204691333E-16   0.2950000000E-01  -0.1785000000E-01  -0.1143668211E-16  -0.8875000013E+01  -0.7196233757E-14  -0.6394382730E-14  -0.6771704657E-15   0.5718190146E-15   0.8396937209E-15   0.4750000007E-02  -0.5925000008E-02  -0.5925000008E-02   0.8363762904E-16  -0.3379628535E-16   0.1311064681E-16   0.8875000013E+01
   0.0000000000E+00   0.9940750000E+00   0.6383775826E-17   0.0000000000E+00   0.1192500000E-01  -0.1008384878E-16   0.0000000000E+00  -0.1785000000E-01   0.1646762460E-16  -0.8875000013E+01   0.1753774491E-13   0.1900825621E-13  -0.7554926353E-15   0.1139649407E-14   0.6519248539E-15   0.4750000007E-02  -0.5925000009E-02  -0.5925000009E-02   0.4912971882E-16  -0.1562528463E-16   0.3060140527E-16   0.8875000013E+01
   0.0000000000E+00   0.0000000000E+00   0.9940750000E+00   0.0000000000E+00   0.0000000000E+00   0.1192500000E-01   0.0000000000E+00   0.0000000000E+00  -0.1785000000E-01  -0.8875000013E+01   0.7139941104E-14   0.5477133362E-14  -0.1417587458E-15   0.3104080885E-15  -0.9548550081E-16   0.4750000007E-02  -0.5925000009E-02  -0.5925000009E-02   0.3064499422E-17  -0.1465042986E-15  -0.8537813701E-16   0.8875000013E+01
   0.1004750000E+01   0.0000000000E+00   0.9940750000E+00  -0.2475000000E-01   0.0000000000E+00   0.1192500000E-01   0.2950000000E-01   0.0000000000E+00  -0.1785000000E-01  -0.8875000013E+01  -0.9249860304E-14  -0.1043630382E-13   0.1824301474E-14  -0.1534338087E-15  -0.3729778810E-15   0.4750000007E-02  -0.5925000008E-02  -0.5925000008E-02   0.3737889158E-16   0.2382322073E-16   0.4878326666E-16   0.8875000013E+01
   0.1004750000E+01   0.9940750000E+00   0.9940750000E+00  -0.2475000000E-01   0.1192500000E-01   0.1192500000E-01   0.2950000000E-01  -0.1785000000E-01  -0.1785000000E-01  -0.8875000012E+01   0.8815877994E-14   0.7258648273E-14   0.6446519670E-15  -0.3330663289E-15   0.1289594221E-14   0.4750000006E-02  -0.5925000008E-02  -0.5925000008E-02   0.5246285058E-16  -0.6504341158E-16   0.4527149441E-16   0.8875000012E+01
   0.0000000000E+00   0.9940750000E+00   0.9940750000E+00   0.0000000000E+00   0.1192500000E-01   0.1192500000E-01   0.0000000000E+00  -0.1785000000E-01  -0.1785000000E-01  -0.8875000012E+01  -0.8042707271E-14  -0.1018625561E-13  -0.2869424891E-15   0.8598866581E-15   0.3260599721E-15   0.4750000006E-02  -0.5925000008E-02  -0.5925000008E-02  -0.1189941124E-16   0.5305538969E-16  -0.3967642525E-16   0.8875000012E+01
   0.2009500000E+01   0.0000000000E+00   0.9723045455E-17  -0.4950000000E-01   0.0000000000E+00   0.7721323674E-16   0.5900000000E-01   0.0000000000E+00  -0.6749019129E-16  -0.8875000013E+01  -0.7634201617E-14  -0.6349083247E-14  -0.1885302839E-14  -0.1343220285E-14  -0.2027450175E-14   0.4750000007E-02  -0.5925000009E-02  -0.5925000009E-02  -0.9991464676E-16  -0.1394050798E-15  -0.1221525102E-16   0.8875000013E+01
   0.2009500000E+01   0.9940750000E+00  -0.1702872852E-17  -0.4950000000E-01   0.1192500000E-01   0.5112378718E-16   0.5900000000E-01  -0.1785000000E-01  -0.5282666003E-16  -0.8875000012E+01   0.1472873963E-13   0.1896178389E-13  -0.3346304108E-14  -0.5473952875E-15   0.3215720054E-16   0.4750000007E-02  -0.5925000008E-02  -0.5925000008E-02  -0.2168079378E-15   0.1839009084E-16   0.3619592759E-16   0.8875000012E+01
   0.2009500000E+01   0.0000000000E+00   0.9940750000E+00  -0.4950000000E-01   0.0000000000E+00   0.1192500000E-01   0.5900000000E-01   0.0000000000E+00  -0.1785000000E-01  -0.8875000012E+01   0.7696616020E-14   0.4425053077E-14   0.4471355749E-15  -0.3780717156E-14  -0.3993897768E-15   0.4750000007E-02  -0.5925000008E-02  -0.5925000008E-02   0.7501083435E-16  -0.1101920983E-15  -0.3712071289E-16   0.8875000012E+01
   0.2009500000E+01   0.9940750000E+00   0.9940750000E+00  -0.4950000000E-01   0.1192500000E-01   0.1192500000E-01   0.5900000000E-01  -0.1785000000E-01  -0.1785000000E-01  -0.8875000011E+01  -0.1509233665E-13  -0.1511557274E-13  -0.9892839379E-15  -0.3241818245E-15   0.9831259546E-15   0.4750000006E-02  -0.5925000008E-02  -0.5925000008E-02   0.8531184666E-16   0.6572831537E-17   0.5178998924E-16   0.8875000011E+01
     1     2     3     4     5     6     7     8
     2     9    10     3     6    11    12     7
 VARIABLES = X,Y,Z,DU1,DU2,DU3,U1,U2,U3,S11,S22,S33,S12,S13,S23,E11,E22,E33,E12,E13,E23,SMISES
 ZONE, T="0.6000D+01" F=FEPOINT, I=   12 J=    2 ET=BRICK
   0.0000000000E+00   0.0000000000E+00   0.0000000000E+00   0.0000000000E+00   0.0000000000E+00   0.0000000000E+00   0.0000000000E+00   0.0000000000E+00   0.0000000000E+00  -0.1000000002E+02  -0.1536113962E-13  -0.1798834619E-13   0.7591207693E-16  -0.9895685822E-15   0.1520615407E-14  -0.2000000003E-01   0.6000000009E-02   0.6000000009E-02  -0.1280797248E-17  -0.3183059492E-16   0.5806277016E-16   0.1000000002E+02
   0.9800000000E+00   0.0000000000E+00  -0.2790798477E-16  -0.2475000000E-01   0.0000000000E+00  -0.2997706932E-16   0.4750000000E-02   0.0000000000E+00   0.2069084554E-17  -0.1000000002E+02   0.4783492010E-14   0.3115240012E-14   0.3426379506E-15   0.1543056605E-14   0.8012266994E-15  -0.2000000003E-01   0.6000000009E-02   0.6000000009E-02   0.1190339279E-15   0.7701474342E-16   0.2293812470E-16   0.1000000002E+02
   0.9800000000E+00   0.1006000000E+01  -0.1739521544E-16  -0.2475000000E-01   0.1192500000E-01  -0.1800544665E-16   0.4750000000E-02  -0.5925000000E-02   0.6102312182E-18  -0.1000000001E+02  -0.8423314446E-14  -0.1091227707E-13  -0.7087830507E-15   0.6028123365E-16  -0.1290649612E-14  -0.2000000003E-01   0.6000000009E-02   0.6000000009E-02   0.8305482471E-16  -0.5360868844E-16  -0.3387655684E-16   0.1000000001E+02
   0.0000000000E+00   0.1006000000E+01   0.2786767639E-16   0.0000000000E+00   0.1192500000E-01   0.2148390056E-16   0.0000000000E+00  -0.5925000000E-02   0.6383775826E-17  -0.1000000001E+02   0.9245378945E-14   0.5874750162E-14  -0.5192924560E-15  -0.2220612064E-14  -0.1248596882E-14  -0.2000000003E-01   0.6000000009E-02   0.6000000009E-02   0.4144759174E-16  -0.6897441664E-16   0.1168687305E-16   0.1000000001E+02
   0.0000000000E+00   0.0000000000E+00   0.1006000000E+01   0.0000000000E+00   0.0000000000E+00   0.1192500000E-01   0.0000000000E+00   0.0000000000E+00  -0.5925000000E-02  -0.1000000001E+02   0.1785223806E-13   0.2152618535E-13  -0.7762621319E-16  -0.1529858363E-14   0.1310340781E-14  -0.2000000003E-01   0.6000000009E-02   0.6000000009E-02   0.6148293540E-18  -0.1758019470E-15  -0.5837211276E-16   0.1000000001E+02
   0.9800000000E+00   0.0000000000E+00   0.1006000000E+01  -0.2475000000E-01   0.0000000000E+00   0.1192500000E-01   0.4750000000E-02   0.0000000000E+00  -0.5925000000E-02  -0.1000000001E+02  -0.8282543843E-14  -0.6400218265E-14  -0.5978965601E-15   0.1877413902E-14   0.8819633835E-15  -0.2000000003E-01   0.6000000009E-02   0.6000000009E-02   0.1407719366E-16   0.5798627712E-16   0.6636374188E-16   0.1000000001E+02
   0.9800000000E+00   0.1006000000E+01   0.1006000000E+01  -0.2475000000E-01   0.1192500000E-01   0.1192500000E-01   0.4750000000E-02  -0.5925000000E-02  -0.5925000000E-02  -0.1000000001E+02   0.1258850009E-13   0.1456007058E-13   0.4706362991E-15   0.1157729881E-15  -0.1273104798E-15  -0.2000000003E-01   0.6000000008E-02   0.6000000008E-02   0.4683621993E-16  -0.4135252718E-16   0.3051043489E-16   0.1000000001E+02
   0.0000000000E+00   0.1006000000E+01   0.1006000000E+01   0.0000000000E+00   0.1192500000E-01   0.1192500000E-01   0.0000000000E+00  -0.5925000000E-02  -0.5925000000E-02  -0.1000000001E+02  -0.1009875531E-13  -0.7623207984E-14   0.6224265191E-15  -0.9766032412E-15  -0.2409560129E-14  -0.2000000003E-01   0.6000000008E-02   0.6000000008E-02   0.1414845088E-16   0.1213565314E-16  -0.9365099112E-16   0.1000000001E+02
   0.1960000000E+01   0.0000000000E+00  -0.1030114858E-15  -0.4950000000E-01   0.0000000000E+00  -0.1127345312E-15   0.9500000000E-02   0.0000000000E+00   0.9723045455E-17  -0.1000000002E+02  -0.7151325608E-14  -0.5580680595E-14  -0.3861167539E-15  -0.7262511337E-15   0.3496747585E-15  -0.2000000003E-01   0.6000000009E-02   0.6000000009E-02  -0.8203992900E-16  -0.1699038122E-15   0.7333738735E-17   0.1000000002E+02
   0.1960000000E+01   0.1006000000E+01  -0.9897726695E-16  -0.4950000000E-01   0.1192500000E-01  -0.9727439410E-16   0.9500000000E-02  -0.5925000000E-02  -0.1702872852E-17  -0.1000000001E+02   0.1264877857E-13   0.1247680075E-13  -0.9846389751E-15   0.1810644917E-14   0.8408014039E-15  -0.2000000003E-01   0.6000000008E-02   0.6000000008E-02  -0.1746042243E-15   0.4185151240E-16   0.6006556669E-16   0.1000000001E+02
   0.1960000000E+01   0.0000000000E+00   0.1006000000E+01  -0.4950000000E-01   0.0000000000E+00   0.1192500000E-01   0.9500000000E-02   0.0000000000E+00  -0.5925000000E-02  -0.1000000001E+02   0.2991193228E-14   0.3184948307E-14   0.2734426553E-15  -0.1680674912E-15   0.3833065671E-16  -0.2000000003E-01   0.6000000008E-02   0.6000000008E-02   0.8605993978E-16  -0.4446459860E-16  -0.1492913119E-16   0.1000000001E+02
   0.1960000000E+01   0.1006000000E+01   0.1006000000E+01  -0.4950000000E-01   0.1192500000E-01   0.1192500000E-01   0.9500000000E-02  -0.5925000000E-02  -0.5925000000E-02  -0.1000000001E+02  -0.8794100629E-14  -0.1037563427E-13   0.1139386729E-14  -0.1674675524E-14  -0.3181498066E-15  -0.2000000003E-01   0.6000000008E-02   0.6000000008E-02   0.1139705072E-15  -0.8761376794E-16   0.3031941343E-16   0.1000000001E+02
     1     2     3     4     5     6     7     8
     2     9    10     3     6    11    12     7
 VARIABLES = X,Y,Z,DU1,DU2,DU3,U1,U2,U3,S11,S22,S33,S12,S13,S23,E11,E22,E33,E12,E13,E23,SMISES
 ZONE, T="0.6050D+01" F=FEPOINT, I=   12 J=    2 ET=BRICK
   0.0000000000E+00   0.0000000000E+00   0.0000000000E+00   0.0000000000E+00   0.0000000000E+00   0.0000000000E+00   0.0000000000E+00   0.0000000000E+00   0.0000000000E+00  -0.8875000014E+01  -0.1313845334E-13  -0.1267948976E-13   0.1130509851E-15   0.5449169259E-15  -0.2270380624E-14  -0.1775000003E-01   0.5325000008E-02   0.5325000008E-02  -0.3372146694E-19  -0.1483504704E-16   0.1642657960E-16   0.8875000014E+01
   0.9822500000E+00   0.0000000000E+00  -0.7334127799E-17   0.2250000000E-02   0.0000000000E+00   0.2057385697E-16  -0.2000000000E-01   0.0000000000E+00  -0.2790798477E-16  -0.8875000014E+01   0.6622262720E-14   0.1158638171E-13  -0.3080567300E-14  -0.2970596354E-14   0.1495273705E-15  -0.1775000003E-01   0.5325000008E-02   0.5325000008E-02   0.7534123158E-16   0.2224723991E-16   0.1373120881E-16   0.8875000014E+01
   0.9822500000E+00   0.1005325000E+01  -0.1299719378E-18   0.2250000000E-02  -0.6750000000E-03   0.1726524350E-16  -0.2000000000E-01   0.6000000000E-02  -0.1739521544E-16  -0.8875000013E+01  -0.1574573216E-13  -0.1421533305E-13  -0.2076297139E-14  -0.1109383567E-14   0.1757922163E-14  -0.1775000003E-01   0.5325000008E-02   0.5325000008E-02   0.6483524175E-16  -0.5605363242E-16   0.7154135046E-17   0.8875000013E+01
   0.0000000000E+00   0.1005325000E+01   0.8159517690E-17   0.0000000000E+00  -0.6750000000E-03  -0.1970815870E-16   0.0000000000E+00   0.6000000000E-02   0.2786767639E-16  -0.8875000013E+01   0.1034510376E-13   0.1443008351E-13  -0.5158900199E-15   0.3381946892E-14  -0.1020586708E-14  -0.1775000003E-01   0.5325000008E-02   0.5325000008E-02   0.4600097906E-16  -0.1230090826E-16   0.1333143658E-16   0.8875000013E+01
   0.0000000000E+00   0.0000000000E+00   0.1005325000E+01   0.0000000000E+00   0.0000000000E+00  -0.6750000000E-03   0.0000000000E+00   0.0000000000E+00   0.6000000000E-02  -0.8875000013E+01   0.1203805089E-13   0.9734481608E-14  -0.1021482727E-15   0.3601828202E-14  -0.2983891732E-17  -0.1775000003E-01   0.5325000008E-02   0.5325000008E-02   0.1382336355E-17  -0.1216728028E-15  -0.6399689996E-16   0.8875000013E+01
   0.9822500000E+00   0.0000000000E+00   0.1005325000E+01   0.2250000000E-02   0.0000000000E+00  -0.6750000000E-03  -0.2000000000E-01   0.0000000000E+00   0.6000000000E-02  -0.8875000013E+01  -0.9544426114E-14  -0.8463951513E-14  -0.1880366855E-14  -0.1775650317E-14  -0.1129009602E-14  -0.1775000003E-01   0.5325000008E-02   0.5325000008E-02   0.7066500012E-17   0.1646745333E-16   0.4938834235E-16   0.8875000013E+01
   0.9822500000E+00   0.1005325000E+01   0.1005325000E+01   0.2250000000E-02  -0.6750000000E-03  -0.6750000000E-03  -0.2000000000E-01   0.6000000000E-02   0.6000000000E-02  -0.8875000012E+01   0.1173512324E-13   0.1071414539E-13  -0.5086215961E-15  -0.1624916036E-14   0.1539184316E-14  -0.1775000002E-01   0.5325000007E-02   0.5325000007E-02   0.3790326983E-16  -0.6163817711E-16   0.3166143890E-16   0.8875000012E+01
   0.0000000000E+00   0.1005325000E+01   0.1005325000E+01   0.0000000000E+00  -0.6750000000E-03  -0.6750000000E-03   0.0000000000E+00   0.6000000000E-02   0.6000000000E-02  -0.8875000012E+01  -0.1582554730E-13  -0.1359314484E-13   0.9639169113E-15   0.3209781324E-14   0.2421110822E-15  -0.1775000002E-01   0.5325000007E-02   0.5325000007E-02   0.1506525968E-16   0.6031406045E-16  -0.6873238836E-16   0.8875000012E+01
   0.1964500000E+01   0.0000000000E+00  -0.1007876871E-16   0.4500000000E-02   0.0000000000E+00   0.9293271707E-16  -0.4000000000E-01   0.0000000000E+00  -0.1030114858E-15  -0.8875000013E+01  -0.3004322815E-14  -0.3197687041E-14  -0.8441804197E-14  -0.4412130190E-14  -0.1192631573E-14  -0.1775000003E-01   0.5325000008E-02   0.5325000008E-02  -0.1611103174E-15  -0.1709000413E-15  -0.7901332011E-17   0.8875000013E+01
   0.1964500000E+01   0.1005325000E+01  -0.1414402431E-16   0.4500000000E-02  -0.6750000000E-03   0.8483324264E-16  -0.4000000000E-01   0.6000000000E-02  -0.9897726695E-16  -0.8875000012E+01   0.9409881633E-14   0.6716666069E-14  -0.5032903306E-14   0.6808523861E-14  -0.6824529176E-16  -0.1775000002E-01   0.5325000007E-02   0.5325000007E-02  -0.2214999731E-15   0.6466614832E-16   0.5491938821E-16   0.8875000012E+01
   0.1964500000E+01   0.0000000000E+00   0.1005325000E+01   0.4500000000E-02   0.0000000000E+00  -0.6750000000E-03  -0.4000000000E-01   0.0000000000E+00   0.6000000000E-02  -0.8875000012E+01   0.1467802553E-14  -0.2398050160E-14   0.2883452216E-14  -0.5985631407E-14  -0.1296103040E-14  -0.1775000002E-01   0.5325000007E-02   0.5325000007E-02   0.1130185284E-15  -0.2135340238E-15  -0.3264263716E-16   0.8875000012E+01
   0.1964500000E+01   0.1005325000E+01   0.1005325000E+01   0.4500000000E-02  -0.6750000000E-03  -0.6750000000E-03  -0.4000000000E-01   0.6000000000E-02   0.6000000000E-02  -0.8875000011E+01  -0.2081914698E-14  -0.6693039460E-14   0.4105995083E-14   0.4458937255E-14  -0.9431746478E-15  -0.1775000002E-01   0.5325000007E-02   0.5325000007E-02   0.1567509171E-15   0.5990175733E-16   0.3423653343E-16   0.8875000011E+01
     1     2     3     4     5     6     7     8
     2     9    10     3     6    11    12     7
 VARIABLES = X,Y,Z,DU1,DU2,DU3,U1,U2,U3,S11,S22,S33,S12,S13,S23,E11,E22,E33,E12,E13,E23,SMISES
 ZONE, T="0.6100D+01" F=FEPOINT, I=   12 J=    2 ET=BRICK
   0.0000000000E+00   0.0000000000E+00   0.0000000000E+00   0.0000000000E+00   0.0000000000E+00   0.0000000000E+00   0.0000000000E+00   0.0000000000E+00   0.0000000000E+00  -0.7750000012E+01  -0.1301042099E-13  -0.1581757636E-13   0.1208116675E-15  -0.4522221840E-15   0.1367412957E-14  -0.1550000002E-01   0.4650000007E-02   0.4650000007E-02  -0.1970199140E-17  -0.2523054639E-16   0.5570030789E-16   0.7750000012E+01
   0.9845000000E+00   0.0000000000E+00  -0.2275818561E-16   0.2250000000E-02   0.0000000000E+00  -0.1542405781E-16  -0.1775000000E-01   0.0000000000E+00  -0.7334127799E-17  -0.7750000012E+01   0.5926380828E-14   0.4824128996E-14  -0.7578423152E-16   0.1066187277E-15   0.8212795267E-15  -0.1550000002E-01   0.4650000007E-02   0.4650000007E-02   0.1120474787E-15   0.4845985320E-16   0.2070184942E-16   0.7750000012E+01
   0.9845000000E+00   0.1004650000E+01  -0.1196428596E-16   0.2250000000E-02  -0.6750000000E-03  -0.1183431402E-16  -0.1775000000E-01   0.5325000000E-02  -0.1299719378E-18  -0.7750000011E+01  -0.9151862479E-14  -0.1130484062E-13  -0.1057195064E-14   0.3397800945E-15  -0.1092030719E-14  -0.1550000002E-01   0.4650000007E-02   0.4650000007E-02   0.8114628488E-16  -0.4078171834E-16  -0.2308539452E-16   0.7750000011E+01
   0.0000000000E+00   0.1004650000E+01   0.2702894206E-16   0.0000000000E+00  -0.6750000000E-03   0.1886942437E-16   0.0000000000E+00   0.5325000000E-02   0.8159517690E-17  -0.7750000011E+01   0.1011110304E-13   0.7763978896E-14  -0.5948676553E-15  -0.1417637895E-14  -0.1039079729E-14  -0.1550000002E-01   0.4650000007E-02   0.4650000007E-02   0.4486624006E-16  -0.6503786367E-16   0.1020818150E-16   0.7750000011E+01
   0.0000000000E+00   0.0000000000E+00   0.1004650000E+01   0.0000000000E+00   0.0000000000E+00  -0.6750000000E-03   0.0000000000E+00   0.0000000000E+00   0.5325000000E-02  -0.7750000011E+01   0.1384017056E-13   0.1617348851E-13  -0.1097991834E-15  -0.6748895024E-16   0.1563499039E-14  -0.1550000002E-01   0.4650000007E-02   0.4650000007E-02  -0.1315962112E-17  -0.1529531335E-15  -0.5041774274E-16   0.7750000011E+01
   0.9845000000E+00   0.0000000000E+00   0.1004650000E+01   0.2250000000E-02   0.0000000000E+00  -0.6750000000E-03  -0.1775000000E-01   0.0000000000E+00   0.5325000000E-02  -0.7750000011E+01  -0.8485728764E-14  -0.5178973179E-14   0.6119795956E-15   0.6166760436E-15   0.1833400946E-15  -0.1550000002E-01   0.4650000007E-02   0.4650000007E-02   0.3443909139E-16   0.3164265294E-16   0.6097667727E-16   0.7750000011E+01
   0.9845000000E+00   0.1004650000E+01   0.1004650000E+01   0.2250000000E-02  -0.6750000000E-03  -0.6750000000E-03  -0.1775000000E-01   0.5325000000E-02   0.5325000000E-02  -0.7750000010E+01   0.1009156643E-13   0.1119381835E-13   0.1785505868E-14   0.5513358608E-16  -0.7152712651E-15  -0.1550000002E-01   0.4650000006E-02   0.4650000006E-02   0.5238447143E-16  -0.3119106029E-16   0.1483347852E-16   0.7750000010E+01
   0.0000000000E+00   0.1004650000E+01   0.1004650000E+01   0.0000000000E+00  -0.6750000000E-03  -0.6750000000E-03   0.0000000000E+00   0.5325000000E-02   0.5325000000E-02  -0.7750000010E+01  -0.9389458052E-14  -0.6863843948E-14   0.1406682880E-15  -0.7019191713E-15  -0.1910204703E-14  -0.1550000002E-01   0.4650000006E-02   0.4650000006E-02   0.1224859670E-16   0.6995982963E-17  -0.9250462553E-16   0.7750000010E+01
   0.1969000000E+01   0.0000000000E+00  -0.8164638603E-16   0.4500000000E-02   0.0000000000E+00  -0.7156761732E-16  -0.3550000000E-01   0.0000000000E+00  -0.1007876871E-16  -0.7750000012E+01  -0.8727023851E-14  -0.6792104893E-14  -0.5798281759E-16   0.1702419205E-14  -0.1390827621E-15  -0.1550000002E-01   0.4650000007E-02   0.4650000007E-02  -0.8049488745E-16  -0.1402495503E-15   0.4224997708E-17   0.7750000012E+01
   0.1969000000E+01   0.1004650000E+01  -0.8018129431E-16   0.4500000000E-02  -0.6750000000E-03  -0.6603727000E-16  -0.3550000000E-01   0.5325000000E-02  -0.1414402431E-16  -0.7750000011E+01   0.1329964710E-13   0.1303006236E-13  -0.5710870532E-15  -0.2187737577E-16   0.1034261448E-14  -0.1550000002E-01   0.4650000006E-02   0.4650000006E-02  -0.1797688018E-15  -0.1872172984E-16   0.5970485759E-16   0.7750000011E+01
   0.1969000000E+01   0.0000000000E+00   0.1004650000E+01   0.4500000000E-02   0.0000000000E+00  -0.6750000000E-03  -0.3550000000E-01   0.0000000000E+00   0.5325000000E-02  -0.7750000011E+01   0.8238312136E-14   0.6214148186E-14  -0.2608215005E-14   0.6279328597E-15   0.2128031104E-15  -0.1550000002E-01   0.4650000006E-02   0.4650000006E-02   0.6841695652E-16  -0.4218175783E-16  -0.1699169109E-16   0.7750000011E+01
   0.1969000000E+01   0.1004650000E+01   0.1004650000E+01   0.4500000000E-02  -0.6750000000E-03  -0.6750000000E-03  -0.3550000000E-01   0.5325000000E-02   0.5325000000E-02  -0.7750000010E+01  -0.1067895275E-13  -0.1233233062E-13  -0.9565347938E-15  -0.2185757985E-14   0.5328409987E-15  -0.1550000002E-01   0.4650000006E-02   0.4650000006E-02   0.1022559102E-15  -0.7882680102E-16   0.5132125747E-16   0.7750000010E+01
     1     2     3     4     5     6     7     8
     2     9    10     3     6    11    12     7
 VARIABLES = X,Y,Z,DU1,DU2,DU3,U1,U2,U3,S11,S22,S33,S12,S13,S23,E11,E22,E33,E12,E13,E23,SMISES
 ZONE, T="0.6150D+01" F=FEPOINT, I=   12 J=    2 ET=BRICK
   0.0000000000E+00   0.0000000000E+00   0.0000000000E+00   0.0000000000E+00   0.0000000000E+00   0.0000000000E+00   0.0000000000E+00   0.0000000000E+00   0.0000000000E+00  -0.6625000010E+01  -0.1386087994E-13  -0.1661106537E-13   0.9467799176E-16  -0.7115967307E-15   0.1282027144E-14  -0.1325000002E-01   0.3975000006E-02   0.3975000006E-02  -0.9121960658E-18  -0.3413411075E-16   0.5414658569E-16   0.6625000010E+01
   0.9867500000E+00   0.0000000000E+00  -0.2385407309E-16   0.2250000000E-02   0.0000000000E+00  -0.1095887483E-17  -0.1550000000E-01   0.0000000000E+00  -0.2275818561E-16  -0.6625000010E+01   0.6229699317E-14   0.5116558844E-14  -0.3639072049E-15  -0.1149889799E-15   0.1015057026E-14  -0.1325000002E-01   0.3975000006E-02   0.3975000006E-02   0.1074905908E-15   0.6229750410E-16   0.2396385109E-16   0.6625000010E+01
   0.9867500000E+00   0.1003975000E+01  -0.1203396332E-16   0.2250000000E-02  -0.6750000000E-03  -0.6967735573E-19  -0.1550000000E-01   0.4650000000E-02  -0.1196428596E-16  -0.6625000009E+01  -0.8989314507E-14  -0.1134547759E-13  -0.1322920808E-14   0.6673565964E-15  -0.9540757351E-15  -0.1325000002E-01   0.3975000006E-02   0.3975000006E-02   0.7724304531E-16  -0.4489160104E-16  -0.2462761222E-16   0.6625000009E+01
   0.0000000000E+00   0.1003975000E+01   0.2656808788E-16   0.0000000000E+00  -0.6750000000E-03  -0.4608541804E-18   0.0000000000E+00   0.4650000000E-02   0.2702894206E-16  -0.6625000010E+01   0.9241784352E-14   0.6803956416E-14  -0.2527672161E-15  -0.1302883656E-14  -0.8942137433E-15  -0.1325000002E-01   0.3975000006E-02   0.3975000006E-02   0.4725135960E-16  -0.6008310457E-16   0.1323294871E-16   0.6625000010E+01
   0.0000000000E+00   0.0000000000E+00   0.1003975000E+01   0.0000000000E+00   0.0000000000E+00  -0.6750000000E-03   0.0000000000E+00   0.0000000000E+00   0.4650000000E-02  -0.6625000010E+01   0.1433578530E-13   0.1670031038E-13  -0.8571611906E-16  -0.1521623638E-15   0.1496946370E-14  -0.1325000002E-01   0.3975000006E-02   0.3975000006E-02   0.1974705540E-17  -0.1541215749E-15  -0.5057393868E-16   0.6625000010E+01
   0.9867500000E+00   0.0000000000E+00   0.1003975000E+01   0.2250000000E-02   0.0000000000E+00  -0.6750000000E-03  -0.1550000000E-01   0.0000000000E+00   0.4650000000E-02  -0.6625000009E+01  -0.9233136413E-14  -0.5885743861E-14   0.6328951136E-15   0.4252302303E-15   0.1672555781E-15  -0.1325000002E-01   0.3975000006E-02   0.3975000006E-02   0.3104145538E-16   0.2779806337E-16   0.6290054728E-16   0.6625000009E+01
   0.9867500000E+00   0.1003975000E+01   0.1003975000E+01   0.2250000000E-02  -0.6750000000E-03  -0.6750000000E-03  -0.1550000000E-01   0.4650000000E-02   0.4650000000E-02  -0.6625000009E+01   0.1168943305E-13   0.1173007010E-13   0.1724253427E-14   0.2376442635E-15  -0.8153358596E-15  -0.1325000002E-01   0.3975000005E-02   0.3975000005E-02   0.5739657927E-16  -0.2622048313E-16   0.1178649702E-16   0.6625000009E+01
   0.0000000000E+00   0.1003975000E+01   0.1003975000E+01   0.0000000000E+00  -0.6750000000E-03  -0.6750000000E-03   0.0000000000E+00   0.4650000000E-02   0.4650000000E-02  -0.6625000009E+01  -0.9733413531E-14  -0.6869288278E-14   0.1235310896E-15  -0.7286823577E-15  -0.1701508054E-14  -0.1325000002E-01   0.3975000005E-02   0.3975000005E-02   0.8736685586E-17   0.1024668215E-16  -0.8708998717E-16   0.6625000009E+01
   0.1973500000E+01   0.0000000000E+00  -0.8331595052E-16   0.4500000000E-02   0.0000000000E+00  -0.1669564494E-17  -0.3100000000E-01   0.0000000000E+00  -0.8164638603E-16  -0.6625000010E+01  -0.9295941596E-14  -0.6849074835E-14   0.1366190463E-15   0.1170978086E-14  -0.3862076530E-16  -0.1325000002E-01   0.3975000006E-02   0.3975000006E-02  -0.8047799051E-16  -0.1266504637E-15   0.4601905472E-17   0.6625000010E+01
   0.1973500000E+01   0.1003975000E+01  -0.8127788781E-16   0.4500000000E-02  -0.6750000000E-03  -0.1096593498E-17  -0.3100000000E-01   0.4650000000E-02  -0.8018129431E-16  -0.6625000009E+01   0.1344333532E-13   0.1296113590E-13  -0.6842676504E-15   0.3827390936E-15   0.9945536255E-15  -0.1325000002E-01   0.3975000006E-02   0.3975000006E-02  -0.1755750748E-15  -0.1329681357E-16   0.6611397731E-16   0.6625000009E+01
   0.1973500000E+01   0.0000000000E+00   0.1003975000E+01   0.4500000000E-02   0.0000000000E+00  -0.6750000000E-03  -0.3100000000E-01   0.0000000000E+00   0.4650000000E-02  -0.6625000009E+01   0.6529423136E-14   0.5990644801E-14  -0.1035895535E-14   0.7445596788E-15  -0.1008158384E-15  -0.1325000002E-01   0.3975000006E-02   0.3975000006E-02   0.9459011805E-16  -0.8059976352E-16  -0.1822380986E-16   0.6625000009E+01
   0.1973500000E+01   0.1003975000E+01   0.1003975000E+01   0.4500000000E-02  -0.6750000000E-03  -0.6750000000E-03  -0.3100000000E-01   0.4650000000E-02   0.4650000000E-02  -0.6625000008E+01  -0.1049754514E-13  -0.1135743400E-13   0.9196058036E-16  -0.1380565098E-14   0.5908714155E-16  -0.1325000002E-01   0.3975000005E-02   0.3975000005E-02   0.1162838812E-15  -0.1650470334E-16   0.4050028230E-16   0.6625000008E+01
     1     2     3     4     5     6     7     8
     2     9    10     3     6    11    12     7
 VARIABLES = X,Y,Z,DU1,DU2,DU3,U1,U2,U3,S11,S22,S33,S12,S13,S23,E11,E22,E33,E12,E13,E23,SMISES
 ZONE, T="0.6200D+01" F=FEPOINT, I=   12 J=    2 ET=BRICK
   0.0000000000E+00   0.0000000000E+00   0.0000000000E+00   0.0000000000E+00   0.0000000000E+00   0.0000000000E+00   0.0000000000E+00   0.0000000000E+00   0.0000000000E+00  -0.5500000009E+01  -0.1457508769E-13  -0.1686485098E-13   0.1019593209E-15  -0.4826254264E-15   0.1214394283E-14  -0.1100000002E-01   0.3300000005E-02   0.3300000005E-02   0.3407202002E-18  -0.3304393086E-16   0.5300216123E-16   0.5500000009E+01
   0.9890000000E+00   0.0000000000E+00  -0.2195927259E-16   0.2250000000E-02   0.0000000000E+00   0.1894800495E-17  -0.1325000000E-01   0.0000000000E+00  -0.2385407309E-16  -0.5500000008E+01   0.6588529013E-14   0.5445640214E-14   0.4713256281E-15   0.3195947923E-15   0.9732331119E-15  -0.1100000002E-01   0.3300000005E-02   0.3300000005E-02   0.1123527326E-15   0.6702614819E-16   0.2272784225E-16   0.5500000008E+01
   0.9890000000E+00   0.1003300000E+01  -0.1033265633E-16   0.2250000000E-02  -0.6750000000E-03   0.1701306985E-17  -0.1325000000E-01   0.3975000000E-02  -0.1203396332E-16  -0.5500000008E+01  -0.8893166368E-14  -0.1120869247E-13  -0.6274527673E-15   0.2161291013E-15  -0.9051225126E-15  -0.1100000002E-01   0.3300000005E-02   0.3300000005E-02   0.8356367232E-16  -0.5312170935E-16  -0.2217036363E-16   0.5500000008E+01
   0.0000000000E+00   0.1003300000E+01   0.2622776224E-16   0.0000000000E+00  -0.6750000000E-03  -0.3403256361E-18   0.0000000000E+00   0.3975000000E-02   0.2656808788E-16  -0.5500000008E+01   0.1085651791E-13   0.8433564140E-14  -0.5049221027E-15  -0.1020751183E-14  -0.9163348500E-15  -0.1100000002E-01   0.3300000005E-02   0.3300000005E-02   0.4378781833E-16  -0.5256131938E-16   0.1338842693E-16   0.5500000008E+01
   0.0000000000E+00   0.0000000000E+00   0.1003300000E+01   0.0000000000E+00   0.0000000000E+00  -0.6750000000E-03   0.0000000000E+00   0.0000000000E+00   0.3975000000E-02  -0.5500000008E+01   0.1440271901E-13   0.1674692560E-13  -0.8578561502E-16   0.7853363658E-17   0.1262632844E-14  -0.1100000002E-01   0.3300000005E-02   0.3300000005E-02  -0.6271726583E-18  -0.1514603030E-15  -0.5446156154E-16   0.5500000008E+01
   0.9890000000E+00   0.0000000000E+00   0.1003300000E+01   0.2250000000E-02   0.0000000000E+00  -0.6750000000E-03  -0.1325000000E-01   0.0000000000E+00   0.3975000000E-02  -0.5500000008E+01  -0.9258899226E-14  -0.5800484397E-14   0.4349784668E-15   0.7943887133E-15   0.1246541207E-15  -0.1100000002E-01   0.3300000005E-02   0.3300000005E-02   0.3078148139E-16   0.2773388203E-16   0.6447040422E-16   0.5500000008E+01
   0.9890000000E+00   0.1003300000E+01   0.1003300000E+01   0.2250000000E-02  -0.6750000000E-03  -0.6750000000E-03  -0.1325000000E-01   0.3975000000E-02   0.3975000000E-02  -0.5500000007E+01   0.1140098868E-13   0.1128996645E-13   0.1496929656E-14  -0.2966391396E-15  -0.7868321367E-15  -0.1100000001E-01   0.3300000004E-02   0.3300000004E-02   0.5217354876E-16  -0.2712215249E-16   0.1388796499E-16   0.5500000007E+01
   0.0000000000E+00   0.1003300000E+01   0.1003300000E+01   0.0000000000E+00  -0.6750000000E-03  -0.6750000000E-03   0.0000000000E+00   0.3975000000E-02   0.3975000000E-02  -0.5500000007E+01  -0.1012398426E-13  -0.7770347971E-14  -0.5236901113E-16  -0.4611429478E-15  -0.1833472288E-14  -0.1100000001E-01   0.3300000004E-02   0.3300000004E-02   0.1062432049E-16   0.5488810543E-17  -0.8791651964E-16   0.5500000007E+01
   0.1978000000E+01   0.0000000000E+00  -0.7758151940E-16   0.4500000000E-02   0.0000000000E+00   0.5734431121E-17  -0.2650000000E-01   0.0000000000E+00  -0.8331595052E-16  -0.5500000008E+01  -0.8004845057E-14  -0.5937126478E-14   0.4647132373E-16   0.1190280957E-14  -0.7228099866E-16  -0.1100000002E-01   0.3300000005E-02   0.3300000005E-02  -0.8285477875E-16  -0.1393513407E-15   0.4491151332E-17   0.5500000008E+01
   0.1978000000E+01   0.1003300000E+01  -0.7560962099E-16   0.4500000000E-02  -0.6750000000E-03   0.5668266825E-17  -0.2650000000E-01   0.3975000000E-02  -0.8127788781E-16  -0.5500000008E+01   0.1254626116E-13   0.1227123212E-13  -0.7777369823E-15   0.1200426492E-15   0.1191791852E-14  -0.1100000002E-01   0.3300000005E-02   0.3300000005E-02  -0.1809059463E-15   0.3477383247E-17   0.6540062437E-16   0.5500000008E+01
   0.1978000000E+01   0.0000000000E+00   0.1003300000E+01   0.4500000000E-02   0.0000000000E+00  -0.6750000000E-03  -0.2650000000E-01   0.0000000000E+00   0.3975000000E-02  -0.5500000008E+01   0.6270193198E-14   0.5448414790E-14  -0.1386236157E-14   0.3845884514E-15   0.5772500587E-16  -0.1100000002E-01   0.3300000005E-02   0.3300000005E-02   0.7442323005E-16  -0.8792573851E-16  -0.1786806482E-16   0.5500000008E+01
   0.1978000000E+01   0.1003300000E+01   0.1003300000E+01   0.4500000000E-02  -0.6750000000E-03  -0.6750000000E-03  -0.2650000000E-01   0.3975000000E-02   0.3975000000E-02  -0.5500000007E+01  -0.1015850003E-13  -0.1133658160E-13  -0.1854934843E-15  -0.1590773283E-14   0.2981386401E-15  -0.1100000001E-01   0.3300000004E-02   0.3300000004E-02   0.1179438083E-15  -0.2506362550E-16   0.4766156390E-16   0.5500000007E+01
     1     2     3     4     5     6     7     8
     2     9    10     3     6    11    12     7
 VARIABLES = X,Y,Z,DU1,DU2,DU3,U1,U2,U3,S11,S22,S33,S12,S13,S23,E11,E22,E33,E12,E13,E23,SMISES
 ZONE, T="0.6250D+01" F=FEPOINT, I=   12 J=    2 ET=BRICK
   0.0000000000E+00   0.0000000000E+00   0.0000000000E+00   0.0000000000E+00   0.0000000000E+00   0.0000000000E+00   0.0000000000E+00   0.0000000000E+00   0.0000000000E+00  -0.4375000007E+01  -0.1329415047E-13  -0.1562255797E-13   0.1291222428E-15  -0.2211112435E-15   0.1367383283E-14  -0.8750000014E-02   0.2625000004E-02   0.2625000004E-02   0.9360157928E-18  -0.2463772896E-16   0.5449913453E-16   0.4375000007E+01
   0.9912500000E+00   0.0000000000E+00  -0.2101916927E-16   0.2250000000E-02   0.0000000000E+00   0.9401033270E-18  -0.1100000000E-01   0.0000000000E+00  -0.2195927259E-16  -0.4375000007E+01   0.5865425335E-14   0.4748299339E-14  -0.6918429769E-15  -0.5951649484E-15   0.8312239655E-15  -0.8750000013E-02   0.2625000004E-02   0.2625000004E-02   0.1005970862E-15   0.5063577255E-16   0.2148209918E-16   0.4375000007E+01
   0.9912500000E+00   0.1002625000E+01  -0.1021038731E-16   0.2250000000E-02  -0.6750000000E-03   0.1222690210E-18  -0.1100000000E-01   0.3300000000E-02  -0.1033265633E-16  -0.4375000006E+01  -0.8924373569E-14  -0.1095145527E-13  -0.1669536727E-14   0.1068661616E-14  -0.1057726809E-14  -0.8750000012E-02   0.2625000004E-02   0.2625000004E-02   0.7506076435E-16  -0.3315421225E-16  -0.2455829215E-16   0.4375000006E+01
   0.0000000000E+00   0.1002625000E+01   0.2703043936E-16   0.0000000000E+00  -0.6750000000E-03   0.8026771154E-18   0.0000000000E+00   0.3300000000E-02   0.2622776224E-16  -0.4375000006E+01   0.9382750470E-14   0.7366700448E-14  -0.6539016807E-15  -0.1259321367E-14  -0.6646951191E-15  -0.8750000013E-02   0.2625000004E-02   0.2625000004E-02   0.4397170406E-16  -0.6301450553E-16   0.1948737688E-16   0.4375000006E+01
   0.0000000000E+00   0.0000000000E+00   0.1002625000E+01   0.0000000000E+00   0.0000000000E+00  -0.6750000000E-03   0.0000000000E+00   0.0000000000E+00   0.3300000000E-02  -0.4375000006E+01   0.1381314437E-13   0.1582083252E-13  -0.1062873015E-15   0.5063224419E-16   0.1419602495E-14  -0.8750000013E-02   0.2625000004E-02   0.2625000004E-02  -0.6781848895E-19  -0.1528853431E-15  -0.5041683860E-16   0.4375000006E+01
   0.9912500000E+00   0.0000000000E+00   0.1002625000E+01   0.2250000000E-02   0.0000000000E+00  -0.6750000000E-03  -0.1100000000E-01   0.0000000000E+00   0.3300000000E-02  -0.4375000006E+01  -0.9238580777E-14  -0.6068610308E-14   0.1107023624E-14   0.9831734515E-16   0.1041455492E-15  -0.8750000012E-02   0.2625000004E-02   0.2625000004E-02   0.3912292654E-16   0.2346169836E-16   0.6174504935E-16   0.4375000006E+01
   0.9912500000E+00   0.1002625000E+01   0.1002625000E+01   0.2250000000E-02  -0.6750000000E-03  -0.6750000000E-03  -0.1100000000E-01   0.3300000000E-02   0.3300000000E-02  -0.4375000006E+01   0.1041520344E-13   0.1085530713E-13   0.2148094886E-14   0.4535462064E-15  -0.6987362590E-15  -0.8750000011E-02   0.2625000003E-02   0.2625000003E-02   0.6077003373E-16  -0.2899762069E-16   0.2036839291E-16   0.4375000006E+01
   0.0000000000E+00   0.1002625000E+01   0.1002625000E+01   0.0000000000E+00  -0.6750000000E-03  -0.6750000000E-03   0.0000000000E+00   0.3300000000E-02   0.3300000000E-02  -0.4375000006E+01  -0.8833617210E-14  -0.6659395734E-14  -0.2613290164E-15  -0.5623656313E-15  -0.1593026598E-14  -0.8750000012E-02   0.2625000004E-02   0.2625000004E-02   0.4279163224E-17   0.8639883464E-17  -0.8758829384E-16   0.4375000006E+01
   0.1982500000E+01   0.0000000000E+00  -0.7601183166E-16   0.4500000000E-02   0.0000000000E+00   0.1569687739E-17  -0.2200000000E-01   0.0000000000E+00  -0.7758151940E-16  -0.4375000007E+01  -0.8757501569E-14  -0.7087256895E-14  -0.6097882788E-16   0.1632982246E-14  -0.2385679631E-15  -0.8750000013E-02   0.2625000004E-02   0.2625000004E-02  -0.9271203234E-16  -0.1583140830E-15   0.6689809484E-18   0.4375000007E+01
   0.1982500000E+01   0.1002625000E+01  -0.7494573602E-16   0.4500000000E-02  -0.6750000000E-03   0.6638849671E-18  -0.2200000000E-01   0.3300000000E-02  -0.7560962099E-16  -0.4375000006E+01   0.1386836937E-13   0.1376332531E-13  -0.5651164662E-15  -0.2362108733E-15   0.1123231468E-14  -0.8750000012E-02   0.2625000004E-02   0.2625000004E-02  -0.1904979193E-15   0.6336886326E-17   0.6904546115E-16   0.4375000006E+01
   0.1982500000E+01   0.0000000000E+00   0.1002625000E+01   0.4500000000E-02   0.0000000000E+00  -0.6750000000E-03  -0.2200000000E-01   0.0000000000E+00   0.3300000000E-02  -0.4375000006E+01   0.8143427344E-14   0.7081278580E-14  -0.2505872971E-14   0.8048176864E-15  -0.6901025516E-16  -0.8750000012E-02   0.2625000004E-02   0.2625000004E-02   0.7513230714E-16  -0.6223437401E-16  -0.1668006868E-16   0.4375000006E+01
   0.1982500000E+01   0.1002625000E+01   0.1002625000E+01   0.4500000000E-02  -0.6750000000E-03  -0.6750000000E-03  -0.2200000000E-01   0.3300000000E-02   0.3300000000E-02  -0.4375000006E+01  -0.1077981577E-13  -0.1249614185E-13  -0.7454701678E-15  -0.2226227518E-14   0.3195564860E-15  -0.8750000011E-02   0.2625000003E-02   0.2625000003E-02   0.1156835584E-15  -0.4531680248E-16   0.4290233633E-16   0.4375000006E+01
     1     2     3     4     5     6     7     8
     2     9    10     3     6    11    12     7
 VARIABLES = X,Y,Z,DU1,DU2,DU3,U1,U2,U3,S11,S22,S33,S12,S13,S23,E11,E22,E33,E12,E13,E23,SMISES
 ZONE, T="0.6300D+01" F=FEPOINT, I=   12 J=    2 ET=BRICK
   0.0000000000E+00   0.0000000000E+00   0.0000000000E+00   0.0000000000E+00   0.0000000000E+00   0.0000000000E+00   0.0000000000E+00   0.0000000000E+00   0.0000000000E+00  -0.3250000005E+01  -0.1468212446E-13  -0.1680336158E-13   0.1407183785E-15  -0.7520803820E-15   0.1501554206E-14  -0.6500000010E-02   0.1950000003E-02   0.1950000003E-02   0.7807350926E-19  -0.3137513410E-16   0.5430450023E-16   0.3250000005E+01
   0.9935000000E+00   0.0000000000E+00  -0.2396432057E-16   0.2250000000E-02   0.0000000000E+00  -0.2945151307E-17  -0.8750000000E-02   0.0000000000E+00  -0.2101916927E-16  -0.3250000005E+01   0.6962232838E-14   0.5834218201E-14  -0.1964418920E-15  -0.4781730968E-16   0.1138742792E-14  -0.6500000010E-02   0.1950000003E-02   0.1950000003E-02   0.1079968598E-15   0.6122924421E-16   0.2555099554E-16   0.3250000005E+01
   0.9935000000E+00   0.1001950000E+01  -0.1148910178E-16   0.2250000000E-02  -0.6750000000E-03  -0.1278714468E-17  -0.8750000000E-02   0.2625000000E-02  -0.1021038731E-16  -0.3250000005E+01  -0.9237121867E-14  -0.1187084067E-13  -0.1240380007E-14   0.8510019852E-15  -0.8449656858E-15  -0.6500000009E-02   0.1950000003E-02   0.1950000003E-02   0.8055951029E-16  -0.3997803381E-16  -0.2164919448E-16   0.3250000005E+01
   0.0000000000E+00   0.1001950000E+01   0.2772118301E-16   0.0000000000E+00  -0.6750000000E-03   0.6907436560E-18   0.0000000000E+00   0.2625000000E-02   0.2703043936E-16  -0.3250000005E+01   0.1027564364E-13   0.7233171396E-14  -0.7019738019E-15  -0.1420362388E-14  -0.9952583169E-15  -0.6500000009E-02   0.1950000003E-02   0.1950000003E-02   0.4336198401E-16  -0.6261073326E-16   0.1485255367E-16   0.3250000005E+01
   0.0000000000E+00   0.0000000000E+00   0.1001950000E+01   0.0000000000E+00   0.0000000000E+00  -0.6750000000E-03   0.0000000000E+00   0.0000000000E+00   0.2625000000E-02  -0.3250000005E+01   0.1488890396E-13   0.1708490288E-13  -0.1372380212E-15  -0.3541709770E-15   0.1429642332E-14  -0.6500000009E-02   0.1950000003E-02   0.1950000003E-02  -0.2794886679E-18  -0.1544614658E-15  -0.4906385824E-16   0.3250000005E+01
   0.9935000000E+00   0.0000000000E+00   0.1001950000E+01   0.2250000000E-02   0.0000000000E+00  -0.6750000000E-03  -0.8750000000E-02   0.0000000000E+00   0.2625000000E-02  -0.3250000005E+01  -0.9673240027E-14  -0.6078040082E-14   0.1019870782E-14   0.7955175374E-15   0.2096828973E-15  -0.6500000009E-02   0.1950000003E-02   0.1950000003E-02   0.3865158504E-16   0.2724017400E-16   0.6181299352E-16   0.3250000005E+01
   0.9935000000E+00   0.1001950000E+01   0.1001950000E+01   0.2250000000E-02  -0.6750000000E-03  -0.6750000000E-03  -0.8750000000E-02   0.2625000000E-02   0.2625000000E-02  -0.3250000004E+01   0.1151201095E-13   0.1187084069E-13   0.2000910119E-14   0.1916408878E-15  -0.7381677851E-15  -0.6500000009E-02   0.1950000003E-02   0.1950000003E-02   0.5714194417E-16  -0.2909132104E-16   0.1381394702E-16   0.3250000004E+01
   0.0000000000E+00   0.1001950000E+01   0.1001950000E+01   0.0000000000E+00  -0.6750000000E-03  -0.6750000000E-03   0.0000000000E+00   0.2625000000E-02   0.2625000000E-02  -0.3250000004E+01  -0.9522791499E-14  -0.6651229179E-14   0.1431114698E-15  -0.7108778457E-15  -0.1983109751E-14  -0.6500000009E-02   0.1950000003E-02   0.1950000003E-02   0.1020154595E-16   0.5814933444E-17  -0.9096087569E-16   0.3250000004E+01
   0.1987000000E+01   0.0000000000E+00  -0.8330663793E-16   0.4500000000E-02   0.0000000000E+00  -0.7294806271E-17  -0.1750000000E-01   0.0000000000E+00  -0.7601183166E-16  -0.3250000005E+01  -0.7675763669E-14  -0.5606052330E-14  -0.6134928198E-15   0.3942793913E-15  -0.2723770953E-15  -0.6500000010E-02   0.1950000003E-02   0.1950000003E-02  -0.9764862109E-16  -0.1468903081E-15   0.9546643374E-18   0.3250000005E+01
   0.1987000000E+01   0.1001950000E+01  -0.8236058357E-16   0.4500000000E-02  -0.6750000000E-03  -0.7414847553E-17  -0.1750000000E-01   0.2625000000E-02  -0.7494573602E-16  -0.3250000005E+01   0.1306763876E-13   0.1291651341E-13  -0.1353933936E-14   0.4525172436E-15   0.9814432406E-15  -0.6500000009E-02   0.1950000003E-02   0.1950000003E-02  -0.1967521138E-15   0.1022135820E-16   0.6538513358E-16   0.3250000005E+01
   0.1987000000E+01   0.0000000000E+00   0.1001950000E+01   0.4500000000E-02   0.0000000000E+00  -0.6750000000E-03  -0.1750000000E-01   0.0000000000E+00   0.2625000000E-02  -0.3250000005E+01   0.6249874691E-14   0.5324511076E-14  -0.1196797954E-14   0.4404049121E-16  -0.2133434027E-15  -0.6500000009E-02   0.1950000003E-02   0.1950000003E-02   0.8638254822E-16  -0.8574343656E-16  -0.1870046135E-16   0.3250000005E+01
   0.1987000000E+01   0.1001950000E+01   0.1001950000E+01   0.4500000000E-02  -0.6750000000E-03  -0.6750000000E-03  -0.1750000000E-01   0.2625000000E-02   0.2625000000E-02  -0.3250000004E+01  -0.1039687757E-13  -0.1167854433E-13   0.3593213244E-15  -0.1442512761E-14   0.4444335101E-16  -0.6500000008E-02   0.1950000002E-02   0.1950000002E-02   0.1203526559E-15  -0.2577962847E-16   0.4326757970E-16   0.3250000004E+01
     1     2     3     4     5     6     7     8
     2     9    10     3     6    11    12     7
 VARIABLES = X,Y,Z,DU1,DU2,DU3,U1,U2,U3,S11,S22,S33,S12,S13,S23,E11,E22,E33,E12,E13,E23,SMISES
 ZONE, T="0.6350D+01" F=FEPOINT, I=   12 J=    2 ET=BRICK
   0.0000000000E+00   0.0000000000E+00   0.0000000000E+00   0.0000000000E+00   0.0000000000E+00   0.0000000000E+00   0.0000000000E+00   0.0000000000E+00   0.0000000000E+00  -0.2125000003E+01  -0.1460012113E-13  -0.1642448039E-13   0.1406439222E-15  -0.4590625964E-15   0.1391738171E-14  -0.4250000007E-02   0.1275000002E-02   0.1275000002E-02   0.9046483095E-19  -0.2616509898E-16   0.5391883491E-16   0.2125000003E+01
   0.9957500000E+00   0.0000000000E+00  -0.2247999370E-16   0.2250000000E-02   0.0000000000E+00   0.1484326877E-17  -0.6500000000E-02   0.0000000000E+00  -0.2396432057E-16  -0.2125000003E+01   0.6340721591E-14   0.5432758773E-14  -0.4460849089E-15  -0.3954719728E-15   0.1018896444E-14  -0.4250000007E-02   0.1275000002E-02   0.1275000002E-02   0.1069084414E-15   0.5345357749E-16   0.2383814115E-16   0.2125000003E+01
   0.9957500000E+00   0.1001275000E+01  -0.1051270169E-16   0.2250000000E-02  -0.6750000000E-03   0.9764000849E-18  -0.6500000000E-02   0.1950000000E-02  -0.1148910178E-16  -0.2125000003E+01  -0.9201929245E-14  -0.1177269981E-13  -0.1388825519E-14   0.7067034735E-15  -0.8319314154E-15  -0.4250000006E-02   0.1275000002E-02   0.1275000002E-02   0.7898648040E-16  -0.4174737575E-16  -0.2227203942E-16   0.2125000003E+01
   0.0000000000E+00   0.1001275000E+01   0.2712425891E-16   0.0000000000E+00  -0.6750000000E-03  -0.5969240998E-18   0.0000000000E+00   0.1950000000E-02   0.2772118301E-16  -0.2125000003E+01   0.9990650811E-14   0.7323608210E-14  -0.5943987285E-15  -0.1175946805E-14  -0.9009059142E-15  -0.4250000006E-02   0.1275000002E-02   0.1275000002E-02   0.4509405609E-16  -0.6087562970E-16   0.1683994991E-16   0.2125000003E+01
   0.0000000000E+00   0.0000000000E+00   0.1001275000E+01   0.0000000000E+00   0.0000000000E+00  -0.6750000000E-03   0.0000000000E+00   0.0000000000E+00   0.1950000000E-02  -0.2125000003E+01   0.1450776300E-13   0.1669459906E-13  -0.9131785657E-16   0.5555208046E-17   0.1460388797E-14  -0.4250000006E-02   0.1275000002E-02   0.1275000002E-02  -0.2245712329E-19  -0.1513497987E-15  -0.4928559352E-16   0.2125000003E+01
   0.9957500000E+00   0.0000000000E+00   0.1001275000E+01   0.2250000000E-02   0.0000000000E+00  -0.6750000000E-03  -0.6500000000E-02   0.0000000000E+00   0.1950000000E-02  -0.2125000003E+01  -0.9445751151E-14  -0.6050284525E-14   0.7017570175E-15   0.5375234027E-15   0.1013512957E-15  -0.4250000006E-02   0.1275000002E-02   0.1275000002E-02   0.3715440669E-16   0.2571041545E-16   0.5984812632E-16   0.2125000003E+01
   0.9957500000E+00   0.1001275000E+01   0.1001275000E+01   0.2250000000E-02  -0.6750000000E-03  -0.6750000000E-03  -0.6500000000E-02   0.1950000000E-02   0.1950000000E-02  -0.2125000003E+01   0.1127509221E-13   0.1156552939E-13   0.1791590428E-14  -0.1844878128E-15  -0.7953021756E-15  -0.4250000006E-02   0.1275000002E-02   0.1275000002E-02   0.6127060300E-16  -0.2831388306E-16   0.1558695917E-16   0.2125000003E+01
   0.0000000000E+00   0.1001275000E+01   0.1001275000E+01   0.0000000000E+00  -0.6750000000E-03  -0.6750000000E-03   0.0000000000E+00   0.1950000000E-02   0.1950000000E-02  -0.2125000003E+01  -0.1010439521E-13  -0.7307666130E-14   0.9646129737E-16  -0.4851518237E-15  -0.1806027573E-14  -0.4250000006E-02   0.1275000002E-02   0.1275000002E-02   0.7025709074E-17   0.5997391316E-17  -0.9024161052E-16   0.2125000003E+01
   0.1991500000E+01   0.0000000000E+00  -0.8083433118E-16   0.4500000000E-02   0.0000000000E+00   0.2472306756E-17  -0.1300000000E-01   0.0000000000E+00  -0.8330663793E-16  -0.2125000003E+01  -0.8616197024E-14  -0.6595556116E-14  -0.1428188749E-16   0.9975476781E-15  -0.1030118586E-15  -0.4250000006E-02   0.1275000002E-02   0.1275000002E-02  -0.8926195228E-16  -0.1389778287E-15   0.3300065093E-17   0.2125000003E+01
   0.1991500000E+01   0.1001275000E+01  -0.7903798359E-16   0.4500000000E-02  -0.6750000000E-03   0.3322599986E-17  -0.1300000000E-01   0.1950000000E-02  -0.8236058357E-16  -0.2125000003E+01   0.1323072062E-13   0.1288158771E-13  -0.6050243669E-15   0.1604669644E-15   0.1105067668E-14  -0.4250000006E-02   0.1275000002E-02   0.1275000002E-02  -0.1871889504E-15  -0.4297226970E-17   0.6592144368E-16   0.2125000003E+01
   0.1991500000E+01   0.0000000000E+00   0.1001275000E+01   0.4500000000E-02   0.0000000000E+00  -0.6750000000E-03  -0.1300000000E-01   0.0000000000E+00   0.1950000000E-02  -0.2125000003E+01   0.6893697186E-14   0.6295689123E-14  -0.1667143168E-14   0.9606870068E-15  -0.1750425139E-15  -0.4250000006E-02   0.1275000002E-02   0.1275000002E-02   0.8041495839E-16  -0.8343271564E-16  -0.1811729535E-16   0.2125000003E+01
   0.1991500000E+01   0.1001275000E+01   0.1001275000E+01   0.4500000000E-02  -0.6750000000E-03  -0.6750000000E-03  -0.1300000000E-01   0.1950000000E-02   0.1950000000E-02  -0.2125000003E+01  -0.9904518871E-14  -0.1144043373E-13  -0.1724479852E-15  -0.1430350083E-14   0.9402227871E-16  -0.4250000005E-02   0.1275000002E-02   0.1275000002E-02   0.1133931849E-15  -0.3380918180E-16   0.4535403840E-16   0.2125000003E+01
     1     2     3     4     5     6     7     8
     2     9    10     3     6    11    12     7
 VARIABLES = X,Y,Z,DU1,DU2,DU3,U1,U2,U3,S11,S22,S33,S12,S13,S23,E11,E22,E33,E12,E13,E23,SMISES
 ZONE, T="0.6400D+01" F=FEPOINT, I=   12 J=    2 ET=BRICK
   0.0000000000E+00   0.0000000000E+00   0.0000000000E+00   0.0000000000E+00   0.0000000000E+00   0.0000000000E+00   0.0000000000E+00   0.0000000000E+00   0.0000000000E+00  -0.1000000002E+01  -0.1416396723E-13  -0.1623563570E-13   0.1238692179E-15  -0.4178347790E-15   0.1414349138E-14  -0.2000000003E-02   0.6000000009E-03   0.6000000009E-03  -0.6774036969E-18  -0.2799786086E-16   0.5400345137E-16   0.1000000002E+01
   0.9980000000E+00   0.0000000000E+00  -0.2223215241E-16   0.2250000000E-02   0.0000000000E+00   0.2478412859E-18  -0.4250000000E-02   0.0000000000E+00  -0.2247999370E-16  -0.1000000002E+01   0.6475780912E-14   0.5564099545E-14  -0.3267637346E-15  -0.3999550989E-15   0.9757607187E-15  -0.2000000003E-02   0.6000000009E-03   0.6000000009E-03   0.1080828839E-15   0.5644486708E-16   0.2307280319E-16   0.1000000002E+01
   0.9980000000E+00   0.1000600000E+01  -0.1044408578E-16   0.2250000000E-02  -0.6750000000E-03   0.6861591817E-19  -0.4250000000E-02   0.1275000000E-02  -0.1051270169E-16  -0.1000000001E+01  -0.9220521951E-14  -0.1169886293E-13  -0.1239443549E-14   0.6035370083E-15  -0.8369502675E-15  -0.2000000003E-02   0.6000000009E-03   0.6000000009E-03   0.8181876339E-16  -0.4180941220E-16  -0.2115909343E-16   0.1000000001E+01
   0.0000000000E+00   0.1000600000E+01   0.2714844379E-16   0.0000000000E+00  -0.6750000000E-03   0.2418487102E-19   0.0000000000E+00   0.1275000000E-02   0.2712425891E-16  -0.1000000001E+01   0.1030363044E-13   0.7557537846E-14  -0.7083747954E-15  -0.1162195913E-14  -0.9609726073E-15  -0.2000000003E-02   0.6000000009E-03   0.6000000009E-03   0.4219920403E-16  -0.6070098909E-16   0.1572260983E-16   0.1000000001E+01
   0.0000000000E+00   0.0000000000E+00   0.1000600000E+01   0.0000000000E+00   0.0000000000E+00  -0.6750000000E-03   0.0000000000E+00   0.0000000000E+00   0.1275000000E-02  -0.1000000001E+01   0.1424149641E-13   0.1650466029E-13  -0.7884649177E-16   0.2421001245E-16   0.1412944653E-14  -0.2000000003E-02   0.6000000009E-03   0.6000000009E-03   0.4341278666E-20  -0.1519138626E-15  -0.5049031723E-16   0.1000000001E+01
   0.9980000000E+00   0.0000000000E+00   0.1000600000E+01   0.2250000000E-02   0.0000000000E+00  -0.6750000000E-03  -0.4250000000E-02   0.0000000000E+00   0.1275000000E-02  -0.1000000001E+01  -0.9687117850E-14  -0.6343443826E-14   0.7784866606E-15   0.5250703373E-15   0.1777755755E-15  -0.2000000003E-02   0.6000000009E-03   0.6000000009E-03   0.3762456276E-16   0.2553195800E-16   0.6143993295E-16   0.1000000001E+01
   0.9980000000E+00   0.1000600000E+01   0.1000600000E+01   0.2250000000E-02  -0.6750000000E-03  -0.6750000000E-03  -0.4250000000E-02   0.1275000000E-02   0.1275000000E-02  -0.1000000001E+01   0.1115218488E-13   0.1163119978E-13   0.1846167176E-14  -0.1380220562E-15  -0.7746368872E-15  -0.2000000003E-02   0.6000000008E-03   0.6000000008E-03   0.5955517560E-16  -0.2711179504E-16   0.1542015237E-16   0.1000000001E+01
   0.0000000000E+00   0.1000600000E+01   0.1000600000E+01   0.0000000000E+00  -0.6750000000E-03  -0.6750000000E-03   0.0000000000E+00   0.1275000000E-02   0.1275000000E-02  -0.1000000001E+01  -0.9683480184E-14  -0.6911286318E-14   0.7610865727E-16  -0.4178678523E-15  -0.1788050142E-14  -0.2000000003E-02   0.6000000008E-03   0.6000000008E-03   0.9293736251E-17   0.7390268819E-17  -0.8826200422E-16   0.1000000001E+01
   0.1996000000E+01   0.0000000000E+00  -0.7975230393E-16   0.4500000000E-02   0.0000000000E+00   0.1082027245E-17  -0.8500000000E-02   0.0000000000E+00  -0.8083433118E-16  -0.1000000002E+01  -0.8528980571E-14  -0.6749208173E-14  -0.2887682721E-15   0.1000861287E-14  -0.1877951698E-15  -0.2000000003E-02   0.6000000009E-03   0.6000000009E-03  -0.9190408421E-16  -0.1506008966E-15   0.2790289643E-17   0.1000000002E+01
   0.1996000000E+01   0.1000600000E+01  -0.7836444294E-16   0.4500000000E-02  -0.6750000000E-03   0.6735406504E-18  -0.8500000000E-02   0.1275000000E-02  -0.7903798359E-16  -0.1000000001E+01   0.1301189638E-13   0.1273437636E-13  -0.7868675655E-15   0.1409907512E-15   0.1016198365E-14  -0.2000000003E-02   0.6000000008E-03   0.6000000008E-03  -0.1867692040E-15   0.6984337398E-17   0.6496664637E-16   0.1000000001E+01
   0.1996000000E+01   0.0000000000E+00   0.1000600000E+01   0.4500000000E-02   0.0000000000E+00  -0.6750000000E-03  -0.8500000000E-02   0.0000000000E+00   0.1275000000E-02  -0.1000000001E+01   0.6642037748E-14   0.5671820388E-14  -0.1652269236E-14   0.6492644643E-15  -0.1240858481E-15  -0.2000000003E-02   0.6000000008E-03   0.6000000008E-03   0.8221478224E-16  -0.7920759775E-16  -0.1732279578E-16   0.1000000001E+01
   0.1996000000E+01   0.1000600000E+01   0.1000600000E+01   0.4500000000E-02  -0.6750000000E-03  -0.6750000000E-03  -0.8500000000E-02   0.1275000000E-02   0.1275000000E-02  -0.1000000001E+01  -0.1015146340E-13  -0.1176642825E-13  -0.1219835608E-15  -0.1207189102E-14   0.1571006063E-15  -0.2000000003E-02   0.6000000008E-03   0.6000000008E-03   0.1145799235E-15  -0.3709134547E-16   0.4460658196E-16   0.1000000001E+01
     1     2     3     4     5     6     7     8
     2     9    10     3     6    11    12     7
 VARIABLES = X,Y,Z,DU1,DU2,DU3,U1,U2,U3,S11,S22,S33,S12,S13,S23,E11,E22,E33,E12,E13,E23,SMISES
 ZONE, T="0.6450D+01" F=FEPOINT, I=   12 J=    2 ET=BRICK
   0.0000000000E+00   0.0000000000E+00   0.0000000000E+00   0.0000000000E+00   0.0000000000E+00   0.0000000000E+00   0.0000000000E+00   0.0000000000E+00   0.0000000000E+00   0.1250000002E+00  -0.1422925342E-13  -0.1621282464E-13   0.1019223618E-15  -0.4039272084E-15   0.1385341479E-14   0.2500000004E-03  -0.7500000012E-04  -0.7500000012E-04  -0.4801377606E-19  -0.2613836832E-16   0.5400053666E-16   0.1250000002E+00
   0.1000250000E+01   0.0000000000E+00  -0.2211485117E-16   0.2250000000E-02   0.0000000000E+00   0.1173012373E-18  -0.2000000000E-02   0.0000000000E+00  -0.2223215241E-16   0.1250000002E+00   0.6514488611E-14   0.5633284985E-14  -0.3757197867E-15  -0.4097467914E-15   0.9456638357E-15   0.2500000004E-03  -0.7500000012E-04  -0.7500000012E-04   0.1061241616E-15   0.5178106541E-16   0.2292927395E-16   0.1250000002E+00
   0.1000250000E+01   0.9999250000E+00  -0.1052146551E-16   0.2250000000E-02  -0.6750000000E-03  -0.7737973228E-19  -0.2000000000E-02   0.6000000000E-03  -0.1044408578E-16   0.1250000002E+00  -0.9182892873E-14  -0.1164041717E-13  -0.1333773037E-14   0.6792521896E-15  -0.8691996734E-15   0.2500000004E-03  -0.7500000011E-04  -0.7500000011E-04   0.7912405265E-16  -0.4016806414E-16  -0.2159247720E-16   0.1250000002E+00
   0.0000000000E+00   0.9999250000E+00   0.2707250645E-16   0.0000000000E+00  -0.6750000000E-03  -0.7593733342E-19   0.0000000000E+00   0.6000000000E-03   0.2714844379E-16   0.1250000002E+00   0.9746355651E-14   0.7093190831E-14  -0.6940643697E-15  -0.1149674246E-14  -0.8940976049E-15   0.2500000004E-03  -0.7500000011E-04  -0.7500000011E-04   0.4305018755E-16  -0.6059933289E-16   0.1601130254E-16   0.1250000002E+00
   0.0000000000E+00   0.0000000000E+00   0.9999250000E+00   0.0000000000E+00   0.0000000000E+00  -0.6750000000E-03   0.0000000000E+00   0.0000000000E+00   0.6000000000E-03   0.1250000002E+00   0.1428948869E-13   0.1647013313E-13  -0.5915612416E-16   0.3935486735E-16   0.1407163108E-14   0.2500000004E-03  -0.7500000011E-04  -0.7500000011E-04   0.2193768869E-18  -0.1512813942E-15  -0.5102180080E-16   0.1250000002E+00
   0.1000250000E+01   0.0000000000E+00   0.9999250000E+00   0.2250000000E-02   0.0000000000E+00  -0.6750000000E-03  -0.2000000000E-02   0.0000000000E+00   0.6000000000E-03   0.1250000002E+00  -0.9507192588E-14  -0.6178757430E-14   0.7275672834E-15   0.5184742129E-15   0.1771691875E-15   0.2500000004E-03  -0.7500000011E-04  -0.7500000011E-04   0.3658867228E-16   0.2498437313E-16   0.6086905739E-16   0.1250000002E+00
   0.1000250000E+01   0.9999250000E+00   0.9999250000E+00   0.2250000000E-02  -0.6750000000E-03  -0.6750000000E-03  -0.2000000000E-02   0.6000000000E-03   0.6000000000E-03   0.1250000002E+00   0.1119953283E-13   0.1165364780E-13   0.1769574604E-14  -0.5531530667E-16  -0.7913597370E-15   0.2500000003E-03  -0.7500000010E-04  -0.7500000010E-04   0.5996431208E-16  -0.2542839663E-16   0.1524130953E-16   0.1250000002E+00
   0.0000000000E+00   0.9999250000E+00   0.9999250000E+00   0.0000000000E+00  -0.6750000000E-03  -0.6750000000E-03   0.0000000000E+00   0.6000000000E-03   0.6000000000E-03   0.1250000002E+00  -0.9437226815E-14  -0.6742721854E-14   0.3613853180E-16  -0.4374663658E-15  -0.1784720717E-14   0.2500000003E-03  -0.7500000010E-04  -0.7500000010E-04   0.8372322402E-17   0.6671140840E-17  -0.8848566308E-16   0.1250000002E+00
   0.2000500000E+01   0.0000000000E+00  -0.7985004379E-16   0.4500000000E-02   0.0000000000E+00  -0.9773985860E-19  -0.4000000000E-02   0.0000000000E+00  -0.7975230393E-16   0.1250000002E+00  -0.8423081811E-14  -0.6348539936E-14  -0.4442762629E-15   0.6316494745E-15  -0.1383778598E-15   0.2500000004E-03  -0.7500000012E-04  -0.7500000012E-04  -0.9228788766E-16  -0.1436264990E-15   0.3164382900E-17   0.1250000002E+00
   0.2000500000E+01   0.9999250000E+00  -0.7821154263E-16   0.4500000000E-02  -0.6750000000E-03   0.1529003055E-18  -0.4000000000E-02   0.6000000000E-03  -0.7836444294E-16   0.1250000002E+00   0.1349034586E-13   0.1323364253E-13  -0.9980522881E-15   0.6505009543E-16   0.1155131277E-14   0.2500000004E-03  -0.7500000011E-04  -0.7500000011E-04  -0.1904137835E-15  -0.2698217138E-17   0.6595517037E-16   0.1250000002E+00
   0.2000500000E+01   0.0000000000E+00   0.9999250000E+00   0.4500000000E-02   0.0000000000E+00  -0.6750000000E-03  -0.4000000000E-02   0.0000000000E+00   0.6000000000E-03   0.1250000002E+00   0.7216146102E-14   0.6370081540E-14  -0.1761871198E-14   0.8394620469E-15  -0.2036508298E-15   0.2500000004E-03  -0.7500000011E-04  -0.7500000011E-04   0.7837671850E-16  -0.7908078799E-16  -0.1765916872E-16   0.1250000002E+00
   0.2000500000E+01   0.9999250000E+00   0.9999250000E+00   0.4500000000E-02  -0.6750000000E-03  -0.6750000000E-03  -0.4000000000E-02   0.6000000000E-03   0.6000000000E-03   0.1250000002E+00  -0.1019410696E-13  -0.1195887180E-13  -0.2027283583E-15  -0.1464810388E-14   0.1175319258E-15   0.2500000003E-03  -0.7500000010E-04  -0.7500000010E-04   0.1172503641E-15  -0.3830334817E-16   0.4362662068E-16   0.1250000002E+00
     1     2     3     4     5     6     7     8
     2     9    10     3     6    11    12     7
 VARIABLES = X,Y,Z,DU1,DU2,DU3,U1,U2,U3,S11,S22,S33,S12,S13,S23,E11,E22,E33,E12,E13,E23,SMISES
 ZONE, T="0.6500D+01" F=FEPOINT, I=   12 J=    2 ET=BRICK
   0.0000000000E+00   0.0000000000E+00   0.0000000000E+00   0.0000000000E+00   0.0000000000E+00   0.0000000000E+00   0.0000000000E+00   0.0000000000E+00   0.0000000000E+00   0.1250000002E+01  -0.1391385126E-13  -0.1601259477E-13   0.1081324402E-15  -0.3776561087E-15   0.1431549306E-14   0.2500000004E-02  -0.7500000012E-03  -0.7500000012E-03   0.1306668661E-18  -0.2665392865E-16   0.5444875116E-16   0.1250000002E+01
   0.1002500000E+01   0.0000000000E+00  -0.2194100610E-16   0.2250000000E-02   0.0000000000E+00   0.1738450786E-18   0.2500000000E-03   0.0000000000E+00  -0.2211485117E-16   0.1250000002E+01   0.6615919851E-14   0.5688003239E-14  -0.2277147042E-15  -0.4254043225E-15   0.9676411994E-15   0.2500000004E-02  -0.7500000012E-03  -0.7500000012E-03   0.1072385529E-15   0.5302478654E-16   0.2357606117E-16   0.1250000002E+01
   0.1002500000E+01   0.9992500000E+00  -0.1023668219E-16   0.2250000000E-02  -0.6750000000E-03   0.2847833160E-18   0.2500000000E-03  -0.7500000000E-04  -0.1052146551E-16   0.1250000002E+01  -0.9174805340E-14  -0.1165822594E-13  -0.1254909869E-14   0.6544121406E-15  -0.8296997421E-15   0.2500000004E-02  -0.7500000011E-03  -0.7500000011E-03   0.7900487534E-16  -0.3908069477E-16  -0.2141677369E-16   0.1250000002E+01
   0.0000000000E+00   0.9992500000E+00   0.2719039902E-16   0.0000000000E+00  -0.6750000000E-03   0.1178925686E-18   0.0000000000E+00  -0.7500000000E-04   0.2707250645E-16   0.1250000002E+01   0.9942990369E-14   0.7164244921E-14  -0.7596900807E-15  -0.1128287997E-14  -0.9243749098E-15   0.2500000004E-02  -0.7500000011E-03  -0.7500000011E-03   0.4273179871E-16  -0.6061466941E-16   0.1555086071E-16   0.1250000002E+01
   0.0000000000E+00   0.0000000000E+00   0.9992500000E+00   0.0000000000E+00   0.0000000000E+00  -0.6750000000E-03   0.0000000000E+00   0.0000000000E+00  -0.7500000000E-04   0.1250000002E+01   0.1387205818E-13   0.1600642107E-13  -0.4079755851E-16   0.5795251642E-16   0.1459447726E-14   0.2500000004E-02  -0.7500000011E-03  -0.7500000011E-03  -0.9315453720E-19  -0.1511333872E-15  -0.5006790770E-16   0.1250000002E+01
   0.1002500000E+01   0.0000000000E+00   0.9992500000E+00   0.2250000000E-02   0.0000000000E+00  -0.6750000000E-03   0.2500000000E-03   0.0000000000E+00  -0.7500000000E-04   0.1250000002E+01  -0.9851293818E-14  -0.6608847542E-14   0.8608656054E-15   0.4835738354E-15   0.1557715595E-15   0.2500000004E-02  -0.7500000011E-03  -0.7500000011E-03   0.3922201889E-16   0.2555876694E-16   0.6039437242E-16   0.1250000002E+01
   0.1002500000E+01   0.9992500000E+00   0.9992500000E+00   0.2250000000E-02  -0.6750000000E-03  -0.6750000000E-03   0.2500000000E-03  -0.7500000000E-04  -0.7500000000E-04   0.1250000002E+01   0.1134039789E-13   0.1175981838E-13   0.1940836642E-14   0.1049062664E-15  -0.7654037352E-15   0.2500000003E-02  -0.7500000010E-03  -0.7500000010E-03   0.6200502443E-16  -0.2737409009E-16   0.1602292319E-16   0.1250000002E+01
   0.0000000000E+00   0.9992500000E+00   0.9992500000E+00   0.0000000000E+00  -0.6750000000E-03  -0.6750000000E-03   0.0000000000E+00  -0.7500000000E-04  -0.7500000000E-04   0.1250000002E+01  -0.9138479128E-14  -0.6515902918E-14   0.3180887256E-16  -0.5945450701E-15  -0.1808937758E-14   0.2500000003E-02  -0.7500000010E-03  -0.7500000010E-03   0.8343910807E-17   0.6208537300E-17  -0.8915543106E-16   0.1250000002E+01
   0.2005000000E+01   0.0000000000E+00  -0.7820360720E-16   0.4500000000E-02   0.0000000000E+00   0.1646436592E-17   0.5000000000E-03   0.0000000000E+00  -0.7985004379E-16   0.1250000002E+01  -0.8739188972E-14  -0.6618863742E-14  -0.4212862636E-15   0.9290186844E-15  -0.1830640548E-15   0.2500000004E-02  -0.7500000011E-03  -0.7500000011E-03  -0.9167838998E-16  -0.1528882026E-15   0.2741624399E-17   0.1250000002E+01
   0.2005000000E+01   0.9992500000E+00  -0.7681585491E-16   0.4500000000E-02  -0.6750000000E-03   0.1395687721E-17   0.5000000000E-03  -0.7500000000E-04  -0.7821154263E-16   0.1250000002E+01   0.1328455482E-13   0.1326989872E-13  -0.9979804445E-15   0.1561159392E-15   0.1086170269E-14   0.2500000003E-02  -0.7500000010E-03  -0.7500000010E-03  -0.1898564670E-15   0.2733712261E-17   0.6495397647E-16   0.1250000002E+01
   0.2005000000E+01   0.0000000000E+00   0.9992500000E+00   0.4500000000E-02   0.0000000000E+00  -0.6750000000E-03   0.5000000000E-03   0.0000000000E+00  -0.7500000000E-04   0.1250000002E+01   0.6670242626E-14   0.5866741058E-14  -0.1320625198E-14   0.4187200635E-15  -0.2215686311E-15   0.2500000003E-02  -0.7500000010E-03  -0.7500000010E-03   0.8254264814E-16  -0.8370150472E-16  -0.1802555358E-16   0.1250000002E+01
   0.2005000000E+01   0.9992500000E+00   0.9992500000E+00   0.4500000000E-02  -0.6750000000E-03  -0.6750000000E-03   0.5000000000E-03  -0.7500000000E-04  -0.7500000000E-04   0.1250000002E+01  -0.1056040876E-13  -0.1229859675E-13  -0.1305263818E-15  -0.1414232523E-14   0.1486298916E-15   0.2500000003E-02  -0.7500000010E-03  -0.7500000010E-03   0.1164687843E-15  -0.3844023290E-16   0.4448806564E-16   0.1250000002E+01
     1     2     3     4     5     6     7     8
     2     9    10     3     6    11    12     7
 VARIABLES = X,Y,Z,DU1,DU2,DU3,U1,U2,U3,S11,S22,S33,S12,S13,S23,E11,E22,E33,E12,E13,E23,SMISES
 ZONE, T="0.6550D+01" F=FEPOINT, I=   12 J=    2 ET=BRICK
   0.0000000000E+00   0.0000000000E+00   0.0000000000E+00   0.0000000000E+00   0.0000000000E+00   0.0000000000E+00   0.0000000000E+00   0.0000000000E+00   0.0000000000E+00   0.2375000004E+01  -0.1383076692E-13  -0.1564905018E-13   0.1137483488E-15  -0.4726779862E-15   0.1436978683E-14   0.4750000007E-02  -0.1425000002E-02  -0.1425000002E-02  -0.1607576423E-18  -0.2847296615E-16   0.5452280061E-16   0.2375000004E+01
   0.1004750000E+01   0.0000000000E+00  -0.2239818888E-16   0.2250000000E-02   0.0000000000E+00  -0.4571827828E-18   0.2500000000E-02   0.0000000000E+00  -0.2194100610E-16   0.2375000004E+01   0.6441584622E-14   0.5521469802E-14  -0.5084396440E-15  -0.4458484421E-15   0.9765112973E-15   0.4750000007E-02  -0.1425000002E-02  -0.1425000002E-02   0.1051619320E-15   0.5508280968E-16   0.2322950367E-16   0.2375000004E+01
   0.1004750000E+01   0.9985750000E+00  -0.1066584451E-16   0.2250000000E-02  -0.6750000000E-03  -0.4291623201E-18   0.2500000000E-02  -0.7500000000E-03  -0.1023668219E-16   0.2375000003E+01  -0.9613547903E-14  -0.1191147767E-13  -0.1445635411E-14   0.7397293131E-15  -0.8886058603E-15   0.4750000007E-02  -0.1425000002E-02  -0.1425000002E-02   0.7847350704E-16  -0.3824952169E-16  -0.2106903702E-16   0.2375000003E+01
   0.0000000000E+00   0.9985750000E+00   0.2716492158E-16   0.0000000000E+00  -0.6750000000E-03  -0.2547743624E-19   0.0000000000E+00  -0.7500000000E-03   0.2719039902E-16   0.2375000003E+01   0.9411867062E-14   0.6669359537E-14  -0.6528682676E-15  -0.1138573074E-14  -0.9143877352E-15   0.4750000007E-02  -0.1425000002E-02  -0.1425000002E-02   0.4322534685E-16  -0.6218011830E-16   0.1521273707E-16   0.2375000003E+01
   0.0000000000E+00   0.0000000000E+00   0.9985750000E+00   0.0000000000E+00   0.0000000000E+00  -0.6750000000E-03   0.0000000000E+00   0.0000000000E+00  -0.7500000000E-03   0.2375000003E+01   0.1374484949E-13   0.1597939490E-13  -0.4787570529E-16  -0.5514222814E-16   0.1444838217E-14   0.4750000007E-02  -0.1425000002E-02  -0.1425000002E-02   0.4586249935E-19  -0.1517428020E-15  -0.5035789459E-16   0.2375000003E+01
   0.1004750000E+01   0.0000000000E+00   0.9985750000E+00   0.2250000000E-02   0.0000000000E+00  -0.6750000000E-03   0.2500000000E-02   0.0000000000E+00  -0.7500000000E-03   0.2375000003E+01  -0.9822177158E-14  -0.6644040191E-14   0.8069766773E-15   0.4527081335E-15   0.1783530189E-15   0.4750000007E-02  -0.1425000002E-02  -0.1425000002E-02   0.3836759030E-16   0.2533063173E-16   0.6097278650E-16   0.2375000003E+01
   0.1004750000E+01   0.9985750000E+00   0.9985750000E+00   0.2250000000E-02  -0.6750000000E-03  -0.6750000000E-03   0.2500000000E-02  -0.7500000000E-03  -0.7500000000E-03   0.2375000003E+01   0.1144634054E-13   0.1169886290E-13   0.1993019884E-14   0.3037777854E-15  -0.6516366878E-15   0.4750000006E-02  -0.1425000002E-02  -0.1425000002E-02   0.6085614296E-16  -0.2529591657E-16   0.1634738255E-16   0.2375000003E+01
   0.0000000000E+00   0.9985750000E+00   0.9985750000E+00   0.0000000000E+00  -0.6750000000E-03  -0.6750000000E-03   0.0000000000E+00  -0.7500000000E-03  -0.7500000000E-03   0.2375000003E+01  -0.9248322709E-14  -0.6432636217E-14   0.1516042955E-16  -0.6841442427E-15  -0.1798272943E-14   0.4750000006E-02  -0.1425000002E-02  -0.1425000002E-02   0.9027805102E-17   0.5427227900E-17  -0.8824015413E-16   0.2375000003E+01
   0.2009500000E+01   0.0000000000E+00  -0.7943008655E-16   0.4500000000E-02   0.0000000000E+00  -0.1226479352E-17   0.5000000000E-02   0.0000000000E+00  -0.7820360720E-16   0.2375000004E+01  -0.8562313908E-14  -0.6527430509E-14  -0.5178912927E-15   0.1167764793E-14  -0.1690909250E-15   0.4750000007E-02  -0.1425000002E-02  -0.1425000002E-02  -0.9404681758E-16  -0.1542183544E-15   0.2872746177E-17   0.2375000004E+01
   0.2009500000E+01   0.9985750000E+00  -0.7798148838E-16   0.4500000000E-02  -0.6750000000E-03  -0.1165633473E-17   0.5000000000E-02  -0.7500000000E-03  -0.7681585491E-16   0.2375000003E+01   0.1372968923E-13   0.1350210253E-13  -0.9778192319E-15   0.6066528752E-16   0.1165894183E-14   0.4750000007E-02  -0.1425000002E-02  -0.1425000002E-02  -0.1915380501E-15  -0.7359412143E-18   0.6486230700E-16   0.2375000003E+01
   0.2009500000E+01   0.0000000000E+00   0.9985750000E+00   0.4500000000E-02   0.0000000000E+00  -0.6750000000E-03   0.5000000000E-02   0.0000000000E+00  -0.7500000000E-03   0.2375000003E+01   0.7314113996E-14   0.6733337526E-14  -0.1645899969E-14   0.7312533898E-15  -0.3191358294E-15   0.4750000007E-02  -0.1425000002E-02  -0.1425000002E-02   0.7790640437E-16  -0.7894300284E-16  -0.1841774471E-16   0.2375000003E+01
   0.2009500000E+01   0.9985750000E+00   0.9985750000E+00   0.4500000000E-02  -0.6750000000E-03  -0.6750000000E-03   0.5000000000E-02  -0.7500000000E-03  -0.7500000000E-03   0.2375000003E+01  -0.1046271716E-13  -0.1271493031E-13  -0.2740221935E-15  -0.1729396861E-14   0.9909503994E-18   0.4750000006E-02  -0.1425000002E-02  -0.1425000002E-02   0.1172929164E-15  -0.3902461849E-16   0.4381417801E-16   0.2375000003E+01
     1     2     3     4     5     6     7     8
     2     9    10     3     6    11    12     7
 VARIABLES = X,Y,Z,DU1,DU2,DU3,U1,U2,U3,S11,S22,S33,S12,S13,S23,E11,E22,E33,E12,E13,E23,SMISES
 ZONE, T="0.6600D+01" F=FEPOINT, I=   12 J=    2 ET=BRICK
   0.0000000000E+00   0.0000000000E+00   0.0000000000E+00   0.0000000000E+00   0.0000000000E+00   0.0000000000E+00   0.0000000000E+00   0.0000000000E+00   0.0000000000E+00   0.3500000005E+01  -0.1395775747E-13  -0.1532886470E-13   0.8137328886E-16  -0.2783183225E-15   0.1305886042E-14   0.7000000011E-02  -0.2100000003E-02  -0.2100000003E-02  -0.2260009225E-18  -0.2551867946E-16   0.5374261680E-16   0.3500000005E+01
   0.1007000000E+01   0.0000000000E+00  -0.2124196555E-16   0.2250000000E-02   0.0000000000E+00   0.1156223325E-17   0.4750000000E-02   0.0000000000E+00  -0.2239818888E-16   0.3500000005E+01   0.6845766206E-14   0.6107788399E-14  -0.5055568182E-15  -0.7054089062E-15   0.9175046690E-15   0.7000000011E-02  -0.2100000003E-02  -0.2100000003E-02   0.1056836957E-15   0.5386666691E-16   0.2281930151E-16   0.3500000005E+01
   0.1007000000E+01   0.9979000000E+00  -0.9762427717E-17   0.2250000000E-02  -0.6750000000E-03   0.9034167952E-18   0.4750000000E-02  -0.1425000000E-02  -0.1066584451E-16   0.3500000005E+01  -0.9520121906E-14  -0.1178956668E-13  -0.1352610147E-14   0.7223154195E-15  -0.8361825707E-15   0.7000000010E-02  -0.2100000003E-02  -0.2100000003E-02   0.8083928957E-16  -0.4034658984E-16  -0.2153028283E-16   0.3500000005E+01
   0.0000000000E+00   0.9979000000E+00   0.2646213865E-16   0.0000000000E+00  -0.6750000000E-03  -0.7027829301E-18   0.0000000000E+00  -0.1425000000E-02   0.2716492158E-16   0.3500000005E+01   0.9539854002E-14   0.7215770573E-14  -0.5751015585E-15  -0.9039307392E-15  -0.9147472474E-15   0.7000000010E-02  -0.2100000003E-02  -0.2100000003E-02   0.4356755834E-16  -0.5832100508E-16   0.1537133254E-16   0.3500000005E+01
   0.0000000000E+00   0.0000000000E+00   0.9979000000E+00   0.0000000000E+00   0.0000000000E+00  -0.6750000000E-03   0.0000000000E+00   0.0000000000E+00  -0.1425000000E-02   0.3500000005E+01   0.1369813650E-13   0.1530164312E-13  -0.4535293516E-16   0.1554345941E-15   0.1407801478E-14   0.7000000010E-02  -0.2100000003E-02  -0.2100000003E-02  -0.6181266735E-18  -0.1501354365E-15  -0.5105068092E-16   0.3500000005E+01
   0.1007000000E+01   0.0000000000E+00   0.9979000000E+00   0.2250000000E-02   0.0000000000E+00  -0.6750000000E-03   0.4750000000E-02   0.0000000000E+00  -0.1425000000E-02   0.3500000005E+01  -0.9956240067E-14  -0.6836336416E-14   0.7218411527E-15   0.3443715778E-15   0.1487672012E-15   0.7000000010E-02  -0.2100000003E-02  -0.2100000003E-02   0.3834990921E-16   0.2612185967E-16   0.6042884636E-16   0.3500000005E+01
   0.1007000000E+01   0.9979000000E+00   0.9979000000E+00   0.2250000000E-02  -0.6750000000E-03  -0.6750000000E-03   0.4750000000E-02  -0.1425000000E-02  -0.1425000000E-02   0.3500000005E+01   0.1185052212E-13   0.1216327054E-13   0.1788589309E-14   0.2026271226E-15  -0.6715120823E-15   0.7000000009E-02  -0.2100000003E-02  -0.2100000003E-02   0.5824892402E-16  -0.2522030458E-16   0.1716950417E-16   0.3500000005E+01
   0.0000000000E+00   0.9979000000E+00   0.9979000000E+00   0.0000000000E+00  -0.6750000000E-03  -0.6750000000E-03   0.0000000000E+00  -0.1425000000E-02  -0.1425000000E-02   0.3500000005E+01  -0.9147824345E-14  -0.6339939640E-14   0.1427940720E-16  -0.4791455808E-15  -0.1617959663E-14   0.7000000009E-02  -0.2100000003E-02  -0.2100000003E-02   0.9987045855E-17   0.7003420322E-17  -0.8602760851E-16   0.3500000005E+01
   0.2014000000E+01   0.0000000000E+00  -0.7618794963E-16   0.4500000000E-02   0.0000000000E+00   0.3242136925E-17   0.9500000000E-02   0.0000000000E+00  -0.7943008655E-16   0.3500000005E+01  -0.8299997024E-14  -0.6111096913E-14  -0.9171614770E-15   0.9880879192E-15  -0.1077127456E-15   0.7000000011E-02  -0.2100000003E-02  -0.2100000003E-02  -0.1010659741E-15  -0.1482401986E-15   0.3299544971E-17   0.3500000005E+01
   0.2014000000E+01   0.9979000000E+00  -0.7450549926E-16   0.4500000000E-02  -0.6750000000E-03   0.3475989122E-17   0.9500000000E-02  -0.1425000000E-02  -0.7798148838E-16   0.3500000005E+01   0.1381431704E-13   0.1334028402E-13  -0.1349868709E-14   0.5482942285E-15   0.1067741821E-14   0.7000000010E-02  -0.2100000003E-02  -0.2100000003E-02  -0.1994682748E-15   0.8313444917E-17   0.6545614699E-16   0.3500000005E+01
   0.2014000000E+01   0.0000000000E+00   0.9979000000E+00   0.4500000000E-02   0.0000000000E+00  -0.6750000000E-03   0.9500000000E-02   0.0000000000E+00  -0.1425000000E-02   0.3500000005E+01   0.7451530786E-14   0.6501133705E-14  -0.1423997384E-14  -0.1577528633E-17  -0.2318633284E-15   0.7000000010E-02  -0.2100000003E-02  -0.2100000003E-02   0.7833141062E-16  -0.9431002205E-16  -0.1820174840E-16   0.3500000005E+01
   0.2014000000E+01   0.9979000000E+00   0.9979000000E+00   0.4500000000E-02  -0.6750000000E-03  -0.6750000000E-03   0.9500000000E-02  -0.1425000000E-02  -0.1425000000E-02   0.3500000004E+01  -0.1042788918E-13  -0.1298106343E-13  -0.1271173218E-15  -0.1243909524E-14  -0.9191614387E-17   0.7000000009E-02  -0.2100000003E-02  -0.2100000003E-02   0.1162660089E-15  -0.3237812255E-16   0.4425503233E-16   0.3500000004E+01
     1     2     3     4     5     6     7     8
     2     9    10     3     6    11    12     7
 VARIABLES = X,Y,Z,DU1,DU2,DU3,U1,U2,U3,S11,S22,S33,S12,S13,S23,E11,E22,E33,E12,E13,E23,SMISES
 ZONE, T="0.6650D+01" F=FEPOINT, I=   12 J=    2 ET=BRICK
   0.0000000000E+00   0.0000000000E+00   0.0000000000E+00   0.0000000000E+00   0.0000000000E+00   0.0000000000E+00   0.0000000000E+00   0.0000000000E+00   0.0000000000E+00   0.4625000007E+01  -0.1334640544E-13  -0.1514872046E-13   0.8558058681E-16  -0.4864539774E-15   0.1475512670E-14   0.9250000015E-02  -0.2775000004E-02  -0.2775000004E-02   0.1031471508E-17  -0.2715624814E-16   0.5490415092E-16   0.4625000007E+01
   0.1009250000E+01   0.0000000000E+00  -0.2255976200E-16   0.2250000000E-02   0.0000000000E+00  -0.1317796446E-17   0.7000000000E-02   0.0000000000E+00  -0.2124196555E-16   0.4625000007E+01   0.6936470000E-14   0.5799025555E-14  -0.5341571642E-15  -0.6197354745E-15   0.1112245151E-14   0.9250000014E-02  -0.2775000004E-02  -0.2775000004E-02   0.1025700865E-15   0.5047488671E-16   0.2453416453E-16   0.4625000007E+01
   0.1009250000E+01   0.9972250000E+00  -0.1009225959E-16   0.2250000000E-02  -0.6750000000E-03  -0.3298318771E-18   0.7000000000E-02  -0.2100000000E-02  -0.9762427717E-17   0.4625000007E+01  -0.9211359054E-14  -0.1161758895E-13  -0.1411744766E-14   0.5335842944E-15  -0.7884000122E-15   0.9250000013E-02  -0.2775000004E-02  -0.2775000004E-02   0.7504912096E-16  -0.3910240075E-16  -0.2094413849E-16   0.4625000007E+01
   0.0000000000E+00   0.9972250000E+00   0.2734764509E-16   0.0000000000E+00  -0.6750000000E-03   0.8855064338E-18   0.0000000000E+00  -0.2100000000E-02   0.2646213865E-16   0.4625000007E+01   0.9420665250E-14   0.6789811691E-14  -0.5483667553E-15  -0.9399683551E-15  -0.1036400094E-14   0.9250000013E-02  -0.2775000004E-02  -0.2775000004E-02   0.4635050573E-16  -0.6024054808E-16   0.1534699636E-16   0.4625000007E+01
   0.0000000000E+00   0.0000000000E+00   0.9972250000E+00   0.0000000000E+00   0.0000000000E+00  -0.6750000000E-03   0.0000000000E+00   0.0000000000E+00  -0.2100000000E-02   0.4625000007E+01   0.1380643665E-13   0.1589812098E-13  -0.7295959901E-16   0.8551407731E-16   0.1568098105E-14   0.9250000013E-02  -0.2775000004E-02  -0.2775000004E-02  -0.6650940115E-18  -0.1493485356E-15  -0.4964157359E-16   0.4625000007E+01
   0.1009250000E+01   0.0000000000E+00   0.9972250000E+00   0.2250000000E-02   0.0000000000E+00  -0.6750000000E-03   0.7000000000E-02   0.0000000000E+00  -0.2100000000E-02   0.4625000007E+01  -0.1010245502E-13  -0.6401677132E-14   0.7721563080E-15   0.4072775066E-15   0.1710743129E-15   0.9250000013E-02  -0.2775000004E-02  -0.2775000004E-02   0.3761048877E-16   0.2293905456E-16   0.6138761308E-16   0.4625000007E+01
   0.1009250000E+01   0.9972250000E+00   0.9972250000E+00   0.2250000000E-02  -0.6750000000E-03  -0.6750000000E-03   0.7000000000E-02  -0.2100000000E-02  -0.2100000000E-02   0.4625000006E+01   0.1180045531E-13   0.1171373709E-13   0.1788191055E-14   0.2291130166E-15  -0.7489103183E-15   0.9250000012E-02  -0.2775000004E-02  -0.2775000004E-02   0.6228185958E-16  -0.2854483208E-16   0.1332208785E-16   0.4625000006E+01
   0.0000000000E+00   0.9972250000E+00   0.9972250000E+00   0.0000000000E+00  -0.6750000000E-03  -0.6750000000E-03   0.0000000000E+00  -0.2100000000E-02  -0.2100000000E-02   0.4625000006E+01  -0.9497953593E-14  -0.6666298849E-14   0.1969465935E-15  -0.6038979944E-15  -0.1857720003E-14   0.9250000012E-02  -0.2775000004E-02  -0.2775000004E-02   0.9312174544E-17   0.6362931963E-17  -0.9003526112E-16   0.4625000006E+01
   0.2018500000E+01   0.0000000000E+00  -0.8027606213E-16   0.4500000000E-02   0.0000000000E+00  -0.4088112502E-17   0.1400000000E-01   0.0000000000E+00  -0.7618794963E-16   0.4625000007E+01  -0.9588371471E-14  -0.6613419420E-14  -0.2162063645E-15   0.1056635810E-14  -0.2215796322E-15   0.9250000014E-02  -0.2775000004E-02  -0.2775000004E-02  -0.8659418602E-16  -0.1515578328E-15   0.2318007749E-17   0.4625000007E+01
   0.2018500000E+01   0.9972250000E+00  -0.7913776812E-16   0.4500000000E-02  -0.6750000000E-03  -0.4632268862E-17   0.1400000000E-01  -0.2100000000E-02  -0.7450549926E-16   0.4625000006E+01   0.1344877966E-13   0.1367408033E-13  -0.8927473698E-15   0.3952915845E-15   0.9558393738E-15   0.9250000013E-02  -0.2775000004E-02  -0.2775000004E-02  -0.1880027086E-15  -0.1226407744E-17   0.6371206696E-16   0.4625000006E+01
   0.2018500000E+01   0.0000000000E+00   0.9972250000E+00   0.4500000000E-02   0.0000000000E+00  -0.6750000000E-03   0.1400000000E-01   0.0000000000E+00  -0.2100000000E-02   0.4625000006E+01   0.6614682610E-14   0.5671722670E-14  -0.9628097426E-15   0.7377197802E-15  -0.2961732976E-15   0.9250000013E-02  -0.2775000004E-02  -0.2775000004E-02   0.8158644862E-16  -0.7662298008E-16  -0.1894008727E-16   0.4625000006E+01
   0.2018500000E+01   0.9972250000E+00   0.9972250000E+00   0.4500000000E-02  -0.6750000000E-03  -0.6750000000E-03   0.1400000000E-01  -0.2100000000E-02  -0.2100000000E-02   0.4625000006E+01  -0.9704056134E-14  -0.1192615625E-13   0.3429302251E-15  -0.1384350780E-14  -0.1120095154E-15   0.9250000012E-02  -0.2775000004E-02  -0.2775000004E-02   0.1237070972E-15  -0.3932304678E-16   0.4336242363E-16   0.4625000006E+01
     1     2     3     4     5     6     7     8
     2     9    10     3     6    11    12     7
 VARIABLES = X,Y,Z,DU1,DU2,DU3,U1,U2,U3,S11,S22,S33,S12,S13,S23,E11,E22,E33,E12,E13,E23,SMISES
 ZONE, T="0.6700D+01" F=FEPOINT, I=   12 J=    2 ET=BRICK
   0.0000000000E+00   0.0000000000E+00   0.0000000000E+00   0.0000000000E+00   0.0000000000E+00   0.0000000000E+00   0.0000000000E+00   0.0000000000E+00   0.0000000000E+00   0.5750000009E+01  -0.1380682759E-13  -0.1524486865E-13   0.7565028268E-16  -0.2857369786E-15   0.1432491163E-14   0.1150000002E-01  -0.3450000005E-02  -0.3450000005E-02  -0.8473717238E-18  -0.2624296560E-16   0.5563454097E-16   0.5750000009E+01
   0.1011500000E+01   0.0000000000E+00  -0.2185979402E-16   0.2250000000E-02   0.0000000000E+00   0.6999679773E-18   0.9250000000E-02   0.0000000000E+00  -0.2255976200E-16   0.5750000009E+01   0.6229699317E-14   0.4870210292E-14   0.2346997968E-15  -0.3509437461E-15   0.8370196586E-15   0.1150000002E-01  -0.3450000005E-02  -0.3450000005E-02   0.1169273083E-15   0.5434426474E-16   0.2187891213E-16   0.5750000009E+01
   0.1011500000E+01   0.9965500000E+00  -0.1079070428E-16   0.2250000000E-02  -0.6750000000E-03  -0.6984446851E-18   0.9250000000E-02  -0.2775000000E-02  -0.1009225959E-16   0.5750000008E+01  -0.7938588282E-14  -0.1056686276E-13  -0.8564264062E-15   0.5332609092E-15  -0.1018883773E-14   0.1150000002E-01  -0.3450000005E-02  -0.3450000005E-02   0.8822403745E-16  -0.4146699005E-16  -0.2293041355E-16   0.5750000008E+01
   0.0000000000E+00   0.9965500000E+00   0.2711153028E-16   0.0000000000E+00  -0.6750000000E-03  -0.2361148110E-18   0.0000000000E+00  -0.2775000000E-02   0.2734764509E-16   0.5750000008E+01   0.9335405830E-14   0.6447315007E-14  -0.4691577387E-15  -0.1156832531E-14  -0.8648847299E-15   0.1150000002E-01  -0.3450000005E-02  -0.3450000005E-02   0.4503753512E-16  -0.6188029302E-16   0.1476667277E-16   0.5750000008E+01
   0.0000000000E+00   0.0000000000E+00   0.9965500000E+00   0.0000000000E+00   0.0000000000E+00  -0.6750000000E-03   0.0000000000E+00   0.0000000000E+00  -0.2775000000E-02   0.5750000008E+01   0.1374003689E-13   0.1504912084E-13  -0.7566946606E-16   0.3099013977E-15   0.1486681376E-14   0.1150000002E-01  -0.3450000005E-02  -0.3450000005E-02   0.8562893609E-18  -0.1479109946E-15  -0.5216209783E-16   0.5750000008E+01
   0.1011500000E+01   0.0000000000E+00   0.9965500000E+00   0.2250000000E-02   0.0000000000E+00  -0.6750000000E-03   0.9250000000E-02   0.0000000000E+00  -0.2775000000E-02   0.5750000008E+01  -0.9355047366E-14  -0.5735543450E-14   0.1110739218E-14   0.3498317428E-15  -0.1164938396E-15   0.1150000002E-01  -0.3450000005E-02  -0.3450000005E-02   0.4004737717E-16   0.2708357677E-16   0.5746041172E-16   0.5750000008E+01
   0.1011500000E+01   0.9965500000E+00   0.9965500000E+00   0.2250000000E-02  -0.6750000000E-03  -0.6750000000E-03   0.9250000000E-02  -0.2775000000E-02  -0.2775000000E-02   0.5750000008E+01   0.1095291403E-13   0.1078492183E-13   0.1886461704E-14   0.3055659664E-15  -0.1034957030E-14   0.1150000002E-01  -0.3450000005E-02  -0.3450000005E-02   0.6020265280E-16  -0.3194698424E-16   0.1199004272E-16   0.5750000008E+01
   0.0000000000E+00   0.9965500000E+00   0.9965500000E+00   0.0000000000E+00  -0.6750000000E-03  -0.6750000000E-03   0.0000000000E+00  -0.2775000000E-02  -0.2775000000E-02   0.5750000008E+01  -0.8401146060E-14  -0.6185558284E-14   0.1721555415E-16  -0.8962889424E-15  -0.1806639712E-14   0.1150000002E-01  -0.3450000005E-02  -0.3450000005E-02   0.8257115771E-17   0.3989877319E-17  -0.8542024061E-16   0.5750000008E+01
   0.2023000000E+01   0.0000000000E+00  -0.8126127128E-16   0.4500000000E-02   0.0000000000E+00  -0.9852091489E-18   0.1850000000E-01   0.0000000000E+00  -0.8027606213E-16   0.5750000009E+01  -0.1120762449E-13  -0.7990309334E-14   0.1953232093E-14   0.2169008983E-14   0.2703776678E-15   0.1150000002E-01  -0.3450000005E-02  -0.3450000005E-02  -0.6567948381E-16  -0.1649690028E-15   0.6270898768E-17   0.5750000009E+01
   0.2023000000E+01   0.9965500000E+00  -0.7756032216E-16   0.4500000000E-02  -0.6750000000E-03   0.1577445966E-17   0.1850000000E-01  -0.2775000000E-02  -0.7913776812E-16   0.5750000008E+01   0.1425966947E-13   0.1534884446E-13   0.9128436466E-15  -0.1148160387E-14   0.1546468644E-14   0.1150000002E-01  -0.3450000005E-02  -0.3450000005E-02  -0.1690697620E-15  -0.7987394376E-17   0.7071009016E-16   0.5750000008E+01
   0.2023000000E+01   0.0000000000E+00   0.9965500000E+00   0.4500000000E-02   0.0000000000E+00  -0.6750000000E-03   0.1850000000E-01   0.0000000000E+00  -0.2775000000E-02   0.5750000008E+01   0.7688253960E-14   0.7083805236E-14  -0.2199097656E-14   0.2126612450E-14   0.1465363407E-15   0.1150000002E-01  -0.3450000005E-02  -0.3450000005E-02   0.6986640330E-16  -0.7417486594E-16  -0.1297554133E-16   0.5750000008E+01
   0.2023000000E+01   0.9965500000E+00   0.9965500000E+00   0.4500000000E-02  -0.6750000000E-03  -0.6750000000E-03   0.1850000000E-01  -0.2775000000E-02  -0.2775000000E-02   0.5750000007E+01  -0.1182981261E-13  -0.1387993492E-13  -0.1247663276E-14  -0.2924189565E-14   0.4453446225E-15   0.1150000001E-01  -0.3450000004E-02  -0.3450000004E-02   0.9929709129E-16  -0.5764835822E-16   0.4974998856E-16   0.5750000007E+01
     1     2     3     4     5     6     7     8
     2     9    10     3     6    11    12     7
 VARIABLES = X,Y,Z,DU1,DU2,DU3,U1,U2,U3,S11,S22,S33,S12,S13,S23,E11,E22,E33,E12,E13,E23,SMISES
 ZONE, T="0.6750D+01" F=FEPOINT, I=   12 J=    2 ET=BRICK
   0.0000000000E+00   0.0000000000E+00   0.0000000000E+00   0.0000000000E+00   0.0000000000E+00   0.0000000000E+00   0.0000000000E+00   0.0000000000E+00   0.0000000000E+00   0.6875000011E+01  -0.1500921307E-13  -0.1591372448E-13   0.7977379314E-16  -0.6851468610E-15   0.1353353709E-14   0.1375000002E-01  -0.4125000006E-02  -0.4125000006E-02  -0.3686633838E-18  -0.3007206117E-16   0.5287948398E-16   0.6875000011E+01
   0.1013750000E+01   0.0000000000E+00  -0.2328974770E-16   0.2250000000E-02   0.0000000000E+00  -0.1429953679E-17   0.1150000000E-01   0.0000000000E+00  -0.2185979402E-16   0.6875000011E+01   0.7128766212E-14   0.5926380828E-14  -0.1000638248E-17  -0.4248143982E-16   0.9965358621E-15   0.1375000002E-01  -0.4125000006E-02  -0.4125000006E-02   0.1135563128E-15   0.5954283667E-16   0.2407623969E-16   0.6875000011E+01
   0.1013750000E+01   0.9958750000E+00  -0.1133532494E-16   0.2250000000E-02  -0.6750000000E-03  -0.5446206624E-18   0.1150000000E-01  -0.3450000000E-02  -0.1079070428E-16   0.6875000010E+01  -0.9858633076E-14  -0.1216327055E-13  -0.9976826904E-15   0.3167131081E-15  -0.6978280623E-15   0.1375000002E-01  -0.4125000006E-02  -0.4125000006E-02   0.8347736505E-16  -0.4736886083E-16  -0.1823951429E-16   0.6875000010E+01
   0.0000000000E+00   0.9958750000E+00   0.2652118165E-16   0.0000000000E+00  -0.6750000000E-03  -0.5903486229E-18   0.0000000000E+00  -0.3450000000E-02   0.2711153028E-16   0.6875000010E+01   0.9376042644E-14   0.6739015368E-14  -0.7256264190E-15  -0.9810664892E-15  -0.1169961030E-14   0.1375000002E-01  -0.4125000006E-02  -0.4125000006E-02   0.4234141080E-16  -0.5840958248E-16   0.1557753931E-16   0.6875000010E+01
   0.0000000000E+00   0.0000000000E+00   0.9958750000E+00   0.0000000000E+00   0.0000000000E+00  -0.6750000000E-03   0.0000000000E+00   0.0000000000E+00  -0.3450000000E-02   0.6875000010E+01   0.1439965829E-13   0.1647573907E-13  -0.1166634951E-15   0.1301102892E-15   0.1532606946E-14   0.1375000002E-01  -0.4125000006E-02  -0.4125000006E-02   0.3211024605E-18  -0.1517844675E-15  -0.4665056330E-16   0.6875000010E+01
   0.1013750000E+01   0.0000000000E+00   0.9958750000E+00   0.2250000000E-02   0.0000000000E+00  -0.6750000000E-03   0.1150000000E-01   0.0000000000E+00  -0.3450000000E-02   0.6875000010E+01  -0.9961684378E-14  -0.5896632502E-14   0.5842684211E-15   0.5314421914E-15   0.1339134730E-17   0.1375000002E-01  -0.4125000006E-02  -0.4125000006E-02   0.3404759005E-16   0.3293532526E-16   0.5818014196E-16   0.6875000010E+01
   0.1013750000E+01   0.9958750000E+00   0.9958750000E+00   0.2250000000E-02  -0.6750000000E-03  -0.6750000000E-03   0.1150000000E-01  -0.3450000000E-02  -0.3450000000E-02   0.6875000009E+01   0.1192236622E-13   0.1166765576E-13   0.1365637970E-14   0.1360084672E-15  -0.7485185309E-15   0.1375000002E-01  -0.4125000005E-02  -0.4125000005E-02   0.5812380775E-16  -0.3581381135E-16   0.1603075778E-16   0.6875000009E+01
   0.0000000000E+00   0.9958750000E+00   0.9958750000E+00   0.0000000000E+00  -0.6750000000E-03  -0.6750000000E-03   0.0000000000E+00  -0.3450000000E-02  -0.3450000000E-02   0.6875000009E+01  -0.9638724190E-14  -0.7799562392E-14   0.1854430390E-15  -0.9130155078E-15  -0.1929738737E-14   0.1375000002E-01  -0.4125000006E-02  -0.4125000006E-02   0.1026318481E-16   0.6582046714E-17  -0.8931455722E-16   0.6875000009E+01
   0.2027500000E+01   0.0000000000E+00  -0.8255172553E-16   0.4500000000E-02   0.0000000000E+00  -0.1290454254E-17   0.2300000000E-01   0.0000000000E+00  -0.8126127128E-16   0.6875000010E+01  -0.8835519377E-14  -0.4979096738E-14  -0.4771849664E-15   0.4756060306E-15   0.2944960807E-16   0.1375000002E-01  -0.4125000006E-02  -0.4125000006E-02  -0.9301859462E-16  -0.1547574601E-15   0.4051415894E-17   0.6875000010E+01
   0.2027500000E+01   0.9958750000E+00  -0.8020629153E-16   0.4500000000E-02  -0.6750000000E-03  -0.2645969373E-17   0.2300000000E-01  -0.3450000000E-02  -0.7756032216E-16   0.6875000010E+01   0.1454412841E-13   0.1415807710E-13  -0.1050201757E-14   0.5069714986E-15   0.1086796850E-14   0.1375000002E-01  -0.4125000006E-02  -0.4125000006E-02  -0.1907320958E-15   0.1565585316E-16   0.6654544285E-16   0.6875000010E+01
   0.2027500000E+01   0.0000000000E+00   0.9958750000E+00   0.4500000000E-02   0.0000000000E+00  -0.6750000000E-03   0.2300000000E-01   0.0000000000E+00  -0.3450000000E-02   0.6875000010E+01   0.6649875293E-14   0.4964222610E-14  -0.9187823357E-15   0.6887007835E-15  -0.1583757878E-15   0.1375000002E-01  -0.4125000006E-02  -0.4125000006E-02   0.7516849637E-16  -0.8115445052E-16  -0.1654261251E-16   0.6875000010E+01
   0.2027500000E+01   0.9958750000E+00   0.9958750000E+00   0.4500000000E-02  -0.6750000000E-03  -0.6750000000E-03   0.2300000000E-01  -0.3450000000E-02  -0.3450000000E-02   0.6875000009E+01  -0.9947877959E-14  -0.1226884841E-13   0.1471915657E-15  -0.1584373862E-14  -0.3988146228E-16   0.1375000002E-01  -0.4125000005E-02  -0.4125000005E-02   0.1197304747E-15  -0.2738751831E-16   0.4622378777E-16   0.6875000009E+01
     1     2     3     4     5     6     7     8
     2     9    10     3     6    11    12     7
 VARIABLES = X,Y,Z,DU1,DU2,DU3,U1,U2,U3,S11,S22,S33,S12,S13,S23,E11,E22,E33,E12,E13,E23,SMISES
 ZONE, T="0.6800D+01" F=FEPOINT, I=   12 J=    2 ET=BRICK
   0.0000000000E+00   0.0000000000E+00   0.0000000000E+00   0.0000000000E+00   0.0000000000E+00   0.0000000000E+00   0.0000000000E+00   0.0000000000E+00   0.0000000000E+00   0.8000000013E+01  -0.1470589445E-13  -0.1589885031E-13   0.7464751086E-16  -0.3720976450E-15   0.1441621022E-14   0.1600000003E-01  -0.4800000008E-02  -0.4800000008E-02   0.9962444461E-18  -0.2397163512E-16   0.5401225123E-16   0.8000000013E+01
   0.1016000000E+01   0.0000000000E+00  -0.2199366653E-16   0.2250000000E-02   0.0000000000E+00   0.1296081172E-17   0.1375000000E-01   0.0000000000E+00  -0.2328974770E-16   0.8000000012E+01   0.7432084769E-14   0.5512039994E-14   0.6012872720E-15  -0.4503160091E-16   0.9381866190E-15   0.1600000002E-01  -0.4800000007E-02  -0.4800000007E-02   0.1136135160E-15   0.5579377530E-16   0.2123953934E-16   0.8000000012E+01
   0.1016000000E+01   0.9952000000E+00  -0.1040776283E-16   0.2250000000E-02  -0.6750000000E-03   0.9275621109E-18   0.1375000000E-01  -0.4125000000E-02  -0.1133532494E-16   0.8000000011E+01  -0.8889180803E-14  -0.1152688516E-13  -0.5463964107E-15   0.6399676659E-16  -0.9725085964E-15   0.1600000002E-01  -0.4800000007E-02  -0.4800000007E-02   0.8547416565E-16  -0.5265090225E-16  -0.2205717667E-16   0.8000000011E+01
   0.0000000000E+00   0.9952000000E+00   0.2704986805E-16   0.0000000000E+00  -0.6750000000E-03   0.5286863942E-18   0.0000000000E+00  -0.4125000000E-02   0.2652118165E-16   0.8000000012E+01   0.1058931692E-13   0.7382303966E-14  -0.7639307890E-15  -0.9255174392E-15  -0.1066591113E-14   0.1600000002E-01  -0.4800000007E-02  -0.4800000007E-02   0.4488059203E-16  -0.5713094235E-16   0.1994003932E-16   0.8000000012E+01
   0.0000000000E+00   0.0000000000E+00   0.9952000000E+00   0.0000000000E+00   0.0000000000E+00  -0.6750000000E-03   0.0000000000E+00   0.0000000000E+00  -0.4125000000E-02   0.8000000012E+01   0.1474069626E-13   0.1617640607E-13  -0.1390323407E-15   0.1085590923E-15   0.1521975322E-14   0.1600000002E-01  -0.4800000007E-02  -0.4800000007E-02  -0.1792497086E-17  -0.1466542740E-15  -0.5012593786E-16   0.8000000012E+01
   0.1016000000E+01   0.0000000000E+00   0.9952000000E+00   0.2250000000E-02   0.0000000000E+00  -0.6750000000E-03   0.1375000000E-01   0.0000000000E+00  -0.4125000000E-02   0.8000000011E+01  -0.1004295833E-13  -0.6170202734E-14   0.9647402376E-15   0.7351064479E-15   0.9080039023E-16   0.1600000002E-01  -0.4800000007E-02  -0.4800000007E-02   0.4108909142E-16   0.2065011285E-16   0.6323005558E-16   0.8000000011E+01
   0.1016000000E+01   0.9952000000E+00   0.9952000000E+00   0.2250000000E-02  -0.6750000000E-03  -0.6750000000E-03   0.1375000000E-01  -0.4125000000E-02  -0.4125000000E-02   0.8000000010E+01   0.1117495856E-13   0.1111254433E-13   0.1569254085E-14  -0.2816378319E-16  -0.8360953526E-15   0.1600000002E-01  -0.4800000006E-02  -0.4800000006E-02   0.6054365039E-16  -0.3370534290E-16   0.1241052906E-16   0.8000000010E+01
   0.0000000000E+00   0.9952000000E+00   0.9952000000E+00   0.0000000000E+00  -0.6750000000E-03  -0.6750000000E-03   0.0000000000E+00  -0.4125000000E-02  -0.4125000000E-02   0.8000000011E+01  -0.8143908735E-14  -0.6804347288E-14  -0.6000460798E-16  -0.7190713493E-15  -0.2074417952E-14   0.1600000002E-01  -0.4800000006E-02  -0.4800000006E-02   0.4985454803E-17   0.8590132796E-17  -0.8830876016E-16   0.8000000011E+01
   0.2032000000E+01   0.0000000000E+00  -0.8093428472E-16   0.4500000000E-02   0.0000000000E+00   0.1617440814E-17   0.2750000000E-01   0.0000000000E+00  -0.8255172553E-16   0.8000000012E+01  -0.9864468315E-14  -0.6104193792E-14   0.1127480020E-15   0.1236663712E-14   0.6679324689E-16   0.1600000002E-01  -0.4800000007E-02  -0.4800000007E-02  -0.9417210575E-16  -0.1668270906E-15   0.5077140839E-17   0.8000000012E+01
   0.2032000000E+01   0.9952000000E+00  -0.7832132094E-16   0.4500000000E-02  -0.6750000000E-03   0.1884970591E-17   0.2750000000E-01  -0.4125000000E-02  -0.8020629153E-16   0.8000000011E+01   0.1393749125E-13   0.1450601808E-13  -0.7996828178E-15  -0.1778121736E-15   0.1260602528E-14   0.1600000002E-01  -0.4800000007E-02  -0.4800000007E-02  -0.1945165772E-15   0.1860897206E-16   0.6840736382E-16   0.8000000011E+01
   0.2032000000E+01   0.0000000000E+00   0.9952000000E+00   0.4500000000E-02   0.0000000000E+00  -0.6750000000E-03   0.2750000000E-01   0.0000000000E+00  -0.4125000000E-02   0.8000000011E+01   0.7478556850E-14   0.5767141377E-14  -0.1775250342E-14   0.1028405602E-14   0.1644563158E-15   0.1600000002E-01  -0.4800000007E-02  -0.4800000007E-02   0.8303622148E-16  -0.8443116040E-16  -0.1232328944E-16   0.8000000011E+01
   0.2032000000E+01   0.9952000000E+00   0.9952000000E+00   0.4500000000E-02  -0.6750000000E-03  -0.6750000000E-03   0.2750000000E-01  -0.4125000000E-02  -0.4125000000E-02   0.8000000010E+01  -0.1160524132E-13  -0.1332356017E-13  -0.6226801751E-15  -0.1838087091E-14   0.3492176893E-15   0.1600000002E-01  -0.4800000006E-02  -0.4800000006E-02   0.1044932381E-15  -0.3210652494E-16   0.4845201969E-16   0.8000000010E+01
     1     2     3     4     5     6     7     8
     2     9    10     3     6    11    12     7
 VARIABLES = X,Y,Z,DU1,DU2,DU3,U1,U2,U3,S11,S22,S33,S12,S13,S23,E11,E22,E33,E12,E13,E23,SMISES
 ZONE, T="0.6850D+01" F=FEPOINT, I=   12 J=    2 ET=BRICK
   0.0000000000E+00   0.0000000000E+00   0.0000000000E+00   0.0000000000E+00   0.0000000000E+00   0.0000000000E+00   0.0000000000E+00   0.0000000000E+00   0.0000000000E+00   0.9125000014E+01  -0.1449075310E-13  -0.1507707183E-13   0.9462704272E-16  -0.5929756113E-15   0.1768612976E-14   0.1825000003E-01  -0.5475000009E-02  -0.5475000009E-02  -0.3124731702E-19  -0.3110925752E-16   0.5633311465E-16   0.9125000014E+01
   0.1018250000E+01   0.0000000000E+00  -0.2390281434E-16   0.2250000000E-02   0.0000000000E+00  -0.1909147810E-17   0.1600000000E-01   0.0000000000E+00  -0.2199366653E-16   0.9125000014E+01   0.6795699329E-14   0.5097699159E-14  -0.6279634365E-15  -0.7390587662E-15   0.1003586040E-14   0.1825000003E-01  -0.5475000008E-02  -0.5475000008E-02   0.1062888175E-15   0.4941882032E-16   0.2434625604E-16   0.9125000014E+01
   0.1018250000E+01   0.9945250000E+00  -0.1202385138E-16   0.2250000000E-02  -0.6750000000E-03  -0.1616088549E-17   0.1600000000E-01  -0.4800000000E-02  -0.1040776283E-16   0.9125000013E+01  -0.9525566243E-14  -0.1194122600E-13  -0.1685206004E-14   0.1065067364E-14  -0.9889555594E-15   0.1825000003E-01  -0.5475000008E-02  -0.5475000008E-02   0.8148065159E-16  -0.3143927151E-16  -0.2521778042E-16   0.9125000013E+01
   0.0000000000E+00   0.9945250000E+00   0.2887551507E-16   0.0000000000E+00  -0.6750000000E-03   0.1825647020E-17   0.0000000000E+00  -0.4800000000E-02   0.2704986805E-16   0.9125000013E+01   0.8806057101E-14   0.5961859438E-14  -0.8535944509E-15  -0.1452008445E-14  -0.1105029426E-14   0.1825000003E-01  -0.5475000008E-02  -0.5475000008E-02   0.4351576201E-16  -0.6558502284E-16   0.1890553642E-16   0.9125000013E+01
   0.0000000000E+00   0.0000000000E+00   0.9945250000E+00   0.0000000000E+00   0.0000000000E+00  -0.6750000000E-03   0.0000000000E+00   0.0000000000E+00  -0.4800000000E-02   0.9125000013E+01   0.1390005805E-13   0.1543590160E-13  -0.1436800927E-15  -0.1639533357E-16   0.1938233150E-14   0.1825000003E-01  -0.5475000008E-02  -0.5475000008E-02   0.4943420926E-18  -0.1545134383E-15  -0.4497128430E-16   0.9125000013E+01
   0.1018250000E+01   0.0000000000E+00   0.9945250000E+00   0.2250000000E-02   0.0000000000E+00  -0.6750000000E-03   0.1600000000E-01   0.0000000000E+00  -0.4800000000E-02   0.9125000013E+01  -0.9769388148E-14  -0.5149224835E-14   0.1744881627E-14  -0.5719741367E-16   0.2103169020E-15   0.1825000003E-01  -0.5475000008E-02  -0.5475000008E-02   0.4176495284E-16   0.2749839485E-16   0.5922445390E-16   0.9125000013E+01
   0.1018250000E+01   0.9945250000E+00   0.9945250000E+00   0.2250000000E-02  -0.6750000000E-03  -0.6750000000E-03   0.1600000000E-01  -0.4800000000E-02  -0.4800000000E-02   0.9125000012E+01   0.1144852874E-13   0.1146738851E-13   0.2523909047E-14   0.8836198760E-15  -0.8325529281E-15   0.1825000002E-01  -0.5475000007E-02  -0.5475000007E-02   0.6131054793E-16  -0.4064441897E-16   0.1522910296E-16   0.9125000012E+01
   0.0000000000E+00   0.9945250000E+00   0.9945250000E+00   0.0000000000E+00  -0.6750000000E-03  -0.6750000000E-03   0.0000000000E+00  -0.4800000000E-02  -0.4800000000E-02   0.9125000012E+01  -0.8139923287E-14  -0.5457205679E-14   0.2820955897E-15  -0.1153276512E-14  -0.2096733254E-14   0.1825000002E-01  -0.5475000007E-02  -0.5475000007E-02   0.1059837224E-16   0.7638215734E-17  -0.9057571439E-16   0.9125000012E+01
   0.2036500000E+01   0.0000000000E+00  -0.8852015882E-16   0.4500000000E-02   0.0000000000E+00  -0.7585874105E-17   0.3200000000E-01   0.0000000000E+00  -0.8093428472E-16   0.9125000014E+01  -0.1107083934E-13  -0.8523838955E-14   0.1433914273E-15   0.1502705551E-14  -0.6139515108E-16   0.1825000003E-01  -0.5475000008E-02  -0.5475000008E-02  -0.8845477012E-16  -0.1405087179E-15   0.4996117611E-17   0.9125000014E+01
   0.2036500000E+01   0.9945250000E+00  -0.8656256197E-16   0.4500000000E-02  -0.6750000000E-03  -0.8241241033E-17   0.3200000000E-01  -0.4800000000E-02  -0.7832132094E-16   0.9125000013E+01   0.1472952139E-13   0.1566086335E-13  -0.5240927675E-15   0.2131294367E-15   0.1020903177E-14   0.1825000003E-01  -0.5475000008E-02  -0.5475000008E-02  -0.1907319713E-15  -0.7420073448E-17   0.6520455821E-16   0.9125000013E+01
   0.2036500000E+01   0.0000000000E+00   0.9945250000E+00   0.4500000000E-02   0.0000000000E+00  -0.6750000000E-03   0.3200000000E-01   0.0000000000E+00  -0.4800000000E-02   0.9125000013E+01   0.7815609202E-14   0.6448149196E-14  -0.1766306387E-14   0.1458397360E-14  -0.1381117785E-15   0.1825000003E-01  -0.5475000008E-02  -0.5475000008E-02   0.6120157610E-16  -0.7538022004E-16  -0.1735300595E-16   0.9125000013E+01
   0.2036500000E+01   0.9945250000E+00   0.9945250000E+00   0.4500000000E-02  -0.6750000000E-03  -0.6750000000E-03   0.3200000000E-01  -0.4800000000E-02  -0.4800000000E-02   0.9125000012E+01  -0.1211281263E-13  -0.1473019843E-13  -0.5893497918E-15  -0.1830429322E-14  -0.3292197192E-16   0.1825000002E-01  -0.5475000007E-02  -0.5475000007E-02   0.1072714810E-15  -0.2940578752E-16   0.4544467454E-16   0.9125000012E+01
     1     2     3     4     5     6     7     8
     2     9    10     3     6    11    12     7
 VARIABLES = X,Y,Z,DU1,DU2,DU3,U1,U2,U3,S11,S22,S33,S12,S13,S23,E11,E22,E33,E12,E13,E23,SMISES
 ZONE, T="0.6900D+01" F=FEPOINT, I=   12 J=    2 ET=BRICK
   0.0000000000E+00   0.0000000000E+00   0.0000000000E+00   0.0000000000E+00   0.0000000000E+00   0.0000000000E+00   0.0000000000E+00   0.0000000000E+00   0.0000000000E+00   0.1025000002E+02  -0.1338704257E-13  -0.1354016074E-13   0.1698520260E-15   0.5824393925E-16   0.1999780737E-14   0.2550000004E-01  -0.8650000014E-02  -0.8650000014E-02   0.1156497180E-17  -0.2596659952E-16   0.6624783121E-16   0.1025000002E+02
   0.1025500000E+01   0.0000000000E+00  -0.2123713720E-16   0.7250000000E-02   0.0000000000E+00   0.2665677138E-17   0.1825000000E-01   0.0000000000E+00  -0.2390281434E-16   0.1025000002E+02   0.8190381146E-14   0.5663699288E-14  -0.5192846258E-15  -0.4721231900E-15   0.1390227452E-14   0.2550000004E-01  -0.8650000013E-02  -0.8650000013E-02   0.1101096256E-15   0.6053909788E-16   0.3006048236E-16   0.1025000002E+02
   0.1025500000E+01   0.9913500000E+00  -0.5940913363E-17   0.7250000000E-02  -0.3175000000E-02   0.6082938016E-17   0.1825000000E-01  -0.5475000000E-02  -0.1202385138E-16   0.1025000001E+02  -0.6747091386E-14  -0.1009448404E-13  -0.1467979804E-14   0.9736289570E-15  -0.1494658420E-14   0.2550000004E-01  -0.8650000012E-02  -0.8650000012E-02   0.8123310702E-16  -0.4462285582E-16  -0.2946263801E-16   0.1025000001E+02
   0.0000000000E+00   0.9913500000E+00   0.3297459852E-16   0.0000000000E+00  -0.3175000000E-02   0.4099083451E-17   0.0000000000E+00  -0.5475000000E-02   0.2887551507E-16   0.1025000001E+02   0.6707913229E-14   0.4259196639E-14  -0.5603766561E-16  -0.7214211364E-15   0.4953119420E-17   0.2550000004E-01  -0.8650000013E-02  -0.8650000013E-02   0.5409786979E-16  -0.5086966231E-16   0.2677080751E-16   0.1025000001E+02
   0.0000000000E+00   0.0000000000E+00   0.9913500000E+00   0.0000000000E+00   0.0000000000E+00  -0.3175000000E-02   0.0000000000E+00   0.0000000000E+00  -0.5475000000E-02   0.1025000001E+02   0.1025479115E-13   0.1395450138E-13  -0.4276151258E-16  -0.4414678195E-15   0.1590890922E-14   0.2550000004E-01  -0.8650000013E-02  -0.8650000013E-02  -0.1666962456E-17  -0.1520679194E-15  -0.5030036535E-16   0.1025000001E+02
   0.1025500000E+01   0.0000000000E+00   0.9913500000E+00   0.7250000000E-02   0.0000000000E+00  -0.3175000000E-02   0.1825000000E-01   0.0000000000E+00  -0.5475000000E-02   0.1025000001E+02  -0.1094999629E-13  -0.7158514574E-14   0.1531168759E-14  -0.3893011258E-15   0.7904508075E-15   0.2550000004E-01  -0.8650000012E-02  -0.8650000012E-02   0.5735848529E-16   0.1404936317E-16   0.7098039713E-16   0.1025000001E+02
   0.1025500000E+01   0.9913500000E+00   0.9913500000E+00   0.7250000000E-02  -0.3175000000E-02  -0.3175000000E-02   0.1825000000E-01  -0.5475000000E-02  -0.5475000000E-02   0.1025000001E+02   0.1140789182E-13   0.1231492984E-13   0.1826670072E-14   0.5303527934E-15  -0.1009072593E-14   0.2550000003E-01  -0.8650000011E-02  -0.8650000011E-02   0.6849055562E-16  -0.1999786475E-16   0.6079792519E-17   0.1025000001E+02
   0.0000000000E+00   0.9913500000E+00   0.9913500000E+00   0.0000000000E+00  -0.3175000000E-02  -0.3175000000E-02   0.0000000000E+00  -0.5475000000E-02  -0.5475000000E-02   0.1025000001E+02  -0.8447618465E-14  -0.7278575830E-14  -0.8551136539E-15  -0.4087115325E-15  -0.1901584846E-14   0.2550000003E-01  -0.8650000012E-02  -0.8650000012E-02  -0.4290167365E-17   0.4546342839E-17  -0.8474687715E-16   0.1025000001E+02
   0.2051000000E+01   0.0000000000E+00  -0.8864406631E-16   0.1450000000E-01   0.0000000000E+00  -0.1239074838E-18   0.3650000000E-01   0.0000000000E+00  -0.8852015882E-16   0.1025000002E+02  -0.1187123128E-13  -0.7981074781E-14   0.8850371456E-15   0.1867967784E-14   0.4389876327E-15   0.2550000004E-01  -0.8650000013E-02  -0.8650000013E-02  -0.6566937519E-16  -0.1417269577E-15   0.9060218711E-17   0.1025000002E+02
   0.2051000000E+01   0.9913500000E+00  -0.8389883614E-16   0.1450000000E-01  -0.3175000000E-02   0.2663725828E-17   0.3650000000E-01  -0.5475000000E-02  -0.8656256197E-16   0.1025000001E+02   0.1408185657E-13   0.1449872411E-13  -0.9221821470E-15   0.8190962824E-15   0.1076695628E-14   0.2550000004E-01  -0.8650000012E-02  -0.8650000012E-02  -0.1846337381E-15   0.1080086464E-16   0.6754275927E-16   0.1025000001E+02
   0.2051000000E+01   0.0000000000E+00   0.9913500000E+00   0.1450000000E-01   0.0000000000E+00  -0.3175000000E-02   0.3650000000E-01   0.0000000000E+00  -0.5475000000E-02   0.1025000001E+02   0.1278730830E-13   0.1200762574E-13  -0.1660386506E-14   0.2332770058E-14  -0.2494561148E-15   0.2550000004E-01  -0.8650000012E-02  -0.8650000012E-02   0.5822000642E-16  -0.3802065638E-16  -0.1402064349E-16   0.1025000001E+02
   0.2051000000E+01   0.9913500000E+00   0.9913500000E+00   0.1450000000E-01  -0.3175000000E-02  -0.3175000000E-02   0.3650000000E-01  -0.5475000000E-02  -0.5475000000E-02   0.1025000001E+02  -0.1170790147E-13  -0.1293060546E-13  -0.2587033298E-15  -0.2304454405E-14  -0.2912687136E-15   0.2550000003E-01  -0.8650000011E-02  -0.8650000011E-02   0.1108929413E-15  -0.3407407011E-16   0.4416903251E-16   0.1025000001E+02
     1     2     3     4     5     6     7     8
     2     9    10     3     6    11    12     7
 VARIABLES = X,Y,Z,DU1,DU2,DU3,U1,U2,U3,S11,S22,S33,S12,S13,S23,E11,E22,E33,E12,E13,E23,SMISES
 ZONE, T="0.6950D+01" F=FEPOINT, I=   12 J=    2 ET=BRICK
   0.0000000000E+00   0.0000000000E+00   0.0000000000E+00   0.0000000000E+00   0.0000000000E+00   0.0000000000E+00   0.0000000000E+00   0.0000000000E+00   0.0000000000E+00   0.1137500002E+02  -0.1195065587E-13  -0.1445993695E-13   0.1092355998E-15  -0.1854668872E-14  -0.5312522978E-16   0.5025000008E-01  -0.2057500003E-01  -0.2057500003E-01   0.3764924507E-17  -0.5079530224E-16   0.4284415827E-16   0.1137500002E+02
   0.1050250000E+01   0.0000000000E+00  -0.3434702519E-16   0.2475000000E-01   0.0000000000E+00  -0.1310988799E-16   0.2550000000E-01   0.0000000000E+00  -0.2123713720E-16   0.1137500002E+02   0.9070588428E-14   0.9333269950E-14  -0.1301244272E-14  -0.1535803872E-15   0.1309074759E-15   0.5025000008E-01  -0.2057500003E-01  -0.2057500003E-01   0.7922539554E-16   0.3583025483E-16   0.1337538287E-16   0.1137500002E+02
   0.1050250000E+01   0.9794250000E+00  -0.2596953942E-16   0.2475000000E-01  -0.1192500000E-01  -0.2002862606E-16   0.2550000000E-01  -0.8650000000E-02  -0.5940913363E-17   0.1137500002E+02  -0.1279965604E-13  -0.1448384997E-13  -0.2259986163E-14   0.5683325979E-15  -0.6730421247E-15   0.5025000007E-01  -0.2057500003E-01  -0.2057500003E-01   0.4010110281E-16  -0.3775184704E-16  -0.2729441866E-16   0.1137500002E+02
   0.0000000000E+00   0.9794250000E+00   0.2023022006E-16   0.0000000000E+00  -0.1192500000E-01  -0.1274437846E-16   0.0000000000E+00  -0.8650000000E-02   0.3297459852E-16   0.1137500002E+02   0.8726242192E-14   0.9343376922E-14  -0.1211152353E-14  -0.1166221041E-14  -0.2068604844E-14   0.5025000007E-01  -0.2057500003E-01  -0.2057500003E-01   0.2742017408E-16  -0.7565872083E-16  -0.2171561131E-16   0.1137500002E+02
   0.0000000000E+00   0.0000000000E+00   0.9794250000E+00   0.0000000000E+00   0.0000000000E+00  -0.1192500000E-01   0.0000000000E+00   0.0000000000E+00  -0.8650000000E-02   0.1137500002E+02   0.1038652328E-13   0.9807107893E-14   0.2312875807E-16  -0.3123907156E-15   0.1566466897E-14   0.5025000007E-01  -0.2057500003E-01  -0.2057500003E-01  -0.1266823398E-17  -0.1536301463E-15  -0.3157215955E-16   0.1137500002E+02
   0.1050250000E+01   0.0000000000E+00   0.9794250000E+00   0.2475000000E-01   0.0000000000E+00  -0.1192500000E-01   0.2550000000E-01   0.0000000000E+00  -0.8650000000E-02   0.1137500002E+02  -0.8352929235E-14  -0.6181091475E-14   0.1349516972E-15  -0.7032937371E-15   0.1479758224E-16   0.5025000007E-01  -0.2057500003E-01  -0.2057500003E-01   0.3681818269E-16   0.1263561160E-16   0.6190220996E-16   0.1137500002E+02
   0.1050250000E+01   0.9794250000E+00   0.9794250000E+00   0.2475000000E-01  -0.1192500000E-01  -0.1192500000E-01   0.2550000000E-01  -0.8650000000E-02  -0.8650000000E-02   0.1137500001E+02   0.6096899657E-14   0.7897951216E-14   0.1480000344E-14   0.1276060957E-14  -0.1019884246E-15   0.5025000007E-01  -0.2057500003E-01  -0.2057500003E-01   0.7863575903E-16   0.8151121540E-17   0.2486041494E-16   0.1137500001E+02
   0.0000000000E+00   0.9794250000E+00   0.9794250000E+00   0.0000000000E+00  -0.1192500000E-01  -0.1192500000E-01   0.0000000000E+00  -0.8650000000E-02  -0.8650000000E-02   0.1137500002E+02  -0.1364255270E-14  -0.2761129385E-16  -0.2727691394E-15  -0.1644109849E-14  -0.1293465818E-14   0.5025000007E-01  -0.2057500003E-01  -0.2057500003E-01   0.4058107812E-17  -0.3102682885E-16  -0.1069672208E-15   0.1137500002E+02
   0.2100500000E+01   0.0000000000E+00  -0.9391045382E-16   0.4950000000E-01   0.0000000000E+00  -0.5266387512E-17   0.5100000000E-01   0.0000000000E+00  -0.8864406631E-16   0.1137500002E+02  -0.6238347242E-14  -0.6665035611E-14  -0.3825918542E-14   0.1589516318E-15  -0.1271166053E-14   0.5025000008E-01  -0.2057500003E-01  -0.2057500003E-01  -0.1586576485E-15  -0.1622953476E-15  -0.2442188118E-16   0.1137500002E+02
   0.2100500000E+01   0.9794250000E+00  -0.1049225984E-15   0.4950000000E-01  -0.1192500000E-01  -0.2102376230E-16   0.5100000000E-01  -0.8650000000E-02  -0.8389883614E-16   0.1137500002E+02   0.1264255194E-13   0.1367694508E-13  -0.4094195749E-14  -0.9446454494E-15   0.2746742842E-15   0.5025000007E-01  -0.2057500003E-01  -0.2057500003E-01  -0.2409136673E-15  -0.1812848212E-16   0.6558404302E-16   0.1137500002E+02
   0.2100500000E+01   0.0000000000E+00   0.9794250000E+00   0.4950000000E-01   0.0000000000E+00  -0.1192500000E-01   0.5100000000E-01   0.0000000000E+00  -0.8650000000E-02   0.1137500002E+02   0.1054985244E-13   0.5837917333E-14  -0.2445307855E-14  -0.1946670627E-14   0.4576463443E-15   0.5025000007E-01  -0.2057500003E-01  -0.2057500003E-01   0.3621180308E-16  -0.1243104280E-15  -0.5218492560E-18   0.1137500002E+02
   0.2100500000E+01   0.9794250000E+00   0.9794250000E+00   0.4950000000E-01  -0.1192500000E-01  -0.1192500000E-01   0.5100000000E-01  -0.8650000000E-02  -0.8650000000E-02   0.1137500001E+02  -0.2010759051E-13  -0.2130346387E-13  -0.8648081328E-15  -0.1996520947E-14   0.1028024356E-14   0.5025000006E-01  -0.2057500003E-01  -0.2057500003E-01   0.8121326300E-16  -0.6828657377E-16   0.5630890541E-16   0.1137500001E+02
     1     2     3     4     5     6     7     8
     2     9    10     3     6    11    12     7
 VARIABLES = X,Y,Z,DU1,DU2,DU3,U1,U2,U3,S11,S22,S33,S12,S13,S23,E11,E22,E33,E12,E13,E23,SMISES
 ZONE, T="0.7000D+01" F=FEPOINT, I=   12 J=    2 ET=BRICK
   0.0000000000E+00   0.0000000000E+00   0.0000000000E+00   0.0000000000E+00   0.0000000000E+00   0.0000000000E+00   0.0000000000E+00   0.0000000000E+00   0.0000000000E+00   0.1250000002E+02  -0.1316247163E-13  -0.1285118213E-13   0.1066372788E-15  -0.1595591754E-15   0.1719379038E-14   0.7500000012E-01  -0.3250000005E-01  -0.3250000005E-01  -0.3870774607E-17  -0.2532184903E-16   0.8457401757E-16   0.1250000002E+02
   0.1075000000E+01   0.0000000000E+00  -0.2809791347E-16   0.2475000000E-01   0.0000000000E+00   0.6249111717E-17   0.5025000000E-01   0.0000000000E+00  -0.3434702519E-16   0.1250000002E+02   0.2741536062E-14   0.3744844926E-15  -0.5006127614E-15   0.2661124467E-15   0.3466183902E-15   0.7500000012E-01  -0.3250000005E-01  -0.3250000005E-01   0.8954969335E-16   0.6020330114E-16   0.2042320157E-16   0.1250000002E+02
   0.1075000000E+01   0.9675000000E+00  -0.1785606033E-16   0.2475000000E-01  -0.1192500000E-01   0.8113479087E-17   0.5025000000E-01  -0.2057500000E-01  -0.2596953942E-16   0.1250000002E+02  -0.9311492867E-14  -0.1119090080E-13  -0.1157722670E-14   0.6984578228E-15  -0.1030250320E-14   0.7500000011E-01  -0.3250000005E-01  -0.3250000005E-01   0.4766258399E-16  -0.2184627224E-16  -0.4345296476E-16   0.1250000002E+02
   0.0000000000E+00   0.9675000000E+00   0.3739137896E-16   0.0000000000E+00  -0.1192500000E-01   0.1716115890E-16   0.0000000000E+00  -0.2057500000E-01   0.2023022006E-16   0.1250000002E+02   0.6221728180E-14   0.4469284622E-14  -0.4548424391E-15  -0.1613392788E-14  -0.4425618498E-15   0.7500000011E-01  -0.3250000005E-01  -0.3250000005E-01   0.3227810306E-16  -0.9253597390E-16   0.2838541841E-17   0.1250000002E+02
   0.0000000000E+00   0.0000000000E+00   0.9675000000E+00   0.0000000000E+00   0.0000000000E+00  -0.1192500000E-01   0.0000000000E+00   0.0000000000E+00  -0.2057500000E-01   0.1250000002E+02   0.6156396344E-14   0.8493699829E-14  -0.1737900758E-15  -0.3561069360E-15   0.9936339598E-15   0.7500000011E-01  -0.3250000005E-01  -0.3250000005E-01   0.5777163343E-17  -0.1697091845E-15  -0.3879147784E-16   0.1250000002E+02
   0.1075000000E+01   0.0000000000E+00   0.9675000000E+00   0.2475000000E-01   0.0000000000E+00  -0.1192500000E-01   0.5025000000E-01   0.0000000000E+00  -0.2057500000E-01   0.1250000002E+02  -0.8466869246E-14  -0.5655728467E-14   0.7954702862E-15  -0.7210512493E-15   0.6026614475E-15   0.7500000011E-01  -0.3250000005E-01  -0.3250000005E-01   0.4607073705E-16   0.1278591882E-16   0.6944265359E-16   0.1250000002E+02
   0.1075000000E+01   0.9675000000E+00   0.9675000000E+00   0.2475000000E-01  -0.1192500000E-01  -0.1192500000E-01   0.5025000000E-01  -0.2057500000E-01  -0.2057500000E-01   0.1250000002E+02   0.1022728364E-13   0.1255078078E-13   0.1181776845E-14   0.9335362667E-15   0.3227250970E-16   0.7500000010E-01  -0.3250000004E-01  -0.3250000004E-01   0.7967152723E-16  -0.8835170584E-17   0.2938743822E-16   0.1250000002E+02
   0.0000000000E+00   0.9675000000E+00   0.9675000000E+00   0.0000000000E+00  -0.1192500000E-01  -0.1192500000E-01   0.0000000000E+00  -0.2057500000E-01  -0.2057500000E-01   0.1250000002E+02  -0.7675125176E-14  -0.6913911137E-14   0.4584819965E-15  -0.4312865480E-15  -0.1723984180E-14   0.7500000010E-01  -0.3250000004E-01  -0.3250000004E-01   0.2253252713E-16  -0.4645976657E-17  -0.1281070823E-15   0.1250000002E+02
   0.2150000000E+01   0.0000000000E+00  -0.1077142769E-15   0.4950000000E-01   0.0000000000E+00  -0.1380382305E-16   0.1005000000E+00   0.0000000000E+00  -0.9391045382E-16   0.1250000002E+02  -0.1484161152E-13  -0.1358264717E-13  -0.4112909050E-15  -0.5907726879E-15  -0.1849444650E-15   0.7500000011E-01  -0.3250000005E-01  -0.3250000005E-01  -0.1438185740E-15  -0.5398905759E-16  -0.1942438670E-16   0.1250000002E+02
   0.2150000000E+01   0.9675000000E+00  -0.1133188465E-15   0.4950000000E-01  -0.1192500000E-01  -0.8396248017E-17   0.1005000000E+00  -0.2057500000E-01  -0.1049225984E-15   0.1250000002E+02   0.1914970362E-13   0.1883257890E-13  -0.6971765440E-15   0.2535374657E-14  -0.3682103203E-15   0.7500000010E-01  -0.3250000005E-01  -0.3250000005E-01  -0.2336513250E-15  -0.7587853896E-16   0.5115590622E-16   0.1250000002E+02
   0.2150000000E+01   0.0000000000E+00   0.9675000000E+00   0.4950000000E-01   0.0000000000E+00  -0.1192500000E-01   0.1005000000E+00   0.0000000000E+00  -0.2057500000E-01   0.1250000002E+02   0.1291067810E-13   0.9891299174E-14   0.1873651021E-15   0.2601959647E-14   0.8986294832E-15   0.7500000010E-01  -0.3250000005E-01  -0.3250000005E-01   0.1175286091E-15  -0.4393267869E-16   0.1586594925E-16   0.1250000002E+02
   0.2150000000E+01   0.9675000000E+00   0.9675000000E+00   0.4950000000E-01  -0.1192500000E-01  -0.1192500000E-01   0.1005000000E+00  -0.2057500000E-01  -0.2057500000E-01   0.1250000002E+02  -0.1068653256E-13  -0.8489999898E-14   0.5788638476E-15   0.2302027119E-15   0.4674042675E-16   0.7500000010E-01  -0.3250000004E-01  -0.3250000004E-01   0.1203204078E-15   0.3120357922E-16   0.3012143883E-16   0.1250000002E+02
     1     2     3     4     5     6     7     8
     2     9    10     3     6    11    12     7
 VARIABLES = X,Y,Z,DU1,DU2,DU3,U1,U2,U3,S11,S22,S33,S12,S13,S23,E11,E22,E33,E12,E13,E23,SMISES
 ZONE, T="0.7050D+01" F=FEPOINT, I=   12 J=    2 ET=BRICK
   0.0000000000E+00   0.0000000000E+00   0.0000000000E+00   0.0000000000E+00   0.0000000000E+00   0.0000000000E+00   0.0000000000E+00   0.0000000000E+00   0.0000000000E+00   0.1137500002E+02  -0.9078950863E-14  -0.1109660273E-13   0.9380788814E-16   0.7253844050E-15   0.5323502964E-14   0.7275000011E-01  -0.3182500005E-01  -0.3182500005E-01   0.6393288587E-17  -0.2593800233E-16   0.1086994189E-15   0.1137500002E+02
   0.1072750000E+01   0.0000000000E+00  -0.3237742129E-16  -0.2250000000E-02   0.0000000000E+00  -0.4279507817E-17   0.7500000000E-01   0.0000000000E+00  -0.2809791347E-16   0.1137500002E+02  -0.1634805451E-14  -0.2214611719E-14   0.8739888346E-15   0.2717282448E-14   0.1762907898E-14   0.7275000011E-01  -0.3182500005E-01  -0.3182500005E-01   0.5882969259E-16   0.4539579346E-16   0.2405338429E-16   0.1137500002E+02
   0.1072750000E+01   0.9681750000E+00  -0.1470898688E-16  -0.2250000000E-02   0.6750000000E-03   0.3147073454E-17   0.7500000000E-01  -0.3250000000E-01  -0.1785606033E-16   0.1137500002E+02  -0.1226632195E-13  -0.1552446965E-13  -0.1648094054E-14   0.2689726576E-14  -0.2534104025E-15   0.7275000010E-01  -0.3182500005E-01  -0.3182500005E-01   0.1202061310E-16   0.3426108355E-16  -0.2006931761E-16   0.1137500002E+02
   0.0000000000E+00   0.9681750000E+00   0.5628133210E-16   0.0000000000E+00   0.6750000000E-03   0.1888995315E-16   0.0000000000E+00  -0.3250000000E-01   0.3739137896E-16   0.1137500002E+02   0.8262225336E-14   0.2387671990E-15  -0.4055637782E-14  -0.3503374636E-14  -0.9704511133E-16   0.7275000011E-01  -0.3182500005E-01  -0.3182500005E-01   0.3100423638E-17  -0.1296922958E-15   0.1426542877E-16   0.1137500002E+02
   0.0000000000E+00   0.0000000000E+00   0.9681750000E+00   0.0000000000E+00   0.0000000000E+00   0.6750000000E-03   0.0000000000E+00   0.0000000000E+00  -0.3250000000E-01   0.1137500002E+02   0.8186786847E-14   0.1576323833E-13  -0.1636503472E-15  -0.7158557316E-15   0.2703400079E-14   0.7275000011E-01  -0.3182500005E-01  -0.3182500005E-01   0.8032619564E-17  -0.1633895713E-15  -0.2880626742E-16   0.1137500002E+02
   0.1072750000E+01   0.0000000000E+00   0.9681750000E+00  -0.2250000000E-02   0.0000000000E+00   0.6750000000E-03   0.7500000000E-01   0.0000000000E+00  -0.3250000000E-01   0.1137500002E+02  -0.5680423396E-14  -0.1959946876E-15   0.2780684946E-14   0.6385549130E-15   0.2788332404E-15   0.7275000010E-01  -0.3182500005E-01  -0.3182500005E-01   0.6746462517E-16  -0.1121878217E-16   0.9671487549E-16   0.1137500002E+02
   0.1072750000E+01   0.9681750000E+00   0.9681750000E+00  -0.2250000000E-02   0.6750000000E-03   0.6750000000E-03   0.7500000000E-01  -0.3250000000E-01  -0.3250000000E-01   0.1137500001E+02   0.1068226144E-13   0.1226923962E-13   0.2827417789E-14   0.2394255794E-14  -0.9422641641E-15   0.7275000010E-01  -0.3182500004E-01  -0.3182500004E-01   0.1057702400E-15   0.5526222873E-16  -0.2870966474E-16   0.1137500001E+02
   0.0000000000E+00   0.9681750000E+00   0.9681750000E+00   0.0000000000E+00   0.6750000000E-03   0.6750000000E-03   0.0000000000E+00  -0.3250000000E-01  -0.3250000000E-01   0.1137500002E+02  -0.3812867011E-14  -0.1632667272E-14   0.1456592973E-15  -0.3482020377E-14  -0.3428707578E-14   0.7275000010E-01  -0.3182500004E-01  -0.3182500004E-01  -0.6852116685E-17  -0.6339484520E-16  -0.1074742223E-15   0.1137500002E+02
   0.2145500000E+01   0.0000000000E+00  -0.1502321453E-15  -0.4500000000E-02   0.0000000000E+00  -0.4251786842E-16   0.1500000000E+00   0.0000000000E+00  -0.1077142769E-15   0.1137500002E+02  -0.1916895413E-13  -0.1743867891E-13   0.4843774979E-14   0.2859303116E-14   0.9617244575E-15   0.7275000011E-01  -0.3182500005E-01  -0.3182500005E-01  -0.8050917231E-16  -0.2020628592E-15   0.4246544785E-17   0.1137500002E+02
   0.2145500000E+01   0.9681750000E+00  -0.1498664462E-15  -0.4500000000E-02   0.6750000000E-03  -0.3654759978E-16   0.1500000000E+00  -0.3250000000E-01  -0.1133188465E-15   0.1137500002E+02   0.2152832055E-13   0.2013723356E-13   0.4508001281E-14   0.2570754933E-15   0.4578094902E-15   0.7275000010E-01  -0.3182500004E-01  -0.3182500004E-01  -0.1517330376E-15  -0.5426755978E-16   0.2182554852E-16   0.1137500002E+02
   0.2145500000E+01   0.0000000000E+00   0.9681750000E+00  -0.4500000000E-02   0.0000000000E+00   0.6750000000E-03   0.1500000000E+00   0.0000000000E+00  -0.3250000000E-01   0.1137500002E+02   0.1612381210E-13   0.1395343344E-13   0.2516579155E-15   0.4183229461E-14   0.1562791756E-14   0.7275000010E-01  -0.3182500004E-01  -0.3182500004E-01   0.1317337650E-15   0.2564864376E-16   0.1328507869E-16   0.1137500002E+02
   0.2145500000E+01   0.9681750000E+00   0.9681750000E+00  -0.4500000000E-02   0.6750000000E-03   0.6750000000E-03   0.1500000000E+00  -0.3250000000E-01  -0.3250000000E-01   0.1137500001E+02  -0.1445584595E-13  -0.1125758601E-13   0.3317309944E-15  -0.1639648742E-14   0.3340926458E-15   0.7275000009E-01  -0.3182500004E-01  -0.3182500004E-01   0.1192352847E-15  -0.1442226245E-15   0.8910886693E-16   0.1137500001E+02
     1     2     3     4     5     6     7     8
     2     9    10     3     6    11    12     7
 VARIABLES = X,Y,Z,DU1,DU2,DU3,U1,U2,U3,S11,S22,S33,S12,S13,S23,E11,E22,E33,E12,E13,E23,SMISES
 ZONE, T="0.7100D+01" F=FEPOINT, I=   12 J=    2 ET=BRICK
   0.0000000000E+00   0.0000000000E+00   0.0000000000E+00   0.0000000000E+00   0.0000000000E+00   0.0000000000E+00   0.0000000000E+00   0.0000000000E+00   0.0000000000E+00   0.1025000002E+02  -0.1099316028E-13  -0.1006978937E-13   0.8935912248E-16  -0.1334404967E-15   0.9477888530E-15   0.7050000011E-01  -0.3115000005E-01  -0.3115000005E-01  -0.1302936244E-16  -0.1707820100E-16   0.5975743858E-16   0.1025000002E+02
   0.1070500000E+01   0.0000000000E+00  -0.2414595580E-16  -0.2250000000E-02   0.0000000000E+00   0.8231465487E-17   0.7275000000E-01   0.0000000000E+00  -0.3237742129E-16   0.1025000002E+02   0.6977107053E-14   0.5834218340E-14  -0.8841959187E-15  -0.1213877957E-15   0.8477516809E-15   0.7050000011E-01  -0.3115000005E-01  -0.3115000005E-01   0.6378222938E-16   0.9490249651E-18   0.2680505633E-16   0.1025000002E+02
   0.1070500000E+01   0.9688500000E+00  -0.1131244042E-16  -0.2250000000E-02   0.6750000000E-03   0.3396546456E-17   0.7275000000E-01  -0.3182500000E-01  -0.1470898688E-16   0.1025000001E+02  -0.9817996195E-14  -0.1133167137E-13  -0.1202323926E-14   0.3497505709E-15  -0.1484566030E-15   0.7050000010E-01  -0.3115000004E-01  -0.3115000004E-01  -0.2743448224E-17   0.3088431648E-17  -0.5413825516E-16   0.1025000001E+02
   0.0000000000E+00   0.9688500000E+00   0.3359297541E-16   0.0000000000E+00   0.6750000000E-03  -0.2268835669E-16   0.0000000000E+00  -0.3182500000E-01   0.5628133210E-16   0.1025000001E+02   0.8787588439E-14   0.7499552615E-14  -0.5222389254E-15   0.3176879588E-16  -0.1523912381E-15   0.7050000010E-01  -0.3115000005E-01  -0.3115000005E-01   0.5079053840E-16  -0.8464991578E-16   0.3875950896E-17   0.1025000001E+02
   0.0000000000E+00   0.0000000000E+00   0.9688500000E+00   0.0000000000E+00   0.0000000000E+00   0.6750000000E-03   0.0000000000E+00   0.0000000000E+00  -0.3182500000E-01   0.1025000001E+02   0.8112701890E-14   0.8831820308E-14  -0.1823051226E-15   0.3129889546E-15   0.3800455738E-15   0.7050000010E-01  -0.3115000005E-01  -0.3115000005E-01   0.8935625156E-17  -0.1696230796E-15  -0.1441307216E-16   0.1025000001E+02
   0.1070500000E+01   0.0000000000E+00   0.9688500000E+00  -0.2250000000E-02   0.0000000000E+00   0.6750000000E-03   0.7275000000E-01   0.0000000000E+00  -0.3182500000E-01   0.1025000001E+02  -0.8729550669E-14  -0.5027314021E-14  -0.2746401484E-16  -0.7772196985E-15   0.3221915954E-15   0.7050000010E-01  -0.3115000004E-01  -0.3115000004E-01   0.3875537899E-16   0.8969801507E-17   0.6862388763E-16   0.1025000001E+02
   0.1070500000E+01   0.9688500000E+00   0.9688500000E+00  -0.2250000000E-02   0.6750000000E-03   0.6750000000E-03   0.7275000000E-01  -0.3182500000E-01  -0.3182500000E-01   0.1025000001E+02   0.8797018296E-14   0.9755582032E-14   0.2896210930E-15  -0.1143840854E-16   0.9582412433E-16   0.7050000009E-01  -0.3115000004E-01  -0.3115000004E-01   0.1077468611E-15  -0.1743540747E-16  -0.8509602994E-17   0.1025000001E+02
   0.0000000000E+00   0.9688500000E+00   0.9688500000E+00   0.0000000000E+00   0.6750000000E-03   0.6750000000E-03   0.0000000000E+00  -0.3182500000E-01  -0.3182500000E-01   0.1025000001E+02  -0.7531827704E-14  -0.6261583582E-14  -0.3184794473E-15   0.8618023321E-15  -0.1320392716E-14   0.7050000009E-01  -0.3115000004E-01  -0.3115000004E-01  -0.8372161790E-17   0.2120341087E-16  -0.1207796739E-15   0.1025000001E+02
   0.2141000000E+01   0.0000000000E+00  -0.8235031131E-16  -0.4500000000E-02   0.0000000000E+00   0.6788183398E-16   0.1455000000E+00   0.0000000000E+00  -0.1502321453E-15   0.1025000002E+02  -0.9487455731E-14  -0.8109107261E-14  -0.4739326095E-14  -0.2870554605E-14  -0.5243327490E-15   0.7050000011E-01  -0.3115000005E-01  -0.3115000005E-01  -0.2033004061E-15  -0.3189154525E-15  -0.1696498000E-16   0.1025000002E+02
   0.2141000000E+01   0.9688500000E+00  -0.8970078202E-16  -0.4500000000E-02   0.6750000000E-03   0.6016566422E-16   0.1455000000E+00  -0.3182500000E-01  -0.1498664462E-15   0.1025000001E+02   0.1644307293E-13   0.1321321488E-13  -0.4310724235E-14   0.3151774360E-14  -0.4453527459E-15   0.7050000010E-01  -0.3115000004E-01  -0.3115000004E-01  -0.2912716438E-15   0.3858271353E-16   0.4414919484E-16   0.1025000001E+02
   0.2141000000E+01   0.0000000000E+00   0.9688500000E+00  -0.4500000000E-02   0.0000000000E+00   0.6750000000E-03   0.1455000000E+00   0.0000000000E+00  -0.3182500000E-01   0.1025000001E+02   0.1263351338E-13   0.8502452706E-14   0.4040240902E-15  -0.7679565806E-15  -0.3751940713E-15   0.7050000010E-01  -0.3115000004E-01  -0.3115000004E-01   0.9419598241E-16  -0.2300303558E-15  -0.2168969385E-16   0.1025000001E+02
   0.2141000000E+01   0.9688500000E+00   0.9688500000E+00  -0.4500000000E-02   0.6750000000E-03   0.6750000000E-03   0.1455000000E+00  -0.3182500000E-01  -0.3182500000E-01   0.1025000001E+02  -0.1197350068E-13  -0.1206819026E-13   0.1577972753E-14   0.2538887223E-15  -0.9798859454E-15   0.7050000009E-01  -0.3115000004E-01  -0.3115000004E-01   0.1663839469E-15   0.1799695385E-16   0.6936084434E-16   0.1025000001E+02
     1     2     3     4     5     6     7     8
     2     9    10     3     6    11    12     7
 VARIABLES = X,Y,Z,DU1,DU2,DU3,U1,U2,U3,S11,S22,S33,S12,S13,S23,E11,E22,E33,E12,E13,E23,SMISES
 ZONE, T="0.7150D+01" F=FEPOINT, I=   12 J=    2 ET=BRICK
   0.0000000000E+00   0.0000000000E+00   0.0000000000E+00   0.0000000000E+00   0.0000000000E+00   0.0000000000E+00   0.0000000000E+00   0.0000000000E+00   0.0000000000E+00   0.9125000014E+01  -0.1098373042E-13  -0.1052622601E-13   0.7592870786E-16   0.3213358613E-16   0.1182492659E-14   0.6825000011E-01  -0.3047500005E-01  -0.3047500005E-01  -0.9595080095E-17  -0.3205008537E-16   0.7669442088E-16   0.9125000014E+01
   0.1068250000E+01   0.0000000000E+00  -0.2664674550E-16  -0.2250000000E-02   0.0000000000E+00  -0.2500789698E-17   0.7050000000E-01   0.0000000000E+00  -0.2414595580E-16   0.9125000014E+01   0.4612973081E-14   0.2863447235E-14   0.3176664285E-15   0.4277069613E-15   0.7398500577E-15   0.6825000011E-01  -0.3047500005E-01  -0.3047500005E-01   0.5670642965E-16   0.3634843343E-16   0.2516568779E-16   0.9125000014E+01
   0.1068250000E+01   0.9695250000E+00  -0.1432870099E-16  -0.2250000000E-02   0.6750000000E-03  -0.3016260564E-17   0.7050000000E-01  -0.3115000000E-01  -0.1131244042E-16   0.9125000013E+01  -0.6980024737E-14  -0.9869521976E-14  -0.4375116302E-15  -0.2862784549E-15  -0.8127056617E-15   0.6825000010E-01  -0.3047500004E-01  -0.3047500004E-01   0.7511865047E-17  -0.5235964411E-17  -0.5410054153E-16   0.9125000013E+01
   0.0000000000E+00   0.9695250000E+00   0.3479587697E-16   0.0000000000E+00   0.6750000000E-03   0.1202901555E-17   0.0000000000E+00  -0.3115000000E-01   0.3359297541E-16   0.9125000013E+01   0.8771255569E-14   0.6979633840E-14  -0.1922790354E-15  -0.5136300574E-15  -0.3492259287E-15   0.6825000010E-01  -0.3047500004E-01  -0.3047500004E-01   0.4663300263E-16  -0.7074422056E-16   0.1410799897E-17   0.9125000013E+01
   0.0000000000E+00   0.0000000000E+00   0.9695250000E+00   0.0000000000E+00   0.0000000000E+00   0.6750000000E-03   0.0000000000E+00   0.0000000000E+00  -0.3115000000E-01   0.9125000013E+01   0.9428636451E-14   0.1041335398E-13  -0.1572263798E-15   0.9684265901E-16   0.4538778987E-15   0.6825000010E-01  -0.3047500004E-01  -0.3047500004E-01   0.4328944964E-17  -0.1717202982E-15  -0.4915377681E-16   0.9125000013E+01
   0.1068250000E+01   0.0000000000E+00   0.9695250000E+00  -0.2250000000E-02   0.0000000000E+00   0.6750000000E-03   0.7050000000E-01   0.0000000000E+00  -0.3115000000E-01   0.9125000013E+01  -0.7223846642E-14  -0.4128247040E-14  -0.6031744060E-15  -0.2961931478E-15   0.2465839007E-15   0.6825000010E-01  -0.3047500004E-01  -0.3047500004E-01   0.3025233973E-17  -0.4439776595E-17   0.6367756860E-16   0.9125000013E+01
   0.1068250000E+01   0.9695250000E+00   0.9695250000E+00  -0.2250000000E-02   0.6750000000E-03   0.6750000000E-03   0.7050000000E-01  -0.3115000000E-01  -0.3115000000E-01   0.9125000012E+01   0.9265802490E-14   0.1066845532E-13  -0.4674301969E-15  -0.8873062138E-15  -0.6106406243E-15   0.6825000009E-01  -0.3047500004E-01  -0.3047500004E-01   0.7087311695E-16  -0.3414802293E-16  -0.2087380208E-16   0.9125000012E+01
   0.0000000000E+00   0.9695250000E+00   0.9695250000E+00   0.0000000000E+00   0.6750000000E-03   0.6750000000E-03   0.0000000000E+00  -0.3115000000E-01  -0.3115000000E-01   0.9125000012E+01  -0.7541257472E-14  -0.6108465427E-14  -0.2271221189E-15   0.2116417480E-15  -0.1619887932E-14   0.6825000009E-01  -0.3047500004E-01  -0.3047500004E-01  -0.3816095358E-17  -0.4338922093E-17  -0.8984699670E-16   0.9125000012E+01
   0.2136500000E+01   0.0000000000E+00  -0.1012396289E-15  -0.4500000000E-02   0.0000000000E+00  -0.1888931755E-16   0.1410000000E+00   0.0000000000E+00  -0.8235031131E-16   0.9125000014E+01  -0.1509738994E-13  -0.1236499662E-13   0.6079587072E-15   0.2265322605E-15   0.6773180693E-15   0.6825000010E-01  -0.3047500005E-01  -0.3047500005E-01  -0.1236630766E-15  -0.2199657612E-15   0.6501453098E-18   0.9125000014E+01
   0.2136500000E+01   0.9695250000E+00  -0.1024393090E-15  -0.4500000000E-02   0.6750000000E-03  -0.1273852696E-16   0.1410000000E+00  -0.3115000000E-01  -0.8970078202E-16   0.9125000013E+01   0.1677866638E-13   0.1437749000E-13  -0.8518500302E-16   0.9655010762E-15   0.5073681924E-15   0.6825000010E-01  -0.3047500004E-01  -0.3047500004E-01  -0.2424971292E-15   0.5475214839E-16   0.5889035705E-16   0.9125000013E+01
   0.2136500000E+01   0.0000000000E+00   0.9695250000E+00  -0.4500000000E-02   0.0000000000E+00   0.6750000000E-03   0.1410000000E+00   0.0000000000E+00  -0.3115000000E-01   0.9125000013E+01   0.1430137426E-13   0.1176818028E-13  -0.1121008631E-14   0.2645605801E-14   0.4259980258E-15   0.6825000010E-01  -0.3047500004E-01  -0.3047500004E-01   0.1203226577E-15  -0.8125805098E-16   0.7531112775E-17   0.9125000013E+01
   0.2136500000E+01   0.9695250000E+00   0.9695250000E+00  -0.4500000000E-02   0.6750000000E-03   0.6750000000E-03   0.1410000000E+00  -0.3115000000E-01  -0.3115000000E-01   0.9125000012E+01  -0.1323100637E-13  -0.1316314792E-13  -0.5206019237E-15  -0.1850394794E-14  -0.3368727130E-15   0.6825000009E-01  -0.3047500004E-01  -0.3047500004E-01   0.1345629492E-15   0.4254440788E-16   0.7370806045E-16   0.9125000012E+01
     1     2     3     4     5     6     7     8
     2     9    10     3     6    11    12     7
 VARIABLES = X,Y,Z,DU1,DU2,DU3,U1,U2,U3,S11,S22,S33,S12,S13,S23,E11,E22,E33,E12,E13,E23,SMISES
 ZONE, T="0.7200D+01" F=FEPOINT, I=   12 J=    2 ET=BRICK
   0.0000000000E+00   0.0000000000E+00   0.0000000000E+00   0.0000000000E+00   0.0000000000E+00   0.0000000000E+00   0.0000000000E+00   0.0000000000E+00   0.0000000000E+00   0.8000000013E+01  -0.1068187074E-13  -0.9956240485E-14   0.9598585568E-16  -0.4271300563E-15   0.1494486487E-14   0.6600000010E-01  -0.2980000005E-01  -0.2980000005E-01   0.3129392420E-17  -0.1574902189E-16   0.7621396420E-16   0.8000000013E+01
   0.1066000000E+01   0.0000000000E+00  -0.2891874876E-16  -0.2250000000E-02   0.0000000000E+00  -0.2272003265E-17   0.6825000000E-01   0.0000000000E+00  -0.2664674550E-16   0.8000000012E+01   0.5623062271E-14   0.3862647784E-14  -0.5790590890E-15  -0.2123330705E-15   0.1190331473E-14   0.6600000010E-01  -0.2980000005E-01  -0.2980000005E-01   0.1870387232E-16   0.1159681601E-16   0.2894235363E-16   0.8000000012E+01
   0.1066000000E+01   0.9702000000E+00  -0.1432778941E-16  -0.2250000000E-02   0.6750000000E-03   0.9115772699E-21   0.6825000000E-01  -0.3047500000E-01  -0.1432870099E-16   0.8000000011E+01  -0.7879091699E-14  -0.1177867820E-13  -0.1228864725E-14   0.5414069279E-15  -0.7532841744E-15   0.6600000009E-01  -0.2980000004E-01  -0.2980000004E-01  -0.9110801028E-17   0.3262967050E-16  -0.6305554598E-16   0.8000000011E+01
   0.0000000000E+00   0.9702000000E+00   0.3644596235E-16   0.0000000000E+00   0.6750000000E-03   0.1650085388E-17   0.0000000000E+00  -0.3047500000E-01   0.3479587697E-16   0.8000000012E+01   0.7606980361E-14   0.5096240436E-14  -0.3317244803E-15  -0.5393022317E-15  -0.2653217963E-15   0.6600000010E-01  -0.2980000004E-01  -0.2980000004E-01   0.5152814813E-16  -0.8123470888E-16  -0.1342121611E-17   0.8000000012E+01
   0.0000000000E+00   0.0000000000E+00   0.9702000000E+00   0.0000000000E+00   0.0000000000E+00   0.6750000000E-03   0.0000000000E+00   0.0000000000E+00  -0.3047500000E-01   0.8000000012E+01   0.8020539360E-14   0.8440715662E-14  -0.1574883384E-15  -0.6323819637E-17   0.7681460594E-15   0.6600000010E-01  -0.2980000004E-01  -0.2980000004E-01  -0.1661674849E-17  -0.1805305086E-15  -0.5444561836E-16   0.8000000012E+01
   0.1066000000E+01   0.0000000000E+00   0.9702000000E+00  -0.2250000000E-02   0.0000000000E+00   0.6750000000E-03   0.6825000000E-01   0.0000000000E+00  -0.3047500000E-01   0.8000000011E+01  -0.8122913605E-14  -0.3551358301E-14   0.6043551120E-15  -0.1187150176E-14   0.3829008592E-15   0.6600000009E-01  -0.2980000004E-01  -0.2980000004E-01   0.4693628923E-16   0.4039477160E-16   0.8782468110E-16   0.8000000011E+01
   0.1066000000E+01   0.9702000000E+00   0.9702000000E+00  -0.2250000000E-02   0.6750000000E-03   0.6750000000E-03   0.6825000000E-01  -0.3047500000E-01  -0.3047500000E-01   0.8000000010E+01   0.8699802343E-14   0.1033538844E-13   0.6621423184E-15   0.3455434969E-16  -0.7890952459E-15   0.6600000009E-01  -0.2980000004E-01  -0.2980000004E-01   0.4818861833E-16   0.4917224965E-16  -0.3628691254E-16   0.8000000010E+01
   0.0000000000E+00   0.9702000000E+00   0.9702000000E+00   0.0000000000E+00   0.6750000000E-03   0.6750000000E-03   0.0000000000E+00  -0.3047500000E-01  -0.3047500000E-01   0.8000000011E+01  -0.5541397529E-14  -0.3962390587E-14  -0.3891397912E-15  -0.6322330953E-16  -0.1655765016E-14   0.6600000009E-01  -0.2980000004E-01  -0.2980000004E-01   0.6784085269E-17  -0.2742459573E-16  -0.7202390575E-16   0.8000000011E+01
   0.2132000000E+01   0.0000000000E+00  -0.1066389899E-15  -0.4500000000E-02   0.0000000000E+00  -0.5399361066E-17   0.1365000000E+00   0.0000000000E+00  -0.1012396289E-15   0.8000000012E+01  -0.1537747230E-13  -0.1360111591E-13  -0.1150637113E-14  -0.4092899613E-15   0.1983858019E-15   0.6600000010E-01  -0.2980000005E-01  -0.2980000005E-01  -0.1233799111E-15  -0.2361367582E-15  -0.1495653718E-17   0.8000000012E+01
   0.2132000000E+01   0.9702000000E+00  -0.1102275711E-15  -0.4500000000E-02   0.6750000000E-03  -0.7788262150E-17   0.1365000000E+00  -0.3047500000E-01  -0.1024393090E-15   0.8000000011E+01   0.1729858511E-13   0.1510710583E-13  -0.1590641744E-14   0.2011427798E-14  -0.4668541668E-15   0.6600000009E-01  -0.2980000004E-01  -0.2980000004E-01  -0.2532124664E-15   0.8463158724E-16   0.4086261129E-16   0.8000000011E+01
   0.2132000000E+01   0.0000000000E+00   0.9702000000E+00  -0.4500000000E-02   0.0000000000E+00   0.6750000000E-03   0.1365000000E+00   0.0000000000E+00  -0.3047500000E-01   0.8000000011E+01   0.1506511486E-13   0.1223006121E-13  -0.5942065281E-15   0.1642011172E-14   0.5688851116E-15   0.6600000009E-01  -0.2980000004E-01  -0.2980000004E-01   0.9698219016E-16  -0.1681682079E-15   0.1110609710E-16   0.8000000011E+01
   0.2132000000E+01   0.9702000000E+00   0.9702000000E+00  -0.4500000000E-02   0.6750000000E-03   0.6750000000E-03   0.1365000000E+00  -0.3047500000E-01  -0.3047500000E-01   0.8000000010E+01  -0.1436446537E-13  -0.1331082166E-13   0.2357401903E-16  -0.4387796755E-15  -0.7667285419E-15   0.6600000008E-01  -0.2980000004E-01  -0.2980000004E-01   0.2031209162E-15   0.4259343901E-16   0.5753099268E-16   0.8000000010E+01
     1     2     3     4     5     6     7     8
     2     9    10     3     6    11    12     7
 VARIABLES = X,Y,Z,DU1,DU2,DU3,U1,U2,U3,S11,S22,S33,S12,S13,S23,E11,E22,E33,E12,E13,E23,SMISES
 ZONE, T="0.7250D+01" F=FEPOINT, I=   12 J=    2 ET=BRICK
   0.0000000000E+00   0.0000000000E+00   0.0000000000E+00   0.0000000000E+00   0.0000000000E+00   0.0000000000E+00   0.0000000000E+00   0.0000000000E+00   0.0000000000E+00   0.6875000011E+01  -0.1100949325E-13  -0.8610166686E-14   0.8810216955E-16   0.1988074786E-15   0.9617991718E-15   0.6375000010E-01  -0.2912500005E-01  -0.2912500005E-01   0.3827079266E-17  -0.2960708989E-16   0.7352293046E-16   0.6875000011E+01
   0.1063750000E+01   0.0000000000E+00  -0.2268250732E-16  -0.2250000000E-02   0.0000000000E+00   0.6236241445E-17   0.6600000000E-01   0.0000000000E+00  -0.2891874876E-16   0.6875000011E+01   0.5330632423E-14   0.4247240362E-14   0.1212383449E-15   0.3259880319E-15   0.7972162667E-15   0.6375000010E-01  -0.2912500004E-01  -0.2912500004E-01   0.2645800560E-16   0.3745602149E-16   0.2635076736E-16   0.6875000011E+01
   0.1063750000E+01   0.9708750000E+00  -0.1006312660E-16  -0.2250000000E-02   0.6750000000E-03   0.4264662813E-17   0.6600000000E-01  -0.2980000000E-01  -0.1432778941E-16   0.6875000010E+01  -0.7210040318E-14  -0.1009953757E-13  -0.5795924552E-15  -0.1400900781E-15  -0.1636505378E-16   0.6375000009E-01  -0.2912500004E-01  -0.2912500004E-01  -0.2715225626E-18   0.4230780155E-17  -0.5940713064E-16   0.6875000010E+01
   0.0000000000E+00   0.9708750000E+00   0.3368654447E-16   0.0000000000E+00   0.6750000000E-03  -0.2759417887E-17   0.0000000000E+00  -0.2980000000E-01   0.3644596235E-16   0.6875000010E+01   0.8797018378E-14   0.6461173927E-14  -0.3066820124E-15   0.2589241258E-15  -0.1169556970E-15   0.6375000009E-01  -0.2912500004E-01  -0.2912500004E-01   0.4286904890E-16  -0.6694737023E-16  -0.5076388921E-17   0.6875000010E+01
   0.0000000000E+00   0.0000000000E+00   0.9708750000E+00   0.0000000000E+00   0.0000000000E+00   0.6750000000E-03   0.0000000000E+00   0.0000000000E+00  -0.2980000000E-01   0.6875000010E+01   0.8544443645E-14   0.9003798116E-14  -0.1540839285E-15   0.2613388690E-15   0.2666004577E-15   0.6375000009E-01  -0.2912500004E-01  -0.2912500004E-01  -0.1492108852E-16  -0.1708528799E-15  -0.4474918760E-16   0.6875000010E+01
   0.1063750000E+01   0.0000000000E+00   0.9708750000E+00  -0.2250000000E-02   0.0000000000E+00   0.6750000000E-03   0.6600000000E-01   0.0000000000E+00  -0.2980000000E-01   0.6875000010E+01  -0.7941506034E-14  -0.5371269563E-14   0.1863611927E-16  -0.5348205566E-15   0.8972247109E-16   0.6375000009E-01  -0.2912500004E-01  -0.2912500004E-01   0.4412173625E-16   0.4457724960E-16   0.7480085472E-16   0.6875000010E+01
   0.1063750000E+01   0.9708750000E+00   0.9708750000E+00  -0.2250000000E-02   0.6750000000E-03   0.6750000000E-03   0.6600000000E-01  -0.2980000000E-01  -0.2980000000E-01   0.6875000009E+01   0.9598869323E-14   0.9988515297E-14  -0.5371278860E-16  -0.6655566732E-15  -0.2275395382E-16   0.6375000008E-01  -0.2912500004E-01  -0.2912500004E-01   0.2555218431E-16  -0.4371017688E-16  -0.2528908185E-16   0.6875000009E+01
   0.0000000000E+00   0.9708750000E+00   0.9708750000E+00   0.0000000000E+00   0.6750000000E-03   0.6750000000E-03   0.0000000000E+00  -0.2980000000E-01  -0.2980000000E-01   0.6875000009E+01  -0.7374724053E-14  -0.5468094594E-14   0.2123246769E-15   0.6854902256E-15  -0.1475680103E-14   0.6375000009E-01  -0.2912500004E-01  -0.2912500004E-01   0.1222745243E-16   0.2811204442E-17  -0.9481614515E-16   0.6875000009E+01
   0.2127500000E+01   0.0000000000E+00  -0.8252290365E-16  -0.4500000000E-02   0.0000000000E+00   0.2411608628E-16   0.1320000000E+00   0.0000000000E+00  -0.1066389899E-15   0.6875000010E+01  -0.1440549345E-13  -0.1025664103E-13  -0.7802908989E-15  -0.2284946254E-14   0.4086941959E-16   0.6375000010E-01  -0.2912500004E-01  -0.2912500004E-01  -0.1081395467E-15  -0.1970638787E-15  -0.1138006922E-16   0.6875000010E+01
   0.2127500000E+01   0.9708750000E+00  -0.8697871117E-16  -0.4500000000E-02   0.6750000000E-03   0.2324885995E-16   0.1320000000E+00  -0.2980000000E-01  -0.1102275711E-15   0.6875000010E+01   0.1685595482E-13   0.1471746010E-13  -0.1342112932E-14   0.2575411849E-14   0.6430822372E-16   0.6375000009E-01  -0.2912500004E-01  -0.2912500004E-01  -0.2137748201E-15   0.4488365947E-16   0.5091326190E-16   0.6875000010E+01
   0.2127500000E+01   0.0000000000E+00   0.9708750000E+00  -0.4500000000E-02   0.0000000000E+00   0.6750000000E-03   0.1320000000E+00   0.0000000000E+00  -0.2980000000E-01   0.6875000010E+01   0.1164879583E-13   0.9640965047E-14   0.1496555382E-14   0.6054301548E-15  -0.3050283948E-15   0.6375000009E-01  -0.2912500004E-01  -0.2912500004E-01   0.1180377487E-15  -0.1596922041E-15   0.1052967455E-16   0.6875000010E+01
   0.2127500000E+01   0.9708750000E+00   0.9708750000E+00  -0.4500000000E-02   0.6750000000E-03   0.6750000000E-03   0.1320000000E+00  -0.2980000000E-01  -0.2980000000E-01   0.6875000009E+01  -0.1350059114E-13  -0.1257430271E-13   0.1262391474E-14  -0.7134144455E-15  -0.8701250924E-15   0.6375000008E-01  -0.2912500004E-01  -0.2912500004E-01   0.1893449685E-15   0.1492381496E-16   0.6555504229E-16   0.6875000009E+01
     1     2     3     4     5     6     7     8
     2     9    10     3     6    11    12     7
 VARIABLES = X,Y,Z,DU1,DU2,DU3,U1,U2,U3,S11,S22,S33,S12,S13,S23,E11,E22,E33,E12,E13,E23,SMISES
 ZONE, T="0.7300D+01" F=FEPOINT, I=   12 J=    2 ET=BRICK
   0.0000000000E+00   0.0000000000E+00   0.0000000000E+00   0.0000000000E+00   0.0000000000E+00   0.0000000000E+00   0.0000000000E+00   0.0000000000E+00   0.0000000000E+00   0.5750000009E+01  -0.1079415637E-13  -0.8590577668E-14   0.1210091255E-15  -0.4390989046E-16   0.1139742698E-14   0.6150000010E-01  -0.2845000004E-01  -0.2845000004E-01   0.6984486622E-17  -0.2957435347E-16   0.6504802473E-16   0.5750000009E+01
   0.1061500000E+01   0.0000000000E+00  -0.2484836102E-16  -0.2250000000E-02   0.0000000000E+00  -0.2165853701E-17   0.6375000000E-01   0.0000000000E+00  -0.2268250732E-16   0.5750000009E+01   0.5861439847E-14   0.4226921878E-14  -0.7977067300E-15  -0.8332209316E-16   0.8402975651E-15   0.6150000009E-01  -0.2845000004E-01  -0.2845000004E-01  -0.4547044293E-18   0.3236906232E-16   0.3108115947E-16   0.5750000009E+01
   0.1061500000E+01   0.9715500000E+00  -0.1199780307E-16  -0.2250000000E-02   0.6750000000E-03  -0.1934676475E-17   0.6375000000E-01  -0.2912500000E-01  -0.1006312660E-16   0.5750000008E+01  -0.7070728513E-14  -0.1007523360E-13  -0.1513515506E-14   0.4899264134E-15  -0.4978762560E-15   0.6150000009E-01  -0.2845000004E-01  -0.2845000004E-01  -0.3681210344E-16  -0.1518715422E-16  -0.5991735819E-16   0.5750000008E+01
   0.0000000000E+00   0.9715500000E+00   0.3473152270E-16   0.0000000000E+00   0.6750000000E-03   0.1044978233E-17   0.0000000000E+00  -0.2912500000E-01   0.3368654447E-16   0.5750000008E+01   0.7510102803E-14   0.4593918054E-14  -0.2381143346E-15  -0.2224703019E-15  -0.1503966638E-15   0.6150000009E-01  -0.2845000004E-01  -0.2845000004E-01   0.5920534844E-16  -0.6829319058E-16   0.7773557151E-17   0.5750000008E+01
   0.0000000000E+00   0.0000000000E+00   0.9715500000E+00   0.0000000000E+00   0.0000000000E+00   0.6750000000E-03   0.0000000000E+00   0.0000000000E+00  -0.2912500000E-01   0.5750000008E+01   0.8334017113E-14   0.8377038062E-14  -0.1780443170E-15   0.2556152649E-15   0.6595424189E-15   0.6150000009E-01  -0.2845000004E-01  -0.2845000004E-01  -0.5324159889E-17  -0.1439028184E-15  -0.4103547477E-16   0.5750000008E+01
   0.1061500000E+01   0.0000000000E+00   0.9715500000E+00  -0.2250000000E-02   0.0000000000E+00   0.6750000000E-03   0.6375000000E-01   0.0000000000E+00  -0.2912500000E-01   0.5750000008E+01  -0.7891439182E-14  -0.4122802763E-14   0.1585218783E-15  -0.8423024283E-15   0.9964163256E-16   0.6150000009E-01  -0.2845000004E-01  -0.2845000004E-01   0.3369897160E-16  -0.1404894046E-16   0.6627107713E-16   0.5750000008E+01
   0.1061500000E+01   0.9715500000E+00   0.9715500000E+00  -0.2250000000E-02   0.6750000000E-03   0.6750000000E-03   0.6375000000E-01  -0.2912500000E-01  -0.2912500000E-01   0.5750000008E+01   0.8290905854E-14   0.9161292494E-14   0.2442855427E-15  -0.2508043073E-15  -0.5105023172E-15   0.6150000008E-01  -0.2845000004E-01  -0.2845000004E-01   0.6102964047E-16  -0.6243004418E-17  -0.3005468474E-16   0.5750000008E+01
   0.0000000000E+00   0.9715500000E+00   0.9715500000E+00   0.0000000000E+00   0.6750000000E-03   0.6750000000E-03   0.0000000000E+00  -0.2912500000E-01  -0.2912500000E-01   0.5750000008E+01  -0.6605734591E-14  -0.4135097806E-14  -0.1954867610E-15   0.2527808778E-15  -0.1489974308E-14   0.6150000008E-01  -0.2845000004E-01  -0.2845000004E-01   0.8243845417E-17  -0.1934606587E-16  -0.7914378506E-16   0.5750000008E+01
   0.2123000000E+01   0.0000000000E+00  -0.9002594708E-16  -0.4500000000E-02   0.0000000000E+00  -0.7503043438E-17   0.1275000000E+00   0.0000000000E+00  -0.8252290365E-16   0.5750000009E+01  -0.1589068336E-13  -0.1250756446E-13  -0.4615271324E-15  -0.6574217226E-15   0.9042524128E-16   0.6150000009E-01  -0.2845000004E-01  -0.2845000004E-01  -0.1134470116E-15  -0.2128754079E-15  -0.2528415781E-16   0.5750000009E+01
   0.2123000000E+01   0.9715500000E+00  -0.9421755818E-16  -0.4500000000E-02   0.6750000000E-03  -0.7238847010E-17   0.1275000000E+00  -0.2912500000E-01  -0.8697871117E-16   0.5750000008E+01   0.1881989274E-13   0.1619720580E-13  -0.1086128912E-14   0.1274357568E-14   0.2538429172E-15   0.6150000009E-01  -0.2845000004E-01  -0.2845000004E-01  -0.2126124272E-15  -0.6310054406E-16   0.7486812053E-16   0.5750000008E+01
   0.2123000000E+01   0.0000000000E+00   0.9715500000E+00  -0.4500000000E-02   0.0000000000E+00   0.6750000000E-03   0.1275000000E+00   0.0000000000E+00  -0.2912500000E-01   0.5750000008E+01   0.1502228966E-13   0.1166240687E-13  -0.4946138134E-15   0.1347182052E-14  -0.7507726602E-16   0.6150000009E-01  -0.2845000004E-01  -0.2845000004E-01   0.1160503696E-15  -0.1937065355E-15   0.1533068323E-16   0.5750000008E+01
   0.2123000000E+01   0.9715500000E+00   0.9715500000E+00  -0.4500000000E-02   0.6750000000E-03   0.6750000000E-03   0.1275000000E+00  -0.2912500000E-01  -0.2912500000E-01   0.5750000007E+01  -0.1455403940E-13  -0.1375564025E-13   0.9945639192E-16  -0.1541526892E-14  -0.4129075408E-15   0.6150000008E-01  -0.2845000004E-01  -0.2845000004E-01   0.1100282307E-15   0.1513429884E-16   0.7788079745E-16   0.5750000007E+01
     1     2     3     4     5     6     7     8
     2     9    10     3     6    11    12     7
 VARIABLES = X,Y,Z,DU1,DU2,DU3,U1,U2,U3,S11,S22,S33,S12,S13,S23,E11,E22,E33,E12,E13,E23,SMISES
 ZONE, T="0.7350D+01" F=FEPOINT, I=   12 J=    2 ET=BRICK
   0.0000000000E+00   0.0000000000E+00   0.0000000000E+00   0.0000000000E+00   0.0000000000E+00   0.0000000000E+00   0.0000000000E+00   0.0000000000E+00   0.0000000000E+00   0.4625000007E+01  -0.1182330071E-13  -0.1046872219E-13   0.1254563692E-15  -0.3482369230E-15   0.1258858738E-14   0.5925000009E-01  -0.2777500004E-01  -0.2777500004E-01  -0.3773276518E-17  -0.3329155489E-16   0.7283062989E-16   0.4625000007E+01
   0.1059250000E+01   0.0000000000E+00  -0.2780759070E-16  -0.2250000000E-02   0.0000000000E+00  -0.2959229676E-17   0.6150000000E-01   0.0000000000E+00  -0.2484836102E-16   0.4625000007E+01   0.5208721470E-14   0.3189610992E-14   0.6280231396E-15   0.8020109090E-15   0.9635633704E-15   0.5925000009E-01  -0.2777500004E-01  -0.2777500004E-01   0.4552557857E-16   0.3219781535E-16   0.2555639329E-16   0.4625000007E+01
   0.1059250000E+01   0.9722250000E+00  -0.1432014681E-16  -0.2250000000E-02   0.6750000000E-03  -0.2322343733E-17   0.6150000000E-01  -0.2845000000E-01  -0.1199780307E-16   0.4625000007E+01  -0.7524247525E-14  -0.1050989297E-13  -0.3441881006E-15  -0.8460704923E-16  -0.5193108828E-15   0.5925000008E-01  -0.2777500004E-01  -0.2777500004E-01   0.1953286712E-17  -0.8356502651E-17  -0.5592202557E-16   0.4625000007E+01
   0.0000000000E+00   0.9722250000E+00   0.3539307689E-16   0.0000000000E+00   0.6750000000E-03   0.6615541855E-18   0.0000000000E+00  -0.2845000000E-01   0.3473152270E-16   0.4625000007E+01   0.8912026189E-14   0.5233559545E-14  -0.4771437687E-15  -0.5671965032E-15  -0.5483889345E-15   0.5925000009E-01  -0.2777500004E-01  -0.2777500004E-01   0.3684995795E-16  -0.7894004842E-16   0.1025708787E-16   0.4625000007E+01
   0.0000000000E+00   0.0000000000E+00   0.9722250000E+00   0.0000000000E+00   0.0000000000E+00   0.6750000000E-03   0.0000000000E+00   0.0000000000E+00  -0.2845000000E-01   0.4625000007E+01   0.9595169896E-14   0.1032065751E-13  -0.1614350955E-15  -0.2768316188E-15   0.6365431250E-15   0.5925000009E-01  -0.2777500004E-01  -0.2777500004E-01   0.8131082149E-17  -0.1554645882E-15  -0.4387169701E-16   0.4625000007E+01
   0.1059250000E+01   0.0000000000E+00   0.9722250000E+00  -0.2250000000E-02   0.0000000000E+00   0.6750000000E-03   0.6150000000E-01   0.0000000000E+00  -0.2845000000E-01   0.4625000007E+01  -0.7819595082E-14  -0.4191729266E-14  -0.5527005302E-16   0.1981899926E-15   0.3707402975E-15   0.5925000008E-01  -0.2777500004E-01  -0.2777500004E-01   0.1045861809E-16  -0.8142188509E-17   0.6414706138E-16   0.4625000007E+01
   0.1059250000E+01   0.9722250000E+00   0.9722250000E+00  -0.2250000000E-02   0.6750000000E-03   0.6750000000E-03   0.6150000000E-01  -0.2845000000E-01  -0.2845000000E-01   0.4625000006E+01   0.9528484022E-14   0.1032848536E-13   0.7430626443E-16  -0.8231164102E-15  -0.3977552995E-15   0.5925000008E-01  -0.2777500004E-01  -0.2777500004E-01   0.4433486372E-16  -0.1367317000E-16  -0.7838366902E-17   0.4625000006E+01
   0.0000000000E+00   0.9722250000E+00   0.9722250000E+00   0.0000000000E+00   0.6750000000E-03   0.6750000000E-03   0.0000000000E+00  -0.2845000000E-01  -0.2845000000E-01   0.4625000006E+01  -0.6605539017E-14  -0.3987228493E-14   0.3608400215E-16   0.1010129140E-15  -0.2028284716E-14   0.5925000008E-01  -0.2777500004E-01  -0.2777500004E-01   0.6399547642E-17  -0.1343121032E-16  -0.9508932048E-16   0.4625000006E+01
   0.2118500000E+01   0.0000000000E+00  -0.1010217285E-15  -0.4500000000E-02   0.0000000000E+00  -0.1099578142E-16   0.1230000000E+00   0.0000000000E+00  -0.9002594708E-16   0.4625000007E+01  -0.1411704910E-13  -0.1041029314E-13  -0.7208938968E-15  -0.1094744210E-14   0.2546701987E-15   0.5925000009E-01  -0.2777500004E-01  -0.2777500004E-01  -0.9376660550E-16  -0.1986584605E-15  -0.3494584623E-17   0.4625000007E+01
   0.2118500000E+01   0.9722250000E+00  -0.1042895559E-15  -0.4500000000E-02   0.6750000000E-03  -0.1007199769E-16   0.1230000000E+00  -0.2845000000E-01  -0.9421755818E-16   0.4625000006E+01   0.1583099139E-13   0.1291986012E-13  -0.1471763737E-14   0.2216029937E-14   0.1988985880E-15   0.5925000008E-01  -0.2777500004E-01  -0.2777500004E-01  -0.2188566807E-15   0.2522104599E-16   0.4657437099E-16   0.4625000006E+01
   0.2118500000E+01   0.0000000000E+00   0.9722250000E+00  -0.4500000000E-02   0.0000000000E+00   0.6750000000E-03   0.1230000000E+00   0.0000000000E+00  -0.2845000000E-01   0.4625000006E+01   0.1189261771E-13   0.9810950095E-14   0.8106114319E-15   0.3371132516E-15  -0.1376552717E-16   0.5925000008E-01  -0.2777500004E-01  -0.2777500004E-01   0.1187129343E-15  -0.1095704388E-15   0.4197188816E-18   0.4625000006E+01
   0.2118500000E+01   0.9722250000E+00   0.9722250000E+00  -0.4500000000E-02   0.6750000000E-03   0.6750000000E-03   0.1230000000E+00  -0.2845000000E-01  -0.2845000000E-01   0.4625000006E+01  -0.1335982055E-13  -0.1193991012E-13   0.1020928398E-14  -0.4707820017E-15  -0.6742990140E-15   0.5925000008E-01  -0.2777500004E-01  -0.2777500004E-01   0.1078835768E-15  -0.1812079682E-17   0.6428057295E-16   0.4625000006E+01
     1     2     3     4     5     6     7     8
     2     9    10     3     6    11    12     7
 VARIABLES = X,Y,Z,DU1,DU2,DU3,U1,U2,U3,S11,S22,S33,S12,S13,S23,E11,E22,E33,E12,E13,E23,SMISES
 ZONE, T="0.7400D+01" F=FEPOINT, I=   12 J=    2 ET=BRICK
   0.0000000000E+00   0.0000000000E+00   0.0000000000E+00   0.0000000000E+00   0.0000000000E+00   0.0000000000E+00   0.0000000000E+00   0.0000000000E+00   0.0000000000E+00   0.3500000005E+01  -0.1089774157E-13  -0.9861355711E-14   0.1487762487E-15  -0.9911257480E-16   0.1135444383E-14   0.5700000009E-01  -0.2710000004E-01  -0.2710000004E-01   0.1725388089E-17  -0.1110237254E-16   0.6322050559E-16   0.3500000005E+01
   0.1057000000E+01   0.0000000000E+00  -0.2575490028E-16  -0.2250000000E-02   0.0000000000E+00   0.2052690417E-17   0.5925000000E-01   0.0000000000E+00  -0.2780759070E-16   0.3500000005E+01   0.5421336242E-14   0.3705544287E-14   0.1383806393E-15   0.2787222059E-15   0.9517693904E-15   0.5700000009E-01  -0.2710000004E-01  -0.2710000004E-01   0.3252346991E-16   0.1588164179E-16   0.2870585059E-16   0.3500000005E+01
   0.1057000000E+01   0.9729000000E+00  -0.1232349499E-16  -0.2250000000E-02   0.6750000000E-03   0.1996651813E-17   0.5925000000E-01  -0.2777500000E-01  -0.1432014681E-16   0.3500000005E+01  -0.7145099346E-14  -0.1001972247E-13  -0.7652325619E-15  -0.7977150690E-16  -0.4686184408E-15   0.5700000008E-01  -0.2710000004E-01  -0.2710000004E-01  -0.1148957920E-16   0.7093193832E-18  -0.5712446906E-16   0.3500000005E+01
   0.0000000000E+00   0.9729000000E+00   0.3460327062E-16   0.0000000000E+00   0.6750000000E-03  -0.7898062621E-18   0.0000000000E+00  -0.2777500000E-01   0.3539307689E-16   0.3500000005E+01   0.8633207132E-14   0.5520740577E-14  -0.3651883244E-15  -0.7285752799E-16  -0.4869113429E-15   0.5700000008E-01  -0.2710000004E-01  -0.2710000004E-01   0.5142697134E-16  -0.8442948978E-16  -0.2293501027E-16   0.3500000005E+01
   0.0000000000E+00   0.0000000000E+00   0.9729000000E+00   0.0000000000E+00   0.0000000000E+00   0.6750000000E-03   0.0000000000E+00   0.0000000000E+00  -0.2777500000E-01   0.3500000005E+01   0.8223528801E-14   0.9034275878E-14  -0.1627695321E-15   0.6403098572E-16   0.6532385334E-15   0.5700000008E-01  -0.2710000004E-01  -0.2710000004E-01  -0.1800364588E-17  -0.1552089413E-15  -0.1813703916E-16   0.3500000005E+01
   0.1057000000E+01   0.0000000000E+00   0.9729000000E+00  -0.2250000000E-02   0.0000000000E+00   0.6750000000E-03   0.5925000000E-01   0.0000000000E+00  -0.2777500000E-01   0.3500000005E+01  -0.7562357855E-14  -0.4015765982E-14   0.4176472263E-16  -0.2284236359E-15   0.3503479691E-15   0.5700000008E-01  -0.2710000004E-01  -0.2710000004E-01   0.3160016977E-16  -0.2396477293E-16   0.6212044932E-16   0.3500000005E+01
   0.1057000000E+01   0.9729000000E+00   0.9729000000E+00  -0.2250000000E-02   0.6750000000E-03   0.6750000000E-03   0.5925000000E-01  -0.2777500000E-01  -0.2777500000E-01   0.3500000005E+01   0.9164210030E-14   0.9934463034E-14   0.9460575411E-16  -0.7612009483E-15  -0.4101947955E-15   0.5700000007E-01  -0.2710000004E-01  -0.2710000004E-01   0.6673246081E-16  -0.2168715984E-16  -0.4152058804E-16   0.3500000005E+01
   0.0000000000E+00   0.9729000000E+00   0.9729000000E+00   0.0000000000E+00   0.6750000000E-03   0.6750000000E-03   0.0000000000E+00  -0.2777500000E-01  -0.2777500000E-01   0.3500000005E+01  -0.6789134897E-14  -0.4322483621E-14  -0.1711141698E-15   0.3858656056E-15  -0.1742773098E-14   0.5700000008E-01  -0.2710000004E-01  -0.2710000004E-01   0.2155741069E-17  -0.5745373499E-17  -0.1149342268E-15   0.3500000005E+01
   0.2114000000E+01   0.0000000000E+00  -0.9373114336E-16  -0.4500000000E-02   0.0000000000E+00   0.7290585137E-17   0.1185000000E+00   0.0000000000E+00  -0.1010217285E-15   0.3500000005E+01  -0.1442508249E-13  -0.1122881546E-13  -0.6802559736E-15  -0.7037728514E-15   0.1931648067E-15   0.5700000009E-01  -0.2710000004E-01  -0.2710000004E-01  -0.1382769066E-15  -0.1652508962E-15  -0.7401700425E-17   0.3500000005E+01
   0.2114000000E+01   0.9729000000E+00  -0.9735504477E-16  -0.4500000000E-02   0.6750000000E-03   0.6934511100E-17   0.1185000000E+00  -0.2777500000E-01  -0.1042895559E-15   0.3500000005E+01   0.1681658120E-13   0.1394608689E-13  -0.1438644200E-14   0.1940009468E-14   0.1195537876E-15   0.5700000008E-01  -0.2710000004E-01  -0.2710000004E-01  -0.2395239442E-15  -0.2712810304E-17   0.3355316517E-16   0.3500000005E+01
   0.2114000000E+01   0.0000000000E+00   0.9729000000E+00  -0.4500000000E-02   0.0000000000E+00   0.6750000000E-03   0.1185000000E+00   0.0000000000E+00  -0.2777500000E-01   0.3500000005E+01   0.1306107393E-13   0.1111619140E-13   0.1746828284E-15   0.8417257490E-15  -0.4975228857E-16   0.5700000008E-01  -0.2710000004E-01  -0.2710000004E-01   0.9390083966E-16  -0.5389597314E-16   0.8722368340E-17   0.3500000005E+01
   0.2114000000E+01   0.9729000000E+00   0.9729000000E+00  -0.4500000000E-02   0.6750000000E-03   0.6750000000E-03   0.1185000000E+00  -0.2777500000E-01  -0.2777500000E-01   0.3500000004E+01  -0.1371247644E-13  -0.1230345465E-13   0.4524386147E-15  -0.7733624296E-15  -0.6638521769E-15   0.5700000007E-01  -0.2710000003E-01  -0.2710000003E-01   0.9774848152E-16  -0.4453115762E-16   0.7416820946E-16   0.3500000004E+01
     1     2     3     4     5     6     7     8
     2     9    10     3     6    11    12     7
 VARIABLES = X,Y,Z,DU1,DU2,DU3,U1,U2,U3,S11,S22,S33,S12,S13,S23,E11,E22,E33,E12,E13,E23,SMISES
 ZONE, T="0.7450D+01" F=FEPOINT, I=   12 J=    2 ET=BRICK
   0.0000000000E+00   0.0000000000E+00   0.0000000000E+00   0.0000000000E+00   0.0000000000E+00   0.0000000000E+00   0.0000000000E+00   0.0000000000E+00   0.0000000000E+00   0.2375000004E+01  -0.1123253424E-13  -0.9812285271E-14   0.1306824433E-15  -0.9030477604E-16   0.1098446600E-14   0.5475000009E-01  -0.2642500004E-01  -0.2642500004E-01  -0.2494694226E-17  -0.3582864413E-16   0.7459543698E-16   0.2375000004E+01
   0.1054750000E+01   0.0000000000E+00  -0.2561693809E-16  -0.2250000000E-02   0.0000000000E+00   0.1379621876E-18   0.5700000000E-01   0.0000000000E+00  -0.2575490028E-16   0.2375000004E+01   0.5312306701E-14   0.3677788706E-14   0.7945781815E-16   0.1740251962E-15   0.9153464067E-15   0.5475000008E-01  -0.2642500004E-01  -0.2642500004E-01   0.4901224563E-16   0.5335284197E-16   0.2681178160E-16   0.2375000004E+01
   0.1054750000E+01   0.9735750000E+00  -0.1242283817E-16  -0.2250000000E-02   0.6750000000E-03  -0.9934318039E-19   0.5700000000E-01  -0.2710000000E-01  -0.1232349499E-16   0.2375000003E+01  -0.7132217956E-14  -0.1008267071E-13  -0.7589592570E-15   0.1960184810E-15  -0.4725750471E-15   0.5475000008E-01  -0.2642500004E-01  -0.2642500004E-01   0.9990187902E-17  -0.8250779469E-17  -0.4115783220E-16   0.2375000003E+01
   0.0000000000E+00   0.9735750000E+00   0.3435917664E-16   0.0000000000E+00   0.6750000000E-03  -0.2440939833E-18   0.0000000000E+00  -0.2710000000E-01   0.3460327062E-16   0.2375000003E+01   0.8154192293E-14   0.5420873920E-14  -0.3548544414E-15  -0.1362852686E-15  -0.3863315152E-15   0.5475000008E-01  -0.2642500004E-01  -0.2642500004E-01   0.4643748554E-16  -0.6784681604E-16  -0.2738629543E-16   0.2375000003E+01
   0.0000000000E+00   0.0000000000E+00   0.9735750000E+00   0.0000000000E+00   0.0000000000E+00   0.6750000000E-03   0.0000000000E+00   0.0000000000E+00  -0.2710000000E-01   0.2375000003E+01   0.8343713958E-14   0.9043438753E-14  -0.1314787292E-15   0.8239559659E-16   0.6360533585E-15   0.5475000008E-01  -0.2642500004E-01  -0.2642500004E-01   0.2630722382E-17  -0.1624534344E-15  -0.3491681963E-16   0.2375000003E+01
   0.1054750000E+01   0.0000000000E+00   0.9735750000E+00  -0.2250000000E-02   0.0000000000E+00   0.6750000000E-03   0.5700000000E-01   0.0000000000E+00  -0.2710000000E-01   0.2375000003E+01  -0.7716009894E-14  -0.4174862342E-14   0.8109408382E-16  -0.3283523884E-15   0.2896164638E-15   0.5475000008E-01  -0.2642500004E-01  -0.2642500004E-01   0.3338133604E-16  -0.2254035033E-17   0.6808440004E-16   0.2375000003E+01
   0.1054750000E+01   0.9735750000E+00   0.9735750000E+00  -0.2250000000E-02   0.6750000000E-03   0.6750000000E-03   0.5700000000E-01  -0.2710000000E-01  -0.2710000000E-01   0.2375000003E+01   0.9177091441E-14   0.9906707452E-14   0.9114330709E-16  -0.7604671492E-15  -0.4345514269E-15   0.5475000007E-01  -0.2642500003E-01  -0.2642500003E-01   0.5305242087E-16  -0.1516359488E-16  -0.5042419214E-16   0.2375000003E+01
   0.0000000000E+00   0.9735750000E+00   0.9735750000E+00   0.0000000000E+00   0.6750000000E-03   0.6750000000E-03   0.0000000000E+00  -0.2710000000E-01  -0.2710000000E-01   0.2375000003E+01  -0.6441460852E-14  -0.4045924274E-14  -0.1775530154E-15   0.3609643443E-15  -0.1630422784E-14   0.5475000007E-01  -0.2642500004E-01  -0.2642500004E-01   0.8508356502E-17  -0.2533978616E-16  -0.8145071484E-16   0.2375000003E+01
   0.2109500000E+01   0.0000000000E+00  -0.9297953055E-16  -0.4500000000E-02   0.0000000000E+00   0.7516128110E-18   0.1140000000E+00   0.0000000000E+00  -0.9373114336E-16   0.2375000004E+01  -0.1444911954E-13  -0.1133339707E-13  -0.4458072209E-15  -0.5801824572E-15   0.2319581731E-15   0.5475000008E-01  -0.2642500004E-01  -0.2642500004E-01  -0.9473785955E-16  -0.2248393305E-15  -0.7010908683E-17   0.2375000004E+01
   0.2109500000E+01   0.9735750000E+00  -0.9646120205E-16  -0.4500000000E-02   0.6750000000E-03   0.8938427213E-18   0.1140000000E+00  -0.2710000000E-01  -0.9735504477E-16   0.2375000003E+01   0.1660369949E-13   0.1392005708E-13  -0.1225650028E-14   0.1605529542E-14   0.2003744665E-15   0.5475000008E-01  -0.2642500004E-01  -0.2642500004E-01  -0.1936489994E-15   0.3255303233E-16   0.5319131660E-16   0.2375000003E+01
   0.2109500000E+01   0.0000000000E+00   0.9735750000E+00  -0.4500000000E-02   0.0000000000E+00   0.6750000000E-03   0.1140000000E+00   0.0000000000E+00  -0.2710000000E-01   0.2375000003E+01   0.1258205909E-13   0.1078883580E-13   0.5221371444E-15   0.4994530389E-15  -0.1210916952E-15   0.5475000008E-01  -0.2642500004E-01  -0.2642500004E-01   0.1063265735E-15  -0.1397578279E-15   0.5852513288E-18   0.2375000003E+01
   0.2109500000E+01   0.9735750000E+00   0.9735750000E+00  -0.4500000000E-02   0.6750000000E-03   0.6750000000E-03   0.1140000000E+00  -0.2710000000E-01  -0.2710000000E-01   0.2375000003E+01  -0.1350902460E-13  -0.1263552516E-13   0.8149084947E-15  -0.5406629798E-15  -0.6772787062E-15   0.5475000007E-01  -0.2642500003E-01  -0.2642500003E-01   0.9257623568E-16  -0.4657191020E-16   0.9686306594E-16   0.2375000003E+01
     1     2     3     4     5     6     7     8
     2     9    10     3     6    11    12     7
 VARIABLES = X,Y,Z,DU1,DU2,DU3,U1,U2,U3,S11,S22,S33,S12,S13,S23,E11,E22,E33,E12,E13,E23,SMISES
 ZONE, T="0.7500D+01" F=FEPOINT, I=   12 J=    2 ET=BRICK
   0.0000000000E+00   0.0000000000E+00   0.0000000000E+00   0.0000000000E+00   0.0000000000E+00   0.0000000000E+00   0.0000000000E+00   0.0000000000E+00   0.0000000000E+00   0.1250000002E+01  -0.1093107497E-13  -0.9555679717E-14   0.1396003540E-15   0.3980983865E-16   0.1181976862E-14   0.5250000008E-01  -0.2575000004E-01  -0.2575000004E-01  -0.7193061412E-17  -0.2931695381E-16   0.7773302256E-16   0.1250000002E+01
   0.1052500000E+01   0.0000000000E+00  -0.2539436072E-16  -0.2250000000E-02   0.0000000000E+00   0.2225773661E-18   0.5475000000E-01   0.0000000000E+00  -0.2561693809E-16   0.1250000002E+01   0.5273395515E-14   0.3566766422E-14  -0.1969497961E-16   0.3892822869E-16   0.8556798289E-15   0.5250000008E-01  -0.2575000004E-01  -0.2575000004E-01   0.4183164000E-16   0.3317701101E-16   0.1206056155E-16   0.1250000002E+01
   0.1052500000E+01   0.9742500000E+00  -0.1242960202E-16  -0.2250000000E-02   0.6750000000E-03  -0.6763848248E-20   0.5475000000E-01  -0.2642500000E-01  -0.1242283817E-16   0.1250000002E+01  -0.7144102991E-14  -0.1018426317E-13  -0.8177458000E-15   0.1709886957E-15  -0.5193433235E-15   0.5250000007E-01  -0.2575000004E-01  -0.2575000004E-01  -0.2191955825E-16  -0.5678581735E-16  -0.3254303285E-16   0.1250000002E+01
   0.0000000000E+00   0.9742500000E+00   0.3478253843E-16   0.0000000000E+00   0.6750000000E-03   0.4233617913E-18   0.0000000000E+00  -0.2642500000E-01   0.3435917664E-16   0.1250000002E+01   0.8123216370E-14   0.5228942365E-14  -0.3431875055E-15  -0.2434137720E-15  -0.3276652942E-15   0.5250000008E-01  -0.2575000004E-01  -0.2575000004E-01   0.4218999606E-16  -0.6059384226E-16   0.5418249648E-18   0.1250000002E+01
   0.0000000000E+00   0.0000000000E+00   0.9742500000E+00   0.0000000000E+00   0.0000000000E+00   0.6750000000E-03   0.0000000000E+00   0.0000000000E+00  -0.2642500000E-01   0.1250000002E+01   0.8422399244E-14   0.9173418445E-14  -0.1408375000E-15   0.2238662112E-15   0.6504162989E-15   0.5250000008E-01  -0.2575000004E-01  -0.2575000004E-01   0.8836179066E-17  -0.1643169667E-15  -0.6178448997E-16   0.1250000002E+01
   0.1052500000E+01   0.0000000000E+00   0.9742500000E+00  -0.2250000000E-02   0.0000000000E+00   0.6750000000E-03   0.5475000000E-01   0.0000000000E+00  -0.2642500000E-01   0.1250000002E+01  -0.7492239524E-14  -0.4010321657E-14  -0.7543600893E-17  -0.5185085303E-15   0.2803520981E-15   0.5250000007E-01  -0.2575000004E-01  -0.2575000004E-01   0.5569479171E-17  -0.2019283192E-16   0.8023913950E-16   0.1250000002E+01
   0.1052500000E+01   0.9742500000E+00   0.9742500000E+00  -0.2250000000E-02   0.6750000000E-03   0.6750000000E-03   0.5475000000E-01  -0.2642500000E-01  -0.2642500000E-01   0.1250000002E+01   0.9094821105E-14   0.9914144534E-14   0.3818833731E-16  -0.8015260187E-15  -0.4612045970E-15   0.5250000007E-01  -0.2575000003E-01  -0.2575000003E-01   0.7218643055E-16   0.2236549592E-17  -0.4622635562E-16   0.1250000002E+01
   0.0000000000E+00   0.9742500000E+00   0.9742500000E+00   0.0000000000E+00   0.6750000000E-03   0.6750000000E-03   0.0000000000E+00  -0.2642500000E-01  -0.2642500000E-01   0.1250000002E+01  -0.6778477478E-14  -0.4478226138E-14  -0.1541857442E-15   0.4589375278E-15  -0.1655308854E-14   0.5250000007E-01  -0.2575000003E-01  -0.2575000003E-01   0.7043587828E-17  -0.2515383528E-16  -0.8549589370E-16   0.1250000002E+01
   0.2105000000E+01   0.0000000000E+00  -0.9401128520E-16  -0.4500000000E-02   0.0000000000E+00  -0.1031754648E-17   0.1095000000E+00   0.0000000000E+00  -0.9297953055E-16   0.1250000002E+01  -0.1453052698E-13  -0.1138283220E-13  -0.5925064487E-15  -0.5630420548E-15   0.3131471945E-15   0.5250000008E-01  -0.2575000004E-01  -0.2575000004E-01  -0.1069301544E-15  -0.1890252264E-15   0.3061747267E-17   0.1250000002E+01
   0.2105000000E+01   0.9742500000E+00  -0.9709054779E-16  -0.4500000000E-02   0.6750000000E-03  -0.6293457374E-18   0.1095000000E+00  -0.2642500000E-01  -0.9646120205E-16   0.1250000002E+01   0.1640917927E-13   0.1367188498E-13  -0.1306353740E-14   0.1494846930E-14   0.1999677321E-15   0.5250000007E-01  -0.2575000004E-01  -0.2575000004E-01  -0.2289105579E-15   0.1375291610E-16   0.4518557258E-16   0.1250000002E+01
   0.2105000000E+01   0.0000000000E+00   0.9742500000E+00  -0.4500000000E-02   0.0000000000E+00   0.6750000000E-03   0.1095000000E+00   0.0000000000E+00  -0.2642500000E-01   0.1250000002E+01   0.1324878875E-13   0.1141715247E-13   0.4376561285E-16   0.8178825628E-15  -0.2302464030E-16   0.5250000007E-01  -0.2575000004E-01  -0.2575000004E-01   0.1204429683E-15  -0.1987562461E-15  -0.7893819185E-17   0.1250000002E+01
   0.2105000000E+01   0.9742500000E+00   0.9742500000E+00  -0.4500000000E-02   0.6750000000E-03   0.6750000000E-03   0.1095000000E+00  -0.2642500000E-01  -0.2642500000E-01   0.1250000002E+01  -0.1353827472E-13  -0.1242526786E-13   0.3089919461E-15  -0.3573491059E-15  -0.6053684135E-15   0.5250000007E-01  -0.2575000003E-01  -0.2575000003E-01   0.1155900791E-15  -0.6853231166E-16   0.7923893394E-16   0.1250000002E+01
     1     2     3     4     5     6     7     8
     2     9    10     3     6    11    12     7
 VARIABLES = X,Y,Z,DU1,DU2,DU3,U1,U2,U3,S11,S22,S33,S12,S13,S23,E11,E22,E33,E12,E13,E23,SMISES
 ZONE, T="0.7550D+01" F=FEPOINT, I=   12 J=    2 ET=BRICK
   0.0000000000E+00   0.0000000000E+00   0.0000000000E+00   0.0000000000E+00   0.0000000000E+00   0.0000000000E+00   0.0000000000E+00   0.0000000000E+00   0.0000000000E+00   0.1250000002E+00  -0.1094743028E-13  -0.9737821183E-14   0.1451167911E-15  -0.8322509768E-16   0.1112418371E-14   0.5025000008E-01  -0.2507500004E-01  -0.2507500004E-01   0.4874058829E-17  -0.2685449444E-16   0.6171571617E-16   0.1250000002E+00
   0.1050250000E+01   0.0000000000E+00  -0.2555321245E-16  -0.2250000000E-02   0.0000000000E+00  -0.1588517281E-18   0.5250000000E-01   0.0000000000E+00  -0.2539436072E-16   0.1250000002E+00   0.4849202343E-14   0.3178628792E-14   0.4251060230E-16   0.2707145150E-15   0.8415373962E-15   0.5025000008E-01  -0.2507500004E-01  -0.2507500004E-01   0.8330107650E-17   0.2138951514E-16   0.3229172888E-16   0.1250000002E+00
   0.1050250000E+01   0.9749250000E+00  -0.1255173405E-16  -0.2250000000E-02   0.6750000000E-03  -0.1221320302E-18   0.5250000000E-01  -0.2575000000E-01  -0.1242960202E-16   0.1250000002E+00  -0.6956014539E-14  -0.9924063623E-14  -0.7564265414E-15   0.9122677585E-16  -0.4541241876E-15   0.5025000007E-01  -0.2507500004E-01  -0.2507500004E-01  -0.7213080681E-17  -0.3882014048E-17  -0.4113844102E-16   0.1250000002E+00
   0.0000000000E+00   0.9749250000E+00   0.3437249256E-16   0.0000000000E+00   0.6750000000E-03  -0.4100458685E-18   0.0000000000E+00  -0.2575000000E-01   0.3478253843E-16   0.1250000002E+00   0.8485155271E-14   0.5600542323E-14  -0.3633490527E-15  -0.2080372576E-15  -0.4161949578E-15   0.5025000007E-01  -0.2507500004E-01  -0.2507500004E-01   0.5416098501E-16  -0.7142492021E-16  -0.2618646249E-16   0.1250000002E+00
   0.0000000000E+00   0.0000000000E+00   0.9749250000E+00   0.0000000000E+00   0.0000000000E+00   0.6750000000E-03   0.0000000000E+00   0.0000000000E+00  -0.2575000000E-01   0.1250000002E+00   0.8613973840E-14   0.9306079189E-14  -0.1184095366E-15   0.1067509921E-15   0.6380079533E-15   0.5025000007E-01  -0.2507500004E-01  -0.2507500004E-01  -0.7766835017E-17  -0.1528791438E-15  -0.1435620179E-16   0.1250000002E+00
   0.1050250000E+01   0.0000000000E+00   0.9749250000E+00  -0.2250000000E-02   0.0000000000E+00   0.6750000000E-03   0.5250000000E-01   0.0000000000E+00  -0.2575000000E-01   0.1250000002E+00  -0.7387375488E-14  -0.4003963209E-14  -0.2263661967E-15  -0.2331877673E-15   0.3016929955E-15   0.5025000007E-01  -0.2507500004E-01  -0.2507500004E-01   0.4301425928E-16  -0.4407984283E-16   0.5159908641E-16   0.1250000002E+00
   0.1050250000E+01   0.9749250000E+00   0.9749250000E+00  -0.2250000000E-02   0.6750000000E-03   0.6750000000E-03   0.5250000000E-01  -0.2575000000E-01  -0.2575000000E-01   0.1250000002E+00   0.9018891360E-14   0.9775764749E-14  -0.1423999453E-15  -0.8818080306E-15  -0.5032578000E-15   0.5025000007E-01  -0.2507500003E-01  -0.2507500003E-01   0.5054482911E-16  -0.6435541698E-17  -0.4503060889E-16   0.1250000002E+00
   0.0000000000E+00   0.9749250000E+00   0.9749250000E+00   0.0000000000E+00   0.6750000000E-03   0.6750000000E-03   0.0000000000E+00  -0.2575000000E-01  -0.2575000000E-01   0.1250000002E+00  -0.6873721576E-14  -0.4456936880E-14  -0.1878996891E-15   0.4367005668E-15  -0.1609193148E-14   0.5025000007E-01  -0.2507500003E-01  -0.2507500003E-01   0.8056212985E-17  -0.2197743140E-16  -0.1175747714E-15   0.1250000002E+00
   0.2100500000E+01   0.0000000000E+00  -0.9266224735E-16  -0.4500000000E-02   0.0000000000E+00   0.1349037851E-17   0.1050000000E+00   0.0000000000E+00  -0.9401128520E-16   0.1250000002E+00  -0.1501456812E-13  -0.1182598728E-13  -0.2739917972E-15  -0.4247545054E-15   0.2452778829E-15   0.5025000008E-01  -0.2507500004E-01  -0.2507500004E-01  -0.6008251918E-16  -0.1655863123E-15  -0.2564643753E-17   0.1250000002E+00
   0.2100500000E+01   0.9749250000E+00  -0.9604751497E-16  -0.4500000000E-02   0.6750000000E-03   0.1043032817E-17   0.1050000000E+00  -0.2575000000E-01  -0.9709054779E-16   0.1250000002E+00   0.1672569057E-13   0.1392594624E-13  -0.1059675260E-14   0.1548220293E-14   0.2718514226E-15   0.5025000007E-01  -0.2507500003E-01  -0.2507500003E-01  -0.1962964738E-15  -0.5016126286E-16   0.4228755672E-16   0.1250000002E+00
   0.2100500000E+01   0.0000000000E+00   0.9749250000E+00  -0.4500000000E-02   0.0000000000E+00   0.6750000000E-03   0.1050000000E+00   0.0000000000E+00  -0.2575000000E-01   0.1250000002E+00   0.1304879856E-13   0.1113185393E-13   0.2173379826E-15   0.9114411497E-15  -0.8890529289E-16   0.5025000007E-01  -0.2507500003E-01  -0.2507500003E-01   0.1235434701E-16  -0.1291981205E-15   0.4829960654E-17   0.1250000002E+00
   0.2100500000E+01   0.9749250000E+00   0.9749250000E+00  -0.4500000000E-02   0.6750000000E-03   0.6750000000E-03   0.1050000000E+00  -0.2575000000E-01  -0.2575000000E-01   0.1250000002E+00  -0.1364241712E-13  -0.1271805472E-13   0.6209623896E-15  -0.5354504116E-15  -0.5423977209E-15   0.5025000006E-01  -0.2507500003E-01  -0.2507500003E-01   0.1053259507E-15  -0.6454028422E-16   0.9194295305E-16   0.1250000002E+00
     1     2     3     4     5     6     7     8
     2     9    10     3     6    11    12     7
 VARIABLES = X,Y,Z,DU1,DU2,DU3,U1,U2,U3,S11,S22,S33,S12,S13,S23,E11,E22,E33,E12,E13,E23,SMISES
 ZONE, T="0.7600D+01" F=FEPOINT, I=   12 J=    2 ET=BRICK
   0.0000000000E+00   0.0000000000E+00   0.0000000000E+00   0.0000000000E+00   0.0000000000E+00   0.0000000000E+00   0.0000000000E+00   0.0000000000E+00   0.0000000000E+00  -0.1000000002E+01  -0.1121965283E-13  -0.9870834419E-14   0.1280944036E-15  -0.1533194103E-15   0.1190959092E-14   0.4800000008E-01  -0.2440000004E-01  -0.2440000004E-01   0.4588791360E-17  -0.1114041630E-16   0.8940805652E-16   0.1000000002E+01
   0.1048000000E+01   0.0000000000E+00  -0.2585932197E-16  -0.2250000000E-02   0.0000000000E+00  -0.3061095216E-18   0.5025000000E-01   0.0000000000E+00  -0.2555321245E-16  -0.1000000002E+01   0.5092984302E-14   0.3409031157E-14   0.1564183602E-15   0.5305553478E-15   0.8850543806E-15   0.4800000007E-01  -0.2440000004E-01  -0.2440000004E-01   0.1849637624E-16   0.3959508423E-17   0.1556455950E-16   0.1000000002E+01
   0.1048000000E+01   0.9756000000E+00  -0.1252768879E-16  -0.2250000000E-02   0.6750000000E-03   0.2404525814E-19   0.5025000000E-01  -0.2507500000E-01  -0.1255173405E-16  -0.1000000001E+01  -0.7044236323E-14  -0.1003768352E-13  -0.6184989487E-15   0.8626726279E-16  -0.4305204014E-15   0.4800000007E-01  -0.2440000003E-01  -0.2440000003E-01  -0.1988040897E-16  -0.2536877278E-16  -0.5655693884E-16   0.1000000001E+01
   0.0000000000E+00   0.9756000000E+00   0.3475008379E-16   0.0000000000E+00   0.6750000000E-03   0.3775912321E-18   0.0000000000E+00  -0.2507500000E-01   0.3437249256E-16  -0.1000000001E+01   0.8379955388E-14   0.5291708224E-14  -0.3246855359E-15  -0.2516484002E-15  -0.4346736884E-15   0.4800000007E-01  -0.2440000004E-01  -0.2440000004E-01   0.6013467508E-16  -0.8215553177E-16  -0.1139934112E-16   0.1000000001E+01
   0.0000000000E+00   0.0000000000E+00   0.9756000000E+00   0.0000000000E+00   0.0000000000E+00   0.6750000000E-03   0.0000000000E+00   0.0000000000E+00  -0.2507500000E-01  -0.1000000001E+01   0.8501449208E-14   0.9417324935E-14  -0.1116584356E-15   0.8572948460E-16   0.6753992667E-15   0.4800000007E-01  -0.2440000004E-01  -0.2440000004E-01  -0.6968500564E-18  -0.1443408522E-15  -0.6394249383E-16   0.1000000001E+01
   0.1048000000E+01   0.0000000000E+00   0.9756000000E+00  -0.2250000000E-02   0.0000000000E+00   0.6750000000E-03   0.5025000000E-01   0.0000000000E+00  -0.2507500000E-01  -0.1000000001E+01  -0.7370061617E-14  -0.3876623427E-14  -0.3250547225E-15  -0.1476960905E-15   0.3137283157E-15   0.4800000007E-01  -0.2440000003E-01  -0.2440000003E-01   0.2896222716E-16  -0.5985579291E-16   0.8934513781E-16   0.1000000001E+01
   0.1048000000E+01   0.9756000000E+00   0.9756000000E+00  -0.2250000000E-02   0.6750000000E-03   0.6750000000E-03   0.5025000000E-01  -0.2507500000E-01  -0.2507500000E-01  -0.1000000001E+01   0.9080943320E-14   0.9822079658E-14  -0.1851509738E-15  -0.8884595861E-15  -0.5938219848E-15   0.4800000006E-01  -0.2440000003E-01  -0.2440000003E-01   0.5334090007E-16   0.1540528222E-18  -0.3916448730E-16   0.1000000001E+01
   0.0000000000E+00   0.9756000000E+00   0.9756000000E+00   0.0000000000E+00   0.6750000000E-03   0.6750000000E-03   0.0000000000E+00  -0.2507500000E-01  -0.2507500000E-01  -0.1000000001E+01  -0.7286377751E-14  -0.4734782827E-14  -0.1510726204E-15   0.4052191281E-15  -0.1743539047E-14   0.4800000006E-01  -0.2440000003E-01  -0.2440000003E-01   0.1036503364E-16  -0.2514809183E-16  -0.1034674498E-15   0.1000000001E+01
   0.2096000000E+01   0.0000000000E+00  -0.9372311573E-16  -0.4500000000E-02   0.0000000000E+00  -0.1060868384E-17   0.1005000000E+00   0.0000000000E+00  -0.9266224735E-16  -0.1000000002E+01  -0.1426970469E-13  -0.1129988133E-13  -0.4467899175E-15  -0.4876636691E-15   0.2234031816E-15   0.4800000007E-01  -0.2440000004E-01  -0.2440000004E-01  -0.7184167303E-16  -0.1192308465E-15  -0.2211281528E-17   0.1000000002E+01
   0.2096000000E+01   0.9756000000E+00  -0.9715900630E-16  -0.4500000000E-02   0.6750000000E-03  -0.1111491323E-17   0.1005000000E+00  -0.2507500000E-01  -0.9604751497E-16  -0.1000000001E+01   0.1668524044E-13   0.1392458966E-13  -0.1232292681E-14   0.1490267621E-14   0.2173963692E-15   0.4800000007E-01  -0.2440000003E-01  -0.2440000003E-01  -0.1986261016E-15   0.6855663511E-16   0.4907280212E-16   0.1000000001E+01
   0.2096000000E+01   0.0000000000E+00   0.9756000000E+00  -0.4500000000E-02   0.0000000000E+00   0.6750000000E-03   0.1005000000E+00   0.0000000000E+00  -0.2507500000E-01  -0.1000000001E+01   0.1308102774E-13   0.1112988683E-13   0.3651194388E-15   0.3517264629E-15  -0.8641700079E-17   0.4800000007E-01  -0.2440000003E-01  -0.2440000003E-01   0.2437361045E-16  -0.4971515657E-16   0.1732923705E-16   0.1000000001E+01
   0.2096000000E+01   0.9756000000E+00   0.9756000000E+00  -0.4500000000E-02   0.6750000000E-03   0.6750000000E-03   0.1005000000E+00  -0.2507500000E-01  -0.2507500000E-01  -0.1000000001E+01  -0.1339119688E-13  -0.1243610765E-13   0.7195856686E-15  -0.1560681010E-15  -0.5244115679E-15   0.4800000006E-01  -0.2440000003E-01  -0.2440000003E-01   0.1128647890E-15  -0.9775012168E-16   0.6036082545E-16   0.1000000001E+01
     1     2     3     4     5     6     7     8
     2     9    10     3     6    11    12     7
 VARIABLES = X,Y,Z,DU1,DU2,DU3,U1,U2,U3,S11,S22,S33,S12,S13,S23,E11,E22,E33,E12,E13,E23,SMISES
 ZONE, T="0.7650D+01" F=FEPOINT, I=   12 J=    2 ET=BRICK
   0.0000000000E+00   0.0000000000E+00   0.0000000000E+00   0.0000000000E+00   0.0000000000E+00   0.0000000000E+00   0.0000000000E+00   0.0000000000E+00   0.0000000000E+00  -0.2125000003E+01  -0.1095697129E-13  -0.9519125992E-14   0.1184742759E-15  -0.5387715826E-16   0.1097318190E-14   0.4575000007E-01  -0.2372500004E-01  -0.2372500004E-01  -0.3233111040E-17  -0.3082646762E-16   0.5973180336E-16   0.2125000003E+01
   0.1045750000E+01   0.0000000000E+00  -0.2476074859E-16  -0.2250000000E-02   0.0000000000E+00   0.1098573385E-17   0.4800000000E-01   0.0000000000E+00  -0.2585932197E-16  -0.2125000003E+01   0.4944047192E-14   0.3344721848E-14  -0.1338010285E-15   0.1360915556E-15   0.8060191608E-15   0.4575000007E-01  -0.2372500004E-01  -0.2372500004E-01   0.2916115268E-16   0.1341907846E-16   0.2836024509E-16   0.2125000003E+01
   0.1045750000E+01   0.9762750000E+00  -0.1178283742E-16  -0.2250000000E-02   0.6750000000E-03   0.7448513698E-18   0.4800000000E-01  -0.2440000000E-01  -0.1252768879E-16  -0.2125000003E+01  -0.6834343749E-14  -0.9784796500E-14  -0.8810685268E-15   0.8838228328E-16  -0.3945812255E-15   0.4575000007E-01  -0.2372500003E-01  -0.2372500003E-01  -0.7033831632E-18  -0.2644215482E-16  -0.4724733117E-16   0.2125000003E+01
   0.0000000000E+00   0.9762750000E+00   0.3424147462E-16   0.0000000000E+00   0.6750000000E-03  -0.5086091731E-18   0.0000000000E+00  -0.2440000000E-01   0.3475008379E-16  -0.2125000003E+01   0.8346488530E-14   0.5542784855E-14  -0.1642736946E-15   0.3203460820E-17  -0.2377320303E-15   0.4575000007E-01  -0.2372500003E-01  -0.2372500003E-01   0.4627564918E-16  -0.6836672484E-16   0.1048517451E-17   0.2125000003E+01
   0.0000000000E+00   0.0000000000E+00   0.9762750000E+00   0.0000000000E+00   0.0000000000E+00   0.6750000000E-03   0.0000000000E+00   0.0000000000E+00  -0.2440000000E-01  -0.2125000003E+01   0.7959121439E-14   0.8658846235E-14  -0.1073804213E-15   0.1488525439E-15   0.7499323008E-15   0.4575000007E-01  -0.2372500003E-01  -0.2372500003E-01  -0.4635317198E-18  -0.1509569381E-15  -0.2895662694E-16   0.2125000003E+01
   0.1045750000E+01   0.0000000000E+00   0.9762750000E+00  -0.2250000000E-02   0.0000000000E+00   0.6750000000E-03   0.4800000000E-01   0.0000000000E+00  -0.2440000000E-01  -0.2125000003E+01  -0.7418135687E-14  -0.4139669691E-14  -0.8780162066E-16  -0.4591310439E-15   0.3291322324E-15   0.4575000007E-01  -0.2372500003E-01  -0.2372500003E-01   0.2210405173E-16  -0.4553172923E-16   0.6035872614E-16   0.2125000003E+01
   0.1045750000E+01   0.9762750000E+00   0.9762750000E+00  -0.2250000000E-02   0.6750000000E-03   0.6750000000E-03   0.4800000000E-01  -0.2440000000E-01  -0.2440000000E-01  -0.2125000003E+01   0.9141898790E-14   0.9906707452E-14   0.1574895111E-16  -0.6749120849E-15  -0.4576801206E-15   0.4575000006E-01  -0.2372500003E-01  -0.2372500003E-01   0.5712376905E-16   0.1645210291E-17  -0.3709543794E-16   0.2125000003E+01
   0.0000000000E+00   0.9762750000E+00   0.9762750000E+00   0.0000000000E+00   0.6750000000E-03   0.6750000000E-03   0.0000000000E+00  -0.2440000000E-01  -0.2440000000E-01  -0.2125000003E+01  -0.7303342417E-14  -0.4662720608E-14  -0.1910749866E-15   0.5035050041E-15  -0.1562690359E-14   0.4575000006E-01  -0.2372500003E-01  -0.2372500003E-01   0.1156521515E-16  -0.1449752824E-16  -0.1067988743E-15   0.2125000003E+01
   0.2091500000E+01   0.0000000000E+00  -0.8974634613E-16  -0.4500000000E-02   0.0000000000E+00   0.3976769608E-17   0.9600000000E-01   0.0000000000E+00  -0.9372311573E-16  -0.2125000003E+01  -0.1498736406E-13  -0.1162655635E-13  -0.5148281578E-15  -0.7369898702E-15   0.1340026367E-15   0.4575000007E-01  -0.2372500004E-01  -0.2372500004E-01  -0.1013989524E-15  -0.1075763714E-15  -0.3802523109E-17   0.2125000003E+01
   0.2091500000E+01   0.9762750000E+00  -0.9369797086E-16  -0.4500000000E-02   0.6750000000E-03   0.3461035434E-17   0.9600000000E-01  -0.2440000000E-01  -0.9715900630E-16  -0.2125000003E+01   0.1681485542E-13   0.1406082770E-13  -0.1317611657E-14   0.1612989075E-14   0.1636433446E-15   0.4575000006E-01  -0.2372500003E-01  -0.2372500003E-01  -0.2327784496E-15  -0.7899831577E-16   0.4106127560E-16   0.2125000003E+01
   0.2091500000E+01   0.0000000000E+00   0.9762750000E+00  -0.4500000000E-02   0.0000000000E+00   0.6750000000E-03   0.9600000000E-01   0.0000000000E+00  -0.2440000000E-01  -0.2125000003E+01   0.1337010377E-13   0.1157688048E-13   0.4276156823E-15   0.2026294424E-15  -0.2052352577E-15   0.4575000006E-01  -0.2372500003E-01  -0.2372500003E-01   0.5204856316E-16  -0.1318401718E-15   0.3063164680E-17   0.2125000003E+01
   0.2091500000E+01   0.9762750000E+00   0.9762750000E+00  -0.4500000000E-02   0.6750000000E-03   0.6750000000E-03   0.9600000000E-01  -0.2440000000E-01  -0.2440000000E-01  -0.2125000003E+01  -0.1357595830E-13  -0.1268486254E-13   0.6581666534E-15  -0.3584033990E-15  -0.6182073915E-15   0.4575000006E-01  -0.2372500003E-01  -0.2372500003E-01   0.1293955435E-15  -0.8536892939E-16   0.7508174935E-16   0.2125000003E+01
     1     2     3     4     5     6     7     8
     2     9    10     3     6    11    12     7
 VARIABLES = X,Y,Z,DU1,DU2,DU3,U1,U2,U3,S11,S22,S33,S12,S13,S23,E11,E22,E33,E12,E13,E23,SMISES
 ZONE, T="0.7700D+01" F=FEPOINT, I=   12 J=    2 ET=BRICK
   0.0000000000E+00   0.0000000000E+00   0.0000000000E+00   0.0000000000E+00   0.0000000000E+00   0.0000000000E+00   0.0000000000E+00   0.0000000000E+00   0.0000000000E+00  -0.3250000005E+01  -0.1053220423E-13  -0.8980614497E-14   0.1074162917E-15  -0.1649021756E-15   0.1305494725E-14   0.4350000007E-01  -0.2305000004E-01  -0.2305000004E-01   0.3957861912E-17  -0.3839332325E-16   0.7534941955E-16   0.3250000005E+01
   0.1043500000E+01   0.0000000000E+00  -0.2639909239E-16  -0.2250000000E-02   0.0000000000E+00  -0.1638343800E-17   0.4575000000E-01   0.0000000000E+00  -0.2476074859E-16  -0.3250000005E+01   0.4779506507E-14   0.3084033035E-14  -0.2717035293E-15   0.3036928688E-16   0.9150808624E-15   0.4350000007E-01  -0.2305000004E-01  -0.2305000004E-01   0.2146115140E-16   0.2273568026E-16   0.2306600846E-16   0.3250000005E+01
   0.1043500000E+01   0.9769500000E+00  -0.1277644267E-16  -0.2250000000E-02   0.6750000000E-03  -0.9936052444E-18   0.4575000000E-01  -0.2372500000E-01  -0.1178283742E-16  -0.3250000005E+01  -0.6902736307E-14  -0.1004548531E-13  -0.1150446091E-14   0.6543325002E-15  -0.4251769933E-15   0.4350000006E-01  -0.2305000003E-01  -0.2305000003E-01  -0.1403898846E-16  -0.5549469243E-16  -0.4344975752E-16   0.3250000005E+01
   0.0000000000E+00   0.9769500000E+00   0.3531400884E-16   0.0000000000E+00   0.6750000000E-03   0.1072534218E-17   0.0000000000E+00  -0.2372500000E-01   0.3424147462E-16  -0.3250000005E+01   0.7890514390E-14   0.4649429223E-14  -0.2356464165E-15  -0.3152952463E-15  -0.3350742448E-15   0.4350000006E-01  -0.2305000003E-01  -0.2305000003E-01   0.5638374216E-16  -0.6076495362E-16   0.1316079949E-17   0.3250000005E+01
   0.0000000000E+00   0.0000000000E+00   0.9769500000E+00   0.0000000000E+00   0.0000000000E+00   0.6750000000E-03   0.0000000000E+00   0.0000000000E+00  -0.2372500000E-01  -0.3250000005E+01   0.8557325109E-14   0.9265216391E-14  -0.8241775449E-16  -0.1298142591E-15   0.8755112356E-15   0.4350000006E-01  -0.2305000003E-01  -0.2305000003E-01  -0.1935720697E-17  -0.1524013115E-15  -0.2689400634E-16   0.3250000005E+01
   0.1043500000E+01   0.0000000000E+00   0.9769500000E+00  -0.2250000000E-02   0.0000000000E+00   0.6750000000E-03   0.4575000000E-01   0.0000000000E+00  -0.2372500000E-01  -0.3250000005E+01  -0.7653061674E-14  -0.4182299423E-14   0.1919751823E-15  -0.5353995540E-15   0.3874177181E-15   0.4350000006E-01  -0.2305000003E-01  -0.2305000003E-01   0.2918993915E-16  -0.6587172628E-16   0.7236864703E-16   0.3250000005E+01
   0.1043500000E+01   0.9769500000E+00   0.9769500000E+00  -0.2250000000E-02   0.6750000000E-03   0.6750000000E-03   0.4575000000E-01  -0.2372500000E-01  -0.2372500000E-01  -0.3250000004E+01   0.9169654360E-14   0.1003061115E-13   0.3144162172E-15  -0.3505704294E-15  -0.6708575888E-15   0.4350000006E-01  -0.2305000003E-01  -0.2305000003E-01   0.6751719791E-16   0.5647298363E-17  -0.4782182954E-16   0.3250000004E+01
   0.0000000000E+00   0.9769500000E+00   0.9769500000E+00   0.0000000000E+00   0.6750000000E-03   0.6750000000E-03   0.0000000000E+00  -0.2372500000E-01  -0.2372500000E-01  -0.3250000004E+01  -0.6170345819E-14  -0.3678661134E-14  -0.2104249669E-15   0.1769623701E-15  -0.1715035146E-14   0.4350000006E-01  -0.2305000003E-01  -0.2305000003E-01   0.5243752609E-17  -0.2970274815E-16  -0.1077758458E-15   0.3250000004E+01
   0.2087000000E+01   0.0000000000E+00  -0.9604038339E-16  -0.4500000000E-02   0.0000000000E+00  -0.6294037267E-17   0.9150000000E-01   0.0000000000E+00  -0.8974634613E-16  -0.3250000005E+01  -0.1535661998E-13  -0.1230185296E-13  -0.1427047282E-15  -0.4918248915E-15   0.2479289308E-15   0.4350000007E-01  -0.2305000003E-01  -0.2305000003E-01  -0.4833058850E-16  -0.2127424960E-15  -0.1078102908E-17   0.3250000005E+01
   0.2087000000E+01   0.9769500000E+00  -0.9954942018E-16  -0.4500000000E-02   0.6750000000E-03  -0.5851449316E-17   0.9150000000E-01  -0.2372500000E-01  -0.9369797086E-16  -0.3250000005E+01   0.1718557009E-13   0.1448433136E-13  -0.1041516871E-14   0.1282954601E-14   0.9229012218E-16   0.4350000006E-01  -0.2305000003E-01  -0.2305000003E-01  -0.1964795592E-15   0.3750502160E-16   0.3523196828E-16   0.3250000005E+01
   0.2087000000E+01   0.0000000000E+00   0.9769500000E+00  -0.4500000000E-02   0.0000000000E+00   0.6750000000E-03   0.9150000000E-01   0.0000000000E+00  -0.2372500000E-01  -0.3250000005E+01   0.1301970749E-13   0.1160291023E-13   0.3954299178E-15   0.3120831184E-15  -0.2383444225E-15   0.4350000006E-01  -0.2305000003E-01  -0.2305000003E-01   0.4880328528E-16  -0.1119767471E-15   0.3684541524E-17   0.3250000005E+01
   0.2087000000E+01   0.9769500000E+00   0.9769500000E+00  -0.4500000000E-02   0.6750000000E-03   0.6750000000E-03   0.9150000000E-01  -0.2372500000E-01  -0.2372500000E-01  -0.3250000004E+01  -0.1426885125E-13  -0.1303652211E-13   0.5506686543E-15  -0.2833344086E-15  -0.6944091234E-15   0.4350000006E-01  -0.2305000003E-01  -0.2305000003E-01   0.1238717510E-15  -0.1632764811E-15   0.8991290705E-16   0.3250000004E+01
     1     2     3     4     5     6     7     8
     2     9    10     3     6    11    12     7
 VARIABLES = X,Y,Z,DU1,DU2,DU3,U1,U2,U3,S11,S22,S33,S12,S13,S23,E11,E22,E33,E12,E13,E23,SMISES
 ZONE, T="0.7750D+01" F=FEPOINT, I=   12 J=    2 ET=BRICK
   0.0000000000E+00   0.0000000000E+00   0.0000000000E+00   0.0000000000E+00   0.0000000000E+00   0.0000000000E+00   0.0000000000E+00   0.0000000000E+00   0.0000000000E+00  -0.4375000007E+01  -0.1150364924E-13  -0.1092496334E-13   0.1012392933E-15  -0.4166884724E-15   0.1241245181E-14   0.4125000006E-01  -0.2237500004E-01  -0.2237500004E-01   0.4413078546E-17  -0.2861170774E-16   0.6522968199E-16   0.4375000007E+01
   0.1041250000E+01   0.0000000000E+00  -0.2797472607E-16  -0.2250000000E-02   0.0000000000E+00  -0.1575633676E-17   0.4350000000E-01   0.0000000000E+00  -0.2639909239E-16  -0.4375000007E+01   0.4794380670E-14   0.3346714557E-14   0.4865285990E-15   0.6520974949E-15   0.1001642271E-14   0.4125000006E-01  -0.2237500003E-01  -0.2237500003E-01   0.3068116574E-16   0.1981811479E-16   0.3185490299E-16   0.4375000007E+01
   0.1041250000E+01   0.9776250000E+00  -0.1391834700E-16  -0.2250000000E-02   0.6750000000E-03  -0.1141904333E-17   0.4350000000E-01  -0.2305000000E-01  -0.1277644267E-16  -0.4375000006E+01  -0.7605521511E-14  -0.1069275937E-13  -0.3136544604E-15  -0.6905671273E-16  -0.4837106849E-15   0.4125000006E-01  -0.2237500003E-01  -0.2237500003E-01  -0.3761353684E-17  -0.1806755072E-16  -0.4654324310E-16   0.4375000006E+01
   0.0000000000E+00   0.9776250000E+00   0.3509829902E-16   0.0000000000E+00   0.6750000000E-03  -0.2157098175E-18   0.0000000000E+00  -0.2305000000E-01   0.3531400884E-16  -0.4375000006E+01   0.9109766759E-14   0.5613437083E-14  -0.3200367349E-15  -0.3946852951E-15  -0.5623887619E-15   0.4125000006E-01  -0.2237500003E-01  -0.2237500003E-01   0.5683574575E-16  -0.8440394814E-16   0.3735890210E-17   0.4375000006E+01
   0.0000000000E+00   0.0000000000E+00   0.9776250000E+00   0.0000000000E+00   0.0000000000E+00   0.6750000000E-03   0.0000000000E+00   0.0000000000E+00  -0.2305000000E-01  -0.4375000006E+01   0.9023725464E-14   0.9966542700E-14  -0.6664291403E-16  -0.3188998435E-15   0.8434080468E-15   0.4125000006E-01  -0.2237500003E-01  -0.2237500003E-01   0.6260044093E-18  -0.1465249112E-15  -0.3133656446E-16   0.4375000006E+01
   0.1041250000E+01   0.0000000000E+00   0.9776250000E+00  -0.2250000000E-02   0.0000000000E+00   0.6750000000E-03   0.4350000000E-01   0.0000000000E+00  -0.2305000000E-01  -0.4375000006E+01  -0.7516276558E-14  -0.4060388461E-14  -0.4443126338E-15   0.2005427032E-15   0.5410568723E-15   0.4125000006E-01  -0.2237500003E-01  -0.2237500003E-01   0.1620141681E-16  -0.6331737239E-16   0.5746392127E-16   0.4375000006E+01
   0.1041250000E+01   0.9776250000E+00   0.9776250000E+00  -0.2250000000E-02   0.6750000000E-03   0.6750000000E-03   0.4350000000E-01  -0.2305000000E-01  -0.2305000000E-01  -0.4375000006E+01   0.9254913824E-14   0.1015252207E-13  -0.1873419786E-15  -0.1049960731E-14  -0.6647711236E-15   0.4125000005E-01  -0.2237500003E-01  -0.2237500003E-01   0.5528647921E-16   0.1237908603E-16  -0.3893070147E-16   0.4375000006E+01
   0.0000000000E+00   0.9776250000E+00   0.9776250000E+00   0.0000000000E+00   0.6750000000E-03   0.6750000000E-03   0.0000000000E+00  -0.2305000000E-01  -0.2305000000E-01  -0.4375000006E+01  -0.7055072536E-14  -0.4520758109E-14  -0.2231058004E-15   0.3390072926E-15  -0.1957037352E-14   0.4125000006E-01  -0.2237500003E-01  -0.2237500003E-01   0.7350803258E-17  -0.4628749154E-16  -0.9709191962E-16   0.4375000006E+01
   0.2082500000E+01   0.0000000000E+00  -0.1004303140E-15  -0.4500000000E-02   0.0000000000E+00  -0.4389930598E-17   0.8700000000E-01   0.0000000000E+00  -0.9604038339E-16  -0.4375000007E+01  -0.1344547102E-13  -0.1126745972E-13  -0.7638893238E-15  -0.2649240586E-15   0.3300029300E-15   0.4125000006E-01  -0.2237500003E-01  -0.2237500003E-01  -0.7521579028E-16  -0.2216927760E-15  -0.5347570634E-17   0.4375000007E+01
   0.2082500000E+01   0.9776250000E+00  -0.1035250429E-15  -0.4500000000E-02   0.6750000000E-03  -0.3975622694E-17   0.8700000000E-01  -0.2305000000E-01  -0.9954942018E-16  -0.4375000006E+01   0.1547070294E-13   0.1261036781E-13  -0.1473109869E-14   0.1528513253E-14   0.8400597787E-16   0.4125000006E-01  -0.2237500003E-01  -0.2237500003E-01  -0.2100391734E-15  -0.3429671086E-16   0.2700371678E-16   0.4375000006E+01
   0.2082500000E+01   0.0000000000E+00   0.9776250000E+00  -0.4500000000E-02   0.0000000000E+00   0.6750000000E-03   0.8700000000E-01   0.0000000000E+00  -0.2305000000E-01  -0.4375000006E+01   0.1307069927E-13   0.1152999826E-13   0.9522979843E-16   0.1111702638E-15  -0.1009198099E-15   0.4125000006E-01  -0.2237500003E-01  -0.2237500003E-01   0.5084060463E-16  -0.7340899103E-16   0.1170095750E-16   0.4375000006E+01
   0.2082500000E+01   0.9776250000E+00   0.9776250000E+00  -0.4500000000E-02   0.6750000000E-03   0.6750000000E-03   0.8700000000E-01  -0.2305000000E-01  -0.2305000000E-01  -0.4375000006E+01  -0.1296978370E-13  -0.1205365452E-13   0.4412353624E-15  -0.3255761624E-16  -0.6190191848E-15   0.4125000005E-01  -0.2237500003E-01  -0.2237500003E-01   0.8384122622E-16  -0.1520539956E-15   0.8326999344E-16   0.4375000006E+01
     1     2     3     4     5     6     7     8
     2     9    10     3     6    11    12     7
 VARIABLES = X,Y,Z,DU1,DU2,DU3,U1,U2,U3,S11,S22,S33,S12,S13,S23,E11,E22,E33,E12,E13,E23,SMISES
 ZONE, T="0.7800D+01" F=FEPOINT, I=   12 J=    2 ET=BRICK
   0.0000000000E+00   0.0000000000E+00   0.0000000000E+00   0.0000000000E+00   0.0000000000E+00   0.0000000000E+00   0.0000000000E+00   0.0000000000E+00   0.0000000000E+00  -0.5500000009E+01  -0.1005345645E-13  -0.9100337227E-14   0.1128074194E-15   0.1277471758E-15   0.1150431788E-14   0.3900000006E-01  -0.2170000003E-01  -0.2170000003E-01   0.3748485327E-17  -0.1490538221E-16   0.7637415484E-16   0.5500000009E+01
   0.1039000000E+01   0.0000000000E+00  -0.2377630907E-16  -0.2250000000E-02   0.0000000000E+00   0.4198416999E-17   0.4125000000E-01   0.0000000000E+00  -0.2797472607E-16  -0.5500000008E+01   0.4764632378E-14   0.3721877249E-14  -0.7104515033E-15  -0.1398078684E-15   0.7553864115E-15   0.3900000006E-01  -0.2170000003E-01  -0.2170000003E-01   0.9158317313E-17   0.5262790159E-17   0.2484688069E-16   0.5500000008E+01
   0.1039000000E+01   0.9783000000E+00  -0.1112131353E-16  -0.2250000000E-02   0.6750000000E-03   0.2797033475E-17   0.4125000000E-01  -0.2237500000E-01  -0.1391834700E-16  -0.5500000008E+01  -0.6462632668E-14  -0.9292633256E-14  -0.1478852753E-14   0.7060079374E-15  -0.4957985045E-15   0.3900000006E-01  -0.2170000003E-01  -0.2170000003E-01  -0.3072349912E-16  -0.1341111741E-16  -0.5336407205E-16   0.5500000008E+01
   0.0000000000E+00   0.9783000000E+00   0.3469414827E-16   0.0000000000E+00   0.6750000000E-03  -0.4041507542E-18   0.0000000000E+00  -0.2237500000E-01   0.3509829902E-16  -0.5500000008E+01   0.6943373337E-14   0.4683358477E-14  -0.3441284472E-16  -0.9714061532E-16  -0.1434910623E-15   0.3900000006E-01  -0.2170000003E-01  -0.2170000003E-01   0.6720465068E-16  -0.8542596730E-16  -0.1519402320E-16   0.5500000008E+01
   0.0000000000E+00   0.0000000000E+00   0.9783000000E+00   0.0000000000E+00   0.0000000000E+00   0.6750000000E-03   0.0000000000E+00   0.0000000000E+00  -0.2237500000E-01  -0.5500000008E+01   0.7382695138E-14   0.8827834822E-14  -0.8411572872E-16   0.1148312950E-15   0.7975314070E-15   0.3900000006E-01  -0.2170000003E-01  -0.2170000003E-01   0.7521527218E-18  -0.1677097395E-15  -0.3794923474E-16   0.5500000008E+01
   0.1039000000E+01   0.0000000000E+00   0.9783000000E+00  -0.2250000000E-02   0.0000000000E+00   0.6750000000E-03   0.4125000000E-01   0.0000000000E+00  -0.2237500000E-01  -0.5500000008E+01  -0.7667935846E-14  -0.4794380799E-14   0.2817263144E-16  -0.6936976910E-15   0.3093303648E-15   0.3900000006E-01  -0.2170000003E-01  -0.2170000003E-01   0.2181769860E-16  -0.4339305565E-16   0.7232719038E-16   0.5500000008E+01
   0.1039000000E+01   0.9783000000E+00   0.9783000000E+00  -0.2250000000E-02   0.6750000000E-03   0.6750000000E-03   0.4125000000E-01  -0.2237500000E-01  -0.2237500000E-01  -0.5500000007E+01   0.9365936136E-14   0.9899270345E-14   0.1670526513E-15  -0.4410654853E-15  -0.5817449507E-15   0.3900000005E-01  -0.2170000003E-01  -0.2170000003E-01   0.5218366615E-16  -0.3613549881E-17  -0.1767805085E-16   0.5500000007E+01
   0.0000000000E+00   0.9783000000E+00   0.9783000000E+00   0.0000000000E+00   0.6750000000E-03   0.6750000000E-03   0.0000000000E+00  -0.2237500000E-01  -0.2237500000E-01  -0.5500000007E+01  -0.7284020377E-14  -0.5144457637E-14  -0.2177138137E-15   0.5276204195E-15  -0.1552012679E-14   0.3900000005E-01  -0.2170000003E-01  -0.2170000003E-01   0.6361176043E-19  -0.2203637069E-16  -0.1046222337E-15   0.5500000007E+01
   0.2078000000E+01   0.0000000000E+00  -0.8708045327E-16  -0.4500000000E-02   0.0000000000E+00   0.1334986072E-16   0.8250000000E-01   0.0000000000E+00  -0.1004303140E-15  -0.5500000008E+01  -0.1467361926E-13  -0.1225251545E-13   0.6485042454E-16  -0.3203860740E-15   0.2690894619E-15   0.3900000006E-01  -0.2170000003E-01  -0.2170000003E-01  -0.7698308720E-16  -0.9951172237E-16  -0.9664888401E-17   0.5500000008E+01
   0.2078000000E+01   0.9783000000E+00  -0.9039141367E-16  -0.4500000000E-02   0.6750000000E-03   0.1313362920E-16   0.8250000000E-01  -0.2237500000E-01  -0.1035250429E-15  -0.5500000008E+01   0.1771837038E-13   0.1534149802E-13  -0.8894019555E-15   0.1332234987E-14   0.3696538554E-15   0.3900000005E-01  -0.2170000003E-01  -0.2170000003E-01  -0.2066051492E-15  -0.3961047915E-16   0.3303381672E-16   0.5500000008E+01
   0.2078000000E+01   0.0000000000E+00   0.9783000000E+00  -0.4500000000E-02   0.0000000000E+00   0.6750000000E-03   0.8250000000E-01   0.0000000000E+00  -0.2237500000E-01  -0.5500000008E+01   0.1353617479E-13   0.1219992200E-13   0.3356268432E-15  -0.1932697751E-15  -0.3527336487E-15   0.3900000005E-01  -0.2170000003E-01  -0.2170000003E-01   0.2884345280E-16  -0.7965930414E-16   0.2110611298E-16   0.5500000008E+01
   0.2078000000E+01   0.9783000000E+00   0.9783000000E+00  -0.4500000000E-02   0.6750000000E-03   0.6750000000E-03   0.8250000000E-01  -0.2237500000E-01  -0.2237500000E-01  -0.5500000007E+01  -0.1356951755E-13  -0.1317948087E-13   0.5607399250E-15  -0.6783801660E-15  -0.6970382375E-15   0.3900000005E-01  -0.2170000003E-01  -0.2170000003E-01   0.6125697154E-16  -0.1148903503E-15   0.7278458260E-16   0.5500000007E+01
     1     2     3     4     5     6     7     8
     2     9    10     3     6    11    12     7
 VARIABLES = X,Y,Z,DU1,DU2,DU3,U1,U2,U3,S11,S22,S33,S12,S13,S23,E11,E22,E33,E12,E13,E23,SMISES
 ZONE, T="0.7850D+01" F=FEPOINT, I=   12 J=    2 ET=BRICK
   0.0000000000E+00   0.0000000000E+00   0.0000000000E+00   0.0000000000E+00   0.0000000000E+00   0.0000000000E+00   0.0000000000E+00   0.0000000000E+00   0.0000000000E+00  -0.6625000010E+01  -0.1120577501E-13  -0.1096487086E-13   0.1336459562E-15  -0.1297148935E-15   0.1168636466E-14   0.3675000006E-01  -0.2102500003E-01  -0.2102500003E-01  -0.1532396577E-17  -0.3168223964E-16   0.6911422005E-16   0.6625000010E+01
   0.1036750000E+01   0.0000000000E+00  -0.2603353724E-16  -0.2250000000E-02   0.0000000000E+00  -0.2257228173E-17   0.3900000000E-01   0.0000000000E+00  -0.2377630907E-16  -0.6625000010E+01   0.5057062260E-14   0.3459195659E-14   0.4410386620E-15   0.6548855602E-15   0.8629104628E-15   0.3675000006E-01  -0.2102500003E-01  -0.2102500003E-01   0.3198818725E-16   0.1600519392E-16   0.2222459968E-16   0.6625000010E+01
   0.1036750000E+01   0.9789750000E+00  -0.1281207840E-16  -0.2250000000E-02   0.6750000000E-03  -0.1690764870E-17   0.3900000000E-01  -0.2170000000E-01  -0.1112131353E-16  -0.6625000009E+01  -0.6432884342E-14  -0.9466069850E-14  -0.4540458823E-15   0.2997835907E-15  -0.4549447076E-15   0.3675000005E-01  -0.2102500003E-01  -0.2102500003E-01  -0.5604980279E-17  -0.8061011767E-17  -0.3793468212E-16   0.6625000009E+01
   0.0000000000E+00   0.9789750000E+00   0.3469140269E-16   0.0000000000E+00   0.6750000000E-03  -0.2745582013E-20   0.0000000000E+00  -0.2170000000E-01   0.3469414827E-16  -0.6625000010E+01   0.8497685426E-14   0.5727181560E-14  -0.2693393829E-15  -0.4083733351E-15  -0.5251839428E-15   0.3675000005E-01  -0.2102500003E-01  -0.2102500003E-01   0.6436544734E-16  -0.7755041247E-16   0.8352299870E-17   0.6625000010E+01
   0.0000000000E+00   0.0000000000E+00   0.9789750000E+00   0.0000000000E+00   0.0000000000E+00   0.6750000000E-03   0.0000000000E+00   0.0000000000E+00  -0.2170000000E-01  -0.6625000010E+01   0.9366222216E-14   0.1121082852E-13  -0.1383777457E-15  -0.1680861121E-15   0.7868561742E-15   0.3675000005E-01  -0.2102500003E-01  -0.2102500003E-01   0.5839680752E-18  -0.1592692528E-15  -0.3539571933E-16   0.6625000010E+01
   0.1036750000E+01   0.0000000000E+00   0.9789750000E+00  -0.2250000000E-02   0.0000000000E+00   0.6750000000E-03   0.3900000000E-01   0.0000000000E+00  -0.2170000000E-01  -0.6625000009E+01  -0.7586661869E-14  -0.4672469837E-14  -0.3640628087E-15   0.3653292800E-15   0.3489466172E-15   0.3675000005E-01  -0.2102500003E-01  -0.2102500003E-01   0.2369698181E-16  -0.5901615641E-16   0.7825421832E-16   0.6625000009E+01
   0.1036750000E+01   0.9789750000E+00   0.9789750000E+00  -0.2250000000E-02   0.6750000000E-03   0.6750000000E-03   0.3900000000E-01  -0.2170000000E-01  -0.2170000000E-01  -0.6625000009E+01   0.9184528557E-14   0.9688114405E-14  -0.3747447627E-15  -0.1036817400E-14  -0.6588686398E-15   0.3675000005E-01  -0.2102500003E-01  -0.2102500003E-01   0.4135294831E-16  -0.7424596443E-17  -0.4336702099E-16   0.6625000009E+01
   0.0000000000E+00   0.9789750000E+00   0.9789750000E+00   0.0000000000E+00   0.6750000000E-03   0.6750000000E-03   0.0000000000E+00  -0.2170000000E-01  -0.2170000000E-01  -0.6625000009E+01  -0.6590664891E-14  -0.4849110015E-14  -0.7212779261E-16   0.2408659336E-15  -0.1869554974E-14   0.3675000005E-01  -0.2102500003E-01  -0.2102500003E-01   0.1245659136E-16  -0.2592121918E-16  -0.1009015593E-15   0.6625000009E+01
   0.2073500000E+01   0.0000000000E+00  -0.9396269913E-16  -0.4500000000E-02   0.0000000000E+00  -0.6882245862E-17   0.7800000000E-01   0.0000000000E+00  -0.8708045327E-16  -0.6625000010E+01  -0.1426870837E-13  -0.1196407114E-13   0.2942599986E-15   0.3202293093E-16   0.4865843159E-15   0.3675000006E-01  -0.2102500003E-01  -0.2102500003E-01  -0.8444183451E-16  -0.1654049201E-15   0.3175643675E-17   0.6625000010E+01
   0.2073500000E+01   0.9789750000E+00  -0.9614477004E-16  -0.4500000000E-02   0.6750000000E-03  -0.5753356366E-17   0.7800000000E-01  -0.2170000000E-01  -0.9039141367E-16  -0.6625000009E+01   0.1555742123E-13   0.1338771925E-13  -0.8167032965E-15   0.8194183502E-15   0.6467035736E-15   0.3675000005E-01  -0.2102500003E-01  -0.2102500003E-01  -0.2401532106E-15  -0.1130331330E-15   0.4530786072E-16   0.6625000009E+01
   0.2073500000E+01   0.0000000000E+00   0.9789750000E+00  -0.4500000000E-02   0.0000000000E+00   0.6750000000E-03   0.7800000000E-01   0.0000000000E+00  -0.2170000000E-01  -0.6625000009E+01   0.1238132938E-13   0.1216220259E-13   0.1203475743E-15  -0.2179197244E-15  -0.2771714837E-15   0.3675000005E-01  -0.2102500003E-01  -0.2102500003E-01   0.3323442801E-16  -0.1531761319E-16  -0.3498860612E-18   0.6625000009E+01
   0.2073500000E+01   0.9789750000E+00   0.9789750000E+00  -0.4500000000E-02   0.6750000000E-03   0.6750000000E-03   0.7800000000E-01  -0.2170000000E-01  -0.2170000000E-01  -0.6625000008E+01  -0.1329342076E-13  -0.1361559908E-13   0.3848310568E-15  -0.6909297420E-15  -0.5587083504E-15   0.3675000005E-01  -0.2102500003E-01  -0.2102500003E-01   0.6595446369E-16  -0.1527091263E-15   0.9067611339E-16   0.6625000008E+01
     1     2     3     4     5     6     7     8
     2     9    10     3     6    11    12     7
 VARIABLES = X,Y,Z,DU1,DU2,DU3,U1,U2,U3,S11,S22,S33,S12,S13,S23,E11,E22,E33,E12,E13,E23,SMISES
 ZONE, T="0.7900D+01" F=FEPOINT, I=   12 J=    2 ET=BRICK
   0.0000000000E+00   0.0000000000E+00   0.0000000000E+00   0.0000000000E+00   0.0000000000E+00   0.0000000000E+00   0.0000000000E+00   0.0000000000E+00   0.0000000000E+00  -0.7750000012E+01  -0.6072205118E-14  -0.3281382864E-14   0.1229871128E-15   0.1435080927E-14   0.1205024721E-14   0.2950000005E-01  -0.1785000003E-01  -0.1785000003E-01  -0.5407099391E-18  -0.1037895640E-16   0.7577517960E-16   0.7750000012E+01
   0.1029500000E+01   0.0000000000E+00  -0.1249487150E-16  -0.7250000000E-02   0.0000000000E+00   0.1353866574E-16   0.3675000000E-01   0.0000000000E+00  -0.2603353724E-16  -0.7750000012E+01   0.4864766203E-14   0.4986677208E-14   0.3995922547E-15   0.5444603320E-15   0.3277946717E-15   0.2950000005E-01  -0.1785000003E-01  -0.1785000003E-01   0.3012905367E-16   0.6318699630E-17   0.1714263555E-16   0.7750000012E+01
   0.1029500000E+01   0.9821500000E+00  -0.1702712978E-17  -0.7250000000E-02   0.3175000000E-02   0.1110936542E-16   0.3675000000E-01  -0.2102500000E-01  -0.1281207840E-16  -0.7750000011E+01  -0.5612173821E-14  -0.7643241047E-14  -0.8827304966E-16  -0.5432474159E-16   0.2775389301E-15   0.2950000004E-01  -0.1785000003E-01  -0.1785000003E-01  -0.5887630924E-17  -0.1552124602E-17  -0.2472549441E-16   0.7750000011E+01
   0.0000000000E+00   0.9821500000E+00   0.3609383182E-16   0.0000000000E+00   0.3175000000E-02   0.1402429138E-17   0.0000000000E+00  -0.2102500000E-01   0.3469140269E-16  -0.7750000011E+01   0.9728751589E-14   0.7803262387E-14  -0.1638931984E-15   0.7026480545E-15   0.1243604596E-14   0.2950000004E-01  -0.1785000003E-01  -0.1785000003E-01   0.7414570060E-16  -0.6336807038E-16   0.8109735644E-17   0.7750000011E+01
   0.0000000000E+00   0.0000000000E+00   0.9821500000E+00   0.0000000000E+00   0.0000000000E+00   0.3175000000E-02   0.0000000000E+00   0.0000000000E+00  -0.2102500000E-01  -0.7750000011E+01   0.7384831079E-14   0.7959193234E-14  -0.1481997823E-15   0.7568902484E-15  -0.1819229518E-15   0.2950000004E-01  -0.1785000003E-01  -0.1785000003E-01   0.1872813465E-17  -0.1502237545E-15  -0.5551618116E-16   0.7750000011E+01
   0.1029500000E+01   0.0000000000E+00   0.9821500000E+00  -0.7250000000E-02   0.0000000000E+00   0.3175000000E-02   0.3675000000E-01   0.0000000000E+00  -0.2102500000E-01  -0.7750000011E+01  -0.8726633195E-14  -0.7502470443E-14   0.2220607339E-15  -0.3061872104E-15  -0.6722816350E-16   0.2950000004E-01  -0.1785000003E-01  -0.1785000003E-01   0.3542795626E-16  -0.4523697660E-16   0.6829693349E-16   0.7750000011E+01
   0.1029500000E+01   0.9821500000E+00   0.9821500000E+00  -0.7250000000E-02   0.3175000000E-02   0.3175000000E-02   0.3675000000E-01  -0.2102500000E-01  -0.2102500000E-01  -0.7750000010E+01   0.8439256688E-14   0.7445109468E-14   0.2452961244E-15  -0.5206762130E-15  -0.1043207103E-15   0.2950000004E-01  -0.1785000002E-01  -0.1785000002E-01   0.5367239157E-16  -0.1605558008E-16  -0.1959560996E-16   0.7750000010E+01
   0.0000000000E+00   0.9821500000E+00   0.9821500000E+00   0.0000000000E+00   0.3175000000E-02   0.3175000000E-02   0.0000000000E+00  -0.2102500000E-01  -0.2102500000E-01  -0.7750000010E+01  -0.7859450284E-14  -0.8394243334E-14  -0.1332869272E-15   0.1589539069E-14  -0.1200938461E-14   0.2950000004E-01  -0.1785000002E-01  -0.1785000002E-01   0.1775125119E-16  -0.7708389487E-17  -0.8501003851E-16   0.7750000010E+01
   0.2059000000E+01   0.0000000000E+00  -0.5717642954E-16  -0.1450000000E-01   0.0000000000E+00   0.3678626959E-16   0.7350000000E-01   0.0000000000E+00  -0.9396269913E-16  -0.7750000012E+01  -0.8585862406E-14  -0.6057721689E-14  -0.2390923881E-14  -0.1427291541E-14  -0.4837941136E-15   0.2950000004E-01  -0.1785000003E-01  -0.1785000003E-01  -0.1172853071E-15  -0.1305707833E-15  -0.9559980991E-17   0.7750000012E+01
   0.2059000000E+01   0.9821500000E+00  -0.6511794413E-16  -0.1450000000E-01   0.3175000000E-02   0.3102682591E-16   0.7350000000E-01  -0.2102500000E-01  -0.9614477004E-16  -0.7750000011E+01   0.1127722809E-13   0.1142052545E-13  -0.2796521901E-14   0.2877619159E-14   0.4991861021E-15   0.2950000004E-01  -0.1785000002E-01  -0.1785000002E-01  -0.2535659920E-15  -0.4893638752E-16   0.3812020513E-16   0.7750000011E+01
   0.2059000000E+01   0.0000000000E+00   0.9821500000E+00  -0.1450000000E-01   0.0000000000E+00   0.3175000000E-02   0.7350000000E-01   0.0000000000E+00  -0.2102500000E-01  -0.7750000011E+01   0.1138903214E-13   0.1021386838E-13   0.1438294605E-14  -0.9463190183E-15  -0.1024163179E-14   0.2950000004E-01  -0.1785000002E-01  -0.1785000002E-01   0.4705481986E-16  -0.7677229807E-16   0.4651781207E-17   0.7750000011E+01
   0.2059000000E+01   0.9821500000E+00   0.9821500000E+00  -0.1450000000E-01   0.3175000000E-02   0.3175000000E-02   0.7350000000E-01  -0.2102500000E-01  -0.2102500000E-01  -0.7750000010E+01  -0.1164004316E-13  -0.1201520588E-13   0.1480534076E-14   0.1020793979E-14  -0.4484565309E-15   0.2950000004E-01  -0.1785000002E-01  -0.1785000002E-01   0.8796328494E-16  -0.4414517125E-16   0.8295307456E-16   0.7750000010E+01
     1     2     3     4     5     6     7     8
     2     9    10     3     6    11    12     7
 VARIABLES = X,Y,Z,DU1,DU2,DU3,U1,U2,U3,S11,S22,S33,S12,S13,S23,E11,E22,E33,E12,E13,E23,SMISES
 ZONE, T="0.7950D+01" F=FEPOINT, I=   12 J=    2 ET=BRICK
   0.0000000000E+00   0.0000000000E+00   0.0000000000E+00   0.0000000000E+00   0.0000000000E+00   0.0000000000E+00   0.0000000000E+00   0.0000000000E+00   0.0000000000E+00  -0.8875000014E+01  -0.1591013022E-13  -0.1851954506E-13   0.1744740034E-15  -0.2026790433E-14   0.1825846532E-16   0.4750000007E-02  -0.5925000009E-02  -0.5925000009E-02  -0.8418480627E-18  -0.7368642537E-16   0.5462662457E-16   0.8875000014E+01
   0.1004750000E+01   0.0000000000E+00  -0.4180590849E-16  -0.2475000000E-01   0.0000000000E+00  -0.2931103699E-16   0.2950000000E-01   0.0000000000E+00  -0.1249487150E-16  -0.8875000014E+01   0.3340202424E-14   0.2752425112E-14   0.1147124877E-14   0.1298082528E-14   0.8458520335E-15   0.4750000007E-02  -0.5925000009E-02  -0.5925000009E-02   0.5386767469E-16   0.3932073828E-16   0.3035948469E-16   0.8875000014E+01
   0.1004750000E+01   0.9940750000E+00  -0.2520226675E-16  -0.2475000000E-01   0.1192500000E-01  -0.2349955377E-16   0.2950000000E-01  -0.1785000000E-01  -0.1702712978E-17  -0.8875000013E+01  -0.7624381325E-14  -0.8685996228E-14   0.2227843191E-15   0.4257538298E-15  -0.4553949648E-15   0.4750000007E-02  -0.5925000008E-02  -0.5925000008E-02   0.4230783726E-17  -0.1763579510E-16  -0.5243030914E-16   0.8875000013E+01
   0.0000000000E+00   0.9940750000E+00   0.2906701259E-16   0.0000000000E+00   0.1192500000E-01  -0.7026819237E-17   0.0000000000E+00  -0.1785000000E-01   0.3609383182E-16  -0.8875000013E+01   0.9965670048E-14   0.7926240855E-14  -0.9048323384E-15  -0.1165999056E-14  -0.1559738855E-14   0.4750000007E-02  -0.5925000009E-02  -0.5925000009E-02   0.5271346318E-16  -0.8254189997E-16  -0.1835926572E-16   0.8875000013E+01
   0.0000000000E+00   0.0000000000E+00   0.9940750000E+00   0.0000000000E+00   0.0000000000E+00   0.1192500000E-01   0.0000000000E+00   0.0000000000E+00  -0.1785000000E-01  -0.8875000013E+01   0.8245110610E-14   0.8564762165E-14  -0.8166010265E-16  -0.1378863975E-14   0.6157175141E-15   0.4750000007E-02  -0.5925000009E-02  -0.5925000009E-02  -0.2759021946E-17  -0.1864423490E-15  -0.2641354110E-16   0.8875000013E+01
   0.1004750000E+01   0.0000000000E+00   0.9940750000E+00  -0.2475000000E-01   0.0000000000E+00   0.1192500000E-01   0.2950000000E-01   0.0000000000E+00  -0.1785000000E-01  -0.8875000013E+01  -0.7727432627E-14  -0.4764632535E-14   0.2567820806E-15   0.1450480358E-14   0.7406258699E-15   0.4750000007E-02  -0.5925000008E-02  -0.5925000008E-02   0.4280945845E-16  -0.8140406190E-17   0.7120148482E-16   0.8875000013E+01
   0.1004750000E+01   0.9940750000E+00   0.9940750000E+00  -0.2475000000E-01   0.1192500000E-01   0.1192500000E-01   0.2950000000E-01  -0.1785000000E-01  -0.1785000000E-01  -0.8875000012E+01   0.8106189737E-14   0.9197553065E-14   0.4585393519E-15  -0.1184755790E-15  -0.5861337243E-16   0.4750000006E-02  -0.5925000008E-02  -0.5925000008E-02   0.6005007532E-16  -0.1315631487E-16  -0.2144914594E-17   0.8875000012E+01
   0.0000000000E+00   0.9940750000E+00   0.9940750000E+00   0.0000000000E+00   0.1192500000E-01   0.1192500000E-01   0.0000000000E+00  -0.1785000000E-01  -0.1785000000E-01  -0.8875000012E+01  -0.2806372365E-14  -0.1640247455E-14  -0.2913778349E-15  -0.1408308183E-15  -0.2599631174E-14   0.4750000006E-02  -0.5925000008E-02  -0.5925000008E-02   0.1686670458E-16  -0.2855845948E-16  -0.1359203515E-15   0.8875000012E+01
   0.2009500000E+01   0.0000000000E+00  -0.1193699065E-15  -0.4950000000E-01   0.0000000000E+00  -0.6219347692E-16   0.5900000000E-01   0.0000000000E+00  -0.5717642954E-16  -0.8875000013E+01   0.5859289616E-15   0.3455107662E-14   0.3551167908E-15   0.2576487190E-15  -0.1643221992E-15   0.4750000007E-02  -0.5925000009E-02  -0.5925000009E-02  -0.6222630594E-16  -0.1062136544E-15  -0.1282297832E-16   0.8875000013E+01
   0.2009500000E+01   0.9940750000E+00  -0.1231028460E-15  -0.4950000000E-01   0.1192500000E-01  -0.5798490190E-16   0.5900000000E-01  -0.1785000000E-01  -0.6511794413E-16  -0.8875000012E+01   0.1303871059E-13   0.1292729753E-13  -0.1197284417E-14   0.8308475513E-15   0.1538576508E-14   0.4750000007E-02  -0.5925000008E-02  -0.5925000008E-02  -0.2450227222E-15  -0.9373540458E-16   0.7089624521E-16   0.8875000012E+01
   0.2009500000E+01   0.0000000000E+00   0.9940750000E+00  -0.4950000000E-01   0.0000000000E+00   0.1192500000E-01   0.5900000000E-01   0.0000000000E+00  -0.1785000000E-01  -0.8875000012E+01   0.1188863256E-13   0.1213789902E-13  -0.6305668450E-15   0.5694891053E-15  -0.3745761958E-15   0.4750000007E-02  -0.5925000008E-02  -0.5925000008E-02  -0.8309494554E-17  -0.7492757081E-16  -0.7807946754E-18   0.8875000012E+01
   0.2009500000E+01   0.9940750000E+00   0.9940750000E+00  -0.4950000000E-01   0.1192500000E-01   0.1192500000E-01   0.5900000000E-01  -0.1785000000E-01  -0.1785000000E-01  -0.8875000011E+01  -0.1897306344E-13  -0.1785341065E-13   0.3824967063E-15  -0.1420381101E-14  -0.3316258174E-15   0.4750000006E-02  -0.5925000008E-02  -0.5925000008E-02   0.9375920203E-16  -0.1027727217E-15   0.7975588151E-16   0.8875000011E+01
     1     2     3     4     5     6     7     8
     2     9    10     3     6    11    12     7
 VARIABLES = X,Y,Z,DU1,DU2,DU3,U1,U2,U3,S11,S22,S33,S12,S13,S23,E11,E22,E33,E12,E13,E23,SMISES
 ZONE, T="0.8000D+01" F=FEPOINT, I=   12 J=    2 ET=BRICK
   0.0000000000E+00   0.0000000000E+00   0.0000000000E+00   0.0000000000E+00   0.0000000000E+00   0.0000000000E+00   0.0000000000E+00   0.0000000000E+00   0.0000000000E+00  -0.1000000002E+02  -0.6176715199E-14  -0.5901686120E-14   0.2044249924E-15   0.2154323756E-15   0.2511348401E-15  -0.2000000003E-01   0.6000000009E-02   0.6000000009E-02   0.2634893354E-17  -0.2954885000E-16   0.5270133482E-16   0.1000000002E+02
   0.9800000000E+00   0.0000000000E+00  -0.2499550730E-16  -0.2475000000E-01   0.0000000000E+00   0.1681040119E-16   0.4750000000E-02   0.0000000000E+00  -0.4180590849E-16  -0.1000000002E+02   0.3291594431E-14   0.3857594529E-14  -0.1288521937E-14  -0.4581312449E-15   0.1555167200E-15  -0.2000000003E-01   0.6000000009E-02   0.6000000009E-02   0.1235495893E-16   0.2872107359E-17   0.2694414243E-16   0.1000000002E+02
   0.9800000000E+00   0.1006000000E+01  -0.1170908361E-16  -0.2475000000E-01   0.1192500000E-01   0.1349318314E-16   0.4750000000E-02  -0.5925000000E-02  -0.2520226675E-16  -0.1000000001E+02  -0.8249878124E-14  -0.9977626774E-14  -0.2046061308E-14  -0.1675065432E-17   0.2468743979E-15  -0.2000000003E-01   0.6000000009E-02   0.6000000009E-02  -0.3960683383E-16  -0.1934436343E-16  -0.4055087020E-16   0.1000000001E+02
   0.0000000000E+00   0.1006000000E+01   0.2822063087E-16   0.0000000000E+00   0.1192500000E-01  -0.8463817210E-18   0.0000000000E+00  -0.5925000000E-02   0.2906701259E-16  -0.1000000001E+02   0.7272063922E-14   0.8539390377E-14   0.5714146077E-15   0.2671007602E-15   0.2558996362E-16  -0.2000000003E-01   0.6000000009E-02   0.6000000009E-02   0.7659211610E-16  -0.6625374101E-16  -0.3405634519E-17   0.1000000001E+02
   0.0000000000E+00   0.0000000000E+00   0.1006000000E+01   0.0000000000E+00   0.0000000000E+00   0.1192500000E-01   0.0000000000E+00   0.0000000000E+00  -0.5925000000E-02  -0.1000000001E+02   0.9205133340E-14   0.9909377381E-14  -0.1570166450E-16  -0.1558676895E-16  -0.6974812610E-16  -0.2000000003E-01   0.6000000009E-02   0.6000000009E-02   0.8285159351E-18  -0.1580067514E-15  -0.4594333847E-16   0.1000000001E+02
   0.9800000000E+00   0.0000000000E+00   0.1006000000E+01  -0.2475000000E-01   0.0000000000E+00   0.1192500000E-01   0.4750000000E-02   0.0000000000E+00  -0.5925000000E-02  -0.1000000001E+02  -0.4610055638E-14  -0.4236351838E-14  -0.5958254424E-15  -0.5496534327E-15   0.2180686715E-16  -0.2000000003E-01   0.6000000009E-02   0.6000000009E-02   0.1692594425E-16  -0.4636364110E-16   0.6436430737E-16   0.1000000001E+02
   0.9800000000E+00   0.1006000000E+01   0.1006000000E+01  -0.2475000000E-01   0.1192500000E-01   0.1192500000E-01   0.4750000000E-02  -0.5925000000E-02  -0.5925000000E-02  -0.1000000001E+02   0.1040285610E-13   0.8905123049E-14  -0.9910670466E-16  -0.9068328923E-15  -0.3070940992E-15  -0.2000000003E-01   0.6000000008E-02   0.6000000008E-02   0.5551693224E-16  -0.1191893331E-16  -0.8903661211E-17   0.1000000001E+02
   0.0000000000E+00   0.1006000000E+01   0.1006000000E+01   0.0000000000E+00   0.1192500000E-01   0.1192500000E-01   0.0000000000E+00  -0.5925000000E-02  -0.5925000000E-02  -0.1000000001E+02  -0.8578568371E-14  -0.8669272156E-14   0.8279170447E-16   0.6590583478E-15  -0.2966000165E-15  -0.2000000003E-01   0.6000000008E-02   0.6000000008E-02   0.2259835659E-16  -0.1524739099E-16  -0.8765325280E-16   0.1000000001E+02
   0.1960000000E+01   0.0000000000E+00  -0.7434234322E-16  -0.4950000000E-01   0.0000000000E+00   0.4502756324E-16   0.9500000000E-02   0.0000000000E+00  -0.1193699065E-15  -0.1000000002E+02  -0.1263059610E-13  -0.1013220374E-13   0.7216646322E-15   0.2403508140E-15  -0.7915963560E-15  -0.2000000003E-01   0.6000000009E-02   0.6000000009E-02  -0.5105661910E-16  -0.1235010833E-15  -0.2231731817E-16   0.1000000002E+02
   0.1960000000E+01   0.1006000000E+01  -0.8571490530E-16  -0.4950000000E-01   0.1192500000E-01   0.3738794074E-16   0.9500000000E-02  -0.5925000000E-02  -0.1231028460E-15  -0.1000000001E+02   0.9275517980E-14   0.8371006703E-14  -0.7801025530E-15   0.1926608917E-14   0.1294275789E-14  -0.2000000003E-01   0.6000000008E-02   0.6000000008E-02  -0.2446137368E-15  -0.5802214528E-16   0.7948273066E-16   0.1000000001E+02
   0.1960000000E+01   0.0000000000E+00   0.1006000000E+01  -0.4950000000E-01   0.0000000000E+00   0.1192500000E-01   0.9500000000E-02   0.0000000000E+00  -0.5925000000E-02  -0.1000000001E+02   0.9293023807E-14   0.7825430116E-14   0.8780115755E-15  -0.4341028084E-15  -0.1398612765E-14  -0.2000000003E-01   0.6000000008E-02   0.6000000008E-02   0.5610506705E-16  -0.1022733623E-15  -0.3092277982E-16   0.1000000001E+02
   0.1960000000E+01   0.1006000000E+01   0.1006000000E+01  -0.4950000000E-01   0.1192500000E-01   0.1192500000E-01   0.9500000000E-02  -0.5925000000E-02  -0.5925000000E-02  -0.1000000001E+02  -0.1599023107E-13  -0.1592130470E-13   0.1201421060E-14  -0.6196840241E-15  -0.5276303584E-16  -0.2000000003E-01   0.6000000008E-02   0.6000000008E-02   0.9922109998E-16  -0.9842937571E-16   0.7648290161E-16   0.1000000001E+02
     1     2     3     4     5     6     7     8
     2     9    10     3     6    11    12     7
 VARIABLES = X,Y,Z,DU1,DU2,DU3,U1,U2,U3,S11,S22,S33,S12,S13,S23,E11,E22,E33,E12,E13,E23,SMISES
 ZONE, T="0.8050D+01" F=FEPOINT, I=   12 J=    2 ET=BRICK
   0.0000000000E+00   0.0000000000E+00   0.0000000000E+00   0.0000000000E+00   0.0000000000E+00   0.0000000000E+00   0.0000000000E+00   0.0000000000E+00   0.0000000000E+00  -0.8875000014E+01  -0.1347337016E-13  -0.1488000833E-13   0.1927840087E-15  -0.5364425415E-14  -0.6661941522E-14  -0.1775000003E-01   0.5325000008E-02   0.5325000008E-02   0.2759611056E-17  -0.9482970365E-16  -0.1234184011E-16   0.8875000014E+01
   0.9822500000E+00   0.0000000000E+00  -0.3941944605E-16   0.2250000000E-02   0.0000000000E+00  -0.1442393874E-16  -0.2000000000E-01   0.0000000000E+00  -0.2499550730E-16  -0.8875000014E+01   0.4610055507E-14   0.8501670943E-14  -0.1290855755E-14  -0.1566416502E-14   0.3549077226E-15  -0.1775000003E-01   0.5325000008E-02   0.5325000008E-02   0.9932668130E-17  -0.1580232170E-17   0.2716632932E-16   0.8875000014E+01
   0.9822500000E+00   0.1005325000E+01  -0.2509747044E-16   0.2250000000E-02  -0.6750000000E-03  -0.1338838682E-16  -0.2000000000E-01   0.6000000000E-02  -0.1170908361E-16  -0.8875000013E+01  -0.1282356928E-13  -0.1048043057E-13  -0.2538769167E-15  -0.1927422663E-14   0.2761285099E-14  -0.1775000003E-01   0.5325000008E-02   0.5325000008E-02  -0.1170196393E-16  -0.5329342745E-16  -0.1923356629E-16   0.8875000013E+01
   0.0000000000E+00   0.1005325000E+01  -0.7803876187E-17   0.0000000000E+00  -0.6750000000E-03  -0.3602450705E-16   0.0000000000E+00   0.6000000000E-02   0.2822063087E-16  -0.8875000013E+01   0.8738198505E-14   0.1787148862E-13   0.6792268893E-15   0.4080400311E-14  -0.3604028412E-14  -0.1775000003E-01   0.5325000008E-02   0.5325000008E-02   0.7446298983E-16  -0.1892403630E-16  -0.3878691786E-16   0.8875000013E+01
   0.0000000000E+00   0.0000000000E+00   0.1005325000E+01   0.0000000000E+00   0.0000000000E+00  -0.6750000000E-03   0.0000000000E+00   0.0000000000E+00   0.6000000000E-02  -0.8875000013E+01   0.1066621460E-13   0.2144615035E-14  -0.6955965713E-17  -0.1500451670E-14  -0.2413632735E-14  -0.1775000003E-01   0.5325000008E-02   0.5325000008E-02  -0.8662322836E-18  -0.1775471361E-15  -0.6346071803E-16   0.8875000013E+01
   0.9822500000E+00   0.0000000000E+00   0.1005325000E+01   0.2250000000E-02   0.0000000000E+00  -0.6750000000E-03  -0.2000000000E-01   0.0000000000E+00   0.6000000000E-02  -0.8875000013E+01  -0.8198352566E-14  -0.8537254817E-14  -0.3932230328E-14   0.4140432190E-15   0.3601952740E-15  -0.1775000003E-01   0.5325000008E-02   0.5325000008E-02  -0.1416554190E-16  -0.3242103338E-16   0.6400807339E-16   0.8875000013E+01
   0.9822500000E+00   0.1005325000E+01   0.1005325000E+01   0.2250000000E-02  -0.6750000000E-03  -0.6750000000E-03  -0.2000000000E-01   0.6000000000E-02   0.6000000000E-02  -0.8875000012E+01   0.9760635329E-14   0.7385612716E-14  -0.2989875455E-14  -0.2937127141E-14   0.2388225963E-14  -0.1775000002E-01   0.5325000007E-02   0.5325000007E-02   0.1582025665E-16  -0.3910870403E-16   0.2388735966E-16   0.8875000012E+01
   0.0000000000E+00   0.1005325000E+01   0.1005325000E+01   0.0000000000E+00  -0.6750000000E-03  -0.6750000000E-03   0.0000000000E+00   0.6000000000E-02   0.6000000000E-02  -0.8875000012E+01  -0.8769014936E-14  -0.8505265518E-14  -0.6217175094E-15   0.3027412982E-14   0.7330318193E-15  -0.1775000002E-01   0.5325000007E-02   0.5325000007E-02   0.1813130450E-16   0.1427744924E-16  -0.9279132916E-16   0.8875000012E+01
   0.1964500000E+01   0.0000000000E+00  -0.4404768485E-16   0.4500000000E-02   0.0000000000E+00   0.3029465838E-16  -0.4000000000E-01   0.0000000000E+00  -0.7434234322E-16  -0.8875000013E+01   0.2611837354E-14   0.3883540236E-14  -0.7234406376E-14  -0.5668068307E-14  -0.2634474203E-14  -0.1775000003E-01   0.5325000008E-02   0.5325000008E-02  -0.1547371813E-15  -0.1678708307E-15  -0.4247423922E-16   0.8875000013E+01
   0.1964500000E+01   0.1005325000E+01  -0.6507788813E-16   0.4500000000E-02  -0.6750000000E-03   0.2063701717E-16  -0.4000000000E-01   0.6000000000E-02  -0.8571490530E-16  -0.8875000012E+01   0.8324639895E-14   0.6974580647E-14  -0.5145063839E-14   0.3579811120E-14  -0.2349820193E-15  -0.1775000002E-01   0.5325000007E-02   0.5325000007E-02  -0.2947147482E-15  -0.3258499224E-16   0.6688826133E-16   0.8875000012E+01
   0.1964500000E+01   0.0000000000E+00   0.1005325000E+01   0.4500000000E-02   0.0000000000E+00  -0.6750000000E-03  -0.4000000000E-01   0.0000000000E+00   0.6000000000E-02  -0.8875000012E+01   0.9921154714E-15  -0.2722077768E-14   0.4952449998E-14  -0.6129346514E-14  -0.3071691731E-14  -0.1775000002E-01   0.5325000007E-02   0.5325000007E-02   0.9891504268E-16  -0.1386125928E-15  -0.4172132502E-16   0.8875000012E+01
   0.1964500000E+01   0.1005325000E+01   0.1005325000E+01   0.4500000000E-02  -0.6750000000E-03  -0.6750000000E-03  -0.4000000000E-01   0.6000000000E-02   0.6000000000E-02  -0.8875000011E+01  -0.7778567402E-14  -0.8720121321E-14   0.6500840867E-14   0.2433561052E-14  -0.1371057771E-14  -0.1775000002E-01   0.5325000007E-02   0.5325000007E-02   0.1500946695E-15  -0.1058126505E-15   0.5174773607E-16   0.8875000011E+01
     1     2     3     4     5     6     7     8
     2     9    10     3     6    11    12     7
 VARIABLES = X,Y,Z,DU1,DU2,DU3,U1,U2,U3,S11,S22,S33,S12,S13,S23,E11,E22,E33,E12,E13,E23,SMISES
 ZONE, T="0.8100D+01" F=FEPOINT, I=   12 J=    2 ET=BRICK
   0.0000000000E+00   0.0000000000E+00   0.0000000000E+00   0.0000000000E+00   0.0000000000E+00   0.0000000000E+00   0.0000000000E+00   0.0000000000E+00   0.0000000000E+00  -0.7750000012E+01  -0.7157056246E-14  -0.7098627514E-14   0.2089226746E-15   0.4114049332E-16   0.5590279793E-15  -0.1550000002E-01   0.4650000007E-02   0.4650000007E-02  -0.2832362982E-18  -0.4226473655E-16   0.6001817349E-16   0.7750000012E+01
   0.9845000000E+00   0.0000000000E+00  -0.2556821457E-16   0.2250000000E-02   0.0000000000E+00   0.1385123147E-16  -0.1775000000E-01   0.0000000000E+00  -0.3941944605E-16  -0.7750000012E+01   0.3957728284E-14   0.3380839563E-14  -0.4862977139E-15  -0.5718040777E-16   0.2274243582E-15  -0.1550000002E-01   0.4650000007E-02   0.4650000007E-02   0.2230139949E-16   0.2015155243E-16   0.2672398439E-16   0.7750000012E+01
   0.9845000000E+00   0.1004650000E+01  -0.1189668271E-16   0.2250000000E-02  -0.6750000000E-03   0.1320078773E-16  -0.1775000000E-01   0.5325000000E-02  -0.2509747044E-16  -0.7750000011E+01  -0.5660781900E-14  -0.7569938138E-14  -0.1439514455E-14   0.2369991613E-15  -0.1576419888E-15  -0.1550000002E-01   0.4650000007E-02   0.4650000007E-02  -0.2512385931E-16  -0.2916330835E-16  -0.4536909153E-16   0.7750000011E+01
   0.0000000000E+00   0.1004650000E+01   0.2972842048E-16   0.0000000000E+00  -0.6750000000E-03   0.3753229666E-16   0.0000000000E+00   0.5325000000E-02  -0.7803876187E-17  -0.7750000011E+01   0.6394774307E-14   0.7054004808E-14   0.6209134288E-15  -0.1733292365E-15  -0.1776208534E-15  -0.1550000002E-01   0.4650000007E-02   0.4650000007E-02   0.7621956088E-16  -0.6475875528E-16  -0.4615647624E-17   0.7750000011E+01
   0.0000000000E+00   0.0000000000E+00   0.1004650000E+01   0.0000000000E+00   0.0000000000E+00  -0.6750000000E-03   0.0000000000E+00   0.0000000000E+00   0.5325000000E-02  -0.7750000011E+01   0.7647903635E-14   0.7565561800E-14  -0.2392903113E-16   0.4107867284E-17   0.2615712264E-15  -0.1550000002E-01   0.4650000007E-02   0.4650000007E-02  -0.1615317492E-17  -0.1656979042E-15  -0.3519595263E-16   0.7750000011E+01
   0.9845000000E+00   0.0000000000E+00   0.1004650000E+01   0.2250000000E-02   0.0000000000E+00  -0.6750000000E-03  -0.1775000000E-01   0.0000000000E+00   0.5325000000E-02  -0.7750000011E+01  -0.5763833202E-14  -0.4239269559E-14   0.4123054099E-15  -0.3166985331E-16   0.2240234723E-15  -0.1550000002E-01   0.4650000007E-02   0.4650000007E-02   0.3612552797E-16  -0.2705106418E-16   0.6513851915E-16   0.7750000011E+01
   0.9845000000E+00   0.1004650000E+01   0.1004650000E+01   0.2250000000E-02  -0.6750000000E-03  -0.6750000000E-03  -0.1775000000E-01   0.5325000000E-02   0.5325000000E-02  -0.7750000010E+01   0.8864486200E-14   0.7903004971E-14   0.1025134232E-14   0.6437374435E-17  -0.5928270379E-15  -0.1550000002E-01   0.4650000006E-02   0.4650000006E-02   0.5697367874E-16  -0.1704145424E-16  -0.1347057714E-16   0.7750000010E+01
   0.0000000000E+00   0.1004650000E+01   0.1004650000E+01   0.0000000000E+00  -0.6750000000E-03  -0.6750000000E-03   0.0000000000E+00   0.5325000000E-02   0.5325000000E-02  -0.7750000010E+01  -0.7302880078E-14  -0.8205932611E-14  -0.1171326828E-15   0.4187750444E-15  -0.3474087706E-15  -0.1550000002E-01   0.4650000006E-02   0.4650000006E-02   0.2226249947E-16  -0.1217644974E-16  -0.9958796989E-16   0.7750000010E+01
   0.1969000000E+01   0.0000000000E+00  -0.7280515965E-16   0.4500000000E-02   0.0000000000E+00  -0.2875747481E-16  -0.3550000000E-01   0.0000000000E+00  -0.4404768485E-16  -0.7750000012E+01  -0.8573515059E-14  -0.6708981331E-14   0.1844192646E-14  -0.2919434357E-16  -0.9098246522E-15  -0.1550000002E-01   0.4650000007E-02   0.4650000007E-02  -0.5657152325E-16  -0.9766037484E-16  -0.2405433902E-16   0.7750000012E+01
   0.1969000000E+01   0.1004650000E+01  -0.8483329072E-16   0.4500000000E-02  -0.6750000000E-03  -0.1975540260E-16  -0.3550000000E-01   0.5325000000E-02  -0.6507788813E-16  -0.7750000011E+01   0.1246036292E-13   0.1408107486E-13   0.6437646350E-16   0.4214169562E-15   0.1042213638E-14  -0.1550000002E-01   0.4650000006E-02   0.4650000006E-02  -0.2398377461E-15  -0.9868369681E-16   0.7723693796E-16   0.7750000011E+01
   0.1969000000E+01   0.0000000000E+00   0.1004650000E+01   0.4500000000E-02   0.0000000000E+00  -0.6750000000E-03  -0.3550000000E-01   0.0000000000E+00   0.5325000000E-02  -0.7750000011E+01   0.8336596126E-14   0.6908180711E-14   0.6768126497E-15  -0.3329931931E-15  -0.6016381887E-15  -0.1550000002E-01   0.4650000006E-02   0.4650000006E-02   0.4685259709E-16  -0.1012626344E-15  -0.1906803608E-16   0.7750000011E+01
   0.1969000000E+01   0.1004650000E+01   0.1004650000E+01   0.4500000000E-02  -0.6750000000E-03  -0.6750000000E-03  -0.3550000000E-01   0.5325000000E-02   0.5325000000E-02  -0.7750000010E+01  -0.1593365200E-13  -0.1387682203E-13   0.1342027220E-14  -0.1173517950E-14   0.7156053285E-15  -0.1550000002E-01   0.4650000006E-02   0.4650000006E-02   0.1051865940E-15  -0.8951319099E-16   0.8194206731E-16   0.7750000010E+01
     1     2     3     4     5     6     7     8
     2     9    10     3     6    11    12     7
 VARIABLES = X,Y,Z,DU1,DU2,DU3,U1,U2,U3,S11,S22,S33,S12,S13,S23,E11,E22,E33,E12,E13,E23,SMISES
 ZONE, T="0.8150D+01" F=FEPOINT, I=   12 J=    2 ET=BRICK
   0.0000000000E+00   0.0000000000E+00   0.0000000000E+00   0.0000000000E+00   0.0000000000E+00   0.0000000000E+00   0.0000000000E+00   0.0000000000E+00   0.0000000000E+00  -0.6625000010E+01  -0.6831960430E-14  -0.6987605205E-14   0.2186355411E-15  -0.1273868203E-15   0.3789907400E-15  -0.1325000002E-01   0.3975000006E-02   0.3975000006E-02  -0.1342748790E-17  -0.4296517410E-16   0.5743101722E-16   0.6625000010E+01
   0.9867500000E+00   0.0000000000E+00  -0.2644442524E-16   0.2250000000E-02   0.0000000000E+00  -0.8762106703E-18  -0.1550000000E-01   0.0000000000E+00  -0.2556821457E-16  -0.6625000010E+01   0.4179772889E-14   0.3299565611E-14  -0.1443690358E-14  -0.2849929356E-15   0.1934430586E-15  -0.1325000002E-01   0.3975000006E-02   0.3975000006E-02   0.1587208583E-16   0.1270918700E-16   0.2843755987E-16   0.6625000010E+01
   0.9867500000E+00   0.1003975000E+01  -0.1292229134E-16   0.2250000000E-02  -0.6750000000E-03  -0.1025608634E-17  -0.1550000000E-01   0.4650000000E-02  -0.1189668271E-16  -0.6625000009E+01  -0.5541788597E-14  -0.7510441487E-14  -0.2119479023E-14   0.4638479062E-15  -0.2756690366E-15  -0.1325000002E-01   0.3975000006E-02   0.3975000006E-02  -0.3327796949E-16  -0.2243315514E-16  -0.4970185262E-16   0.6625000009E+01
   0.0000000000E+00   0.1003975000E+01   0.2872592589E-16   0.0000000000E+00  -0.6750000000E-03  -0.1002494586E-17   0.0000000000E+00   0.4650000000E-02   0.2972842048E-16  -0.6625000010E+01   0.5617618262E-14   0.7671530576E-14   0.5932011370E-15  -0.9513611173E-16  -0.5205470549E-15  -0.1325000002E-01   0.3975000006E-02   0.3975000006E-02   0.7704520787E-16  -0.6588155281E-16  -0.1078821154E-16   0.6625000010E+01
   0.0000000000E+00   0.0000000000E+00   0.1003975000E+01   0.0000000000E+00   0.0000000000E+00  -0.6750000000E-03   0.0000000000E+00   0.0000000000E+00   0.4650000000E-02  -0.6625000010E+01   0.7729177568E-14   0.7080835694E-14   0.3671644793E-17   0.2952705644E-15   0.6763867800E-15  -0.1325000002E-01   0.3975000006E-02   0.3975000006E-02  -0.7385050293E-19  -0.1542840529E-15  -0.3252433651E-16   0.6625000010E+01
   0.9867500000E+00   0.0000000000E+00   0.1003975000E+01   0.2250000000E-02   0.0000000000E+00  -0.6750000000E-03  -0.1550000000E-01   0.0000000000E+00   0.4650000000E-02  -0.6625000009E+01  -0.5541788597E-14  -0.3795180398E-14  -0.2612506889E-16  -0.2769610885E-15   0.2928531464E-15  -0.1325000002E-01   0.3975000006E-02   0.3975000006E-02   0.2886716223E-16  -0.4252581833E-16   0.6211938015E-16   0.6625000009E+01
   0.9867500000E+00   0.1003975000E+01   0.1003975000E+01   0.2250000000E-02  -0.6750000000E-03  -0.6750000000E-03  -0.1550000000E-01   0.4650000000E-02   0.4650000000E-02  -0.6625000009E+01   0.7651212072E-14   0.7155597303E-14   0.1123523480E-14   0.1840801883E-15  -0.6818888970E-15  -0.1325000002E-01   0.3975000005E-02   0.3975000005E-02   0.6092124706E-16  -0.7844168838E-18  -0.1185161489E-16   0.6625000009E+01
   0.0000000000E+00   0.1003975000E+01   0.1003975000E+01   0.0000000000E+00  -0.6750000000E-03  -0.6750000000E-03   0.0000000000E+00   0.4650000000E-02   0.4650000000E-02  -0.6625000009E+01  -0.7657724319E-14  -0.7095709713E-14  -0.2131161442E-15   0.1853668361E-15  -0.1423545932E-15  -0.1325000002E-01   0.3975000005E-02   0.3975000005E-02   0.2142067134E-16  -0.2037984569E-16  -0.9840268532E-16   0.6625000009E+01
   0.1973500000E+01   0.0000000000E+00  -0.7492850765E-16   0.4500000000E-02   0.0000000000E+00  -0.2123347997E-17  -0.3100000000E-01   0.0000000000E+00  -0.7280515965E-16  -0.6625000010E+01  -0.8248419060E-14  -0.7545633958E-14   0.1051617552E-14   0.8256235056E-15  -0.1012958075E-14  -0.1325000002E-01   0.3975000006E-02   0.3975000006E-02  -0.6278331744E-16  -0.1085187431E-15  -0.2622603453E-16   0.6625000010E+01
   0.1973500000E+01   0.1003975000E+01  -0.8747227751E-16   0.4500000000E-02  -0.6750000000E-03  -0.2638986788E-17  -0.3100000000E-01   0.4650000000E-02  -0.8483329072E-16  -0.6625000009E+01   0.1368160818E-13   0.1435172742E-13  -0.6801387934E-16   0.4073283017E-15   0.1118468331E-14  -0.1325000002E-01   0.3975000006E-02   0.3975000006E-02  -0.2368530636E-15  -0.6145789326E-16   0.7682733449E-16   0.6625000009E+01
   0.1973500000E+01   0.0000000000E+00   0.1003975000E+01   0.4500000000E-02   0.0000000000E+00  -0.6750000000E-03  -0.3100000000E-01   0.0000000000E+00   0.4650000000E-02  -0.6625000009E+01   0.1157004887E-13   0.9050270156E-14  -0.9753667697E-15   0.4041190846E-15  -0.5966841334E-15  -0.1325000002E-01   0.3975000006E-02   0.3975000006E-02   0.3310493041E-16  -0.6390005858E-16  -0.1853257870E-16   0.6625000009E+01
   0.1973500000E+01   0.1003975000E+01   0.1003975000E+01   0.4500000000E-02  -0.6750000000E-03  -0.6750000000E-03  -0.3100000000E-01   0.4650000000E-02   0.4650000000E-02  -0.6625000008E+01  -0.1513471855E-13  -0.1438040781E-13   0.8094326707E-15  -0.1650457272E-14   0.9616383004E-15  -0.1325000002E-01   0.3975000005E-02   0.3975000005E-02   0.7460458738E-16  -0.1244674644E-15   0.8502390874E-16   0.6625000008E+01
     1     2     3     4     5     6     7     8
     2     9    10     3     6    11    12     7
 VARIABLES = X,Y,Z,DU1,DU2,DU3,U1,U2,U3,S11,S22,S33,S12,S13,S23,E11,E22,E33,E12,E13,E23,SMISES
 ZONE, T="0.8200D+01" F=FEPOINT, I=   12 J=    2 ET=BRICK
   0.0000000000E+00   0.0000000000E+00   0.0000000000E+00   0.0000000000E+00   0.0000000000E+00   0.0000000000E+00   0.0000000000E+00   0.0000000000E+00   0.0000000000E+00  -0.5500000009E+01  -0.7555598012E-14  -0.7718679851E-14   0.2121599666E-15  -0.5229817717E-16   0.3731777314E-15  -0.1100000002E-01   0.3300000005E-02   0.3300000005E-02   0.3192747493E-17  -0.4104224659E-16   0.5719036236E-16   0.5500000009E+01
   0.9890000000E+00   0.0000000000E+00  -0.2645406127E-16   0.2250000000E-02   0.0000000000E+00  -0.9636030729E-20  -0.1325000000E-01   0.0000000000E+00  -0.2644442524E-16  -0.5500000008E+01   0.4013239423E-14   0.3340202553E-14  -0.1832816305E-15   0.2884297170E-15   0.3221130868E-15  -0.1100000002E-01   0.3300000005E-02   0.3300000005E-02   0.1784472959E-16   0.1748766250E-16   0.2815318715E-16   0.5500000008E+01
   0.9890000000E+00   0.1003300000E+01  -0.1226539037E-16   0.2250000000E-02  -0.6750000000E-03   0.6569009722E-18  -0.1325000000E-01   0.3975000000E-02  -0.1292229134E-16  -0.5500000008E+01  -0.6637137335E-14  -0.8450145425E-14  -0.9321631807E-15  -0.5261201834E-15  -0.4517729933E-16  -0.1100000002E-01   0.3300000005E-02   0.3300000005E-02  -0.3227214327E-16  -0.3075440509E-16  -0.4514228186E-16   0.5500000008E+01
   0.0000000000E+00   0.1003300000E+01   0.2867913629E-16   0.0000000000E+00  -0.6750000000E-03  -0.4678959716E-19   0.0000000000E+00   0.3975000000E-02   0.2872592589E-16  -0.5500000008E+01   0.7478700356E-14   0.9095960569E-14   0.2097751110E-15   0.1533386481E-15  -0.5605713766E-15  -0.1100000002E-01   0.3300000005E-02   0.3300000005E-02   0.7800902980E-16  -0.5953592069E-16  -0.1066873934E-16   0.5500000008E+01
   0.0000000000E+00   0.0000000000E+00   0.1003300000E+01   0.0000000000E+00   0.0000000000E+00  -0.6750000000E-03   0.0000000000E+00   0.0000000000E+00   0.3975000000E-02  -0.5500000008E+01   0.8584155940E-14   0.8514695541E-14  -0.6637513592E-18   0.1176849095E-15   0.3366304535E-15  -0.1100000002E-01   0.3300000005E-02   0.3300000005E-02  -0.1970725582E-17  -0.1647864358E-15  -0.3828530256E-16   0.5500000008E+01
   0.9890000000E+00   0.0000000000E+00   0.1003300000E+01   0.2250000000E-02   0.0000000000E+00  -0.6750000000E-03  -0.1325000000E-01   0.0000000000E+00   0.3975000000E-02  -0.5500000008E+01  -0.5778707365E-14  -0.4087610271E-14  -0.4818136605E-15   0.1228667593E-15   0.3770873795E-15  -0.1100000002E-01   0.3300000005E-02   0.3300000005E-02   0.2814242536E-16  -0.2882397994E-16   0.6608692414E-16   0.5500000008E+01
   0.9890000000E+00   0.1003300000E+01   0.1003300000E+01   0.2250000000E-02  -0.6750000000E-03  -0.6750000000E-03  -0.1325000000E-01   0.3975000000E-02   0.3975000000E-02  -0.5500000007E+01   0.8150812321E-14   0.7791982659E-14   0.3739158953E-15  -0.9090410021E-15  -0.5256287173E-15  -0.1100000001E-01   0.3300000004E-02   0.3300000004E-02   0.6648406842E-16  -0.1858384384E-16  -0.8347634291E-17   0.5500000007E+01
   0.0000000000E+00   0.1003300000E+01   0.1003300000E+01   0.0000000000E+00  -0.6750000000E-03  -0.6750000000E-03   0.0000000000E+00   0.3975000000E-02   0.3975000000E-02  -0.5500000007E+01  -0.9047495618E-14  -0.9034614181E-14  -0.2864855701E-15   0.5832912101E-15  -0.4421723617E-15  -0.1100000001E-01   0.3300000004E-02   0.3300000004E-02   0.1718262521E-16  -0.1209893283E-16  -0.1052770823E-15   0.5500000007E+01
   0.1978000000E+01   0.0000000000E+00  -0.7616342158E-16   0.4500000000E-02   0.0000000000E+00  -0.1234913926E-17  -0.2650000000E-01   0.0000000000E+00  -0.7492850765E-16  -0.5500000008E+01  -0.6525580978E-14  -0.6310973532E-14   0.1394469639E-16  -0.1718440755E-15  -0.1043406867E-14  -0.1100000002E-01   0.3300000005E-02   0.3300000005E-02  -0.7762200718E-16  -0.9232552762E-16  -0.2648165000E-16   0.5500000008E+01
   0.1978000000E+01   0.1003300000E+01  -0.8894621829E-16   0.4500000000E-02  -0.6750000000E-03  -0.1473940776E-17  -0.2650000000E-01   0.3975000000E-02  -0.8747227751E-16  -0.5500000008E+01   0.1096209604E-13   0.1195784508E-13  -0.9771299381E-15   0.1356877814E-14   0.6238345654E-15  -0.1100000002E-01   0.3300000005E-02   0.3300000005E-02  -0.2578105536E-15  -0.7420778594E-16   0.7445098490E-16   0.5500000008E+01
   0.1978000000E+01   0.0000000000E+00   0.1003300000E+01   0.4500000000E-02   0.0000000000E+00  -0.6750000000E-03  -0.2650000000E-01   0.0000000000E+00   0.3975000000E-02  -0.5500000008E+01   0.8908965531E-14   0.7275372382E-14   0.1887341684E-15  -0.5769507402E-15  -0.3804197322E-15  -0.1100000002E-01   0.3300000005E-02   0.3300000005E-02   0.4236545336E-16  -0.1124394739E-15  -0.1723498832E-16   0.5500000008E+01
   0.1978000000E+01   0.1003300000E+01   0.1003300000E+01   0.4500000000E-02  -0.6750000000E-03  -0.6750000000E-03  -0.2650000000E-01   0.3975000000E-02   0.3975000000E-02  -0.5500000007E+01  -0.1407801419E-13  -0.1274482189E-13   0.1382939485E-14  -0.1941022841E-15   0.7695778934E-15  -0.1100000001E-01   0.3300000004E-02   0.3300000004E-02   0.9271466178E-16  -0.6491358687E-16   0.8421403684E-16   0.5500000007E+01
     1     2     3     4     5     6     7     8
     2     9    10     3     6    11    12     7
 VARIABLES = X,Y,Z,DU1,DU2,DU3,U1,U2,U3,S11,S22,S33,S12,S13,S23,E11,E22,E33,E12,E13,E23,SMISES
 ZONE, T="0.8250D+01" F=FEPOINT, I=   12 J=    2 ET=BRICK
   0.0000000000E+00   0.0000000000E+00   0.0000000000E+00   0.0000000000E+00   0.0000000000E+00   0.0000000000E+00   0.0000000000E+00   0.0000000000E+00   0.0000000000E+00  -0.4375000007E+01  -0.8070267948E-14  -0.9091779798E-14   0.2198006032E-15  -0.7964662854E-15   0.5054208736E-15  -0.8750000014E-02   0.2625000004E-02   0.2625000004E-02  -0.9253708883E-19  -0.4513329758E-16   0.5861716383E-16   0.4375000007E+01
   0.9912500000E+00   0.0000000000E+00  -0.3025672207E-16   0.2250000000E-02   0.0000000000E+00  -0.3802660796E-17  -0.1100000000E-01   0.0000000000E+00  -0.2645406127E-16  -0.4375000007E+01   0.4118817405E-14   0.3323869583E-14  -0.3606554317E-15   0.7459901199E-15   0.4484154432E-15  -0.8750000013E-02   0.2625000004E-02   0.2625000004E-02   0.1791369416E-16   0.5666612521E-17   0.2883264778E-16   0.4375000007E+01
   0.9912500000E+00   0.1002625000E+01  -0.1541635908E-16   0.2250000000E-02  -0.6750000000E-03  -0.3150968716E-17  -0.1100000000E-01   0.3300000000E-02  -0.1226539037E-16  -0.4375000006E+01  -0.5858522484E-14  -0.8056123083E-14  -0.1310945963E-14   0.1281357090E-15  -0.2295410420E-16  -0.8750000012E-02   0.2625000004E-02   0.2625000004E-02  -0.3412316391E-16  -0.5467849051E-17  -0.4659861217E-16   0.4375000006E+01
   0.0000000000E+00   0.1002625000E+01   0.2928899531E-16   0.0000000000E+00  -0.6750000000E-03   0.6098590211E-18   0.0000000000E+00   0.3300000000E-02   0.2867913629E-16  -0.4375000006E+01   0.6294445156E-14   0.7684216439E-14   0.2725391716E-15  -0.4088228638E-15  -0.8323522814E-15  -0.8750000013E-02   0.2625000004E-02   0.2625000004E-02   0.7850537492E-16  -0.7091682530E-16  -0.1061578941E-16   0.4375000006E+01
   0.0000000000E+00   0.0000000000E+00   0.1002625000E+01   0.0000000000E+00   0.0000000000E+00  -0.6750000000E-03   0.0000000000E+00   0.0000000000E+00   0.3300000000E-02  -0.4375000006E+01   0.9024989030E-14   0.9077439560E-14   0.1907126448E-16  -0.3062129517E-15   0.5865081301E-15  -0.8750000013E-02   0.2625000004E-02   0.2625000004E-02   0.2807963470E-18  -0.1688134141E-15  -0.3442378852E-16   0.4375000006E+01
   0.9912500000E+00   0.0000000000E+00   0.1002625000E+01   0.2250000000E-02   0.0000000000E+00  -0.6750000000E-03  -0.1100000000E-01   0.0000000000E+00   0.3300000000E-02  -0.4375000006E+01  -0.5455070324E-14  -0.3693587929E-14  -0.1666045140E-15   0.4999789164E-15   0.3993326061E-15  -0.8750000012E-02   0.2625000004E-02   0.2625000004E-02   0.3282925520E-16  -0.2392154161E-16   0.6787436360E-16   0.4375000006E+01
   0.9912500000E+00   0.1002625000E+01   0.1002625000E+01   0.2250000000E-02  -0.6750000000E-03  -0.6750000000E-03  -0.1100000000E-01   0.3300000000E-02   0.3300000000E-02  -0.4375000006E+01   0.8692508463E-14   0.7808315689E-14   0.7524708059E-15  -0.3383692987E-16  -0.6414158062E-15  -0.8750000011E-02   0.2625000003E-02   0.2625000003E-02   0.6354014124E-16  -0.1525240765E-16  -0.1157744117E-16   0.4375000006E+01
   0.0000000000E+00   0.1002625000E+01   0.1002625000E+01   0.0000000000E+00  -0.6750000000E-03  -0.6750000000E-03   0.0000000000E+00   0.3300000000E-02   0.3300000000E-02  -0.4375000006E+01  -0.8049558358E-14  -0.7328447420E-14   0.3170189710E-16  -0.2478284178E-15  -0.4509755507E-15  -0.8750000012E-02   0.2625000004E-02   0.2625000004E-02   0.2261031221E-16  -0.1905031862E-16  -0.1027691077E-15   0.4375000006E+01
   0.1982500000E+01   0.0000000000E+00  -0.8499342409E-16   0.4500000000E-02   0.0000000000E+00  -0.8830002517E-17  -0.2200000000E-01   0.0000000000E+00  -0.7616342158E-16  -0.4375000007E+01  -0.7427370110E-14  -0.6635873860E-14   0.1198991787E-14  -0.3023716234E-15  -0.1099136217E-14  -0.8750000013E-02   0.2625000004E-02   0.2625000004E-02  -0.6735705453E-16  -0.9802809503E-16  -0.2626327290E-16   0.4375000007E+01
   0.1982500000E+01   0.1002625000E+01  -0.9812793058E-16   0.4500000000E-02  -0.6750000000E-03  -0.9181712297E-17  -0.2200000000E-01   0.3300000000E-02  -0.8894621829E-16  -0.4375000006E+01   0.1183214409E-13   0.1358074518E-13  -0.3394884955E-15   0.9849742490E-15   0.8576358881E-15  -0.8750000012E-02   0.2625000004E-02   0.2625000004E-02  -0.2416740088E-15  -0.8474079051E-16   0.7686429349E-16   0.4375000006E+01
   0.1982500000E+01   0.0000000000E+00   0.1002625000E+01   0.4500000000E-02   0.0000000000E+00  -0.6750000000E-03  -0.2200000000E-01   0.0000000000E+00   0.3300000000E-02  -0.4375000006E+01   0.7910103388E-14   0.6923784328E-14   0.1029193468E-14  -0.2568579971E-15  -0.6734479829E-15  -0.8750000012E-02   0.2625000004E-02   0.2625000004E-02   0.5526711033E-16  -0.1054733135E-15  -0.1929189623E-16   0.4375000006E+01
   0.1982500000E+01   0.1002625000E+01   0.1002625000E+01   0.4500000000E-02  -0.6750000000E-03  -0.6750000000E-03  -0.2200000000E-01   0.3300000000E-02   0.3300000000E-02  -0.4375000006E+01  -0.1428790676E-13  -0.1275298834E-13   0.2006213164E-14  -0.9277067062E-15   0.8372133298E-15  -0.8750000011E-02   0.2625000003E-02   0.2625000003E-02   0.9232694568E-16  -0.7812875136E-16   0.8304056981E-16   0.4375000006E+01
     1     2     3     4     5     6     7     8
     2     9    10     3     6    11    12     7
 VARIABLES = X,Y,Z,DU1,DU2,DU3,U1,U2,U3,S11,S22,S33,S12,S13,S23,E11,E22,E33,E12,E13,E23,SMISES
 ZONE, T="0.8300D+01" F=FEPOINT, I=   12 J=    2 ET=BRICK
   0.0000000000E+00   0.0000000000E+00   0.0000000000E+00   0.0000000000E+00   0.0000000000E+00   0.0000000000E+00   0.0000000000E+00   0.0000000000E+00   0.0000000000E+00  -0.3250000005E+01  -0.7856923820E-14  -0.8592713422E-14   0.2201566657E-15  -0.1206132256E-15   0.3683924895E-15  -0.6500000010E-02   0.1950000003E-02   0.1950000003E-02  -0.1262187754E-18  -0.4254750181E-16   0.5703933256E-16   0.3250000005E+01
   0.9935000000E+00   0.0000000000E+00  -0.2678189711E-16   0.2250000000E-02   0.0000000000E+00   0.3474824955E-17  -0.8750000000E-02   0.0000000000E+00  -0.3025672207E-16  -0.3250000005E+01   0.3917091308E-14   0.3319884061E-14  -0.3760953259E-15   0.3222666988E-15   0.7635713465E-16  -0.6500000010E-02   0.1950000003E-02   0.1950000003E-02   0.1678429144E-16   0.1108148856E-16   0.2620100073E-16   0.3250000005E+01
   0.9935000000E+00   0.1001950000E+01  -0.1386247318E-16   0.2250000000E-02  -0.6750000000E-03   0.1553885901E-17  -0.8750000000E-02   0.2625000000E-02  -0.1541635908E-16  -0.3250000005E+01  -0.5874855480E-14  -0.7445500496E-14  -0.1094328216E-14  -0.4068118039E-15  -0.2135363520E-15  -0.6500000009E-02   0.1950000003E-02   0.1950000003E-02  -0.3318527937E-16  -0.1602081910E-16  -0.4894571238E-16   0.3250000005E+01
   0.0000000000E+00   0.1001950000E+01   0.2857465745E-16   0.0000000000E+00  -0.6750000000E-03  -0.7143378595E-18   0.0000000000E+00   0.2625000000E-02   0.2928899531E-16  -0.3250000005E+01   0.6581626174E-14   0.8375579053E-14   0.3038577398E-15  -0.1620215193E-15  -0.5169301555E-15  -0.6500000009E-02   0.1950000003E-02   0.1950000003E-02   0.7679334745E-16  -0.6860310698E-16  -0.8846484884E-17   0.3250000005E+01
   0.0000000000E+00   0.0000000000E+00   0.1001950000E+01   0.0000000000E+00   0.0000000000E+00  -0.6750000000E-03   0.0000000000E+00   0.0000000000E+00   0.2625000000E-02  -0.3250000005E+01   0.8561844708E-14   0.8774654929E-14   0.3422657498E-16   0.1400213233E-15   0.3316143600E-15  -0.6500000009E-02   0.1950000003E-02   0.1950000003E-02   0.9087769615E-18  -0.1616525276E-15  -0.3816684204E-16   0.3250000005E+01
   0.9935000000E+00   0.0000000000E+00   0.1001950000E+01   0.2250000000E-02   0.0000000000E+00  -0.6750000000E-03  -0.8750000000E-02   0.0000000000E+00   0.2625000000E-02  -0.3250000005E+01  -0.5612173923E-14  -0.4133691567E-14  -0.4197050144E-15   0.2713477714E-15   0.2590812105E-15  -0.6500000009E-02   0.1950000003E-02   0.1950000003E-02   0.2739060873E-16  -0.3720108070E-16   0.6450877693E-16   0.3250000005E+01
   0.9935000000E+00   0.1001950000E+01   0.1001950000E+01   0.2250000000E-02  -0.6750000000E-03  -0.6750000000E-03  -0.8750000000E-02   0.2625000000E-02   0.2625000000E-02  -0.3250000004E+01   0.7843508301E-14   0.7227441404E-14   0.5355295326E-15  -0.3051557100E-15  -0.6335470523E-15  -0.6500000008E-02   0.1950000003E-02   0.1950000003E-02   0.6020470307E-16  -0.1024923910E-16  -0.1116420471E-16   0.3250000004E+01
   0.0000000000E+00   0.1001950000E+01   0.1001950000E+01   0.0000000000E+00  -0.6750000000E-03  -0.6750000000E-03   0.0000000000E+00   0.2625000000E-02   0.2625000000E-02  -0.3250000004E+01  -0.8211376908E-14  -0.8271602940E-14  -0.2683575844E-15   0.2400744907E-15  -0.2922565018E-15  -0.6500000009E-02   0.1950000003E-02   0.1950000003E-02   0.2082622599E-16  -0.1461728070E-16  -0.1068876191E-15   0.3250000004E+01
   0.1987000000E+01   0.0000000000E+00  -0.7687472832E-16   0.4500000000E-02   0.0000000000E+00   0.8118695771E-17  -0.1750000000E-01   0.0000000000E+00  -0.8499342409E-16  -0.3250000005E+01  -0.7608048229E-14  -0.7527503702E-14   0.1274490261E-14   0.3961275527E-15  -0.9934637879E-15  -0.6500000010E-02   0.1950000003E-02   0.1950000003E-02  -0.6531437517E-16  -0.9118216196E-16  -0.2538008567E-16   0.3250000005E+01
   0.1987000000E+01   0.1001950000E+01  -0.8937374174E-16   0.4500000000E-02  -0.6750000000E-03   0.8754188845E-17  -0.1750000000E-01   0.2625000000E-02  -0.9812793058E-16  -0.3250000005E+01   0.1219223710E-13   0.1354754523E-13   0.1252933125E-15   0.6933881409E-15   0.1182389258E-14  -0.6500000009E-02   0.1950000003E-02   0.1950000003E-02  -0.2412209402E-15  -0.8782777088E-16   0.8065694879E-16   0.3250000005E+01
   0.1987000000E+01   0.0000000000E+00   0.1001950000E+01   0.4500000000E-02   0.0000000000E+00  -0.6750000000E-03  -0.1750000000E-01   0.0000000000E+00   0.2625000000E-02  -0.3250000005E+01   0.1007124797E-13   0.8447814045E-14  -0.5350117559E-15   0.1885854086E-15  -0.3970586182E-15  -0.6500000009E-02   0.1950000003E-02   0.1950000003E-02   0.3477241797E-16  -0.9194528513E-16  -0.1648209394E-16   0.3250000005E+01
   0.1987000000E+01   0.1001950000E+01   0.1001950000E+01   0.4500000000E-02  -0.6750000000E-03  -0.6750000000E-03  -0.1750000000E-01   0.2625000000E-02   0.2625000000E-02  -0.3250000004E+01  -0.1472183662E-13  -0.1335617381E-13   0.7619855996E-15  -0.1680701478E-14   0.1250586618E-14  -0.6500000008E-02   0.1950000002E-02   0.1950000002E-02   0.7981561785E-16  -0.1008281328E-15   0.8535157970E-16   0.3250000004E+01
     1     2     3     4     5     6     7     8
     2     9    10     3     6    11    12     7
 VARIABLES = X,Y,Z,DU1,DU2,DU3,U1,U2,U3,S11,S22,S33,S12,S13,S23,E11,E22,E33,E12,E13,E23,SMISES
 ZONE, T="0.8350D+01" F=FEPOINT, I=   12 J=    2 ET=BRICK
   0.0000000000E+00   0.0000000000E+00   0.0000000000E+00   0.0000000000E+00   0.0000000000E+00   0.0000000000E+00   0.0000000000E+00   0.0000000000E+00   0.0000000000E+00  -0.2125000003E+01  -0.7333286509E-14  -0.8124587241E-14   0.2093023029E-15  -0.1392511114E-15   0.3832045516E-15  -0.4250000007E-02   0.1275000002E-02   0.1275000002E-02   0.3282684893E-18  -0.4329665611E-16   0.5753581658E-16   0.2125000003E+01
   0.9957500000E+00   0.0000000000E+00  -0.2690880272E-16   0.2250000000E-02   0.0000000000E+00  -0.1269056060E-18  -0.6500000000E-02   0.0000000000E+00  -0.2678189711E-16  -0.2125000003E+01   0.4000358033E-14   0.3347639630E-14  -0.9643094248E-15  -0.6238500355E-16   0.1366044053E-15  -0.4250000007E-02   0.1275000002E-02   0.1275000002E-02   0.9384369604E-17   0.1061831286E-16   0.2589789890E-16   0.2125000003E+01
   0.9957500000E+00   0.1001275000E+01  -0.1360541904E-16   0.2250000000E-02  -0.6750000000E-03   0.2570541397E-18  -0.6500000000E-02   0.1950000000E-02  -0.1386247318E-16  -0.2125000003E+01  -0.5836211252E-14  -0.7488130229E-14  -0.1718196963E-14  -0.1973046941E-17  -0.8329081447E-16  -0.4250000006E-02   0.1275000002E-02   0.1275000002E-02  -0.4030140247E-16  -0.9193434996E-17  -0.4740121483E-16   0.2125000003E+01
   0.0000000000E+00   0.1001275000E+01   0.2865583741E-16   0.0000000000E+00  -0.6750000000E-03   0.8117995347E-19   0.0000000000E+00   0.1950000000E-02   0.2857465745E-16  -0.2125000003E+01   0.5862241042E-14   0.7841053085E-14   0.4369976958E-15  -0.7749836427E-16  -0.4996180695E-15  -0.4250000006E-02   0.1275000002E-02   0.1275000002E-02   0.7782600327E-16  -0.6907342127E-16  -0.6769450499E-17   0.2125000003E+01
   0.0000000000E+00   0.0000000000E+00   0.1001275000E+01   0.0000000000E+00   0.0000000000E+00  -0.6750000000E-03   0.0000000000E+00   0.0000000000E+00   0.1950000000E-02  -0.2125000003E+01   0.8217622246E-14   0.8698558342E-14   0.7642471312E-16   0.1088060815E-15   0.4907173395E-15  -0.4250000006E-02   0.1275000002E-02   0.1275000002E-02  -0.4609441570E-18  -0.1617851395E-15  -0.3769619948E-16   0.2125000003E+01
   0.9957500000E+00   0.0000000000E+00   0.1001275000E+01   0.2250000000E-02   0.0000000000E+00  -0.6750000000E-03  -0.6500000000E-02   0.0000000000E+00   0.1950000000E-02  -0.2125000003E+01  -0.5503144394E-14  -0.4272469427E-14  -0.3210578279E-15   0.5115803252E-16   0.2909679911E-15  -0.4250000006E-02   0.1275000002E-02   0.1275000002E-02   0.3127373120E-16  -0.3963363290E-16   0.6540146032E-16   0.2125000003E+01
   0.9957500000E+00   0.1001275000E+01   0.1001275000E+01   0.2250000000E-02  -0.6750000000E-03  -0.6750000000E-03  -0.6500000000E-02   0.1950000000E-02   0.1950000000E-02  -0.2125000003E+01   0.8285604710E-14   0.7517878529E-14   0.7255486739E-15   0.1695190615E-16  -0.5572572245E-15  -0.4250000006E-02   0.1275000002E-02   0.1275000002E-02   0.6230576066E-16  -0.2063888179E-17  -0.1045982952E-16   0.2125000003E+01
   0.0000000000E+00   0.1001275000E+01   0.1001275000E+01   0.0000000000E+00  -0.6750000000E-03  -0.6750000000E-03   0.0000000000E+00   0.1950000000E-02   0.1950000000E-02  -0.2125000003E+01  -0.8094643338E-14  -0.7995773003E-14  -0.9002906750E-16   0.1417239423E-15  -0.1746925150E-15  -0.4250000006E-02   0.1275000002E-02   0.1275000002E-02   0.2356901186E-16  -0.1748588236E-16  -0.1032376233E-15   0.2125000003E+01
   0.1991500000E+01   0.0000000000E+00  -0.7607716593E-16   0.4500000000E-02   0.0000000000E+00   0.7975623905E-18  -0.1300000000E-01   0.0000000000E+00  -0.7687472832E-16  -0.2125000003E+01  -0.8016677783E-14  -0.7799348140E-14   0.1331769411E-14   0.7062902192E-16  -0.1104162137E-14  -0.4250000006E-02   0.1275000002E-02   0.1275000002E-02  -0.6085378107E-16  -0.1164020864E-15  -0.2564868371E-16   0.2125000003E+01
   0.1991500000E+01   0.1001275000E+01  -0.8910939741E-16   0.4500000000E-02  -0.6750000000E-03   0.2643443301E-18  -0.1300000000E-01   0.1950000000E-02  -0.8937374174E-16  -0.2125000003E+01   0.1236049632E-13   0.1380451548E-13   0.1275035604E-15   0.8540810939E-15   0.1114976595E-14  -0.4250000006E-02   0.1275000002E-02   0.1275000002E-02  -0.2419050283E-15  -0.7156574074E-16   0.7879710217E-16   0.2125000003E+01
   0.1991500000E+01   0.0000000000E+00   0.1001275000E+01   0.4500000000E-02   0.0000000000E+00  -0.6750000000E-03  -0.1300000000E-01   0.0000000000E+00   0.1950000000E-02  -0.2125000003E+01   0.9338981399E-14   0.8054058658E-14   0.2284272947E-15   0.2633461358E-15  -0.6726491306E-15  -0.4250000006E-02   0.1275000002E-02   0.1275000002E-02   0.3881093138E-16  -0.6266529087E-16  -0.2077721066E-16   0.2125000003E+01
   0.1991500000E+01   0.1001275000E+01   0.1001275000E+01   0.4500000000E-02  -0.6750000000E-03  -0.6750000000E-03  -0.1300000000E-01   0.1950000000E-02   0.1950000000E-02  -0.2125000003E+01  -0.1467203678E-13  -0.1357649261E-13   0.1112743361E-14  -0.1657173121E-14   0.1031427582E-14  -0.4250000005E-02   0.1275000002E-02   0.1275000002E-02   0.8456421171E-16  -0.1263098231E-15   0.8488590089E-16   0.2125000003E+01
     1     2     3     4     5     6     7     8
     2     9    10     3     6    11    12     7
 VARIABLES = X,Y,Z,DU1,DU2,DU3,U1,U2,U3,S11,S22,S33,S12,S13,S23,E11,E22,E33,E12,E13,E23,SMISES
 ZONE, T="0.8400D+01" F=FEPOINT, I=   12 J=    2 ET=BRICK
   0.0000000000E+00   0.0000000000E+00   0.0000000000E+00   0.0000000000E+00   0.0000000000E+00   0.0000000000E+00   0.0000000000E+00   0.0000000000E+00   0.0000000000E+00  -0.1000000002E+01  -0.7331244873E-14  -0.8265904897E-14   0.1907374990E-15  -0.2553586078E-15   0.4136898769E-15  -0.2000000003E-02   0.6000000009E-03   0.6000000009E-03  -0.5586759973E-18  -0.4417123127E-16   0.5733228798E-16   0.1000000002E+01
   0.9980000000E+00   0.0000000000E+00  -0.2741152265E-16   0.2250000000E-02   0.0000000000E+00  -0.5027199309E-18  -0.4250000000E-02   0.0000000000E+00  -0.2690880272E-16  -0.1000000002E+01   0.4337508140E-14   0.3809689810E-14  -0.8233808573E-15   0.3036680089E-16   0.2090771820E-15  -0.2000000003E-02   0.6000000009E-03   0.6000000009E-03   0.1449104728E-16   0.1331527715E-16   0.2730596429E-16   0.1000000002E+01
   0.9980000000E+00   0.1000600000E+01  -0.1365670247E-16   0.2250000000E-02  -0.6750000000E-03  -0.5128342433E-19  -0.4250000000E-02   0.1275000000E-02  -0.1360541904E-16  -0.1000000001E+01  -0.6022698459E-14  -0.7860472972E-14  -0.1577843752E-14  -0.2737284737E-17  -0.5258125997E-16  -0.2000000003E-02   0.6000000009E-03   0.6000000009E-03  -0.3675707678E-16  -0.1443149965E-16  -0.4571362864E-16   0.1000000001E+01
   0.0000000000E+00   0.1000600000E+01   0.2874277345E-16   0.0000000000E+00  -0.6750000000E-03   0.8693604297E-19   0.0000000000E+00   0.1275000000E-02   0.2865583741E-16  -0.1000000001E+01   0.6053990229E-14   0.7942231949E-14   0.3816874372E-15  -0.8541852868E-16  -0.5673434301E-15  -0.2000000003E-02   0.6000000009E-03   0.6000000009E-03   0.7717100331E-16  -0.6740098920E-16  -0.9022107433E-17   0.1000000001E+01
   0.0000000000E+00   0.0000000000E+00   0.1000600000E+01   0.0000000000E+00   0.0000000000E+00  -0.6750000000E-03   0.0000000000E+00   0.0000000000E+00   0.1275000000E-02  -0.1000000001E+01   0.8159571287E-14   0.8695885044E-14   0.1124368242E-15   0.1429252721E-15   0.4938490245E-15  -0.2000000003E-02   0.6000000009E-03   0.6000000009E-03   0.8694751112E-18  -0.1642301873E-15  -0.3577501380E-16   0.1000000001E+01
   0.9980000000E+00   0.0000000000E+00   0.1000600000E+01   0.2250000000E-02   0.0000000000E+00  -0.6750000000E-03  -0.4250000000E-02   0.0000000000E+00   0.1275000000E-02  -0.1000000001E+01  -0.5584053648E-14  -0.4132330470E-14  -0.3992254361E-15   0.3193254325E-16   0.2821415481E-15  -0.2000000003E-02   0.6000000009E-03   0.6000000009E-03   0.3010469720E-16  -0.3072022864E-16   0.6487094846E-16   0.1000000001E+01
   0.9980000000E+00   0.1000600000E+01   0.1000600000E+01   0.2250000000E-02  -0.6750000000E-03  -0.6750000000E-03  -0.4250000000E-02   0.1275000000E-02   0.1275000000E-02  -0.1000000001E+01   0.8377669586E-14   0.7664458176E-14   0.6766888642E-15   0.3569167890E-16  -0.6446584876E-15  -0.2000000003E-02   0.6000000008E-03   0.6000000008E-03   0.6550781675E-16  -0.4333804012E-17  -0.1185873886E-16   0.1000000001E+01
   0.0000000000E+00   0.1000600000E+01   0.1000600000E+01   0.0000000000E+00  -0.6750000000E-03  -0.6750000000E-03   0.0000000000E+00   0.1275000000E-02   0.1275000000E-02  -0.1000000001E+01  -0.8258503470E-14  -0.8070788606E-14  -0.7682876207E-16   0.9718331127E-16  -0.2242007837E-15  -0.2000000003E-02   0.6000000008E-03   0.6000000008E-03   0.2150594507E-16  -0.1638868921E-16  -0.1005229341E-15   0.1000000001E+01
   0.1996000000E+01   0.0000000000E+00  -0.7675364070E-16   0.4500000000E-02   0.0000000000E+00  -0.6764747701E-18  -0.8500000000E-02   0.0000000000E+00  -0.7607716593E-16  -0.1000000002E+01  -0.7786515592E-14  -0.7701389603E-14   0.1371526949E-14  -0.1292521420E-15  -0.1133804182E-14  -0.2000000003E-02   0.6000000009E-03   0.6000000009E-03  -0.6286063847E-16  -0.1115435110E-15  -0.2704180537E-16   0.1000000002E+01
   0.1996000000E+01   0.1000600000E+01  -0.8983658406E-16   0.4500000000E-02  -0.6750000000E-03  -0.7271866464E-18  -0.8500000000E-02   0.1275000000E-02  -0.8910939741E-16  -0.1000000001E+01   0.1224729893E-13   0.1383939231E-13   0.1811416896E-15   0.1053221667E-14   0.1042036942E-14  -0.2000000003E-02   0.6000000008E-03   0.6000000008E-03  -0.2409179679E-15  -0.6576911628E-16   0.7946458963E-16   0.1000000001E+01
   0.1996000000E+01   0.0000000000E+00   0.1000600000E+01   0.4500000000E-02   0.0000000000E+00  -0.6750000000E-03  -0.8500000000E-02   0.0000000000E+00   0.1275000000E-02  -0.1000000001E+01   0.8687539489E-14   0.7552416756E-14   0.5244834671E-15   0.4884444245E-15  -0.6296951022E-15  -0.2000000003E-02   0.6000000008E-03   0.6000000008E-03   0.4611255613E-16  -0.8795538151E-16  -0.1928697610E-16   0.1000000001E+01
   0.1996000000E+01   0.1000600000E+01   0.1000600000E+01   0.4500000000E-02  -0.6750000000E-03  -0.6750000000E-03  -0.8500000000E-02   0.1275000000E-02   0.1275000000E-02  -0.1000000001E+01  -0.1426654300E-13  -0.1301004319E-13   0.1377021585E-14  -0.1636251776E-14   0.9457529285E-15  -0.2000000003E-02   0.6000000008E-03   0.6000000008E-03   0.8982435306E-16  -0.9938737199E-16   0.8502359021E-16   0.1000000001E+01
     1     2     3     4     5     6     7     8
     2     9    10     3     6    11    12     7
 VARIABLES = X,Y,Z,DU1,DU2,DU3,U1,U2,U3,S11,S22,S33,S12,S13,S23,E11,E22,E33,E12,E13,E23,SMISES
 ZONE, T="0.8450D+01" F=FEPOINT, I=   12 J=    2 ET=BRICK
   0.0000000000E+00   0.0000000000E+00   0.0000000000E+00   0.0000000000E+00   0.0000000000E+00   0.0000000000E+00   0.0000000000E+00   0.0000000000E+00   0.0000000000E+00   0.1250000002E+00  -0.7343933350E-14  -0.8223489241E-14   0.1675519630E-15  -0.1996061042E-15   0.3907795022E-15   0.2500000004E-03  -0.7500000012E-04  -0.7500000012E-04  -0.1773403283E-18  -0.4281679090E-16   0.5732581343E-16   0.1250000002E+00
   0.1000250000E+01   0.0000000000E+00  -0.2683928693E-16   0.2250000000E-02   0.0000000000E+00   0.5722357172E-18  -0.2000000000E-02   0.0000000000E+00  -0.2741152265E-16   0.1250000002E+00   0.4418189455E-14   0.3996496146E-14  -0.7991077600E-15   0.6880809391E-16   0.1658157443E-15   0.2500000004E-03  -0.7500000012E-04  -0.7500000012E-04   0.1289831381E-16   0.1157726669E-16   0.2706660375E-16   0.1250000002E+00
   0.1000250000E+01   0.9999250000E+00  -0.1329090469E-16   0.2250000000E-02  -0.6750000000E-03   0.3657977769E-18  -0.2000000000E-02   0.6000000000E-03  -0.1365670247E-16   0.1250000002E+00  -0.6213281133E-14  -0.7994183417E-14  -0.1531282710E-14  -0.6457885941E-16  -0.8929655788E-16   0.2500000004E-03  -0.7500000011E-04  -0.7500000011E-04  -0.3755027039E-16  -0.1091196390E-16  -0.4697292715E-16   0.1250000002E+00
   0.0000000000E+00   0.9999250000E+00   0.2867864325E-16   0.0000000000E+00  -0.6750000000E-03  -0.6413019987E-19   0.0000000000E+00   0.6000000000E-03   0.2874277345E-16   0.1250000002E+00   0.6180916882E-14   0.8234197470E-14   0.4069191582E-15   0.3004500472E-16  -0.4122107012E-15   0.2500000004E-03  -0.7500000011E-04  -0.7500000011E-04   0.7747443384E-16  -0.6775826788E-16  -0.7406811296E-17   0.1250000002E+00
   0.0000000000E+00   0.0000000000E+00   0.9999250000E+00   0.0000000000E+00   0.0000000000E+00  -0.6750000000E-03   0.0000000000E+00   0.0000000000E+00   0.6000000000E-03   0.1250000002E+00   0.7993949168E-14   0.8362435149E-14   0.1388855117E-15   0.2394392770E-15   0.4979954182E-15   0.2500000004E-03  -0.7500000011E-04  -0.7500000011E-04   0.1595285384E-18  -0.1623476588E-15  -0.3635963947E-16   0.1250000002E+00
   0.1000250000E+01   0.0000000000E+00   0.9999250000E+00   0.2250000000E-02   0.0000000000E+00  -0.6750000000E-03  -0.2000000000E-02   0.0000000000E+00   0.6000000000E-03   0.1250000002E+00  -0.5559755297E-14  -0.4159326533E-14  -0.3606165860E-15  -0.7040309860E-16   0.2628415337E-15   0.2500000004E-03  -0.7500000011E-04  -0.7500000011E-04   0.3220139691E-16  -0.3309727504E-16   0.6386944862E-16   0.1250000002E+00
   0.1000250000E+01   0.9999250000E+00   0.9999250000E+00   0.2250000000E-02  -0.6750000000E-03  -0.6750000000E-03  -0.2000000000E-02   0.6000000000E-03   0.6000000000E-03   0.1250000002E+00   0.8573705531E-14   0.7759946915E-14   0.6716090781E-15   0.1084520551E-15  -0.6122307461E-15   0.2500000003E-03  -0.7500000010E-04  -0.7500000010E-04   0.6525814769E-16  -0.5324460187E-17  -0.9440363693E-17   0.1250000002E+00
   0.0000000000E+00   0.9999250000E+00   0.9999250000E+00   0.0000000000E+00  -0.6750000000E-03  -0.6750000000E-03   0.0000000000E+00   0.6000000000E-03   0.6000000000E-03   0.1250000002E+00  -0.8053895654E-14  -0.7924073831E-14  -0.8205699707E-16   0.1481162913E-15  -0.2138352684E-15   0.2500000003E-03  -0.7500000010E-04  -0.7500000010E-04   0.2175358165E-16  -0.1577175458E-16  -0.1020223420E-15   0.1250000002E+00
   0.2000500000E+01   0.0000000000E+00  -0.7539891240E-16   0.4500000000E-02   0.0000000000E+00   0.1354728300E-17  -0.4000000000E-02   0.0000000000E+00  -0.7675364070E-16   0.1250000002E+00  -0.7628134792E-14  -0.7438651871E-14   0.1342329587E-14  -0.2927416773E-15  -0.1097553369E-14   0.2500000004E-03  -0.7500000012E-04  -0.7500000012E-04  -0.6273589942E-16  -0.1159513494E-15  -0.2579038884E-16   0.1250000002E+00
   0.2000500000E+01   0.9999250000E+00  -0.8829856809E-16   0.4500000000E-02  -0.6750000000E-03   0.1538015966E-17  -0.4000000000E-02   0.6000000000E-03  -0.8983658406E-16   0.1250000002E+00   0.1192258939E-13   0.1353549946E-13   0.1444798519E-15   0.1410220536E-14   0.1111857194E-14   0.2500000004E-03  -0.7500000011E-04  -0.7500000011E-04  -0.2412473897E-15  -0.6675638131E-16   0.7831069006E-16   0.1250000002E+00
   0.2000500000E+01   0.0000000000E+00   0.9999250000E+00   0.4500000000E-02   0.0000000000E+00  -0.6750000000E-03  -0.4000000000E-02   0.0000000000E+00   0.6000000000E-03   0.1250000002E+00   0.8814523953E-14   0.7816751264E-14   0.5821329431E-15   0.7032470801E-15  -0.6242813186E-15   0.2500000004E-03  -0.7500000011E-04  -0.7500000011E-04   0.4566451025E-16  -0.7760529096E-16  -0.1967019021E-16   0.1250000002E+00
   0.2000500000E+01   0.9999250000E+00   0.9999250000E+00   0.4500000000E-02  -0.6750000000E-03  -0.6750000000E-03  -0.4000000000E-02   0.6000000000E-03   0.6000000000E-03   0.1250000002E+00  -0.1421964930E-13  -0.1290933970E-13   0.1429491136E-14  -0.1599213427E-14   0.9489421572E-15   0.2500000003E-03  -0.7500000010E-04  -0.7500000010E-04   0.9254530336E-16  -0.1097554975E-15   0.8453172174E-16   0.1250000002E+00
     1     2     3     4     5     6     7     8
     2     9    10     3     6    11    12     7
 VARIABLES = X,Y,Z,DU1,DU2,DU3,U1,U2,U3,S11,S22,S33,S12,S13,S23,E11,E22,E33,E12,E13,E23,SMISES
 ZONE, T="0.8500D+01" F=FEPOINT, I=   12 J=    2 ET=BRICK
   0.0000000000E+00   0.0000000000E+00   0.0000000000E+00   0.0000000000E+00   0.0000000000E+00   0.0000000000E+00   0.0000000000E+00   0.0000000000E+00   0.0000000000E+00   0.1250000002E+01  -0.7326347606E-14  -0.8010842776E-14   0.1697157661E-15  -0.1631639119E-15   0.4010991025E-15   0.2500000004E-02  -0.7500000012E-03  -0.7500000012E-03   0.5754922101E-19  -0.4235871450E-16   0.5760302664E-16   0.1250000002E+01
   0.1002500000E+01   0.0000000000E+00  -0.2622984187E-16   0.2250000000E-02   0.0000000000E+00   0.6094450621E-18   0.2500000000E-03   0.0000000000E+00  -0.2683928693E-16   0.1250000002E+01   0.4643184131E-14   0.4118087963E-14  -0.9712699276E-15   0.7376665761E-16   0.1303297335E-15   0.2500000004E-02  -0.7500000012E-03  -0.7500000012E-03   0.1114713724E-16   0.1050650058E-16   0.2668727546E-16   0.1250000002E+01
   0.1002500000E+01   0.9992500000E+00  -0.1283972176E-16   0.2250000000E-02  -0.6750000000E-03   0.4511829312E-18   0.2500000000E-03  -0.7500000000E-04  -0.1329090469E-16   0.1250000002E+01  -0.6218348543E-14  -0.7891582378E-14  -0.1665404835E-14   0.5604428305E-16  -0.7777218491E-16   0.2500000004E-02  -0.7500000011E-03  -0.7500000011E-03  -0.3901078985E-16  -0.1121968538E-16  -0.4675641682E-16   0.1250000002E+01
   0.0000000000E+00   0.9992500000E+00   0.2866328435E-16   0.0000000000E+00  -0.6750000000E-03  -0.1535890151E-19   0.0000000000E+00  -0.7500000000E-04   0.2867864325E-16   0.1250000002E+01   0.5995805784E-14   0.8030991863E-14   0.4645970824E-15   0.4535849427E-16  -0.3722910500E-15   0.2500000004E-02  -0.7500000011E-03  -0.7500000011E-03   0.7827603576E-16  -0.6676236597E-16  -0.6704210086E-17   0.1250000002E+01
   0.0000000000E+00   0.0000000000E+00   0.9992500000E+00   0.0000000000E+00   0.0000000000E+00  -0.6750000000E-03   0.0000000000E+00   0.0000000000E+00  -0.7500000000E-04   0.1250000002E+01   0.7922603670E-14   0.8254104469E-14   0.1637255140E-15   0.2350942179E-15   0.4169034233E-15   0.2500000004E-02  -0.7500000011E-03  -0.7500000011E-03   0.2472050302E-18  -0.1627952055E-15  -0.3779900348E-16   0.1250000002E+01
   0.1002500000E+01   0.0000000000E+00   0.9992500000E+00   0.2250000000E-02   0.0000000000E+00  -0.6750000000E-03   0.2500000000E-03   0.0000000000E+00  -0.7500000000E-04   0.1250000002E+01  -0.5832492709E-14  -0.4666491751E-14  -0.3218455968E-15  -0.2830118413E-15   0.3001028693E-15   0.2500000004E-02  -0.7500000011E-03  -0.7500000011E-03   0.3252224049E-16  -0.3429447049E-16   0.6479094233E-16   0.1250000002E+01
   0.1002500000E+01   0.9992500000E+00   0.9992500000E+00   0.2250000000E-02  -0.6750000000E-03  -0.6750000000E-03   0.2500000000E-03  -0.7500000000E-04  -0.7500000000E-04   0.1250000002E+01   0.8491049322E-14   0.7737200924E-14   0.7157770096E-15   0.3231793755E-15  -0.5413947132E-15   0.2500000003E-02  -0.7500000010E-03  -0.7500000010E-03   0.6640892116E-16  -0.1890830742E-17  -0.9452980719E-17   0.1250000002E+01
   0.0000000000E+00   0.9992500000E+00   0.9992500000E+00   0.0000000000E+00  -0.6750000000E-03  -0.6750000000E-03   0.0000000000E+00  -0.7500000000E-04  -0.7500000000E-04   0.1250000002E+01  -0.8187935814E-14  -0.8100087618E-14  -0.8074029966E-16   0.2100099758E-15  -0.9832960734E-16   0.2500000003E-02  -0.7500000010E-03  -0.7500000010E-03   0.2147857801E-16  -0.1554140430E-16  -0.1000238943E-15   0.1250000002E+01
   0.2005000000E+01   0.0000000000E+00  -0.7242655891E-16   0.4500000000E-02   0.0000000000E+00   0.2972353492E-17   0.5000000000E-03   0.0000000000E+00  -0.7539891240E-16   0.1250000002E+01  -0.7324283059E-14  -0.7186003391E-14   0.1243997776E-14  -0.7495325287E-15  -0.1237144005E-14   0.2500000004E-02  -0.7500000011E-03  -0.7500000011E-03  -0.6347830986E-16  -0.1130411075E-15  -0.2739246836E-16   0.1250000002E+01
   0.2005000000E+01   0.9992500000E+00  -0.8605409797E-16   0.4500000000E-02  -0.6750000000E-03   0.2244470120E-17   0.5000000000E-03  -0.7500000000E-04  -0.8829856809E-16   0.1250000002E+01   0.1166438305E-13   0.1340342078E-13   0.2816068731E-16   0.1301476317E-14   0.1095810858E-14   0.2500000003E-02  -0.7500000011E-03  -0.7500000011E-03  -0.2429008163E-15  -0.6348602192E-16   0.7900676601E-16   0.1250000002E+01
   0.2005000000E+01   0.0000000000E+00   0.9992500000E+00   0.4500000000E-02   0.0000000000E+00  -0.6750000000E-03   0.5000000000E-03   0.0000000000E+00  -0.7500000000E-04   0.1250000002E+01   0.8677429116E-14   0.7307015681E-14   0.5779509180E-15   0.9413221150E-15  -0.6763526507E-15   0.2500000003E-02  -0.7500000011E-03  -0.7500000011E-03   0.4514693740E-16  -0.8374723468E-16  -0.2032236682E-16   0.1250000002E+01
   0.2005000000E+01   0.9992500000E+00   0.9992500000E+00   0.4500000000E-02  -0.6750000000E-03  -0.6750000000E-03   0.5000000000E-03  -0.7500000000E-04  -0.7500000000E-04   0.1250000002E+01  -0.1425457336E-13  -0.1318120694E-13   0.1529439405E-14  -0.1709456956E-14   0.1009300416E-14   0.2500000003E-02  -0.7500000010E-03  -0.7500000010E-03   0.9226199534E-16  -0.1060756785E-15   0.8492921545E-16   0.1250000002E+01
     1     2     3     4     5     6     7     8
     2     9    10     3     6    11    12     7
 VARIABLES = X,Y,Z,DU1,DU2,DU3,U1,U2,U3,S11,S22,S33,S12,S13,S23,E11,E22,E33,E12,E13,E23,SMISES
 ZONE, T="0.8550D+01" F=FEPOINT, I=   12 J=    2 ET=BRICK
   0.0000000000E+00   0.0000000000E+00   0.0000000000E+00   0.0000000000E+00   0.0000000000E+00   0.0000000000E+00   0.0000000000E+00   0.0000000000E+00   0.0000000000E+00   0.2375000004E+01  -0.7115956872E-14  -0.7810113083E-14   0.2202882063E-15  -0.4374273478E-15   0.4341713483E-15   0.4750000007E-02  -0.1425000002E-02  -0.1425000002E-02   0.2832702321E-18  -0.4477587999E-16   0.5815559426E-16   0.2375000004E+01
   0.1004750000E+01   0.0000000000E+00  -0.2758302659E-16   0.2250000000E-02   0.0000000000E+00  -0.1353184714E-17   0.2500000000E-02   0.0000000000E+00  -0.2622984187E-16   0.2375000004E+01   0.4581232297E-14   0.4198632527E-14  -0.1388718650E-14   0.1657398234E-15   0.2428670656E-15   0.4750000007E-02  -0.1425000002E-02  -0.1425000002E-02   0.7483427648E-17   0.9767618532E-17   0.2773301783E-16   0.2375000004E+01
   0.1004750000E+01   0.9985750000E+00  -0.1364391039E-16   0.2250000000E-02  -0.6750000000E-03  -0.8041886360E-18   0.2500000000E-02  -0.7500000000E-03  -0.1283972176E-16   0.2375000003E+01  -0.5886278053E-14  -0.7924782266E-14  -0.2032219589E-14   0.1347876928E-15  -0.1083448776E-15   0.4750000007E-02  -0.1425000002E-02  -0.1425000002E-02  -0.4253244383E-16  -0.7405917621E-17  -0.4739358422E-16   0.2375000003E+01
   0.0000000000E+00   0.9985750000E+00   0.2891143629E-16   0.0000000000E+00  -0.6750000000E-03   0.2481519436E-18   0.0000000000E+00  -0.7500000000E-03   0.2866328435E-16   0.2375000003E+01   0.5068752036E-14   0.7162304911E-14   0.5266473194E-15  -0.1508668805E-16  -0.4950636739E-15   0.4750000007E-02  -0.1425000002E-02  -0.1425000002E-02   0.7867566321E-16  -0.6723814412E-16  -0.9138638705E-17   0.2375000003E+01
   0.0000000000E+00   0.0000000000E+00   0.9985750000E+00   0.0000000000E+00   0.0000000000E+00  -0.6750000000E-03   0.0000000000E+00   0.0000000000E+00  -0.7500000000E-03   0.2375000003E+01   0.7707862702E-14   0.8223724498E-14   0.1564112207E-15   0.2247206896E-15   0.5543507102E-15   0.4750000007E-02  -0.1425000002E-02  -0.1425000002E-02  -0.5981859494E-18  -0.1622171087E-15  -0.3615401894E-16   0.2375000003E+01
   0.1004750000E+01   0.0000000000E+00   0.9985750000E+00   0.2250000000E-02   0.0000000000E+00  -0.6750000000E-03   0.2500000000E-02   0.0000000000E+00  -0.7500000000E-03   0.2375000003E+01  -0.5421870417E-14  -0.4052417574E-14  -0.4034147157E-15  -0.3746302175E-15   0.3104087914E-15   0.4750000007E-02  -0.1425000002E-02  -0.1425000002E-02   0.3330186554E-16  -0.3454943717E-16   0.6505302282E-16   0.2375000003E+01
   0.1004750000E+01   0.9985750000E+00   0.9985750000E+00   0.2250000000E-02  -0.6750000000E-03  -0.6750000000E-03   0.2500000000E-02  -0.7500000000E-03  -0.7500000000E-03   0.2375000003E+01   0.8568604767E-14   0.7904463790E-14   0.7257293369E-15   0.4190251758E-15  -0.7075935925E-15   0.4750000006E-02  -0.1425000002E-02  -0.1425000002E-02   0.6699383644E-16  -0.1662247457E-17  -0.1056759452E-16   0.2375000003E+01
   0.0000000000E+00   0.9985750000E+00   0.9985750000E+00   0.0000000000E+00  -0.6750000000E-03  -0.6750000000E-03   0.0000000000E+00  -0.7500000000E-03  -0.7500000000E-03   0.2375000003E+01  -0.8138731923E-14  -0.7692916920E-14   0.3029640961E-16   0.8726312120E-16  -0.1654435994E-15   0.4750000006E-02  -0.1425000002E-02  -0.1425000002E-02   0.2261855498E-16  -0.1752526251E-16  -0.1007498271E-15   0.2375000003E+01
   0.2009500000E+01   0.0000000000E+00  -0.7648623971E-16   0.4500000000E-02   0.0000000000E+00  -0.4059680804E-17   0.5000000000E-02   0.0000000000E+00  -0.7242655891E-16   0.2375000004E+01  -0.8244896070E-14  -0.8109836751E-14   0.1588246040E-14  -0.5858690084E-15  -0.1204291198E-14   0.4750000007E-02  -0.1425000002E-02  -0.1425000002E-02  -0.6106728049E-16  -0.1194021996E-15  -0.2688315251E-16   0.2375000004E+01
   0.2009500000E+01   0.9985750000E+00  -0.8993242642E-16   0.4500000000E-02  -0.6750000000E-03  -0.3878328452E-17   0.5000000000E-02  -0.7500000000E-03  -0.8605409797E-16   0.2375000003E+01   0.1254734826E-13   0.1415418230E-13   0.3054597338E-15   0.1031403449E-14   0.1096956663E-14   0.4750000007E-02  -0.1425000002E-02  -0.1425000002E-02  -0.2415563385E-15  -0.6841443652E-16   0.7822757154E-16   0.2375000003E+01
   0.2009500000E+01   0.0000000000E+00   0.9985750000E+00   0.4500000000E-02   0.0000000000E+00  -0.6750000000E-03   0.5000000000E-02   0.0000000000E+00  -0.7500000000E-03   0.2375000003E+01   0.9171718577E-14   0.7847884640E-14   0.6839394885E-15   0.1115091861E-14  -0.7441915525E-15   0.4750000007E-02  -0.1425000002E-02  -0.1425000002E-02   0.4590015920E-16  -0.7496661373E-16  -0.2104357249E-16   0.2375000003E+01
   0.2009500000E+01   0.9985750000E+00   0.9985750000E+00   0.4500000000E-02  -0.6750000000E-03  -0.6750000000E-03   0.5000000000E-02  -0.7500000000E-03  -0.7500000000E-03   0.2375000003E+01  -0.1423538469E-13  -0.1313884413E-13   0.1424857214E-14  -0.1658236242E-14   0.9119322946E-15   0.4750000006E-02  -0.1425000002E-02  -0.1425000002E-02   0.9113617161E-16  -0.1119617510E-15   0.8390174525E-16   0.2375000003E+01
     1     2     3     4     5     6     7     8
     2     9    10     3     6    11    12     7
 VARIABLES = X,Y,Z,DU1,DU2,DU3,U1,U2,U3,S11,S22,S33,S12,S13,S23,E11,E22,E33,E12,E13,E23,SMISES
 ZONE, T="0.8600D+01" F=FEPOINT, I=   12 J=    2 ET=BRICK
   0.0000000000E+00   0.0000000000E+00   0.0000000000E+00   0.0000000000E+00   0.0000000000E+00   0.0000000000E+00   0.0000000000E+00   0.0000000000E+00   0.0000000000E+00   0.3500000005E+01  -0.7195505020E-14  -0.7981361419E-14   0.2306979438E-15  -0.3280695377E-15   0.4628918433E-15   0.7000000011E-02  -0.2100000003E-02  -0.2100000003E-02   0.1012218206E-17  -0.4322344988E-16   0.5825081425E-16   0.3500000005E+01
   0.1007000000E+01   0.0000000000E+00  -0.2655408508E-16   0.2250000000E-02   0.0000000000E+00   0.1028941505E-17   0.4750000000E-02   0.0000000000E+00  -0.2758302659E-16   0.3500000005E+01   0.4573795215E-14   0.4390928769E-14  -0.8932887638E-15   0.4059916838E-15   0.1402951428E-15   0.7000000011E-02  -0.2100000003E-02  -0.2100000003E-02   0.1208666480E-16   0.1338369573E-16   0.2736490682E-16   0.3500000005E+01
   0.1007000000E+01   0.9979000000E+00  -0.1308996914E-16   0.2250000000E-02  -0.6750000000E-03   0.5539412547E-18   0.4750000000E-02  -0.1425000000E-02  -0.1364391039E-16   0.3500000005E+01  -0.6191589342E-14  -0.8065552882E-14  -0.1507359143E-14  -0.2365832496E-15  -0.7849299529E-16   0.7000000010E-02  -0.2100000003E-02  -0.2100000003E-02  -0.3721261051E-16  -0.1408076735E-16  -0.4722200040E-16   0.3500000005E+01
   0.0000000000E+00   0.9979000000E+00   0.2889269436E-16   0.0000000000E+00  -0.6750000000E-03  -0.1874193235E-19   0.0000000000E+00  -0.1425000000E-02   0.2891143629E-16   0.3500000005E+01   0.5987141114E-14   0.7801412465E-14   0.3584735995E-15  -0.9903450070E-17  -0.4600659836E-15   0.7000000010E-02  -0.2100000003E-02  -0.2100000003E-02   0.7700264253E-16  -0.6694613535E-16  -0.7527330379E-17   0.3500000005E+01
   0.0000000000E+00   0.0000000000E+00   0.9979000000E+00   0.0000000000E+00   0.0000000000E+00  -0.6750000000E-03   0.0000000000E+00   0.0000000000E+00  -0.1425000000E-02   0.3500000005E+01   0.7852351869E-14   0.8207391504E-14   0.1311955156E-15   0.2493102163E-15   0.3602922547E-15   0.7000000010E-02  -0.2100000003E-02  -0.2100000003E-02  -0.1138527990E-17  -0.1646611476E-15  -0.3754098493E-16   0.3500000005E+01
   0.1007000000E+01   0.0000000000E+00   0.9979000000E+00   0.2250000000E-02   0.0000000000E+00  -0.6750000000E-03   0.4750000000E-02   0.0000000000E+00  -0.1425000000E-02   0.3500000005E+01  -0.5455070324E-14  -0.4279906491E-14  -0.3783434872E-15  -0.2138786975E-15   0.3474427108E-15   0.7000000010E-02  -0.2100000003E-02  -0.2100000003E-02   0.3516366797E-16  -0.3120266271E-16   0.6459605096E-16   0.3500000005E+01
   0.1007000000E+01   0.9979000000E+00   0.9979000000E+00   0.2250000000E-02  -0.6750000000E-03  -0.6750000000E-03   0.4750000000E-02  -0.1425000000E-02  -0.1425000000E-02   0.3500000005E+01   0.8570597511E-14   0.7843508301E-14   0.6645156311E-15  -0.6503017150E-16  -0.5889008996E-15   0.7000000009E-02  -0.2100000003E-02  -0.2100000003E-02   0.6750074173E-16  -0.9223870976E-17  -0.6765127914E-17   0.3500000005E+01
   0.0000000000E+00   0.9979000000E+00   0.9979000000E+00   0.0000000000E+00  -0.6750000000E-03  -0.6750000000E-03   0.0000000000E+00  -0.1425000000E-02  -0.1425000000E-02   0.3500000005E+01  -0.8162039513E-14  -0.8253472681E-14  -0.5295011481E-16   0.4232068219E-15  -0.1996398553E-15   0.7000000009E-02  -0.2100000003E-02  -0.2100000003E-02   0.2224095077E-16  -0.1066307416E-16  -0.1024147489E-15   0.3500000005E+01
   0.2014000000E+01   0.0000000000E+00  -0.7368443343E-16   0.4500000000E-02   0.0000000000E+00   0.2801806281E-17   0.9500000000E-02   0.0000000000E+00  -0.7648623971E-16   0.3500000005E+01  -0.7392177417E-14  -0.7483610629E-14   0.1202147747E-14  -0.1215576534E-14  -0.1139418935E-14   0.7000000011E-02  -0.2100000003E-02  -0.2100000003E-02  -0.6432779536E-16  -0.1302665926E-15  -0.2720054753E-16   0.3500000005E+01
   0.2014000000E+01   0.9979000000E+00  -0.8686260766E-16   0.4500000000E-02  -0.6750000000E-03   0.3069818759E-17   0.9500000000E-02  -0.1425000000E-02  -0.8993242642E-16   0.3500000005E+01   0.1213944813E-13   0.1363698568E-13   0.7196254762E-16   0.1522091732E-14   0.1011335662E-14   0.7000000010E-02  -0.2100000003E-02  -0.2100000003E-02  -0.2439118901E-15  -0.5305182446E-16   0.7828578031E-16   0.3500000005E+01
   0.2014000000E+01   0.0000000000E+00   0.9979000000E+00   0.4500000000E-02   0.0000000000E+00  -0.6750000000E-03   0.9500000000E-02   0.0000000000E+00  -0.1425000000E-02   0.3500000005E+01   0.8416606833E-14   0.6813491384E-14   0.6625068048E-15   0.8190808296E-15  -0.6645647083E-15   0.7000000010E-02  -0.2100000003E-02  -0.2100000003E-02   0.4622946708E-16  -0.9634739606E-16  -0.1908165979E-16   0.3500000005E+01
   0.2014000000E+01   0.9979000000E+00   0.9979000000E+00   0.4500000000E-02  -0.6750000000E-03  -0.6750000000E-03   0.9500000000E-02  -0.1425000000E-02  -0.1425000000E-02   0.3500000004E+01  -0.1441924751E-13  -0.1296288090E-13   0.1281858466E-14  -0.1386899346E-14   0.9923083543E-15   0.7000000009E-02  -0.2100000003E-02  -0.2100000003E-02   0.9443016177E-16  -0.9944571773E-16   0.8402938369E-16   0.3500000004E+01
     1     2     3     4     5     6     7     8
     2     9    10     3     6    11    12     7
 VARIABLES = X,Y,Z,DU1,DU2,DU3,U1,U2,U3,S11,S22,S33,S12,S13,S23,E11,E22,E33,E12,E13,E23,SMISES
 ZONE, T="0.8650D+01" F=FEPOINT, I=   12 J=    2 ET=BRICK
   0.0000000000E+00   0.0000000000E+00   0.0000000000E+00   0.0000000000E+00   0.0000000000E+00   0.0000000000E+00   0.0000000000E+00   0.0000000000E+00   0.0000000000E+00   0.4625000007E+01  -0.7972661029E-14  -0.8719339253E-14   0.2465328306E-15  -0.4996211877E-15   0.4902704656E-15   0.9250000015E-02  -0.2775000004E-02  -0.2775000004E-02   0.1257656083E-17  -0.4281857098E-16   0.5898216879E-16   0.4625000007E+01
   0.1009250000E+01   0.0000000000E+00  -0.2900900699E-16   0.2250000000E-02   0.0000000000E+00  -0.2454921911E-17   0.7000000000E-02   0.0000000000E+00  -0.2655408508E-16   0.4625000007E+01   0.4340861994E-14   0.3854677016E-14  -0.5850612804E-15   0.7852573852E-15   0.1806140845E-15   0.9250000014E-02  -0.2775000004E-02  -0.2775000004E-02   0.1444133680E-16   0.1034154966E-16   0.2762553696E-16   0.4625000007E+01
   0.1009250000E+01   0.9972250000E+00  -0.1524855514E-16   0.2250000000E-02  -0.6750000000E-03  -0.2158585999E-17   0.7000000000E-02  -0.2100000000E-02  -0.1308996914E-16   0.4625000007E+01  -0.6091455748E-14  -0.8006056264E-14  -0.1214226678E-14  -0.4515963731E-15  -0.3584686807E-15   0.9250000013E-02  -0.2775000004E-02  -0.2775000004E-02  -0.3420470612E-16  -0.9460428430E-17  -0.4932022857E-16   0.4625000007E+01
   0.0000000000E+00   0.9972250000E+00   0.2913133610E-16   0.0000000000E+00  -0.6750000000E-03   0.2386417388E-18   0.0000000000E+00  -0.2100000000E-02   0.2889269436E-16   0.4625000007E+01   0.6087274759E-14   0.7764761018E-14   0.3705509944E-15  -0.2982406571E-15  -0.6320673049E-15   0.9250000013E-02  -0.2775000004E-02  -0.2775000004E-02   0.7774072614E-16  -0.7437246129E-16  -0.1145432206E-16   0.4625000007E+01
   0.0000000000E+00   0.0000000000E+00   0.9972250000E+00   0.0000000000E+00   0.0000000000E+00  -0.6750000000E-03   0.0000000000E+00   0.0000000000E+00  -0.2100000000E-02   0.4625000007E+01   0.8862441135E-14   0.9465288187E-14   0.1402079639E-15  -0.1300425740E-15   0.4646121767E-15   0.9250000013E-02  -0.2775000004E-02  -0.2775000004E-02  -0.7744368100E-18  -0.1668367091E-15  -0.3752073450E-16   0.4625000007E+01
   0.1009250000E+01   0.0000000000E+00   0.9972250000E+00   0.2250000000E-02   0.0000000000E+00  -0.6750000000E-03   0.7000000000E-02   0.0000000000E+00  -0.2100000000E-02   0.4625000007E+01  -0.5111114825E-14  -0.3591995459E-14  -0.8999158299E-15   0.3702752119E-15   0.4604240610E-15   0.9250000013E-02  -0.2775000004E-02  -0.2775000004E-02   0.2895266814E-16  -0.2617308232E-16   0.6684760179E-16   0.4625000007E+01
   0.1009250000E+01   0.9972250000E+00   0.9972250000E+00   0.2250000000E-02  -0.6750000000E-03  -0.6750000000E-03   0.7000000000E-02  -0.2100000000E-02  -0.2100000000E-02   0.4625000006E+01   0.7671530573E-14   0.7551078453E-14   0.2760055073E-15  -0.2499827977E-15  -0.8677353779E-15   0.9250000012E-02  -0.2775000004E-02  -0.2775000004E-02   0.6106672575E-16  -0.1231503786E-16  -0.8295684255E-17   0.4625000006E+01
   0.0000000000E+00   0.9972250000E+00   0.9972250000E+00   0.0000000000E+00  -0.6750000000E-03  -0.6750000000E-03   0.0000000000E+00  -0.2100000000E-02  -0.2100000000E-02   0.4625000006E+01  -0.7696173050E-14  -0.7504606138E-14  -0.2420641849E-15   0.4033872819E-16  -0.3773914814E-15   0.9250000012E-02  -0.2775000004E-02  -0.2775000004E-02   0.2093615478E-16  -0.1514094437E-16  -0.1022102742E-15   0.4625000006E+01
   0.2018500000E+01   0.0000000000E+00  -0.8315235248E-16   0.4500000000E-02   0.0000000000E+00  -0.9467919046E-17   0.1400000000E-01   0.0000000000E+00  -0.7368443343E-16   0.4625000007E+01  -0.7259377842E-14  -0.7715085087E-14   0.1517006825E-14  -0.3593946100E-15  -0.8475936051E-15   0.9250000014E-02  -0.2775000004E-02  -0.2775000004E-02  -0.6271013689E-16  -0.1157613838E-15  -0.2327125711E-16   0.4625000007E+01
   0.2018500000E+01   0.9972250000E+00  -0.9483458797E-16   0.4500000000E-02  -0.6750000000E-03  -0.7971980303E-17   0.1400000000E-01  -0.2100000000E-02  -0.8686260766E-16   0.4625000006E+01   0.1157344804E-13   0.1274190422E-13   0.3380774486E-15   0.1185488692E-14   0.1287084922E-14   0.9250000013E-02  -0.2775000004E-02  -0.2775000004E-02  -0.2408810139E-15  -0.5383471587E-16   0.8189095867E-16   0.4625000006E+01
   0.2018500000E+01   0.0000000000E+00   0.9972250000E+00   0.4500000000E-02   0.0000000000E+00  -0.6750000000E-03   0.1400000000E-01   0.0000000000E+00  -0.2100000000E-02   0.4625000006E+01   0.8760562367E-14   0.7212958058E-14  -0.1223947537E-15   0.1487089974E-14  -0.5099617419E-15   0.9250000013E-02  -0.2775000004E-02  -0.2775000004E-02   0.4380037571E-16  -0.7611092666E-16  -0.1928998019E-16   0.4625000006E+01
   0.2018500000E+01   0.9972250000E+00   0.9972250000E+00   0.4500000000E-02  -0.6750000000E-03  -0.6750000000E-03   0.1400000000E-01  -0.2100000000E-02  -0.2100000000E-02   0.4625000006E+01  -0.1419720298E-13  -0.1286128850E-13   0.8779814471E-15  -0.1799071195E-14   0.1192350388E-14   0.9250000012E-02  -0.2775000004E-02  -0.2775000004E-02   0.8935159169E-16  -0.1109945724E-15   0.8552597843E-16   0.4625000006E+01
     1     2     3     4     5     6     7     8
     2     9    10     3     6    11    12     7
 VARIABLES = X,Y,Z,DU1,DU2,DU3,U1,U2,U3,S11,S22,S33,S12,S13,S23,E11,E22,E33,E12,E13,E23,SMISES
 ZONE, T="0.8700D+01" F=FEPOINT, I=   12 J=    2 ET=BRICK
   0.0000000000E+00   0.0000000000E+00   0.0000000000E+00   0.0000000000E+00   0.0000000000E+00   0.0000000000E+00   0.0000000000E+00   0.0000000000E+00   0.0000000000E+00   0.5750000009E+01  -0.6743249431E-14  -0.7087009417E-14   0.2342019084E-15  -0.8285144627E-16   0.4202422818E-15   0.1150000002E-01  -0.3450000005E-02  -0.3450000005E-02  -0.2166480508E-18  -0.3823568991E-16   0.5593860002E-16   0.5750000009E+01
   0.1011500000E+01   0.0000000000E+00  -0.2573418908E-16   0.2250000000E-02   0.0000000000E+00   0.3274817916E-17   0.9250000000E-02   0.0000000000E+00  -0.2900900699E-16   0.5750000009E+01   0.4335417674E-14   0.4248699367E-14  -0.1541899991E-14  -0.3053143725E-15   0.4757947624E-16   0.1150000002E-01  -0.3450000005E-02  -0.3450000005E-02   0.6854334095E-17   0.2037492444E-17   0.2648217092E-16   0.5750000009E+01
   0.1011500000E+01   0.9965500000E+00  -0.1260566269E-16   0.2250000000E-02  -0.6750000000E-03   0.2642892444E-17   0.9250000000E-02  -0.2775000000E-02  -0.1524855514E-16   0.5750000008E+01  -0.6352678472E-14  -0.7797427014E-14  -0.2196749618E-14   0.2066187242E-15  -0.4328119648E-16   0.1150000002E-01  -0.3450000005E-02  -0.3450000005E-02  -0.4467636143E-16  -0.6112886922E-17  -0.4736768962E-16   0.5750000008E+01
   0.0000000000E+00   0.9965500000E+00   0.2874916697E-16   0.0000000000E+00  -0.6750000000E-03  -0.3821691301E-18   0.0000000000E+00  -0.2775000000E-02   0.2913133610E-16   0.5750000008E+01   0.5279641024E-14   0.7324852873E-14   0.3925502420E-15   0.8305568203E-16  -0.4116097899E-15   0.1150000002E-01  -0.3450000005E-02  -0.3450000005E-02   0.7724081650E-16  -0.6834395602E-16  -0.4548925536E-17   0.5750000008E+01
   0.0000000000E+00   0.0000000000E+00   0.9965500000E+00   0.0000000000E+00   0.0000000000E+00  -0.6750000000E-03   0.0000000000E+00   0.0000000000E+00  -0.2775000000E-02   0.5750000008E+01   0.7100229299E-14   0.7346239402E-14   0.1048516740E-15   0.2053532799E-15   0.4900881761E-15   0.1150000002E-01  -0.3450000005E-02  -0.3450000005E-02  -0.1399714689E-18  -0.1633192360E-15  -0.3472433447E-16   0.5750000008E+01
   0.1011500000E+01   0.0000000000E+00   0.9965500000E+00   0.2250000000E-02   0.0000000000E+00  -0.6750000000E-03   0.9250000000E-02   0.0000000000E+00  -0.2775000000E-02   0.5750000008E+01  -0.5283092596E-14  -0.4396373133E-14  -0.6749275427E-16  -0.3710824364E-15   0.3617839207E-15   0.1150000002E-01  -0.3450000005E-02  -0.3450000005E-02   0.3651915211E-16  -0.4105637120E-16   0.6720760691E-16   0.5750000008E+01
   0.1011500000E+01   0.9965500000E+00   0.9965500000E+00   0.2250000000E-02  -0.6750000000E-03  -0.6750000000E-03   0.9250000000E-02  -0.2775000000E-02  -0.2775000000E-02   0.5750000008E+01   0.8454130922E-14   0.7438597343E-14   0.9718613316E-15   0.3333134332E-15  -0.5399892427E-15   0.1150000002E-01  -0.3450000005E-02  -0.3450000005E-02   0.7031758205E-16   0.7918700977E-18  -0.5192623141E-17   0.5750000008E+01
   0.0000000000E+00   0.9965500000E+00   0.9965500000E+00   0.0000000000E+00  -0.6750000000E-03  -0.6750000000E-03   0.0000000000E+00  -0.2775000000E-02  -0.2775000000E-02   0.5750000008E+01  -0.7315761584E-14  -0.7349690848E-14   0.9019100595E-16   0.2973219600E-15  -0.7026795566E-16   0.1150000002E-01  -0.3450000005E-02  -0.3450000005E-02   0.2408786291E-16  -0.1413933702E-16  -0.9914335800E-16   0.5750000008E+01
   0.2023000000E+01   0.0000000000E+00  -0.7153181586E-16   0.4500000000E-02   0.0000000000E+00   0.1162053662E-16   0.1850000000E-01   0.0000000000E+00  -0.8315235248E-16   0.5750000009E+01  -0.7500477549E-14  -0.7457118387E-14   0.1362242029E-14  -0.1035799890E-14  -0.1191324372E-14   0.1150000002E-01  -0.3450000005E-02  -0.3450000005E-02  -0.7037602672E-16  -0.1243725840E-15  -0.2648141619E-16   0.5750000009E+01
   0.2023000000E+01   0.9965500000E+00  -0.8498172958E-16   0.4500000000E-02  -0.6750000000E-03   0.9852858390E-17   0.1850000000E-01  -0.2775000000E-02  -0.9483458797E-16   0.5750000008E+01   0.1261401504E-13   0.1445750088E-13   0.1931426450E-15   0.1253529164E-14   0.1258069068E-14   0.1150000002E-01  -0.3450000005E-02  -0.3450000005E-02  -0.2497781154E-15  -0.6897884475E-16   0.8141433713E-16   0.5750000008E+01
   0.2023000000E+01   0.0000000000E+00   0.9965500000E+00   0.4500000000E-02   0.0000000000E+00  -0.6750000000E-03   0.1850000000E-01   0.0000000000E+00  -0.2775000000E-02   0.5750000008E+01   0.8269662509E-14   0.7249414077E-14   0.8781781625E-15   0.9370571694E-15  -0.1072656913E-14   0.1150000002E-01  -0.3450000005E-02  -0.3450000005E-02   0.4553194764E-16  -0.5974698779E-16  -0.2199329748E-16   0.5750000008E+01
   0.2023000000E+01   0.9965500000E+00   0.9965500000E+00   0.4500000000E-02  -0.6750000000E-03  -0.6750000000E-03   0.1850000000E-01  -0.2775000000E-02  -0.2775000000E-02   0.5750000007E+01  -0.1401161436E-13  -0.1280504789E-13   0.1519519876E-14  -0.1759879029E-14   0.8756738154E-15   0.1150000001E-01  -0.3450000004E-02  -0.3450000004E-02   0.8829242596E-16  -0.1084323576E-15   0.8093770046E-16   0.5750000007E+01
     1     2     3     4     5     6     7     8
     2     9    10     3     6    11    12     7
 VARIABLES = X,Y,Z,DU1,DU2,DU3,U1,U2,U3,S11,S22,S33,S12,S13,S23,E11,E22,E33,E12,E13,E23,SMISES
 ZONE, T="0.8750D+01" F=FEPOINT, I=   12 J=    2 ET=BRICK
   0.0000000000E+00   0.0000000000E+00   0.0000000000E+00   0.0000000000E+00   0.0000000000E+00   0.0000000000E+00   0.0000000000E+00   0.0000000000E+00   0.0000000000E+00   0.6875000011E+01  -0.8073524083E-14  -0.7510050626E-14   0.2223299082E-15   0.8538783835E-16   0.3827683885E-15   0.1375000002E-01  -0.4125000006E-02  -0.4125000006E-02  -0.7528822090E-19  -0.3804245968E-16   0.5825064823E-16   0.6875000011E+01
   0.1013750000E+01   0.0000000000E+00  -0.2486184626E-16   0.2250000000E-02   0.0000000000E+00   0.8723428162E-18   0.1150000000E-01   0.0000000000E+00  -0.2573418908E-16   0.6875000011E+01   0.5189862079E-14   0.4653610326E-14  -0.1431293301E-14  -0.1513358567E-15   0.4793456536E-16   0.1375000002E-01  -0.4125000006E-02  -0.4125000006E-02   0.8471855558E-17   0.5074991602E-17   0.2667149936E-16   0.6875000011E+01
   0.1013750000E+01   0.9958750000E+00  -0.1168310425E-16   0.2250000000E-02  -0.6750000000E-03   0.9225584488E-18   0.1150000000E-01  -0.3450000000E-02  -0.1260566269E-16   0.6875000010E+01  -0.6197033653E-14  -0.7873256627E-14  -0.2082263234E-14  -0.4594568006E-16  -0.1413318882E-15   0.1375000002E-01  -0.4125000006E-02  -0.4125000006E-02  -0.4253704065E-16  -0.2926883690E-17  -0.4573207495E-16   0.6875000010E+01
   0.0000000000E+00   0.9958750000E+00   0.2862156863E-16   0.0000000000E+00  -0.6750000000E-03  -0.1275983366E-18   0.0000000000E+00  -0.3450000000E-02   0.2874916697E-16   0.6875000010E+01   0.5297966684E-14   0.8186004966E-14   0.5818030300E-15   0.2445840449E-15  -0.2608579597E-15   0.1375000002E-01  -0.4125000006E-02  -0.4125000006E-02   0.7819806850E-16  -0.6676528455E-16  -0.6916106304E-17   0.6875000010E+01
   0.0000000000E+00   0.0000000000E+00   0.9958750000E+00   0.0000000000E+00   0.0000000000E+00  -0.6750000000E-03   0.0000000000E+00   0.0000000000E+00  -0.3450000000E-02   0.6875000010E+01   0.8249096319E-14   0.7717221033E-14   0.1279251113E-15   0.4017476479E-15   0.4202567674E-15   0.1375000002E-01  -0.4125000006E-02  -0.4125000006E-02   0.9201195258E-18  -0.1604475634E-15  -0.3972230378E-16   0.6875000010E+01
   0.1013750000E+01   0.0000000000E+00   0.9958750000E+00   0.2250000000E-02   0.0000000000E+00  -0.6750000000E-03   0.1150000000E-01   0.0000000000E+00  -0.3450000000E-02   0.6875000010E+01  -0.6056263050E-14  -0.4401817444E-14  -0.4265566000E-15  -0.4896249498E-15   0.3504411252E-15   0.1375000002E-01  -0.4125000006E-02  -0.4125000006E-02   0.2991084848E-16  -0.3987277835E-16   0.6540043544E-16   0.6875000010E+01
   0.1013750000E+01   0.9958750000E+00   0.9958750000E+00   0.2250000000E-02  -0.6750000000E-03  -0.6750000000E-03   0.1150000000E-01  -0.3450000000E-02  -0.3450000000E-02   0.6875000009E+01   0.8379760055E-14   0.7318145189E-14   0.5086264336E-15   0.1011565759E-15  -0.6881776228E-15   0.1375000002E-01  -0.4125000005E-02  -0.4125000005E-02   0.6630817832E-16  -0.5682534427E-17  -0.3233269650E-17   0.6875000009E+01
   0.0000000000E+00   0.9958750000E+00   0.9958750000E+00   0.0000000000E+00  -0.6750000000E-03  -0.6750000000E-03   0.0000000000E+00  -0.3450000000E-02  -0.3450000000E-02   0.6875000009E+01  -0.8092383630E-14  -0.8663828022E-14  -0.1228675612E-15   0.4605609429E-15  -0.2153104736E-16   0.1375000002E-01  -0.4125000006E-02  -0.4125000006E-02   0.2241562244E-16  -0.1188309241E-16  -0.9891575732E-16   0.6875000009E+01
   0.2027500000E+01   0.0000000000E+00  -0.6967925527E-16   0.4500000000E-02   0.0000000000E+00   0.1852560590E-17   0.2300000000E-01   0.0000000000E+00  -0.7153181586E-16   0.6875000010E+01  -0.8241906917E-14  -0.8236462630E-14   0.1542497038E-14  -0.1161591939E-14  -0.1022987758E-14   0.1375000002E-01  -0.4125000006E-02  -0.4125000006E-02  -0.7490486430E-16  -0.1067075633E-15  -0.2507184256E-16   0.6875000010E+01
   0.2027500000E+01   0.9958750000E+00  -0.8235406380E-16   0.4500000000E-02  -0.6750000000E-03   0.2627665779E-17   0.2300000000E-01  -0.3450000000E-02  -0.8498172958E-16   0.6875000010E+01   0.1258771825E-13   0.1416234880E-13   0.2271421381E-15   0.1666907955E-14   0.1326788118E-14   0.1375000002E-01  -0.4125000006E-02  -0.4125000006E-02  -0.2488290676E-15  -0.8031447444E-16   0.7907809130E-16   0.6875000010E+01
   0.2027500000E+01   0.0000000000E+00   0.9958750000E+00   0.4500000000E-02   0.0000000000E+00  -0.6750000000E-03   0.2300000000E-01   0.0000000000E+00  -0.3450000000E-02   0.6875000010E+01   0.8585862394E-14   0.6919069346E-14   0.7065847576E-15   0.1508694091E-14  -0.8914296254E-15   0.1375000002E-01  -0.4125000006E-02  -0.4125000006E-02   0.5124457411E-16  -0.9386319681E-16  -0.1959219352E-16   0.6875000010E+01
   0.2027500000E+01   0.9958750000E+00   0.9958750000E+00   0.4500000000E-02  -0.6750000000E-03  -0.6750000000E-03   0.2300000000E-01  -0.3450000000E-02  -0.3450000000E-02   0.6875000009E+01  -0.1383365830E-13  -0.1241175496E-13   0.1412642933E-14  -0.1766863238E-14   0.1017796963E-14   0.1375000002E-01  -0.4125000005E-02  -0.4125000005E-02   0.8320701853E-16  -0.9213523463E-16   0.8372986443E-16   0.6875000009E+01
     1     2     3     4     5     6     7     8
     2     9    10     3     6    11    12     7
 VARIABLES = X,Y,Z,DU1,DU2,DU3,U1,U2,U3,S11,S22,S33,S12,S13,S23,E11,E22,E33,E12,E13,E23,SMISES
 ZONE, T="0.8800D+01" F=FEPOINT, I=   12 J=    2 ET=BRICK
   0.0000000000E+00   0.0000000000E+00   0.0000000000E+00   0.0000000000E+00   0.0000000000E+00   0.0000000000E+00   0.0000000000E+00   0.0000000000E+00   0.0000000000E+00   0.8000000013E+01  -0.7383086328E-14  -0.8497294693E-14   0.2070040804E-15  -0.2374083294E-15   0.6161726694E-15   0.1600000003E-01  -0.4800000008E-02  -0.4800000008E-02  -0.1382450144E-19  -0.4534065018E-16   0.5875813536E-16   0.8000000013E+01
   0.1016000000E+01   0.0000000000E+00  -0.2726549858E-16   0.2250000000E-02   0.0000000000E+00  -0.2403652318E-17   0.1375000000E-01   0.0000000000E+00  -0.2486184626E-16   0.8000000012E+01   0.5422795325E-14   0.5371269649E-14  -0.1413908516E-14  -0.7018192349E-16   0.1493813129E-15   0.1600000002E-01  -0.4800000007E-02  -0.4800000007E-02   0.9088924676E-17   0.1155674535E-16   0.2714198689E-16   0.8000000012E+01
   0.1016000000E+01   0.9952000000E+00  -0.1354647287E-16   0.2250000000E-02  -0.6750000000E-03  -0.1863368620E-17   0.1375000000E-01  -0.4125000000E-02  -0.1168310425E-16   0.8000000011E+01  -0.6015626015E-14  -0.7924782235E-14  -0.2142637036E-14   0.2562082409E-15  -0.2353017466E-15   0.1600000002E-01  -0.4800000007E-02  -0.4800000007E-02  -0.4474485738E-16  -0.9194432752E-17  -0.4671048852E-16   0.8000000011E+01
   0.0000000000E+00   0.9952000000E+00   0.2991862551E-16   0.0000000000E+00  -0.6750000000E-03   0.1297056882E-17   0.0000000000E+00  -0.4125000000E-02   0.2862156863E-16   0.8000000012E+01   0.5591855437E-14   0.7161041544E-14   0.1997963315E-15  -0.2447504795E-15  -0.5549724669E-15   0.1600000002E-01  -0.4800000007E-02  -0.4800000007E-02   0.7759437736E-16  -0.6843057119E-16  -0.8984285266E-17   0.8000000012E+01
   0.0000000000E+00   0.0000000000E+00   0.9952000000E+00   0.0000000000E+00   0.0000000000E+00  -0.6750000000E-03   0.0000000000E+00   0.0000000000E+00  -0.4125000000E-02   0.8000000012E+01   0.7825325691E-14   0.7742983836E-14   0.1246791955E-15   0.1634427587E-15   0.7084407327E-15   0.1600000002E-01  -0.4800000007E-02  -0.4800000007E-02  -0.1411336590E-17  -0.1611060490E-15  -0.3130265041E-16   0.8000000012E+01
   0.1016000000E+01   0.0000000000E+00   0.9952000000E+00   0.2250000000E-02   0.0000000000E+00  -0.6750000000E-03   0.1375000000E-01   0.0000000000E+00  -0.4125000000E-02   0.8000000011E+01  -0.6259447920E-14  -0.4734884259E-14  -0.7156739121E-16  -0.3401368063E-15   0.4029689371E-15   0.1600000002E-01  -0.4800000007E-02  -0.4800000007E-02   0.3962873248E-16  -0.4354388242E-16   0.6802413438E-16   0.8000000011E+01
   0.1016000000E+01   0.9952000000E+00   0.9952000000E+00   0.2250000000E-02  -0.6750000000E-03  -0.6750000000E-03   0.1375000000E-01  -0.4125000000E-02  -0.4125000000E-02   0.8000000010E+01   0.8368871395E-14   0.7369670797E-14   0.1022350438E-14   0.4129245411E-15  -0.7883171206E-15   0.1600000002E-01  -0.4800000006E-02  -0.4800000006E-02   0.6865018516E-16   0.4426495686E-17  -0.4276355899E-17   0.8000000010E+01
   0.0000000000E+00   0.9952000000E+00   0.9952000000E+00   0.0000000000E+00  -0.6750000000E-03  -0.6750000000E-03   0.0000000000E+00  -0.4125000000E-02  -0.4125000000E-02   0.8000000011E+01  -0.7036213045E-14  -0.7254272107E-14  -0.1025478727E-15   0.8703614457E-16  -0.3413788564E-15   0.1600000002E-01  -0.4800000006E-02  -0.4800000006E-02   0.2198646653E-16  -0.1780382441E-16  -0.1038088876E-15   0.8000000011E+01
   0.2032000000E+01   0.0000000000E+00  -0.7733269301E-16   0.4500000000E-02   0.0000000000E+00  -0.7653437743E-17   0.2750000000E-01   0.0000000000E+00  -0.6967925527E-16   0.8000000012E+01  -0.7800344377E-14  -0.8684537210E-14   0.1891151704E-14  -0.1020231749E-14  -0.1009192189E-14   0.1600000002E-01  -0.4800000007E-02  -0.4800000007E-02  -0.6218450382E-16  -0.9388075851E-16  -0.2454395749E-16   0.8000000012E+01
   0.2032000000E+01   0.9952000000E+00  -0.9000813953E-16   0.4500000000E-02  -0.6750000000E-03  -0.7654075731E-17   0.2750000000E-01  -0.4125000000E-02  -0.8235406380E-16   0.8000000011E+01   0.1381042222E-13   0.1452117842E-13   0.6917926198E-15   0.9695004355E-15   0.1276065825E-14   0.1600000002E-01  -0.4800000007E-02  -0.4800000007E-02  -0.2442118039E-15  -0.9714138787E-16   0.8117032506E-16   0.8000000011E+01
   0.2032000000E+01   0.0000000000E+00   0.9952000000E+00   0.4500000000E-02   0.0000000000E+00  -0.6750000000E-03   0.2750000000E-01   0.0000000000E+00  -0.4125000000E-02   0.8000000011E+01   0.9757040722E-14   0.8328625190E-14   0.5358350276E-16   0.2051271256E-14  -0.8561619899E-15   0.1600000002E-01  -0.4800000007E-02  -0.4800000007E-02   0.3655504102E-16  -0.8397972447E-16  -0.2286327750E-16   0.8000000011E+01
   0.2032000000E+01   0.9952000000E+00   0.9952000000E+00   0.4500000000E-02  -0.6750000000E-03  -0.6750000000E-03   0.2750000000E-01  -0.4125000000E-02  -0.4125000000E-02   0.8000000010E+01  -0.1557773984E-13  -0.1392436209E-13   0.1029515565E-14  -0.2614741503E-14   0.1046145607E-14   0.1600000002E-01  -0.4800000006E-02  -0.4800000006E-02   0.9620869230E-16  -0.9034488695E-16   0.8459216654E-16   0.8000000010E+01
     1     2     3     4     5     6     7     8
     2     9    10     3     6    11    12     7
 VARIABLES = X,Y,Z,DU1,DU2,DU3,U1,U2,U3,S11,S22,S33,S12,S13,S23,E11,E22,E33,E12,E13,E23,SMISES
 ZONE, T="0.8850D+01" F=FEPOINT, I=   12 J=    2 ET=BRICK
   0.0000000000E+00   0.0000000000E+00   0.0000000000E+00   0.0000000000E+00   0.0000000000E+00   0.0000000000E+00   0.0000000000E+00   0.0000000000E+00   0.0000000000E+00   0.9125000014E+01  -0.8988923928E-14  -0.8747628652E-14   0.1842699753E-15   0.8593355405E-16   0.3975817342E-15   0.1825000003E-01  -0.5475000009E-02  -0.5475000009E-02   0.1273977574E-17  -0.3822434026E-16   0.5679835053E-16   0.9125000014E+01
   0.1018250000E+01   0.0000000000E+00  -0.2475747402E-16   0.2250000000E-02   0.0000000000E+00   0.2508024562E-17   0.1600000000E-01   0.0000000000E+00  -0.2726549858E-16   0.9125000014E+01   0.5866884436E-14   0.5937269729E-14   0.4722010033E-16   0.8738324440E-15  -0.9842329353E-16   0.1825000003E-01  -0.5475000008E-02  -0.5475000008E-02   0.2654439695E-16   0.2464112449E-16   0.2503396421E-16   0.9125000014E+01
   0.1018250000E+01   0.9945250000E+00  -0.1231335597E-16   0.2250000000E-02  -0.6750000000E-03   0.1233116891E-17   0.1600000000E-01  -0.4800000000E-02  -0.1354647287E-16   0.9125000013E+01  -0.6378441224E-14  -0.8076441480E-14  -0.9349084587E-15  -0.5169746331E-15   0.8136389504E-16   0.1825000003E-01  -0.5475000008E-02  -0.5475000008E-02  -0.2882816344E-16  -0.2866137091E-16  -0.4602648053E-16   0.9125000013E+01
   0.0000000000E+00   0.9945250000E+00   0.2882169021E-16   0.0000000000E+00  -0.6750000000E-03  -0.1096935301E-17   0.0000000000E+00  -0.4800000000E-02   0.2991862551E-16   0.9125000013E+01   0.7297826727E-14   0.9601005168E-14   0.2247186582E-15   0.2654662188E-17  -0.4349170821E-15   0.1825000003E-01  -0.5475000008E-02  -0.5475000008E-02   0.7749114426E-16  -0.6406285679E-16  -0.5338834060E-18   0.9125000013E+01
   0.0000000000E+00   0.0000000000E+00   0.9945250000E+00   0.0000000000E+00   0.0000000000E+00  -0.6750000000E-03   0.0000000000E+00   0.0000000000E+00  -0.4800000000E-02   0.9125000013E+01   0.8358659809E-14   0.9221466195E-14   0.1366381820E-15   0.6468181389E-16   0.2549445441E-15   0.1825000003E-01  -0.5475000008E-02  -0.5475000008E-02   0.3347661144E-18  -0.1656757969E-15  -0.3860368671E-16   0.9125000013E+01
   0.1018250000E+01   0.0000000000E+00   0.9945250000E+00   0.2250000000E-02   0.0000000000E+00  -0.6750000000E-03   0.1600000000E-01   0.0000000000E+00  -0.4800000000E-02   0.9125000013E+01  -0.6096900017E-14  -0.5271136013E-14  -0.5454044718E-15   0.6128031504E-15   0.5851748998E-16   0.1825000003E-01  -0.5475000008E-02  -0.5475000008E-02   0.3042850696E-16  -0.2717917046E-16   0.6740142747E-16   0.9125000013E+01
   0.1018250000E+01   0.9945250000E+00   0.9945250000E+00   0.2250000000E-02  -0.6750000000E-03  -0.6750000000E-03   0.1600000000E-01  -0.4800000000E-02  -0.4800000000E-02   0.9125000012E+01   0.8390648696E-14   0.7025715255E-14   0.5612559415E-15  -0.2754516229E-15  -0.5466285310E-15   0.1825000002E-01  -0.5475000007E-02  -0.5475000007E-02   0.6629176746E-16  -0.4535624965E-18  -0.2526510152E-17   0.9125000012E+01
   0.0000000000E+00   0.9945250000E+00   0.9945250000E+00   0.0000000000E+00  -0.6750000000E-03  -0.6750000000E-03   0.0000000000E+00  -0.4800000000E-02  -0.4800000000E-02   0.9125000012E+01  -0.7520939120E-14  -0.9113361413E-14   0.1814721906E-15   0.1841714083E-15  -0.6348076421E-15   0.1825000002E-01  -0.5475000007E-02  -0.5475000007E-02   0.2294779405E-16  -0.1864384721E-16  -0.1102504924E-15   0.9125000012E+01
   0.2036500000E+01   0.0000000000E+00  -0.6809901599E-16   0.4500000000E-02   0.0000000000E+00   0.9233677025E-17   0.3200000000E-01   0.0000000000E+00  -0.7733269301E-16   0.9125000014E+01  -0.8458507232E-14  -0.7968336722E-14   0.2117410384E-14  -0.1211977341E-14  -0.1274615048E-14   0.1825000003E-01  -0.5475000008E-02  -0.5475000008E-02  -0.7061505985E-16  -0.1144394250E-15  -0.2753360701E-16   0.9125000014E+01
   0.2036500000E+01   0.9945250000E+00  -0.8217289973E-16   0.4500000000E-02  -0.6750000000E-03   0.7835239801E-17   0.3200000000E-01  -0.4800000000E-02  -0.9000813953E-16   0.9125000013E+01   0.1089117670E-13   0.1293167374E-13   0.3824567413E-15   0.9565920111E-15   0.1669650646E-14   0.1825000003E-01  -0.5475000008E-02  -0.5475000008E-02  -0.2519047951E-15  -0.8113269566E-16   0.8705067740E-16   0.9125000013E+01
   0.2036500000E+01   0.0000000000E+00   0.9945250000E+00   0.4500000000E-02   0.0000000000E+00  -0.6750000000E-03   0.3200000000E-01   0.0000000000E+00  -0.4800000000E-02   0.9125000013E+01   0.7728891168E-14   0.6931416765E-14   0.6389968515E-15   0.1255650504E-14  -0.8463968216E-15   0.1825000003E-01  -0.5475000008E-02  -0.5475000008E-02   0.4809226239E-16  -0.1021059476E-15  -0.1986446808E-16   0.9125000013E+01
   0.2036500000E+01   0.9945250000E+00   0.9945250000E+00   0.4500000000E-02  -0.6750000000E-03  -0.6750000000E-03   0.3200000000E-01  -0.4800000000E-02  -0.4800000000E-02   0.9125000012E+01  -0.1420483554E-13  -0.1208705007E-13   0.1353385165E-14  -0.2315515475E-14   0.1713342778E-14   0.1825000002E-01  -0.5475000007E-02  -0.5475000007E-02   0.9960373199E-16  -0.1010848790E-15   0.9038437093E-16   0.9125000012E+01
     1     2     3     4     5     6     7     8
     2     9    10     3     6    11    12     7
 VARIABLES = X,Y,Z,DU1,DU2,DU3,U1,U2,U3,S11,S22,S33,S12,S13,S23,E11,E22,E33,E12,E13,E23,SMISES
 ZONE, T="0.8900D+01" F=FEPOINT, I=   12 J=    2 ET=BRICK
   0.0000000000E+00   0.0000000000E+00   0.0000000000E+00   0.0000000000E+00   0.0000000000E+00   0.0000000000E+00   0.0000000000E+00   0.0000000000E+00   0.0000000000E+00   0.1025000002E+02  -0.6562375863E-14  -0.5239147120E-14   0.2492668625E-15   0.1999722397E-14   0.1324728513E-14   0.2550000004E-01  -0.8650000014E-02  -0.8650000014E-02  -0.1576682058E-17  -0.2115660237E-16   0.7181461277E-16   0.1025000002E+02
   0.1025500000E+01   0.0000000000E+00  -0.1262376704E-16   0.7250000000E-02   0.0000000000E+00   0.1213370697E-16   0.1825000000E-01   0.0000000000E+00  -0.2475747402E-16   0.1025000002E+02   0.2936750421E-14   0.4342320861E-14  -0.1234896867E-14  -0.2009774929E-15  -0.4588090521E-15   0.2550000004E-01  -0.8650000013E-02  -0.8650000013E-02   0.1840457662E-16   0.2388637150E-16   0.1918549656E-16   0.1025000002E+02
   0.1025500000E+01   0.9913500000E+00  -0.3061841393E-17   0.7250000000E-02  -0.3175000000E-02   0.9251514582E-17   0.1825000000E-01  -0.5475000000E-02  -0.1231335597E-16   0.1025000001E+02  -0.5771804314E-14  -0.6045374427E-14  -0.2002001842E-14   0.7470379967E-15   0.3177784243E-15   0.2550000004E-01  -0.8650000012E-02  -0.8650000012E-02  -0.3451138644E-16  -0.1201455486E-17  -0.4450241915E-16   0.1025000001E+02
   0.0000000000E+00   0.9913500000E+00   0.3586468860E-16   0.0000000000E+00  -0.3175000000E-02   0.7042998383E-17   0.0000000000E+00  -0.5475000000E-02   0.2882169021E-16   0.1025000001E+02   0.5226122686E-14   0.7989723341E-14   0.1867307796E-15  -0.2481887515E-15   0.1126150984E-14   0.2550000004E-01  -0.8650000013E-02  -0.8650000013E-02   0.7416236961E-16  -0.6477489201E-16   0.1413227474E-16   0.1025000001E+02
   0.0000000000E+00   0.0000000000E+00   0.9913500000E+00   0.0000000000E+00   0.0000000000E+00  -0.3175000000E-02   0.0000000000E+00   0.0000000000E+00  -0.5475000000E-02   0.1025000001E+02   0.5761592677E-14   0.7596378055E-14   0.8730687314E-16   0.1183339012E-14   0.7962528729E-15   0.2550000004E-01  -0.8650000013E-02  -0.8650000013E-02   0.5476393759E-18  -0.1551260472E-15  -0.3709682304E-16   0.1025000001E+02
   0.1025500000E+01   0.0000000000E+00   0.9913500000E+00   0.7250000000E-02   0.0000000000E+00  -0.3175000000E-02   0.1825000000E-01   0.0000000000E+00  -0.5475000000E-02   0.1025000001E+02  -0.4439536882E-14  -0.4675387694E-14   0.6037679982E-15   0.3407386110E-17  -0.6787718885E-16   0.2550000004E-01  -0.8650000012E-02  -0.8650000012E-02   0.4648335071E-16  -0.2229995031E-16   0.6231493512E-16   0.1025000001E+02
   0.1025500000E+01   0.9913500000E+00   0.9913500000E+00   0.7250000000E-02  -0.3175000000E-02  -0.3175000000E-02   0.1825000000E-01  -0.5475000000E-02  -0.5475000000E-02   0.1025000001E+02   0.6792782113E-14   0.5365434386E-14   0.1891622220E-14   0.4618649034E-15  -0.9114910528E-16   0.2550000003E-01  -0.8650000011E-02  -0.8650000011E-02   0.9139330773E-16   0.1029719775E-16   0.8773478906E-17   0.1025000001E+02
   0.0000000000E+00   0.9913500000E+00   0.9913500000E+00   0.0000000000E+00  -0.3175000000E-02  -0.3175000000E-02   0.0000000000E+00  -0.5475000000E-02  -0.5475000000E-02   0.1025000001E+02  -0.6914302254E-14  -0.9033546415E-14   0.5591318325E-15   0.9461087608E-15  -0.7900339245E-16   0.2550000003E-01  -0.8650000012E-02  -0.8650000012E-02   0.2995623473E-16  -0.1165737244E-16  -0.9055853828E-16   0.1025000001E+02
   0.2051000000E+01   0.0000000000E+00  -0.4584231503E-16   0.1450000000E-01   0.0000000000E+00   0.2225670096E-16   0.3650000000E-01   0.0000000000E+00  -0.6809901599E-16   0.1025000002E+02  -0.9465678872E-14  -0.7490122751E-14   0.2531082588E-14  -0.1177552478E-14  -0.1437461581E-14   0.2550000004E-01  -0.8650000013E-02  -0.8650000013E-02  -0.5838042663E-16  -0.1567115383E-15  -0.3585595688E-16   0.1025000002E+02
   0.2051000000E+01   0.9913500000E+00  -0.6257840740E-16   0.1450000000E-01  -0.3175000000E-02   0.1959449233E-16   0.3650000000E-01  -0.5475000000E-02  -0.8217289973E-16   0.1025000001E+02   0.1320086746E-13   0.1534986013E-13   0.1307294963E-14   0.5086740334E-15   0.1803225778E-14   0.2550000004E-01  -0.8650000012E-02  -0.8650000012E-02  -0.2301104014E-15  -0.7991671371E-16   0.9444995213E-16   0.1025000001E+02
   0.2051000000E+01   0.0000000000E+00   0.9913500000E+00   0.1450000000E-01   0.0000000000E+00  -0.3175000000E-02   0.3650000000E-01   0.0000000000E+00  -0.5475000000E-02   0.1025000001E+02   0.1000086260E-13   0.9157306860E-14   0.4095128650E-15   0.2283794402E-14  -0.1472220915E-14   0.2550000004E-01  -0.8650000012E-02  -0.8650000012E-02   0.4582611792E-16  -0.8445476598E-16  -0.2557840566E-16   0.1025000001E+02
   0.2051000000E+01   0.9913500000E+00   0.9913500000E+00   0.1450000000E-01  -0.3175000000E-02  -0.3175000000E-02   0.3650000000E-01  -0.5475000000E-02  -0.5475000000E-02   0.1025000001E+02  -0.1605663085E-13  -0.1497217072E-13   0.1005564837E-14  -0.3025481307E-14   0.1454089516E-14   0.2550000003E-01  -0.8650000011E-02  -0.8650000011E-02   0.7720605804E-16  -0.1413474191E-15   0.8249078582E-16   0.1025000001E+02
     1     2     3     4     5     6     7     8
     2     9    10     3     6    11    12     7
 VARIABLES = X,Y,Z,DU1,DU2,DU3,U1,U2,U3,S11,S22,S33,S12,S13,S23,E11,E22,E33,E12,E13,E23,SMISES
 ZONE, T="0.8950D+01" F=FEPOINT, I=   12 J=    2 ET=BRICK
   0.0000000000E+00   0.0000000000E+00   0.0000000000E+00   0.0000000000E+00   0.0000000000E+00   0.0000000000E+00   0.0000000000E+00   0.0000000000E+00   0.0000000000E+00   0.1137500002E+02  -0.4884303458E-14  -0.5400236641E-14   0.1319391504E-15   0.1532451327E-14   0.1386366739E-14   0.5025000008E-01  -0.2057500003E-01  -0.2057500003E-01   0.3527828525E-17  -0.6334288464E-17   0.7966124345E-16   0.1137500002E+02
   0.1050250000E+01   0.0000000000E+00  -0.9416093265E-17   0.2475000000E-01   0.0000000000E+00   0.3207673776E-17   0.2550000000E-01   0.0000000000E+00  -0.1262376704E-16   0.1137500002E+02   0.1174200221E-14  -0.4860807702E-15  -0.4398442881E-15   0.4221342156E-15   0.2457282781E-15   0.5025000008E-01  -0.2057500003E-01  -0.2057500003E-01   0.9065332511E-17   0.2536862351E-16   0.3085119588E-16   0.1137500002E+02
   0.1050250000E+01   0.9794250000E+00   0.3072221366E-17   0.2475000000E-01  -0.1192500000E-01   0.6134062759E-17   0.2550000000E-01  -0.8650000000E-02  -0.3061841393E-17   0.1137500002E+02  -0.1436099854E-14  -0.3429447574E-14  -0.1984137460E-14   0.8761619940E-15  -0.8218600867E-15   0.5025000007E-01  -0.2057500003E-01  -0.2057500003E-01  -0.5714399530E-16   0.3134123905E-17  -0.5723190359E-16   0.1137500002E+02
   0.0000000000E+00   0.9794250000E+00   0.4356943147E-16   0.0000000000E+00  -0.1192500000E-01   0.7704742873E-17   0.0000000000E+00  -0.8650000000E-02   0.3586468860E-16   0.1137500002E+02   0.5074177311E-14   0.6300866693E-14  -0.2148686574E-15  -0.6487746783E-15   0.8872533682E-15   0.5025000007E-01  -0.2057500003E-01  -0.2057500003E-01   0.6614365790E-16  -0.6897385271E-16   0.2914455146E-16   0.1137500002E+02
   0.0000000000E+00   0.0000000000E+00   0.9794250000E+00   0.0000000000E+00   0.0000000000E+00  -0.1192500000E-01   0.0000000000E+00   0.0000000000E+00  -0.8650000000E-02   0.1137500002E+02   0.1557619608E-14   0.4406870650E-14   0.2472662587E-15  -0.8222281872E-15   0.1804533244E-14   0.5025000007E-01  -0.2057500003E-01  -0.2057500003E-01  -0.2814496158E-17  -0.1596928318E-15  -0.1681085520E-16   0.1137500002E+02
   0.1050250000E+01   0.0000000000E+00   0.9794250000E+00   0.2475000000E-01   0.0000000000E+00  -0.1192500000E-01   0.2550000000E-01   0.0000000000E+00  -0.8650000000E-02   0.1137500002E+02  -0.6820394980E-14  -0.6468468344E-14  -0.1745310836E-15   0.2409689947E-15   0.9386749772E-15   0.5025000007E-01  -0.2057500003E-01  -0.2057500003E-01   0.4392613296E-16  -0.3871760121E-16   0.7865822475E-16   0.1137500002E+02
   0.1050250000E+01   0.9794250000E+00   0.9794250000E+00   0.2475000000E-01  -0.1192500000E-01  -0.1192500000E-01   0.2550000000E-01  -0.8650000000E-02  -0.8650000000E-02   0.1137500001E+02   0.2695064160E-14   0.4777656957E-14   0.5367609368E-15  -0.1594228659E-15   0.1870089549E-15   0.5025000007E-01  -0.2057500003E-01  -0.2057500003E-01   0.5771189952E-16   0.1114754444E-17   0.4647645091E-17   0.1137500001E+02
   0.0000000000E+00   0.9794250000E+00   0.9794250000E+00   0.0000000000E+00  -0.1192500000E-01  -0.1192500000E-01   0.0000000000E+00  -0.8650000000E-02  -0.8650000000E-02   0.1137500002E+02  -0.8196112298E-14  -0.8942061018E-14  -0.7645740272E-15   0.2620445823E-15  -0.9349796302E-15   0.5025000007E-01  -0.2057500003E-01  -0.2057500003E-01   0.1384661289E-16  -0.2401770041E-16  -0.9312810817E-16   0.1137500002E+02
   0.2100500000E+01   0.0000000000E+00  -0.5264338254E-16   0.4950000000E-01   0.0000000000E+00  -0.6801067508E-17   0.5100000000E-01   0.0000000000E+00  -0.4584231503E-16   0.1137500002E+02  -0.4724672013E-14  -0.5043255594E-14   0.1897966741E-14   0.6401882408E-15  -0.3662340018E-15   0.5025000008E-01  -0.2057500003E-01  -0.2057500003E-01  -0.2332892925E-16  -0.1264911932E-15  -0.2564018545E-16   0.1137500002E+02
   0.2100500000E+01   0.9794250000E+00  -0.6380038502E-16   0.4950000000E-01  -0.1192500000E-01  -0.1221977625E-17   0.5100000000E-01  -0.8650000000E-02  -0.6257840740E-16   0.1137500002E+02   0.2166724211E-13   0.2306736829E-13   0.7154108388E-15  -0.1318148022E-15   0.7148043672E-15   0.5025000007E-01  -0.2057500003E-01  -0.2057500003E-01  -0.2105867705E-15  -0.1689273171E-15   0.8144426682E-16   0.1137500002E+02
   0.2100500000E+01   0.0000000000E+00   0.9794250000E+00   0.4950000000E-01   0.0000000000E+00  -0.1192500000E-01   0.5100000000E-01   0.0000000000E+00  -0.8650000000E-02   0.1137500002E+02   0.1441520956E-13   0.1488652050E-13  -0.1052576507E-14   0.6743962262E-15   0.3594464636E-15   0.5025000007E-01  -0.2057500003E-01  -0.2057500003E-01   0.3265773811E-17  -0.2530233476E-16  -0.7610547037E-17   0.1137500002E+02
   0.2100500000E+01   0.9794250000E+00   0.9794250000E+00   0.4950000000E-01  -0.1192500000E-01  -0.1192500000E-01   0.5100000000E-01  -0.8650000000E-02  -0.8650000000E-02   0.1137500001E+02  -0.2368421650E-13  -0.1895157183E-13  -0.3216033053E-14  -0.3128768797E-14   0.5548451067E-15   0.5025000006E-01  -0.2057500003E-01  -0.2057500003E-01   0.5448633273E-18  -0.1706512041E-15   0.9257577814E-16   0.1137500001E+02
     1     2     3     4     5     6     7     8
     2     9    10     3     6    11    12     7
 VARIABLES = X,Y,Z,DU1,DU2,DU3,U1,U2,U3,S11,S22,S33,S12,S13,S23,E11,E22,E33,E12,E13,E23,SMISES
 ZONE, T="0.9000D+01" F=FEPOINT, I=   12 J=    2 ET=BRICK
   0.0000000000E+00   0.0000000000E+00   0.0000000000E+00   0.0000000000E+00   0.0000000000E+00   0.0000000000E+00   0.0000000000E+00   0.0000000000E+00   0.0000000000E+00   0.1250000002E+02  -0.6414025363E-14  -0.8415344140E-14   0.1578545549E-15  -0.1524988092E-14   0.1114850020E-14   0.7500000012E-01  -0.3250000005E-01  -0.3250000005E-01   0.1030959676E-18  -0.4517397114E-16   0.1072202833E-15   0.1250000002E+02
   0.1075000000E+01   0.0000000000E+00  -0.4002149479E-16   0.2475000000E-01   0.0000000000E+00  -0.3060540153E-16   0.5025000000E-01   0.0000000000E+00  -0.9416093265E-17   0.1250000002E+02   0.3185625791E-14   0.2010071032E-14  -0.5113165189E-15  -0.4273038723E-15   0.1455770827E-14   0.7500000012E-01  -0.3250000005E-01  -0.3250000005E-01   0.2926687447E-16   0.1760842579E-16   0.4839784926E-16   0.1250000002E+02
   0.1075000000E+01   0.9675000000E+00  -0.1361606072E-16   0.2475000000E-01  -0.1192500000E-01  -0.1668828208E-16   0.5025000000E-01  -0.2057500000E-01   0.3072221366E-17   0.1250000002E+02  -0.6353746517E-14  -0.8195435078E-14  -0.8373728062E-15   0.8614262649E-15  -0.4235366571E-15   0.7500000011E-01  -0.3250000005E-01  -0.3250000005E-01  -0.2664947059E-16  -0.1118233304E-16  -0.5192050652E-16   0.1250000002E+02
   0.0000000000E+00   0.9675000000E+00   0.4737293975E-16   0.0000000000E+00  -0.1192500000E-01   0.3803508281E-17   0.0000000000E+00  -0.2057500000E-01   0.4356943147E-16   0.1250000002E+02  -0.5074428969E-16  -0.8743726783E-15   0.3034060690E-15  -0.1798976780E-14  -0.8126099738E-15   0.7500000011E-01  -0.3250000005E-01  -0.3250000005E-01   0.7464028908E-16  -0.1052633980E-15  -0.1198036879E-16   0.1250000002E+02
   0.0000000000E+00   0.0000000000E+00   0.9675000000E+00   0.0000000000E+00   0.0000000000E+00  -0.1192500000E-01   0.0000000000E+00   0.0000000000E+00  -0.2057500000E-01   0.1250000002E+02   0.4471421381E-14   0.7981361906E-14   0.1616592523E-15  -0.1150422549E-14   0.1403957593E-14   0.7500000011E-01  -0.3250000005E-01  -0.3250000005E-01  -0.1629134902E-17  -0.1739771882E-15  -0.1831692204E-16   0.1250000002E+02
   0.1075000000E+01   0.0000000000E+00   0.9675000000E+00   0.2475000000E-01   0.0000000000E+00  -0.1192500000E-01   0.5025000000E-01   0.0000000000E+00  -0.2057500000E-01   0.1250000002E+02  -0.4739937878E-14  -0.1403433918E-14   0.8130969369E-15   0.7790905472E-15   0.9476252153E-15   0.7500000011E-01  -0.3250000005E-01  -0.3250000005E-01   0.6996958401E-16   0.1887309474E-17   0.9281101479E-16   0.1250000002E+02
   0.1075000000E+01   0.9675000000E+00   0.9675000000E+00   0.2475000000E-01  -0.1192500000E-01  -0.1192500000E-01   0.5025000000E-01  -0.2057500000E-01  -0.2057500000E-01   0.1250000002E+02   0.7951613104E-14   0.8802072192E-14   0.2018156429E-14   0.5742510977E-15  -0.1011078579E-14   0.7500000010E-01  -0.3250000004E-01  -0.3250000004E-01   0.1108633247E-15   0.2730928042E-16  -0.1150220054E-16   0.1250000002E+02
   0.0000000000E+00   0.9675000000E+00   0.9675000000E+00   0.0000000000E+00  -0.1192500000E-01  -0.1192500000E-01   0.0000000000E+00  -0.2057500000E-01  -0.2057500000E-01   0.1250000002E+02   0.3097736145E-14   0.2390965509E-14   0.4026675182E-15   0.1518653774E-15  -0.2098300764E-14   0.7500000010E-01  -0.3250000004E-01  -0.3250000004E-01   0.2211823777E-16  -0.2322185373E-16  -0.9853613707E-16   0.1250000002E+02
   0.2150000000E+01   0.0000000000E+00  -0.1218832903E-15   0.4950000000E-01   0.0000000000E+00  -0.6923990773E-16   0.1005000000E+00   0.0000000000E+00  -0.5264338254E-16   0.1250000002E+02  -0.4604220430E-14  -0.4747908740E-14  -0.1579316393E-14  -0.2590734691E-15  -0.1181694134E-14   0.7500000011E-01  -0.3250000005E-01  -0.3250000005E-01  -0.1284276410E-15  -0.1355938537E-15  -0.3412754234E-16   0.1250000002E+02
   0.2150000000E+01   0.9675000000E+00  -0.1429962497E-15   0.4950000000E-01  -0.1192500000E-01  -0.7919586472E-16   0.1005000000E+00  -0.2057500000E-01  -0.6380038502E-16   0.1250000002E+02   0.1441560046E-13   0.1345120175E-13  -0.2566684463E-14   0.1932263109E-14  -0.7596393104E-15   0.7500000010E-01  -0.3250000005E-01  -0.3250000005E-01  -0.3097163767E-15  -0.1095487380E-15   0.3192124753E-16   0.1250000002E+02
   0.2150000000E+01   0.0000000000E+00   0.9675000000E+00   0.4950000000E-01   0.0000000000E+00  -0.1192500000E-01   0.1005000000E+00   0.0000000000E+00  -0.2057500000E-01   0.1250000002E+02   0.5127447479E-14   0.4856795167E-14   0.2288910094E-14  -0.1726108403E-14  -0.8229800974E-16   0.7500000010E-01  -0.3250000005E-01  -0.3250000005E-01   0.6907871924E-16  -0.1526061586E-15  -0.2876128400E-16   0.1250000002E+02
   0.2150000000E+01   0.9675000000E+00   0.9675000000E+00   0.4950000000E-01  -0.1192500000E-01  -0.1192500000E-01   0.1005000000E+00  -0.2057500000E-01  -0.2057500000E-01   0.1250000002E+02  -0.2057121649E-13  -0.1529289038E-13   0.2219402553E-14   0.1108641136E-14  -0.8780370646E-15   0.7500000010E-01  -0.3250000004E-01  -0.3250000004E-01   0.9276422617E-16  -0.1433484315E-15   0.8045520553E-16   0.1250000002E+02
     1     2     3     4     5     6     7     8
     2     9    10     3     6    11    12     7
 VARIABLES = X,Y,Z,DU1,DU2,DU3,U1,U2,U3,S11,S22,S33,S12,S13,S23,E11,E22,E33,E12,E13,E23,SMISES
 ZONE, T="0.9050D+01" F=FEPOINT, I=   12 J=    2 ET=BRICK
   0.0000000000E+00   0.0000000000E+00   0.0000000000E+00   0.0000000000E+00   0.0000000000E+00   0.0000000000E+00   0.0000000000E+00   0.0000000000E+00   0.0000000000E+00   0.1137500002E+02   0.4106419176E-15   0.3030554462E-14   0.1481728009E-15   0.3590014061E-14   0.6287171806E-14   0.7275000011E-01  -0.3182500005E-01  -0.3182500005E-01   0.1573453709E-17  -0.4144198352E-17   0.1505864452E-15   0.1137500002E+02
   0.1072750000E+01   0.0000000000E+00  -0.2742228678E-16  -0.2250000000E-02   0.0000000000E+00   0.1259920801E-16   0.7500000000E-01   0.0000000000E+00  -0.4002149479E-16   0.1137500002E+02   0.1431046699E-14  -0.6425486995E-14   0.2841711713E-14   0.3928000606E-14   0.6881277701E-15   0.7275000011E-01  -0.3182500005E-01  -0.3182500005E-01   0.8273007201E-16   0.7818737040E-16   0.4854994439E-16   0.1137500002E+02
   0.1072750000E+01   0.9681750000E+00  -0.5007147963E-17  -0.2250000000E-02   0.6750000000E-03   0.8608912753E-17   0.7500000000E-01  -0.3250000000E-01  -0.1361606072E-16   0.1137500002E+02   0.4106420944E-15  -0.5897415046E-14   0.8700994014E-15  -0.5819298043E-15  -0.3837452281E-14   0.7275000010E-01  -0.3182500005E-01  -0.3182500005E-01   0.7684789826E-17  -0.3548345405E-16  -0.7642811750E-16   0.1137500002E+02
   0.0000000000E+00   0.9681750000E+00   0.7422590859E-16   0.0000000000E+00   0.6750000000E-03   0.2685296884E-16   0.0000000000E+00  -0.3250000000E-01   0.4737293975E-16   0.1137500002E+02   0.1782973443E-14  -0.4870106913E-14   0.6259323893E-15  -0.4661294042E-14   0.1638814823E-16   0.7275000011E-01  -0.3182500005E-01  -0.3182500005E-01   0.7641346240E-16  -0.9859675129E-16  -0.1418111536E-16   0.1137500002E+02
   0.0000000000E+00   0.0000000000E+00   0.9681750000E+00   0.0000000000E+00   0.0000000000E+00   0.6750000000E-03   0.0000000000E+00   0.0000000000E+00  -0.3250000000E-01   0.1137500002E+02   0.6334105347E-14   0.2273401614E-13   0.1719469766E-15  -0.4052047803E-14   0.1081531766E-14   0.7275000011E-01  -0.3182500005E-01  -0.3182500005E-01   0.4983518243E-17  -0.1978192825E-15  -0.1756596904E-16   0.1137500002E+02
   0.1072750000E+01   0.0000000000E+00   0.9681750000E+00  -0.2250000000E-02   0.0000000000E+00   0.6750000000E-03   0.7500000000E-01   0.0000000000E+00  -0.3250000000E-01   0.1137500002E+02  -0.4599167125E-14  -0.2380857066E-14   0.1343920297E-15   0.2866744886E-14   0.1604234785E-14   0.7275000010E-01  -0.3182500005E-01  -0.3182500005E-01   0.5474221585E-16   0.3566641077E-16   0.9149004127E-16   0.1137500002E+02
   0.1072750000E+01   0.9681750000E+00   0.9681750000E+00  -0.2250000000E-02   0.6750000000E-03   0.6750000000E-03   0.7500000000E-01  -0.3250000000E-01  -0.3250000000E-01   0.1137500001E+02   0.7951613254E-14   0.9898488794E-14   0.2370531835E-14  -0.6043635197E-15  -0.3036416333E-14   0.7275000010E-01  -0.3182500004E-01  -0.3182500004E-01   0.1071811236E-15   0.4786168793E-18  -0.4254777236E-16   0.1137500001E+02
   0.0000000000E+00   0.9681750000E+00   0.9681750000E+00   0.0000000000E+00   0.6750000000E-03   0.6750000000E-03   0.0000000000E+00  -0.3250000000E-01  -0.3250000000E-01   0.1137500002E+02  -0.3694264944E-14  -0.1961748604E-14   0.1890983926E-14  -0.1593989742E-14  -0.6737624857E-14   0.7275000010E-01  -0.3182500004E-01  -0.3182500004E-01   0.4844931106E-16  -0.4610533035E-16  -0.1923186741E-15   0.1137500002E+02
   0.2145500000E+01   0.0000000000E+00  -0.1530629587E-15  -0.4500000000E-02   0.0000000000E+00  -0.3117966840E-16   0.1500000000E+00   0.0000000000E+00  -0.1218832903E-15   0.1137500002E+02  -0.1142888741E-13  -0.8616679011E-14   0.6420383525E-14   0.3237167790E-14   0.5661578175E-15   0.7275000011E-01  -0.3182500005E-01  -0.3182500005E-01  -0.3977997217E-17  -0.1278016280E-15  -0.1996137444E-16   0.1137500002E+02
   0.2145500000E+01   0.9681750000E+00  -0.1650500013E-15  -0.4500000000E-02   0.6750000000E-03  -0.2205375155E-16   0.1500000000E+00  -0.3250000000E-01  -0.1429962497E-15   0.1137500002E+02   0.1363260925E-13   0.1318453463E-13   0.1770020046E-14  -0.1758597697E-14   0.1964013134E-14   0.7275000010E-01  -0.3182500004E-01  -0.3182500004E-01  -0.2265653603E-15  -0.1294007257E-15   0.5812433158E-16   0.1137500002E+02
   0.2145500000E+01   0.0000000000E+00   0.9681750000E+00  -0.4500000000E-02   0.0000000000E+00   0.6750000000E-03   0.1500000000E+00   0.0000000000E+00  -0.3250000000E-01   0.1137500002E+02   0.1371680066E-13   0.1392980645E-13  -0.1732811791E-14   0.5770305437E-14   0.5966355062E-15   0.7275000010E-01  -0.3182500004E-01  -0.3182500004E-01   0.8567196804E-16  -0.5050876660E-16  -0.9891019739E-18   0.1137500002E+02
   0.2145500000E+01   0.9681750000E+00   0.9681750000E+00  -0.4500000000E-02   0.6750000000E-03   0.6750000000E-03   0.1500000000E+00  -0.3250000000E-01  -0.3250000000E-01   0.1137500001E+02  -0.1959592864E-13  -0.1627351705E-13  -0.1227325933E-14  -0.4041805279E-14   0.8685202869E-15   0.7275000009E-01  -0.3182500004E-01  -0.3182500004E-01   0.9995646150E-16  -0.2788052739E-15   0.7505365998E-16   0.1137500001E+02
     1     2     3     4     5     6     7     8
     2     9    10     3     6    11    12     7
 VARIABLES = X,Y,Z,DU1,DU2,DU3,U1,U2,U3,S11,S22,S33,S12,S13,S23,E11,E22,E33,E12,E13,E23,SMISES
 ZONE, T="0.9100D+01" F=FEPOINT, I=   12 J=    2 ET=BRICK
   0.0000000000E+00   0.0000000000E+00   0.0000000000E+00   0.0000000000E+00   0.0000000000E+00   0.0000000000E+00   0.0000000000E+00   0.0000000000E+00   0.0000000000E+00   0.1025000002E+02  -0.6190130923E-14  -0.7967946361E-14   0.1868657861E-15  -0.2612270209E-15   0.3212649642E-15   0.7050000011E-01  -0.3115000005E-01  -0.3115000005E-01  -0.3622912631E-17  -0.5248986335E-16   0.1036943548E-15   0.1025000002E+02
   0.1070500000E+01   0.0000000000E+00  -0.3143109037E-16  -0.2250000000E-02   0.0000000000E+00  -0.4008803592E-17   0.7275000000E-01   0.0000000000E+00  -0.2742228678E-16   0.1025000002E+02   0.2549240383E-14   0.1132781420E-14   0.1507595373E-14   0.1439072357E-14   0.7080673888E-15   0.7050000011E-01  -0.3115000005E-01  -0.3115000005E-01   0.1029273007E-15   0.8582882130E-16   0.4179261833E-16   0.1025000002E+02
   0.1070500000E+01   0.9688500000E+00  -0.9031278319E-17  -0.2250000000E-02   0.6750000000E-03  -0.4024130356E-17   0.7275000000E-01  -0.3182500000E-01  -0.5007147963E-17   0.1025000001E+02  -0.5517093804E-14  -0.6497434822E-14   0.1045512523E-14  -0.2236672944E-14  -0.4774330552E-15   0.7050000010E-01  -0.3115000004E-01  -0.3115000004E-01   0.3276799352E-16  -0.9128301616E-16  -0.4380096557E-16   0.1025000001E+02
   0.0000000000E+00   0.9688500000E+00   0.4328590486E-16   0.0000000000E+00   0.6750000000E-03  -0.3094000373E-16   0.0000000000E+00  -0.3182500000E-01   0.7422590859E-16   0.1025000001E+02   0.4188811981E-14   0.3947516710E-14   0.3076913348E-15  -0.7098421689E-15  -0.1155720008E-14   0.7050000010E-01  -0.3115000005E-01  -0.3115000005E-01   0.7261067570E-16  -0.6571992994E-16  -0.4353836628E-16   0.1025000001E+02
   0.0000000000E+00   0.0000000000E+00   0.9688500000E+00   0.0000000000E+00   0.0000000000E+00   0.6750000000E-03   0.0000000000E+00   0.0000000000E+00  -0.3182500000E-01   0.1025000001E+02   0.4846192920E-14   0.7329711228E-14   0.1406147634E-15   0.1419543953E-15   0.1069381827E-14   0.7050000010E-01  -0.3115000005E-01  -0.3115000005E-01  -0.2770644889E-18  -0.1433714091E-15  -0.2938872140E-16   0.1025000001E+02
   0.1070500000E+01   0.0000000000E+00   0.9688500000E+00  -0.2250000000E-02   0.0000000000E+00   0.6750000000E-03   0.7275000000E-01   0.0000000000E+00  -0.3182500000E-01   0.1025000001E+02  -0.4428648277E-14  -0.1628396207E-14  -0.2347777932E-14   0.2531230876E-14   0.1910885642E-15   0.7050000010E-01  -0.3115000004E-01  -0.3115000004E-01   0.2394251289E-16  -0.1187048784E-16   0.7239733050E-16   0.1025000001E+02
   0.1070500000E+01   0.9688500000E+00   0.9688500000E+00  -0.2250000000E-02   0.6750000000E-03   0.6750000000E-03   0.7275000000E-01  -0.3182500000E-01  -0.3182500000E-01   0.1025000001E+02   0.7559049602E-14   0.6911775657E-14  -0.8343954776E-15  -0.2272254845E-14  -0.1063857368E-14   0.7050000009E-01  -0.3115000004E-01  -0.3115000004E-01   0.9052029765E-16  -0.4970971544E-16  -0.1059092510E-16   0.1025000001E+02
   0.0000000000E+00   0.9688500000E+00   0.9688500000E+00   0.0000000000E+00   0.6750000000E-03   0.6750000000E-03   0.0000000000E+00  -0.3182500000E-01  -0.3182500000E-01   0.1025000001E+02  -0.2991479776E-14  -0.3333976452E-14   0.4543948986E-15   0.5952846342E-15  -0.2002226523E-14   0.7050000009E-01  -0.3115000004E-01  -0.3115000004E-01   0.3923290181E-16  -0.3292680941E-17  -0.9950344625E-16   0.1025000001E+02
   0.2141000000E+01   0.0000000000E+00  -0.9723832758E-16  -0.4500000000E-02   0.0000000000E+00   0.5582463110E-16   0.1455000000E+00   0.0000000000E+00  -0.1530629587E-15   0.1025000002E+02  -0.7151611740E-14  -0.4745382078E-14   0.1333437770E-14   0.9051330526E-15  -0.5998492988E-15   0.7050000011E-01  -0.3115000005E-01  -0.3115000005E-01  -0.1302223229E-15  -0.1946331155E-15  -0.3519447831E-16   0.1025000002E+02
   0.2141000000E+01   0.9688500000E+00  -0.1152168655E-15  -0.4500000000E-02   0.6750000000E-03   0.4983313579E-16   0.1455000000E+00  -0.3182500000E-01  -0.1650500013E-15   0.1025000001E+02   0.1310617828E-13   0.1240990547E-13  -0.2732454250E-15   0.6514289045E-15   0.1687490406E-14   0.7050000010E-01  -0.3115000004E-01  -0.3115000004E-01  -0.2951540004E-15   0.4987783027E-16   0.7996745621E-16   0.1025000001E+02
   0.2141000000E+01   0.0000000000E+00   0.9688500000E+00  -0.4500000000E-02   0.0000000000E+00   0.6750000000E-03   0.1455000000E+00   0.0000000000E+00  -0.3182500000E-01   0.1025000001E+02   0.7964351230E-14   0.5443113862E-14  -0.1278895698E-15   0.5988245368E-15   0.3985418102E-15   0.7050000010E-01  -0.3115000004E-01  -0.3115000004E-01   0.1057534849E-15  -0.1175379883E-15  -0.9453341549E-17   0.1025000001E+02
   0.2141000000E+01   0.9688500000E+00   0.9688500000E+00  -0.4500000000E-02   0.6750000000E-03   0.6750000000E-03   0.1455000000E+00  -0.3182500000E-01  -0.3182500000E-01   0.1025000001E+02  -0.1498558620E-13  -0.1247630526E-13   0.9022822297E-15  -0.7811528114E-15   0.1487536920E-14   0.7050000009E-01  -0.3115000004E-01  -0.3115000004E-01   0.9813566335E-16  -0.6560050525E-16   0.9341261390E-16   0.1025000001E+02
     1     2     3     4     5     6     7     8
     2     9    10     3     6    11    12     7
 VARIABLES = X,Y,Z,DU1,DU2,DU3,U1,U2,U3,S11,S22,S33,S12,S13,S23,E11,E22,E33,E12,E13,E23,SMISES
 ZONE, T="0.9150D+01" F=FEPOINT, I=   12 J=    2 ET=BRICK
   0.0000000000E+00   0.0000000000E+00   0.0000000000E+00   0.0000000000E+00   0.0000000000E+00   0.0000000000E+00   0.0000000000E+00   0.0000000000E+00   0.0000000000E+00   0.9125000014E+01  -0.4057862309E-14  -0.5743515161E-14   0.2038999806E-15  -0.6636293161E-15   0.8827577533E-15   0.6825000011E-01  -0.3047500005E-01  -0.3047500005E-01  -0.7768520469E-17  -0.5313784315E-16   0.8724643104E-16   0.9125000014E+01
   0.1068250000E+01   0.0000000000E+00  -0.3449086996E-16  -0.2250000000E-02   0.0000000000E+00  -0.3059779590E-17   0.7050000000E-01   0.0000000000E+00  -0.3143109037E-16   0.9125000014E+01   0.2216173482E-14   0.9999817920E-15  -0.1044305254E-14  -0.3110344012E-15   0.9641869547E-15   0.6825000011E-01  -0.3047500005E-01  -0.3047500005E-01   0.1083696470E-15   0.6933860875E-16   0.5812960921E-16   0.9125000014E+01
   0.1068250000E+01   0.9695250000E+00  -0.1076858232E-16  -0.2250000000E-02   0.6750000000E-03  -0.1737303996E-17   0.7050000000E-01  -0.3115000000E-01  -0.9031278319E-17   0.9125000013E+01  -0.5043256299E-14  -0.7296368166E-14  -0.1588317663E-14   0.1209041605E-15  -0.5280317578E-15   0.6825000010E-01  -0.3047500004E-01  -0.3047500004E-01   0.5077994124E-16  -0.4751857614E-16  -0.7703538022E-16   0.9125000013E+01
   0.0000000000E+00   0.9695250000E+00   0.4626510906E-16   0.0000000000E+00   0.6750000000E-03   0.2979204202E-17   0.0000000000E+00  -0.3115000000E-01   0.4328590486E-16   0.9125000013E+01   0.6778037254E-15   0.3552344994E-15   0.6729098474E-15  -0.1315820490E-14  -0.8454281950E-15   0.6825000010E-01  -0.3047500004E-01  -0.3047500004E-01   0.6613132336E-16  -0.9297723471E-16  -0.2524568057E-17   0.9125000013E+01
   0.0000000000E+00   0.0000000000E+00   0.9695250000E+00   0.0000000000E+00   0.0000000000E+00   0.6750000000E-03   0.0000000000E+00   0.0000000000E+00  -0.3115000000E-01   0.9125000013E+01   0.3783510283E-14   0.5885353767E-14   0.1330501536E-15  -0.1415458330E-15   0.1730858382E-14   0.6825000010E-01  -0.3047500004E-01  -0.3047500004E-01   0.4677994461E-17  -0.1652058406E-15  -0.1982206660E-16   0.9125000013E+01
   0.1068250000E+01   0.0000000000E+00   0.9695250000E+00  -0.2250000000E-02   0.0000000000E+00   0.6750000000E-03   0.7050000000E-01   0.0000000000E+00  -0.3115000000E-01   0.9125000013E+01  -0.4236351980E-14  -0.1132781420E-14  -0.6619581211E-16   0.8047393095E-15   0.1490569011E-15   0.6825000010E-01  -0.3047500004E-01  -0.3047500004E-01   0.3612809016E-16   0.1170150121E-16   0.7072091481E-16   0.9125000013E+01
   0.1068250000E+01   0.9695250000E+00   0.9695250000E+00  -0.2250000000E-02   0.6750000000E-03   0.6750000000E-03   0.7050000000E-01  -0.3115000000E-01  -0.3115000000E-01   0.9125000012E+01   0.8379760227E-14   0.6741256728E-14   0.1487199246E-14   0.2045041571E-15  -0.1475427179E-14   0.6825000009E-01  -0.3047500004E-01  -0.3047500004E-01   0.5911738332E-16  -0.5474541691E-16   0.5577108607E-17   0.9125000012E+01
   0.0000000000E+00   0.9695250000E+00   0.9695250000E+00   0.0000000000E+00   0.6750000000E-03   0.6750000000E-03   0.0000000000E+00  -0.3115000000E-01  -0.3115000000E-01   0.9125000012E+01  -0.3850050841E-16   0.9730475357E-15   0.6150415140E-15  -0.4505619668E-15  -0.1597619736E-14   0.6825000009E-01  -0.3047500004E-01  -0.3047500004E-01   0.5894548440E-16   0.1482643596E-16  -0.1142834034E-15   0.9125000012E+01
   0.2136500000E+01   0.0000000000E+00  -0.1078035138E-15  -0.4500000000E-02   0.0000000000E+00  -0.1056518620E-16   0.1410000000E+00   0.0000000000E+00  -0.9723832758E-16   0.9125000014E+01  -0.1225756904E-13  -0.8849221172E-14   0.2624607314E-14   0.1252138620E-14  -0.8952716193E-15   0.6825000010E-01  -0.3047500005E-01  -0.3047500005E-01  -0.1087370667E-15  -0.1661154328E-15  -0.5346276380E-16   0.9125000014E+01
   0.2136500000E+01   0.9695250000E+00  -0.1273395024E-15  -0.4500000000E-02   0.6750000000E-03  -0.1212263690E-16   0.1410000000E+00  -0.3115000000E-01  -0.1152168655E-15   0.9125000013E+01   0.1623259394E-13   0.1545504721E-13   0.4076711534E-15  -0.1974865508E-15   0.1537482148E-14   0.6825000010E-01  -0.3047500004E-01  -0.3047500004E-01  -0.3218198313E-15  -0.1076486656E-16   0.8836984870E-16   0.9125000013E+01
   0.2136500000E+01   0.0000000000E+00   0.9695250000E+00  -0.4500000000E-02   0.0000000000E+00   0.6750000000E-03   0.1410000000E+00   0.0000000000E+00  -0.3115000000E-01   0.9125000013E+01   0.1074389372E-13   0.7597159689E-14   0.4104698819E-15   0.1449037406E-14  -0.1793422840E-15   0.6825000010E-01  -0.3047500004E-01  -0.3047500004E-01   0.9714596812E-16  -0.4021621938E-16  -0.1738630429E-17   0.9125000013E+01
   0.2136500000E+01   0.9695250000E+00   0.9695250000E+00  -0.4500000000E-02   0.6750000000E-03   0.6750000000E-03   0.1410000000E+00  -0.3115000000E-01  -0.3115000000E-01   0.9125000012E+01  -0.1860469909E-13  -0.1474137345E-13   0.1348990710E-14  -0.1423154724E-14   0.1104324225E-14   0.6825000009E-01  -0.3047500004E-01  -0.3047500004E-01   0.1015780967E-15  -0.9173175114E-16   0.9648577232E-16   0.9125000012E+01
     1     2     3     4     5     6     7     8
     2     9    10     3     6    11    12     7
 VARIABLES = X,Y,Z,DU1,DU2,DU3,U1,U2,U3,S11,S22,S33,S12,S13,S23,E11,E22,E33,E12,E13,E23,SMISES
 ZONE, T="0.9200D+01" F=FEPOINT, I=   12 J=    2 ET=BRICK
   0.0000000000E+00   0.0000000000E+00   0.0000000000E+00   0.0000000000E+00   0.0000000000E+00   0.0000000000E+00   0.0000000000E+00   0.0000000000E+00   0.0000000000E+00   0.8000000013E+01  -0.5471403746E-14  -0.7249219193E-14   0.2121094342E-15  -0.7769985229E-15   0.9820453658E-15   0.6600000010E-01  -0.2980000005E-01  -0.2980000005E-01  -0.5013072092E-19  -0.4090279987E-16   0.8445463090E-16   0.8000000013E+01
   0.1066000000E+01   0.0000000000E+00  -0.3512776841E-16  -0.2250000000E-02   0.0000000000E+00  -0.6368984460E-18   0.6825000000E-01   0.0000000000E+00  -0.3449086996E-16   0.8000000012E+01   0.2660262642E-14   0.1525344905E-14  -0.1063740428E-14   0.1346324721E-15   0.8324704309E-15   0.6600000010E-01  -0.2980000005E-01  -0.2980000005E-01   0.9656110579E-16   0.7172732742E-16   0.4774465250E-16   0.8000000012E+01
   0.1066000000E+01   0.9702000000E+00  -0.1210015915E-16  -0.2250000000E-02   0.6750000000E-03  -0.1331576834E-17   0.6825000000E-01  -0.3047500000E-01  -0.1076858232E-16   0.8000000011E+01  -0.4842989044E-14  -0.7155597563E-14  -0.1527271662E-14  -0.4124985529E-16  -0.7412893175E-15   0.6600000009E-01  -0.2980000004E-01  -0.2980000004E-01   0.1173623072E-16  -0.4046639143E-16  -0.4660377163E-16   0.8000000011E+01
   0.0000000000E+00   0.9702000000E+00   0.4681178032E-16   0.0000000000E+00   0.6750000000E-03   0.5466712627E-18   0.0000000000E+00  -0.3047500000E-01   0.4626510906E-16   0.8000000012E+01   0.5230692432E-16  -0.2920395986E-15   0.2459232637E-15  -0.1734380641E-14  -0.8772381895E-15   0.6600000010E-01  -0.2980000004E-01  -0.2980000004E-01   0.7287045335E-16  -0.8816827457E-16   0.9055738459E-17   0.8000000012E+01
   0.0000000000E+00   0.0000000000E+00   0.9702000000E+00   0.0000000000E+00   0.0000000000E+00   0.6750000000E-03   0.0000000000E+00   0.0000000000E+00  -0.3047500000E-01   0.8000000012E+01   0.5207940295E-14   0.7198761522E-14   0.1183625653E-15  -0.3682454288E-15   0.1739702465E-14   0.6600000010E-01  -0.2980000004E-01  -0.2980000004E-01   0.6663068689E-17  -0.1858737405E-15  -0.1718908102E-16   0.8000000012E+01
   0.1066000000E+01   0.0000000000E+00   0.9702000000E+00  -0.2250000000E-02   0.0000000000E+00   0.6750000000E-03   0.6825000000E-01   0.0000000000E+00  -0.3047500000E-01   0.8000000011E+01  -0.4983759647E-14  -0.1273552023E-14  -0.4717687219E-15   0.9852572641E-15   0.3928993332E-15   0.6600000009E-01  -0.2980000004E-01  -0.2980000004E-01   0.2446847389E-16   0.4858591484E-16   0.8261207074E-16   0.8000000011E+01
   0.1066000000E+01   0.9702000000E+00   0.9702000000E+00  -0.2250000000E-02   0.6750000000E-03   0.6750000000E-03   0.6825000000E-01  -0.3047500000E-01  -0.3047500000E-01   0.8000000010E+01   0.7388530654E-14   0.6215893615E-14   0.1240368103E-14   0.2863182532E-15  -0.1247660827E-14   0.6600000009E-01  -0.2980000004E-01  -0.2980000004E-01   0.1210735940E-15  -0.7889034555E-17   0.7839372461E-17   0.8000000010E+01
   0.0000000000E+00   0.9702000000E+00   0.9702000000E+00   0.0000000000E+00   0.6750000000E-03   0.6750000000E-03   0.0000000000E+00  -0.3047500000E-01  -0.3047500000E-01   0.8000000011E+01   0.1755730192E-15   0.1146484105E-14   0.2734198934E-15  -0.4465814044E-15  -0.1857433082E-14   0.6600000009E-01  -0.2980000004E-01  -0.2980000004E-01   0.2563388777E-16  -0.2235366014E-17  -0.1459557869E-15   0.8000000011E+01
   0.2132000000E+01   0.0000000000E+00  -0.1094020326E-15  -0.4500000000E-02   0.0000000000E+00  -0.1598518802E-17   0.1365000000E+00   0.0000000000E+00  -0.1078035138E-15   0.8000000012E+01  -0.9749746675E-14  -0.7625058348E-14   0.1061529629E-14   0.8135597388E-15  -0.1035691691E-14   0.6600000010E-01  -0.2980000005E-01  -0.2980000005E-01  -0.1175105015E-15  -0.2437181273E-15  -0.3946291721E-16   0.8000000012E+01
   0.2132000000E+01   0.9702000000E+00  -0.1295694249E-15  -0.4500000000E-02   0.6750000000E-03  -0.2229922491E-17   0.1365000000E+00  -0.3047500000E-01  -0.1273395024E-15   0.8000000011E+01   0.1613246042E-13   0.1505159509E-13  -0.4678731507E-15   0.1239193875E-15   0.1361794307E-14   0.6600000009E-01  -0.2980000004E-01  -0.2980000004E-01  -0.2931764392E-15  -0.1616945426E-15   0.5078948493E-16   0.8000000011E+01
   0.2132000000E+01   0.0000000000E+00   0.9702000000E+00  -0.4500000000E-02   0.0000000000E+00   0.6750000000E-03   0.1365000000E+00   0.0000000000E+00  -0.3047500000E-01   0.8000000011E+01   0.1202755327E-13   0.7334478160E-14  -0.5068017164E-15   0.1257268435E-14  -0.2737732306E-17   0.6600000009E-01  -0.2980000004E-01  -0.2980000004E-01   0.5699629638E-16  -0.9575886853E-16  -0.1135314482E-16   0.8000000011E+01
   0.2132000000E+01   0.9702000000E+00   0.9702000000E+00  -0.4500000000E-02   0.6750000000E-03   0.6750000000E-03   0.1365000000E+00  -0.3047500000E-01  -0.3047500000E-01   0.8000000010E+01  -0.1793059430E-13  -0.1463326881E-13   0.8830795696E-15  -0.1848694795E-14   0.1134967455E-14   0.6600000008E-01  -0.2980000004E-01  -0.2980000004E-01   0.5927214615E-16  -0.1343283299E-15   0.1244829385E-15   0.8000000010E+01
     1     2     3     4     5     6     7     8
     2     9    10     3     6    11    12     7
 VARIABLES = X,Y,Z,DU1,DU2,DU3,U1,U2,U3,S11,S22,S33,S12,S13,S23,E11,E22,E33,E12,E13,E23,SMISES
 ZONE, T="0.9250D+01" F=FEPOINT, I=   12 J=    2 ET=BRICK
   0.0000000000E+00   0.0000000000E+00   0.0000000000E+00   0.0000000000E+00   0.0000000000E+00   0.0000000000E+00   0.0000000000E+00   0.0000000000E+00   0.0000000000E+00   0.6875000011E+01  -0.5678574130E-14  -0.7602604519E-14   0.2189601376E-15  -0.5855229885E-15   0.1082774152E-14   0.6375000010E-01  -0.2912500005E-01  -0.2912500005E-01  -0.3169972031E-17  -0.2218093733E-16   0.9131745497E-16   0.6875000011E+01
   0.1063750000E+01   0.0000000000E+00  -0.3455197790E-16  -0.2250000000E-02   0.0000000000E+00   0.5757905053E-18   0.6600000000E-01   0.0000000000E+00  -0.3512776841E-16   0.6875000011E+01   0.2549240296E-14   0.1181389362E-14  -0.7536357813E-15   0.2504040039E-15   0.8255480061E-15   0.6375000010E-01  -0.2912500004E-01  -0.2912500004E-01   0.1051180035E-15   0.2149909994E-16   0.3999735497E-16   0.6875000011E+01
   0.1063750000E+01   0.9708750000E+00  -0.1152107466E-16  -0.2250000000E-02   0.6750000000E-03   0.5790844914E-18   0.6600000000E-01  -0.2980000000E-01  -0.1210015915E-16   0.6875000010E+01  -0.6670871244E-14  -0.7832619920E-14  -0.1233921794E-14  -0.2907783535E-15  -0.4424985112E-15   0.6375000009E-01  -0.2912500004E-01  -0.2912500004E-01   0.3059097083E-16  -0.7555702656E-17  -0.4137237064E-16   0.6875000010E+01
   0.0000000000E+00   0.9708750000E+00   0.4723116411E-16   0.0000000000E+00   0.6750000000E-03   0.4193837847E-18   0.0000000000E+00  -0.2980000000E-01   0.4681178032E-16   0.6875000010E+01   0.1946588875E-14   0.1097197790E-14  -0.4407570483E-15  -0.1667212211E-14  -0.1281750629E-14   0.6375000009E-01  -0.2912500004E-01  -0.2912500004E-01   0.6479121308E-16  -0.1046142389E-15  -0.1879980725E-16   0.6875000010E+01
   0.0000000000E+00   0.0000000000E+00   0.9708750000E+00   0.0000000000E+00   0.0000000000E+00   0.6750000000E-03   0.0000000000E+00   0.0000000000E+00  -0.2980000000E-01   0.6875000010E+01   0.4597317642E-14   0.7415361738E-14   0.7451052753E-16  -0.4604734155E-15   0.1699939341E-14   0.6375000009E-01  -0.2912500004E-01  -0.2912500004E-01  -0.1890491412E-17  -0.1625243064E-15  -0.8240310424E-17   0.6875000010E+01
   0.1063750000E+01   0.0000000000E+00   0.9708750000E+00  -0.2250000000E-02   0.0000000000E+00   0.6750000000E-03   0.6600000000E-01   0.0000000000E+00  -0.2980000000E-01   0.6875000010E+01  -0.4954011303E-14  -0.1425211268E-14  -0.4623414961E-15   0.1189590713E-14   0.6637359794E-15   0.6375000009E-01  -0.2912500004E-01  -0.2912500004E-01   0.4715718702E-16   0.2722889646E-16   0.8963272705E-16   0.6875000010E+01
   0.1063750000E+01   0.9708750000E+00   0.9708750000E+00  -0.2250000000E-02   0.6750000000E-03   0.6750000000E-03   0.6600000000E-01  -0.2980000000E-01  -0.2980000000E-01   0.6875000009E+01   0.8853597646E-14   0.7307256807E-14   0.1071440623E-14  -0.1644830135E-15  -0.7032675896E-15   0.6375000008E-01  -0.2912500004E-01  -0.2912500004E-01   0.9258890307E-16  -0.6286920915E-17   0.1137365414E-16   0.6875000009E+01
   0.0000000000E+00   0.9708750000E+00   0.9708750000E+00   0.0000000000E+00   0.6750000000E-03   0.6750000000E-03   0.0000000000E+00  -0.2980000000E-01  -0.2980000000E-01   0.6875000009E+01  -0.1485775744E-14   0.3192613251E-15   0.7392210776E-15  -0.8565031918E-16  -0.2209913419E-14   0.6375000009E-01  -0.2912500004E-01  -0.2912500004E-01   0.4675919498E-16  -0.4690066356E-18  -0.1475862319E-15   0.6875000009E+01
   0.2127500000E+01   0.0000000000E+00  -0.1092217632E-15  -0.4500000000E-02   0.0000000000E+00   0.1802693384E-18   0.1320000000E+00   0.0000000000E+00  -0.1094020326E-15   0.6875000010E+01  -0.8919997189E-14  -0.7011909096E-14  -0.3986153756E-15  -0.5541804717E-15  -0.1202241106E-14   0.6375000010E-01  -0.2912500004E-01  -0.2912500004E-01  -0.1315569296E-15  -0.1863374408E-15  -0.4079658854E-16   0.6875000010E+01
   0.2127500000E+01   0.9708750000E+00  -0.1303045412E-15  -0.4500000000E-02   0.6750000000E-03  -0.7351162790E-18   0.1320000000E+00  -0.2980000000E-01  -0.1295694249E-15   0.6875000010E+01   0.1506686000E-13   0.1374363163E-13  -0.1388577735E-14   0.1385172633E-14   0.7906901214E-15   0.6375000009E-01  -0.2912500004E-01  -0.2912500004E-01  -0.3177403539E-15  -0.2401667700E-16   0.6057248578E-16   0.6875000010E+01
   0.2127500000E+01   0.0000000000E+00   0.9708750000E+00  -0.4500000000E-02   0.0000000000E+00   0.6750000000E-03   0.1320000000E+00   0.0000000000E+00  -0.2980000000E-01   0.6875000010E+01   0.1052078139E-13   0.6917610670E-14   0.7297834947E-15   0.1473250289E-15  -0.9273029045E-16   0.6375000009E-01  -0.2912500004E-01  -0.2912500004E-01   0.5716293839E-16  -0.7112104020E-16  -0.1265111033E-16   0.6875000010E+01
   0.2127500000E+01   0.9708750000E+00   0.9708750000E+00  -0.4500000000E-02   0.6750000000E-03   0.6750000000E-03   0.1320000000E+00  -0.2980000000E-01  -0.2980000000E-01   0.6875000009E+01  -0.1649129006E-13  -0.1334017950E-13   0.1721780028E-14  -0.3965696612E-15   0.6138647853E-15   0.6375000008E-01  -0.2912500004E-01  -0.2912500004E-01   0.1352436104E-15  -0.1352044611E-15   0.8212660295E-16   0.6875000009E+01
     1     2     3     4     5     6     7     8
     2     9    10     3     6    11    12     7
 VARIABLES = X,Y,Z,DU1,DU2,DU3,U1,U2,U3,S11,S22,S33,S12,S13,S23,E11,E22,E33,E12,E13,E23,SMISES
 ZONE, T="0.9300D+01" F=FEPOINT, I=   12 J=    2 ET=BRICK
   0.0000000000E+00   0.0000000000E+00   0.0000000000E+00   0.0000000000E+00   0.0000000000E+00   0.0000000000E+00   0.0000000000E+00   0.0000000000E+00   0.0000000000E+00   0.5750000009E+01  -0.5614896469E-14  -0.7295834415E-14   0.2332249313E-15  -0.8149952138E-15   0.9810752975E-15   0.6150000010E-01  -0.2845000004E-01  -0.2845000004E-01  -0.1980467655E-17  -0.5686184164E-16   0.9558234938E-16   0.5750000009E+01
   0.1061500000E+01   0.0000000000E+00  -0.3409401948E-16  -0.2250000000E-02   0.0000000000E+00   0.4579584211E-18   0.6375000000E-01   0.0000000000E+00  -0.3455197790E-16   0.5750000009E+01   0.3453751597E-14   0.2106219156E-14  -0.4685327490E-15   0.5645965073E-15   0.9782059949E-15   0.6150000009E-01  -0.2845000004E-01  -0.2845000004E-01   0.9327875499E-16   0.5297956911E-16   0.4312338177E-16   0.5750000009E+01
   0.1061500000E+01   0.9715500000E+00  -0.1032276934E-16  -0.2250000000E-02   0.6750000000E-03   0.1198305314E-17   0.6375000000E-01  -0.2912500000E-01  -0.1152107466E-16   0.5750000008E+01  -0.6669412411E-14  -0.7977376045E-14  -0.9297531830E-15  -0.4480020107E-15  -0.2760590167E-15   0.6150000009E-01  -0.2845000004E-01  -0.2845000004E-01   0.3397745551E-16   0.1731535009E-17  -0.3262245731E-16   0.5750000008E+01
   0.0000000000E+00   0.9715500000E+00   0.4662745157E-16   0.0000000000E+00   0.6750000000E-03  -0.6037125432E-18   0.0000000000E+00  -0.2912500000E-01   0.4723116411E-16   0.5750000008E+01   0.2628326187E-14   0.1361872102E-14  -0.3314837663E-15  -0.1427814003E-14  -0.1174245031E-14   0.6150000009E-01  -0.2845000004E-01  -0.2845000004E-01   0.5316794933E-16  -0.9447756539E-16  -0.1980019838E-16   0.5750000008E+01
   0.0000000000E+00   0.0000000000E+00   0.9715500000E+00   0.0000000000E+00   0.0000000000E+00   0.6750000000E-03   0.0000000000E+00   0.0000000000E+00  -0.2912500000E-01   0.5750000008E+01   0.4378529162E-14   0.6770080428E-14   0.8244511968E-16  -0.4952087920E-15   0.1503695693E-14   0.6150000009E-01  -0.2845000004E-01  -0.2845000004E-01   0.8722997338E-17  -0.1528814497E-15  -0.1514944771E-16   0.5750000008E+01
   0.1061500000E+01   0.0000000000E+00   0.9715500000E+00  -0.2250000000E-02   0.0000000000E+00   0.6750000000E-03   0.6375000000E-01   0.0000000000E+00  -0.2912500000E-01   0.5750000008E+01  -0.5459055932E-14  -0.1813789299E-14  -0.4890207957E-15   0.1409182777E-14   0.6564208619E-15   0.6150000009E-01  -0.2845000004E-01  -0.2845000004E-01   0.3466249890E-16   0.1653765585E-16   0.9619050688E-16   0.5750000008E+01
   0.1061500000E+01   0.9715500000E+00   0.9715500000E+00  -0.2250000000E-02   0.6750000000E-03   0.6750000000E-03   0.6375000000E-01  -0.2912500000E-01  -0.2912500000E-01   0.5750000008E+01   0.8988923929E-14   0.7270605328E-14   0.9610114367E-15  -0.2779851150E-15  -0.6080817414E-15   0.6150000008E-01  -0.2845000004E-01  -0.2845000004E-01   0.6971908646E-16  -0.2744058858E-16   0.4266129471E-17   0.5750000008E+01
   0.0000000000E+00   0.9715500000E+00   0.9715500000E+00   0.0000000000E+00   0.6750000000E-03   0.6750000000E-03   0.0000000000E+00  -0.2912500000E-01  -0.2912500000E-01   0.5750000008E+01  -0.2069372160E-14  -0.5019832800E-15   0.6737460488E-15   0.2486531707E-15  -0.2237535215E-14   0.6150000008E-01  -0.2845000004E-01  -0.2845000004E-01   0.5265268048E-16   0.1095800496E-16  -0.1454326196E-15   0.5750000008E+01
   0.2123000000E+01   0.0000000000E+00  -0.1023834358E-15  -0.4500000000E-02   0.0000000000E+00   0.6838327457E-17   0.1275000000E+00   0.0000000000E+00  -0.1092217632E-15   0.5750000009E+01  -0.7366948546E-14  -0.5469019699E-14  -0.1213046246E-14  -0.1321979513E-14  -0.1421891940E-14   0.6150000009E-01  -0.2845000004E-01  -0.2845000004E-01  -0.1297238922E-15  -0.2648051167E-15  -0.3437770606E-16   0.5750000009E+01
   0.2123000000E+01   0.9715500000E+00  -0.1245682662E-15  -0.4500000000E-02   0.6750000000E-03   0.5736274979E-17   0.1275000000E+00  -0.2912500000E-01  -0.1303045412E-15   0.5750000008E+01   0.1395192224E-13   0.1270180135E-13  -0.2290216961E-14   0.2014941690E-14   0.6776261401E-15   0.6150000009E-01  -0.2845000004E-01  -0.2845000004E-01  -0.3278553634E-15  -0.7007776985E-16   0.4748747203E-16   0.5750000008E+01
   0.2123000000E+01   0.0000000000E+00   0.9715500000E+00  -0.4500000000E-02   0.0000000000E+00   0.6750000000E-03   0.1275000000E+00   0.0000000000E+00  -0.2912500000E-01   0.5750000008E+01   0.8627228778E-14   0.4965824761E-14   0.1929435069E-14  -0.8646075821E-15  -0.2860290917E-15   0.6150000009E-01  -0.2845000004E-01  -0.2845000004E-01   0.1046945329E-15  -0.1315188912E-15  -0.1505352605E-16   0.5750000008E+01
   0.2123000000E+01   0.9715500000E+00   0.9715500000E+00  -0.4500000000E-02   0.6750000000E-03   0.6750000000E-03   0.1275000000E+00  -0.2912500000E-01  -0.2912500000E-01   0.5750000007E+01  -0.1582933737E-13  -0.1259223794E-13   0.2885076326E-14   0.2774622569E-15   0.3863279600E-15   0.6150000008E-01  -0.2845000004E-01  -0.2845000004E-01   0.1244197092E-15  -0.1852198704E-15   0.9030500007E-16   0.5750000007E+01
     1     2     3     4     5     6     7     8
     2     9    10     3     6    11    12     7
 VARIABLES = X,Y,Z,DU1,DU2,DU3,U1,U2,U3,S11,S22,S33,S12,S13,S23,E11,E22,E33,E12,E13,E23,SMISES
 ZONE, T="0.9350D+01" F=FEPOINT, I=   12 J=    2 ET=BRICK
   0.0000000000E+00   0.0000000000E+00   0.0000000000E+00   0.0000000000E+00   0.0000000000E+00   0.0000000000E+00   0.0000000000E+00   0.0000000000E+00   0.0000000000E+00   0.4625000007E+01  -0.6036674372E-14  -0.7942379036E-14   0.2300545784E-15  -0.7039014919E-15   0.7481823988E-15   0.5925000009E-01  -0.2777500004E-01  -0.2777500004E-01   0.3097918800E-17  -0.4773929650E-16   0.1028908958E-15   0.4625000007E+01
   0.1059250000E+01   0.0000000000E+00  -0.3369255757E-16  -0.2250000000E-02   0.0000000000E+00   0.4014619154E-18   0.6150000000E-01   0.0000000000E+00  -0.3409401948E-16   0.4625000007E+01   0.3246581171E-14   0.1752833805E-14  -0.2857173451E-15   0.8601422171E-15   0.7188944477E-15   0.5925000009E-01  -0.2777500004E-01  -0.2777500004E-01   0.8615935965E-16   0.7416957422E-16   0.4174770993E-16   0.4625000007E+01
   0.1059250000E+01   0.9722250000E+00  -0.1126036128E-16  -0.2250000000E-02   0.6750000000E-03  -0.9375919351E-18   0.6150000000E-01  -0.2845000000E-01  -0.1032276934E-16   0.4625000007E+01  -0.6332360032E-14  -0.7165027371E-14  -0.6481918970E-15  -0.8576888410E-15  -0.5740124567E-15   0.5925000008E-01  -0.2777500004E-01  -0.2777500004E-01   0.3638590452E-16  -0.6571618275E-16  -0.4485748483E-16   0.4625000007E+01
   0.0000000000E+00   0.9722250000E+00   0.4548298431E-16   0.0000000000E+00   0.6750000000E-03  -0.1144467256E-17   0.0000000000E+00  -0.2845000000E-01   0.4662745157E-16   0.4625000007E+01   0.2267503735E-14   0.1875083217E-14  -0.1030236927E-15  -0.1437832101E-14  -0.9643429708E-15   0.5925000009E-01  -0.2777500004E-01  -0.2777500004E-01   0.5130561167E-16  -0.9399690874E-16  -0.2478768695E-16   0.4625000007E+01
   0.0000000000E+00   0.0000000000E+00   0.9722250000E+00   0.0000000000E+00   0.0000000000E+00   0.6750000000E-03   0.0000000000E+00   0.0000000000E+00  -0.2845000000E-01   0.4625000007E+01   0.5042670118E-14   0.7468684627E-14   0.6015064778E-16  -0.3518132163E-15   0.1399273874E-14   0.5925000009E-01  -0.2777500004E-01  -0.2777500004E-01  -0.4238560976E-17  -0.1542524920E-15  -0.3324298193E-16   0.4625000007E+01
   0.1059250000E+01   0.0000000000E+00   0.9722250000E+00  -0.2250000000E-02   0.0000000000E+00   0.6750000000E-03   0.6150000000E-01   0.0000000000E+00  -0.2845000000E-01   0.4625000007E+01  -0.5595841014E-14  -0.1859870595E-14  -0.1069046411E-14   0.1578148440E-14   0.5157463472E-15   0.5925000008E-01  -0.2777500004E-01  -0.2777500004E-01   0.5305711881E-16  -0.4215925926E-18   0.9531841609E-16   0.4625000007E+01
   0.1059250000E+01   0.9722250000E+00   0.9722250000E+00  -0.2250000000E-02   0.6750000000E-03   0.6750000000E-03   0.6150000000E-01  -0.2845000000E-01  -0.2845000000E-01   0.4625000006E+01   0.8640982899E-14   0.6846834676E-14   0.4441988385E-15  -0.4334717025E-15  -0.7328419521E-15   0.5925000008E-01  -0.2777500004E-01  -0.2777500004E-01   0.8686729754E-16  -0.3049667448E-17   0.2579302983E-17   0.4625000006E+01
   0.0000000000E+00   0.9722250000E+00   0.9722250000E+00   0.0000000000E+00   0.6750000000E-03   0.6750000000E-03   0.0000000000E+00  -0.2845000000E-01  -0.2845000000E-01   0.4625000006E+01  -0.1965786951E-14  -0.6583574378E-15   0.3865661435E-15   0.1648396075E-15  -0.2039942091E-14   0.5925000008E-01  -0.2777500004E-01  -0.2777500004E-01   0.4271986228E-16  -0.1060226648E-16  -0.1362940184E-15   0.4625000006E+01
   0.2118500000E+01   0.0000000000E+00  -0.1026757172E-15  -0.4500000000E-02   0.0000000000E+00  -0.2922814348E-18   0.1230000000E+00   0.0000000000E+00  -0.1023834358E-15   0.4625000007E+01  -0.8025645125E-14  -0.5862312594E-14  -0.4072504931E-15  -0.1933360977E-15  -0.1110175584E-14   0.5925000009E-01  -0.2777500004E-01  -0.2777500004E-01  -0.1207869853E-15  -0.1408442979E-15  -0.4492581293E-16   0.4625000007E+01
   0.2118500000E+01   0.9722250000E+00  -0.1232883597E-15  -0.4500000000E-02   0.6750000000E-03   0.1279906489E-17   0.1230000000E+00  -0.2845000000E-01  -0.1245682662E-15   0.4625000006E+01   0.1480835946E-13   0.1305790887E-13  -0.1402603273E-14   0.9256956583E-15   0.1141319554E-14   0.5925000008E-01  -0.2777500004E-01  -0.2777500004E-01  -0.3074017403E-15  -0.1807017796E-15   0.5392818169E-16   0.4625000006E+01
   0.2118500000E+01   0.0000000000E+00   0.9722250000E+00  -0.4500000000E-02   0.0000000000E+00   0.6750000000E-03   0.1230000000E+00   0.0000000000E+00  -0.2845000000E-01   0.4625000006E+01   0.1017556253E-13   0.6084214122E-14   0.2741306878E-15  -0.1922369770E-15   0.6115971441E-16   0.5925000008E-01  -0.2777500004E-01  -0.2777500004E-01   0.4047361648E-16  -0.9418435460E-16   0.8693373265E-17   0.4625000006E+01
   0.2118500000E+01   0.9722250000E+00   0.9722250000E+00  -0.4500000000E-02   0.6750000000E-03   0.6750000000E-03   0.1230000000E+00  -0.2845000000E-01  -0.2845000000E-01   0.4625000006E+01  -0.1596267084E-13  -0.1295033819E-13   0.1530530165E-14  -0.8777849090E-15   0.8780523518E-15   0.5925000008E-01  -0.2777500004E-01  -0.2777500004E-01   0.1367094931E-15  -0.1437280036E-15   0.7223645704E-16   0.4625000006E+01
     1     2     3     4     5     6     7     8
     2     9    10     3     6    11    12     7
 VARIABLES = X,Y,Z,DU1,DU2,DU3,U1,U2,U3,S11,S22,S33,S12,S13,S23,E11,E22,E33,E12,E13,E23,SMISES
 ZONE, T="0.9400D+01" F=FEPOINT, I=   12 J=    2 ET=BRICK
   0.0000000000E+00   0.0000000000E+00   0.0000000000E+00   0.0000000000E+00   0.0000000000E+00   0.0000000000E+00   0.0000000000E+00   0.0000000000E+00   0.0000000000E+00   0.3500000005E+01  -0.5707059072E-14  -0.7981023273E-14   0.2370686094E-15  -0.8607318420E-15   0.9452375982E-15   0.5700000009E-01  -0.2710000004E-01  -0.2710000004E-01  -0.6751678710E-17  -0.5267108756E-16   0.9696766662E-16   0.3500000005E+01
   0.1057000000E+01   0.0000000000E+00  -0.3454666582E-16  -0.2250000000E-02   0.0000000000E+00  -0.8541082546E-18   0.5925000000E-01   0.0000000000E+00  -0.3369255757E-16   0.3500000005E+01   0.3150433056E-14   0.1727070992E-14  -0.3196067100E-15   0.8725828059E-15   0.8191724427E-15   0.5700000009E-01  -0.2710000004E-01  -0.2710000004E-01   0.9753339904E-16   0.5774114330E-16   0.4835307430E-16   0.3500000005E+01
   0.1057000000E+01   0.9729000000E+00  -0.1156245821E-16  -0.2250000000E-02   0.6750000000E-03  -0.3020969348E-18   0.5925000000E-01  -0.2777500000E-01  -0.1126036128E-16   0.3500000005E+01  -0.6691189703E-14  -0.7716153297E-14  -0.7300943842E-15  -0.5750351339E-15  -0.4745917975E-15   0.5700000008E-01  -0.2710000004E-01  -0.2710000004E-01   0.3831275824E-16   0.1677946054E-17  -0.4487572108E-16   0.3500000005E+01
   0.0000000000E+00   0.9729000000E+00   0.4638909898E-16   0.0000000000E+00   0.6750000000E-03   0.9061146654E-18   0.0000000000E+00  -0.2777500000E-01   0.4548298431E-16   0.3500000005E+01   0.2062326092E-14   0.1311075868E-14  -0.2232122325E-15  -0.1595996651E-14  -0.9480755167E-15   0.5700000008E-01  -0.2710000004E-01  -0.2710000004E-01   0.5115296977E-16  -0.1106503110E-15  -0.2260013758E-16   0.3500000005E+01
   0.0000000000E+00   0.0000000000E+00   0.9729000000E+00   0.0000000000E+00   0.0000000000E+00   0.6750000000E-03   0.0000000000E+00   0.0000000000E+00  -0.2777500000E-01   0.3500000005E+01   0.5308803276E-14   0.7725387939E-14   0.7798097805E-16  -0.4711773218E-15   0.1399805194E-14   0.5700000008E-01  -0.2710000004E-01  -0.2710000004E-01   0.1095056540E-16  -0.1704921310E-15  -0.2638198399E-16   0.3500000005E+01
   0.1057000000E+01   0.0000000000E+00   0.9729000000E+00  -0.2250000000E-02   0.0000000000E+00   0.6750000000E-03   0.5925000000E-01   0.0000000000E+00  -0.2777500000E-01   0.3500000005E+01  -0.5499692874E-14  -0.1501040899E-14  -0.5737541657E-15   0.1396137463E-14   0.4884130291E-15   0.5700000008E-01  -0.2710000004E-01  -0.2710000004E-01   0.4544539250E-16   0.7708937207E-17   0.8449183603E-16   0.3500000005E+01
   0.1057000000E+01   0.9729000000E+00   0.9729000000E+00  -0.2250000000E-02   0.6750000000E-03   0.6750000000E-03   0.5925000000E-01  -0.2777500000E-01  -0.2777500000E-01   0.3500000005E+01   0.9140583198E-14   0.7013368117E-14   0.8132638280E-15  -0.4829527210E-16  -0.7401648066E-15   0.5700000007E-01  -0.2710000004E-01  -0.2710000004E-01   0.8553701629E-16  -0.3347855992E-16  -0.9687356409E-17   0.3500000005E+01
   0.0000000000E+00   0.9729000000E+00   0.9729000000E+00   0.0000000000E+00   0.6750000000E-03   0.6750000000E-03   0.0000000000E+00  -0.2777500000E-01  -0.2777500000E-01   0.3500000005E+01  -0.1568313020E-14  -0.9435010091E-16   0.4797722616E-15  -0.6969782873E-16  -0.2039515670E-14   0.5700000008E-01  -0.2710000004E-01  -0.2710000004E-01   0.3843069330E-16   0.1697739089E-16  -0.1419348708E-15   0.3500000005E+01
   0.2114000000E+01   0.0000000000E+00  -0.1052386679E-15  -0.4500000000E-02   0.0000000000E+00  -0.2562950642E-17   0.1185000000E+00   0.0000000000E+00  -0.1026757172E-15   0.3500000005E+01  -0.7356059826E-14  -0.5490601474E-14  -0.5705709452E-15  -0.4804156291E-15  -0.1211800717E-14   0.5700000009E-01  -0.2710000004E-01  -0.2710000004E-01  -0.1052613273E-15  -0.2426380274E-15  -0.4276931478E-16   0.3500000005E+01
   0.2114000000E+01   0.9729000000E+00  -0.1264485510E-15  -0.4500000000E-02   0.6750000000E-03  -0.3160191261E-17   0.1185000000E+00  -0.2777500000E-01  -0.1232883597E-15   0.3500000005E+01   0.1482124087E-13   0.1357039059E-13  -0.1614280331E-14   0.1215276798E-14   0.9347301473E-15   0.5700000008E-01  -0.2710000004E-01  -0.2710000004E-01  -0.2820391701E-15  -0.9615698680E-16   0.4419927602E-16   0.3500000005E+01
   0.2114000000E+01   0.0000000000E+00   0.9729000000E+00  -0.4500000000E-02   0.0000000000E+00   0.6750000000E-03   0.1185000000E+00   0.0000000000E+00  -0.2777500000E-01   0.3500000005E+01   0.9960955050E-14   0.6263628995E-14   0.7797793886E-15  -0.6968410456E-15   0.2858929703E-16   0.5700000008E-01  -0.2710000004E-01  -0.2710000004E-01   0.7126168217E-16  -0.1393141230E-15   0.9782673042E-18   0.3500000005E+01
   0.2114000000E+01   0.9729000000E+00   0.9729000000E+00  -0.4500000000E-02   0.6750000000E-03   0.6750000000E-03   0.1185000000E+00  -0.2777500000E-01  -0.2777500000E-01   0.3500000004E+01  -0.1616784849E-13  -0.1279668613E-13   0.1838711103E-14  -0.2537322059E-15   0.7370284392E-15   0.5700000007E-01  -0.2710000003E-01  -0.2710000003E-01   0.9902638760E-16  -0.1078284244E-15   0.8005935910E-16   0.3500000004E+01
     1     2     3     4     5     6     7     8
     2     9    10     3     6    11    12     7
 VARIABLES = X,Y,Z,DU1,DU2,DU3,U1,U2,U3,S11,S22,S33,S12,S13,S23,E11,E22,E33,E12,E13,E23,SMISES
 ZONE, T="0.9450D+01" F=FEPOINT, I=   12 J=    2 ET=BRICK
   0.0000000000E+00   0.0000000000E+00   0.0000000000E+00   0.0000000000E+00   0.0000000000E+00   0.0000000000E+00   0.0000000000E+00   0.0000000000E+00   0.0000000000E+00   0.2375000004E+01  -0.5078742431E-14  -0.7465089988E-14   0.2697857248E-15  -0.6537475608E-15   0.8267335523E-15   0.5475000009E-01  -0.2642500004E-01  -0.2642500004E-01  -0.4137673809E-17  -0.3708235039E-16   0.9727346750E-16   0.2375000004E+01
   0.1054750000E+01   0.0000000000E+00  -0.3313793744E-16  -0.2250000000E-02   0.0000000000E+00   0.1408728382E-17   0.5700000000E-01   0.0000000000E+00  -0.3454666582E-16   0.2375000004E+01   0.2890473657E-14   0.1656685683E-14  -0.4655725676E-15   0.5160445052E-15   0.7908484854E-15   0.5475000008E-01  -0.2642500004E-01  -0.2642500004E-01   0.8871743183E-16   0.4486945840E-16   0.4708701768E-16   0.2375000004E+01
   0.1054750000E+01   0.9735750000E+00  -0.1035874706E-16  -0.2250000000E-02   0.6750000000E-03   0.1203711159E-17   0.5700000000E-01  -0.2710000000E-01  -0.1156245821E-16   0.2375000003E+01  -0.6483289911E-14  -0.7401946119E-14  -0.8889714804E-15  -0.6514013666E-15  -0.4545843554E-15   0.5475000008E-01  -0.2642500004E-01  -0.2642500004E-01   0.3702161490E-16  -0.2586463802E-16  -0.5317826152E-16   0.2375000003E+01
   0.0000000000E+00   0.9735750000E+00   0.4584697088E-16   0.0000000000E+00   0.6750000000E-03  -0.5421280936E-18   0.0000000000E+00  -0.2710000000E-01   0.4638909898E-16   0.2375000003E+01   0.2373446443E-14   0.2089690731E-14  -0.6767517765E-16  -0.1360036616E-14  -0.8997895148E-15   0.5475000008E-01  -0.2642500004E-01  -0.2642500004E-01   0.5633720893E-16  -0.9895417335E-16  -0.2447725578E-16   0.2375000003E+01
   0.0000000000E+00   0.0000000000E+00   0.9735750000E+00   0.0000000000E+00   0.0000000000E+00   0.6750000000E-03   0.0000000000E+00   0.0000000000E+00  -0.2710000000E-01   0.2375000003E+01   0.4592771976E-14   0.6860054820E-14   0.7882232343E-16  -0.3051685952E-15   0.1357719078E-14   0.5475000008E-01  -0.2642500004E-01  -0.2642500004E-01   0.1546391205E-17  -0.1359250890E-15  -0.3030323350E-16   0.2375000003E+01
   0.1054750000E+01   0.0000000000E+00   0.9735750000E+00  -0.2250000000E-02   0.0000000000E+00   0.6750000000E-03   0.5700000000E-01   0.0000000000E+00  -0.2710000000E-01   0.2375000003E+01  -0.5545044813E-14  -0.1693337183E-14  -0.5063843800E-15   0.1218565267E-14   0.5358666528E-15   0.5475000008E-01  -0.2642500004E-01  -0.2642500004E-01   0.6168789742E-16  -0.2006468229E-16   0.9207473148E-16   0.2375000003E+01
   0.1054750000E+01   0.9735750000E+00   0.9735750000E+00  -0.2250000000E-02   0.6750000000E-03   0.6750000000E-03   0.5700000000E-01  -0.2710000000E-01  -0.2710000000E-01   0.2375000003E+01   0.8880623799E-14   0.6750686553E-14   0.1041772365E-14  -0.1221451147E-15  -0.6181379788E-15   0.5475000007E-01  -0.2642500003E-01  -0.2642500003E-01   0.7749513317E-16  -0.3303195264E-16   0.4068035615E-17   0.2375000003E+01
   0.0000000000E+00   0.9735750000E+00   0.9735750000E+00   0.0000000000E+00   0.6750000000E-03   0.6750000000E-03   0.0000000000E+00  -0.2710000000E-01  -0.2710000000E-01   0.2375000003E+01  -0.1866284983E-14  -0.4695127673E-15   0.4657355649E-15   0.2899649807E-15  -0.1935295264E-14   0.5475000007E-01  -0.2642500004E-01  -0.2642500004E-01   0.4244680329E-16   0.5830696359E-17  -0.1543259212E-15   0.2375000003E+01
   0.2109500000E+01   0.0000000000E+00  -0.9977622202E-16  -0.4500000000E-02   0.0000000000E+00   0.5462445838E-17   0.1140000000E+00   0.0000000000E+00  -0.1052386679E-15   0.2375000004E+01  -0.8408147203E-14  -0.6147305422E-14  -0.4612018412E-15  -0.3015479806E-15  -0.1399246652E-14   0.5475000008E-01  -0.2642500004E-01  -0.2642500004E-01  -0.1257237158E-15  -0.2208510447E-15  -0.4234840623E-16   0.2375000004E+01
   0.2109500000E+01   0.9735750000E+00  -0.1219163599E-15  -0.4500000000E-02   0.6750000000E-03   0.4532191117E-17   0.1140000000E+00  -0.2710000000E-01  -0.1264485510E-15   0.2375000003E+01   0.1432326858E-13   0.1317636822E-13  -0.1645521242E-14   0.1236401753E-14   0.9980860930E-15   0.5475000008E-01  -0.2642500004E-01  -0.2642500004E-01  -0.2758236173E-15  -0.1031024025E-15   0.4910567568E-16   0.2375000003E+01
   0.2109500000E+01   0.0000000000E+00   0.9735750000E+00  -0.4500000000E-02   0.0000000000E+00   0.6750000000E-03   0.1140000000E+00   0.0000000000E+00  -0.2710000000E-01   0.2375000003E+01   0.9650564089E-14   0.5834413968E-14   0.7438790855E-15  -0.6107223626E-15  -0.1537361371E-15   0.5475000008E-01  -0.2642500004E-01  -0.2642500004E-01   0.7004970894E-16  -0.1676727358E-17  -0.1555732007E-16   0.2375000003E+01
   0.2109500000E+01   0.9735750000E+00   0.9735750000E+00  -0.4500000000E-02   0.6750000000E-03   0.6750000000E-03   0.1140000000E+00  -0.2710000000E-01  -0.2710000000E-01   0.2375000003E+01  -0.1629364726E-13  -0.1294688664E-13   0.1860247149E-14  -0.6160707105E-15   0.7226771075E-15   0.5475000007E-01  -0.2642500003E-01  -0.2642500003E-01   0.6893191533E-16  -0.2229672074E-15   0.8613696242E-16   0.2375000003E+01
     1     2     3     4     5     6     7     8
     2     9    10     3     6    11    12     7
 VARIABLES = X,Y,Z,DU1,DU2,DU3,U1,U2,U3,S11,S22,S33,S12,S13,S23,E11,E22,E33,E12,E13,E23,SMISES
 ZONE, T="0.9500D+01" F=FEPOINT, I=   12 J=    2 ET=BRICK
   0.0000000000E+00   0.0000000000E+00   0.0000000000E+00   0.0000000000E+00   0.0000000000E+00   0.0000000000E+00   0.0000000000E+00   0.0000000000E+00   0.0000000000E+00   0.1250000002E+01  -0.5248496202E-14  -0.7730311346E-14   0.2646642838E-15  -0.7101869117E-15   0.8747351891E-15   0.5250000008E-01  -0.2575000004E-01  -0.2575000004E-01  -0.1776314431E-17  -0.4452181299E-16   0.8553915342E-16   0.1250000002E+01
   0.1052500000E+01   0.0000000000E+00  -0.3362298970E-16  -0.2250000000E-02   0.0000000000E+00  -0.4850522662E-18   0.5475000000E-01   0.0000000000E+00  -0.3313793744E-16   0.1250000002E+01   0.2901629289E-14   0.1679361633E-14  -0.4636240958E-15   0.7963756705E-15   0.8240982411E-15   0.5250000008E-01  -0.2575000004E-01  -0.2575000004E-01   0.8221246293E-16   0.2135945446E-16   0.5392874867E-16   0.1250000002E+01
   0.1052500000E+01   0.9742500000E+00  -0.1074317789E-16  -0.2250000000E-02   0.6750000000E-03  -0.3844308349E-18   0.5475000000E-01  -0.2642500000E-01  -0.1035874706E-16   0.1250000002E+01  -0.6533089744E-14  -0.7560410788E-14  -0.9584319733E-15  -0.3758443816E-15  -0.5090065041E-15   0.5250000007E-01  -0.2575000004E-01  -0.2575000004E-01   0.2446772193E-16  -0.5835913702E-16  -0.6940692999E-16   0.1250000002E+01
   0.0000000000E+00   0.9742500000E+00   0.4612160739E-16   0.0000000000E+00   0.6750000000E-03   0.2746365110E-18   0.0000000000E+00  -0.2642500000E-01   0.4584697088E-16   0.1250000002E+01   0.2381381707E-14   0.1804284340E-14  -0.1262127984E-15  -0.1522272980E-14  -0.9017324056E-15   0.5250000008E-01  -0.2575000004E-01  -0.2575000004E-01   0.5715282468E-16  -0.7333677078E-16   0.8418276364E-18   0.1250000002E+01
   0.0000000000E+00   0.0000000000E+00   0.9742500000E+00   0.0000000000E+00   0.0000000000E+00   0.6750000000E-03   0.0000000000E+00   0.0000000000E+00  -0.2642500000E-01   0.1250000002E+01   0.5243266387E-14   0.7700305666E-14   0.1023060630E-15  -0.4530633865E-15   0.1367080119E-14   0.5250000008E-01  -0.2575000004E-01  -0.2575000004E-01  -0.4703109072E-17  -0.1674046504E-15  -0.1521745546E-16   0.1250000002E+01
   0.1052500000E+01   0.0000000000E+00   0.9742500000E+00  -0.2250000000E-02   0.0000000000E+00   0.6750000000E-03   0.5475000000E-01   0.0000000000E+00  -0.2642500000E-01   0.1250000002E+01  -0.5498696519E-14  -0.1629027860E-14  -0.6166769152E-15   0.1429207146E-14   0.5348580090E-15   0.5250000007E-01  -0.2575000004E-01  -0.2575000004E-01   0.6643114261E-16   0.2918126036E-16   0.7306476240E-16   0.1250000002E+01
   0.1052500000E+01   0.9742500000E+00   0.9742500000E+00  -0.2250000000E-02   0.6750000000E-03   0.6750000000E-03   0.5475000000E-01  -0.2642500000E-01  -0.2642500000E-01   0.1250000002E+01   0.8843705367E-14   0.6725288440E-14   0.9453445577E-15   0.2823619913E-16  -0.6612423114E-15   0.5250000007E-01  -0.2575000003E-01  -0.2575000003E-01   0.1030060190E-15  -0.4985937918E-16   0.3802119658E-16   0.1250000002E+01
   0.0000000000E+00   0.9742500000E+00   0.9742500000E+00   0.0000000000E+00   0.6750000000E-03   0.6750000000E-03   0.0000000000E+00  -0.2642500000E-01  -0.2642500000E-01   0.1250000002E+01  -0.1723557345E-14  -0.3917749816E-15   0.3860973044E-15   0.1613402562E-15  -0.2024422444E-14   0.5250000007E-01  -0.2575000003E-01  -0.2575000003E-01   0.3184649095E-16   0.1531169129E-16  -0.1487035285E-15   0.1250000002E+01
   0.2105000000E+01   0.0000000000E+00  -0.1013289667E-15  -0.4500000000E-02   0.0000000000E+00  -0.1552744646E-17   0.1095000000E+00   0.0000000000E+00  -0.9977622202E-16   0.1250000002E+01  -0.7831489637E-14  -0.5692509940E-14  -0.6411260392E-15  -0.1988817057E-15  -0.1379300270E-14   0.5250000008E-01  -0.2575000004E-01  -0.2575000004E-01  -0.1320279231E-15  -0.1781791317E-15  -0.4506369015E-16   0.1250000002E+01
   0.2105000000E+01   0.9742500000E+00  -0.1233085850E-15  -0.4500000000E-02   0.6750000000E-03  -0.1392225096E-17   0.1095000000E+00  -0.2642500000E-01  -0.1219163599E-15   0.1250000002E+01   0.1488877052E-13   0.1363846729E-13  -0.1802296293E-14   0.1178354825E-14   0.1046372010E-14   0.5250000007E-01  -0.2575000004E-01  -0.2575000004E-01  -0.2916064338E-15  -0.1716567246E-15   0.6399405171E-16   0.1250000002E+01
   0.2105000000E+01   0.0000000000E+00   0.9742500000E+00  -0.4500000000E-02   0.0000000000E+00   0.6750000000E-03   0.1095000000E+00   0.0000000000E+00  -0.2642500000E-01   0.1250000002E+01   0.9765803135E-14   0.5782937215E-14   0.8071870691E-15  -0.1959076969E-15  -0.1298504970E-15   0.5250000007E-01  -0.2575000004E-01  -0.2575000004E-01   0.6307496391E-16  -0.2191492478E-15  -0.1195113797E-17   0.1250000002E+01
   0.2105000000E+01   0.9742500000E+00   0.9742500000E+00  -0.4500000000E-02   0.6750000000E-03   0.6750000000E-03   0.1095000000E+00  -0.2642500000E-01  -0.2642500000E-01   0.1250000002E+01  -0.1612561923E-13  -0.1293119843E-13   0.2004421078E-14  -0.7571863309E-15   0.7791965868E-15   0.5250000007E-01  -0.2575000003E-01  -0.2575000003E-01   0.6353043671E-16  -0.1395338399E-15   0.8866353364E-16   0.1250000002E+01
     1     2     3     4     5     6     7     8
     2     9    10     3     6    11    12     7
 VARIABLES = X,Y,Z,DU1,DU2,DU3,U1,U2,U3,S11,S22,S33,S12,S13,S23,E11,E22,E33,E12,E13,E23,SMISES
 ZONE, T="0.9550D+01" F=FEPOINT, I=   12 J=    2 ET=BRICK
   0.0000000000E+00   0.0000000000E+00   0.0000000000E+00   0.0000000000E+00   0.0000000000E+00   0.0000000000E+00   0.0000000000E+00   0.0000000000E+00   0.0000000000E+00   0.1250000002E+00  -0.5597239524E-14  -0.8072829683E-14   0.2837066521E-15  -0.6530843931E-15   0.8716217529E-15   0.5025000008E-01  -0.2507500004E-01  -0.2507500004E-01  -0.2508823131E-17  -0.4589485986E-16   0.8817737403E-16   0.1250000002E+00
   0.1050250000E+01   0.0000000000E+00  -0.3377986422E-16  -0.2250000000E-02   0.0000000000E+00  -0.1568745121E-18   0.5250000000E-01   0.0000000000E+00  -0.3362298970E-16   0.1250000002E+00   0.2773836908E-14   0.1539119287E-14  -0.4006562955E-15   0.4996086341E-15   0.7527149100E-15   0.5025000008E-01  -0.2507500004E-01  -0.2507500004E-01   0.7870709467E-16   0.4163170384E-16   0.4855901561E-16   0.1250000002E+00
   0.1050250000E+01   0.9749250000E+00  -0.1121949498E-16  -0.2250000000E-02   0.6750000000E-03  -0.4763170851E-18   0.5250000000E-01  -0.2575000000E-01  -0.1074317789E-16   0.1250000002E+00  -0.6626378950E-14  -0.7656488899E-14  -0.7971074074E-15  -0.5528887431E-15  -0.5229680327E-15   0.5025000007E-01  -0.2507500004E-01  -0.2507500004E-01   0.2621958961E-16  -0.6119972559E-16  -0.6103981101E-16   0.1250000002E+00
   0.0000000000E+00   0.9749250000E+00   0.4596797518E-16   0.0000000000E+00   0.6750000000E-03  -0.1536322095E-18   0.0000000000E+00  -0.2575000000E-01   0.4612160739E-16   0.1250000002E+00   0.2083688181E-14   0.1678601949E-14  -0.8864045402E-16  -0.1551839514E-14  -0.9022375019E-15   0.5025000007E-01  -0.2507500004E-01  -0.2507500004E-01   0.6642702141E-16  -0.9937675161E-16  -0.4647997246E-17   0.1250000002E+00
   0.0000000000E+00   0.0000000000E+00   0.9749250000E+00   0.0000000000E+00   0.0000000000E+00   0.6750000000E-03   0.0000000000E+00   0.0000000000E+00  -0.2575000000E-01   0.1250000002E+00   0.4906570493E-14   0.7250238964E-14   0.9577574030E-16  -0.4371122091E-15   0.1365684661E-14   0.5025000007E-01  -0.2507500004E-01  -0.2507500004E-01  -0.9033979946E-18  -0.1529742967E-15  -0.1785427478E-16   0.1250000002E+00
   0.1050250000E+01   0.0000000000E+00   0.9749250000E+00  -0.2250000000E-02   0.0000000000E+00   0.6750000000E-03   0.5250000000E-01   0.0000000000E+00  -0.2575000000E-01   0.1250000002E+00  -0.5468264382E-14  -0.1588187383E-14  -0.6267549938E-15   0.1412355215E-14   0.5132779304E-15   0.5025000007E-01  -0.2507500004E-01  -0.2507500004E-01   0.6232706365E-16  -0.7563428053E-17   0.8737266585E-16   0.1250000002E+00
   0.1050250000E+01   0.9749250000E+00   0.9749250000E+00  -0.2250000000E-02   0.6750000000E-03   0.6750000000E-03   0.5250000000E-01  -0.2575000000E-01  -0.2575000000E-01   0.1250000002E+00   0.8881972669E-14   0.6783625139E-14   0.8502064604E-15  -0.1315441121E-15  -0.6685098322E-15   0.5025000007E-01  -0.2507500003E-01  -0.2507500003E-01   0.7576188977E-16  -0.5196004404E-16   0.1445144629E-16   0.1250000002E+00
   0.0000000000E+00   0.9749250000E+00   0.9749250000E+00   0.0000000000E+00   0.6750000000E-03   0.6750000000E-03   0.0000000000E+00  -0.2575000000E-01  -0.2575000000E-01   0.1250000002E+00  -0.1848111070E-14  -0.4639133634E-15   0.4325789866E-15   0.1699638952E-15  -0.1952256083E-14   0.5025000007E-01  -0.2507500003E-01  -0.2507500003E-01   0.4706179488E-16   0.3337210306E-16  -0.1464343431E-15   0.1250000002E+00
   0.2100500000E+01   0.0000000000E+00  -0.1030373889E-15  -0.4500000000E-02   0.0000000000E+00  -0.1708422257E-17   0.1050000000E+00   0.0000000000E+00  -0.1013289667E-15   0.1250000002E+00  -0.7784794973E-14  -0.5900345847E-14  -0.6318255044E-15  -0.7749164273E-16  -0.1227436028E-14   0.5025000008E-01  -0.2507500004E-01  -0.2507500004E-01  -0.8333608319E-16  -0.1648180252E-15  -0.4190373719E-16   0.1250000002E+00
   0.2100500000E+01   0.9749250000E+00  -0.1242500763E-15  -0.4500000000E-02   0.6750000000E-03  -0.9414913551E-18   0.1050000000E+00  -0.2575000000E-01  -0.1233085850E-15   0.1250000002E+00   0.1502498579E-13   0.1362348810E-13  -0.1680610931E-14   0.1136420228E-14   0.1005323804E-14   0.5025000007E-01  -0.2507500004E-01  -0.2507500004E-01  -0.2721353660E-15  -0.3032474687E-15   0.4937293018E-16   0.1250000002E+00
   0.2100500000E+01   0.0000000000E+00   0.9749250000E+00  -0.4500000000E-02   0.0000000000E+00   0.6750000000E-03   0.1050000000E+00   0.0000000000E+00  -0.2575000000E-01   0.1250000002E+00   0.9813763241E-14   0.5866579222E-14   0.8367409573E-15  -0.5761220475E-15   0.3891029044E-16   0.5025000007E-01  -0.2507500004E-01  -0.2507500004E-01   0.2109563666E-16  -0.1563635345E-15  -0.4185587134E-17   0.1250000002E+00
   0.2100500000E+01   0.9749250000E+00   0.9749250000E+00  -0.4500000000E-02   0.6750000000E-03   0.6750000000E-03   0.1050000000E+00  -0.2575000000E-01  -0.2575000000E-01   0.1250000002E+00  -0.1595017812E-13  -0.1261673931E-13   0.1917697800E-14  -0.3785053995E-15   0.7468536423E-15   0.5025000006E-01  -0.2507500003E-01  -0.2507500003E-01   0.1233832642E-15  -0.1310326180E-15   0.9592151434E-16   0.1250000002E+00
     1     2     3     4     5     6     7     8
     2     9    10     3     6    11    12     7
 VARIABLES = X,Y,Z,DU1,DU2,DU3,U1,U2,U3,S11,S22,S33,S12,S13,S23,E11,E22,E33,E12,E13,E23,SMISES
 ZONE, T="0.9600D+01" F=FEPOINT, I=   12 J=    2 ET=BRICK
   0.0000000000E+00   0.0000000000E+00   0.0000000000E+00   0.0000000000E+00   0.0000000000E+00   0.0000000000E+00   0.0000000000E+00   0.0000000000E+00   0.0000000000E+00  -0.1000000002E+01  -0.5240062742E-14  -0.7734078752E-14   0.2929834494E-15  -0.5838275401E-15   0.9365646175E-15   0.4800000008E-01  -0.2440000004E-01  -0.2440000004E-01   0.1836005124E-17  -0.4989047708E-16   0.8638250547E-16   0.1000000002E+01
   0.1048000000E+01   0.0000000000E+00  -0.3371281822E-16  -0.2250000000E-02   0.0000000000E+00   0.6704599475E-19   0.5025000000E-01   0.0000000000E+00  -0.3377986422E-16  -0.1000000002E+01   0.2876595882E-14   0.1635370818E-14  -0.4154158262E-15   0.5117654102E-15   0.7541878735E-15   0.4800000007E-01  -0.2440000004E-01  -0.2440000004E-01   0.7543842839E-16   0.3951599668E-16   0.4775889679E-16   0.1000000002E+01
   0.1048000000E+01   0.9756000000E+00  -0.1122891309E-16  -0.2250000000E-02   0.6750000000E-03  -0.9418115976E-20   0.5025000000E-01  -0.2507500000E-01  -0.1121949498E-16  -0.1000000001E+01  -0.6474856436E-14  -0.7509979264E-14  -0.8295048146E-15  -0.4626657088E-15  -0.5701267246E-15   0.4800000007E-01  -0.2440000003E-01  -0.2440000003E-01   0.3490939076E-16  -0.5330162376E-16  -0.3382619633E-16   0.1000000001E+01
   0.0000000000E+00   0.9756000000E+00   0.4631387785E-16   0.0000000000E+00   0.6750000000E-03   0.3459026697E-18   0.0000000000E+00  -0.2507500000E-01   0.4596797518E-16  -0.1000000001E+01   0.2306548459E-14   0.1700516791E-14  -0.1674623217E-15  -0.1672994803E-14  -0.9671737888E-15   0.4800000007E-01  -0.2440000004E-01  -0.2440000004E-01   0.4861971133E-16  -0.8828699004E-16  -0.3300422278E-16   0.1000000001E+01
   0.0000000000E+00   0.0000000000E+00   0.9756000000E+00   0.0000000000E+00   0.0000000000E+00   0.6750000000E-03   0.0000000000E+00   0.0000000000E+00  -0.2507500000E-01  -0.1000000001E+01   0.5244627478E-14   0.7764797335E-14   0.1152553541E-15  -0.5260415806E-15   0.1348136778E-14   0.4800000007E-01  -0.2440000004E-01  -0.2440000004E-01   0.1135100247E-16  -0.1564282697E-15   0.5445619704E-17   0.1000000001E+01
   0.1048000000E+01   0.0000000000E+00   0.9756000000E+00  -0.2250000000E-02   0.0000000000E+00   0.6750000000E-03   0.5025000000E-01   0.0000000000E+00  -0.2507500000E-01  -0.1000000001E+01  -0.5470940950E-14  -0.1565714923E-14  -0.6684608951E-15   0.1552956970E-14   0.5250341287E-15   0.4800000007E-01  -0.2440000003E-01  -0.2440000003E-01   0.3496345412E-16   0.6082361669E-17   0.8613926634E-16   0.1000000001E+01
   0.1048000000E+01   0.9756000000E+00   0.9756000000E+00  -0.2250000000E-02   0.6750000000E-03   0.6750000000E-03   0.5025000000E-01  -0.2507500000E-01  -0.2507500000E-01  -0.1000000001E+01   0.8871460937E-14   0.6913501443E-14   0.8311409354E-15  -0.1776138360E-15  -0.6409280312E-15   0.4800000006E-01  -0.2440000003E-01  -0.2440000003E-01   0.9060229097E-16  -0.5094875427E-16   0.5370769643E-18   0.1000000001E+01
   0.0000000000E+00   0.9756000000E+00   0.9756000000E+00   0.0000000000E+00   0.6750000000E-03   0.6750000000E-03   0.0000000000E+00  -0.2507500000E-01  -0.2507500000E-01  -0.1000000001E+01  -0.1566818449E-14  -0.1927221784E-15   0.4349547700E-15   0.2279258790E-15  -0.2018338919E-14   0.4800000006E-01  -0.2440000003E-01  -0.2440000003E-01   0.5019202410E-16   0.1672103726E-16  -0.1385143834E-15   0.1000000001E+01
   0.2096000000E+01   0.0000000000E+00  -0.1033708007E-15  -0.4500000000E-02   0.0000000000E+00  -0.3334118064E-18   0.1005000000E+00   0.0000000000E+00  -0.1030373889E-15  -0.1000000002E+01  -0.7784411957E-14  -0.5648834962E-14  -0.5534549790E-15  -0.2797281521E-15  -0.1178782410E-14   0.4800000007E-01  -0.2440000004E-01  -0.2440000004E-01  -0.1162435924E-15  -0.2693575952E-15  -0.3656206881E-16   0.1000000002E+01
   0.2096000000E+01   0.9756000000E+00  -0.1243993312E-15  -0.4500000000E-02   0.6750000000E-03  -0.1492548694E-18   0.1005000000E+00  -0.2507500000E-01  -0.1242500763E-15  -0.1000000001E+01   0.1501911491E-13   0.1353234226E-13  -0.1713817764E-14   0.9897347651E-15   0.1027849795E-14   0.4800000007E-01  -0.2440000003E-01  -0.2440000003E-01  -0.2855170649E-15  -0.1269670094E-15   0.2786028885E-16   0.1000000001E+01
   0.2096000000E+01   0.0000000000E+00   0.9756000000E+00  -0.4500000000E-02   0.0000000000E+00   0.6750000000E-03   0.1005000000E+00   0.0000000000E+00  -0.2507500000E-01  -0.1000000001E+01   0.9592464278E-14   0.5867382647E-14   0.6012353568E-15  -0.6158082765E-15  -0.8704774849E-16   0.4800000007E-01  -0.2440000003E-01  -0.2440000003E-01   0.8191796802E-16  -0.1750585449E-15  -0.3380049000E-17   0.1000000001E+01
   0.2096000000E+01   0.9756000000E+00   0.9756000000E+00  -0.4500000000E-02   0.6750000000E-03   0.6750000000E-03   0.1005000000E+00  -0.2507500000E-01  -0.2507500000E-01  -0.1000000001E+01  -0.1662086932E-13  -0.1345860317E-13   0.1729183647E-14  -0.9686735988E-15   0.7168220253E-15   0.4800000006E-01  -0.2440000003E-01  -0.2440000003E-01   0.7926170002E-16  -0.1388034887E-15   0.1061723093E-15   0.1000000001E+01
     1     2     3     4     5     6     7     8
     2     9    10     3     6    11    12     7
 VARIABLES = X,Y,Z,DU1,DU2,DU3,U1,U2,U3,S11,S22,S33,S12,S13,S23,E11,E22,E33,E12,E13,E23,SMISES
 ZONE, T="0.9650D+01" F=FEPOINT, I=   12 J=    2 ET=BRICK
   0.0000000000E+00   0.0000000000E+00   0.0000000000E+00   0.0000000000E+00   0.0000000000E+00   0.0000000000E+00   0.0000000000E+00   0.0000000000E+00   0.0000000000E+00  -0.2125000003E+01  -0.5489364718E-14  -0.8169236264E-14   0.2934529934E-15  -0.7115057235E-15   0.9802991853E-15   0.4575000007E-01  -0.2372500004E-01  -0.2372500004E-01   0.5908144476E-17  -0.5017243054E-16   0.8715862631E-16   0.2125000003E+01
   0.1045750000E+01   0.0000000000E+00  -0.3411417390E-16  -0.2250000000E-02   0.0000000000E+00  -0.4013556739E-18   0.4800000000E-01   0.0000000000E+00  -0.3371281822E-16  -0.2125000003E+01   0.2836955262E-14   0.1578133862E-14  -0.3372194176E-15   0.6272267180E-15   0.8214419299E-15   0.4575000007E-01  -0.2372500004E-01  -0.2372500004E-01   0.8430866429E-16   0.5748992766E-16   0.5112604000E-16   0.2125000003E+01
   0.1045750000E+01   0.9762750000E+00  -0.1124324211E-16  -0.2250000000E-02   0.6750000000E-03  -0.1432901852E-19   0.4800000000E-01  -0.2440000000E-01  -0.1122891309E-16  -0.2125000003E+01  -0.6738534386E-14  -0.7887401655E-14  -0.8284985166E-15  -0.3795577063E-15  -0.4777843105E-15   0.4575000007E-01  -0.2372500003E-01  -0.2372500003E-01   0.2870973792E-16  -0.8648760686E-16  -0.3813426031E-16   0.2125000003E+01
   0.0000000000E+00   0.9762750000E+00   0.4638762719E-16   0.0000000000E+00   0.6750000000E-03   0.7374933989E-19   0.0000000000E+00  -0.2440000000E-01   0.4631387785E-16  -0.2125000003E+01   0.2374442802E-14   0.1755529712E-14  -0.2098177696E-15  -0.1705490251E-14  -0.1122836081E-14   0.4575000007E-01  -0.2372500003E-01  -0.2372500003E-01   0.5456208571E-16  -0.8461274141E-16  -0.1106758335E-16   0.2125000003E+01
   0.0000000000E+00   0.0000000000E+00   0.9762750000E+00   0.0000000000E+00   0.0000000000E+00   0.6750000000E-03   0.0000000000E+00   0.0000000000E+00  -0.2440000000E-01  -0.2125000003E+01   0.4938453268E-14   0.7775819443E-14   0.1181930019E-15  -0.6640098619E-15   0.1337667868E-14   0.4575000007E-01  -0.2372500003E-01  -0.2372500003E-01  -0.9993181224E-17  -0.1497850380E-15  -0.2023655558E-16   0.2125000003E+01
   0.1045750000E+01   0.0000000000E+00   0.9762750000E+00  -0.2250000000E-02   0.0000000000E+00   0.6750000000E-03   0.4800000000E-01   0.0000000000E+00  -0.2440000000E-01  -0.2125000003E+01  -0.5668948510E-14  -0.1794200210E-14  -0.5848501750E-15   0.1729318223E-14   0.5698292723E-15   0.4575000007E-01  -0.2372500003E-01  -0.2372500003E-01   0.6135274815E-16  -0.1435031704E-16   0.8541377021E-16   0.2125000003E+01
   0.1045750000E+01   0.9762750000E+00   0.9762750000E+00  -0.2250000000E-02   0.6750000000E-03   0.6750000000E-03   0.4800000000E-01  -0.2440000000E-01  -0.2440000000E-01  -0.2125000003E+01   0.8888060880E-14   0.7091919892E-14   0.9444185952E-15  -0.2336713351E-15  -0.5149473487E-15   0.4575000006E-01  -0.2372500003E-01  -0.2372500003E-01   0.1054388493E-15  -0.2215747727E-16  -0.1196451771E-17   0.2125000003E+01
   0.0000000000E+00   0.9762750000E+00   0.9762750000E+00   0.0000000000E+00   0.6750000000E-03   0.6750000000E-03   0.0000000000E+00  -0.2440000000E-01  -0.2440000000E-01  -0.2125000003E+01  -0.1669540781E-14  -0.3963075399E-15   0.4751143549E-15   0.2846070514E-15  -0.2066294607E-14   0.4575000006E-01  -0.2372500003E-01  -0.2372500003E-01   0.4449854918E-16   0.1093199832E-16  -0.1251153114E-15   0.2125000003E+01
   0.2091500000E+01   0.0000000000E+00  -0.1029130227E-15  -0.4500000000E-02   0.0000000000E+00   0.4577780628E-18   0.9600000000E-01   0.0000000000E+00  -0.1033708007E-15  -0.2125000003E+01  -0.7790354498E-14  -0.5626025549E-14  -0.1000708990E-14  -0.7462357087E-15  -0.1366969054E-14   0.4575000007E-01  -0.2372500004E-01  -0.2372500004E-01  -0.1299133222E-15  -0.2272775993E-15  -0.4343665722E-16   0.2125000003E+01
   0.2091500000E+01   0.9762750000E+00  -0.1249752064E-15  -0.4500000000E-02   0.6750000000E-03  -0.5758752160E-18   0.9600000000E-01  -0.2440000000E-01  -0.1243993312E-15  -0.2125000003E+01   0.1445905734E-13   0.1321265499E-13  -0.2210066458E-14   0.1857964096E-14   0.8899823632E-15   0.4575000006E-01  -0.2372500003E-01  -0.2372500003E-01  -0.3046887930E-15  -0.1306096334E-15   0.4306099809E-16   0.2125000003E+01
   0.2091500000E+01   0.0000000000E+00   0.9762750000E+00  -0.4500000000E-02   0.0000000000E+00   0.6750000000E-03   0.9600000000E-01   0.0000000000E+00  -0.2440000000E-01  -0.2125000003E+01   0.9371282611E-14   0.5389960117E-14   0.1051729122E-14  -0.9001010816E-15  -0.1368073584E-15   0.4575000006E-01  -0.2372500003E-01  -0.2372500003E-01   0.7316370449E-16  -0.1262395676E-15   0.9917707747E-18   0.2125000003E+01
   0.2091500000E+01   0.9762750000E+00   0.9762750000E+00  -0.4500000000E-02   0.6750000000E-03   0.6750000000E-03   0.9600000000E-01  -0.2440000000E-01  -0.2440000000E-01  -0.2125000003E+01  -0.1582824324E-13  -0.1269645481E-13   0.2264336676E-14  -0.1740357439E-15   0.7286468167E-15   0.4575000006E-01  -0.2372500003E-01  -0.2372500003E-01   0.8558261120E-16  -0.1526654706E-15   0.9148455806E-16   0.2125000003E+01
     1     2     3     4     5     6     7     8
     2     9    10     3     6    11    12     7
 VARIABLES = X,Y,Z,DU1,DU2,DU3,U1,U2,U3,S11,S22,S33,S12,S13,S23,E11,E22,E33,E12,E13,E23,SMISES
 ZONE, T="0.9700D+01" F=FEPOINT, I=   12 J=    2 ET=BRICK
   0.0000000000E+00   0.0000000000E+00   0.0000000000E+00   0.0000000000E+00   0.0000000000E+00   0.0000000000E+00   0.0000000000E+00   0.0000000000E+00   0.0000000000E+00  -0.3250000005E+01  -0.5350222166E-14  -0.8312097370E-14   0.3069165044E-15  -0.8571065816E-15   0.1033906258E-14   0.4350000007E-01  -0.2305000004E-01  -0.2305000004E-01   0.8161872755E-18  -0.5228789437E-16   0.9088850684E-16   0.3250000005E+01
   0.1043500000E+01   0.0000000000E+00  -0.3509344353E-16  -0.2250000000E-02   0.0000000000E+00  -0.9792696338E-18   0.4575000000E-01   0.0000000000E+00  -0.3411417390E-16  -0.3250000005E+01   0.3013647950E-14   0.1671559829E-14  -0.7020637600E-15   0.6576658972E-15   0.9219859777E-15   0.4350000007E-01  -0.2305000004E-01  -0.2305000004E-01   0.7634133629E-16   0.5386024528E-16   0.4349750315E-16   0.3250000005E+01
   0.1043500000E+01   0.9769500000E+00  -0.1169941061E-16  -0.2250000000E-02   0.6750000000E-03  -0.4561684959E-18   0.4575000000E-01  -0.2372500000E-01  -0.1124324211E-16  -0.3250000005E+01  -0.6968745456E-14  -0.8034346017E-14  -0.1143575988E-14  -0.2483071940E-15  -0.4961368620E-15   0.4350000006E-01  -0.2305000003E-01  -0.2305000003E-01   0.1139516303E-16  -0.3765787948E-16  -0.3944179775E-16   0.3250000005E+01
   0.0000000000E+00   0.9769500000E+00   0.4670977531E-16   0.0000000000E+00   0.6750000000E-03   0.3221481118E-18   0.0000000000E+00  -0.2372500000E-01   0.4638762719E-16  -0.3250000005E+01   0.2034570533E-14   0.1444409389E-14  -0.2379830472E-15  -0.1762731901E-14  -0.1142656200E-14   0.4350000006E-01  -0.2305000003E-01  -0.2305000003E-01   0.6836056442E-16  -0.9236598611E-16  -0.2837952776E-16   0.3250000005E+01
   0.0000000000E+00   0.0000000000E+00   0.9769500000E+00   0.0000000000E+00   0.0000000000E+00   0.6750000000E-03   0.0000000000E+00   0.0000000000E+00  -0.2372500000E-01  -0.3250000005E+01   0.4781447423E-14   0.7875054448E-14   0.1720752141E-15  -0.6505222751E-15   0.1502006124E-14   0.4350000006E-01  -0.2305000003E-01  -0.2305000003E-01  -0.4942893946E-17  -0.1629099734E-15  -0.2259304117E-16   0.3250000005E+01
   0.1043500000E+01   0.0000000000E+00   0.9769500000E+00  -0.2250000000E-02   0.0000000000E+00   0.6750000000E-03   0.4575000000E-01   0.0000000000E+00  -0.2372500000E-01  -0.3250000005E+01  -0.5444181770E-14  -0.1364255809E-14  -0.7799860458E-15   0.1633459726E-14   0.5928076978E-15   0.4350000006E-01  -0.2305000003E-01  -0.2305000003E-01   0.6649707203E-16  -0.7135132778E-17   0.9909429320E-16   0.3250000005E+01
   0.1043500000E+01   0.9769500000E+00   0.9769500000E+00  -0.2250000000E-02   0.6750000000E-03   0.6750000000E-03   0.4575000000E-01  -0.2372500000E-01  -0.2372500000E-01  -0.3250000004E+01   0.8478434979E-14   0.6887471652E-14   0.9772764419E-15  -0.1309406162E-15  -0.5915320011E-15   0.4350000006E-01  -0.2305000003E-01  -0.2305000003E-01   0.8784083976E-16  -0.1720190416E-16  -0.1966168439E-16   0.3250000004E+01
   0.0000000000E+00   0.9769500000E+00   0.9769500000E+00   0.0000000000E+00   0.6750000000E-03   0.6750000000E-03   0.0000000000E+00  -0.2372500000E-01  -0.2372500000E-01  -0.3250000004E+01  -0.1192616452E-14  -0.5716467587E-16   0.4007340967E-15   0.1574106009E-15  -0.2091107237E-14   0.4350000006E-01  -0.2305000003E-01  -0.2305000003E-01   0.4234421065E-16   0.8763334200E-17  -0.1277638324E-15   0.3250000004E+01
   0.2087000000E+01   0.0000000000E+00  -0.1060532356E-15  -0.4500000000E-02   0.0000000000E+00  -0.3140212938E-17   0.9150000000E-01   0.0000000000E+00  -0.1029130227E-15  -0.3250000005E+01  -0.7498823220E-14  -0.5795912818E-14  -0.1247656407E-14  -0.4891569925E-15  -0.1381424424E-14   0.4350000007E-01  -0.2305000003E-01  -0.2305000003E-01  -0.9431787512E-16  -0.3484160776E-15  -0.4673936428E-16   0.3250000005E+01
   0.2087000000E+01   0.9769500000E+00  -0.1280704391E-15  -0.4500000000E-02   0.6750000000E-03  -0.3095232747E-17   0.9150000000E-01  -0.2372500000E-01  -0.1249752064E-15  -0.3250000005E+01   0.1496001873E-13   0.1294144223E-13  -0.2339276791E-14   0.1571684471E-14   0.8293213469E-15   0.4350000006E-01  -0.2305000003E-01  -0.2305000003E-01  -0.2833986942E-15  -0.1094940757E-15   0.3273450447E-16   0.3250000005E+01
   0.2087000000E+01   0.0000000000E+00   0.9769500000E+00  -0.4500000000E-02   0.0000000000E+00   0.6750000000E-03   0.9150000000E-01   0.0000000000E+00  -0.2372500000E-01  -0.3250000005E+01   0.9933199483E-14   0.5862169555E-14   0.6718316904E-15  -0.6303837704E-15  -0.1530272503E-15   0.4350000006E-01  -0.2305000003E-01  -0.2305000003E-01   0.2598443569E-16  -0.1303705029E-15   0.3550334524E-17   0.3250000005E+01
   0.2087000000E+01   0.9769500000E+00   0.9769500000E+00  -0.4500000000E-02   0.6750000000E-03   0.6750000000E-03   0.9150000000E-01  -0.2372500000E-01  -0.2372500000E-01  -0.3250000004E+01  -0.1604793034E-13  -0.1294489389E-13   0.2028845165E-14  -0.4123319567E-15   0.6377188816E-15   0.4350000006E-01  -0.2305000003E-01  -0.2305000003E-01   0.1269921460E-15  -0.2445862529E-15   0.9394640310E-16   0.3250000004E+01
     1     2     3     4     5     6     7     8
     2     9    10     3     6    11    12     7
 VARIABLES = X,Y,Z,DU1,DU2,DU3,U1,U2,U3,S11,S22,S33,S12,S13,S23,E11,E22,E33,E12,E13,E23,SMISES
 ZONE, T="0.9750D+01" F=FEPOINT, I=   12 J=    2 ET=BRICK
   0.0000000000E+00   0.0000000000E+00   0.0000000000E+00   0.0000000000E+00   0.0000000000E+00   0.0000000000E+00   0.0000000000E+00   0.0000000000E+00   0.0000000000E+00  -0.4375000007E+01  -0.5453807340E-14  -0.8101475348E-14   0.3031896149E-15  -0.6800635753E-15   0.8510013550E-15   0.4125000006E-01  -0.2237500004E-01  -0.2237500004E-01  -0.4045721206E-17  -0.4264339703E-16   0.9972811128E-16   0.4375000007E+01
   0.1041250000E+01   0.0000000000E+00  -0.3402575658E-16  -0.2250000000E-02   0.0000000000E+00   0.1067686954E-17   0.4350000000E-01   0.0000000000E+00  -0.3509344353E-16  -0.4375000007E+01   0.2887751475E-14   0.1878730246E-14  -0.3874175238E-15   0.8995150202E-15   0.7403402065E-15   0.4125000006E-01  -0.2237500003E-01  -0.2237500003E-01   0.9624620678E-16   0.4150201226E-16   0.4672724939E-16   0.4375000007E+01
   0.1041250000E+01   0.9776250000E+00  -0.1155240622E-16  -0.2250000000E-02   0.6750000000E-03   0.1470043864E-18   0.4350000000E-01  -0.2305000000E-01  -0.1169941061E-16  -0.4375000006E+01  -0.6883485982E-14  -0.7564494043E-14  -0.7503505993E-15  -0.5335385956E-15  -0.4621128740E-15   0.4125000006E-01  -0.2237500003E-01  -0.2237500003E-01   0.2715290101E-16  -0.6987562110E-16  -0.4028298399E-16   0.4375000006E+01
   0.0000000000E+00   0.9776250000E+00   0.4573255067E-16   0.0000000000E+00   0.6750000000E-03  -0.9772246319E-18   0.0000000000E+00  -0.2305000000E-01   0.4670977531E-16  -0.4375000006E+01   0.2158474206E-14   0.1734846541E-14  -0.1823516400E-15  -0.1697757758E-14  -0.1123167398E-14   0.4125000006E-01  -0.2237500003E-01  -0.2237500003E-01   0.6593201389E-16  -0.8709854222E-16  -0.3931078689E-16   0.4375000006E+01
   0.0000000000E+00   0.0000000000E+00   0.9776250000E+00   0.0000000000E+00   0.0000000000E+00   0.6750000000E-03   0.0000000000E+00   0.0000000000E+00  -0.2305000000E-01  -0.4375000006E+01   0.5526862332E-14   0.8498558449E-14   0.1838708621E-15  -0.7110099798E-15   0.1277844772E-14   0.4125000006E-01  -0.2237500003E-01  -0.2237500003E-01   0.6306375555E-17  -0.1416723316E-15  -0.3956705998E-16   0.4375000006E+01
   0.1041250000E+01   0.0000000000E+00   0.9776250000E+00  -0.2250000000E-02   0.0000000000E+00   0.6750000000E-03   0.4350000000E-01   0.0000000000E+00  -0.2305000000E-01  -0.4375000006E+01  -0.5691989154E-14  -0.1804359456E-14  -0.1262400754E-14   0.1975740664E-14   0.4992934794E-15   0.4125000006E-01  -0.2237500003E-01  -0.2237500003E-01   0.4218195020E-16  -0.2708552223E-16   0.8698544397E-16   0.4375000006E+01
   0.1041250000E+01   0.9776250000E+00   0.9776250000E+00  -0.2250000000E-02   0.6750000000E-03   0.6750000000E-03   0.4350000000E-01  -0.2305000000E-01  -0.2305000000E-01  -0.4375000006E+01   0.8352538504E-14   0.6376982702E-14   0.4420567574E-15  -0.4942456539E-15  -0.5535735706E-15   0.4125000005E-01  -0.2237500003E-01  -0.2237500003E-01   0.7896647762E-16  -0.1364923792E-16  -0.4712277749E-17   0.4375000006E+01
   0.0000000000E+00   0.9776250000E+00   0.9776250000E+00   0.0000000000E+00   0.6750000000E-03   0.6750000000E-03   0.0000000000E+00  -0.2305000000E-01  -0.2305000000E-01  -0.4375000006E+01  -0.1751179440E-14  -0.1865126831E-15   0.4342092230E-15   0.1505466676E-15  -0.2004152223E-14   0.4125000006E-01  -0.2237500003E-01  -0.2237500003E-01   0.4513226830E-16  -0.5565098834E-19  -0.9571890912E-16   0.4375000006E+01
   0.2082500000E+01   0.0000000000E+00  -0.1025318398E-15  -0.4500000000E-02   0.0000000000E+00   0.3521395793E-17   0.8700000000E-01   0.0000000000E+00  -0.1060532356E-15  -0.4375000007E+01  -0.8031623418E-14  -0.5873735212E-14  -0.8752459004E-15  -0.4888753374E-15  -0.1305043971E-14   0.4125000006E-01  -0.2237500003E-01  -0.2237500003E-01  -0.1012822404E-15  -0.2902217440E-15  -0.3758631285E-16   0.4375000007E+01
   0.2082500000E+01   0.9776250000E+00  -0.1240884739E-15  -0.4500000000E-02   0.6750000000E-03   0.3981965200E-17   0.8700000000E-01  -0.2305000000E-01  -0.1280704391E-15  -0.4375000006E+01   0.1510968522E-13   0.1330916782E-13  -0.1988475884E-14   0.1030005201E-14   0.1093938246E-14   0.4125000006E-01  -0.2237500003E-01  -0.2237500003E-01  -0.2827586950E-15  -0.1382189979E-15   0.4375003634E-16   0.4375000006E+01
   0.2082500000E+01   0.0000000000E+00   0.9776250000E+00  -0.4500000000E-02   0.0000000000E+00   0.6750000000E-03   0.8700000000E-01   0.0000000000E+00  -0.2305000000E-01  -0.4375000006E+01   0.1012748845E-13   0.5409184484E-14   0.5199498227E-15  -0.6132263469E-15  -0.6140404876E-16   0.4125000006E-01  -0.2237500003E-01  -0.2237500003E-01   0.4591027014E-16  -0.1462212157E-15  -0.5462876641E-17   0.4375000006E+01
   0.2082500000E+01   0.9776250000E+00   0.9776250000E+00  -0.4500000000E-02   0.6750000000E-03   0.6750000000E-03   0.8700000000E-01  -0.2305000000E-01  -0.2305000000E-01  -0.4375000006E+01  -0.1612575272E-13  -0.1278579755E-13   0.1880826891E-14  -0.6676161832E-15   0.8638665506E-15   0.4125000005E-01  -0.2237500003E-01  -0.2237500003E-01   0.1007217520E-15  -0.2581200221E-15   0.1080101100E-15   0.4375000006E+01
     1     2     3     4     5     6     7     8
     2     9    10     3     6    11    12     7
 VARIABLES = X,Y,Z,DU1,DU2,DU3,U1,U2,U3,S11,S22,S33,S12,S13,S23,E11,E22,E33,E12,E13,E23,SMISES
 ZONE, T="0.9800D+01" F=FEPOINT, I=   12 J=    2 ET=BRICK
   0.0000000000E+00   0.0000000000E+00   0.0000000000E+00   0.0000000000E+00   0.0000000000E+00   0.0000000000E+00   0.0000000000E+00   0.0000000000E+00   0.0000000000E+00  -0.5500000009E+01  -0.6626444533E-14  -0.9605186676E-14   0.2886390822E-15  -0.8313278015E-15   0.1013997278E-14   0.3900000006E-01  -0.2170000003E-01  -0.2170000003E-01  -0.7566198795E-18  -0.4405082298E-16   0.1153627472E-15   0.5500000009E+01
   0.1039000000E+01   0.0000000000E+00  -0.3573898406E-16  -0.2250000000E-02   0.0000000000E+00  -0.1713227483E-17   0.4125000000E-01   0.0000000000E+00  -0.3402575658E-16  -0.5500000008E+01   0.2625069919E-14   0.1175945051E-14   0.1234854361E-15   0.1274428422E-14   0.7282421510E-15   0.3900000006E-01  -0.2170000003E-01  -0.2170000003E-01   0.9228196284E-16   0.2809829932E-16   0.4207496318E-16   0.5500000008E+01
   0.1039000000E+01   0.9783000000E+00  -0.1327686946E-16  -0.2250000000E-02   0.6750000000E-03  -0.1724463238E-17   0.4125000000E-01  -0.2237500000E-01  -0.1155240622E-16  -0.5500000008E+01  -0.7460374746E-14  -0.7549619914E-14  -0.2075563596E-15  -0.7503976042E-15  -0.6472976062E-15   0.3900000006E-01  -0.2170000003E-01  -0.2170000003E-01   0.4186553464E-16  -0.6593552143E-16  -0.4894945700E-16   0.5500000008E+01
   0.0000000000E+00   0.9783000000E+00   0.4655510623E-16   0.0000000000E+00   0.6750000000E-03   0.8225555525E-18   0.0000000000E+00  -0.2237500000E-01   0.4573255067E-16  -0.5500000008E+01   0.2674407432E-14   0.1736839259E-14  -0.4517027875E-15  -0.2033105032E-14  -0.1247844569E-14   0.3900000006E-01  -0.2170000003E-01  -0.2170000003E-01   0.5053431451E-16  -0.8391895259E-16  -0.6247403637E-16   0.5500000008E+01
   0.0000000000E+00   0.0000000000E+00   0.9783000000E+00   0.0000000000E+00   0.0000000000E+00   0.6750000000E-03   0.0000000000E+00   0.0000000000E+00  -0.2237500000E-01  -0.5500000008E+01   0.5754351188E-14   0.8798425383E-14   0.1873209990E-15  -0.1006698213E-14   0.1325158412E-14   0.3900000006E-01  -0.2170000003E-01  -0.2170000003E-01   0.7576348212E-18  -0.1606292155E-15  -0.4448551592E-16   0.5500000008E+01
   0.1039000000E+01   0.0000000000E+00   0.9783000000E+00  -0.2250000000E-02   0.0000000000E+00   0.6750000000E-03   0.4125000000E-01   0.0000000000E+00  -0.2237500000E-01  -0.5500000008E+01  -0.5691989154E-14  -0.1475278120E-14  -0.1159580570E-14   0.2281006837E-14   0.7379208291E-15   0.3900000006E-01  -0.2170000003E-01  -0.2170000003E-01   0.3999698265E-16   0.7461518048E-18   0.9819284408E-16   0.5500000008E+01
   0.1039000000E+01   0.9783000000E+00   0.9783000000E+00  -0.2250000000E-02   0.6750000000E-03   0.6750000000E-03   0.4125000000E-01  -0.2237500000E-01  -0.2237500000E-01  -0.5500000007E+01   0.8038331297E-14   0.6513767827E-14   0.5187114573E-15  -0.5233404774E-15  -0.5636397064E-15   0.3900000005E-01  -0.2170000003E-01  -0.2170000003E-01   0.7390999753E-16  -0.1673933445E-16   0.1405322337E-17   0.5500000007E+01
   0.0000000000E+00   0.9783000000E+00   0.9783000000E+00   0.0000000000E+00   0.6750000000E-03   0.6750000000E-03   0.0000000000E+00  -0.2237500000E-01  -0.2237500000E-01  -0.5500000007E+01  -0.1622365356E-14  -0.1355210032E-15   0.3159708093E-15   0.1602982312E-15  -0.2309242940E-14   0.3900000005E-01  -0.2170000003E-01  -0.2170000003E-01   0.4395619364E-16  -0.4440951671E-17  -0.1002309350E-15   0.5500000007E+01
   0.2078000000E+01   0.0000000000E+00  -0.1092030147E-15  -0.4500000000E-02   0.0000000000E+00  -0.6671174842E-17   0.8250000000E-01   0.0000000000E+00  -0.1025318398E-15  -0.5500000008E+01  -0.5564438095E-14  -0.4865638739E-14  -0.1941480298E-14  -0.3377663018E-15  -0.1345608941E-14   0.3900000006E-01  -0.2170000003E-01  -0.2170000003E-01  -0.1309986254E-15  -0.2111343263E-15  -0.4180285148E-16   0.5500000008E+01
   0.2078000000E+01   0.9783000000E+00  -0.1309642384E-15  -0.4500000000E-02   0.6750000000E-03  -0.6875764421E-17   0.8250000000E-01  -0.2237500000E-01  -0.1240884739E-15  -0.5500000008E+01   0.1459375199E-13   0.1242696783E-13  -0.2639215570E-14   0.1198879588E-14   0.7472152431E-15   0.3900000005E-01  -0.2170000003E-01  -0.2170000003E-01  -0.2981974857E-15  -0.1379289187E-15   0.3684544992E-16   0.5500000008E+01
   0.2078000000E+01   0.0000000000E+00   0.9783000000E+00  -0.4500000000E-02   0.0000000000E+00   0.6750000000E-03   0.8250000000E-01   0.0000000000E+00  -0.2237500000E-01  -0.5500000008E+01   0.1105377712E-13   0.5523658402E-14  -0.2898918777E-15  -0.8477949038E-15   0.2988119017E-15   0.3900000005E-01  -0.2170000003E-01  -0.2170000003E-01   0.5610782693E-16  -0.2023752586E-15   0.1554164288E-18   0.5500000008E+01
   0.2078000000E+01   0.9783000000E+00   0.9783000000E+00  -0.4500000000E-02   0.6750000000E-03   0.6750000000E-03   0.8250000000E-01  -0.2237500000E-01  -0.2237500000E-01  -0.5500000007E+01  -0.1639533741E-13  -0.1231939716E-13   0.1213435916E-14  -0.3140074775E-15   0.9735655881E-15   0.3900000005E-01  -0.2170000003E-01  -0.2170000003E-01   0.8601189180E-16  -0.1683972634E-15   0.8303522073E-16   0.5500000007E+01
     1     2     3     4     5     6     7     8
     2     9    10     3     6    11    12     7
 VARIABLES = X,Y,Z,DU1,DU2,DU3,U1,U2,U3,S11,S22,S33,S12,S13,S23,E11,E22,E33,E12,E13,E23,SMISES
 ZONE, T="0.9850D+01" F=FEPOINT, I=   12 J=    2 ET=BRICK
   0.0000000000E+00   0.0000000000E+00   0.0000000000E+00   0.0000000000E+00   0.0000000000E+00   0.0000000000E+00   0.0000000000E+00   0.0000000000E+00   0.0000000000E+00  -0.6625000010E+01  -0.5532359197E-14  -0.7460375101E-14   0.2816060229E-15  -0.5227342237E-15   0.9731893937E-15   0.3675000006E-01  -0.2102500003E-01  -0.2102500003E-01   0.6377223107E-17  -0.4911993790E-16   0.8745771102E-16   0.6625000010E+01
   0.1036750000E+01   0.0000000000E+00  -0.3304778441E-16  -0.2250000000E-02   0.0000000000E+00   0.2691199643E-17   0.3900000000E-01   0.0000000000E+00  -0.3573898406E-16  -0.6625000010E+01   0.2922944164E-14   0.1384574301E-14  -0.7927405306E-15   0.4029793227E-15   0.5996112721E-15   0.3675000006E-01  -0.2102500003E-01  -0.2102500003E-01   0.7078117635E-16   0.2850842865E-16   0.4829699993E-16   0.6625000010E+01
   0.1036750000E+01   0.9789750000E+00  -0.1121091604E-16  -0.2250000000E-02   0.6750000000E-03   0.2065953417E-17   0.3900000000E-01  -0.2170000000E-01  -0.1327686946E-16  -0.6625000009E+01  -0.5964100561E-14  -0.6630234450E-14  -0.1262804670E-14   0.6898295585E-16  -0.4691429468E-15   0.3675000005E-01  -0.2102500003E-01  -0.2102500003E-01   0.2739643820E-16  -0.7231958782E-16  -0.4919198002E-16   0.6625000009E+01
   0.0000000000E+00   0.9789750000E+00   0.4642262804E-16   0.0000000000E+00   0.6750000000E-03  -0.1324781902E-18   0.0000000000E+00  -0.2170000000E-01   0.4655510623E-16  -0.6625000010E+01   0.1260136721E-14   0.4960050814E-15  -0.1731725261E-15  -0.1847691126E-14  -0.8742506776E-15   0.3675000005E-01  -0.2102500003E-01  -0.2102500003E-01   0.6573170208E-16  -0.8453007847E-16  -0.2341615698E-17   0.6625000010E+01
   0.0000000000E+00   0.0000000000E+00   0.9789750000E+00   0.0000000000E+00   0.0000000000E+00   0.6750000000E-03   0.0000000000E+00   0.0000000000E+00  -0.2170000000E-01  -0.6625000010E+01   0.4436228577E-14   0.7531828365E-14   0.1751916678E-15  -0.6361350949E-15   0.1390323934E-14   0.3675000005E-01  -0.2102500003E-01  -0.2102500003E-01  -0.8037396551E-17  -0.1371265937E-15  -0.1998965370E-16   0.6625000010E+01
   0.1036750000E+01   0.0000000000E+00   0.9789750000E+00  -0.2250000000E-02   0.0000000000E+00   0.6750000000E-03   0.3900000000E-01   0.0000000000E+00  -0.2170000000E-01  -0.6625000009E+01  -0.5297966846E-14  -0.1658144532E-14  -0.2718372050E-15   0.1403525729E-14   0.4004460711E-15   0.3675000005E-01  -0.2102500003E-01  -0.2102500003E-01   0.6283323300E-16  -0.3841766894E-16   0.8045252521E-16   0.6625000009E+01
   0.1036750000E+01   0.9789750000E+00   0.9789750000E+00  -0.2250000000E-02   0.6750000000E-03   0.6750000000E-03   0.3900000000E-01  -0.2170000000E-01  -0.2170000000E-01  -0.6625000009E+01   0.7266619667E-14   0.5831301106E-14   0.1145919275E-14   0.1356093125E-15  -0.7340211955E-15   0.3675000005E-01  -0.2102500003E-01  -0.2102500003E-01   0.9314274273E-16  -0.1526135669E-16  -0.4284709901E-17   0.6625000009E+01
   0.0000000000E+00   0.9789750000E+00   0.9789750000E+00   0.0000000000E+00   0.6750000000E-03   0.6750000000E-03   0.0000000000E+00  -0.2170000000E-01  -0.2170000000E-01  -0.6625000009E+01   0.3069138144E-15   0.8134172609E-15   0.3649178501E-15   0.1502670629E-16  -0.1877196924E-14   0.3675000005E-01  -0.2102500003E-01  -0.2102500003E-01   0.4231407726E-16  -0.2136445427E-17  -0.1310576841E-15   0.6625000009E+01
   0.2073500000E+01   0.0000000000E+00  -0.1004914586E-15  -0.4500000000E-02   0.0000000000E+00   0.8711556048E-17   0.7800000000E-01   0.0000000000E+00  -0.1092030147E-15  -0.6625000010E+01  -0.8778835584E-14  -0.6644717421E-14  -0.1467296192E-15  -0.6626966437E-16  -0.1257888539E-14   0.3675000006E-01  -0.2102500003E-01  -0.2102500003E-01  -0.1192741373E-15  -0.2741846950E-15  -0.4004895188E-16   0.6625000010E+01
   0.2073500000E+01   0.9789750000E+00  -0.1217875846E-15  -0.4500000000E-02   0.6750000000E-03   0.9176653716E-17   0.7800000000E-01  -0.2170000000E-01  -0.1309642384E-15  -0.6625000009E+01   0.1621917869E-13   0.1503273543E-13  -0.1436724666E-14   0.3159490768E-15   0.1236887733E-14   0.3675000005E-01  -0.2102500003E-01  -0.2102500003E-01  -0.3057144953E-15  -0.1178659000E-15   0.3534389732E-16   0.6625000009E+01
   0.2073500000E+01   0.0000000000E+00   0.9789750000E+00  -0.4500000000E-02   0.0000000000E+00   0.6750000000E-03   0.7800000000E-01   0.0000000000E+00  -0.2170000000E-01  -0.6625000009E+01   0.1171081940E-13   0.7282952523E-14   0.1249984327E-15  -0.1968055338E-15  -0.1845847160E-15   0.3675000005E-01  -0.2102500003E-01  -0.2102500003E-01   0.5538912449E-16  -0.1174867097E-15  -0.1126106121E-16   0.6625000009E+01
   0.2073500000E+01   0.9789750000E+00   0.9789750000E+00  -0.4500000000E-02   0.6750000000E-03   0.6750000000E-03   0.7800000000E-01  -0.2170000000E-01  -0.2170000000E-01  -0.6625000008E+01  -0.1792116447E-13  -0.1535092819E-13   0.1430599582E-14  -0.1011222208E-14   0.9649342121E-15   0.3675000005E-01  -0.2102500003E-01  -0.2102500003E-01   0.1049159760E-15  -0.2175358384E-15   0.8805237304E-16   0.6625000008E+01
     1     2     3     4     5     6     7     8
     2     9    10     3     6    11    12     7
 VARIABLES = X,Y,Z,DU1,DU2,DU3,U1,U2,U3,S11,S22,S33,S12,S13,S23,E11,E22,E33,E12,E13,E23,SMISES
 ZONE, T="0.9900D+01" F=FEPOINT, I=   12 J=    2 ET=BRICK
   0.0000000000E+00   0.0000000000E+00   0.0000000000E+00   0.0000000000E+00   0.0000000000E+00   0.0000000000E+00   0.0000000000E+00   0.0000000000E+00   0.0000000000E+00  -0.7750000012E+01  -0.3730916849E-14  -0.4442740992E-14   0.2195209582E-15  -0.8790802310E-16   0.2698911956E-15   0.2950000005E-01  -0.1785000003E-01  -0.1785000003E-01  -0.4161183787E-17  -0.4591824044E-16   0.7857889087E-16   0.7750000012E+01
   0.1029500000E+01   0.0000000000E+00  -0.2749954264E-16  -0.7250000000E-02   0.0000000000E+00   0.5548241774E-17   0.3675000000E-01   0.0000000000E+00  -0.3304778441E-16  -0.7750000012E+01   0.3882914856E-15   0.2257436367E-15  -0.1015984878E-15   0.4965988408E-15   0.2781190444E-15   0.2950000005E-01  -0.1785000003E-01  -0.1785000003E-01   0.1053281054E-15   0.4661661201E-16   0.4352770069E-16   0.7750000012E+01
   0.1029500000E+01   0.9821500000E+00  -0.7541171913E-17  -0.7250000000E-02   0.3175000000E-02   0.3669744128E-17   0.3675000000E-01  -0.2102500000E-01  -0.1121091604E-16  -0.7750000011E+01  -0.2846723645E-14  -0.3046991055E-14  -0.7756211795E-15  -0.4035562246E-15   0.3353326753E-15   0.2950000004E-01  -0.1785000003E-01  -0.1785000003E-01   0.3630769056E-16  -0.6117752509E-16  -0.3284773504E-16   0.7750000011E+01
   0.0000000000E+00   0.9821500000E+00   0.4220390409E-16   0.0000000000E+00   0.3175000000E-02  -0.4218723946E-17   0.0000000000E+00  -0.2102500000E-01   0.4642262804E-16  -0.7750000011E+01   0.4743923529E-14   0.4407938955E-14  -0.4003302441E-15  -0.5491350448E-15  -0.1952591451E-15   0.2950000004E-01  -0.1785000003E-01  -0.1785000003E-01   0.5594183223E-16  -0.7842638656E-16   0.5533132005E-17   0.7750000011E+01
   0.0000000000E+00   0.0000000000E+00   0.9821500000E+00   0.0000000000E+00   0.0000000000E+00   0.3175000000E-02   0.0000000000E+00   0.0000000000E+00  -0.2102500000E-01  -0.7750000011E+01   0.1742622320E-14   0.3118444378E-14   0.3630118461E-16  -0.2661875719E-15   0.4604768026E-15   0.2950000004E-01  -0.1785000003E-01  -0.1785000003E-01   0.2094856827E-17  -0.1506179366E-15  -0.3467539005E-16   0.7750000011E+01
   0.1029500000E+01   0.0000000000E+00   0.9821500000E+00  -0.7250000000E-02   0.0000000000E+00   0.3175000000E-02   0.3675000000E-01   0.0000000000E+00  -0.2102500000E-01  -0.7750000011E+01  -0.2208202629E-14  -0.1216973210E-14   0.2219676272E-15   0.7418216796E-15  -0.2875731153E-15   0.2950000004E-01  -0.1785000003E-01  -0.1785000003E-01   0.3381505414E-16   0.6830228398E-17   0.7458909599E-16   0.7750000011E+01
   0.1029500000E+01   0.9821500000E+00   0.9821500000E+00  -0.7250000000E-02   0.3175000000E-02   0.3175000000E-02   0.3675000000E-01  -0.2102500000E-01  -0.2102500000E-01  -0.7750000010E+01   0.7152679947E-14   0.4644857742E-14   0.1585645127E-15  -0.3023569736E-15  -0.4728632480E-16   0.2950000004E-01  -0.1785000002E-01  -0.1785000002E-01   0.7317972047E-16  -0.3658458154E-16   0.1159906513E-16   0.7750000010E+01
   0.0000000000E+00   0.9821500000E+00   0.9821500000E+00   0.0000000000E+00   0.3175000000E-02   0.3175000000E-02   0.0000000000E+00  -0.2102500000E-01  -0.2102500000E-01  -0.7750000010E+01  -0.4383244052E-14  -0.6051496110E-14   0.2945242774E-15   0.3993238593E-15  -0.1345228056E-14   0.2950000004E-01  -0.1785000002E-01  -0.1785000002E-01   0.4461297663E-16   0.1395223238E-16  -0.1301918527E-15   0.7750000010E+01
   0.2059000000E+01   0.0000000000E+00  -0.8030652241E-16  -0.1450000000E-01   0.0000000000E+00   0.2018493619E-16   0.7350000000E-01   0.0000000000E+00  -0.1004914586E-15  -0.7750000012E+01  -0.6577640551E-14  -0.3958796173E-14   0.2222976945E-15  -0.3350106388E-15  -0.1499586757E-14   0.2950000004E-01  -0.1785000003E-01  -0.1785000003E-01  -0.1027247665E-15  -0.2324560847E-15  -0.5081994381E-16   0.7750000012E+01
   0.2059000000E+01   0.9821500000E+00  -0.1042732680E-15  -0.1450000000E-01   0.3175000000E-02   0.1751431665E-16   0.7350000000E-01  -0.2102500000E-01  -0.1217875846E-15  -0.7750000011E+01   0.1699195854E-13   0.1623366240E-13  -0.1453794312E-14   0.1097924689E-14   0.8265145851E-15   0.2950000004E-01  -0.1785000002E-01  -0.1785000002E-01  -0.2706529554E-15  -0.9288563101E-16   0.4407669759E-16   0.7750000011E+01
   0.2059000000E+01   0.0000000000E+00   0.9821500000E+00  -0.1450000000E-01   0.0000000000E+00   0.3175000000E-02   0.7350000000E-01   0.0000000000E+00  -0.2102500000E-01  -0.7750000011E+01   0.7947627466E-14   0.3863716053E-14   0.1903271000E-14  -0.1825771660E-14  -0.4244787397E-15   0.2950000004E-01  -0.1785000002E-01  -0.1785000002E-01   0.7549693874E-16  -0.1728594687E-15  -0.2631928015E-19   0.7750000011E+01
   0.2059000000E+01   0.9821500000E+00   0.9821500000E+00  -0.1450000000E-01   0.3175000000E-02   0.3175000000E-02   0.7350000000E-01  -0.2102500000E-01  -0.2102500000E-01  -0.7750000010E+01  -0.1637735020E-13  -0.1349582432E-13   0.1551073298E-14   0.4235758469E-15   0.7675015109E-15   0.2950000004E-01  -0.1785000002E-01  -0.1785000002E-01   0.8051671294E-16  -0.1816069104E-15   0.6129676193E-16   0.7750000010E+01
     1     2     3     4     5     6     7     8
     2     9    10     3     6    11    12     7
 VARIABLES = X,Y,Z,DU1,DU2,DU3,U1,U2,U3,S11,S22,S33,S12,S13,S23,E11,E22,E33,E12,E13,E23,SMISES
 ZONE, T="0.9950D+01" F=FEPOINT, I=   12 J=    2 ET=BRICK
   0.0000000000E+00   0.0000000000E+00   0.0000000000E+00   0.0000000000E+00   0.0000000000E+00   0.0000000000E+00   0.0000000000E+00   0.0000000000E+00   0.0000000000E+00  -0.8875000014E+01  -0.9151081130E-14  -0.1093142329E-13   0.4045054021E-15  -0.8416402707E-15   0.1458447778E-14   0.4750000007E-02  -0.5925000009E-02  -0.5925000009E-02   0.4810803570E-17  -0.6359286588E-16   0.1088665736E-15   0.8875000014E+01
   0.1004750000E+01   0.0000000000E+00  -0.4088036965E-16  -0.2475000000E-01   0.0000000000E+00  -0.1338082701E-16   0.2950000000E-01   0.0000000000E+00  -0.2749954264E-16  -0.8875000014E+01   0.1885242511E-14   0.1346073160E-14   0.1109638814E-14   0.2444109180E-14   0.1244715254E-14   0.4750000007E-02  -0.5925000009E-02  -0.5925000009E-02   0.1290914146E-15   0.1165736204E-15   0.6393051655E-16   0.8875000014E+01
   0.1004750000E+01   0.9940750000E+00  -0.1056068520E-16  -0.2475000000E-01   0.1192500000E-01  -0.3019513284E-17   0.2950000000E-01  -0.1785000000E-01  -0.7541171913E-17  -0.8875000013E+01  -0.1102251768E-13  -0.1265013273E-13  -0.3849290936E-15  -0.1256873506E-15  -0.3440803616E-15   0.4750000007E-02  -0.5925000008E-02  -0.5925000008E-02   0.5756126956E-16  -0.9857604507E-16  -0.4839251664E-16   0.8875000013E+01
   0.0000000000E+00   0.9940750000E+00   0.5322838506E-16   0.0000000000E+00   0.1192500000E-01   0.1102448097E-16   0.0000000000E+00  -0.1785000000E-01   0.4220390409E-16  -0.8875000013E+01   0.6426267439E-14   0.4393350432E-14  -0.8975547640E-15  -0.1332310804E-14  -0.7885118197E-15   0.4750000007E-02  -0.5925000009E-02  -0.5925000009E-02   0.3752176331E-16  -0.8664746519E-16  -0.2194168094E-16   0.8875000013E+01
   0.0000000000E+00   0.0000000000E+00   0.9940750000E+00   0.0000000000E+00   0.0000000000E+00   0.1192500000E-01   0.0000000000E+00   0.0000000000E+00  -0.1785000000E-01  -0.8875000013E+01   0.1198399940E-13   0.1491306568E-13  -0.1580492005E-15  -0.1891061061E-14   0.9387276628E-15   0.4750000007E-02  -0.5925000009E-02  -0.5925000009E-02  -0.6962182830E-17  -0.1774310381E-15  -0.2241039328E-16   0.8875000013E+01
   0.1004750000E+01   0.0000000000E+00   0.9940750000E+00  -0.2475000000E-01   0.0000000000E+00   0.1192500000E-01   0.2950000000E-01   0.0000000000E+00  -0.1785000000E-01  -0.8875000013E+01  -0.1143669843E-14   0.1637722611E-14  -0.4935352391E-15   0.2391807986E-14   0.8608540778E-15   0.4750000007E-02  -0.5925000008E-02  -0.5925000008E-02   0.3155875093E-16   0.4523584666E-16   0.9262093825E-16   0.8875000013E+01
   0.1004750000E+01   0.9940750000E+00   0.9940750000E+00  -0.2475000000E-01   0.1192500000E-01   0.1192500000E-01   0.2950000000E-01  -0.1785000000E-01  -0.1785000000E-01  -0.8875000012E+01   0.1417469670E-13   0.1422622246E-13  -0.9962362455E-15  -0.1425442015E-14  -0.6878497471E-15   0.4750000006E-02  -0.5925000008E-02  -0.5925000008E-02   0.2907259057E-16  -0.6847740791E-16   0.8861616600E-17   0.8875000012E+01
   0.0000000000E+00   0.9940750000E+00   0.9940750000E+00   0.0000000000E+00   0.1192500000E-01   0.1192500000E-01   0.0000000000E+00  -0.1785000000E-01  -0.1785000000E-01  -0.8875000012E+01  -0.4733320389E-14  -0.5232920726E-14  -0.6008167984E-15  -0.2966652509E-15  -0.2526816961E-14   0.4750000006E-02  -0.5925000008E-02  -0.5925000008E-02   0.4065905646E-16   0.6459486924E-17  -0.1391327727E-15   0.8875000012E+01
   0.2009500000E+01   0.0000000000E+00  -0.1267722225E-15  -0.4950000000E-01   0.0000000000E+00  -0.4646570005E-16   0.5900000000E-01   0.0000000000E+00  -0.8030652241E-16  -0.8875000013E+01   0.2117967333E-14   0.2462990641E-14  -0.1541849774E-14   0.9953704625E-15  -0.1754248455E-14   0.4750000007E-02  -0.5925000009E-02  -0.5925000009E-02  -0.1453513022E-15  -0.2165435988E-15  -0.7086044105E-16   0.8875000013E+01
   0.2009500000E+01   0.9940750000E+00  -0.1596715474E-15  -0.4950000000E-01   0.1192500000E-01  -0.5539827945E-16   0.5900000000E-01  -0.1785000000E-01  -0.1042732680E-15  -0.8875000012E+01   0.1051601470E-13   0.9650681759E-14  -0.3330144620E-14   0.2968921607E-14  -0.1174574425E-14   0.4750000007E-02  -0.5925000008E-02  -0.5925000008E-02  -0.3526119299E-15  -0.6681915505E-16  -0.8853519197E-18   0.8875000012E+01
   0.2009500000E+01   0.0000000000E+00   0.9940750000E+00  -0.4950000000E-01   0.0000000000E+00   0.1192500000E-01   0.5900000000E-01   0.0000000000E+00  -0.1785000000E-01  -0.8875000012E+01  -0.3261637664E-14  -0.5600008611E-14   0.2803113210E-14  -0.2505540313E-14   0.1547544463E-15   0.4750000007E-02  -0.5925000008E-02  -0.5925000008E-02   0.1134464176E-15  -0.2816871394E-15   0.2074999563E-16   0.8875000012E+01
   0.2009500000E+01   0.9940750000E+00   0.9940750000E+00  -0.4950000000E-01   0.1192500000E-01   0.1192500000E-01   0.5900000000E-01  -0.1785000000E-01  -0.1785000000E-01  -0.8875000011E+01  -0.3033966231E-14   0.2540775203E-14   0.2456772848E-14   0.4137357238E-14  -0.6808908542E-15   0.4750000006E-02  -0.5925000008E-02  -0.5925000008E-02   0.1352766352E-15  -0.9659924893E-16   0.4813471976E-16   0.8875000011E+01
     1     2     3     4     5     6     7     8
     2     9    10     3     6    11    12     7
 VARIABLES = X,Y,Z,DU1,DU2,DU3,U1,U2,U3,S11,S22,S33,S12,S13,S23,E11,E22,E33,E12,E13,E23,SMISES
 ZONE, T="0.1000D+02" F=FEPOINT, I=   12 J=    2 ET=BRICK
   0.0000000000E+00   0.0000000000E+00   0.0000000000E+00   0.0000000000E+00   0.0000000000E+00   0.0000000000E+00   0.0000000000E+00   0.0000000000E+00   0.0000000000E+00  -0.1000000002E+02  -0.9180829392E-14  -0.1007445207E-13   0.3221425790E-15  -0.1422214126E-15   0.1148820682E-14  -0.2000000003E-01   0.6000000009E-02   0.6000000009E-02   0.2860980982E-17  -0.4933783319E-16   0.1028844100E-15   0.1000000002E+02
   0.9800000000E+00   0.0000000000E+00  -0.3338855756E-16  -0.2475000000E-01   0.0000000000E+00   0.7491812097E-17   0.4750000000E-02   0.0000000000E+00  -0.4088036965E-16  -0.1000000002E+02   0.1869300292E-14   0.1273551974E-14   0.7143198755E-16   0.6214951259E-15   0.1852822787E-15  -0.2000000003E-01   0.6000000009E-02   0.6000000009E-02   0.1200743933E-15   0.7426535870E-16   0.4723924239E-16   0.1000000002E+02
   0.9800000000E+00   0.1006000000E+01  -0.8314542745E-17  -0.2475000000E-01   0.1192500000E-01   0.2246142452E-17   0.4750000000E-02  -0.5925000000E-02  -0.1056068520E-16  -0.1000000001E+02  -0.8476976249E-14  -0.9021199133E-14  -0.9941221311E-15   0.6738238349E-16  -0.8849300395E-15  -0.2000000003E-01   0.6000000009E-02   0.6000000009E-02   0.4991018634E-16  -0.8382341508E-16  -0.4668940588E-16   0.1000000001E+02
   0.0000000000E+00   0.1006000000E+01   0.5102507821E-16   0.0000000000E+00   0.1192500000E-01  -0.2203306853E-17   0.0000000000E+00  -0.5925000000E-02   0.5322838506E-16  -0.1000000001E+02   0.7845644290E-14   0.7527060624E-14   0.2313145982E-15  -0.1014075428E-14  -0.6401997330E-15  -0.2000000003E-01   0.6000000009E-02   0.6000000009E-02   0.5762212973E-16  -0.8713191826E-16  -0.1520681268E-16   0.1000000001E+02
   0.0000000000E+00   0.0000000000E+00   0.1006000000E+01   0.0000000000E+00   0.0000000000E+00   0.1192500000E-01   0.0000000000E+00   0.0000000000E+00  -0.5925000000E-02  -0.1000000001E+02   0.9632889786E-14   0.1067418623E-13  -0.8862816412E-16  -0.7200552650E-15   0.6806828596E-15  -0.2000000003E-01   0.6000000009E-02   0.6000000009E-02  -0.1879056967E-17  -0.1597324458E-15  -0.1218489783E-16   0.1000000001E+02
   0.9800000000E+00   0.0000000000E+00   0.1006000000E+01  -0.2475000000E-01   0.0000000000E+00   0.1192500000E-01   0.4750000000E-02   0.0000000000E+00  -0.5925000000E-02  -0.1000000001E+02  -0.3570218332E-14  -0.1243803748E-14   0.3831305341E-15   0.4895556799E-15   0.4631726521E-15  -0.2000000003E-01   0.6000000009E-02   0.6000000009E-02   0.3724960914E-16   0.1990607762E-16   0.9025378276E-16   0.1000000001E+02
   0.9800000000E+00   0.1006000000E+01   0.1006000000E+01  -0.2475000000E-01   0.1192500000E-01   0.1192500000E-01   0.4750000000E-02  -0.5925000000E-02  -0.5925000000E-02  -0.1000000001E+02   0.8135938340E-14   0.7962501832E-14   0.8761327874E-15  -0.4938832509E-15  -0.4138980577E-15  -0.2000000003E-01   0.6000000008E-02   0.6000000008E-02   0.6092608707E-16  -0.6333072584E-16   0.3513912764E-17   0.1000000001E+02
   0.0000000000E+00   0.1006000000E+01   0.1006000000E+01   0.0000000000E+00   0.1192500000E-01   0.1192500000E-01   0.0000000000E+00  -0.5925000000E-02  -0.5925000000E-02  -0.1000000001E+02  -0.2548458262E-14  -0.3653236834E-14  -0.5925389790E-15   0.2144236743E-15  -0.1311280605E-14  -0.2000000003E-01   0.6000000008E-02   0.6000000008E-02   0.3029761913E-16   0.3205545007E-17  -0.1351003487E-15   0.1000000001E+02
   0.1960000000E+01   0.0000000000E+00  -0.1060938352E-15  -0.4950000000E-01   0.0000000000E+00   0.2067838730E-16   0.9500000000E-02   0.0000000000E+00  -0.1267722225E-15  -0.1000000002E+02  -0.5314690848E-14  -0.2075794057E-14   0.9152965670E-15  -0.6674367256E-15  -0.4278166058E-15  -0.2000000003E-01   0.6000000009E-02   0.6000000009E-02  -0.1061736024E-15  -0.1655795559E-15  -0.5185437530E-16   0.1000000002E+02
   0.1960000000E+01   0.1006000000E+01  -0.1326110049E-15  -0.4950000000E-01   0.1192500000E-01   0.2706054256E-16   0.9500000000E-02  -0.5925000000E-02  -0.1596715474E-15  -0.1000000001E+02   0.1039702084E-13   0.8061176435E-14  -0.8409553937E-15   0.2339227602E-15   0.1854750239E-14  -0.2000000003E-01   0.6000000008E-02   0.6000000008E-02  -0.3242421932E-15  -0.2011238485E-15   0.4497906984E-16   0.1000000001E+02
   0.1960000000E+01   0.0000000000E+00   0.1006000000E+01  -0.4950000000E-01   0.0000000000E+00   0.1192500000E-01   0.9500000000E-02   0.0000000000E+00  -0.5925000000E-02  -0.1000000001E+02   0.1103814564E-14  -0.2179704747E-14  -0.1825062172E-15   0.1086071924E-14  -0.8040910229E-15  -0.2000000003E-01   0.6000000008E-02   0.6000000008E-02   0.9634743600E-16  -0.2203040908E-15  -0.9957213474E-17   0.1000000001E+02
   0.1960000000E+01   0.1006000000E+01   0.1006000000E+01  -0.4950000000E-01   0.1192500000E-01   0.1192500000E-01   0.9500000000E-02  -0.5925000000E-02  -0.5925000000E-02  -0.1000000001E+02  -0.1140419277E-13  -0.1110631875E-13   0.1079043002E-14  -0.3077494466E-14   0.5363137321E-15  -0.2000000003E-01   0.6000000008E-02   0.6000000008E-02   0.1341774833E-15  -0.1908227419E-15   0.7959972753E-16   0.1000000001E+02
     1     2     3     4     5     6     7     8
     2     9    10     3     6    11    12     7
