 VARIABLES = X,Y,Z,DU1,DU2,DU3,U1,U2,U3,S11,S22,S33,S12,S13,S23,E11,E22,E33,E12,E13,E23,SMISES
 ZONE, T="0.5000D-01" F=FEPOINT, I=   12 J=    2 ET=BRICK
   0.0000000000E+00   0.0000000000E+00   0.0000000000E+00   0.0000000000E+00   0.0000000000E+00   0.0000000000E+00   0.0000000000E+00   0.0000000000E+00   0.0000000000E+00   0.6250000010E+00  -0.2310286122E-13  -0.4396206034E-13  -0.1163925745E-17  -0.2125699513E-13  -0.5952760288E-14   0.1250000002E-02  -0.6237500010E-03  -0.6237500010E-03  -0.4362152660E-20  -0.2546480819E-15  -0.7141019849E-16   0.6250000010E+00
   0.1001250000E+01   0.0000000000E+00  -0.1315013886E-15   0.1250000000E-02   0.0000000000E+00  -0.1315013886E-15   0.0000000000E+00   0.0000000000E+00   0.0000000000E+00   0.6250000010E+00  -0.4485492306E-13  -0.4996044788E-13  -0.5168801784E-14  -0.1399837595E-13   0.6182544606E-14   0.1250000002E-02  -0.6237500010E-03  -0.6237500010E-03  -0.6200346228E-16  -0.1683921568E-15   0.7419454376E-16   0.6250000010E+00
   0.1001250000E+01   0.9993762500E+00  -0.9445407001E-16   0.1250000000E-02  -0.6237500000E-03  -0.9445407001E-16   0.0000000000E+00   0.0000000000E+00   0.0000000000E+00   0.6250000009E+00  -0.7154637815E-14  -0.1999570411E-14  -0.4720046258E-14  -0.8622505306E-14  -0.2996673896E-14   0.1250000002E-02  -0.6237500009E-03  -0.6237500009E-03  -0.5654642037E-16  -0.1024717751E-15  -0.3595344982E-16   0.6250000009E+00
   0.0000000000E+00   0.9993762500E+00  -0.3563478859E-16   0.0000000000E+00  -0.6237500000E-03  -0.3563478859E-16   0.0000000000E+00   0.0000000000E+00   0.0000000000E+00   0.6250000009E+00   0.7202490520E-14  -0.3055630285E-14  -0.5842633310E-14  -0.5832410212E-14  -0.1494767859E-13   0.1250000002E-02  -0.6237500009E-03  -0.6237500009E-03  -0.7009304583E-16  -0.7063014308E-16  -0.1791240973E-15   0.6250000009E+00
   0.0000000000E+00   0.0000000000E+00   0.9993762500E+00   0.0000000000E+00   0.0000000000E+00  -0.6237500000E-03   0.0000000000E+00   0.0000000000E+00   0.0000000000E+00   0.6250000009E+00   0.1962502803E-13   0.1688374165E-13  -0.2191767296E-17  -0.1507252168E-13  -0.6263032718E-15   0.1250000002E-02  -0.6237500009E-03  -0.6237500009E-03  -0.3980198611E-19  -0.1806941649E-15  -0.7343786375E-17   0.6250000009E+00
   0.1001250000E+01   0.0000000000E+00   0.9993762500E+00   0.1250000000E-02   0.0000000000E+00  -0.6237500000E-03   0.0000000000E+00   0.0000000000E+00   0.0000000000E+00   0.6250000009E+00   0.1718677655E-13   0.3045284763E-13  -0.5278248043E-14  -0.1406731004E-13   0.1130085662E-13   0.1250000002E-02  -0.6237500009E-03  -0.6237500009E-03  -0.6326971391E-16  -0.1683916614E-15   0.1353103477E-15   0.6250000009E+00
   0.1001250000E+01   0.9993762500E+00   0.9993762500E+00   0.1250000000E-02  -0.6237500000E-03  -0.6237500000E-03   0.0000000000E+00   0.0000000000E+00   0.0000000000E+00   0.6250000008E+00   0.7636973658E-15   0.2423348845E-13  -0.5055659429E-14  -0.8772138082E-14   0.2147714303E-14   0.1250000002E-02  -0.6237500008E-03  -0.6237500008E-03  -0.6070210937E-16  -0.1052866872E-15   0.2578298793E-16   0.6250000008E+00
   0.0000000000E+00   0.9993762500E+00   0.9993762500E+00   0.0000000000E+00  -0.6237500000E-03  -0.6237500000E-03   0.0000000000E+00   0.0000000000E+00   0.0000000000E+00   0.6250000008E+00  -0.4192984654E-14   0.3695243382E-14  -0.5939026841E-14   0.1428290600E-15  -0.9673791436E-14   0.1250000002E-02  -0.6237500008E-03  -0.6237500008E-03  -0.7118348913E-16   0.1762397267E-17  -0.1165472148E-15   0.6250000008E+00
   0.2002500000E+01   0.0000000000E+00  -0.2791026815E-15   0.2500000000E-02   0.0000000000E+00  -0.2791026815E-15   0.0000000000E+00   0.0000000000E+00   0.0000000000E+00   0.6250000009E+00   0.4688854741E-13   0.2423597799E-13  -0.1019461031E-13  -0.6627491282E-14   0.5173173195E-14   0.1250000002E-02  -0.6237500009E-03  -0.6237500009E-03  -0.1221977836E-15  -0.7891213906E-16   0.6223310621E-16   0.6250000009E+00
   0.2002500000E+01   0.9993762500E+00  -0.2479824767E-15   0.2500000000E-02  -0.6237500000E-03  -0.2479824767E-15   0.0000000000E+00   0.0000000000E+00   0.0000000000E+00   0.6250000009E+00   0.6500535065E-13   0.5215914293E-13  -0.3518139032E-14  -0.1094853989E-13  -0.4257995806E-14   0.1250000002E-02  -0.6237500009E-03  -0.6237500009E-03  -0.4242086775E-16  -0.1347828196E-15  -0.5136421000E-16   0.6250000009E+00
   0.2002500000E+01   0.0000000000E+00   0.9993762500E+00   0.2500000000E-02   0.0000000000E+00  -0.6237500000E-03   0.0000000000E+00   0.0000000000E+00   0.0000000000E+00   0.6250000009E+00  -0.7397420541E-14  -0.1095558833E-13  -0.1034369918E-13  -0.1264117269E-13   0.1016033779E-13   0.1250000002E-02  -0.6237500009E-03  -0.6237500009E-03  -0.1240504502E-15  -0.1542817462E-15   0.1212059153E-15   0.6250000009E+00
   0.2002500000E+01   0.9993762500E+00   0.9993762500E+00   0.2500000000E-02  -0.6237500000E-03  -0.6237500000E-03   0.0000000000E+00   0.0000000000E+00   0.0000000000E+00   0.6250000008E+00  -0.4340398171E-13  -0.3715374618E-13  -0.3944971187E-14  -0.1734017430E-13   0.5872130228E-15   0.1250000002E-02  -0.6237500008E-03  -0.6237500008E-03  -0.4723688113E-16  -0.2080952396E-15   0.8121135414E-17   0.6250000008E+00
     1     2     3     4     5     6     7     8
     2     9    10     3     6    11    12     7
 VARIABLES = X,Y,Z,DU1,DU2,DU3,U1,U2,U3,S11,S22,S33,S12,S13,S23,E11,E22,E33,E12,E13,E23,SMISES
 ZONE, T="0.1000D+00" F=FEPOINT, I=   12 J=    2 ET=BRICK
   0.0000000000E+00   0.0000000000E+00   0.0000000000E+00   0.0000000000E+00   0.0000000000E+00   0.0000000000E+00   0.0000000000E+00   0.0000000000E+00   0.0000000000E+00   0.1250000002E+01  -0.4526665616E-13  -0.4539799694E-13   0.4622561885E-17  -0.8258954217E-16   0.1031988580E-18   0.2500000004E-02  -0.1247500002E-02  -0.1247500002E-02   0.7910964753E-19   0.5460349753E-19  -0.1434069705E-18   0.1250000002E+01
   0.1002500000E+01   0.0000000000E+00  -0.4045723647E-18   0.1250000000E-02   0.0000000000E+00   0.1310968162E-15   0.1250000000E-02   0.0000000000E+00  -0.1315013886E-15   0.1250000002E+01   0.2677512489E-13   0.2684079528E-13   0.2748226939E-16   0.5551579886E-16   0.2554619592E-16   0.2500000004E-02  -0.1247500002E-02  -0.1247500002E-02   0.2822156017E-18  -0.1390395116E-17   0.5538809252E-18   0.1250000002E+01
   0.1002500000E+01   0.9987525000E+00  -0.1728083527E-18   0.1250000000E-02  -0.6237500000E-03   0.9428126166E-16   0.1250000000E-02  -0.6237500000E-03  -0.9445407001E-16   0.1250000002E+01  -0.2738343220E-13  -0.2751477298E-13  -0.3396161603E-16  -0.7169954809E-16  -0.1315586751E-16   0.2500000004E-02  -0.1247500002E-02  -0.1247500002E-02  -0.2091426201E-18   0.2334707353E-18  -0.3346608668E-18   0.1250000002E+01
   0.0000000000E+00   0.9987525000E+00  -0.2953981375E-20   0.0000000000E+00  -0.6237500000E-03   0.3563183461E-16   0.0000000000E+00  -0.6237500000E-03  -0.3563478859E-16   0.1250000002E+01   0.1854092409E-13   0.1848876677E-13   0.8128517146E-16   0.6079752829E-16   0.2875673681E-16   0.2500000004E-02  -0.1247500002E-02  -0.1247500002E-02   0.8757092407E-18  -0.2780934296E-18   0.5092339562E-18   0.1250000002E+01
   0.0000000000E+00   0.0000000000E+00   0.9987525000E+00   0.0000000000E+00   0.0000000000E+00  -0.6237500000E-03   0.0000000000E+00   0.0000000000E+00  -0.6237500000E-03   0.1250000002E+01  -0.1311960250E-13  -0.1312195995E-13   0.8279765638E-18   0.5470131142E-16  -0.1900244091E-16   0.2500000004E-02  -0.1247500002E-02  -0.1247500002E-02  -0.1567311440E-19   0.8180363040E-18   0.9856003800E-19   0.1250000002E+01
   0.1002500000E+01   0.0000000000E+00   0.9987525000E+00   0.1250000000E-02   0.0000000000E+00  -0.6237500000E-03   0.1250000000E-02   0.0000000000E+00  -0.6237500000E-03   0.1250000002E+01  -0.1204025205E-14  -0.1024610363E-14   0.2191585608E-16  -0.6580105998E-16   0.1992856918E-16   0.2500000004E-02  -0.1247500002E-02  -0.1247500002E-02   0.3140193670E-18  -0.5264436933E-18  -0.2133779800E-18   0.1250000002E+01
   0.1002500000E+01   0.9987525000E+00   0.9987525000E+00   0.1250000000E-02  -0.6237500000E-03  -0.6237500000E-03   0.1250000000E-02  -0.6237500000E-03  -0.6237500000E-03   0.1250000002E+01  -0.1300173320E-14  -0.1317769646E-14   0.6847117227E-16  -0.4012709364E-16  -0.1242821819E-15   0.2500000003E-02  -0.1247500002E-02  -0.1247500002E-02   0.6547779866E-18  -0.1005373952E-18  -0.1001272716E-17   0.1250000002E+01
   0.0000000000E+00   0.9987525000E+00   0.9987525000E+00   0.0000000000E+00  -0.6237500000E-03  -0.6237500000E-03   0.0000000000E+00  -0.6237500000E-03  -0.6237500000E-03   0.1250000002E+01   0.2410358571E-13   0.2412762273E-13  -0.9296486304E-16  -0.1080058865E-17   0.3663013956E-16   0.2500000003E-02  -0.1247500002E-02  -0.1247500002E-02  -0.1031670486E-17  -0.1745189006E-18  -0.1644315908E-18   0.1250000002E+01
   0.2005000000E+01   0.0000000000E+00  -0.1492617821E-17   0.2500000000E-02   0.0000000000E+00   0.2776100637E-15   0.2500000000E-02   0.0000000000E+00  -0.2791026815E-15   0.1250000002E+01  -0.3869384106E-14  -0.3869384103E-14  -0.1188193701E-15  -0.3393078130E-15  -0.4309871335E-16   0.2500000004E-02  -0.1247500002E-02  -0.1247500002E-02  -0.1435470756E-17   0.2390128583E-17  -0.3713861316E-18   0.1250000002E+01
   0.2005000000E+01   0.9987525000E+00  -0.1664357648E-17   0.2500000000E-02  -0.6237500000E-03   0.2463181190E-15   0.2500000000E-02  -0.6237500000E-03  -0.2479824767E-15   0.1250000002E+01  -0.6786926057E-13  -0.6784286608E-13  -0.2669121148E-15   0.2113383528E-15   0.8734799791E-16   0.2500000003E-02  -0.1247500002E-02  -0.1247500002E-02  -0.3381404627E-17  -0.4964842398E-17   0.7747622298E-18   0.1250000002E+01
   0.2005000000E+01   0.0000000000E+00   0.9987525000E+00   0.2500000000E-02   0.0000000000E+00  -0.6237500000E-03   0.2500000000E-02   0.0000000000E+00  -0.6237500000E-03   0.1250000002E+01  -0.1049526864E-13  -0.1056329649E-13   0.9519042577E-16   0.1188890649E-16   0.6858283712E-17   0.2500000003E-02  -0.1247500002E-02  -0.1247500002E-02   0.1158386530E-17  -0.4165564652E-17  -0.5778975313E-18   0.1250000002E+01
   0.2005000000E+01   0.9987525000E+00   0.9987525000E+00   0.2500000000E-02  -0.6237500000E-03  -0.6237500000E-03   0.2500000000E-02  -0.6237500000E-03  -0.6237500000E-03   0.1250000002E+01   0.6079095352E-13   0.6080210915E-13   0.2424960106E-15   0.5441346322E-16   0.6371661233E-16   0.2500000003E-02  -0.1247500002E-02  -0.1247500002E-02   0.2900546249E-17   0.1743072511E-17   0.1790808968E-17   0.1250000002E+01
     1     2     3     4     5     6     7     8
     2     9    10     3     6    11    12     7
 VARIABLES = X,Y,Z,DU1,DU2,DU3,U1,U2,U3,S11,S22,S33,S12,S13,S23,E11,E22,E33,E12,E13,E23,SMISES
 ZONE, T="0.1500D+00" F=FEPOINT, I=   12 J=    2 ET=BRICK
   0.0000000000E+00   0.0000000000E+00   0.0000000000E+00   0.0000000000E+00   0.0000000000E+00   0.0000000000E+00   0.0000000000E+00   0.0000000000E+00   0.0000000000E+00   0.1875000003E+01   0.6095458199E-13   0.6093934313E-13   0.4714911534E-17  -0.4528562313E-16   0.1037873184E-15   0.3750000006E-02  -0.1871250003E-02  -0.1871250003E-02   0.2236883350E-19  -0.8498624918E-19   0.1206127532E-17   0.1875000003E+01
   0.1003750000E+01   0.0000000000E+00  -0.2533029676E-18   0.1250000000E-02   0.0000000000E+00   0.1512693971E-18   0.2500000000E-02   0.0000000000E+00  -0.4045723647E-18   0.1875000003E+01  -0.2083505601E-13  -0.2080457828E-13  -0.9087761012E-18   0.8858147662E-16   0.1620854798E-16   0.3750000006E-02  -0.1871250003E-02  -0.1871250003E-02  -0.5420496567E-18  -0.1369598153E-18   0.5915400397E-18   0.1875000003E+01
   0.1003750000E+01   0.9981287500E+00  -0.4795504913E-19   0.1250000000E-02  -0.6237500000E-03   0.1248533036E-18   0.2500000000E-02  -0.1247500000E-02  -0.1728083527E-18   0.1875000003E+01   0.3045058509E-13   0.3024069252E-13  -0.3574259089E-16  -0.6269253886E-16  -0.3292849600E-16   0.3750000005E-02  -0.1871250003E-02  -0.1871250003E-02  -0.1445973416E-17  -0.1286956018E-18  -0.1281266759E-17   0.1875000003E+01
   0.0000000000E+00   0.9981287500E+00   0.5245060679E-18   0.0000000000E+00  -0.6237500000E-03   0.5274600493E-18   0.0000000000E+00  -0.1247500000E-02  -0.2953981375E-20   0.1875000003E+01  -0.6872855853E-14  -0.7056353946E-14   0.2896180205E-16  -0.2897506344E-16   0.3622287681E-16   0.3750000005E-02  -0.1871250003E-02  -0.1871250003E-02  -0.8092032596E-19  -0.4401399012E-18  -0.1788336824E-18   0.1875000003E+01
   0.0000000000E+00   0.0000000000E+00   0.9981287500E+00   0.0000000000E+00   0.0000000000E+00  -0.6237500000E-03   0.0000000000E+00   0.0000000000E+00  -0.1247500000E-02   0.1875000003E+01   0.2740261992E-13   0.2765178840E-13   0.4724918601E-17  -0.8520452436E-16  -0.9085828115E-16   0.3750000005E-02  -0.1871250003E-02  -0.1871250003E-02   0.5239819929E-19  -0.8103540467E-18  -0.6444784118E-18   0.1875000003E+01
   0.1003750000E+01   0.0000000000E+00   0.9981287500E+00   0.1250000000E-02   0.0000000000E+00  -0.6237500000E-03   0.2500000000E-02   0.0000000000E+00  -0.1247500000E-02   0.1875000003E+01  -0.1824053673E-14  -0.1745501869E-14  -0.3672940932E-16  -0.6967533437E-16   0.1010372494E-15   0.3750000005E-02  -0.1871250003E-02  -0.1871250003E-02  -0.5858745800E-18  -0.7610855819E-18   0.7885260309E-18   0.1875000003E+01
   0.1003750000E+01   0.9981287500E+00   0.9981287500E+00   0.1250000000E-02  -0.6237500000E-03  -0.6237500000E-03   0.2500000000E-02  -0.1247500000E-02  -0.1247500000E-02   0.1875000002E+01  -0.4722732447E-14  -0.4657062066E-14  -0.2820723855E-16  -0.1331051053E-18  -0.1213140658E-15   0.3750000005E-02  -0.1871250002E-02  -0.1871250002E-02  -0.1114809303E-17   0.1889645210E-17   0.7937300264E-19   0.1875000002E+01
   0.0000000000E+00   0.9981287500E+00   0.9981287500E+00   0.0000000000E+00  -0.6237500000E-03  -0.6237500000E-03   0.0000000000E+00  -0.1247500000E-02  -0.1247500000E-02   0.1875000003E+01  -0.1283305885E-13  -0.1286589404E-13  -0.2934849277E-16  -0.3454704076E-16  -0.2498917245E-16   0.3750000005E-02  -0.1871250003E-02  -0.1871250003E-02  -0.3591640782E-18  -0.6205846492E-18   0.4789954700E-18   0.1875000003E+01
   0.2007500000E+01   0.0000000000E+00  -0.1512722080E-17   0.2500000000E-02   0.0000000000E+00  -0.2010425911E-19   0.5000000000E-02   0.0000000000E+00  -0.1492617821E-17   0.1875000003E+01  -0.3857501678E-13  -0.3852458526E-13   0.1410593382E-15  -0.1713096174E-15   0.4448401662E-16   0.3750000006E-02  -0.1871250003E-02  -0.1871250003E-02   0.1012112558E-17  -0.3107303639E-17   0.1088183150E-17   0.1875000003E+01
   0.2007500000E+01   0.9981287500E+00  -0.1151322374E-17   0.2500000000E-02  -0.6237500000E-03   0.5130352740E-18   0.5000000000E-02  -0.1247500000E-02  -0.1664357648E-17   0.1875000003E+01   0.5043347901E-13   0.5029334005E-13   0.3706922228E-16   0.1269816071E-15   0.4592906586E-16   0.3750000005E-02  -0.1871250003E-02  -0.1871250003E-02  -0.4863819139E-18   0.5942462214E-17  -0.2868616816E-18   0.1875000003E+01
   0.2007500000E+01   0.0000000000E+00   0.9981287500E+00   0.2500000000E-02   0.0000000000E+00  -0.6237500000E-03   0.5000000000E-02   0.0000000000E+00  -0.1247500000E-02   0.1875000003E+01   0.3321010590E-13   0.3321418914E-13  -0.4635239263E-16   0.2206774519E-15  -0.5632674875E-16   0.3750000005E-02  -0.1871250003E-02  -0.1871250003E-02  -0.2152108801E-17  -0.7495810488E-19  -0.6215764193E-18   0.1875000003E+01
   0.2007500000E+01   0.9981287500E+00   0.9981287500E+00   0.2500000000E-02  -0.6237500000E-03  -0.6237500000E-03   0.5000000000E-02  -0.1247500000E-02  -0.1247500000E-02   0.1875000002E+01  -0.1316490845E-13  -0.1335956216E-13   0.5043675637E-16   0.1128333155E-15  -0.8258298603E-16   0.3750000005E-02  -0.1871250002E-02  -0.1871250002E-02  -0.5853541192E-18   0.1989724504E-17  -0.1262276052E-17   0.1875000002E+01
     1     2     3     4     5     6     7     8
     2     9    10     3     6    11    12     7
 VARIABLES = X,Y,Z,DU1,DU2,DU3,U1,U2,U3,S11,S22,S33,S12,S13,S23,E11,E22,E33,E12,E13,E23,SMISES
 ZONE, T="0.2000D+00" F=FEPOINT, I=   12 J=    2 ET=BRICK
   0.0000000000E+00   0.0000000000E+00   0.0000000000E+00   0.0000000000E+00   0.0000000000E+00   0.0000000000E+00   0.0000000000E+00   0.0000000000E+00   0.0000000000E+00   0.2500000004E+01  -0.1060840439E-14  -0.1347923720E-14   0.1442855542E-16  -0.1341964739E-15   0.1418170242E-15   0.5000000008E-02  -0.2495000004E-02  -0.2495000004E-02  -0.1225371448E-20  -0.1219850145E-17   0.1862378273E-17   0.2500000004E+01
   0.1005000000E+01   0.0000000000E+00  -0.9191829767E-18   0.1250000000E-02   0.0000000000E+00  -0.6658800091E-18   0.3750000000E-02   0.0000000000E+00  -0.2533029676E-18   0.2500000004E+01   0.4215368251E-13   0.4221191580E-13   0.1440696342E-16   0.6973038999E-16   0.7783271961E-16   0.5000000008E-02  -0.2495000004E-02  -0.2495000004E-02  -0.6936952399E-18   0.6062307405E-18   0.7371992461E-18   0.2500000004E+01
   0.1005000000E+01   0.9975050000E+00  -0.2255811843E-18   0.1250000000E-02  -0.6237500000E-03  -0.1776261351E-18   0.3750000000E-02  -0.1871250000E-02  -0.4795504913E-19   0.2500000004E+01  -0.3501134484E-14  -0.3814612253E-14   0.2546905449E-16  -0.1139649483E-16  -0.5934873069E-17   0.5000000007E-02  -0.2495000004E-02  -0.2495000004E-02  -0.1792576711E-17  -0.1497173274E-17  -0.8109109262E-19   0.2500000004E+01
   0.0000000000E+00   0.9975050000E+00   0.6392027135E-18   0.0000000000E+00  -0.6237500000E-03   0.1146966456E-18   0.0000000000E+00  -0.1871250000E-02   0.5245060679E-18   0.2500000004E+01  -0.1920065587E-13  -0.1927957239E-13   0.3766613157E-16  -0.3266611607E-16  -0.1808826420E-16   0.5000000007E-02  -0.2495000004E-02  -0.2495000004E-02   0.1105023729E-18  -0.1842584220E-18  -0.7271543560E-18   0.2500000004E+01
   0.0000000000E+00   0.0000000000E+00   0.9975050000E+00   0.0000000000E+00   0.0000000000E+00  -0.6237500000E-03   0.0000000000E+00   0.0000000000E+00  -0.1871250000E-02   0.2500000004E+01  -0.1916343266E-13  -0.1889766424E-13  -0.1091996360E-16  -0.9041937650E-16  -0.5387340393E-16   0.5000000007E-02  -0.2495000004E-02  -0.2495000004E-02  -0.6165037466E-18  -0.2154239660E-17  -0.1078297354E-17   0.2500000004E+01
   0.1005000000E+01   0.0000000000E+00   0.9975050000E+00   0.1250000000E-02   0.0000000000E+00  -0.6237500000E-03   0.3750000000E-02   0.0000000000E+00  -0.1871250000E-02   0.2500000004E+01  -0.1472605610E-13  -0.1445321528E-13   0.3050085789E-16  -0.3587029134E-17   0.1858234044E-15   0.5000000007E-02  -0.2495000004E-02  -0.2495000004E-02   0.1347838213E-17   0.9653032869E-18   0.2295849963E-17   0.2500000004E+01
   0.1005000000E+01   0.9975050000E+00   0.9975050000E+00   0.1250000000E-02  -0.6237500000E-03  -0.6237500000E-03   0.3750000000E-02  -0.1871250000E-02  -0.1871250000E-02   0.2500000003E+01  -0.6151930689E-14  -0.5901401140E-14   0.1413403484E-16   0.1055351210E-16  -0.1186784215E-15   0.5000000007E-02  -0.2495000003E-02  -0.2495000003E-02   0.7698783300E-18   0.6166096162E-19  -0.1303000699E-17   0.2500000003E+01
   0.0000000000E+00   0.9975050000E+00   0.9975050000E+00   0.0000000000E+00  -0.6237500000E-03  -0.6237500000E-03   0.0000000000E+00  -0.1871250000E-02  -0.1871250000E-02   0.2500000003E+01   0.1751672777E-13   0.1742194074E-13  -0.3368855979E-16   0.2606822650E-16  -0.7380977502E-16   0.5000000007E-02  -0.2495000003E-02  -0.2495000003E-02  -0.1335250625E-17   0.1594219872E-17   0.5417453982E-19   0.2500000003E+01
   0.2010000000E+01   0.0000000000E+00  -0.2954748338E-17   0.2500000000E-02   0.0000000000E+00  -0.1442026258E-17   0.7500000000E-02   0.0000000000E+00  -0.1512722080E-17   0.2500000004E+01   0.3673489454E-13   0.3646540758E-13  -0.1590735893E-15  -0.1885924897E-15  -0.3103231207E-16   0.5000000008E-02  -0.2495000004E-02  -0.2495000004E-02  -0.4681235178E-17  -0.5515687890E-17  -0.2117669145E-18   0.2500000004E+01
   0.2010000000E+01   0.9975050000E+00  -0.2970039523E-17   0.2500000000E-02  -0.6237500000E-03  -0.1818717149E-17   0.7500000000E-02  -0.1871250000E-02  -0.1151322374E-17   0.2500000003E+01  -0.9578419420E-14  -0.9434561957E-14  -0.2638686019E-15   0.4263211609E-16  -0.9813718035E-16   0.5000000007E-02  -0.2495000003E-02  -0.2495000003E-02  -0.4386504178E-17   0.4743915140E-17  -0.3069447368E-18   0.2500000003E+01
   0.2010000000E+01   0.0000000000E+00   0.9975050000E+00   0.2500000000E-02   0.0000000000E+00  -0.6237500000E-03   0.7500000000E-02   0.0000000000E+00  -0.1871250000E-02   0.2500000003E+01  -0.4087869793E-14  -0.4115260671E-14  -0.4627443059E-16  -0.9040564311E-16   0.4088110999E-16   0.5000000007E-02  -0.2495000003E-02  -0.2495000003E-02   0.6697681680E-18  -0.5584231322E-18   0.2744593794E-19   0.2500000003E+01
   0.2010000000E+01   0.9975050000E+00   0.9975050000E+00   0.2500000000E-02  -0.6237500000E-03  -0.6237500000E-03   0.7500000000E-02  -0.1871250000E-02  -0.1871250000E-02   0.2500000003E+01   0.3813613864E-14   0.3736423163E-14   0.6606611514E-16   0.3544921633E-15  -0.9090470615E-16   0.5000000006E-02  -0.2495000003E-02  -0.2495000003E-02   0.1287555384E-17   0.3754156977E-17   0.2263963741E-18   0.2500000003E+01
     1     2     3     4     5     6     7     8
     2     9    10     3     6    11    12     7
 VARIABLES = X,Y,Z,DU1,DU2,DU3,U1,U2,U3,S11,S22,S33,S12,S13,S23,E11,E22,E33,E12,E13,E23,SMISES
 ZONE, T="0.2500D+00" F=FEPOINT, I=   12 J=    2 ET=BRICK
   0.0000000000E+00   0.0000000000E+00   0.0000000000E+00   0.0000000000E+00   0.0000000000E+00   0.0000000000E+00   0.0000000000E+00   0.0000000000E+00   0.0000000000E+00   0.3125000005E+01  -0.5695448615E-13  -0.5696192323E-13   0.1447969541E-16  -0.9916485480E-16   0.2138216956E-15   0.6250000010E-02  -0.3118750005E-02  -0.3118750005E-02   0.5857901430E-18   0.4338921649E-18   0.6468048357E-18   0.3125000005E+01
   0.1006250000E+01   0.0000000000E+00  -0.1149132986E-17   0.1250000000E-02   0.0000000000E+00  -0.2299500096E-18   0.5000000000E-02   0.0000000000E+00  -0.9191829767E-18   0.3125000005E+01  -0.4404620544E-13  -0.4410171658E-13   0.1592871152E-15   0.1368796052E-15   0.6577566413E-16   0.6250000010E-02  -0.3118750005E-02  -0.3118750005E-02  -0.8432037670E-19  -0.1609893902E-17   0.2613908470E-17   0.3125000005E+01
   0.1006250000E+01   0.9968812500E+00  -0.5086606060E-18   0.1250000000E-02  -0.6237500000E-03  -0.2830794217E-18   0.5000000000E-02  -0.2495000000E-02  -0.2255811843E-18   0.3125000004E+01   0.2339983332E-13   0.2295972967E-13   0.1558883134E-15  -0.1475850960E-15  -0.3813091211E-16   0.6250000009E-02  -0.3118750004E-02  -0.3118750004E-02  -0.1108600137E-17   0.1509298169E-17  -0.3230355984E-17   0.3125000004E+01
   0.0000000000E+00   0.9968812500E+00   0.9190193164E-18   0.0000000000E+00  -0.6237500000E-03   0.2798166029E-18   0.0000000000E+00  -0.2495000000E-02   0.6392027135E-18   0.3125000005E+01   0.7316746839E-14   0.6969339740E-14  -0.1675950539E-16  -0.1137387792E-15  -0.5570159798E-16   0.6250000009E-02  -0.3118750005E-02  -0.3118750005E-02  -0.7140418356E-18  -0.2929564591E-17   0.1332092772E-17   0.3125000005E+01
   0.0000000000E+00   0.0000000000E+00   0.9968812500E+00   0.0000000000E+00   0.0000000000E+00  -0.6237500000E-03   0.0000000000E+00   0.0000000000E+00  -0.2495000000E-02   0.3125000005E+01   0.7228107154E-13   0.7265822698E-13  -0.1041586016E-16  -0.1106515306E-15  -0.9661185070E-16   0.6250000009E-02  -0.3118750005E-02  -0.3118750005E-02  -0.4012174820E-18   0.3677856356E-18  -0.1799412374E-18   0.3125000005E+01
   0.1006250000E+01   0.0000000000E+00   0.9968812500E+00   0.1250000000E-02   0.0000000000E+00  -0.6237500000E-03   0.5000000000E-02   0.0000000000E+00  -0.2495000000E-02   0.3125000004E+01   0.2192778793E-13   0.2258993615E-13  -0.9089673990E-16   0.1117601481E-15   0.1486571600E-15   0.6250000009E-02  -0.3118750004E-02  -0.3118750004E-02   0.1817133462E-18  -0.8085912034E-18  -0.5203638453E-20   0.3125000004E+01
   0.1006250000E+01   0.9968812500E+00   0.9968812500E+00   0.1250000000E-02  -0.6237500000E-03  -0.6237500000E-03   0.5000000000E-02  -0.2495000000E-02  -0.2495000000E-02   0.3125000004E+01  -0.1808485753E-13  -0.1814036867E-13  -0.8363419348E-16  -0.1126268947E-15  -0.1481981899E-15   0.6250000008E-02  -0.3118750004E-02  -0.3118750004E-02   0.8050401654E-18  -0.4084842516E-18   0.1092159446E-17   0.3125000004E+01
   0.0000000000E+00   0.9968812500E+00   0.9968812500E+00   0.0000000000E+00  -0.6237500000E-03  -0.6237500000E-03   0.0000000000E+00  -0.2495000000E-02  -0.2495000000E-02   0.3125000004E+01  -0.5231293575E-13  -0.5232037283E-13   0.4426498866E-16  -0.5298155149E-16  -0.1180126960E-15   0.6250000008E-02  -0.3118750004E-02  -0.3118750004E-02  -0.1555254522E-17   0.8290240164E-18  -0.2064666182E-17   0.3125000004E+01
   0.2012500000E+01   0.0000000000E+00  -0.4937692636E-17   0.2500000000E-02   0.0000000000E+00  -0.1982944297E-17   0.1000000000E-01   0.0000000000E+00  -0.2954748338E-17   0.3125000005E+01  -0.2555862621E-13  -0.2566221141E-13   0.1182860624E-15  -0.1086956087E-15   0.1029057219E-15   0.6250000009E-02  -0.3118750005E-02  -0.3118750005E-02   0.4517579598E-17   0.1428202481E-17   0.1112604881E-17   0.3125000005E+01
   0.2012500000E+01   0.9968812500E+00  -0.4083984777E-17   0.2500000000E-02  -0.6237500000E-03  -0.1113945253E-17   0.1000000000E-01  -0.2495000000E-02  -0.2970039523E-17   0.3125000004E+01  -0.8650790839E-14  -0.8517457319E-14   0.1095185236E-15  -0.1060799080E-15  -0.2915342677E-16   0.6250000009E-02  -0.3118750004E-02  -0.3118750004E-02   0.5895437853E-17   0.7309903857E-17   0.3452188891E-18   0.3125000004E+01
   0.2012500000E+01   0.0000000000E+00   0.9968812500E+00   0.2500000000E-02   0.0000000000E+00  -0.6237500000E-03   0.1000000000E-01   0.0000000000E+00  -0.2495000000E-02   0.3125000004E+01   0.4709107018E-14   0.4990114320E-14  -0.1069598192E-15  -0.2987008853E-16   0.1322058076E-15   0.6250000009E-02  -0.3118750004E-02  -0.3118750004E-02  -0.4958977158E-19  -0.6233970525E-17   0.2534271213E-17   0.3125000004E+01
   0.2012500000E+01   0.9968812500E+00   0.9968812500E+00   0.2500000000E-02  -0.6237500000E-03  -0.6237500000E-03   0.1000000000E-01  -0.2495000000E-02  -0.2495000000E-02   0.3125000004E+01  -0.5588963133E-14  -0.5692548327E-14  -0.9527915120E-16   0.3787372561E-15  -0.1875905952E-15   0.6250000008E-02  -0.3118750004E-02  -0.3118750004E-02  -0.4869924611E-18   0.5102850523E-17  -0.3610350960E-17   0.3125000004E+01
     1     2     3     4     5     6     7     8
     2     9    10     3     6    11    12     7
 VARIABLES = X,Y,Z,DU1,DU2,DU3,U1,U2,U3,S11,S22,S33,S12,S13,S23,E11,E22,E33,E12,E13,E23,SMISES
 ZONE, T="0.3000D+00" F=FEPOINT, I=   12 J=    2 ET=BRICK
   0.0000000000E+00   0.0000000000E+00   0.0000000000E+00   0.0000000000E+00   0.0000000000E+00   0.0000000000E+00   0.0000000000E+00   0.0000000000E+00   0.0000000000E+00   0.3750000006E+01   0.6416185901E-14   0.6529930336E-14   0.6711203013E-17  -0.8808107961E-16   0.2461129702E-15   0.7500000012E-02  -0.3742500006E-02  -0.3742500006E-02  -0.9341640167E-18  -0.3523328085E-18   0.2449646529E-17   0.3750000006E+01
   0.1007500000E+01   0.0000000000E+00  -0.8056401458E-18   0.1250000000E-02   0.0000000000E+00   0.3434928405E-18   0.6250000000E-02   0.0000000000E+00  -0.1149132986E-17   0.3750000006E+01   0.9800385212E-14   0.9835577868E-14   0.7241492642E-16  -0.6306580092E-16   0.7595255517E-16   0.7500000012E-02  -0.3742500006E-02  -0.3742500006E-02   0.1620705388E-17  -0.4148118294E-18   0.2130562431E-17   0.3750000006E+01
   0.1007500000E+01   0.9962575000E+00  -0.4412105908E-19   0.1250000000E-02  -0.6237500000E-03   0.4645395469E-18   0.6250000000E-02  -0.3118750000E-02  -0.5086606060E-18   0.3750000005E+01  -0.5259171809E-13  -0.5298574044E-13  -0.2336879109E-16   0.1433523131E-15   0.2086626668E-15   0.7500000011E-02  -0.3742500005E-02  -0.3742500005E-02  -0.1353791508E-17  -0.2116812203E-17   0.9211759390E-18   0.3750000005E+01
   0.0000000000E+00   0.9962575000E+00   0.1016213513E-17   0.0000000000E+00  -0.6237500000E-03   0.9719419699E-19   0.0000000000E+00  -0.3118750000E-02   0.9190193164E-18   0.3750000005E+01  -0.3233075814E-14  -0.3648146048E-14  -0.1412093490E-15  -0.1068025372E-15   0.1543906154E-17   0.7500000011E-02  -0.3742500005E-02  -0.3742500005E-02  -0.3449105511E-17  -0.4711318066E-18   0.1111227207E-18   0.3750000005E+01
   0.0000000000E+00   0.0000000000E+00   0.9962575000E+00   0.0000000000E+00   0.0000000000E+00  -0.6237500000E-03   0.0000000000E+00   0.0000000000E+00  -0.3118750000E-02   0.3750000005E+01  -0.4381483710E-14  -0.4456583916E-14  -0.8739807269E-18  -0.9138669909E-16  -0.1630873783E-15   0.7500000011E-02  -0.3742500005E-02  -0.3742500005E-02   0.9392579045E-18  -0.7417784776E-18  -0.3167585692E-17   0.3750000005E+01
   0.1007500000E+01   0.0000000000E+00   0.9962575000E+00   0.1250000000E-02   0.0000000000E+00  -0.6237500000E-03   0.6250000000E-02   0.0000000000E+00  -0.3118750000E-02   0.3750000005E+01   0.5609075941E-14   0.5932712956E-14   0.2370581448E-15  -0.8519126933E-16   0.8272520259E-16   0.7500000011E-02  -0.3742500005E-02  -0.3742500005E-02   0.6409742362E-18  -0.2733582445E-17  -0.4100243423E-18   0.3750000005E+01
   0.1007500000E+01   0.9962575000E+00   0.9962575000E+00   0.1250000000E-02  -0.6237500000E-03  -0.6237500000E-03   0.6250000000E-02  -0.3118750000E-02  -0.3118750000E-02   0.3750000005E+01   0.2551715243E-13   0.2528966353E-13   0.2668401839E-15   0.1650888138E-15  -0.6423058144E-16   0.7500000010E-02  -0.3742500005E-02  -0.3742500005E-02   0.2198577609E-17   0.4584813629E-17   0.8979961476E-18   0.3750000005E+01
   0.0000000000E+00   0.9962575000E+00   0.9962575000E+00   0.0000000000E+00  -0.6237500000E-03  -0.6237500000E-03   0.0000000000E+00  -0.3118750000E-02  -0.3118750000E-02   0.3750000005E+01   0.2617672363E-13   0.2642180884E-13   0.8624806464E-16  -0.1246357488E-16  -0.1409699013E-15   0.7500000010E-02  -0.3742500005E-02  -0.3742500005E-02   0.5181073625E-18   0.9017846261E-18  -0.3090925887E-17   0.3750000005E+01
   0.2015000000E+01   0.0000000000E+00  -0.2176628122E-17   0.2500000000E-02   0.0000000000E+00   0.2761064513E-17   0.1250000000E-01   0.0000000000E+00  -0.4937692636E-17   0.3750000006E+01  -0.2494463266E-14  -0.2486296782E-14  -0.1862098332E-15  -0.2215400869E-15  -0.1532649871E-15   0.7500000011E-02  -0.3742500006E-02  -0.3742500006E-02  -0.4609840053E-17  -0.3702519698E-17  -0.1907970570E-17   0.3750000006E+01
   0.2015000000E+01   0.9962575000E+00  -0.2825021433E-17   0.2500000000E-02  -0.6237500000E-03   0.1258963344E-17   0.1250000000E-01  -0.3118750000E-02  -0.4083984777E-17   0.3750000005E+01  -0.6227497798E-13  -0.6217411494E-13  -0.1231371761E-15  -0.3322143355E-16  -0.1336789106E-15   0.7500000010E-02  -0.3742500005E-02  -0.3742500005E-02  -0.1307546454E-17   0.5349982918E-17  -0.1446067867E-17   0.3750000005E+01
   0.2015000000E+01   0.0000000000E+00   0.9962575000E+00   0.2500000000E-02   0.0000000000E+00  -0.6237500000E-03   0.1250000000E-01   0.0000000000E+00  -0.3118750000E-02   0.3750000005E+01  -0.5330477773E-13  -0.5344083342E-13   0.2991453889E-15  -0.3305233045E-15   0.1420639677E-16   0.7500000010E-02  -0.3742500005E-02  -0.3742500005E-02   0.8295385175E-17   0.7558379989E-17   0.1264472386E-17   0.3750000005E+01
   0.2015000000E+01   0.9962575000E+00   0.9962575000E+00   0.2500000000E-02  -0.6237500000E-03  -0.6237500000E-03   0.1250000000E-01  -0.3118750000E-02  -0.3118750000E-02   0.3750000005E+01   0.7846266015E-14   0.7863862329E-14   0.2343775302E-15   0.6992535928E-15  -0.1991176639E-15   0.7500000010E-02  -0.3742500005E-02  -0.3742500005E-02   0.7758467759E-17  -0.3271860392E-17  -0.2836934632E-17   0.3750000005E+01
     1     2     3     4     5     6     7     8
     2     9    10     3     6    11    12     7
 VARIABLES = X,Y,Z,DU1,DU2,DU3,U1,U2,U3,S11,S22,S33,S12,S13,S23,E11,E22,E33,E12,E13,E23,SMISES
 ZONE, T="0.3500D+00" F=FEPOINT, I=   12 J=    2 ET=BRICK
   0.0000000000E+00   0.0000000000E+00   0.0000000000E+00   0.0000000000E+00   0.0000000000E+00   0.0000000000E+00   0.0000000000E+00   0.0000000000E+00   0.0000000000E+00   0.4375000007E+01  -0.3055219158E-13  -0.3003625830E-13   0.6375320692E-17   0.3275140578E-17   0.9213413105E-16   0.8750000014E-02  -0.4366250007E-02  -0.4366250007E-02   0.3021968303E-18  -0.2203753397E-18  -0.6088691055E-18   0.4375000007E+01
   0.1008750000E+01   0.0000000000E+00   0.3367692221E-18   0.1250000000E-02   0.0000000000E+00   0.1142409368E-17   0.7500000000E-02   0.0000000000E+00  -0.8056401458E-18   0.4375000007E+01  -0.1729388916E-14  -0.1344796407E-14   0.4605619071E-16  -0.4296353135E-16  -0.1146114173E-15   0.8750000013E-02  -0.4366250007E-02  -0.4366250007E-02   0.2399973040E-18  -0.4083508966E-18   0.5701157246E-18   0.4375000007E+01
   0.1008750000E+01   0.9956337500E+00  -0.1409216467E-18   0.1250000000E-02  -0.6237500000E-03  -0.9680058763E-19   0.7500000000E-02  -0.3742500000E-02  -0.4412105908E-19   0.4375000006E+01   0.1140098919E-13   0.1133060389E-13  -0.9871944744E-16   0.1956436983E-15   0.2524246583E-15   0.8750000012E-02  -0.4366250006E-02  -0.4366250006E-02  -0.1199776834E-17   0.4040865979E-18   0.1407587988E-17   0.4375000006E+01
   0.0000000000E+00   0.9956337500E+00   0.2629698897E-19   0.0000000000E+00  -0.6237500000E-03  -0.9899165244E-18   0.0000000000E+00  -0.3742500000E-02   0.1016213513E-17   0.4375000006E+01   0.3649977819E-13   0.3649977820E-13  -0.1694920939E-15  -0.7709713152E-16   0.1770069081E-15   0.8750000013E-02  -0.4366250006E-02  -0.4366250006E-02  -0.4431624026E-17   0.8218595169E-19  -0.1489564819E-17   0.4375000006E+01
   0.0000000000E+00   0.0000000000E+00   0.9956337500E+00   0.0000000000E+00   0.0000000000E+00  -0.6237500000E-03   0.0000000000E+00   0.0000000000E+00  -0.3742500000E-02   0.4375000006E+01   0.2563550560E-14   0.2134335573E-14  -0.3521997838E-17   0.1718446278E-16  -0.2916983483E-15   0.8750000013E-02  -0.4366250006E-02  -0.4366250006E-02  -0.4748742084E-18  -0.2384701827E-18   0.3965740036E-18   0.4375000006E+01
   0.1008750000E+01   0.0000000000E+00   0.9956337500E+00   0.1250000000E-02   0.0000000000E+00  -0.6237500000E-03   0.7500000000E-02   0.0000000000E+00  -0.3742500000E-02   0.4375000006E+01  -0.3302215271E-13  -0.3314406366E-13   0.2068772663E-15  -0.9255345861E-16  -0.1046014776E-15   0.8750000012E-02  -0.4366250006E-02  -0.4366250006E-02   0.2009538964E-17   0.1523177824E-17  -0.3508857272E-17   0.4375000006E+01
   0.1008750000E+01   0.9956337500E+00   0.9956337500E+00   0.1250000000E-02  -0.6237500000E-03  -0.6237500000E-03   0.7500000000E-02  -0.3742500000E-02  -0.3742500000E-02   0.4375000006E+01  -0.1864875221E-13  -0.1922564097E-13   0.1955101397E-15   0.1563289514E-15   0.6809402749E-16   0.8750000011E-02  -0.4366250006E-02  -0.4366250006E-02   0.2492726023E-17  -0.2537452764E-18   0.5129675182E-17   0.4375000006E+01
   0.0000000000E+00   0.9956337500E+00   0.9956337500E+00   0.0000000000E+00  -0.6237500000E-03  -0.6237500000E-03   0.0000000000E+00  -0.3742500000E-02  -0.3742500000E-02   0.4375000006E+01  -0.1151892432E-13  -0.1167602795E-13  -0.7750740555E-17   0.2734966096E-16   0.6972623105E-16   0.8750000012E-02  -0.4366250006E-02  -0.4366250006E-02  -0.4232161028E-18   0.1618262567E-17  -0.4833418296E-18   0.4375000006E+01
   0.2017500000E+01   0.0000000000E+00   0.2057468769E-17   0.2500000000E-02   0.0000000000E+00   0.4234096891E-17   0.1500000000E-01   0.0000000000E+00  -0.2176628122E-17   0.4375000007E+01   0.6940400403E-13   0.7004184829E-13  -0.4723610847E-16  -0.2315727732E-15  -0.2814661935E-15   0.8750000013E-02  -0.4366250007E-02  -0.4366250007E-02   0.1097979663E-17  -0.8329813886E-17  -0.2755594177E-17   0.4375000007E+01
   0.2017500000E+01   0.9956337500E+00   0.6790176827E-18   0.2500000000E-02  -0.6237500000E-03   0.3504039115E-17   0.1500000000E-01  -0.3742500000E-02  -0.2825021433E-17   0.4375000006E+01  -0.2485639687E-13  -0.2394644125E-13  -0.6230643008E-16  -0.3340725110E-15   0.1067529251E-15   0.8750000012E-02  -0.4366250006E-02  -0.4366250006E-02   0.3086969813E-17  -0.1308036930E-17   0.7654392886E-18   0.4375000006E+01
   0.2017500000E+01   0.0000000000E+00   0.9956337500E+00   0.2500000000E-02   0.0000000000E+00  -0.6237500000E-03   0.1500000000E-01   0.0000000000E+00  -0.3742500000E-02   0.4375000006E+01  -0.2514348833E-13  -0.2523963645E-13   0.1785001297E-15  -0.2239849500E-15  -0.1882447852E-15   0.8750000012E-02  -0.4366250006E-02  -0.4366250006E-02  -0.3871544209E-18  -0.6230192224E-17  -0.6332958324E-18   0.4375000006E+01
   0.2017500000E+01   0.9956337500E+00   0.9956337500E+00   0.2500000000E-02  -0.6237500000E-03  -0.6237500000E-03   0.1500000000E-01  -0.3742500000E-02  -0.3742500000E-02   0.4375000006E+01  -0.3809095450E-13  -0.3870303589E-13   0.1851237487E-15   0.3961608516E-15  -0.5410662343E-16   0.8750000011E-02  -0.4366250006E-02  -0.4366250006E-02   0.2141119765E-17  -0.5893133529E-18   0.3242935728E-17   0.4375000006E+01
     1     2     3     4     5     6     7     8
     2     9    10     3     6    11    12     7
 VARIABLES = X,Y,Z,DU1,DU2,DU3,U1,U2,U3,S11,S22,S33,S12,S13,S23,E11,E22,E33,E12,E13,E23,SMISES
 ZONE, T="0.4000D+00" F=FEPOINT, I=   12 J=    2 ET=BRICK
   0.0000000000E+00   0.0000000000E+00   0.0000000000E+00   0.0000000000E+00   0.0000000000E+00   0.0000000000E+00   0.0000000000E+00   0.0000000000E+00   0.0000000000E+00   0.5000000008E+01   0.4596506005E-14   0.4990528349E-14   0.2869364133E-17  -0.4977007086E-16   0.1591574835E-16   0.1000000002E-01  -0.4990000008E-02  -0.4990000008E-02  -0.5494991836E-18  -0.3359468213E-17  -0.1294687218E-17   0.5000000008E+01
   0.1010000000E+01   0.0000000000E+00  -0.1569833765E-18   0.1250000000E-02   0.0000000000E+00  -0.4937525986E-18   0.8750000000E-02   0.0000000000E+00   0.3367692221E-18   0.5000000008E+01  -0.9368074437E-14  -0.8983481928E-14  -0.3492382848E-15  -0.2962719785E-15  -0.9674445396E-16   0.1000000002E-01  -0.4990000008E-02  -0.4990000008E-02  -0.4665983589E-17  -0.1867003826E-18  -0.2758017340E-18   0.5000000008E+01
   0.1010000000E+01   0.9950100000E+00  -0.5687438610E-18   0.1250000000E-02  -0.6237500000E-03  -0.4278222143E-18   0.8750000000E-02  -0.4366250000E-02  -0.1409216467E-18   0.5000000007E+01  -0.3444103340E-13  -0.3431912244E-13  -0.4360061206E-15   0.3965025871E-15   0.2282784034E-15   0.1000000001E-01  -0.4990000007E-02  -0.4990000007E-02  -0.8637027641E-17   0.5157208810E-18   0.2694466241E-17   0.5000000007E+01
   0.0000000000E+00   0.9950100000E+00  -0.4071579897E-18   0.0000000000E+00  -0.6237500000E-03  -0.4334549786E-18   0.0000000000E+00  -0.4366250000E-02   0.2629698897E-19   0.5000000007E+01  -0.5102380827E-13  -0.5066497856E-13  -0.1699422182E-15  -0.5304574419E-16   0.3851908259E-16   0.1000000001E-01  -0.4990000007E-02  -0.4990000007E-02  -0.5947823357E-17   0.1208964270E-17  -0.1817762494E-18   0.5000000007E+01
   0.0000000000E+00   0.0000000000E+00   0.9950100000E+00   0.0000000000E+00   0.0000000000E+00  -0.6237500000E-03   0.0000000000E+00   0.0000000000E+00  -0.4366250000E-02   0.5000000007E+01  -0.1877497788E-13  -0.1932610379E-13  -0.1889624924E-16   0.1072861080E-15  -0.1130444600E-15   0.1000000001E-01  -0.4990000007E-02  -0.4990000007E-02  -0.5902211902E-18   0.1215254091E-17   0.3489818663E-17   0.5000000007E+01
   0.1010000000E+01   0.0000000000E+00   0.9950100000E+00   0.1250000000E-02   0.0000000000E+00  -0.6237500000E-03   0.8750000000E-02   0.0000000000E+00  -0.4366250000E-02   0.5000000007E+01   0.1657441391E-13   0.1645250296E-13   0.1619898136E-15  -0.2267795154E-15  -0.5354531807E-16   0.1000000001E-01  -0.4990000007E-02  -0.4990000007E-02   0.2776482383E-17  -0.7729843724E-18  -0.7321520631E-19   0.5000000007E+01
   0.1010000000E+01   0.9950100000E+00   0.9950100000E+00   0.1250000000E-02  -0.6237500000E-03  -0.6237500000E-03   0.8750000000E-02  -0.4366250000E-02  -0.4366250000E-02   0.5000000007E+01  -0.6678633980E-14  -0.7063226489E-14   0.1870227448E-15   0.2397111110E-15   0.3096550550E-16   0.1000000001E-01  -0.4990000007E-02  -0.4990000007E-02   0.6697650829E-17  -0.1222108118E-18   0.7898894982E-18   0.5000000007E+01
   0.0000000000E+00   0.9950100000E+00   0.9950100000E+00   0.0000000000E+00  -0.6237500000E-03  -0.6237500000E-03   0.0000000000E+00  -0.4366250000E-02  -0.4366250000E-02   0.5000000007E+01   0.8798675544E-13   0.8818848152E-13  -0.5835992924E-17  -0.4177654233E-16   0.2711443673E-15   0.1000000001E-01  -0.4990000007E-02  -0.4990000007E-02  -0.2586532897E-17   0.2377282818E-17   0.1929484455E-17   0.5000000007E+01
   0.2020000000E+01   0.0000000000E+00   0.9333208522E-18   0.2500000000E-02   0.0000000000E+00  -0.1124147917E-17   0.1750000000E-01   0.0000000000E+00   0.2057468769E-17   0.5000000008E+01  -0.5141332208E-13  -0.5103815940E-13  -0.2330947517E-15  -0.4444816048E-16  -0.2756267714E-15   0.1000000002E-01  -0.4990000008E-02  -0.4990000008E-02  -0.2743156742E-17   0.6764335153E-17  -0.1637319960E-17   0.5000000008E+01
   0.2020000000E+01   0.9950100000E+00  -0.3705506341E-18   0.2500000000E-02  -0.6237500000E-03  -0.1049568317E-17   0.1750000000E-01  -0.4366250000E-02   0.6790176827E-18   0.5000000007E+01   0.3763694233E-13   0.3818806824E-13  -0.1225008503E-15  -0.2385118526E-15   0.1193744538E-15   0.1000000001E-01  -0.4990000007E-02  -0.4990000007E-02   0.5579555661E-17   0.4169798638E-17  -0.2833283626E-17   0.5000000007E+01
   0.2020000000E+01   0.0000000000E+00   0.9950100000E+00   0.2500000000E-02   0.0000000000E+00  -0.6237500000E-03   0.1750000000E-01   0.0000000000E+00  -0.4366250000E-02   0.5000000007E+01  -0.4946554271E-15  -0.8534851360E-15   0.2431576007E-16  -0.2115967564E-15  -0.1750655085E-15   0.1000000001E-01  -0.4990000007E-02  -0.4990000007E-02  -0.3215820188E-17  -0.1109906523E-16  -0.9469073407E-18   0.5000000007E+01
   0.2020000000E+01   0.9950100000E+00   0.9950100000E+00   0.2500000000E-02  -0.6237500000E-03  -0.6237500000E-03   0.1750000000E-01  -0.4366250000E-02  -0.4366250000E-02   0.5000000006E+01  -0.7480172588E-13  -0.7577263698E-13   0.2636145938E-15   0.2416746386E-15  -0.4715683274E-16   0.1000000001E-01  -0.4990000006E-02  -0.4990000006E-02  -0.2475043393E-17   0.1115832682E-16  -0.4797977324E-18   0.5000000006E+01
     1     2     3     4     5     6     7     8
     2     9    10     3     6    11    12     7
 VARIABLES = X,Y,Z,DU1,DU2,DU3,U1,U2,U3,S11,S22,S33,S12,S13,S23,E11,E22,E33,E12,E13,E23,SMISES
 ZONE, T="0.4500D+00" F=FEPOINT, I=   12 J=    2 ET=BRICK
   0.0000000000E+00   0.0000000000E+00   0.0000000000E+00   0.0000000000E+00   0.0000000000E+00   0.0000000000E+00   0.0000000000E+00   0.0000000000E+00   0.0000000000E+00   0.5625000009E+01   0.4859153163E-13   0.4901603171E-13   0.3624495921E-17   0.3219577772E-16   0.1442032287E-15   0.1125000002E-01  -0.5613750009E-02  -0.5613750009E-02  -0.1025093187E-17   0.9785975665E-18  -0.9613533292E-18   0.5625000009E+01
   0.1011250000E+01   0.0000000000E+00  -0.1209488457E-18   0.1250000000E-02   0.0000000000E+00   0.3603453074E-19   0.1000000000E-01   0.0000000000E+00  -0.1569833765E-18   0.5625000009E+01   0.3564385228E-14   0.3695726023E-14  -0.1748823158E-15  -0.2165464465E-15  -0.1918741466E-16   0.1125000002E-01  -0.5613750009E-02  -0.5613750009E-02   0.6337397461E-18  -0.4884705285E-17  -0.9210950885E-18   0.5625000009E+01
   0.1011250000E+01   0.9943862500E+00  -0.3787863976E-19   0.1250000000E-02  -0.6237500000E-03   0.5308652213E-18   0.1000000000E-01  -0.4990000000E-02  -0.5687438610E-18   0.5625000008E+01   0.3169387127E-13   0.3165867862E-13  -0.2591150586E-15   0.2220635420E-15   0.1413438607E-15   0.1125000002E-01  -0.5613750008E-02  -0.5613750008E-02  -0.1801324545E-17   0.5904235190E-17   0.2977924555E-17   0.5625000008E+01
   0.0000000000E+00   0.9943862500E+00   0.3638676763E-18   0.0000000000E+00  -0.6237500000E-03   0.7710256659E-18   0.0000000000E+00  -0.4990000000E-02  -0.4071579897E-18   0.5625000008E+01   0.1066319430E-13   0.1100442769E-13  -0.8519630167E-16  -0.8913809677E-16  -0.5121715113E-16   0.1125000002E-01  -0.5613750008E-02  -0.5613750008E-02  -0.6869411144E-17  -0.1391841350E-17  -0.3372482287E-17   0.5625000008E+01
   0.0000000000E+00   0.0000000000E+00   0.9943862500E+00   0.0000000000E+00   0.0000000000E+00  -0.6237500000E-03   0.0000000000E+00   0.0000000000E+00  -0.4990000000E-02   0.5625000008E+01  -0.1190923753E-13  -0.1208393742E-13  -0.2731758357E-16   0.3793274627E-16  -0.7730843686E-16   0.1125000002E-01  -0.5613750008E-02  -0.5613750008E-02   0.5481839186E-18  -0.6381340733E-18   0.3292126461E-17   0.5625000008E+01
   0.1011250000E+01   0.0000000000E+00   0.9943862500E+00   0.1250000000E-02   0.0000000000E+00  -0.6237500000E-03   0.1000000000E-01   0.0000000000E+00  -0.4990000000E-02   0.5625000008E+01   0.3619971669E-14   0.3462868060E-14   0.4514475374E-16  -0.5973587876E-16   0.4784886814E-16   0.1125000002E-01  -0.5613750008E-02  -0.5613750008E-02   0.1633640251E-17   0.9804386689E-18   0.2712267916E-17   0.5625000008E+01
   0.1011250000E+01   0.9943862500E+00   0.9943862500E+00   0.1250000000E-02  -0.6237500000E-03  -0.6237500000E-03   0.1000000000E-01  -0.4990000000E-02  -0.4990000000E-02   0.5625000007E+01   0.6834775107E-14   0.6389227139E-14   0.5926883757E-16   0.9698872800E-17  -0.9803870551E-16   0.1125000001E-01  -0.5613750007E-02  -0.5613750007E-02   0.2683225869E-17  -0.4205287798E-18   0.2580292152E-17   0.5625000007E+01
   0.0000000000E+00   0.9943862500E+00   0.9943862500E+00   0.0000000000E+00  -0.6237500000E-03  -0.6237500000E-03   0.0000000000E+00  -0.4990000000E-02  -0.4990000000E-02   0.5625000008E+01  -0.3695792222E-13  -0.3636688871E-13   0.9546489555E-16   0.5391433449E-16   0.9723038326E-16   0.1125000002E-01  -0.5613750008E-02  -0.5613750008E-02   0.9444347455E-18   0.5387263732E-17   0.1786282064E-17   0.5625000008E+01
   0.2022500000E+01   0.0000000000E+00  -0.2331172283E-18   0.2500000000E-02   0.0000000000E+00  -0.1166438080E-17   0.2000000000E-01   0.0000000000E+00   0.9333208522E-18   0.5625000009E+01  -0.3761412871E-13  -0.3681446597E-13  -0.5241193695E-16  -0.1671030210E-15  -0.1397000432E-15   0.1125000002E-01  -0.5613750008E-02  -0.5613750008E-02  -0.6608428904E-17   0.8817916555E-18   0.7848362927E-18   0.5625000009E+01
   0.2022500000E+01   0.9943862500E+00  -0.6920499385E-18   0.2500000000E-02  -0.6237500000E-03  -0.3214993045E-18   0.2000000000E-01  -0.4990000000E-02  -0.3705506341E-18   0.5625000008E+01   0.6003451277E-13   0.6034055347E-13  -0.4193745336E-17  -0.1081238514E-15   0.1504216828E-15   0.1125000002E-01  -0.5613750008E-02  -0.5613750008E-02  -0.1787929870E-17   0.2660247320E-17  -0.4122075614E-17   0.5625000008E+01
   0.2022500000E+01   0.0000000000E+00   0.9943862500E+00   0.2500000000E-02   0.0000000000E+00  -0.6237500000E-03   0.2000000000E-01   0.0000000000E+00  -0.4990000000E-02   0.5625000008E+01  -0.8523369692E-15  -0.9403186040E-15   0.1457651257E-15   0.5620096685E-16  -0.1098313815E-15   0.1125000002E-01  -0.5613750008E-02  -0.5613750008E-02   0.1811477354E-17  -0.6883956036E-17  -0.5235602540E-18   0.5625000008E+01
   0.2022500000E+01   0.9943862500E+00   0.9943862500E+00   0.2500000000E-02  -0.6237500000E-03  -0.6237500000E-03   0.2000000000E-01  -0.4990000000E-02  -0.4990000000E-02   0.5625000007E+01   0.2716462253E-13   0.2664397432E-13   0.3522127342E-15   0.1290632323E-15  -0.6847104094E-16   0.1125000001E-01  -0.5613750007E-02  -0.5613750007E-02   0.3186093133E-18   0.7962905752E-17  -0.4896037694E-18   0.5625000007E+01
     1     2     3     4     5     6     7     8
     2     9    10     3     6    11    12     7
 VARIABLES = X,Y,Z,DU1,DU2,DU3,U1,U2,U3,S11,S22,S33,S12,S13,S23,E11,E22,E33,E12,E13,E23,SMISES
 ZONE, T="0.5000D+00" F=FEPOINT, I=   12 J=    2 ET=BRICK
   0.0000000000E+00   0.0000000000E+00   0.0000000000E+00   0.0000000000E+00   0.0000000000E+00   0.0000000000E+00   0.0000000000E+00   0.0000000000E+00   0.0000000000E+00   0.6250000010E+01  -0.5560829559E-14  -0.5610896381E-14   0.8021941900E-17  -0.2220877942E-16  -0.1068508994E-16   0.1250000002E-01  -0.6237500010E-02  -0.6237500010E-02  -0.5376036278E-18   0.2716421386E-18   0.1548120874E-17   0.6250000010E+01
   0.1012500000E+01   0.0000000000E+00  -0.1246685682E-18   0.1250000000E-02   0.0000000000E+00  -0.3719722463E-20   0.1125000000E-01   0.0000000000E+00  -0.1209488457E-18   0.6250000010E+01   0.4479991252E-15   0.1458088383E-14  -0.1448468625E-15  -0.9714252110E-16  -0.8370678189E-16   0.1250000002E-01  -0.6237500010E-02  -0.6237500010E-02   0.4958546993E-18   0.2207472295E-17  -0.1301459296E-17   0.6250000010E+01
   0.1012500000E+01   0.9937625000E+00  -0.4042028297E-18   0.1250000000E-02  -0.6237500000E-03  -0.3663241899E-18   0.1125000000E-01  -0.5613750000E-02  -0.3787863976E-19   0.6250000009E+01   0.8968681423E-14   0.9364162573E-14  -0.1897978406E-15   0.1821797146E-15   0.1484032199E-15   0.1250000002E-01  -0.6237500009E-02  -0.6237500009E-02  -0.7824260361E-18  -0.6142199622E-18  -0.5379637209E-18   0.6250000009E+01
   0.0000000000E+00   0.9937625000E+00  -0.5365311132E-18   0.0000000000E+00  -0.6237500000E-03  -0.9003987894E-18   0.0000000000E+00  -0.5613750000E-02   0.3638676763E-18   0.6250000009E+01  -0.1237083340E-13  -0.1244666300E-13  -0.2027902333E-16  -0.1979118899E-16   0.6745408116E-16   0.1250000002E-01  -0.6237500009E-02  -0.6237500009E-02  -0.3210150472E-17  -0.1515092087E-17  -0.3891297949E-17   0.6250000009E+01
   0.0000000000E+00   0.0000000000E+00   0.9937625000E+00   0.0000000000E+00   0.0000000000E+00  -0.6237500000E-03   0.0000000000E+00   0.0000000000E+00  -0.5613750000E-02   0.6250000009E+01   0.4842275652E-13   0.4757774190E-13  -0.4130897205E-16   0.4416851933E-16  -0.2003824248E-15   0.1250000002E-01  -0.6237500009E-02  -0.6237500009E-02  -0.6523032913E-18   0.2346799231E-17  -0.1190008259E-17   0.6250000009E+01
   0.1012500000E+01   0.0000000000E+00   0.9937625000E+00   0.1250000000E-02   0.0000000000E+00  -0.6237500000E-03   0.1125000000E-01   0.0000000000E+00  -0.5613750000E-02   0.6250000009E+01   0.9124251017E-14   0.8750547149E-14  -0.1659922035E-17  -0.4865108556E-16   0.4063665909E-16   0.1250000002E-01  -0.6237500009E-02  -0.6237500009E-02   0.1323131874E-17  -0.1290065407E-17   0.6020746831E-17   0.6250000009E+01
   0.1012500000E+01   0.9937625000E+00   0.9937625000E+00   0.1250000000E-02  -0.6237500000E-03  -0.6237500000E-03   0.1125000000E-01  -0.5613750000E-02  -0.5613750000E-02   0.6250000008E+01  -0.3424816478E-13  -0.3481416486E-13  -0.8277264572E-16  -0.2574933370E-16  -0.6825906479E-16   0.1250000002E-01  -0.6237500008E-02  -0.6237500008E-02  -0.2266278391E-17  -0.7887417981E-18   0.2655199471E-17   0.6250000008E+01
   0.0000000000E+00   0.9937625000E+00   0.9937625000E+00   0.0000000000E+00  -0.6237500000E-03  -0.6237500000E-03   0.0000000000E+00  -0.5613750000E-02  -0.5613750000E-02   0.6250000008E+01  -0.1195443230E-13  -0.1146027637E-13  -0.1088435757E-15   0.1755533486E-15   0.2575468505E-15   0.1250000002E-01  -0.6237500008E-02  -0.6237500008E-02  -0.2264852959E-17   0.6160063943E-17   0.2050106731E-17   0.6250000008E+01
   0.2025000000E+01   0.0000000000E+00   0.5524061861E-18   0.2500000000E-02   0.0000000000E+00   0.7855234143E-18   0.2250000000E-01   0.0000000000E+00  -0.2331172283E-18   0.6250000009E+01   0.2898210991E-13   0.2905395401E-13  -0.2756902660E-15  -0.2735273548E-15  -0.1641819518E-15   0.1250000002E-01  -0.6237500009E-02  -0.6237500009E-02  -0.3457408843E-17   0.5631804310E-17  -0.1833457566E-17   0.6250000009E+01
   0.2025000000E+01   0.9937625000E+00  -0.5398463176E-19   0.2500000000E-02  -0.6237500000E-03   0.6380653068E-18   0.2250000000E-01  -0.5613750000E-02  -0.6920499385E-18   0.6250000009E+01   0.1005711980E-14   0.7187264370E-15  -0.1869456513E-15   0.6882801975E-16   0.1026841489E-15   0.1250000002E-01  -0.6237500009E-02  -0.6237500009E-02  -0.2136368033E-17   0.7385479678E-17  -0.1482894282E-19   0.6250000009E+01
   0.2025000000E+01   0.0000000000E+00   0.9937625000E+00   0.2500000000E-02   0.0000000000E+00  -0.6237500000E-03   0.2250000000E-01   0.0000000000E+00  -0.5613750000E-02   0.6250000009E+01   0.1912703974E-13   0.1807086918E-13   0.1553843582E-16  -0.2465080382E-16  -0.8448535706E-16   0.1250000002E-01  -0.6237500009E-02  -0.6237500009E-02   0.3582658150E-17   0.7457382277E-17   0.1130749924E-17   0.6250000009E+01
   0.2025000000E+01   0.9937625000E+00   0.9937625000E+00   0.2500000000E-02  -0.6237500000E-03  -0.6237500000E-03   0.2250000000E-01  -0.5613750000E-02  -0.5613750000E-02   0.6250000008E+01  -0.6599103353E-13  -0.6561878856E-13   0.2501960374E-15   0.2072217985E-15  -0.7488866608E-16   0.1250000002E-01  -0.6237500008E-02  -0.6237500008E-02   0.7179013586E-17  -0.5517209323E-17  -0.2615252688E-17   0.6250000008E+01
     1     2     3     4     5     6     7     8
     2     9    10     3     6    11    12     7
 VARIABLES = X,Y,Z,DU1,DU2,DU3,U1,U2,U3,S11,S22,S33,S12,S13,S23,E11,E22,E33,E12,E13,E23,SMISES
 ZONE, T="0.5500D+00" F=FEPOINT, I=   12 J=    2 ET=BRICK
   0.0000000000E+00   0.0000000000E+00   0.0000000000E+00   0.0000000000E+00   0.0000000000E+00   0.0000000000E+00   0.0000000000E+00   0.0000000000E+00   0.0000000000E+00   0.6875000011E+01   0.8643719638E-14   0.8467756341E-14   0.2502690486E-16  -0.1249387061E-15   0.1131413319E-15   0.1375000002E-01  -0.6861250011E-02  -0.6861250011E-02  -0.1198850606E-17  -0.9230314908E-18  -0.2030060674E-17   0.6875000011E+01
   0.1013750000E+01   0.0000000000E+00  -0.1258640634E-17   0.1250000000E-02   0.0000000000E+00  -0.1133972066E-17   0.1250000000E-01   0.0000000000E+00  -0.1246685682E-18   0.6875000011E+01   0.2040533105E-13   0.2075725764E-13  -0.1445222917E-15  -0.1782448619E-15   0.1284756559E-15   0.1375000002E-01  -0.6861250011E-02  -0.6861250011E-02   0.4783440204E-17  -0.2031501598E-17   0.2240809612E-17   0.6875000011E+01
   0.1013750000E+01   0.9931387500E+00  -0.2270152706E-18   0.1250000000E-02  -0.6237500000E-03   0.1771875591E-18   0.1250000000E-01  -0.6237500000E-02  -0.4042028297E-18   0.6875000010E+01  -0.2784099130E-14  -0.2662188230E-14  -0.1631973180E-15   0.1371662514E-15   0.5300772194E-16   0.1375000002E-01  -0.6861250010E-02  -0.6861250010E-02   0.4503067291E-17  -0.3655365937E-17  -0.1821311766E-17   0.6875000010E+01
   0.0000000000E+00   0.9931387500E+00   0.2712396108E-18   0.0000000000E+00  -0.6237500000E-03   0.8077707240E-18   0.0000000000E+00  -0.6237500000E-02  -0.5365311132E-18   0.6875000010E+01  -0.3195809906E-14  -0.3500587195E-14   0.1572651686E-15   0.4936223775E-16  -0.9168655048E-16   0.1375000002E-01  -0.6861250010E-02  -0.6861250010E-02  -0.1292522398E-17   0.2029269113E-17  -0.1233946419E-17   0.6875000010E+01
   0.0000000000E+00   0.0000000000E+00   0.9931387500E+00   0.0000000000E+00   0.0000000000E+00  -0.6237500000E-03   0.0000000000E+00   0.0000000000E+00  -0.6237500000E-02   0.6875000010E+01  -0.4591183685E-13  -0.4623547380E-13  -0.5525545524E-16  -0.1154524833E-15  -0.2304700205E-16   0.1375000002E-01  -0.6861250010E-02  -0.6861250010E-02  -0.4224958111E-19  -0.6755666281E-18   0.8308569871E-17   0.6875000010E+01
   0.1013750000E+01   0.0000000000E+00   0.9931387500E+00   0.1250000000E-02   0.0000000000E+00  -0.6237500000E-03   0.1250000000E-01   0.0000000000E+00  -0.6237500000E-02   0.6875000010E+01  -0.2122703347E-13  -0.2057975945E-13   0.1564983821E-15  -0.6654751820E-16   0.2448501820E-15   0.1375000002E-01  -0.6861250010E-02  -0.6861250010E-02   0.2890577494E-17  -0.4236890185E-18   0.7530592706E-17   0.6875000010E+01
   0.1013750000E+01   0.9931387500E+00   0.9931387500E+00   0.1250000000E-02  -0.6237500000E-03  -0.6237500000E-03   0.1250000000E-01  -0.6237500000E-02  -0.6237500000E-02   0.6875000009E+01   0.3867176077E-13   0.3769141992E-13   0.3970086852E-17  -0.1839864848E-16  -0.2593760735E-15   0.1375000002E-01  -0.6861250009E-02  -0.6861250009E-02   0.7527574981E-18  -0.5309175649E-17  -0.1611450413E-17   0.6875000009E+01
   0.0000000000E+00   0.9931387500E+00   0.9931387500E+00   0.0000000000E+00  -0.6237500000E-03  -0.6237500000E-03   0.0000000000E+00  -0.6237500000E-02  -0.6237500000E-02   0.6875000009E+01  -0.1693871907E-13  -0.1553859305E-13   0.4610015487E-16   0.6970521434E-16   0.1379281578E-15   0.1375000002E-01  -0.6861250009E-02  -0.6861250009E-02  -0.1706355372E-17   0.6432070748E-17  -0.7012682236E-18   0.6875000009E+01
   0.2027500000E+01   0.0000000000E+00  -0.3826392393E-17   0.2500000000E-02   0.0000000000E+00  -0.4378798579E-17   0.2500000000E-01   0.0000000000E+00   0.5524061861E-18   0.6875000010E+01  -0.5667735588E-13  -0.5653911199E-13  -0.3281033149E-15  -0.3127278776E-15  -0.1012963137E-15   0.1375000002E-01  -0.6861250010E-02  -0.6861250010E-02  -0.8312381917E-17   0.1295824396E-16   0.2721564697E-17   0.6875000010E+01
   0.2027500000E+01   0.9931387500E+00  -0.4073283436E-17   0.2500000000E-02  -0.6237500000E-03  -0.4019298804E-17   0.2500000000E-01  -0.6237500000E-02  -0.5398463176E-19   0.6875000010E+01  -0.3695070214E-13  -0.3727433911E-13  -0.3969728618E-15   0.2457478847E-15  -0.2132959658E-15   0.1375000002E-01  -0.6861250010E-02  -0.6861250010E-02  -0.5590364258E-17  -0.1650147771E-17  -0.8064490407E-17   0.6875000010E+01
   0.2027500000E+01   0.0000000000E+00   0.9931387500E+00   0.2500000000E-02   0.0000000000E+00  -0.6237500000E-03   0.2500000000E-01   0.0000000000E+00  -0.6237500000E-02   0.6875000010E+01  -0.5807462665E-14  -0.6393781181E-14   0.3846216468E-15  -0.1164292102E-15   0.4764220006E-16   0.1375000002E-01  -0.6861250010E-02  -0.6861250010E-02  -0.5024077314E-17   0.1247826601E-16  -0.7995520384E-18   0.6875000010E+01
   0.2027500000E+01   0.9931387500E+00   0.9931387500E+00   0.2500000000E-02  -0.6237500000E-03  -0.6237500000E-03   0.2500000000E-01  -0.6237500000E-02  -0.6237500000E-02   0.6875000009E+01   0.1346678831E-12   0.1358945726E-12   0.3724414898E-15   0.7098969926E-15  -0.1660219688E-15   0.1375000002E-01  -0.6861250009E-02  -0.6861250009E-02  -0.3953572957E-17  -0.1013192743E-17   0.2179908434E-17   0.6875000009E+01
     1     2     3     4     5     6     7     8
     2     9    10     3     6    11    12     7
 VARIABLES = X,Y,Z,DU1,DU2,DU3,U1,U2,U3,S11,S22,S33,S12,S13,S23,E11,E22,E33,E12,E13,E23,SMISES
 ZONE, T="0.6000D+00" F=FEPOINT, I=   12 J=    2 ET=BRICK
   0.0000000000E+00   0.0000000000E+00   0.0000000000E+00   0.0000000000E+00   0.0000000000E+00   0.0000000000E+00   0.0000000000E+00   0.0000000000E+00   0.0000000000E+00   0.7500000012E+01   0.1209869283E-13   0.1227358815E-13   0.3126487024E-16  -0.8226186069E-16   0.9456393042E-16   0.1500000002E-01  -0.7485000012E-02  -0.7485000012E-02   0.2833579058E-17   0.2525676771E-17  -0.9183682006E-18   0.7500000012E+01
   0.1015000000E+01   0.0000000000E+00  -0.4541943933E-18   0.1250000000E-02   0.0000000000E+00   0.8044462404E-18   0.1375000000E-01   0.0000000000E+00  -0.1258640634E-17   0.7500000012E+01  -0.1939836953E-13  -0.1891364336E-13   0.2434266722E-15   0.2295285214E-16   0.7697281687E-17   0.1500000002E-01  -0.7485000012E-02  -0.7485000012E-02   0.5936098964E-17  -0.4840420921E-17   0.4091211671E-18   0.7500000012E+01
   0.1015000000E+01   0.9925150000E+00  -0.2009172950E-18   0.1250000000E-02  -0.6237500000E-03   0.2609797561E-19   0.1375000000E-01  -0.6861250000E-02  -0.2270152706E-18   0.7500000011E+01  -0.5232064183E-14  -0.4695812498E-14   0.1227091728E-15  -0.9682831732E-17   0.3266607010E-15   0.1500000002E-01  -0.7485000011E-02  -0.7485000011E-02   0.7778055227E-17   0.1935161571E-17   0.1927779747E-17   0.7500000011E+01
   0.0000000000E+00   0.9925150000E+00   0.1131233008E-18   0.0000000000E+00  -0.6237500000E-03  -0.1581163100E-18   0.0000000000E+00  -0.6861250000E-02   0.2712396108E-18   0.7500000011E+01  -0.1542579515E-13  -0.1634119506E-13  -0.3150429725E-16  -0.8101788090E-17   0.1174180856E-15   0.1500000002E-01  -0.7485000011E-02  -0.7485000011E-02  -0.2627631744E-17  -0.3350891930E-17   0.3095267341E-17   0.7500000011E+01
   0.0000000000E+00   0.0000000000E+00   0.9925150000E+00   0.0000000000E+00   0.0000000000E+00  -0.6237500000E-03   0.0000000000E+00   0.0000000000E+00  -0.6861250000E-02   0.7500000011E+01   0.8862458408E-14   0.8209740041E-14  -0.6550779089E-16  -0.8659122704E-16  -0.3663882281E-15   0.1500000002E-01  -0.7485000011E-02  -0.7485000011E-02  -0.1570391472E-17  -0.9105562324E-18   0.7414586473E-18   0.7500000011E+01
   0.1015000000E+01   0.0000000000E+00   0.9925150000E+00   0.1250000000E-02   0.0000000000E+00  -0.6237500000E-03   0.1375000000E-01   0.0000000000E+00  -0.6861250000E-02   0.7500000011E+01   0.4310874166E-13   0.4311963023E-13   0.3074977496E-15   0.9353662100E-16  -0.6746758249E-16   0.1500000002E-01  -0.7485000011E-02  -0.7485000011E-02   0.9152151294E-17   0.5868580974E-17   0.4201746324E-17   0.7500000011E+01
   0.1015000000E+01   0.9925150000E+00   0.9925150000E+00   0.1250000000E-02  -0.6237500000E-03  -0.6237500000E-03   0.1375000000E-01  -0.6861250000E-02  -0.6861250000E-02   0.7500000010E+01  -0.2241717709E-13  -0.2441849589E-13   0.3888049874E-16   0.1500243300E-17  -0.1861794247E-15   0.1500000002E-01  -0.7485000010E-02  -0.7485000010E-02   0.3719527042E-17  -0.8116224935E-17   0.1228758778E-17   0.7500000010E+01
   0.0000000000E+00   0.9925150000E+00   0.9925150000E+00   0.0000000000E+00  -0.6237500000E-03  -0.6237500000E-03   0.0000000000E+00  -0.6861250000E-02  -0.6861250000E-02   0.7500000010E+01   0.2318248189E-13   0.2320280024E-13   0.6833742750E-16  -0.8428829300E-18   0.9305297930E-16   0.1500000002E-01  -0.7485000010E-02  -0.7485000010E-02   0.6958329007E-18   0.2369869706E-17  -0.7975918837E-17   0.7500000010E+01
   0.2030000000E+01   0.0000000000E+00  -0.8053535408E-18   0.2500000000E-02   0.0000000000E+00   0.3021038852E-17   0.2750000000E-01   0.0000000000E+00  -0.3826392393E-17   0.7500000011E+01  -0.2655023871E-13  -0.2649725428E-13   0.2671051679E-15  -0.3797294409E-15  -0.1127062899E-15   0.1500000002E-01  -0.7485000011E-02  -0.7485000011E-02   0.5819113043E-17   0.1134195056E-16  -0.5703486949E-18   0.7500000011E+01
   0.2030000000E+01   0.9925150000E+00  -0.9821553544E-18   0.2500000000E-02  -0.6237500000E-03   0.3091128082E-17   0.2750000000E-01  -0.6861250000E-02  -0.4073283436E-17   0.7500000010E+01   0.5510758479E-13   0.5489098458E-13   0.1750952036E-15  -0.1013690711E-15   0.1694553415E-15   0.1500000002E-01  -0.7485000010E-02  -0.7485000010E-02   0.4946370066E-17  -0.5973688480E-17   0.8338330067E-18   0.7500000010E+01
   0.2030000000E+01   0.0000000000E+00   0.9925150000E+00   0.2500000000E-02   0.0000000000E+00  -0.6237500000E-03   0.2750000000E-01   0.0000000000E+00  -0.6861250000E-02   0.7500000010E+01   0.4490036214E-13   0.4470262160E-13   0.3706501663E-15   0.1861540018E-16  -0.1845860099E-15   0.1500000002E-01  -0.7485000010E-02  -0.7485000010E-02  -0.5478635552E-17   0.7990905469E-17  -0.1805316820E-17   0.7500000010E+01
   0.2030000000E+01   0.9925150000E+00   0.9925150000E+00   0.2500000000E-02  -0.6237500000E-03  -0.6237500000E-03   0.2750000000E-01  -0.6861250000E-02  -0.6861250000E-02   0.7500000010E+01  -0.7697832870E-13  -0.7641378750E-13   0.2265191636E-15   0.3015980879E-15  -0.1044829857E-15   0.1500000002E-01  -0.7485000010E-02  -0.7485000010E-02  -0.6234102744E-17   0.8341057140E-17  -0.2146250868E-17   0.7500000010E+01
     1     2     3     4     5     6     7     8
     2     9    10     3     6    11    12     7
 VARIABLES = X,Y,Z,DU1,DU2,DU3,U1,U2,U3,S11,S22,S33,S12,S13,S23,E11,E22,E33,E12,E13,E23,SMISES
 ZONE, T="0.6500D+00" F=FEPOINT, I=   12 J=    2 ET=BRICK
   0.0000000000E+00   0.0000000000E+00   0.0000000000E+00   0.0000000000E+00   0.0000000000E+00   0.0000000000E+00   0.0000000000E+00   0.0000000000E+00   0.0000000000E+00   0.8125000013E+01  -0.5621335636E-13  -0.5612517933E-13   0.3804848082E-16  -0.1838000627E-15   0.1015634734E-15   0.1625000003E-01  -0.8108750013E-02  -0.8108750013E-02  -0.9774583894E-18  -0.2804997265E-17  -0.1948458296E-17   0.8125000013E+01
   0.1016250000E+01   0.0000000000E+00  -0.1396564992E-17   0.1250000000E-02   0.0000000000E+00  -0.9423705982E-18   0.1500000000E-01   0.0000000000E+00  -0.4541943933E-18   0.8125000013E+01  -0.4917855987E-14  -0.4606566368E-14   0.1675935810E-15   0.2035757185E-15   0.9931736872E-16   0.1625000003E-01  -0.8108750012E-02  -0.8108750012E-02   0.1245811679E-16   0.1211729871E-17  -0.2636412736E-18   0.8125000013E+01
   0.1016250000E+01   0.9918912500E+00  -0.5580233467E-18   0.1250000000E-02  -0.6237500000E-03  -0.3571060517E-18   0.1500000000E-01  -0.7485000000E-02  -0.2009172950E-18   0.8125000012E+01   0.1085043688E-13   0.1126477763E-13   0.7126579952E-16  -0.9429905592E-16   0.5476383017E-16   0.1625000002E-01  -0.8108750012E-02  -0.8108750012E-02   0.1153267229E-16  -0.2824893679E-17  -0.9031859498E-18   0.8125000012E+01
   0.0000000000E+00   0.9918912500E+00   0.1455269776E-18   0.0000000000E+00  -0.6237500000E-03   0.3240367684E-19   0.0000000000E+00  -0.7485000000E-02   0.1131233008E-18   0.8125000012E+01   0.5644707135E-13   0.5508612352E-13  -0.2307587974E-16   0.4312555605E-16  -0.2037977800E-15   0.1625000002E-01  -0.8108750012E-02  -0.8108750012E-02  -0.3242318005E-17   0.4437214634E-18  -0.8362790036E-18   0.8125000012E+01
   0.0000000000E+00   0.0000000000E+00   0.9918912500E+00   0.0000000000E+00   0.0000000000E+00  -0.6237500000E-03   0.0000000000E+00   0.0000000000E+00  -0.7485000000E-02   0.8125000012E+01   0.2542438809E-13   0.2509530683E-13  -0.9091152501E-16  -0.1498761784E-15  -0.8668087133E-16   0.1625000002E-01  -0.8108750012E-02  -0.8108750012E-02  -0.1105983227E-17  -0.5574660477E-19   0.6505845275E-17   0.8125000012E+01
   0.1016250000E+01   0.0000000000E+00   0.9918912500E+00   0.1250000000E-02   0.0000000000E+00  -0.6237500000E-03   0.1500000000E-01   0.0000000000E+00  -0.7485000000E-02   0.8125000012E+01   0.9935272689E-16   0.7575153808E-15   0.2611192788E-16   0.1845419584E-15   0.2698607331E-15   0.1625000002E-01  -0.8108750012E-02  -0.8108750012E-02   0.4388328863E-17   0.2168178231E-17   0.7339896039E-17   0.8125000012E+01
   0.1016250000E+01   0.9918912500E+00   0.9918912500E+00   0.1250000000E-02  -0.6237500000E-03  -0.6237500000E-03   0.1500000000E-01  -0.7485000000E-02  -0.7485000000E-02   0.8125000011E+01   0.1719991303E-13   0.1565357210E-13  -0.2585813361E-15  -0.1229150748E-15  -0.2182523099E-15   0.1625000002E-01  -0.8108750011E-02  -0.8108750011E-02   0.2725173152E-17  -0.4728989100E-17   0.7572574655E-18   0.8125000011E+01
   0.0000000000E+00   0.9918912500E+00   0.9918912500E+00   0.0000000000E+00  -0.6237500000E-03  -0.6237500000E-03   0.0000000000E+00  -0.7485000000E-02  -0.7485000000E-02   0.8125000011E+01  -0.2245340745E-13  -0.2077028145E-13   0.6902864447E-16  -0.2809848690E-16   0.8950723406E-17   0.1625000002E-01  -0.8108750011E-02  -0.8108750011E-02   0.1912699800E-17   0.8745446755E-18   0.3875823195E-18   0.8125000011E+01
   0.2032500000E+01   0.0000000000E+00  -0.4498971855E-17   0.2500000000E-02   0.0000000000E+00  -0.3693618314E-17   0.3000000000E-01   0.0000000000E+00  -0.8053535408E-18   0.8125000012E+01   0.4446208133E-13   0.4435796218E-13  -0.1602687308E-15  -0.5266930654E-15   0.3711395993E-16   0.1625000002E-01  -0.8108750012E-02  -0.8108750012E-02  -0.3852342576E-17  -0.1881545989E-17   0.3897143830E-17   0.8125000012E+01
   0.2032500000E+01   0.9918912500E+00  -0.3810105736E-17   0.2500000000E-02  -0.6237500000E-03  -0.2827950382E-17   0.3000000000E-01  -0.7485000000E-02  -0.9821553544E-18   0.8125000011E+01  -0.3932629549E-13  -0.3972576209E-13  -0.2245179040E-15   0.2926904059E-15   0.5108173250E-16   0.1625000002E-01  -0.8108750011E-02  -0.8108750011E-02  -0.1018710971E-16   0.1258962733E-16   0.1044466089E-17   0.8125000011E+01
   0.2032500000E+01   0.0000000000E+00   0.9918912500E+00   0.2500000000E-02   0.0000000000E+00  -0.6237500000E-03   0.3000000000E-01   0.0000000000E+00  -0.7485000000E-02   0.8125000011E+01  -0.4492699344E-14  -0.4104121260E-14   0.2775009215E-15  -0.4395486086E-16  -0.3350383834E-16   0.1625000002E-01  -0.8108750011E-02  -0.8108750011E-02  -0.8316222403E-17  -0.1075360596E-17  -0.2226348399E-17   0.8125000011E+01
   0.2032500000E+01   0.9918912500E+00   0.9918912500E+00   0.2500000000E-02  -0.6237500000E-03  -0.6237500000E-03   0.3000000000E-01  -0.7485000000E-02  -0.7485000000E-02   0.8125000010E+01   0.7492168193E-13   0.7616868987E-13   0.2437038056E-15   0.4502973092E-15  -0.1742452268E-15   0.1625000002E-01  -0.8108750010E-02  -0.8108750010E-02  -0.5635654857E-17   0.6260840607E-17   0.3222688835E-17   0.8125000010E+01
     1     2     3     4     5     6     7     8
     2     9    10     3     6    11    12     7
 VARIABLES = X,Y,Z,DU1,DU2,DU3,U1,U2,U3,S11,S22,S33,S12,S13,S23,E11,E22,E33,E12,E13,E23,SMISES
 ZONE, T="0.7000D+00" F=FEPOINT, I=   12 J=    2 ET=BRICK
   0.0000000000E+00   0.0000000000E+00   0.0000000000E+00   0.0000000000E+00   0.0000000000E+00   0.0000000000E+00   0.0000000000E+00   0.0000000000E+00   0.0000000000E+00   0.8750000014E+01  -0.3881281615E-13  -0.3795545410E-13   0.3256210453E-16  -0.1558987844E-16  -0.6267316062E-16   0.1750000003E-01  -0.8732500014E-02  -0.8732500014E-02   0.4664472976E-18  -0.2591181610E-17  -0.1625470845E-17   0.8750000014E+01
   0.1017500000E+01   0.0000000000E+00   0.5691877728E-18   0.1250000000E-02   0.0000000000E+00   0.1965752764E-17   0.1625000000E-01   0.0000000000E+00  -0.1396564992E-17   0.8750000013E+01   0.1837531078E-15   0.1264227745E-14   0.2599243446E-15   0.8771951544E-16  -0.1068371335E-15   0.1750000003E-01  -0.8732500013E-02  -0.8732500013E-02   0.4704227600E-17   0.7394278144E-17  -0.3497549812E-17   0.8750000013E+01
   0.1017500000E+01   0.9912675000E+00   0.1820770229E-18   0.1250000000E-02  -0.6237500000E-03   0.7401003696E-18   0.1625000000E-01  -0.8108750000E-02  -0.5580233467E-18   0.8750000012E+01   0.2133904830E-13   0.2175338904E-13   0.1884961884E-15  -0.3682841157E-16   0.4871272792E-15   0.1750000002E-01  -0.8732500012E-02  -0.8732500012E-02   0.8761386184E-17  -0.1041342613E-16   0.7567715531E-17   0.8750000012E+01
   0.0000000000E+00   0.9912675000E+00  -0.8807077991E-18   0.0000000000E+00  -0.6237500000E-03  -0.1026234777E-17   0.0000000000E+00  -0.8108750000E-02   0.1455269776E-18   0.8750000013E+01   0.1777416825E-13   0.1641322042E-13   0.1736098826E-16   0.1599159506E-15   0.3280003086E-15   0.1750000003E-01  -0.8732500013E-02  -0.8732500013E-02   0.8200181190E-18   0.6086122754E-17   0.3675604994E-18   0.8750000013E+01
   0.0000000000E+00   0.0000000000E+00   0.9912675000E+00   0.0000000000E+00   0.0000000000E+00  -0.6237500000E-03   0.0000000000E+00   0.0000000000E+00  -0.8108750000E-02   0.8750000013E+01   0.1296946882E-13   0.1264038756E-13  -0.8344846088E-16   0.1624591083E-16  -0.5702178211E-15   0.1750000003E-01  -0.8732500013E-02  -0.8732500013E-02   0.9607004072E-18   0.3326628940E-17   0.1030426269E-17   0.8750000013E+01
   0.1017500000E+01   0.0000000000E+00   0.9912675000E+00   0.1250000000E-02   0.0000000000E+00  -0.6237500000E-03   0.1625000000E-01   0.0000000000E+00  -0.8108750000E-02   0.8750000012E+01  -0.2313561925E-13  -0.2247745660E-13   0.2812661637E-15  -0.3069517504E-16  -0.1042460614E-15   0.1750000002E-01  -0.8732500012E-02  -0.8732500012E-02   0.3279971740E-17  -0.3536997497E-17   0.8178834162E-17   0.8750000012E+01
   0.1017500000E+01   0.9912675000E+00   0.9912675000E+00   0.1250000000E-02  -0.6237500000E-03  -0.6237500000E-03   0.1625000000E-01  -0.8108750000E-02  -0.8108750000E-02   0.8750000011E+01   0.5057207217E-15  -0.1809805221E-14   0.1038963024E-16   0.9204450544E-17  -0.4446424544E-16   0.1750000002E-01  -0.8732500011E-02  -0.8732500011E-02   0.6311875188E-17  -0.2418278749E-17   0.2088481974E-17   0.8750000011E+01
   0.0000000000E+00   0.9912675000E+00   0.9912675000E+00   0.0000000000E+00  -0.6237500000E-03  -0.6237500000E-03   0.0000000000E+00  -0.8108750000E-02  -0.8108750000E-02   0.8750000012E+01  -0.1120030205E-13  -0.1028636106E-13   0.7774633255E-16   0.1791723283E-15   0.2484910019E-15   0.1750000002E-01  -0.8732500012E-02  -0.8732500012E-02  -0.1998838760E-17   0.3201390812E-17   0.1108112202E-16   0.8750000012E+01
   0.2035000000E+01   0.0000000000E+00   0.3350671727E-17   0.2500000000E-02   0.0000000000E+00   0.7849643582E-17   0.3250000000E-01   0.0000000000E+00  -0.4498971855E-17   0.8750000013E+01   0.5290040307E-13   0.5356546894E-13   0.2093384991E-15  -0.5684603800E-15  -0.1931049902E-15   0.1750000003E-01  -0.8732500013E-02  -0.8732500013E-02  -0.4750331342E-17  -0.6508062843E-17  -0.2544304991E-17   0.8750000013E+01
   0.2035000000E+01   0.9912675000E+00   0.2680774665E-17   0.2500000000E-02  -0.6237500000E-03   0.6490880402E-17   0.3250000000E-01  -0.8108750000E-02  -0.3810105736E-17   0.8750000012E+01  -0.1635593581E-13  -0.1675540240E-13   0.2533258760E-15   0.2303823889E-15   0.2793702171E-15   0.1750000002E-01  -0.8732500012E-02  -0.8732500012E-02  -0.1261647960E-16  -0.1549574819E-16   0.8042422730E-17   0.8750000012E+01
   0.2035000000E+01   0.0000000000E+00   0.9912675000E+00   0.2500000000E-02   0.0000000000E+00  -0.6237500000E-03   0.3250000000E-01   0.0000000000E+00  -0.8108750000E-02   0.8750000012E+01  -0.4720987421E-13  -0.4682129612E-13   0.6733176238E-15  -0.2016557792E-15  -0.4842166870E-15   0.1750000002E-01  -0.8732500012E-02  -0.8732500012E-02  -0.5728187717E-19  -0.6301760697E-17  -0.1732049213E-17   0.8750000012E+01
   0.2035000000E+01   0.9912675000E+00   0.9912675000E+00   0.2500000000E-02  -0.6237500000E-03  -0.6237500000E-03   0.3250000000E-01  -0.8108750000E-02  -0.8108750000E-02   0.8750000011E+01  -0.3535247766E-13  -0.3487465474E-13   0.5090042867E-15   0.2016324818E-15  -0.1105418291E-15   0.1750000002E-01  -0.8732500011E-02  -0.8732500011E-02  -0.1590519783E-17   0.7634071849E-17  -0.1402253576E-17   0.8750000011E+01
     1     2     3     4     5     6     7     8
     2     9    10     3     6    11    12     7
 VARIABLES = X,Y,Z,DU1,DU2,DU3,U1,U2,U3,S11,S22,S33,S12,S13,S23,E11,E22,E33,E12,E13,E23,SMISES
 ZONE, T="0.7500D+00" F=FEPOINT, I=   12 J=    2 ET=BRICK
   0.0000000000E+00   0.0000000000E+00   0.0000000000E+00   0.0000000000E+00   0.0000000000E+00   0.0000000000E+00   0.0000000000E+00   0.0000000000E+00   0.0000000000E+00   0.9375000015E+01   0.4302340657E-13   0.4403242789E-13   0.3626905567E-16   0.7827007269E-16  -0.2818351658E-15   0.1875000003E-01  -0.9356250015E-02  -0.9356250015E-02  -0.1108917065E-18  -0.3239016119E-17  -0.3135968349E-17   0.9375000015E+01
   0.1018750000E+01   0.0000000000E+00   0.1561718828E-17   0.1250000000E-02   0.0000000000E+00   0.9925310555E-18   0.1750000000E-01   0.0000000000E+00   0.5691877728E-18   0.9375000014E+01   0.1014444596E-13   0.1092160204E-13  -0.3695314931E-16  -0.1329495173E-16  -0.3173856778E-15   0.1875000003E-01  -0.9356250014E-02  -0.9356250014E-02   0.2827183628E-17   0.8388485015E-17  -0.5581858381E-17   0.9375000014E+01
   0.1018750000E+01   0.9906437500E+00  -0.5744756190E-19   0.1250000000E-02  -0.6237500000E-03  -0.2395245848E-18   0.1750000000E-01  -0.8732500000E-02   0.1820770229E-18   0.9375000013E+01  -0.3548399895E-13  -0.3460379174E-13  -0.6448934066E-16  -0.5823820470E-16   0.5665201171E-15   0.1875000003E-01  -0.9356250013E-02  -0.9356250013E-02   0.9233908766E-17  -0.6720813010E-17   0.6817228125E-17   0.9375000013E+01
   0.0000000000E+00   0.9906437500E+00  -0.2151603845E-17   0.0000000000E+00  -0.6237500000E-03  -0.1270896046E-17   0.0000000000E+00  -0.8732500000E-02  -0.8807077991E-18   0.9375000014E+01  -0.2773322242E-13  -0.2817332595E-13   0.3096627190E-16   0.2893044595E-15   0.4612390751E-15   0.1875000003E-01  -0.9356250014E-02  -0.9356250014E-02   0.4590629675E-17   0.3108421943E-17   0.5208691429E-17   0.9375000014E+01
   0.0000000000E+00   0.0000000000E+00   0.9906437500E+00   0.0000000000E+00   0.0000000000E+00  -0.6237500000E-03   0.0000000000E+00   0.0000000000E+00  -0.8732500000E-02   0.9375000014E+01   0.4695812877E-14   0.3556909625E-14  -0.8572350193E-16   0.1484142936E-15  -0.6034623204E-15   0.1875000003E-01  -0.9356250014E-02  -0.9356250014E-02  -0.6247628380E-19   0.2205848258E-17  -0.3753331300E-17   0.9375000014E+01
   0.1018750000E+01   0.0000000000E+00   0.9906437500E+00   0.1250000000E-02   0.0000000000E+00  -0.6237500000E-03   0.1750000000E-01   0.0000000000E+00  -0.8732500000E-02   0.9375000013E+01  -0.1117202148E-14  -0.1146950560E-14   0.9975231244E-16  -0.2118535871E-15  -0.2017091422E-15   0.1875000003E-01  -0.9356250013E-02  -0.9356250013E-02  -0.1264910453E-17   0.7037816253E-17   0.3041090639E-17   0.9375000013E+01
   0.1018750000E+01   0.9906437500E+00   0.9906437500E+00   0.1250000000E-02  -0.6237500000E-03  -0.6237500000E-03   0.1750000000E-01  -0.8732500000E-02  -0.8732500000E-02   0.9375000012E+01  -0.1646047627E-13  -0.1869472826E-13  -0.1396380433E-15   0.3858117765E-16   0.1313918280E-15   0.1875000002E-01  -0.9356250012E-02  -0.9356250012E-02  -0.8423766877E-17   0.2669573227E-17   0.6946526324E-17   0.9375000012E+01
   0.0000000000E+00   0.9906437500E+00   0.9906437500E+00   0.0000000000E+00  -0.6237500000E-03  -0.6237500000E-03   0.0000000000E+00  -0.8732500000E-02  -0.8732500000E-02   0.9375000013E+01  -0.4204961505E-18   0.8728835152E-15   0.4423113822E-16   0.1980359094E-15   0.4625025072E-15   0.1875000003E-01  -0.9356250013E-02  -0.9356250013E-02   0.4116832029E-17   0.7654727097E-17   0.1624848358E-16   0.9375000013E+01
   0.2037500000E+01   0.0000000000E+00   0.6576497658E-17   0.2500000000E-02   0.0000000000E+00   0.3225825931E-17   0.3500000000E-01   0.0000000000E+00   0.3350671727E-17   0.9375000014E+01  -0.3363918278E-13  -0.3373241330E-13  -0.6026746277E-16  -0.5976644172E-15  -0.3787842293E-15   0.1875000003E-01  -0.9356250014E-02  -0.9356250014E-02  -0.1733017290E-16  -0.9840673082E-17  -0.1636514735E-17   0.9375000014E+01
   0.2037500000E+01   0.9906437500E+00   0.4757807258E-17   0.2500000000E-02  -0.6237500000E-03   0.2077032592E-17   0.3500000000E-01  -0.8732500000E-02   0.2680774665E-17   0.9375000013E+01  -0.5218886905E-13  -0.5257744701E-13   0.3050896572E-16   0.2500639588E-15   0.3806113573E-15   0.1875000003E-01  -0.9356250013E-02  -0.9356250013E-02  -0.2376327695E-16   0.2901845644E-16   0.2078413493E-17   0.9375000013E+01
   0.2037500000E+01   0.0000000000E+00   0.9906437500E+00   0.2500000000E-02   0.0000000000E+00  -0.6237500000E-03   0.3500000000E-01   0.0000000000E+00  -0.8732500000E-02   0.9375000013E+01   0.3740638653E-13   0.3722896448E-13   0.1936041177E-15  -0.6818869574E-16  -0.5340421490E-15   0.1875000003E-01  -0.9356250013E-02  -0.9356250013E-02  -0.9614627852E-17  -0.2745472886E-16  -0.7149909245E-17   0.9375000013E+01
   0.2037500000E+01   0.9906437500E+00   0.9906437500E+00   0.2500000000E-02  -0.6237500000E-03  -0.6237500000E-03   0.3500000000E-01  -0.8732500000E-02  -0.8732500000E-02   0.9375000012E+01   0.4136427377E-14   0.4817435180E-14   0.1834049195E-15   0.2162262857E-15   0.1632222871E-15   0.1875000002E-01  -0.9356250012E-02  -0.9356250012E-02  -0.7305349448E-17  -0.1029846429E-16   0.6652101839E-17   0.9375000012E+01
     1     2     3     4     5     6     7     8
     2     9    10     3     6    11    12     7
 VARIABLES = X,Y,Z,DU1,DU2,DU3,U1,U2,U3,S11,S22,S33,S12,S13,S23,E11,E22,E33,E12,E13,E23,SMISES
 ZONE, T="0.8000D+00" F=FEPOINT, I=   12 J=    2 ET=BRICK
   0.0000000000E+00   0.0000000000E+00   0.0000000000E+00   0.0000000000E+00   0.0000000000E+00   0.0000000000E+00   0.0000000000E+00   0.0000000000E+00   0.0000000000E+00   0.1000000002E+02   0.4101447672E-13   0.4280901601E-13   0.2956325943E-16   0.3434253154E-15  -0.4672747228E-15   0.2000000003E-01  -0.9980000016E-02  -0.9980000016E-02  -0.2378271249E-17   0.6446696991E-17  -0.3721102787E-17   0.1000000002E+02
   0.1020000000E+01   0.0000000000E+00   0.4024088041E-17   0.1250000000E-02   0.0000000000E+00   0.2462369213E-17   0.1875000000E-01   0.0000000000E+00   0.1561718828E-17   0.1000000002E+02  -0.1057686366E-13  -0.8575544763E-14   0.3988493241E-15   0.3209871030E-16  -0.6107557870E-15   0.2000000003E-01  -0.9980000015E-02  -0.9980000015E-02   0.8173699876E-17  -0.8587302134E-17  -0.8789846188E-17   0.1000000002E+02
   0.1020000000E+01   0.9900200000E+00   0.6446330262E-18   0.1250000000E-02  -0.6237500000E-03   0.7020805881E-18   0.1875000000E-01  -0.9356250000E-02  -0.5744756190E-19   0.1000000001E+02   0.2900385994E-13   0.3000597814E-13   0.2442993969E-15  -0.2134844411E-15   0.1001520210E-14   0.2000000003E-01  -0.9980000014E-02  -0.9980000014E-02   0.1546695905E-17   0.8888045816E-17   0.1190987268E-16   0.1000000001E+02
   0.0000000000E+00   0.9900200000E+00  -0.3275437936E-17   0.0000000000E+00  -0.6237500000E-03  -0.1123834090E-17   0.0000000000E+00  -0.9356250000E-02  -0.2151603845E-17   0.1000000001E+02  -0.3597413899E-13  -0.3623137616E-13  -0.4462715800E-16   0.4319664287E-15   0.9010724300E-15   0.2000000003E-01  -0.9980000015E-02  -0.9980000015E-02   0.5958771126E-17   0.2458888437E-17   0.1110709688E-16   0.1000000001E+02
   0.0000000000E+00   0.0000000000E+00   0.9900200000E+00   0.0000000000E+00   0.0000000000E+00  -0.6237500000E-03   0.0000000000E+00   0.0000000000E+00  -0.9356250000E-02   0.1000000001E+02  -0.2932426186E-13  -0.3111986907E-13  -0.1017875934E-15   0.3583308130E-15  -0.1132937814E-14   0.2000000003E-01  -0.9980000015E-02  -0.9980000015E-02  -0.1204804854E-17   0.1108501344E-16  -0.1363620225E-16   0.1000000001E+02
   0.1020000000E+01   0.0000000000E+00   0.9900200000E+00   0.1250000000E-02   0.0000000000E+00  -0.6237500000E-03   0.1875000000E-01   0.0000000000E+00  -0.9356250000E-02   0.1000000001E+02   0.1748900498E-13   0.1695275314E-13   0.3801144951E-15  -0.1515728108E-15  -0.6570952154E-15   0.2000000003E-01  -0.9980000014E-02  -0.9980000014E-02   0.4264706051E-17  -0.8241448913E-20  -0.1883928113E-17   0.1000000001E+02
   0.1020000000E+01   0.9900200000E+00   0.9900200000E+00   0.1250000000E-02  -0.6237500000E-03  -0.6237500000E-03   0.1875000000E-01  -0.9356250000E-02  -0.9356250000E-02   0.1000000001E+02   0.8572630796E-14   0.5639579079E-14  -0.1650421625E-16   0.2584100758E-16   0.4345521387E-15   0.2000000003E-01  -0.9980000013E-02  -0.9980000013E-02   0.1904759174E-17   0.5888193163E-18   0.5532578332E-17   0.1000000001E+02
   0.0000000000E+00   0.9900200000E+00   0.9900200000E+00   0.0000000000E+00  -0.6237500000E-03  -0.6237500000E-03   0.0000000000E+00  -0.9356250000E-02  -0.9356250000E-02   0.1000000001E+02  -0.1672563936E-16  -0.8577549493E-15   0.1320233558E-15   0.4025928900E-15   0.6523672970E-15   0.2000000003E-01  -0.9980000013E-02  -0.9980000013E-02   0.9604889491E-18   0.5139994210E-17   0.1638682878E-16   0.1000000001E+02
   0.2040000000E+01   0.0000000000E+00   0.1481785687E-16   0.2500000000E-02   0.0000000000E+00   0.8241359216E-17   0.3750000000E-01   0.0000000000E+00   0.6576497658E-17   0.1000000002E+02  -0.1463899438E-13  -0.1345400966E-13   0.5867146254E-15  -0.9622584859E-15  -0.6787543005E-15   0.2000000003E-01  -0.9980000015E-02  -0.9980000015E-02  -0.4446954679E-17  -0.4745323424E-17  -0.1113579549E-16   0.1000000002E+02
   0.2040000000E+01   0.9900200000E+00   0.1120871500E-16   0.2500000000E-02  -0.6237500000E-03   0.6450907745E-17   0.3750000000E-01  -0.9356250000E-02   0.4757807258E-17   0.1000000001E+02   0.1471014652E-12   0.1482091615E-12   0.5019274365E-15  -0.2555173895E-15   0.7306358366E-15   0.2000000003E-01  -0.9980000014E-02  -0.9980000014E-02  -0.1651344805E-16  -0.2475373066E-17   0.1106805392E-16   0.1000000001E+02
   0.2040000000E+01   0.0000000000E+00   0.9900200000E+00   0.2500000000E-02   0.0000000000E+00  -0.6237500000E-03   0.3750000000E-01   0.0000000000E+00  -0.9356250000E-02   0.1000000001E+02   0.3348902996E-13   0.3305835621E-13   0.5962711684E-15  -0.1016568296E-15  -0.8870084893E-15   0.2000000003E-01  -0.9980000014E-02  -0.9980000014E-02   0.3241881499E-17   0.3575147235E-16  -0.2061781330E-17   0.1000000001E+02
   0.2040000000E+01   0.9900200000E+00   0.9900200000E+00   0.2500000000E-02  -0.6237500000E-03  -0.6237500000E-03   0.3750000000E-01  -0.9356250000E-02  -0.9356250000E-02   0.1000000001E+02  -0.2190618618E-13  -0.2129303693E-13   0.3887161108E-15   0.7412722448E-16   0.4617838061E-15   0.2000000003E-01  -0.9980000013E-02  -0.9980000013E-02  -0.1865057030E-17  -0.3997410458E-16   0.1056845451E-18   0.1000000001E+02
     1     2     3     4     5     6     7     8
     2     9    10     3     6    11    12     7
 VARIABLES = X,Y,Z,DU1,DU2,DU3,U1,U2,U3,S11,S22,S33,S12,S13,S23,E11,E22,E33,E12,E13,E23,SMISES
 ZONE, T="0.8500D+00" F=FEPOINT, I=   12 J=    2 ET=BRICK
   0.0000000000E+00   0.0000000000E+00   0.0000000000E+00   0.0000000000E+00   0.0000000000E+00   0.0000000000E+00   0.0000000000E+00   0.0000000000E+00   0.0000000000E+00   0.1062500002E+02  -0.8166565738E-12  -0.8834818406E-12   0.3154324424E-16  -0.1172760381E-12  -0.6195751913E-13   0.3375000005E-01  -0.1685375003E-01  -0.1685375003E-01  -0.9297600372E-18  -0.2240989672E-14  -0.1188075995E-14   0.1062500002E+02
   0.1033750000E+01   0.0000000000E+00  -0.9570063205E-15   0.1375000000E-01   0.0000000000E+00  -0.9610304085E-15   0.2000000000E-01   0.0000000000E+00   0.4024088041E-17   0.1062500002E+02   0.1059701264E-11   0.1039687865E-11  -0.3327249041E-14  -0.3408877960E-13   0.1806347129E-13   0.3375000005E-01  -0.1685375003E-01  -0.1685375003E-01  -0.5890635493E-16  -0.6227888345E-15   0.3440138022E-15   0.1062500002E+02
   0.1033750000E+01   0.9831462500E+00  -0.7838404406E-15   0.1375000000E-01  -0.6873750000E-02  -0.7844850737E-15   0.2000000000E-01  -0.9980000000E-02   0.6446330262E-18   0.1062500002E+02  -0.4026816101E-12  -0.4232442845E-12  -0.1014971137E-13  -0.6974220871E-14  -0.1552521756E-13   0.3375000005E-01  -0.1685375002E-01  -0.1685375002E-01  -0.1950879013E-15  -0.1289804709E-15  -0.3040450606E-15   0.1062500002E+02
   0.0000000000E+00   0.9831462500E+00  -0.5900332990E-15   0.0000000000E+00  -0.6873750000E-02  -0.5867578610E-15   0.0000000000E+00  -0.9980000000E-02  -0.3275437936E-17   0.1062500002E+02  -0.9545425897E-12  -0.1016055796E-11  -0.1230754756E-13  -0.8681280239E-14  -0.9631349831E-13   0.3375000005E-01  -0.1685375002E-01  -0.1685375002E-01  -0.2267947121E-15  -0.1727116215E-15  -0.1820214968E-14   0.1062500002E+02
   0.0000000000E+00   0.0000000000E+00   0.9831462500E+00   0.0000000000E+00   0.0000000000E+00  -0.6873750000E-02   0.0000000000E+00   0.0000000000E+00  -0.9980000000E-02   0.1062500002E+02  -0.1168539203E-11  -0.1167894247E-11  -0.7308108345E-16  -0.1015720072E-12  -0.5853849175E-13   0.3375000005E-01  -0.1685375002E-01  -0.1685375002E-01   0.1636056885E-18  -0.1932596710E-14  -0.1099660897E-14   0.1062500002E+02
   0.1033750000E+01   0.0000000000E+00   0.9831462500E+00   0.1375000000E-01   0.0000000000E+00  -0.6873750000E-02   0.2000000000E-01   0.0000000000E+00  -0.9980000000E-02   0.1062500002E+02  -0.3351813834E-12  -0.2888902932E-12   0.7998872517E-15  -0.2768833115E-13   0.1889153447E-13   0.3375000005E-01  -0.1685375002E-01  -0.1685375002E-01   0.1612739925E-16  -0.5195624983E-15   0.3652269172E-15   0.1062500002E+02
   0.1033750000E+01   0.9831462500E+00   0.9831462500E+00   0.1375000000E-01  -0.6873750000E-02  -0.6873750000E-02   0.2000000000E-01  -0.9980000000E-02  -0.9980000000E-02   0.1062500001E+02   0.7574330290E-12   0.8042632887E-12  -0.4192425196E-14  -0.6870281859E-15  -0.1517048739E-13   0.3375000004E-01  -0.1685375002E-01  -0.1685375002E-01  -0.7240511164E-16  -0.9998664625E-17  -0.2840159186E-15   0.1062500001E+02
   0.0000000000E+00   0.9831462500E+00   0.9831462500E+00   0.0000000000E+00  -0.6873750000E-02  -0.6873750000E-02   0.0000000000E+00  -0.9980000000E-02  -0.9980000000E-02   0.1062500001E+02   0.1401423495E-11   0.1411142244E-11  -0.1272465043E-13   0.2978956555E-14  -0.9290400061E-13   0.3375000005E-01  -0.1685375002E-01  -0.1685375002E-01  -0.2425542118E-15   0.6676946749E-16  -0.1774812189E-14   0.1062500001E+02
   0.2067500000E+01   0.0000000000E+00  -0.1279597540E-14   0.2750000000E-01   0.0000000000E+00  -0.1294415397E-14   0.4000000000E-01   0.0000000000E+00   0.1481785687E-16   0.1062500002E+02   0.5627816835E-12   0.5490470629E-12  -0.5044431172E-14   0.4623994601E-13  -0.1411719323E-13   0.3375000005E-01  -0.1685375003E-01  -0.1685375003E-01  -0.9747156086E-16   0.8877648050E-15  -0.2697783449E-15   0.1062500002E+02
   0.2067500000E+01   0.9831462500E+00  -0.1413519889E-14   0.2750000000E-01  -0.6873750000E-02  -0.1424728604E-14   0.4000000000E-01  -0.9980000000E-02   0.1120871500E-16   0.1062500001E+02  -0.9230560634E-12  -0.9370276028E-12  -0.5707702914E-14  -0.6234943591E-14  -0.4507552396E-13   0.3375000005E-01  -0.1685375002E-01  -0.1685375002E-01  -0.1174680599E-15  -0.6690038999E-16  -0.8622908860E-15   0.1062500001E+02
   0.2067500000E+01   0.0000000000E+00   0.9831462500E+00   0.2750000000E-01   0.0000000000E+00  -0.6873750000E-02   0.4000000000E-01   0.0000000000E+00  -0.9980000000E-02   0.1062500001E+02   0.2812801205E-14   0.5372929124E-13   0.1207003748E-14   0.4698304583E-13  -0.1434124843E-13   0.3375000005E-01  -0.1685375002E-01  -0.1685375002E-01   0.2336044209E-16   0.8831977102E-15  -0.2686944349E-15   0.1062500001E+02
   0.2067500000E+01   0.9831462500E+00   0.9831462500E+00   0.2750000000E-01  -0.6873750000E-02  -0.6873750000E-02   0.4000000000E-01  -0.9980000000E-02  -0.9980000000E-02   0.1062500001E+02   0.9029680295E-12   0.9543703135E-12   0.3637221056E-14  -0.8365182139E-14  -0.4559384392E-13   0.3375000004E-01  -0.1685375002E-01  -0.1685375002E-01   0.6706524455E-16  -0.1439986010E-15  -0.8616884559E-15   0.1062500001E+02
     1     2     3     4     5     6     7     8
     2     9    10     3     6    11    12     7
 VARIABLES = X,Y,Z,DU1,DU2,DU3,U1,U2,U3,S11,S22,S33,S12,S13,S23,E11,E22,E33,E12,E13,E23,SMISES
 ZONE, T="0.9000D+00" F=FEPOINT, I=   12 J=    2 ET=BRICK
   0.0000000000E+00   0.0000000000E+00   0.0000000000E+00   0.0000000000E+00   0.0000000000E+00   0.0000000000E+00   0.0000000000E+00   0.0000000000E+00   0.0000000000E+00   0.1125000002E+02   0.3971738872E-12   0.3984332427E-12  -0.7176473703E-16   0.7097276817E-15  -0.1311195497E-15   0.4750000007E-01  -0.2372750004E-01  -0.2372750004E-01  -0.3016382495E-17  -0.7583560448E-15  -0.4191944634E-15   0.1125000002E+02
   0.1047500000E+01   0.0000000000E+00  -0.3267261375E-15   0.1375000000E-01   0.0000000000E+00   0.6302801830E-15   0.3375000000E-01   0.0000000000E+00  -0.9570063205E-15   0.1125000002E+02  -0.4533481158E-13  -0.4368833695E-13   0.1583085194E-15  -0.4429470510E-15  -0.4326486410E-15   0.4750000007E-01  -0.2372750004E-01  -0.2372750004E-01  -0.2630639446E-17  -0.2531931578E-15   0.1223123236E-15   0.1125000002E+02
   0.1047500000E+01   0.9762725000E+00  -0.2689773246E-15   0.1375000000E-01  -0.6873750000E-02   0.5148631161E-15   0.3375000000E-01  -0.1685375000E-01  -0.7838404406E-15   0.1125000002E+02   0.1563169131E-12   0.1567203653E-12   0.3044814478E-15  -0.6380089701E-15   0.1328039904E-15   0.4750000007E-01  -0.2372750003E-01  -0.2372750003E-01  -0.4492968753E-16  -0.4039381557E-16  -0.1202658384E-15   0.1125000002E+02
   0.0000000000E+00   0.9762725000E+00  -0.2078293164E-15   0.0000000000E+00  -0.6873750000E-02   0.3822039825E-15   0.0000000000E+00  -0.1685375000E-01  -0.5900332990E-15   0.1125000002E+02   0.9756856874E-13   0.9796259116E-13  -0.2038389555E-15   0.7947942868E-15   0.1690476198E-15   0.4750000007E-01  -0.2372750003E-01  -0.2372750003E-01  -0.9414844682E-16  -0.5922462179E-16  -0.6338478152E-15   0.1125000002E+02
   0.0000000000E+00   0.0000000000E+00   0.9762725000E+00   0.0000000000E+00   0.0000000000E+00  -0.6873750000E-02   0.0000000000E+00   0.0000000000E+00  -0.1685375000E-01   0.1125000002E+02  -0.3048395413E-12  -0.3051443186E-12  -0.1434297618E-15   0.6417890303E-15  -0.2189764069E-15   0.4750000007E-01  -0.2372750003E-01  -0.2372750003E-01   0.2683422981E-17  -0.6579620616E-15  -0.3833947335E-15   0.1125000002E+02
   0.1047500000E+01   0.0000000000E+00   0.9762725000E+00   0.1375000000E-01   0.0000000000E+00  -0.6873750000E-02   0.3375000000E-01   0.0000000000E+00  -0.1685375000E-01   0.1125000002E+02  -0.1637871387E-12  -0.1638059983E-12  -0.8721454824E-16  -0.5248678212E-15  -0.1247281681E-15   0.4750000007E-01  -0.2372750003E-01  -0.2372750003E-01  -0.7786882862E-17  -0.1813535307E-15   0.1076518774E-15   0.1125000002E+02
   0.1047500000E+01   0.9762725000E+00   0.9762725000E+00   0.1375000000E-01  -0.6873750000E-02  -0.6873750000E-02   0.3375000000E-01  -0.1685375000E-01  -0.1685375000E-01   0.1125000001E+02  -0.5791085712E-14  -0.6143012230E-14  -0.4734038748E-15  -0.4860130817E-15  -0.7329727409E-16   0.4750000006E-01  -0.2372750003E-01  -0.2372750003E-01  -0.3777037917E-16  -0.4741425673E-16  -0.7969318784E-16   0.1125000001E+02
   0.0000000000E+00   0.9762725000E+00   0.9762725000E+00   0.0000000000E+00  -0.6873750000E-02  -0.6873750000E-02   0.0000000000E+00  -0.1685375000E-01  -0.1685375000E-01   0.1125000002E+02   0.1553284584E-12   0.1552794594E-12  -0.5281724682E-15   0.3074255290E-15   0.5760091673E-15   0.4750000006E-01  -0.2372750003E-01  -0.2372750003E-01  -0.8670840986E-16   0.4451742225E-16  -0.6069294093E-15   0.1125000002E+02
   0.2095000000E+01   0.0000000000E+00  -0.4330906612E-15   0.2750000000E-01   0.0000000000E+00   0.8465068793E-15   0.6750000000E-01   0.0000000000E+00  -0.1279597540E-14   0.1125000002E+02  -0.2656876448E-12  -0.2695738159E-12   0.4562639716E-15   0.6435463105E-15   0.5290972885E-15   0.4750000007E-01  -0.2372750004E-01  -0.2372750004E-01  -0.6282800786E-16   0.3171515175E-15  -0.8381269523E-16   0.1125000002E+02
   0.2095000000E+01   0.9762725000E+00  -0.4749225066E-15   0.2750000000E-01  -0.6873750000E-02   0.9385973822E-15   0.6750000000E-01  -0.1685375000E-01  -0.1413519889E-14   0.1125000002E+02   0.6563312889E-12   0.6539765846E-12   0.1575739320E-14   0.4345831272E-15  -0.7294716767E-15   0.4750000007E-01  -0.2372750003E-01  -0.2372750003E-01  -0.3588290663E-16   0.8301438410E-18  -0.3124794611E-15   0.1125000002E+02
   0.2095000000E+01   0.0000000000E+00   0.9762725000E+00   0.2750000000E-01   0.0000000000E+00  -0.6873750000E-02   0.6750000000E-01   0.0000000000E+00  -0.1685375000E-01   0.1125000002E+02  -0.3155480597E-12  -0.3140517856E-12  -0.1977026507E-14   0.5533507970E-15   0.8673849370E-15   0.4750000007E-01  -0.2372750003E-01  -0.2372750003E-01  -0.1183300863E-17   0.2903262627E-15  -0.7381078591E-16   0.1125000002E+02
   0.2095000000E+01   0.9762725000E+00   0.9762725000E+00   0.2750000000E-01  -0.6873750000E-02  -0.6873750000E-02   0.6750000000E-01  -0.1685375000E-01  -0.1685375000E-01   0.1125000001E+02  -0.2498440062E-12  -0.2484250205E-12  -0.2420096995E-14  -0.6413092986E-15  -0.1942600189E-15   0.4750000006E-01  -0.2372750003E-01  -0.2372750003E-01  -0.2176830866E-16  -0.5692533535E-16  -0.3087610646E-15   0.1125000001E+02
     1     2     3     4     5     6     7     8
     2     9    10     3     6    11    12     7
 VARIABLES = X,Y,Z,DU1,DU2,DU3,U1,U2,U3,S11,S22,S33,S12,S13,S23,E11,E22,E33,E12,E13,E23,SMISES
 ZONE, T="0.9500D+00" F=FEPOINT, I=   12 J=    2 ET=BRICK
   0.0000000000E+00   0.0000000000E+00   0.0000000000E+00   0.0000000000E+00   0.0000000000E+00   0.0000000000E+00   0.0000000000E+00   0.0000000000E+00   0.0000000000E+00   0.1187500002E+02  -0.8975916219E-13  -0.8825054050E-13  -0.1007960921E-15  -0.5859361634E-16  -0.6020454508E-15   0.6125000010E-01  -0.3060125005E-01  -0.3060125005E-01  -0.9730035105E-17  -0.7206714248E-15  -0.4060588385E-15   0.1187500002E+02
   0.1061250000E+01   0.0000000000E+00  -0.3085416393E-15   0.1375000000E-01   0.0000000000E+00   0.1818449823E-16   0.4750000000E-01   0.0000000000E+00  -0.3267261375E-15   0.1187500002E+02   0.2519454754E-12   0.2536841127E-12   0.5214578307E-15   0.3715477931E-15  -0.3004597519E-15   0.6125000009E-01  -0.3060125005E-01  -0.3060125005E-01   0.1717984250E-16  -0.2106716608E-15   0.1108130474E-15   0.1187500002E+02
   0.1061250000E+01   0.9693987500E+00  -0.2548056089E-15   0.1375000000E-01  -0.6873750000E-02   0.1417171562E-16   0.4750000000E-01  -0.2372750000E-01  -0.2689773246E-15   0.1187500002E+02   0.5628850343E-13   0.5669487322E-13   0.2010365957E-15  -0.8937441884E-15   0.3823316210E-15   0.6125000009E-01  -0.3060125004E-01  -0.3060125004E-01  -0.3982775563E-16  -0.5844060693E-16  -0.9523540129E-16   0.1187500002E+02
   0.0000000000E+00   0.9693987500E+00  -0.2011670680E-15   0.0000000000E+00  -0.6873750000E-02   0.6662248457E-17   0.0000000000E+00  -0.2372750000E-01  -0.2078293164E-15   0.1187500002E+02  -0.4578394971E-12  -0.4564854523E-12  -0.3604863595E-17   0.9762429463E-15   0.3192142753E-15   0.6125000009E-01  -0.3060125004E-01  -0.3060125004E-01  -0.7591742469E-16  -0.4383737666E-16  -0.5764765619E-15   0.1187500002E+02
   0.0000000000E+00   0.0000000000E+00   0.9693987500E+00   0.0000000000E+00   0.0000000000E+00  -0.6873750000E-02   0.0000000000E+00   0.0000000000E+00  -0.2372750000E-01   0.1187500002E+02  -0.1403552304E-12  -0.1426410081E-12  -0.8110395004E-16   0.2418342152E-15  -0.6197388922E-15   0.6125000009E-01  -0.3060125004E-01  -0.3060125004E-01   0.7446576580E-17  -0.6200400983E-15  -0.3642314304E-15   0.1187500002E+02
   0.1061250000E+01   0.0000000000E+00   0.9693987500E+00   0.1375000000E-01   0.0000000000E+00  -0.6873750000E-02   0.4750000000E-01   0.0000000000E+00  -0.2372750000E-01   0.1187500002E+02  -0.1972545138E-12  -0.1973357879E-12  -0.6766466622E-15   0.9035005213E-15  -0.5081375801E-15   0.6125000009E-01  -0.3060125004E-01  -0.3060125004E-01  -0.3129537067E-16  -0.1408442486E-15   0.1039872997E-15   0.1187500002E+02
   0.1061250000E+01   0.9693987500E+00   0.9693987500E+00   0.1375000000E-01  -0.6873750000E-02  -0.6873750000E-02   0.4750000000E-01  -0.2372750000E-01  -0.2372750000E-01   0.1187500002E+02  -0.2223159227E-12  -0.2242171079E-12  -0.9382385086E-15  -0.1198263246E-14  -0.1106624019E-15   0.6125000008E-01  -0.3060125004E-01  -0.3060125004E-01  -0.3914056373E-16  -0.4155096635E-16  -0.8157995743E-16   0.1187500002E+02
   0.0000000000E+00   0.9693987500E+00   0.9693987500E+00   0.0000000000E+00  -0.6873750000E-02  -0.6873750000E-02   0.0000000000E+00  -0.2372750000E-01  -0.2372750000E-01   0.1187500002E+02   0.1399061839E-12   0.1404395180E-12  -0.3976189286E-15   0.1683356914E-15   0.7455526220E-15   0.6125000008E-01  -0.3060125004E-01  -0.3060125004E-01  -0.8668553308E-16   0.2733072016E-16  -0.6038707463E-15   0.1187500002E+02
   0.2122500000E+01   0.0000000000E+00  -0.4008518167E-15   0.2750000000E-01   0.0000000000E+00   0.3223884446E-16   0.9500000000E-01   0.0000000000E+00  -0.4330906612E-15   0.1187500002E+02   0.3856545363E-13   0.3863875655E-13  -0.3235223189E-15  -0.1045100991E-14   0.7902189855E-16   0.6125000009E-01  -0.3060125005E-01  -0.3060125005E-01  -0.4651619549E-16   0.2797999484E-15  -0.8824001402E-16   0.1187500002E+02
   0.2122500000E+01   0.9693987500E+00  -0.4415144757E-15   0.2750000000E-01  -0.6873750000E-02   0.3340803084E-16   0.9500000000E-01  -0.2372750000E-01  -0.4749225066E-15   0.1187500002E+02   0.1679477560E-13   0.1604736787E-13  -0.4257973249E-15   0.1814343995E-14   0.1140223112E-14   0.6125000009E-01  -0.3060125004E-01  -0.3060125004E-01  -0.5352631493E-16  -0.8649293070E-16  -0.2557802233E-15   0.1187500002E+02
   0.2122500000E+01   0.0000000000E+00   0.9693987500E+00   0.2750000000E-01   0.0000000000E+00  -0.6873750000E-02   0.9500000000E-01   0.0000000000E+00  -0.2372750000E-01   0.1187500002E+02   0.1940895832E-12   0.1933421754E-12  -0.1199684119E-14   0.4849017950E-15  -0.7254570223E-15   0.6125000009E-01  -0.3060125004E-01  -0.3060125004E-01  -0.1574215317E-16   0.2481410051E-15  -0.9788000756E-16   0.1187500002E+02
   0.2122500000E+01   0.9693987500E+00   0.9693987500E+00   0.2750000000E-01  -0.6873750000E-02  -0.6873750000E-02   0.9500000000E-01  -0.2372750000E-01  -0.2372750000E-01   0.1187500002E+02  -0.1417543822E-12  -0.1426563669E-12  -0.6271689189E-15  -0.5599093620E-16   0.2177374033E-15   0.6125000008E-01  -0.3060125004E-01  -0.3060125004E-01   0.8871458999E-17  -0.5710243242E-16  -0.2690365466E-15   0.1187500002E+02
     1     2     3     4     5     6     7     8
     2     9    10     3     6    11    12     7
 VARIABLES = X,Y,Z,DU1,DU2,DU3,U1,U2,U3,S11,S22,S33,S12,S13,S23,E11,E22,E33,E12,E13,E23,SMISES
 ZONE, T="0.1000D+01" F=FEPOINT, I=   12 J=    2 ET=BRICK
   0.0000000000E+00   0.0000000000E+00   0.0000000000E+00   0.0000000000E+00   0.0000000000E+00   0.0000000000E+00   0.0000000000E+00   0.0000000000E+00   0.0000000000E+00   0.1250000002E+02  -0.1684098543E-12  -0.1660478559E-12  -0.1937110873E-15   0.8237782809E-15  -0.1529594939E-14   0.7500000012E-01  -0.3747500006E-01  -0.3747500006E-01  -0.6077912111E-17  -0.6701421959E-15  -0.4050784938E-15   0.1250000002E+02
   0.1075000000E+01   0.0000000000E+00  -0.2766119955E-15   0.1375000000E-01   0.0000000000E+00   0.3192964381E-16   0.6125000000E-01   0.0000000000E+00  -0.3085416393E-15   0.1250000002E+02  -0.1353749886E-12  -0.1312257450E-12   0.2037873620E-14   0.8989966229E-15  -0.1389918864E-14   0.7500000012E-01  -0.3747500006E-01  -0.3747500006E-01   0.3979812507E-16  -0.1756587940E-15   0.8312892836E-16   0.1250000002E+02
   0.1075000000E+01   0.9625250000E+00  -0.2380899659E-15   0.1375000000E-01  -0.6873750000E-02   0.1671564307E-16   0.6125000000E-01  -0.3060125000E-01  -0.2548056089E-15   0.1250000002E+02  -0.1737795558E-12  -0.1707840897E-12   0.1419487648E-14  -0.1849885113E-14   0.2111340965E-14   0.7500000011E-01  -0.3747500005E-01  -0.3747500005E-01  -0.8439338117E-17  -0.1041601587E-15  -0.5344842839E-16   0.1250000002E+02
   0.0000000000E+00   0.9625250000E+00  -0.2013613483E-15   0.0000000000E+00  -0.6873750000E-02  -0.1942803432E-18   0.0000000000E+00  -0.3060125000E-01  -0.2011670680E-15   0.1250000002E+02   0.6700625280E-12   0.6738460387E-12  -0.8275316118E-15   0.1494276213E-14   0.1208059622E-14   0.7500000011E-01  -0.3747500005E-01  -0.3747500005E-01  -0.8465380084E-16  -0.5677799007E-17  -0.5437893733E-15   0.1250000002E+02
   0.0000000000E+00   0.0000000000E+00   0.9625250000E+00   0.0000000000E+00   0.0000000000E+00  -0.6873750000E-02   0.0000000000E+00   0.0000000000E+00  -0.3060125000E-01   0.1250000002E+02   0.4150239264E-12   0.4126539569E-12  -0.3187567148E-16   0.9598528937E-15  -0.2372475667E-14   0.7500000011E-01  -0.3747500005E-01  -0.3747500005E-01   0.9857535685E-17  -0.5707815647E-15  -0.3726980803E-15   0.1250000002E+02
   0.1075000000E+01   0.0000000000E+00   0.9625250000E+00   0.1375000000E-01   0.0000000000E+00  -0.6873750000E-02   0.6125000000E-01   0.0000000000E+00  -0.3060125000E-01   0.1250000002E+02   0.2713360112E-12   0.2681779972E-12  -0.5544661233E-15   0.1091805733E-14  -0.1842961234E-14   0.7500000011E-01  -0.3747500005E-01  -0.3747500005E-01  -0.2648755634E-16  -0.1344221727E-15   0.7645763453E-16   0.1250000002E+02
   0.1075000000E+01   0.9625250000E+00   0.9625250000E+00   0.1375000000E-01  -0.6873750000E-02  -0.6873750000E-02   0.6125000000E-01  -0.3060125000E-01  -0.3060125000E-01   0.1250000002E+02   0.1818176379E-12   0.1779934901E-12  -0.4663165688E-15  -0.1423556235E-14   0.1589337092E-14   0.7500000010E-01  -0.3747500005E-01  -0.3747500005E-01  -0.5170023817E-16  -0.3666457530E-16  -0.9770785099E-16   0.1250000002E+02
   0.0000000000E+00   0.9625250000E+00   0.9625250000E+00   0.0000000000E+00  -0.6873750000E-02  -0.6873750000E-02   0.0000000000E+00  -0.3060125000E-01  -0.3060125000E-01   0.1250000002E+02   0.5941022032E-13   0.5422113913E-13   0.1599956720E-15   0.1179134970E-14   0.1447421273E-14   0.7500000010E-01  -0.3747500005E-01  -0.3747500005E-01  -0.7468175451E-16   0.5469655071E-16  -0.4939478389E-15   0.1250000002E+02
   0.2150000000E+01   0.0000000000E+00  -0.3273056110E-15   0.2750000000E-01   0.0000000000E+00   0.7354620571E-16   0.1225000000E+00   0.0000000000E+00  -0.4008518167E-15   0.1250000002E+02   0.2928285893E-12   0.2958944408E-12  -0.5578171656E-15  -0.1194864699E-14  -0.1474343144E-14   0.7500000011E-01  -0.3747500006E-01  -0.3747500006E-01  -0.1145231649E-15   0.2610451186E-15  -0.1077613905E-15   0.1250000002E+02
   0.2150000000E+01   0.9625250000E+00  -0.3789947219E-15   0.2750000000E-01  -0.6873750000E-02   0.6251975382E-16   0.1225000000E+00  -0.3060125000E-01  -0.4415144757E-15   0.1250000002E+02  -0.1060411932E-11  -0.1057435326E-11   0.2459194636E-16   0.4820845974E-15   0.1887654381E-14   0.7500000010E-01  -0.3747500005E-01  -0.3747500005E-01  -0.1072854037E-15  -0.9349890721E-16  -0.2006129253E-15   0.1250000002E+02
   0.2150000000E+01   0.0000000000E+00   0.9625250000E+00   0.2750000000E-01   0.0000000000E+00  -0.6873750000E-02   0.1225000000E+00   0.0000000000E+00  -0.3060125000E-01   0.1250000002E+02   0.4365764053E-12   0.4333995316E-12  -0.1036455144E-14  -0.4371661919E-15  -0.1415999412E-14   0.7500000010E-01  -0.3747500005E-01  -0.3747500005E-01  -0.1021075423E-16   0.3278141160E-15  -0.1379127819E-15   0.1250000002E+02
   0.2150000000E+01   0.9625250000E+00   0.9625250000E+00   0.2750000000E-01  -0.6873750000E-02  -0.6873750000E-02   0.1225000000E+00  -0.3060125000E-01  -0.3060125000E-01   0.1250000002E+02   0.1798094693E-12   0.1771441524E-12  -0.6631265027E-15  -0.2111864085E-15   0.1357778085E-14   0.7500000010E-01  -0.3747500005E-01  -0.3747500005E-01   0.3970543169E-17  -0.2480119197E-16  -0.2293192644E-15   0.1250000002E+02
     1     2     3     4     5     6     7     8
     2     9    10     3     6    11    12     7
 VARIABLES = X,Y,Z,DU1,DU2,DU3,U1,U2,U3,S11,S22,S33,S12,S13,S23,E11,E22,E33,E12,E13,E23,SMISES
 ZONE, T="0.1050D+01" F=FEPOINT, I=   12 J=    2 ET=BRICK
   0.0000000000E+00   0.0000000000E+00   0.0000000000E+00   0.0000000000E+00   0.0000000000E+00   0.0000000000E+00   0.0000000000E+00   0.0000000000E+00   0.0000000000E+00   0.1137500002E+02  -0.1842851866E-11  -0.2220544190E-11  -0.2139626855E-15  -0.3837439307E-12  -0.1094704541E-12   0.7275000011E-01  -0.3635225006E-01  -0.3635225006E-01   0.5586059435E-17  -0.5251822149E-14  -0.1697465564E-14   0.1137500002E+02
   0.1072750000E+01   0.0000000000E+00  -0.2652836831E-14  -0.2250000000E-02   0.0000000000E+00  -0.2376224836E-14   0.7500000000E-01   0.0000000000E+00  -0.2766119955E-15   0.1137500002E+02  -0.5915892172E-13  -0.1516942655E-12  -0.9223500648E-13  -0.2521803823E-12   0.1109625223E-12   0.7275000011E-01  -0.3635225006E-01  -0.3635225006E-01  -0.1109569084E-14  -0.3238301954E-14   0.1432594646E-14   0.1137500002E+02
   0.1072750000E+01   0.9636477500E+00  -0.1940686352E-14  -0.2250000000E-02   0.1122750000E-02  -0.1702596386E-14   0.7500000000E-01  -0.3747500000E-01  -0.2380899659E-15   0.1137500002E+02  -0.8687665356E-13   0.4770095249E-14  -0.8499035443E-13  -0.1554245691E-12  -0.5364453648E-13   0.7275000010E-01  -0.3635225005E-01  -0.3635225005E-01  -0.1040667883E-14  -0.1904552057E-14  -0.7356612793E-15   0.1137500002E+02
   0.0000000000E+00   0.9636477500E+00  -0.8484817008E-15   0.0000000000E+00   0.1122750000E-02  -0.6471203525E-15   0.0000000000E+00  -0.3747500000E-01  -0.2013613483E-15   0.1137500002E+02   0.3270438847E-12   0.1469064994E-12  -0.1037176901E-12  -0.1030207438E-12  -0.2692664305E-12   0.7275000011E-01  -0.3635225005E-01  -0.3635225005E-01  -0.1316738217E-14  -0.1281044655E-14  -0.3768193229E-14   0.1137500002E+02
   0.0000000000E+00   0.0000000000E+00   0.9636477500E+00   0.0000000000E+00   0.0000000000E+00   0.1122750000E-02   0.0000000000E+00   0.0000000000E+00  -0.3747500000E-01   0.1137500002E+02   0.1002018093E-12   0.4301076236E-13   0.1496939771E-16  -0.2702912217E-12  -0.1247685513E-13   0.7275000011E-01  -0.3635225005E-01  -0.3635225005E-01  -0.6661103280E-17  -0.3847167760E-14  -0.4884597498E-15   0.1137500002E+02
   0.1072750000E+01   0.0000000000E+00   0.9636477500E+00  -0.2250000000E-02   0.0000000000E+00   0.1122750000E-02   0.7500000000E-01   0.0000000000E+00  -0.3747500000E-01   0.1137500002E+02  -0.1615294704E-12   0.7508104165E-13  -0.9612065062E-13  -0.2514884706E-12   0.2032488734E-12   0.7275000010E-01  -0.3635225005E-01  -0.3635225005E-01  -0.1129125571E-14  -0.3138193421E-14   0.2522264688E-14   0.1137500002E+02
   0.1072750000E+01   0.9636477500E+00   0.9636477500E+00  -0.2250000000E-02   0.1122750000E-02   0.1122750000E-02   0.7500000000E-01  -0.3747500000E-01  -0.3747500000E-01   0.1137500001E+02  -0.1857380435E-12   0.2348760710E-12  -0.9219740615E-13  -0.1587210446E-12   0.3863380135E-13   0.7275000010E-01  -0.3635225005E-01  -0.3635225005E-01  -0.1143253816E-14  -0.1944819931E-14   0.3897845005E-15   0.1137500001E+02
   0.0000000000E+00   0.9636477500E+00   0.9636477500E+00   0.0000000000E+00   0.1122750000E-02   0.1122750000E-02   0.0000000000E+00  -0.3747500000E-01  -0.3747500000E-01   0.1137500002E+02   0.2369268239E-12   0.3722293811E-12  -0.1088967070E-12   0.4618991524E-14  -0.1713773559E-12   0.7275000010E-01  -0.3635225005E-01  -0.3635225005E-01  -0.1364112395E-14   0.1001033641E-15  -0.2617752043E-14   0.1137500002E+02
   0.2145500000E+01   0.0000000000E+00  -0.5360454744E-14  -0.4500000000E-02   0.0000000000E+00  -0.5033149133E-14   0.1500000000E+00   0.0000000000E+00  -0.3273056110E-15   0.1137500002E+02   0.1043708909E-11   0.6365723338E-12  -0.1856794378E-12  -0.1200925977E-12   0.9192867313E-13   0.7275000011E-01  -0.3635225005E-01  -0.3635225005E-01  -0.2354749465E-14  -0.1231048202E-14   0.1018200837E-14   0.1137500002E+02
   0.2145500000E+01   0.9636477500E+00  -0.4852030686E-14  -0.4500000000E-02   0.1122750000E-02  -0.4473035964E-14   0.1500000000E+00  -0.3747500000E-01  -0.3789947219E-15   0.1137500002E+02  -0.6470260851E-12  -0.8743845216E-12  -0.6628828019E-13  -0.1976512420E-12  -0.7594007460E-13   0.7275000010E-01  -0.3635225005E-01  -0.3635225005E-01  -0.9048118494E-15  -0.2397101012E-14  -0.1175665955E-14   0.1137500002E+02
   0.2145500000E+01   0.0000000000E+00   0.9636477500E+00  -0.4500000000E-02   0.0000000000E+00   0.1122750000E-02   0.1500000000E+00   0.0000000000E+00  -0.3747500000E-01   0.1137500002E+02  -0.1031960422E-12  -0.1742314301E-12  -0.1862613142E-12  -0.2321697893E-12   0.1814577199E-12   0.7275000010E-01  -0.3635225005E-01  -0.3635225005E-01  -0.2211772594E-14  -0.2561233834E-14   0.2070938343E-14   0.1137500002E+02
   0.2145500000E+01   0.9636477500E+00   0.9636477500E+00  -0.4500000000E-02   0.1122750000E-02   0.1122750000E-02   0.1500000000E+00  -0.3747500000E-01  -0.3747500000E-01   0.1137500001E+02   0.2508731266E-12   0.3597051220E-12  -0.6963546637E-13  -0.3132454429E-12   0.1295710998E-13   0.7275000009E-01  -0.3635225005E-01  -0.3635225005E-01  -0.8239655570E-15  -0.3870662363E-14  -0.1037958106E-15   0.1137500001E+02
     1     2     3     4     5     6     7     8
     2     9    10     3     6    11    12     7
 VARIABLES = X,Y,Z,DU1,DU2,DU3,U1,U2,U3,S11,S22,S33,S12,S13,S23,E11,E22,E33,E12,E13,E23,SMISES
 ZONE, T="0.1100D+01" F=FEPOINT, I=   12 J=    2 ET=BRICK
   0.0000000000E+00   0.0000000000E+00   0.0000000000E+00   0.0000000000E+00   0.0000000000E+00   0.0000000000E+00   0.0000000000E+00   0.0000000000E+00   0.0000000000E+00   0.1025000002E+02   0.5948262836E-14   0.6564720802E-14  -0.2240266827E-15   0.2546843058E-15  -0.3978134302E-15   0.7050000011E-01  -0.3522950006E-01  -0.3522950006E-01  -0.3505028378E-17  -0.6628254606E-15  -0.3916468653E-15   0.1025000002E+02
   0.1070500000E+01   0.0000000000E+00  -0.2826157063E-15  -0.2250000000E-02   0.0000000000E+00   0.2370221125E-14   0.7275000000E-01   0.0000000000E+00  -0.2652836831E-14   0.1025000002E+02  -0.3504553205E-13  -0.3331486581E-13   0.7747345159E-15   0.3491162510E-15  -0.4041704915E-15   0.7050000011E-01  -0.3522950005E-01  -0.3522950005E-01   0.1837831347E-16  -0.1960428083E-15   0.1015018100E-15   0.1025000002E+02
   0.1070500000E+01   0.9647705000E+00  -0.2381764390E-15  -0.2250000000E-02   0.1122750000E-02   0.1702509913E-14   0.7275000000E-01  -0.3635225000E-01  -0.1940686352E-14   0.1025000001E+02   0.1700214270E-13   0.1810439462E-13   0.1022780604E-15  -0.9676752541E-15   0.8098339299E-15   0.7050000010E-01  -0.3522950005E-01  -0.3522950005E-01  -0.1089465977E-16   0.1357306923E-16  -0.8046986362E-16   0.1025000001E+02
   0.0000000000E+00   0.9647705000E+00  -0.1945052344E-15   0.0000000000E+00   0.1122750000E-02   0.6539764664E-15   0.0000000000E+00  -0.3635225000E-01  -0.8484817008E-15   0.1025000001E+02  -0.3273680805E-13  -0.3062845251E-13  -0.5834243254E-15   0.7494591333E-15   0.1668934961E-15   0.7050000010E-01  -0.3522950005E-01  -0.3522950005E-01  -0.9761869424E-16  -0.7872569191E-16  -0.5346872403E-15   0.1025000001E+02
   0.0000000000E+00   0.0000000000E+00   0.9647705000E+00   0.0000000000E+00   0.0000000000E+00   0.1122750000E-02   0.0000000000E+00   0.0000000000E+00  -0.3635225000E-01   0.1025000001E+02   0.5126570373E-13   0.5171377830E-13   0.1170857081E-16   0.3669162298E-15  -0.9272145694E-15   0.7050000010E-01  -0.3522950005E-01  -0.3522950005E-01   0.4090079556E-17  -0.6038440392E-15  -0.3739346494E-15   0.1025000001E+02
   0.1070500000E+01   0.0000000000E+00   0.9647705000E+00  -0.2250000000E-02   0.0000000000E+00   0.1122750000E-02   0.7275000000E-01   0.0000000000E+00  -0.3635225000E-01   0.1025000001E+02   0.1659462988E-13   0.1591468986E-13  -0.3929462185E-15   0.5985089153E-15  -0.7280915853E-15   0.7050000010E-01  -0.3522950005E-01  -0.3522950005E-01   0.2305889006E-17  -0.1196485101E-15   0.5263078508E-16   0.1025000001E+02
   0.1070500000E+01   0.9647705000E+00   0.9647705000E+00  -0.2250000000E-02   0.1122750000E-02   0.1122750000E-02   0.7275000000E-01  -0.3635225000E-01  -0.3635225000E-01   0.1025000001E+02   0.1910458784E-13   0.1695160969E-13  -0.1462691707E-15  -0.7138712175E-15   0.4008829544E-15   0.7050000009E-01  -0.3522950005E-01  -0.3522950005E-01  -0.2251220958E-16  -0.5378041586E-16  -0.4319401136E-16   0.1025000001E+02
   0.0000000000E+00   0.9647705000E+00   0.9647705000E+00   0.0000000000E+00   0.1122750000E-02   0.1122750000E-02   0.0000000000E+00  -0.3635225000E-01  -0.3635225000E-01   0.1025000001E+02  -0.4520326309E-13  -0.4841387056E-13   0.1252270188E-15   0.3579222948E-15   0.6698857013E-15   0.7050000009E-01  -0.3522950005E-01  -0.3522950005E-01  -0.5971010877E-16   0.6531809803E-16  -0.5527124502E-15   0.1025000001E+02
   0.2141000000E+01   0.0000000000E+00  -0.3483190914E-15  -0.4500000000E-02   0.0000000000E+00   0.5012135652E-14   0.1455000000E+00   0.0000000000E+00  -0.5360454744E-14   0.1025000002E+02   0.1956935996E-13   0.1926205598E-13   0.8850646331E-17  -0.2154925918E-15  -0.6700362589E-15   0.7050000011E-01  -0.3522950005E-01  -0.3522950005E-01  -0.9515638407E-16   0.2732217975E-15  -0.1020914199E-15   0.1025000002E+02
   0.2141000000E+01   0.9647705000E+00  -0.3951555209E-15  -0.4500000000E-02   0.1122750000E-02   0.4456875165E-14   0.1455000000E+00  -0.3635225000E-01  -0.4852030686E-14   0.1025000001E+02   0.4861940499E-13   0.5053546436E-13   0.3863999021E-15   0.5042271764E-16   0.5973998094E-15   0.7050000010E-01  -0.3522950005E-01  -0.3522950005E-01  -0.1103470242E-15  -0.1479894242E-15  -0.2257951796E-15   0.1025000001E+02
   0.2141000000E+01   0.0000000000E+00   0.9647705000E+00  -0.4500000000E-02   0.0000000000E+00   0.1122750000E-02   0.1455000000E+00   0.0000000000E+00  -0.3635225000E-01   0.1025000001E+02   0.4773471579E-13   0.4641440481E-13  -0.7567670073E-15  -0.5452080478E-15  -0.1746416164E-15   0.7050000010E-01  -0.3522950005E-01  -0.3522950005E-01  -0.3066802283E-16   0.2251774968E-15  -0.9211081914E-16   0.1025000001E+02
   0.2141000000E+01   0.9647705000E+00   0.9647705000E+00  -0.4500000000E-02   0.1122750000E-02   0.1122750000E-02   0.1455000000E+00  -0.3635225000E-01  -0.3635225000E-01   0.1025000001E+02   0.3780077786E-13   0.3755005284E-13  -0.3622911017E-15   0.2248308008E-15   0.5458390997E-15   0.7050000009E-01  -0.3522950005E-01  -0.3522950005E-01   0.3132698236E-16  -0.2663178949E-16  -0.2662988203E-15   0.1025000001E+02
     1     2     3     4     5     6     7     8
     2     9    10     3     6    11    12     7
 VARIABLES = X,Y,Z,DU1,DU2,DU3,U1,U2,U3,S11,S22,S33,S12,S13,S23,E11,E22,E33,E12,E13,E23,SMISES
 ZONE, T="0.1150D+01" F=FEPOINT, I=   12 J=    2 ET=BRICK
   0.0000000000E+00   0.0000000000E+00   0.0000000000E+00   0.0000000000E+00   0.0000000000E+00   0.0000000000E+00   0.0000000000E+00   0.0000000000E+00   0.0000000000E+00   0.9125000014E+01   0.7346249202E-13   0.7503100141E-13  -0.2376102294E-15   0.3971039440E-15  -0.6812916092E-15   0.6825000011E-01  -0.3410675005E-01  -0.3410675005E-01  -0.7214018448E-17  -0.6587989361E-15  -0.3973205408E-15   0.9125000014E+01
   0.1068250000E+01   0.0000000000E+00  -0.2812542305E-15  -0.2250000000E-02   0.0000000000E+00   0.1361475806E-17   0.7050000000E-01   0.0000000000E+00  -0.2826157063E-15   0.9125000014E+01  -0.4063108847E-13  -0.3839391879E-13   0.8890436205E-15   0.1422945839E-15  -0.5525683228E-15   0.6825000011E-01  -0.3410675005E-01  -0.3410675005E-01   0.4761624753E-17  -0.2039394559E-15   0.9071356349E-16   0.9125000014E+01
   0.1068250000E+01   0.9658932500E+00  -0.2376350738E-15  -0.2250000000E-02   0.1122750000E-02   0.5413651968E-18   0.7050000000E-01  -0.3522950000E-01  -0.2381764390E-15   0.9125000013E+01   0.2462538097E-13   0.2565724760E-13   0.2413812191E-15  -0.8186843759E-15   0.1086204593E-14   0.6825000010E-01  -0.3410675005E-01  -0.3410675005E-01  -0.5107605922E-16   0.2953048856E-17  -0.8019259681E-16   0.9125000013E+01
   0.0000000000E+00   0.9658932500E+00  -0.1960883517E-15   0.0000000000E+00   0.1122750000E-02  -0.1583117301E-17   0.0000000000E+00  -0.3522950000E-01  -0.1945052344E-15   0.9125000013E+01  -0.9462062879E-13  -0.9151559935E-13  -0.2905127949E-15   0.9972490006E-15   0.4801274210E-15   0.6825000010E-01  -0.3410675005E-01  -0.3410675005E-01  -0.7223056938E-16  -0.4466519287E-16  -0.5458192835E-15   0.9125000013E+01
   0.0000000000E+00   0.0000000000E+00   0.9658932500E+00   0.0000000000E+00   0.0000000000E+00   0.1122750000E-02   0.0000000000E+00   0.0000000000E+00  -0.3522950000E-01   0.9125000013E+01  -0.1163837640E-12  -0.1166885415E-12   0.2132813824E-16   0.5769832359E-15  -0.1132791655E-14   0.6825000010E-01  -0.3410675005E-01  -0.3410675005E-01   0.1281556049E-16  -0.5955299288E-15  -0.3689463441E-15   0.9125000013E+01
   0.1068250000E+01   0.0000000000E+00   0.9658932500E+00  -0.2250000000E-02   0.0000000000E+00   0.1122750000E-02   0.7050000000E-01   0.0000000000E+00  -0.3522950000E-01   0.9125000013E+01  -0.2116404791E-13  -0.2254278764E-13  -0.1146744290E-15   0.7038124383E-15  -0.9861485011E-15   0.6825000010E-01  -0.3410675005E-01  -0.3410675005E-01  -0.1897448544E-16  -0.1236555446E-15   0.7932334963E-16   0.9125000013E+01
   0.1068250000E+01   0.9658932500E+00   0.9658932500E+00  -0.2250000000E-02   0.1122750000E-02   0.1122750000E-02   0.7050000000E-01  -0.3522950000E-01  -0.3522950000E-01   0.9125000012E+01   0.5033144677E-13   0.4714660202E-13   0.1327254116E-15  -0.5173250634E-15   0.5516306340E-15   0.6825000009E-01  -0.3410675004E-01  -0.3410675004E-01  -0.3405777988E-16  -0.5822035984E-17  -0.6222267998E-16   0.9125000012E+01
   0.0000000000E+00   0.9658932500E+00   0.9658932500E+00   0.0000000000E+00   0.1122750000E-02   0.1122750000E-02   0.0000000000E+00  -0.3522950000E-01  -0.3522950000E-01   0.9125000012E+01   0.1163169452E-12   0.1122761972E-12   0.2803911922E-15   0.5339165719E-15   0.9813226116E-15   0.6825000009E-01  -0.3410675005E-01  -0.3410675005E-01  -0.4948264074E-16   0.4077899036E-16  -0.5106270233E-15   0.9125000012E+01
   0.2136500000E+01   0.0000000000E+00  -0.3428290372E-15  -0.4500000000E-02   0.0000000000E+00   0.5490054195E-17   0.1410000000E+00   0.0000000000E+00  -0.3483190914E-15   0.9125000014E+01  -0.1454816349E-12  -0.1453433909E-12   0.2244744739E-15  -0.3921505463E-15  -0.7976639494E-15   0.6825000010E-01  -0.3410675005E-01  -0.3410675005E-01  -0.1429439177E-15   0.1088076116E-15  -0.9485878717E-16   0.9125000014E+01
   0.2136500000E+01   0.9658932500E+00  -0.3904466095E-15  -0.4500000000E-02   0.1122750000E-02   0.4708911372E-17   0.1410000000E+00  -0.3522950000E-01  -0.3951555209E-15   0.9125000013E+01   0.9498230136E-13   0.9796541992E-13   0.5144923568E-15  -0.2480673201E-15   0.9686780016E-15   0.6825000010E-01  -0.3410675005E-01  -0.3410675005E-01  -0.1161376441E-15   0.4159757490E-16  -0.2327860248E-15   0.9125000013E+01
   0.2136500000E+01   0.0000000000E+00   0.9658932500E+00  -0.4500000000E-02   0.0000000000E+00   0.1122750000E-02   0.1410000000E+00   0.0000000000E+00  -0.3522950000E-01   0.9125000013E+01   0.1090994270E-12   0.1080066049E-12  -0.3286352257E-15  -0.7944591002E-15  -0.4754550440E-15   0.6825000010E-01  -0.3410675005E-01  -0.3410675005E-01   0.2662545718E-16   0.1476666285E-15  -0.1107958493E-15   0.9125000013E+01
   0.2136500000E+01   0.9658932500E+00   0.9658932500E+00  -0.4500000000E-02   0.1122750000E-02   0.1122750000E-02   0.1410000000E+00  -0.3522950000E-01  -0.3522950000E-01   0.9125000012E+01  -0.4104997082E-13  -0.4214969597E-13  -0.2053729953E-16   0.4681504051E-15   0.6860113951E-15   0.6825000009E-01  -0.3410675004E-01  -0.3410675004E-01   0.1391491194E-16  -0.1599765358E-15  -0.2849879574E-15   0.9125000012E+01
     1     2     3     4     5     6     7     8
     2     9    10     3     6    11    12     7
 VARIABLES = X,Y,Z,DU1,DU2,DU3,U1,U2,U3,S11,S22,S33,S12,S13,S23,E11,E22,E33,E12,E13,E23,SMISES
 ZONE, T="0.1200D+01" F=FEPOINT, I=   12 J=    2 ET=BRICK
   0.0000000000E+00   0.0000000000E+00   0.0000000000E+00   0.0000000000E+00   0.0000000000E+00   0.0000000000E+00   0.0000000000E+00   0.0000000000E+00   0.0000000000E+00   0.8000000013E+01  -0.2310096049E-13  -0.2202806584E-13  -0.2161228005E-15   0.2051299394E-15  -0.6350191022E-15   0.6600000010E-01  -0.3298400005E-01  -0.3298400005E-01  -0.4522421598E-17  -0.6762507535E-15  -0.4096360990E-15   0.8000000013E+01
   0.1066000000E+01   0.0000000000E+00  -0.2822732160E-15  -0.2250000000E-02   0.0000000000E+00  -0.1018985480E-17   0.6825000000E-01   0.0000000000E+00  -0.2812542305E-15   0.8000000012E+01   0.1718027289E-13   0.1963948717E-13   0.1298156573E-14   0.6460253194E-15  -0.4699813765E-15   0.6600000010E-01  -0.3298400005E-01  -0.3298400005E-01   0.1867885776E-16  -0.1967672941E-15   0.9345525774E-16   0.8000000012E+01
   0.1066000000E+01   0.9670160000E+00  -0.2381757094E-15  -0.2250000000E-02   0.1122750000E-02  -0.5406355174E-18   0.6825000000E-01  -0.3410675000E-01  -0.2376350738E-15   0.8000000011E+01   0.2518669127E-13   0.2644060250E-13   0.5934120924E-15  -0.1297199365E-14   0.1020811778E-14   0.6600000009E-01  -0.3298400005E-01  -0.3298400005E-01  -0.2572608107E-16  -0.6570555044E-16  -0.6520410106E-16   0.8000000011E+01
   0.0000000000E+00   0.9670160000E+00  -0.1959574484E-15   0.0000000000E+00   0.1122750000E-02   0.1309033362E-18   0.0000000000E+00  -0.3410675000E-01  -0.1960883517E-15   0.8000000012E+01   0.1506595925E-12   0.1539351408E-12  -0.5109107768E-15   0.8806629425E-15   0.3071206336E-15   0.6600000010E-01  -0.3298400005E-01  -0.3298400005E-01  -0.8935717283E-16  -0.2611106613E-16  -0.5609509059E-15   0.8000000012E+01
   0.0000000000E+00   0.0000000000E+00   0.9670160000E+00   0.0000000000E+00   0.0000000000E+00   0.1122750000E-02   0.0000000000E+00   0.0000000000E+00  -0.3410675000E-01   0.8000000012E+01   0.8259781921E-13   0.8318122005E-13  -0.1198811078E-16   0.5010439388E-15  -0.1215554380E-14   0.6600000010E-01  -0.3298400005E-01  -0.3298400005E-01   0.1468831979E-17  -0.5846050176E-15  -0.3372155221E-15   0.8000000012E+01
   0.1066000000E+01   0.0000000000E+00   0.9670160000E+00  -0.2250000000E-02   0.0000000000E+00   0.1122750000E-02   0.6825000000E-01   0.0000000000E+00  -0.3410675000E-01   0.8000000011E+01   0.9016802630E-13   0.8939592369E-13  -0.5534164282E-15   0.1084646065E-14  -0.9586378264E-15   0.6600000009E-01  -0.3298400005E-01  -0.3298400005E-01  -0.1457896567E-16  -0.1492402019E-15   0.7421780562E-16   0.8000000011E+01
   0.1066000000E+01   0.9670160000E+00   0.9670160000E+00  -0.2250000000E-02   0.1122750000E-02   0.1122750000E-02   0.6825000000E-01  -0.3410675000E-01  -0.3410675000E-01   0.8000000010E+01  -0.3922503928E-14  -0.6500711566E-14  -0.3510239701E-15  -0.9925625630E-15   0.4100424574E-15   0.6600000009E-01  -0.3298400004E-01  -0.3298400004E-01  -0.2502209868E-16  -0.3665274054E-16  -0.8443290078E-16   0.8000000010E+01
   0.0000000000E+00   0.9670160000E+00   0.9670160000E+00   0.0000000000E+00   0.1122750000E-02   0.1122750000E-02   0.0000000000E+00  -0.3410675000E-01  -0.3410675000E-01   0.8000000011E+01  -0.1016167570E-12  -0.1061015941E-12   0.1159817976E-15   0.4834641311E-15   0.7861032645E-15   0.6600000009E-01  -0.3298400004E-01  -0.3298400004E-01  -0.4805389473E-16   0.2628006053E-16  -0.5371413968E-15   0.8000000011E+01
   0.2132000000E+01   0.0000000000E+00  -0.3440560221E-15  -0.4500000000E-02   0.0000000000E+00  -0.1226984931E-17   0.1365000000E+00   0.0000000000E+00  -0.3428290372E-15   0.8000000012E+01  -0.6320091904E-13  -0.6289215605E-13  -0.3698883907E-17  -0.4340904775E-15  -0.7585495048E-15   0.6600000010E-01  -0.3298400005E-01  -0.3298400005E-01  -0.1007588361E-15   0.1992380809E-15  -0.9624907223E-16   0.8000000012E+01
   0.2132000000E+01   0.9670160000E+00  -0.3914071741E-15  -0.4500000000E-02   0.1122750000E-02  -0.9605645966E-18   0.1365000000E+00  -0.3410675000E-01  -0.3904466095E-15   0.8000000011E+01  -0.1133919534E-12  -0.1109044496E-12   0.3799768867E-15   0.2337462548E-16   0.9363527636E-15   0.6600000009E-01  -0.3298400005E-01  -0.3298400005E-01  -0.1058182473E-15  -0.9217375469E-16  -0.2518679963E-15   0.8000000011E+01
   0.2132000000E+01   0.0000000000E+00   0.9670160000E+00  -0.4500000000E-02   0.0000000000E+00   0.1122750000E-02   0.1365000000E+00   0.0000000000E+00  -0.3410675000E-01   0.8000000011E+01   0.4696444031E-14   0.3159532813E-14  -0.5993311311E-15  -0.8300144461E-15  -0.2584909218E-15   0.6600000009E-01  -0.3298400005E-01  -0.3298400005E-01  -0.1237024073E-16   0.2163094399E-15  -0.1218977538E-15   0.8000000011E+01
   0.2132000000E+01   0.9670160000E+00   0.9670160000E+00  -0.4500000000E-02   0.1122750000E-02   0.1122750000E-02   0.1365000000E+00  -0.3410675000E-01  -0.3410675000E-01   0.8000000010E+01   0.1036715322E-12   0.1034599853E-12  -0.1550842771E-15   0.4610171629E-15   0.8821915470E-15   0.6600000008E-01  -0.3298400004E-01  -0.3298400004E-01  -0.1066256482E-16  -0.1258641217E-16  -0.2333952482E-15   0.8000000010E+01
     1     2     3     4     5     6     7     8
     2     9    10     3     6    11    12     7
 VARIABLES = X,Y,Z,DU1,DU2,DU3,U1,U2,U3,S11,S22,S33,S12,S13,S23,E11,E22,E33,E12,E13,E23,SMISES
 ZONE, T="0.1250D+01" F=FEPOINT, I=   12 J=    2 ET=BRICK
   0.0000000000E+00   0.0000000000E+00   0.0000000000E+00   0.0000000000E+00   0.0000000000E+00   0.0000000000E+00   0.0000000000E+00   0.0000000000E+00   0.0000000000E+00   0.6875000011E+01  -0.3088892294E-13  -0.2967379887E-13  -0.2265515675E-15   0.3683669121E-15  -0.8147597101E-15   0.6375000010E-01  -0.3186125005E-01  -0.3186125005E-01   0.6513401322E-17  -0.6629723458E-15  -0.4106117576E-15   0.6875000011E+01
   0.1063750000E+01   0.0000000000E+00  -0.2805850453E-15  -0.2250000000E-02   0.0000000000E+00   0.1688170678E-17   0.6600000000E-01   0.0000000000E+00  -0.2822732160E-15   0.6875000011E+01   0.1482362313E-14   0.4144761464E-14   0.1095810161E-14   0.2631652502E-15  -0.5985256301E-15   0.6375000010E-01  -0.3186125005E-01  -0.3186125005E-01  -0.2451556580E-16  -0.2028413100E-15   0.8776844938E-16   0.6875000011E+01
   0.1063750000E+01   0.9681387500E+00  -0.2373338832E-15  -0.2250000000E-02   0.1122750000E-02   0.8418261730E-18   0.6600000000E-01  -0.3298400000E-01  -0.2381757094E-15   0.6875000010E+01  -0.1861381430E-13  -0.1773360692E-13   0.3382576475E-15  -0.7762197616E-15   0.1392937511E-14   0.6375000009E-01  -0.3186125005E-01  -0.3186125005E-01  -0.4914663027E-16   0.5466249212E-17  -0.8006503320E-16   0.6875000010E+01
   0.0000000000E+00   0.9681387500E+00  -0.1970292046E-15   0.0000000000E+00   0.1122750000E-02  -0.1071756204E-17   0.0000000000E+00  -0.3298400000E-01  -0.1959574484E-15   0.6875000010E+01  -0.2915812271E-13  -0.2545190057E-13  -0.4288387680E-15   0.1079176495E-14   0.7163894373E-15   0.6375000009E-01  -0.3186125005E-01  -0.3186125005E-01  -0.8491795920E-16  -0.5488993205E-16  -0.5383449633E-15   0.6875000010E+01
   0.0000000000E+00   0.0000000000E+00   0.9681387500E+00   0.0000000000E+00   0.0000000000E+00   0.1122750000E-02   0.0000000000E+00   0.0000000000E+00  -0.3298400000E-01   0.6875000010E+01  -0.1381917469E-14  -0.1399709422E-14  -0.6692906284E-17   0.3963599004E-15  -0.1519175922E-14   0.6375000009E-01  -0.3186125005E-01  -0.3186125005E-01   0.7607258851E-17  -0.5914975630E-15  -0.3433379858E-15   0.6875000010E+01
   0.1063750000E+01   0.0000000000E+00   0.9681387500E+00  -0.2250000000E-02   0.0000000000E+00   0.1122750000E-02   0.6600000000E-01   0.0000000000E+00  -0.3298400000E-01   0.6875000010E+01  -0.6838452466E-13  -0.6977415304E-13   0.1191843767E-18   0.8237515085E-15  -0.1226737853E-14   0.6375000009E-01  -0.3186125005E-01  -0.3186125005E-01   0.2816218701E-17  -0.1720488671E-15   0.9228879904E-16   0.6875000010E+01
   0.1063750000E+01   0.9681387500E+00   0.9681387500E+00  -0.2250000000E-02   0.1122750000E-02   0.1122750000E-02   0.6600000000E-01  -0.3298400000E-01  -0.3298400000E-01   0.6875000009E+01   0.2549349589E-13   0.2196469560E-13   0.6813406163E-16  -0.6312875983E-15   0.6901449863E-15   0.6375000008E-01  -0.3186125004E-01  -0.3186125004E-01  -0.4588779209E-16  -0.3152817720E-16  -0.5440067428E-16   0.6875000009E+01
   0.0000000000E+00   0.9681387500E+00   0.9681387500E+00   0.0000000000E+00   0.1122750000E-02   0.1122750000E-02   0.0000000000E+00  -0.3298400000E-01  -0.3298400000E-01   0.6875000009E+01   0.1994965734E-13   0.1503016091E-13   0.1499362103E-15   0.5587968172E-15   0.1141992878E-14   0.6375000009E-01  -0.3186125004E-01  -0.3186125004E-01  -0.3665093256E-16   0.3668774467E-16  -0.5410369393E-15   0.6875000009E+01
   0.2127500000E+01   0.0000000000E+00  -0.3377495967E-15  -0.4500000000E-02   0.0000000000E+00   0.6306425484E-17   0.1320000000E+00   0.0000000000E+00  -0.3440560221E-15   0.6875000010E+01   0.1568714542E-12   0.1578289502E-12  -0.1387705922E-16  -0.1003411054E-14  -0.1011330732E-14   0.6375000010E-01  -0.3186125005E-01  -0.3186125005E-01  -0.1210189570E-15   0.1985005774E-15  -0.1125251055E-15   0.6875000010E+01
   0.2127500000E+01   0.9681387500E+00  -0.3864931013E-15  -0.4500000000E-02   0.1122750000E-02   0.4914072788E-17   0.1320000000E+00  -0.3298400000E-01  -0.3914071741E-15   0.6875000010E+01   0.6045599956E-13   0.6396992557E-13   0.3232151449E-15  -0.1958262727E-15   0.1111905555E-14   0.6375000009E-01  -0.3186125004E-01  -0.3186125004E-01  -0.1240575722E-15  -0.5261674228E-16  -0.2095002015E-15   0.6875000010E+01
   0.2127500000E+01   0.0000000000E+00   0.9681387500E+00  -0.4500000000E-02   0.0000000000E+00   0.1122750000E-02   0.1320000000E+00   0.0000000000E+00  -0.3298400000E-01   0.6875000010E+01  -0.9084244018E-13  -0.9214097388E-13   0.2836754397E-15  -0.1216351557E-14  -0.8404009600E-15   0.6375000009E-01  -0.3186125004E-01  -0.3186125004E-01   0.2248868843E-16   0.2756531882E-15  -0.1017330589E-15   0.6875000010E+01
   0.2127500000E+01   0.9681387500E+00   0.9681387500E+00  -0.4500000000E-02   0.1122750000E-02   0.1122750000E-02   0.1320000000E+00  -0.3298400000E-01  -0.3298400000E-01   0.6875000009E+01   0.1416706078E-13   0.1287358058E-13   0.4586190463E-15   0.3744431793E-15   0.6240392738E-15   0.6375000008E-01  -0.3186125004E-01  -0.3186125004E-01   0.1011502935E-16  -0.8705722984E-16  -0.2582815823E-15   0.6875000009E+01
     1     2     3     4     5     6     7     8
     2     9    10     3     6    11    12     7
 VARIABLES = X,Y,Z,DU1,DU2,DU3,U1,U2,U3,S11,S22,S33,S12,S13,S23,E11,E22,E33,E12,E13,E23,SMISES
 ZONE, T="0.1300D+01" F=FEPOINT, I=   12 J=    2 ET=BRICK
   0.0000000000E+00   0.0000000000E+00   0.0000000000E+00   0.0000000000E+00   0.0000000000E+00   0.0000000000E+00   0.0000000000E+00   0.0000000000E+00   0.0000000000E+00   0.5750000009E+01  -0.3035328566E-13  -0.2947268729E-13  -0.2364116262E-15   0.3235587725E-15  -0.8319591962E-15   0.6150000010E-01  -0.3073850005E-01  -0.3073850005E-01  -0.5684849336E-17  -0.6701008984E-15  -0.4011174621E-15   0.5750000009E+01
   0.1061500000E+01   0.0000000000E+00  -0.2812091717E-15  -0.2250000000E-02   0.0000000000E+00  -0.6241263399E-18   0.6375000000E-01   0.0000000000E+00  -0.2805850453E-15   0.5750000009E+01   0.4849011905E-13   0.5080856270E-13   0.9553551379E-15   0.1567810930E-15  -0.5490305549E-15   0.6150000009E-01  -0.3073850005E-01  -0.3073850005E-01   0.9699027595E-17  -0.2291912068E-15   0.9817020579E-16   0.5750000009E+01
   0.1061500000E+01   0.9692615000E+00  -0.2377221359E-15  -0.2250000000E-02   0.1122750000E-02  -0.3882527271E-18   0.6375000000E-01  -0.3186125000E-01  -0.2373338832E-15   0.5750000008E+01   0.2357309067E-13   0.2442354972E-13   0.2358485466E-15  -0.7513574073E-15   0.1188257508E-14   0.6150000009E-01  -0.3073850004E-01  -0.3073850004E-01  -0.4430401751E-16  -0.3188950841E-16  -0.7618975986E-16   0.5750000008E+01
   0.0000000000E+00   0.9692615000E+00  -0.1969775381E-15   0.0000000000E+00   0.1122750000E-02   0.5166650472E-19   0.0000000000E+00  -0.3186125000E-01  -0.1970292046E-15   0.5750000008E+01   0.2509882685E-13   0.2876839754E-13  -0.3360322638E-15   0.1007209464E-14   0.5843669236E-15   0.6150000009E-01  -0.3073850004E-01  -0.3073850004E-01  -0.8863672467E-16  -0.3746033951E-16  -0.5504105981E-15   0.5750000008E+01
   0.0000000000E+00   0.0000000000E+00   0.9692615000E+00   0.0000000000E+00   0.0000000000E+00   0.1122750000E-02   0.0000000000E+00   0.0000000000E+00  -0.3186125000E-01   0.5750000008E+01   0.1634952685E-13   0.1614488300E-13   0.5161790593E-18   0.5894864247E-15  -0.1259943377E-14   0.6150000009E-01  -0.3073850004E-01  -0.3073850004E-01   0.3705815713E-17  -0.5686907830E-15  -0.3322627814E-15   0.5750000008E+01
   0.1061500000E+01   0.0000000000E+00   0.9692615000E+00  -0.2250000000E-02   0.0000000000E+00   0.1122750000E-02   0.6375000000E-01   0.0000000000E+00  -0.3186125000E-01   0.5750000008E+01  -0.2825061451E-13  -0.2888194655E-13  -0.2328224742E-15   0.8117025366E-15  -0.1166556281E-14   0.6150000009E-01  -0.3073850004E-01  -0.3073850004E-01  -0.1158036411E-16  -0.1782655484E-15   0.6233544394E-16   0.5750000008E+01
   0.1061500000E+01   0.9692615000E+00   0.9692615000E+00  -0.2250000000E-02   0.1122750000E-02   0.1122750000E-02   0.6375000000E-01  -0.3186125000E-01  -0.3186125000E-01   0.5750000008E+01  -0.4653021901E-13  -0.4956340449E-13  -0.9441726858E-16  -0.7687208862E-15   0.5070021417E-15   0.6150000008E-01  -0.3073850004E-01  -0.3073850004E-01  -0.3329758588E-16  -0.2648810056E-16  -0.6944461188E-16   0.5750000008E+01
   0.0000000000E+00   0.9692615000E+00   0.9692615000E+00   0.0000000000E+00   0.1122750000E-02   0.1122750000E-02   0.0000000000E+00  -0.3186125000E-01  -0.3186125000E-01   0.5750000008E+01  -0.1737658107E-13  -0.2189661082E-13   0.7054293703E-16   0.5313268883E-15   0.1201788427E-14   0.6150000008E-01  -0.3073850004E-01  -0.3073850004E-01  -0.6594921785E-16   0.6242256708E-17  -0.5343283815E-15   0.5750000008E+01
   0.2123000000E+01   0.0000000000E+00  -0.3399060679E-15  -0.4500000000E-02   0.0000000000E+00  -0.2156471247E-17   0.1275000000E+00   0.0000000000E+00  -0.3377495967E-15   0.5750000009E+01   0.1305757225E-13   0.1380245336E-13  -0.2219266847E-15  -0.6481604058E-15  -0.8561286087E-15   0.6150000009E-01  -0.3073850005E-01  -0.3073850005E-01  -0.8930953588E-16   0.2543299147E-15  -0.1008634091E-15   0.5750000009E+01
   0.2123000000E+01   0.9692615000E+00  -0.3877734854E-15  -0.4500000000E-02   0.1122750000E-02  -0.1280384103E-17   0.1275000000E+00  -0.3186125000E-01  -0.3864931013E-15   0.5750000008E+01  -0.3698732517E-13  -0.3384311750E-13   0.1018211509E-15  -0.2879296870E-15   0.1168751385E-14   0.6150000009E-01  -0.3073850004E-01  -0.3073850004E-01  -0.1237686817E-15  -0.7588359915E-16  -0.2430214815E-15   0.5750000008E+01
   0.2123000000E+01   0.0000000000E+00   0.9692615000E+00  -0.4500000000E-02   0.0000000000E+00   0.1122750000E-02   0.1275000000E+00   0.0000000000E+00  -0.3186125000E-01   0.5750000008E+01   0.7336511104E-14   0.5396147691E-14  -0.1035315812E-15  -0.9246350554E-15  -0.7038361669E-15   0.6150000009E-01  -0.3073850004E-01  -0.3073850004E-01  -0.1649391635E-16   0.2780622786E-15  -0.9047325790E-16   0.5750000008E+01
   0.2123000000E+01   0.9692615000E+00   0.9692615000E+00  -0.4500000000E-02   0.1122750000E-02   0.1122750000E-02   0.1275000000E+00  -0.3186125000E-01  -0.3186125000E-01   0.5750000007E+01   0.5051446300E-13   0.4928738257E-13   0.3295735633E-15   0.1750727901E-15   0.6980836392E-15   0.6150000008E-01  -0.3073850004E-01  -0.3073850004E-01   0.1730162333E-17  -0.7873180308E-16  -0.2452591041E-15   0.5750000007E+01
     1     2     3     4     5     6     7     8
     2     9    10     3     6    11    12     7
 VARIABLES = X,Y,Z,DU1,DU2,DU3,U1,U2,U3,S11,S22,S33,S12,S13,S23,E11,E22,E33,E12,E13,E23,SMISES
 ZONE, T="0.1350D+01" F=FEPOINT, I=   12 J=    2 ET=BRICK
   0.0000000000E+00   0.0000000000E+00   0.0000000000E+00   0.0000000000E+00   0.0000000000E+00   0.0000000000E+00   0.0000000000E+00   0.0000000000E+00   0.0000000000E+00   0.4625000007E+01   0.1815005906E-13   0.1950396098E-13  -0.2449422667E-15   0.5280665589E-15  -0.8216910095E-15   0.5925000009E-01  -0.2961575005E-01  -0.2961575005E-01  -0.2004357127E-17  -0.6631561837E-15  -0.3923273952E-15   0.4625000007E+01
   0.1059250000E+01   0.0000000000E+00  -0.2797217107E-15  -0.2250000000E-02   0.0000000000E+00   0.1487460995E-17   0.6150000000E-01   0.0000000000E+00  -0.2812091717E-15   0.4625000007E+01   0.1624369375E-13   0.1876930782E-13   0.1035938445E-14   0.2189263484E-15  -0.8010182194E-15   0.5925000009E-01  -0.2961575005E-01  -0.2961575005E-01  -0.5591609079E-17  -0.2168382565E-15   0.8509331631E-16   0.4625000007E+01
   0.1059250000E+01   0.9703842500E+00  -0.2376600767E-15  -0.2250000000E-02   0.1122750000E-02   0.6205923472E-19   0.6150000000E-01  -0.3073850000E-01  -0.2377221359E-15   0.4625000007E+01  -0.4533424108E-13  -0.4382163380E-13   0.2399300434E-15  -0.6102706103E-15   0.1418847116E-14   0.5925000008E-01  -0.2961575004E-01  -0.2961575004E-01  -0.3673720808E-16  -0.4282809907E-16  -0.5785510791E-16   0.4625000007E+01
   0.0000000000E+00   0.9703842500E+00  -0.1968233428E-15   0.0000000000E+00   0.1122750000E-02   0.1541953074E-18   0.0000000000E+00  -0.3073850000E-01  -0.1969775381E-15   0.4625000007E+01   0.3091348464E-13   0.3437389217E-13  -0.4666685856E-15   0.8911792643E-15   0.8216427061E-15   0.5925000009E-01  -0.2961575004E-01  -0.2961575004E-01  -0.9098629797E-16  -0.2065228662E-16  -0.5854561783E-15   0.4625000007E+01
   0.0000000000E+00   0.0000000000E+00   0.9703842500E+00   0.0000000000E+00   0.0000000000E+00   0.1122750000E-02   0.0000000000E+00   0.0000000000E+00  -0.3073850000E-01   0.4625000007E+01   0.7892303337E-14   0.7917141141E-14   0.1631028115E-16   0.6034100020E-15  -0.1503231762E-14   0.5925000009E-01  -0.2961575004E-01  -0.2961575004E-01   0.9366103404E-17  -0.5831716576E-15  -0.3513039494E-15   0.4625000007E+01
   0.1059250000E+01   0.0000000000E+00   0.9703842500E+00  -0.2250000000E-02   0.0000000000E+00   0.1122750000E-02   0.6150000000E-01   0.0000000000E+00  -0.3073850000E-01   0.4625000007E+01   0.2623939937E-13   0.2490528213E-13  -0.8465041059E-18   0.6184235924E-15  -0.1304045730E-14   0.5925000008E-01  -0.2961575004E-01  -0.2961575004E-01  -0.1486382894E-16  -0.1900311259E-15   0.8651170475E-16   0.4625000007E+01
   0.1059250000E+01   0.9703842500E+00   0.9703842500E+00  -0.2250000000E-02   0.1122750000E-02   0.1122750000E-02   0.6150000000E-01  -0.3073850000E-01  -0.3073850000E-01   0.4625000006E+01   0.2467883071E-13   0.2139783785E-13   0.1555836929E-15  -0.5043419814E-15   0.7588619382E-15   0.5925000008E-01  -0.2961575004E-01  -0.2961575004E-01  -0.3440713572E-16   0.1486725751E-16  -0.7835242134E-16   0.4625000006E+01
   0.0000000000E+00   0.9703842500E+00   0.9703842500E+00   0.0000000000E+00   0.1122750000E-02   0.1122750000E-02   0.0000000000E+00  -0.3073850000E-01  -0.3073850000E-01   0.4625000006E+01   0.6644687322E-13   0.6147385840E-13   0.2597495847E-15   0.6435641805E-15   0.1116671194E-14   0.5925000008E-01  -0.2961575004E-01  -0.2961575004E-01  -0.5378342947E-16   0.4630967401E-17  -0.5085345503E-15   0.4625000006E+01
   0.2118500000E+01   0.0000000000E+00  -0.3360147624E-15  -0.4500000000E-02   0.0000000000E+00   0.3891305513E-17   0.1230000000E+00   0.0000000000E+00  -0.3399060679E-15   0.4625000007E+01   0.4351456293E-13   0.4405971072E-13  -0.4591141669E-15  -0.6581104335E-15  -0.1077424175E-14   0.5925000009E-01  -0.2961575004E-01  -0.2961575004E-01  -0.1358815140E-15   0.1920141136E-15  -0.1025977945E-15   0.4625000007E+01
   0.2118500000E+01   0.9703842500E+00  -0.3852418842E-15  -0.4500000000E-02   0.1122750000E-02   0.2531601241E-17   0.1230000000E+00  -0.3073850000E-01  -0.3877734854E-15   0.4625000006E+01  -0.9227406883E-13  -0.8840330587E-13   0.1804375732E-15  -0.2374175008E-15   0.1031279304E-14   0.5925000008E-01  -0.2961575004E-01  -0.2961575004E-01  -0.1227044639E-15   0.6107376824E-16  -0.2623314240E-15   0.4625000006E+01
   0.2118500000E+01   0.0000000000E+00   0.9703842500E+00  -0.4500000000E-02   0.0000000000E+00   0.1122750000E-02   0.1230000000E+00   0.0000000000E+00  -0.3073850000E-01   0.4625000006E+01  -0.5933234983E-13  -0.6171626847E-13  -0.1444411669E-15  -0.1162540957E-14  -0.6674216996E-15   0.5925000008E-01  -0.2961575004E-01  -0.2961575004E-01   0.1844833990E-16   0.1956676079E-15  -0.9673026940E-16   0.4625000006E+01
   0.2118500000E+01   0.9703842500E+00   0.9703842500E+00  -0.4500000000E-02   0.1122750000E-02   0.1122750000E-02   0.1230000000E+00  -0.3073850000E-01  -0.3073850000E-01   0.4625000006E+01  -0.1278000576E-12  -0.1285444047E-12  -0.1479415695E-15   0.4770312410E-15   0.8769349596E-15   0.5925000008E-01  -0.2961575004E-01  -0.2961575004E-01   0.2406809772E-16  -0.2512848812E-16  -0.2405617925E-15   0.4625000006E+01
     1     2     3     4     5     6     7     8
     2     9    10     3     6    11    12     7
 VARIABLES = X,Y,Z,DU1,DU2,DU3,U1,U2,U3,S11,S22,S33,S12,S13,S23,E11,E22,E33,E12,E13,E23,SMISES
 ZONE, T="0.1400D+01" F=FEPOINT, I=   12 J=    2 ET=BRICK
   0.0000000000E+00   0.0000000000E+00   0.0000000000E+00   0.0000000000E+00   0.0000000000E+00   0.0000000000E+00   0.0000000000E+00   0.0000000000E+00   0.0000000000E+00   0.3500000005E+01  -0.2165844080E-13  -0.2031197596E-13  -0.2502398160E-15   0.4666244345E-15  -0.7319743575E-15   0.5700000009E-01  -0.2849300004E-01  -0.2849300004E-01  -0.1136405374E-17  -0.6724781186E-15  -0.3985635031E-15   0.3500000005E+01
   0.1057000000E+01   0.0000000000E+00  -0.2798671264E-15  -0.2250000000E-02   0.0000000000E+00  -0.1454157254E-18   0.5925000000E-01   0.0000000000E+00  -0.2797217107E-15   0.3500000005E+01  -0.7405666449E-13  -0.7151617626E-13   0.1120431387E-14   0.3538661453E-15  -0.7843886540E-15   0.5700000009E-01  -0.2849300004E-01  -0.2849300004E-01   0.9817184964E-17  -0.2072965788E-15   0.8444334951E-16   0.3500000005E+01
   0.1057000000E+01   0.9715070000E+00  -0.2376496848E-15  -0.2250000000E-02   0.1122750000E-02   0.1039184840E-19   0.5925000000E-01  -0.2961575000E-01  -0.2376600767E-15   0.3500000005E+01  -0.2376541861E-13  -0.2223793717E-13   0.2543557523E-15  -0.8787324863E-15   0.1351607731E-14   0.5700000008E-01  -0.2849300004E-01  -0.2849300004E-01  -0.4443058428E-16  -0.7691286629E-16  -0.7080248031E-16   0.3500000005E+01
   0.0000000000E+00   0.9715070000E+00  -0.1962824937E-15   0.0000000000E+00   0.1122750000E-02   0.5408490457E-18   0.0000000000E+00  -0.2961575000E-01  -0.1968233428E-15   0.3500000005E+01  -0.1087277452E-13  -0.7874781878E-14  -0.4402458336E-15   0.8529103105E-15   0.8966262408E-15   0.5700000008E-01  -0.2849300004E-01  -0.2849300004E-01  -0.8093389403E-16   0.6484566517E-17  -0.5544414780E-15   0.3500000005E+01
   0.0000000000E+00   0.0000000000E+00   0.9715070000E+00   0.0000000000E+00   0.0000000000E+00   0.1122750000E-02   0.0000000000E+00   0.0000000000E+00  -0.2961575000E-01   0.3500000005E+01   0.1387149551E-13   0.1437906670E-13   0.4006168125E-16   0.4559946974E-15  -0.1550337188E-14   0.5700000008E-01  -0.2849300004E-01  -0.2849300004E-01   0.9324237535E-17  -0.5984344196E-15  -0.3472325573E-15   0.3500000005E+01
   0.1057000000E+01   0.0000000000E+00   0.9715070000E+00  -0.2250000000E-02   0.0000000000E+00   0.1122750000E-02   0.5925000000E-01   0.0000000000E+00  -0.2961575000E-01   0.3500000005E+01   0.5324195029E-14   0.3934566649E-14  -0.5784000970E-16   0.5735746983E-15  -0.1222484372E-14   0.5700000008E-01  -0.2849300004E-01  -0.2849300004E-01   0.1384654183E-17  -0.1551259909E-15   0.8669529534E-16   0.3500000005E+01
   0.1057000000E+01   0.9715070000E+00   0.9715070000E+00  -0.2250000000E-02   0.1122750000E-02   0.1122750000E-02   0.5925000000E-01  -0.2961575000E-01  -0.2961575000E-01   0.3500000005E+01  -0.4587195316E-13  -0.4920845717E-13   0.2169093987E-15  -0.4751169161E-15   0.7093099955E-15   0.5700000007E-01  -0.2849300004E-01  -0.2849300004E-01  -0.1403334159E-16  -0.4155365997E-16  -0.6934161145E-16   0.3500000005E+01
   0.0000000000E+00   0.9715070000E+00   0.9715070000E+00   0.0000000000E+00   0.1122750000E-02   0.1122750000E-02   0.0000000000E+00  -0.2961575000E-01  -0.2961575000E-01   0.3500000005E+01  -0.1124669660E-13  -0.1619195585E-13   0.1223941127E-15   0.6225188478E-15   0.1007797006E-14   0.5700000008E-01  -0.2849300004E-01  -0.2849300004E-01  -0.7606784650E-16   0.2629047803E-16  -0.5265857598E-15   0.3500000005E+01
   0.2114000000E+01   0.0000000000E+00  -0.3361436526E-15  -0.4500000000E-02   0.0000000000E+00  -0.1288902346E-18   0.1185000000E+00   0.0000000000E+00  -0.3360147624E-15   0.3500000005E+01  -0.2681880788E-13  -0.2637724528E-13  -0.8200499212E-16  -0.5358764598E-15  -0.1194633629E-14   0.5700000009E-01  -0.2849300004E-01  -0.2849300004E-01  -0.9897783786E-16   0.2149674695E-15  -0.9913774066E-16   0.3500000005E+01
   0.2114000000E+01   0.9715070000E+00  -0.3861281331E-15  -0.4500000000E-02   0.1122750000E-02  -0.8862489203E-18   0.1185000000E+00  -0.2961575000E-01  -0.3852418842E-15   0.3500000005E+01   0.6517241395E-13   0.6939456953E-13   0.4928873550E-15  -0.7067567752E-15   0.1044095140E-14   0.5700000008E-01  -0.2849300004E-01  -0.2849300004E-01  -0.8489639135E-16   0.3765708708E-16  -0.2491536279E-15   0.3500000005E+01
   0.2114000000E+01   0.0000000000E+00   0.9715070000E+00  -0.4500000000E-02   0.0000000000E+00   0.1122750000E-02   0.1185000000E+00   0.0000000000E+00  -0.2961575000E-01   0.3500000005E+01   0.7262815628E-13   0.7017584509E-13  -0.2518922522E-15  -0.6059122003E-15  -0.6462983749E-15   0.5700000008E-01  -0.2849300004E-01  -0.2849300004E-01  -0.4481803417E-16   0.2555400561E-15  -0.1033547053E-15   0.3500000005E+01
   0.2114000000E+01   0.9715070000E+00   0.9715070000E+00  -0.4500000000E-02   0.1122750000E-02   0.1122750000E-02   0.1185000000E+00  -0.2961575000E-01  -0.2961575000E-01   0.3500000004E+01  -0.1283554782E-13  -0.1319330959E-13   0.7923897678E-16  -0.5094529048E-16   0.1074610737E-14   0.5700000007E-01  -0.2849300004E-01  -0.2849300004E-01  -0.2543847142E-16  -0.3770158433E-16  -0.2366886714E-15   0.3500000004E+01
     1     2     3     4     5     6     7     8
     2     9    10     3     6    11    12     7
 VARIABLES = X,Y,Z,DU1,DU2,DU3,U1,U2,U3,S11,S22,S33,S12,S13,S23,E11,E22,E33,E12,E13,E23,SMISES
 ZONE, T="0.1450D+01" F=FEPOINT, I=   12 J=    2 ET=BRICK
   0.0000000000E+00   0.0000000000E+00   0.0000000000E+00   0.0000000000E+00   0.0000000000E+00   0.0000000000E+00   0.0000000000E+00   0.0000000000E+00   0.0000000000E+00   0.2375000004E+01  -0.3030230601E-13  -0.2909262629E-13  -0.2326714499E-15   0.3851825888E-15  -0.8161351462E-15   0.5475000009E-01  -0.2737025004E-01  -0.2737025004E-01   0.5882794812E-18  -0.6836530513E-15  -0.4039393914E-15   0.2375000004E+01
   0.1054750000E+01   0.0000000000E+00  -0.2802519090E-15  -0.2250000000E-02   0.0000000000E+00  -0.3847826089E-18   0.5700000000E-01   0.0000000000E+00  -0.2798671264E-15   0.2375000004E+01  -0.9901837134E-14  -0.7796008203E-14   0.8063017223E-15   0.2014966574E-15  -0.7408517990E-15   0.5475000008E-01  -0.2737025004E-01  -0.2737025004E-01   0.6170102002E-17  -0.1761413436E-15   0.8737882993E-16   0.2375000004E+01
   0.1054750000E+01   0.9726297500E+00  -0.2377880786E-15  -0.2250000000E-02   0.1122750000E-02  -0.1383938163E-18   0.5700000000E-01  -0.2849300000E-01  -0.2376496848E-15   0.2375000003E+01   0.6558694087E-13   0.6713474077E-13   0.9753156229E-16  -0.6793892017E-15   0.1246087413E-14   0.5475000008E-01  -0.2737025004E-01  -0.2737025004E-01  -0.2262934593E-16  -0.3451126710E-16  -0.7120179391E-16   0.2375000003E+01
   0.0000000000E+00   0.9726297500E+00  -0.1968468013E-15   0.0000000000E+00   0.1122750000E-02  -0.5643075924E-18   0.0000000000E+00  -0.2849300000E-01  -0.1962824937E-15   0.2375000003E+01  -0.4826232998E-14  -0.1654269821E-14  -0.2274781986E-15   0.8738247351E-15   0.7962781185E-15   0.5475000008E-01  -0.2737025004E-01  -0.2737025004E-01  -0.9025333273E-16  -0.2505780735E-16  -0.5450191367E-15   0.2375000003E+01
   0.0000000000E+00   0.0000000000E+00   0.9726297500E+00   0.0000000000E+00   0.0000000000E+00   0.1122750000E-02   0.0000000000E+00   0.0000000000E+00  -0.2849300000E-01   0.2375000003E+01  -0.7522125667E-14  -0.7396424793E-14   0.6261754636E-18   0.6065553074E-15  -0.1426815991E-14   0.5475000008E-01  -0.2737025004E-01  -0.2737025004E-01   0.1016068854E-16  -0.5835713003E-15  -0.3621987489E-15   0.2375000003E+01
   0.1054750000E+01   0.0000000000E+00   0.9726297500E+00  -0.2250000000E-02   0.0000000000E+00   0.1122750000E-02   0.5700000000E-01   0.0000000000E+00  -0.2849300000E-01   0.2375000003E+01  -0.3817579314E-13  -0.3922146602E-13  -0.5860755472E-16   0.5268307759E-15  -0.1144674132E-14   0.5475000008E-01  -0.2737025004E-01  -0.2737025004E-01   0.4821402166E-17  -0.1910239643E-15   0.8821564728E-16   0.2375000003E+01
   0.1054750000E+01   0.9726297500E+00   0.9726297500E+00  -0.2250000000E-02   0.1122750000E-02   0.1122750000E-02   0.5700000000E-01  -0.2849300000E-01  -0.2849300000E-01   0.2375000003E+01  -0.9185711775E-14  -0.1246670462E-13   0.1108298317E-15  -0.4018416219E-15   0.6290519199E-15   0.5475000007E-01  -0.2737025004E-01  -0.2737025004E-01  -0.3608732024E-16   0.5083166520E-17  -0.8185508209E-16   0.2375000003E+01
   0.0000000000E+00   0.9726297500E+00   0.9726297500E+00   0.0000000000E+00   0.1122750000E-02   0.1122750000E-02   0.0000000000E+00  -0.2849300000E-01  -0.2849300000E-01   0.2375000003E+01  -0.4612672527E-13  -0.5058852173E-13   0.2102100327E-15   0.7379513722E-15   0.1171039013E-14   0.5475000007E-01  -0.2737025004E-01  -0.2737025004E-01  -0.7081507859E-16   0.1014126202E-16  -0.5397866972E-15   0.2375000003E+01
   0.2109500000E+01   0.0000000000E+00  -0.3363461628E-15  -0.4500000000E-02   0.0000000000E+00  -0.2025102005E-18   0.1140000000E+00   0.0000000000E+00  -0.3361436526E-15   0.2375000004E+01  -0.7056421022E-13  -0.6987484025E-13  -0.1948163532E-15  -0.7450735110E-15  -0.1001936076E-14   0.5475000008E-01  -0.2737025004E-01  -0.2737025004E-01  -0.1196630276E-15   0.1517746824E-15  -0.1046550001E-15   0.2375000004E+01
   0.2109500000E+01   0.9726297500E+00  -0.3852917537E-15  -0.4500000000E-02   0.1122750000E-02   0.8363793468E-18   0.1140000000E+00  -0.2849300000E-01  -0.3861281331E-15   0.2375000003E+01   0.4239370476E-14   0.7821689071E-14   0.3952456119E-15  -0.2583978307E-15   0.1070220869E-14   0.5475000008E-01  -0.2737025004E-01  -0.2737025004E-01  -0.1226928784E-15   0.5433886992E-16  -0.2367536868E-15   0.2375000003E+01
   0.2109500000E+01   0.0000000000E+00   0.9726297500E+00  -0.4500000000E-02   0.0000000000E+00   0.1122750000E-02   0.1140000000E+00   0.0000000000E+00  -0.2849300000E-01   0.2375000003E+01  -0.8410627819E-14  -0.1063272793E-13   0.1746539730E-15  -0.7392851240E-15  -0.7577039846E-15   0.5475000008E-01  -0.2737025004E-01  -0.2737025004E-01  -0.1256820472E-16   0.3352803741E-15  -0.1036015411E-15   0.2375000003E+01
   0.2109500000E+01   0.9726297500E+00   0.9726297500E+00  -0.4500000000E-02   0.1122750000E-02   0.1122750000E-02   0.1140000000E+00  -0.2849300000E-01  -0.2849300000E-01   0.2375000003E+01   0.2363090396E-13   0.2288184198E-13   0.5569777950E-15   0.5927301511E-16   0.8401035986E-15   0.5475000007E-01  -0.2737025004E-01  -0.2737025004E-01   0.1095001516E-16  -0.1464753442E-15  -0.2346367495E-15   0.2375000003E+01
     1     2     3     4     5     6     7     8
     2     9    10     3     6    11    12     7
 VARIABLES = X,Y,Z,DU1,DU2,DU3,U1,U2,U3,S11,S22,S33,S12,S13,S23,E11,E22,E33,E12,E13,E23,SMISES
 ZONE, T="0.1500D+01" F=FEPOINT, I=   12 J=    2 ET=BRICK
   0.0000000000E+00   0.0000000000E+00   0.0000000000E+00   0.0000000000E+00   0.0000000000E+00   0.0000000000E+00   0.0000000000E+00   0.0000000000E+00   0.0000000000E+00   0.1250000002E+01   0.9030838263E-13   0.9134558641E-13  -0.2341138301E-15   0.3776370155E-15  -0.8035423475E-15   0.5250000008E-01  -0.2624750004E-01  -0.2624750004E-01   0.5018748389E-17  -0.6768427838E-15  -0.3882579479E-15   0.1250000002E+01
   0.1052500000E+01   0.0000000000E+00  -0.2798788783E-15  -0.2250000000E-02   0.0000000000E+00   0.3730306741E-18   0.5475000000E-01   0.0000000000E+00  -0.2802519090E-15   0.1250000002E+01   0.3181094876E-13   0.3413510372E-13   0.4898658962E-15   0.2556530186E-15  -0.7770666583E-15   0.5250000008E-01  -0.2624750004E-01  -0.2624750004E-01  -0.1281303411E-16  -0.1942237997E-15   0.8222283161E-16   0.1250000002E+01
   0.1052500000E+01   0.9737525000E+00  -0.2376345392E-15  -0.2250000000E-02   0.1122750000E-02   0.1535394550E-18   0.5475000000E-01  -0.2737025000E-01  -0.2377880786E-15   0.1250000002E+01  -0.5013276088E-14  -0.3269461388E-14  -0.2892780226E-15  -0.5949785412E-15   0.1377893823E-14   0.5250000007E-01  -0.2624750004E-01  -0.2624750004E-01  -0.6985484515E-16  -0.3266092784E-16  -0.7674351070E-16   0.1250000002E+01
   0.0000000000E+00   0.9737525000E+00  -0.1966218284E-15   0.0000000000E+00   0.1122750000E-02   0.2249729211E-18   0.0000000000E+00  -0.2737025000E-01  -0.1968468013E-15   0.1250000002E+01  -0.3749835883E-13  -0.3418811597E-13  -0.4467582033E-15   0.9018144173E-15   0.7594022423E-15   0.5250000008E-01  -0.2624750004E-01  -0.2624750004E-01  -0.7482475326E-16  -0.2050548221E-16  -0.5729192288E-15   0.1250000002E+01
   0.0000000000E+00   0.0000000000E+00   0.9737525000E+00   0.0000000000E+00   0.0000000000E+00   0.1122750000E-02   0.0000000000E+00   0.0000000000E+00  -0.2737025000E-01   0.1250000002E+01  -0.6897885054E-13  -0.6879106433E-13   0.1812345648E-16   0.6103988042E-15  -0.1283095331E-14   0.5250000008E-01  -0.2624750004E-01  -0.2624750004E-01  -0.1832640843E-17  -0.5724488058E-15  -0.3592012410E-15   0.1250000002E+01
   0.1052500000E+01   0.0000000000E+00   0.9737525000E+00  -0.2250000000E-02   0.0000000000E+00   0.1122750000E-02   0.5475000000E-01   0.0000000000E+00  -0.2737025000E-01   0.1250000002E+01  -0.1175228529E-13  -0.1285991002E-13   0.1732381485E-16   0.2499311500E-15  -0.1164144695E-14   0.5250000007E-01  -0.2624750004E-01  -0.2624750004E-01   0.1362713100E-16  -0.2188134272E-15   0.7882457904E-16   0.1250000002E+01
   0.1052500000E+01   0.9737525000E+00   0.9737525000E+00  -0.2250000000E-02   0.1122750000E-02   0.1122750000E-02   0.5475000000E-01  -0.2737025000E-01  -0.2737025000E-01   0.1250000002E+01   0.1299682217E-13   0.9631566239E-14   0.1794622241E-15  -0.2259831231E-15   0.8286517952E-15   0.5250000007E-01  -0.2624750003E-01  -0.2624750003E-01   0.6390315252E-17  -0.2239725541E-17  -0.5323097007E-16   0.1250000002E+01
   0.0000000000E+00   0.9737525000E+00   0.9737525000E+00   0.0000000000E+00   0.1122750000E-02   0.1122750000E-02   0.0000000000E+00  -0.2737025000E-01  -0.2737025000E-01   0.1250000002E+01   0.1023192746E-13   0.6090182975E-14   0.2420704902E-15   0.5847816933E-15   0.1094341790E-14   0.5250000007E-01  -0.2624750004E-01  -0.2624750004E-01  -0.8158828713E-16   0.1343409835E-16  -0.5172115951E-15   0.1250000002E+01
   0.2105000000E+01   0.0000000000E+00  -0.3352182398E-15  -0.4500000000E-02   0.0000000000E+00   0.1127923051E-17   0.1095000000E+00   0.0000000000E+00  -0.3363461628E-15   0.1250000002E+01  -0.5282503658E-13  -0.5251630937E-13  -0.5747657911E-15  -0.7852574928E-15  -0.1162834123E-14   0.5250000008E-01  -0.2624750004E-01  -0.2624750004E-01  -0.8539294888E-16   0.1449544091E-15  -0.9770759903E-16   0.1250000002E+01
   0.2105000000E+01   0.9737525000E+00  -0.3851592742E-15  -0.4500000000E-02   0.1122750000E-02   0.1324795063E-18   0.1095000000E+00  -0.2737025000E-01  -0.3852917537E-15   0.1250000002E+01   0.5836614848E-13   0.6187857995E-13   0.1592023367E-15  -0.5917060443E-16   0.8793215602E-15   0.5250000007E-01  -0.2624750004E-01  -0.2624750004E-01  -0.9938370796E-16   0.2762238486E-16  -0.2519266975E-15   0.1250000002E+01
   0.2105000000E+01   0.0000000000E+00   0.9737525000E+00  -0.4500000000E-02   0.0000000000E+00   0.1122750000E-02   0.1095000000E+00   0.0000000000E+00  -0.2737025000E-01   0.1250000002E+01  -0.5685812140E-13  -0.5942331415E-13   0.1351920417E-15  -0.1261748521E-14  -0.7446167639E-15   0.5250000007E-01  -0.2624750004E-01  -0.2624750004E-01  -0.3793792844E-16   0.2659702485E-15  -0.1065752096E-15   0.1250000002E+01
   0.2105000000E+01   0.9737525000E+00   0.9737525000E+00  -0.4500000000E-02   0.1122750000E-02   0.1122750000E-02   0.1095000000E+00  -0.2737025000E-01  -0.2737025000E-01   0.1250000002E+01  -0.4251778638E-13  -0.4324639640E-13   0.3674791685E-15   0.2618008289E-15   0.8377742984E-15   0.5250000007E-01  -0.2624750003E-01  -0.2624750003E-01  -0.3148931406E-16  -0.8813003144E-16  -0.2324264918E-15   0.1250000002E+01
     1     2     3     4     5     6     7     8
     2     9    10     3     6    11    12     7
 VARIABLES = X,Y,Z,DU1,DU2,DU3,U1,U2,U3,S11,S22,S33,S12,S13,S23,E11,E22,E33,E12,E13,E23,SMISES
 ZONE, T="0.1550D+01" F=FEPOINT, I=   12 J=    2 ET=BRICK
   0.0000000000E+00   0.0000000000E+00   0.0000000000E+00   0.0000000000E+00   0.0000000000E+00   0.0000000000E+00   0.0000000000E+00   0.0000000000E+00   0.0000000000E+00   0.1250000002E+00  -0.2673112152E-13  -0.2559191544E-13  -0.2212725890E-15   0.4111899137E-15  -0.8423552020E-15   0.5025000008E-01  -0.2512475004E-01  -0.2512475004E-01  -0.2793751780E-17  -0.6834349331E-15  -0.3944740476E-15   0.1250000002E+00
   0.1050250000E+01   0.0000000000E+00  -0.2801175069E-15  -0.2250000000E-02   0.0000000000E+00  -0.2386285215E-18   0.5250000000E-01   0.0000000000E+00  -0.2798788783E-15   0.1250000002E+00   0.2496030948E-13   0.2705646513E-13   0.6045672674E-15   0.4290766708E-15  -0.8163008942E-15   0.5025000008E-01  -0.2512475004E-01  -0.2512475004E-01   0.1319818572E-16  -0.1883692237E-15   0.8914404146E-16   0.1250000002E+00
   0.1050250000E+01   0.9748752500E+00  -0.2380437268E-15  -0.2250000000E-02   0.1122750000E-02  -0.4091875720E-18   0.5250000000E-01  -0.2624750000E-01  -0.2376345392E-15   0.1250000002E+00   0.3506002252E-13   0.3664714391E-13  -0.1860524835E-15  -0.7716211936E-15   0.1274937163E-14   0.5025000007E-01  -0.2512475004E-01  -0.2512475004E-01  -0.2397559511E-16  -0.2479571668E-16  -0.6721928728E-16   0.1250000002E+00
   0.0000000000E+00   0.9748752500E+00  -0.1968941949E-15   0.0000000000E+00   0.1122750000E-02  -0.2723665496E-18   0.0000000000E+00  -0.2624750000E-01  -0.1966218284E-15   0.1250000002E+00   0.3128168951E-13   0.3484376358E-13  -0.3072716584E-15   0.9507371647E-15   0.7138561816E-15   0.5025000007E-01  -0.2512475004E-01  -0.2512475004E-01  -0.9960153429E-16  -0.3503153997E-16  -0.5779623524E-15   0.1250000002E+00
   0.0000000000E+00   0.0000000000E+00   0.9748752500E+00   0.0000000000E+00   0.0000000000E+00   0.1122750000E-02   0.0000000000E+00   0.0000000000E+00  -0.2624750000E-01   0.1250000002E+00   0.5876838065E-13   0.5904497968E-13  -0.8715908883E-17   0.5667866281E-15  -0.1323695616E-14   0.5025000007E-01  -0.2512475004E-01  -0.2512475004E-01   0.1342963264E-17  -0.5891898808E-15  -0.3482111320E-15   0.1250000002E+00
   0.1050250000E+01   0.0000000000E+00   0.9748752500E+00  -0.2250000000E-02   0.0000000000E+00   0.1122750000E-02   0.5250000000E-01   0.0000000000E+00  -0.2624750000E-01   0.1250000002E+00  -0.3579571327E-13  -0.3694216130E-13  -0.1307544960E-15   0.3503682988E-15  -0.1105351236E-14   0.5025000007E-01  -0.2512475004E-01  -0.2512475004E-01   0.1050755865E-16  -0.1627600116E-15   0.7996017190E-16   0.1250000002E+00
   0.1050250000E+01   0.9748752500E+00   0.9748752500E+00  -0.2250000000E-02   0.1122750000E-02   0.1122750000E-02   0.5250000000E-01  -0.2624750000E-01  -0.2624750000E-01   0.1250000002E+00   0.3567902660E-13   0.3233203532E-13   0.1595676259E-16  -0.3587023771E-15   0.8055241680E-15   0.5025000007E-01  -0.2512475003E-01  -0.2512475003E-01  -0.1572818411E-16  -0.2412204448E-16  -0.5695408763E-16   0.1250000002E+00
   0.0000000000E+00   0.9748752500E+00   0.9748752500E+00   0.0000000000E+00   0.1122750000E-02   0.1122750000E-02   0.0000000000E+00  -0.2624750000E-01  -0.2624750000E-01   0.1250000002E+00  -0.7900028272E-15  -0.4692595193E-14   0.2259604277E-15   0.5308621700E-15   0.1150217136E-14   0.5025000007E-01  -0.2512475003E-01  -0.2512475003E-01  -0.7127862619E-16   0.2387668890E-16  -0.5222619276E-15   0.1250000002E+00
   0.2100500000E+01   0.0000000000E+00  -0.3373375380E-15  -0.4500000000E-02   0.0000000000E+00  -0.2119298224E-17   0.1050000000E+00   0.0000000000E+00  -0.3352182398E-15   0.1250000002E+00  -0.1536561498E-13  -0.1485194416E-13  -0.5103781246E-15  -0.9981003202E-15  -0.1121856556E-14   0.5025000008E-01  -0.2512475004E-01  -0.2512475004E-01  -0.1328282593E-15   0.2599271111E-15  -0.9481220218E-16   0.1250000002E+00
   0.2100500000E+01   0.9748752500E+00  -0.3869136686E-15  -0.4500000000E-02   0.1122750000E-02  -0.1754394382E-17   0.1050000000E+00  -0.2624750000E-01  -0.3851592742E-15   0.1250000002E+00   0.3707082567E-14   0.7388804637E-14   0.1536959304E-15  -0.1704990765E-15   0.1115797504E-14   0.5025000007E-01  -0.2512475004E-01  -0.2512475004E-01  -0.9664384588E-16  -0.2840502665E-16  -0.2580921068E-15   0.1250000002E+00
   0.2100500000E+01   0.0000000000E+00   0.9748752500E+00  -0.4500000000E-02   0.0000000000E+00   0.1122750000E-02   0.1050000000E+00   0.0000000000E+00  -0.2624750000E-01   0.1250000002E+00  -0.1361395633E-12  -0.1387403907E-12   0.2686413858E-15  -0.8897304722E-15  -0.7817592964E-15   0.5025000007E-01  -0.2512475004E-01  -0.2512475004E-01  -0.8438242914E-17   0.2234786154E-15  -0.8528290756E-16   0.1250000002E+00
   0.2100500000E+01   0.9748752500E+00   0.9748752500E+00  -0.4500000000E-02   0.1122750000E-02   0.1122750000E-02   0.1050000000E+00  -0.2624750000E-01  -0.2624750000E-01   0.1250000002E+00   0.1110676091E-12   0.1102748204E-12   0.3864360400E-15   0.1316206651E-15   0.8682915808E-15   0.5025000006E-01  -0.2512475003E-01  -0.2512475003E-01  -0.1238001326E-16  -0.9473955258E-16  -0.2565661448E-15   0.1250000002E+00
     1     2     3     4     5     6     7     8
     2     9    10     3     6    11    12     7
 VARIABLES = X,Y,Z,DU1,DU2,DU3,U1,U2,U3,S11,S22,S33,S12,S13,S23,E11,E22,E33,E12,E13,E23,SMISES
 ZONE, T="0.1600D+01" F=FEPOINT, I=   12 J=    2 ET=BRICK
   0.0000000000E+00   0.0000000000E+00   0.0000000000E+00   0.0000000000E+00   0.0000000000E+00   0.0000000000E+00   0.0000000000E+00   0.0000000000E+00   0.0000000000E+00  -0.1000000002E+01   0.7895489882E-13   0.7983989628E-13  -0.2095939430E-15   0.4009324210E-15  -0.7300973098E-15   0.4800000008E-01  -0.2400200004E-01  -0.2400200004E-01   0.2614229457E-17  -0.6813642269E-15  -0.3959242541E-15   0.1000000002E+01
   0.1048000000E+01   0.0000000000E+00  -0.2802486539E-15  -0.2250000000E-02   0.0000000000E+00  -0.1311470614E-18   0.5025000000E-01   0.0000000000E+00  -0.2801175069E-15  -0.1000000002E+01  -0.7383112526E-13  -0.7161291296E-13   0.4244660867E-15   0.4581686172E-15  -0.8484869987E-15   0.4800000007E-01  -0.2400200004E-01  -0.2400200004E-01  -0.6207258238E-17  -0.1860635691E-15   0.7798996491E-16   0.1000000002E+01
   0.1048000000E+01   0.9759980000E+00  -0.2384645882E-15  -0.2250000000E-02   0.1122750000E-02  -0.4208614940E-18   0.5025000000E-01  -0.2512475000E-01  -0.2380437268E-15  -0.1000000001E+01  -0.6643154466E-14  -0.4862786041E-14  -0.3935938213E-15  -0.7293658202E-15   0.1236767399E-14   0.4800000007E-01  -0.2400200003E-01  -0.2400200003E-01  -0.7961422103E-16  -0.6808314377E-16  -0.5556542306E-16   0.1000000001E+01
   0.0000000000E+00   0.9759980000E+00  -0.1962730785E-15   0.0000000000E+00   0.1122750000E-02   0.6211164031E-18   0.0000000000E+00  -0.2512475000E-01  -0.1968941949E-15  -0.1000000001E+01  -0.5663984013E-13  -0.5352257404E-13  -0.5959510337E-15   0.8103459983E-15   0.5275071949E-15   0.4800000007E-01  -0.2400200003E-01  -0.2400200003E-01  -0.8641092462E-16  -0.1461926032E-16  -0.5536843333E-15   0.1000000001E+01
   0.0000000000E+00   0.0000000000E+00   0.9759980000E+00   0.0000000000E+00   0.0000000000E+00   0.1122750000E-02   0.0000000000E+00   0.0000000000E+00  -0.2512475000E-01  -0.1000000001E+01   0.3212820665E-13   0.3268294019E-13  -0.4239855573E-16   0.5501639011E-15  -0.1237697184E-14   0.4800000007E-01  -0.2400200003E-01  -0.2400200003E-01  -0.3200828884E-17  -0.5980221506E-15  -0.3461286203E-15   0.1000000001E+01
   0.1048000000E+01   0.0000000000E+00   0.9759980000E+00  -0.2250000000E-02   0.0000000000E+00   0.1122750000E-02   0.5025000000E-01   0.0000000000E+00  -0.2512475000E-01  -0.1000000001E+01   0.2632216270E-13   0.2516311007E-13   0.1620819346E-16   0.3439028076E-15  -0.1158529295E-14   0.4800000007E-01  -0.2400200003E-01  -0.2400200003E-01   0.1342216417E-16  -0.1766184921E-15   0.8912818447E-16   0.1000000001E+01
   0.1048000000E+01   0.9759980000E+00   0.9759980000E+00  -0.2250000000E-02   0.1122750000E-02   0.1122750000E-02   0.5025000000E-01  -0.2512475000E-01  -0.2512475000E-01  -0.1000000001E+01  -0.7286627474E-14  -0.1059129264E-13   0.2247165825E-15  -0.2379293878E-15   0.8503963983E-15   0.4800000006E-01  -0.2400200003E-01  -0.2400200003E-01  -0.5750313125E-17  -0.4701815006E-16  -0.6053265932E-16   0.1000000001E+01
   0.0000000000E+00   0.9759980000E+00   0.9759980000E+00   0.0000000000E+00   0.1122750000E-02   0.1122750000E-02   0.0000000000E+00  -0.2512475000E-01  -0.2512475000E-01  -0.1000000001E+01   0.2236593937E-13   0.1856561061E-13   0.2640025320E-15   0.3958569211E-15   0.9647761573E-15   0.4800000006E-01  -0.2400200003E-01  -0.2400200003E-01  -0.6645025377E-16   0.2998701363E-16  -0.5484792135E-15   0.1000000001E+01
   0.2096000000E+01   0.0000000000E+00  -0.3384516618E-15  -0.4500000000E-02   0.0000000000E+00  -0.1114123771E-17   0.1005000000E+00   0.0000000000E+00  -0.3373375380E-15  -0.1000000002E+01  -0.5030957006E-13  -0.4977552908E-13  -0.5016707281E-15  -0.1184757470E-14  -0.1076381309E-14   0.4800000007E-01  -0.2400200004E-01  -0.2400200004E-01  -0.9513641483E-16   0.1329042539E-15  -0.9678829507E-16   0.1000000002E+01
   0.2096000000E+01   0.9759980000E+00  -0.3876834734E-15  -0.4500000000E-02   0.1122750000E-02  -0.7698048124E-18   0.1005000000E+00  -0.2512475000E-01  -0.3869136686E-15  -0.1000000001E+01   0.6020054606E-13   0.6337043194E-13   0.2083567501E-15   0.1732528335E-15   0.1326019623E-14   0.4800000007E-01  -0.2400200003E-01  -0.2400200003E-01  -0.6932290861E-16   0.5583371781E-16  -0.2457495822E-15   0.1000000001E+01
   0.2096000000E+01   0.0000000000E+00   0.9759980000E+00  -0.4500000000E-02   0.0000000000E+00   0.1122750000E-02   0.1005000000E+00   0.0000000000E+00  -0.2512475000E-01  -0.1000000001E+01   0.1202967812E-12   0.1174858227E-12  -0.1352845182E-15  -0.4513260810E-15  -0.9824069602E-15   0.4800000007E-01  -0.2400200003E-01  -0.2400200003E-01  -0.4631171209E-16   0.2141617555E-15  -0.1047927143E-15   0.1000000001E+01
   0.2096000000E+01   0.9759980000E+00   0.9759980000E+00  -0.4500000000E-02   0.1122750000E-02   0.1122750000E-02   0.1005000000E+00  -0.2512475000E-01  -0.2512475000E-01  -0.1000000001E+01  -0.1095990914E-12  -0.1109290765E-12   0.3458398257E-15  -0.2627892846E-15   0.7666418896E-15   0.4800000006E-01  -0.2400200003E-01  -0.2400200003E-01  -0.4174633215E-16   0.3287333975E-16  -0.2394026115E-15   0.1000000001E+01
     1     2     3     4     5     6     7     8
     2     9    10     3     6    11    12     7
 VARIABLES = X,Y,Z,DU1,DU2,DU3,U1,U2,U3,S11,S22,S33,S12,S13,S23,E11,E22,E33,E12,E13,E23,SMISES
 ZONE, T="0.1650D+01" F=FEPOINT, I=   12 J=    2 ET=BRICK
   0.0000000000E+00   0.0000000000E+00   0.0000000000E+00   0.0000000000E+00   0.0000000000E+00   0.0000000000E+00   0.0000000000E+00   0.0000000000E+00   0.0000000000E+00  -0.2125000003E+01  -0.1203312230E-12  -0.1198344877E-12  -0.2011192813E-15   0.3394915984E-15  -0.7009460922E-15   0.4575000007E-01  -0.2287925004E-01  -0.2287925004E-01  -0.6168432124E-17  -0.6740054209E-15  -0.3941571514E-15   0.2125000003E+01
   0.1045750000E+01   0.0000000000E+00  -0.2810183503E-15  -0.2250000000E-02   0.0000000000E+00  -0.7696963552E-18   0.4800000000E-01   0.0000000000E+00  -0.2802486539E-15  -0.2125000003E+01   0.5309356007E-13   0.5530496695E-13   0.5288153275E-15   0.2512342646E-15  -0.6474339292E-15   0.4575000007E-01  -0.2287925004E-01  -0.2287925004E-01   0.8068650971E-17  -0.1876874826E-15   0.7340912544E-16   0.2125000003E+01
   0.1045750000E+01   0.9771207500E+00  -0.2380233768E-15  -0.2250000000E-02   0.1122750000E-02   0.4412114872E-18   0.4800000000E-01  -0.2400200000E-01  -0.2384645882E-15  -0.2125000003E+01   0.5324272304E-13   0.5456303405E-13  -0.2957276560E-15  -0.7512904979E-15   0.1203280165E-14   0.4575000007E-01  -0.2287925003E-01  -0.2287925003E-01  -0.3489947289E-16  -0.6055136785E-16  -0.3994957693E-16   0.2125000003E+01
   0.0000000000E+00   0.9771207500E+00  -0.1962728453E-15   0.0000000000E+00   0.1122750000E-02   0.2331821905E-21   0.0000000000E+00  -0.2400200000E-01  -0.1962730785E-15  -0.2125000003E+01   0.2629027012E-13   0.2976482242E-13  -0.3365372232E-15   0.9103456618E-15   0.4062443904E-15   0.4575000007E-01  -0.2287925003E-01  -0.2287925003E-01  -0.1040918880E-15  -0.3783172255E-16  -0.5736204916E-15   0.2125000003E+01
   0.0000000000E+00   0.0000000000E+00   0.9771207500E+00   0.0000000000E+00   0.0000000000E+00   0.1122750000E-02   0.0000000000E+00   0.0000000000E+00  -0.2400200000E-01  -0.2125000003E+01  -0.3110587573E-13  -0.3052519705E-13  -0.4008759586E-16   0.5460861635E-15  -0.1120719811E-14   0.4575000007E-01  -0.2287925003E-01  -0.2287925003E-01   0.2030012142E-17  -0.5935144968E-15  -0.3581386688E-15   0.2125000003E+01
   0.1045750000E+01   0.0000000000E+00   0.9771207500E+00  -0.2250000000E-02   0.0000000000E+00   0.1122750000E-02   0.4800000000E-01   0.0000000000E+00  -0.2400200000E-01  -0.2125000003E+01   0.3314909067E-14   0.2435769632E-14   0.1015871953E-15   0.4821806177E-15  -0.1024278583E-14   0.4575000007E-01  -0.2287925003E-01  -0.2287925003E-01   0.1505237374E-16  -0.1927954911E-15   0.9821070825E-16   0.2125000003E+01
   0.1045750000E+01   0.9771207500E+00   0.9771207500E+00  -0.2250000000E-02   0.1122750000E-02   0.1122750000E-02   0.4800000000E-01  -0.2400200000E-01  -0.2400200000E-01  -0.2125000003E+01   0.1096682892E-13   0.7807747024E-14   0.2088179814E-15  -0.4092599910E-15   0.7504994690E-15   0.4575000006E-01  -0.2287925003E-01  -0.2287925003E-01  -0.3090189635E-16  -0.8628968910E-17  -0.9423656551E-16   0.2125000003E+01
   0.0000000000E+00   0.9771207500E+00   0.9771207500E+00   0.0000000000E+00   0.1122750000E-02   0.1122750000E-02   0.0000000000E+00  -0.2400200000E-01  -0.2400200000E-01  -0.2125000003E+01   0.2522226375E-13   0.2129871184E-13   0.1925192899E-15   0.5351442688E-15   0.1063725291E-14   0.4575000006E-01  -0.2287925003E-01  -0.2287925003E-01  -0.5319952388E-16  -0.1547232379E-17  -0.5111445311E-15   0.2125000003E+01
   0.2091500000E+01   0.0000000000E+00  -0.3391914390E-15  -0.4500000000E-02   0.0000000000E+00  -0.7397772024E-18   0.9600000000E-01   0.0000000000E+00  -0.3384516618E-15  -0.2125000003E+01   0.6053897311E-13   0.6103133190E-13  -0.7377462199E-15  -0.1030927470E-14  -0.1151005671E-14   0.4575000007E-01  -0.2287925003E-01  -0.2287925003E-01  -0.1262146072E-15   0.1996515638E-15  -0.9927315144E-16   0.2125000003E+01
   0.2091500000E+01   0.9771207500E+00  -0.3889526701E-15  -0.4500000000E-02   0.1122750000E-02  -0.1269196675E-17   0.9600000000E-01  -0.2400200000E-01  -0.3876834734E-15  -0.2125000003E+01   0.2514457485E-13   0.2875737117E-13  -0.3359858071E-15   0.3057854873E-15   0.1053349771E-14   0.4575000006E-01  -0.2287925003E-01  -0.2287925003E-01  -0.1195771422E-15  -0.4952636958E-16  -0.2350172744E-15   0.2125000003E+01
   0.2091500000E+01   0.0000000000E+00   0.9771207500E+00  -0.4500000000E-02   0.0000000000E+00   0.1122750000E-02   0.9600000000E-01   0.0000000000E+00  -0.2400200000E-01  -0.2125000003E+01  -0.4162878787E-13  -0.4418395485E-13   0.2763765310E-15  -0.6452960219E-15  -0.8866163931E-15   0.4575000006E-01  -0.2287925003E-01  -0.2287925003E-01  -0.8051010611E-17   0.2260556491E-15  -0.1016153756E-15   0.2125000003E+01
   0.2091500000E+01   0.9771207500E+00   0.9771207500E+00  -0.4500000000E-02   0.1122750000E-02   0.1122750000E-02   0.9600000000E-01  -0.2400200000E-01  -0.2400200000E-01  -0.2125000003E+01   0.1558413031E-13   0.1508486848E-13   0.7782567494E-15   0.2242820022E-15   0.8498464491E-15   0.4575000006E-01  -0.2287925003E-01  -0.2287925003E-01   0.1794690978E-16  -0.1185114093E-15  -0.2285476842E-15   0.2125000003E+01
     1     2     3     4     5     6     7     8
     2     9    10     3     6    11    12     7
 VARIABLES = X,Y,Z,DU1,DU2,DU3,U1,U2,U3,S11,S22,S33,S12,S13,S23,E11,E22,E33,E12,E13,E23,SMISES
 ZONE, T="0.1700D+01" F=FEPOINT, I=   12 J=    2 ET=BRICK
   0.0000000000E+00   0.0000000000E+00   0.0000000000E+00   0.0000000000E+00   0.0000000000E+00   0.0000000000E+00   0.0000000000E+00   0.0000000000E+00   0.0000000000E+00  -0.3250000005E+01   0.7199590029E-13   0.7265246136E-13  -0.1886490163E-15   0.6120994525E-15  -0.7299873715E-15   0.4350000007E-01  -0.2175650003E-01  -0.2175650003E-01  -0.4582820235E-17  -0.6864667664E-15  -0.3904471654E-15   0.3250000005E+01
   0.1043500000E+01   0.0000000000E+00  -0.2793201105E-15  -0.2250000000E-02   0.0000000000E+00   0.1698239785E-17   0.4575000000E-01   0.0000000000E+00  -0.2810183503E-15  -0.3250000005E+01  -0.8259518112E-14  -0.5774541043E-14   0.2666469312E-15   0.3158673126E-16  -0.8048205347E-15   0.4350000007E-01  -0.2175650003E-01  -0.2175650003E-01   0.4734833588E-17  -0.1747954926E-15   0.7916157064E-16   0.3250000005E+01
   0.1043500000E+01   0.9782435000E+00  -0.2372048924E-15  -0.2250000000E-02   0.1122750000E-02   0.8184843615E-18   0.4575000000E-01  -0.2287925000E-01  -0.2380233768E-15  -0.3250000005E+01  -0.1206587387E-13  -0.1059390360E-13  -0.4275405582E-15  -0.7603045243E-15   0.1403909012E-14   0.4350000006E-01  -0.2175650003E-01  -0.2175650003E-01  -0.4469096157E-16  -0.6522138561E-16  -0.5330083823E-16   0.3250000005E+01
   0.0000000000E+00   0.9782435000E+00  -0.1965519987E-15   0.0000000000E+00   0.1122750000E-02  -0.2791533783E-18   0.0000000000E+00  -0.2287925000E-01  -0.1962728453E-15  -0.3250000005E+01  -0.1924242417E-13  -0.1569131284E-13  -0.4261501373E-15   0.1085037064E-14   0.6467867582E-15   0.4350000006E-01  -0.2175650003E-01  -0.2175650003E-01  -0.1071143065E-15  -0.2008391751E-16  -0.5613157752E-15   0.3250000005E+01
   0.0000000000E+00   0.0000000000E+00   0.9782435000E+00   0.0000000000E+00   0.0000000000E+00   0.1122750000E-02   0.0000000000E+00   0.0000000000E+00  -0.2287925000E-01  -0.3250000005E+01   0.2187685028E-13   0.2248256235E-13  -0.4548483169E-16   0.5954548722E-15  -0.1443464907E-14   0.4350000006E-01  -0.2175650003E-01  -0.2175650003E-01  -0.7450573275E-18  -0.5823939653E-15  -0.3573700738E-15   0.3250000005E+01
   0.1043500000E+01   0.0000000000E+00   0.9782435000E+00  -0.2250000000E-02   0.0000000000E+00   0.1122750000E-02   0.4575000000E-01   0.0000000000E+00  -0.2287925000E-01  -0.3250000005E+01  -0.1572627047E-13  -0.1717141002E-13   0.1973840210E-15   0.2103242775E-15  -0.1136222221E-14   0.4350000006E-01  -0.2175650003E-01  -0.2175650003E-01   0.1253230131E-16  -0.2022936813E-15   0.8123178810E-16   0.3250000005E+01
   0.1043500000E+01   0.9782435000E+00   0.9782435000E+00  -0.2250000000E-02   0.1122750000E-02   0.1122750000E-02   0.4575000000E-01  -0.2287925000E-01  -0.2287925000E-01  -0.3250000004E+01   0.4127278456E-13   0.3754770253E-13   0.2045920308E-15  -0.3367391299E-15   0.9212351646E-15   0.4350000006E-01  -0.2175650003E-01  -0.2175650003E-01  -0.1386807102E-16  -0.3046205943E-16  -0.6171568668E-16   0.3250000004E+01
   0.0000000000E+00   0.9782435000E+00   0.9782435000E+00   0.0000000000E+00   0.1122750000E-02   0.1122750000E-02   0.0000000000E+00  -0.2287925000E-01  -0.2287925000E-01  -0.3250000004E+01  -0.2275399567E-13  -0.2719075871E-13   0.2051602962E-15   0.7095574969E-15   0.1071736888E-14   0.4350000006E-01  -0.2175650003E-01  -0.2175650003E-01  -0.5387797133E-16   0.1129434060E-16  -0.5417644861E-15   0.3250000004E+01
   0.2087000000E+01   0.0000000000E+00  -0.3358238274E-15  -0.4500000000E-02   0.0000000000E+00   0.3367611568E-17   0.9150000000E-01   0.0000000000E+00  -0.3391914390E-15  -0.3250000005E+01  -0.8103067541E-14  -0.7748757206E-14  -0.7078551561E-15  -0.1208990483E-14  -0.1245294113E-14   0.4350000007E-01  -0.2175650003E-01  -0.2175650003E-01  -0.1431110324E-15   0.1398201774E-15  -0.1060544383E-15   0.3250000005E+01
   0.2087000000E+01   0.9782435000E+00  -0.3861208333E-15  -0.4500000000E-02   0.1122750000E-02   0.2831836767E-17   0.9150000000E-01  -0.2287925000E-01  -0.3889526701E-15  -0.3250000005E+01  -0.3201663130E-13  -0.2845861674E-13  -0.2102717389E-15   0.3821035109E-15   0.1207357624E-14   0.4350000006E-01  -0.2175650003E-01  -0.2175650003E-01  -0.1157147199E-15  -0.9406049018E-17  -0.2438083627E-15   0.3250000005E+01
   0.2087000000E+01   0.0000000000E+00   0.9782435000E+00  -0.4500000000E-02   0.0000000000E+00   0.1122750000E-02   0.9150000000E-01   0.0000000000E+00  -0.2287925000E-01  -0.3250000005E+01   0.5610071281E-13   0.5343923842E-13   0.4527023757E-15  -0.6489611745E-15  -0.1174229632E-14   0.4350000006E-01  -0.2175650003E-01  -0.2175650003E-01  -0.1916655911E-16   0.2524132984E-15  -0.9048871304E-16   0.3250000005E+01
   0.2087000000E+01   0.9782435000E+00   0.9782435000E+00  -0.4500000000E-02   0.1122750000E-02   0.1122750000E-02   0.9150000000E-01  -0.2287925000E-01  -0.2287925000E-01  -0.3250000004E+01   0.9911405067E-13   0.9813677036E-13   0.9627918854E-15   0.4490563449E-15   0.7983434385E-15   0.4350000006E-01  -0.2175650003E-01  -0.2175650003E-01  -0.3673677304E-16  -0.1226221886E-15  -0.2182225634E-15   0.3250000004E+01
     1     2     3     4     5     6     7     8
     2     9    10     3     6    11    12     7
 VARIABLES = X,Y,Z,DU1,DU2,DU3,U1,U2,U3,S11,S22,S33,S12,S13,S23,E11,E22,E33,E12,E13,E23,SMISES
 ZONE, T="0.1750D+01" F=FEPOINT, I=   12 J=    2 ET=BRICK
   0.0000000000E+00   0.0000000000E+00   0.0000000000E+00   0.0000000000E+00   0.0000000000E+00   0.0000000000E+00   0.0000000000E+00   0.0000000000E+00   0.0000000000E+00  -0.4375000007E+01  -0.1590842690E-13  -0.1559582131E-13  -0.2032980233E-15   0.4730222025E-15  -0.9445185955E-15   0.4125000006E-01  -0.2063375003E-01  -0.2063375003E-01   0.5203569161E-17  -0.6673233805E-15  -0.3991301196E-15   0.4375000007E+01
   0.1041250000E+01   0.0000000000E+00  -0.2795362016E-15  -0.2250000000E-02   0.0000000000E+00  -0.2160911057E-18   0.4350000000E-01   0.0000000000E+00  -0.2793201105E-15  -0.4375000007E+01   0.2663360269E-13   0.2949228362E-13   0.1726778525E-15   0.2801032696E-16  -0.8667106508E-15   0.4125000006E-01  -0.2063375003E-01  -0.2063375003E-01  -0.1040566899E-16  -0.2178557928E-15   0.8400573050E-16   0.4375000007E+01
   0.1041250000E+01   0.9793662500E+00  -0.2377856771E-15  -0.2250000000E-02   0.1122750000E-02  -0.5807847093E-18   0.4350000000E-01  -0.2175650000E-01  -0.2372048924E-15  -0.4375000006E+01  -0.4055020464E-14  -0.2350116934E-14  -0.3872181949E-15  -0.8711578497E-15   0.1408660193E-14   0.4125000006E-01  -0.2063375003E-01  -0.2063375003E-01  -0.4242493414E-16  -0.2766214697E-16  -0.5368336851E-16   0.4375000006E+01
   0.0000000000E+00   0.9793662500E+00  -0.1977504460E-15   0.0000000000E+00   0.1122750000E-02  -0.1198447293E-17   0.0000000000E+00  -0.2175650000E-01  -0.1965519987E-15  -0.4375000006E+01  -0.2016574580E-13  -0.1581171562E-13  -0.3338316151E-15   0.1223026510E-14   0.6803983083E-15   0.4125000006E-01  -0.2063375003E-01  -0.2063375003E-01  -0.1106027934E-15  -0.3333048985E-16  -0.5713419383E-15   0.4375000006E+01
   0.0000000000E+00   0.0000000000E+00   0.9793662500E+00   0.0000000000E+00   0.0000000000E+00   0.1122750000E-02   0.0000000000E+00   0.0000000000E+00  -0.2175650000E-01  -0.4375000006E+01  -0.6341724209E-13  -0.6298895210E-13  -0.4160147012E-16   0.8703425084E-15  -0.1317123255E-14   0.4125000006E-01  -0.2063375003E-01  -0.2063375003E-01  -0.2342091444E-17  -0.5779106622E-15  -0.3436863653E-15   0.4375000006E+01
   0.1041250000E+01   0.0000000000E+00   0.9793662500E+00  -0.2250000000E-02   0.0000000000E+00   0.1122750000E-02   0.4350000000E-01   0.0000000000E+00  -0.2175650000E-01  -0.4375000006E+01  -0.6380081615E-14  -0.7451517300E-14   0.4371140588E-16   0.6420160976E-16  -0.1168727686E-14   0.4125000006E-01  -0.2063375003E-01  -0.2063375003E-01   0.1013534212E-16  -0.1874677443E-15   0.7988127051E-16   0.4375000006E+01
   0.1041250000E+01   0.9793662500E+00   0.9793662500E+00  -0.2250000000E-02   0.1122750000E-02   0.1122750000E-02   0.4350000000E-01  -0.2175650000E-01  -0.2175650000E-01  -0.4375000006E+01   0.2328172826E-13   0.1978957949E-13   0.2410491321E-16  -0.3927000184E-15   0.9605683609E-15   0.4125000005E-01  -0.2063375003E-01  -0.2063375003E-01  -0.1649522881E-16  -0.4170384037E-16  -0.6604536616E-16   0.4375000006E+01
   0.0000000000E+00   0.9793662500E+00   0.9793662500E+00   0.0000000000E+00   0.1122750000E-02   0.1122750000E-02   0.0000000000E+00  -0.2175650000E-01  -0.2175650000E-01  -0.4375000006E+01  -0.2005154900E-13  -0.2430690439E-13   0.2326447195E-15   0.6676774545E-15   0.1353780634E-14   0.4125000006E-01  -0.2063375003E-01  -0.2063375003E-01  -0.5661799417E-16   0.4279853893E-17  -0.5216360427E-15   0.4375000006E+01
   0.2082500000E+01   0.0000000000E+00  -0.3352943159E-15  -0.4500000000E-02   0.0000000000E+00   0.5295115185E-18   0.8700000000E-01   0.0000000000E+00  -0.3358238274E-15  -0.4375000007E+01   0.4439603576E-13   0.4440639056E-13  -0.7809048126E-15  -0.1290260890E-14  -0.1145589035E-14   0.4125000006E-01  -0.2063375003E-01  -0.2063375003E-01  -0.1056676527E-15   0.2281108430E-15  -0.1081994856E-15   0.4375000007E+01
   0.2082500000E+01   0.9793662500E+00  -0.3851157871E-15  -0.4500000000E-02   0.1122750000E-02   0.1005046218E-17   0.8700000000E-01  -0.2175650000E-01  -0.3861208333E-15  -0.4375000006E+01  -0.1259322816E-13  -0.9475317248E-14  -0.9755168836E-16   0.4764635622E-15   0.1100905371E-14   0.4125000006E-01  -0.2063375003E-01  -0.2063375003E-01  -0.7638723729E-16  -0.3368921303E-16  -0.2503652371E-15   0.4375000006E+01
   0.2082500000E+01   0.0000000000E+00   0.9793662500E+00  -0.4500000000E-02   0.0000000000E+00   0.1122750000E-02   0.8700000000E-01   0.0000000000E+00  -0.2175650000E-01  -0.4375000006E+01   0.6950646182E-15  -0.2476898721E-14   0.1986557662E-15  -0.5998951719E-15  -0.1095324559E-14   0.4125000006E-01  -0.2063375003E-01  -0.2063375003E-01  -0.3090092649E-16   0.2672281155E-15  -0.8789029613E-16   0.4375000006E+01
   0.2082500000E+01   0.9793662500E+00   0.9793662500E+00  -0.4500000000E-02   0.1122750000E-02   0.1122750000E-02   0.8700000000E-01  -0.2175650000E-01  -0.2175650000E-01  -0.4375000006E+01   0.9860990647E-14   0.9065117908E-14   0.5734569417E-15   0.1121694651E-15   0.8209052300E-15   0.4125000005E-01  -0.2063375003E-01  -0.2063375003E-01  -0.4427516968E-16  -0.3691062331E-16  -0.2424833677E-15   0.4375000006E+01
     1     2     3     4     5     6     7     8
     2     9    10     3     6    11    12     7
 VARIABLES = X,Y,Z,DU1,DU2,DU3,U1,U2,U3,S11,S22,S33,S12,S13,S23,E11,E22,E33,E12,E13,E23,SMISES
 ZONE, T="0.1800D+01" F=FEPOINT, I=   12 J=    2 ET=BRICK
   0.0000000000E+00   0.0000000000E+00   0.0000000000E+00   0.0000000000E+00   0.0000000000E+00   0.0000000000E+00   0.0000000000E+00   0.0000000000E+00   0.0000000000E+00  -0.5500000009E+01  -0.5666187524E-13  -0.5667562886E-13  -0.1859544528E-15   0.3892962019E-15  -0.7588056039E-15   0.3900000006E-01  -0.1951100003E-01  -0.1951100003E-01  -0.4631375719E-18  -0.6686561016E-15  -0.3988021939E-15   0.5500000009E+01
   0.1039000000E+01   0.0000000000E+00  -0.2808017987E-15  -0.2250000000E-02   0.0000000000E+00  -0.1265597077E-17   0.4125000000E-01   0.0000000000E+00  -0.2795362016E-15  -0.5500000008E+01  -0.1920076543E-13  -0.1703543986E-13   0.4575385287E-16   0.1080925907E-15  -0.7076305868E-15   0.3900000006E-01  -0.1951100003E-01  -0.1951100003E-01  -0.2343104877E-17  -0.2143685304E-15   0.8675226518E-16   0.5500000008E+01
   0.1039000000E+01   0.9804890000E+00  -0.2381676169E-15  -0.2250000000E-02   0.1122750000E-02  -0.3819397963E-18   0.4125000000E-01  -0.2063375000E-01  -0.2377856771E-15  -0.5500000008E+01  -0.6713465254E-14  -0.5413472725E-14  -0.5187364467E-15  -0.7478675950E-15   0.1062718947E-14   0.3900000006E-01  -0.1951100003E-01  -0.1951100003E-01  -0.5862908325E-16  -0.3591642470E-16  -0.5920392634E-16   0.5500000008E+01
   0.0000000000E+00   0.9804890000E+00  -0.1965538278E-15   0.0000000000E+00   0.1122750000E-02   0.1196618242E-17   0.0000000000E+00  -0.2063375000E-01  -0.1977504460E-15  -0.5500000008E+01   0.3606933803E-13   0.4040776465E-13  -0.2892492614E-15   0.1025404273E-14   0.3840420344E-15   0.3900000006E-01  -0.1951100003E-01  -0.1951100003E-01  -0.1057548338E-15  -0.2691494611E-16  -0.5768409441E-15   0.5500000008E+01
   0.0000000000E+00   0.0000000000E+00   0.9804890000E+00   0.0000000000E+00   0.0000000000E+00   0.1122750000E-02   0.0000000000E+00   0.0000000000E+00  -0.2063375000E-01  -0.5500000008E+01   0.2888984878E-14   0.3580685863E-14  -0.7921628594E-16   0.7475040650E-15  -0.1044458626E-14   0.3900000006E-01  -0.1951100003E-01  -0.1951100003E-01   0.3529003345E-18  -0.5939187235E-15  -0.3454166506E-15   0.5500000008E+01
   0.1039000000E+01   0.0000000000E+00   0.9804890000E+00  -0.2250000000E-02   0.0000000000E+00   0.1122750000E-02   0.4125000000E-01   0.0000000000E+00  -0.2063375000E-01  -0.5500000008E+01  -0.1173879529E-13  -0.1237557165E-13  -0.1373598567E-16   0.2827452700E-15  -0.1023191096E-14   0.3900000006E-01  -0.1951100003E-01  -0.1951100003E-01   0.1182290552E-16  -0.1806663820E-15   0.9435103983E-16   0.5500000008E+01
   0.1039000000E+01   0.9804890000E+00   0.9804890000E+00  -0.2250000000E-02   0.1122750000E-02   0.1122750000E-02   0.4125000000E-01  -0.2063375000E-01  -0.2063375000E-01  -0.5500000007E+01   0.6354062306E-14   0.3130039445E-14  -0.9935891612E-16  -0.4109309767E-15   0.7087736918E-15   0.3900000005E-01  -0.1951100003E-01  -0.1951100003E-01  -0.2510987817E-16  -0.1773041284E-16  -0.7787088026E-16   0.5500000007E+01
   0.0000000000E+00   0.9804890000E+00   0.9804890000E+00   0.0000000000E+00   0.1122750000E-02   0.1122750000E-02   0.0000000000E+00  -0.2063375000E-01  -0.2063375000E-01  -0.5500000007E+01   0.7745955539E-14   0.4292255644E-14   0.2950512093E-15   0.4133688572E-15   0.1137663938E-14   0.3900000005E-01  -0.1951100003E-01  -0.1951100003E-01  -0.5480017380E-16  -0.1146606797E-16  -0.5144450917E-15   0.5500000007E+01
   0.2078000000E+01   0.0000000000E+00  -0.3409734282E-15  -0.4500000000E-02   0.0000000000E+00  -0.5679112300E-17   0.8250000000E-01   0.0000000000E+00  -0.3352943159E-15  -0.5500000008E+01  -0.4120034628E-13  -0.4128886178E-13  -0.5858018873E-15  -0.1042961951E-14  -0.9056619059E-15   0.3900000006E-01  -0.1951100003E-01  -0.1951100003E-01  -0.1065888218E-15   0.2059298732E-15  -0.1022253697E-15   0.5500000008E+01
   0.2078000000E+01   0.9804890000E+00  -0.3894276459E-15  -0.4500000000E-02   0.1122750000E-02  -0.4311858749E-17   0.8250000000E-01  -0.2063375000E-01  -0.3851157871E-15  -0.5500000008E+01  -0.1097362512E-12  -0.1066948994E-12  -0.1238941342E-18   0.4681471733E-15   0.1019173924E-14   0.3900000005E-01  -0.1951100003E-01  -0.1951100003E-01  -0.6956213171E-16  -0.2219461834E-16  -0.2409019932E-15   0.5500000008E+01
   0.2078000000E+01   0.0000000000E+00   0.9804890000E+00  -0.4500000000E-02   0.0000000000E+00   0.1122750000E-02   0.8250000000E-01   0.0000000000E+00  -0.2063375000E-01  -0.5500000008E+01   0.5194925475E-13   0.4943472476E-13  -0.1510731354E-15  -0.1947432975E-15  -0.8625947958E-15   0.3900000005E-01  -0.1951100003E-01  -0.1951100003E-01  -0.3639219135E-16   0.2531950506E-15  -0.1021014242E-15   0.5500000008E+01
   0.2078000000E+01   0.9804890000E+00   0.9804890000E+00  -0.4500000000E-02   0.1122750000E-02   0.1122750000E-02   0.8250000000E-01  -0.2063375000E-01  -0.2063375000E-01  -0.5500000007E+01   0.7672982044E-13   0.7663002525E-13   0.3004401509E-15   0.1950078480E-15   0.8013535902E-15   0.3900000005E-01  -0.1951100002E-01  -0.1951100002E-01  -0.5192358701E-16  -0.4765690109E-16  -0.2634474324E-15   0.5500000007E+01
     1     2     3     4     5     6     7     8
     2     9    10     3     6    11    12     7
 VARIABLES = X,Y,Z,DU1,DU2,DU3,U1,U2,U3,S11,S22,S33,S12,S13,S23,E11,E22,E33,E12,E13,E23,SMISES
 ZONE, T="0.1850D+01" F=FEPOINT, I=   12 J=    2 ET=BRICK
   0.0000000000E+00   0.0000000000E+00   0.0000000000E+00   0.0000000000E+00   0.0000000000E+00   0.0000000000E+00   0.0000000000E+00   0.0000000000E+00   0.0000000000E+00  -0.6625000010E+01   0.6237207198E-13   0.6214643308E-13  -0.1794306897E-15   0.4429783051E-15  -0.6375469763E-15   0.3675000006E-01  -0.1838825003E-01  -0.1838825003E-01   0.2558007533E-17  -0.6742211788E-15  -0.3883169760E-15   0.6625000010E+01
   0.1036750000E+01   0.0000000000E+00  -0.2801245053E-15  -0.2250000000E-02   0.0000000000E+00   0.6772933808E-18   0.3900000000E-01   0.0000000000E+00  -0.2808017987E-15  -0.6625000010E+01   0.4446050313E-13   0.4703073962E-13   0.1245746935E-17  -0.5519564885E-16  -0.6667727507E-15   0.3675000006E-01  -0.1838825003E-01  -0.1838825003E-01  -0.4390364057E-17  -0.2129603329E-15   0.8357152024E-16   0.6625000010E+01
   0.1036750000E+01   0.9816117500E+00  -0.2373021452E-15  -0.2250000000E-02   0.1122750000E-02   0.8654717149E-18   0.3900000000E-01  -0.1951100000E-01  -0.2381676169E-15  -0.6625000009E+01   0.3154164201E-13   0.3238121243E-13  -0.4501756406E-15  -0.5823232738E-15   0.1246595937E-14   0.3675000005E-01  -0.1838825003E-01  -0.1838825003E-01  -0.6260124212E-16  -0.7443094606E-16  -0.5655247052E-16   0.6625000009E+01
   0.0000000000E+00   0.9816117500E+00  -0.1957545842E-15   0.0000000000E+00   0.1122750000E-02   0.7992436045E-18   0.0000000000E+00  -0.1951100000E-01  -0.1965538278E-15  -0.6625000010E+01  -0.7115990012E-13  -0.6643415890E-13  -0.4229405037E-15   0.9643163833E-15   0.6759562855E-15   0.3675000005E-01  -0.1838825003E-01  -0.1838825003E-01  -0.1119196201E-15  -0.1628740234E-16  -0.5818996050E-15   0.6625000010E+01
   0.0000000000E+00   0.0000000000E+00   0.9816117500E+00   0.0000000000E+00   0.0000000000E+00   0.1122750000E-02   0.0000000000E+00   0.0000000000E+00  -0.1951100000E-01  -0.6625000010E+01   0.2636832005E-13   0.2761386905E-13  -0.7162963643E-16   0.7527498800E-15  -0.1249294768E-14   0.3675000005E-01  -0.1838825003E-01  -0.1838825003E-01   0.2908151173E-18  -0.6046500002E-15  -0.3535307508E-15   0.6625000010E+01
   0.1036750000E+01   0.0000000000E+00   0.9816117500E+00  -0.2250000000E-02   0.0000000000E+00   0.1122750000E-02   0.3900000000E-01   0.0000000000E+00  -0.1951100000E-01  -0.6625000009E+01   0.8697821490E-14   0.7267556152E-14   0.2473757779E-15   0.3610623443E-17  -0.1143828559E-14   0.3675000005E-01  -0.1838825003E-01  -0.1838825003E-01   0.1759646995E-16  -0.1690377426E-15   0.9130904574E-16   0.6625000009E+01
   0.1036750000E+01   0.9816117500E+00   0.9816117500E+00  -0.2250000000E-02   0.1122750000E-02   0.1122750000E-02   0.3900000000E-01  -0.1951100000E-01  -0.1951100000E-01  -0.6625000009E+01   0.1173361842E-14  -0.2100727906E-14   0.1344472129E-17  -0.1708578536E-15   0.8259262850E-15   0.3675000005E-01  -0.1838825002E-01  -0.1838825002E-01  -0.3332630518E-17  -0.3923736141E-16  -0.5758680259E-16   0.6625000009E+01
   0.0000000000E+00   0.9816117500E+00   0.9816117500E+00   0.0000000000E+00   0.1122750000E-02   0.1122750000E-02   0.0000000000E+00  -0.1951100000E-01  -0.1951100000E-01  -0.6625000009E+01  -0.3327298192E-13  -0.3774294477E-13   0.4319438568E-15   0.4632117114E-15   0.1034755973E-14   0.3675000005E-01  -0.1838825002E-01  -0.1838825002E-01  -0.5802967660E-16   0.3438461376E-17  -0.5535455816E-15   0.6625000009E+01
   0.2073500000E+01   0.0000000000E+00  -0.3385298666E-15  -0.4500000000E-02   0.0000000000E+00   0.2443561585E-17   0.7800000000E-01   0.0000000000E+00  -0.3409734282E-15  -0.6625000010E+01   0.1411165342E-12   0.1405628817E-12  -0.3575008887E-15  -0.9879867939E-15  -0.9075081037E-15   0.3675000006E-01  -0.1838825003E-01  -0.1838825003E-01  -0.1050918529E-15   0.1124682680E-15  -0.9336846904E-16   0.6625000010E+01
   0.2073500000E+01   0.9816117500E+00  -0.3869729473E-15  -0.4500000000E-02   0.1122750000E-02   0.2454698588E-17   0.7800000000E-01  -0.1951100000E-01  -0.3894276459E-15  -0.6625000009E+01   0.1943184828E-12   0.1971162082E-12   0.3894122491E-15   0.1099519349E-15   0.7707507304E-15   0.3675000005E-01  -0.1838825003E-01  -0.1838825003E-01  -0.6811746645E-16   0.4759348087E-16  -0.2675898816E-15   0.6625000009E+01
   0.2073500000E+01   0.0000000000E+00   0.9816117500E+00  -0.4500000000E-02   0.0000000000E+00   0.1122750000E-02   0.7800000000E-01   0.0000000000E+00  -0.1951100000E-01  -0.6625000009E+01  -0.8212412158E-13  -0.8438267775E-13   0.4893936763E-16  -0.3564797737E-15  -0.7938093814E-15   0.3675000005E-01  -0.1838825003E-01  -0.1838825003E-01  -0.2448612603E-16   0.2602055295E-15  -0.8691089080E-16   0.6625000009E+01
   0.2073500000E+01   0.9816117500E+00   0.9816117500E+00  -0.4500000000E-02   0.1122750000E-02   0.1122750000E-02   0.7800000000E-01  -0.1951100000E-01  -0.1951100000E-01  -0.6625000008E+01  -0.9894670424E-13  -0.9895108070E-13   0.1740053525E-15   0.4169268219E-15   0.6587056616E-15   0.3675000005E-01  -0.1838825002E-01  -0.1838825002E-01  -0.3206167748E-16  -0.6861344249E-16  -0.2575258317E-15   0.6625000008E+01
     1     2     3     4     5     6     7     8
     2     9    10     3     6    11    12     7
 VARIABLES = X,Y,Z,DU1,DU2,DU3,U1,U2,U3,S11,S22,S33,S12,S13,S23,E11,E22,E33,E12,E13,E23,SMISES
 ZONE, T="0.1900D+01" F=FEPOINT, I=   12 J=    2 ET=BRICK
   0.0000000000E+00   0.0000000000E+00   0.0000000000E+00   0.0000000000E+00   0.0000000000E+00   0.0000000000E+00   0.0000000000E+00   0.0000000000E+00   0.0000000000E+00  -0.7750000012E+01   0.3317447608E-12   0.2600058067E-12  -0.1600830041E-15   0.9172716896E-14   0.8891733735E-13   0.2950000005E-01  -0.1476550002E-01  -0.1476550002E-01  -0.4864054950E-17  -0.5363132399E-15   0.9504833694E-15   0.7750000012E+01
   0.1029500000E+01   0.0000000000E+00  -0.4285765738E-15  -0.7250000000E-02   0.0000000000E+00  -0.1484520685E-15   0.3675000000E-01   0.0000000000E+00  -0.2801245053E-15  -0.7750000012E+01   0.6921570317E-13  -0.1948439590E-13   0.1733810374E-13   0.2573317344E-13   0.7253426512E-13   0.2950000005E-01  -0.1476550002E-01  -0.1476550002E-01   0.2661649456E-15   0.2058323857E-15   0.1175539437E-14   0.7750000012E+01
   0.1029500000E+01   0.9852345000E+00   0.1576875451E-15  -0.7250000000E-02   0.3622750000E-02   0.3949896903E-15   0.3675000000E-01  -0.1838825000E-01  -0.2373021452E-15  -0.7750000011E+01  -0.1973043783E-12  -0.3225407656E-12   0.1889011903E-13   0.2018776809E-13  -0.3096262015E-13   0.2950000004E-01  -0.1476550002E-01  -0.1476550002E-01   0.2581796229E-15   0.2161614783E-15  -0.5326374635E-15   0.7750000011E+01
   0.0000000000E+00   0.9852345000E+00   0.4762925944E-15   0.0000000000E+00   0.3622750000E-02   0.6720471786E-15   0.0000000000E+00  -0.1838825000E-01  -0.1957545842E-15  -0.7750000011E+01  -0.8196570207E-13  -0.1869995211E-12   0.4054888331E-14  -0.1217972066E-13  -0.1698783279E-13   0.2950000004E-01  -0.1476550002E-01  -0.1476550002E-01  -0.4816673294E-16  -0.2135719399E-15  -0.8104028187E-15   0.7750000011E+01
   0.0000000000E+00   0.0000000000E+00   0.9852345000E+00   0.0000000000E+00   0.0000000000E+00   0.3622750000E-02   0.0000000000E+00   0.0000000000E+00  -0.1838825000E-01  -0.7750000011E+01  -0.1061746403E-12   0.3657722109E-13  -0.8647422355E-16   0.2800689801E-14   0.7050881476E-13   0.2950000004E-01  -0.1476550002E-01  -0.1476550002E-01   0.1663701974E-17  -0.5542097616E-15   0.7086110163E-15   0.7750000011E+01
   0.1029500000E+01   0.0000000000E+00   0.9852345000E+00  -0.7250000000E-02   0.0000000000E+00   0.3622750000E-02   0.3675000000E-01   0.0000000000E+00  -0.1838825000E-01  -0.7750000011E+01   0.5507926702E-13   0.1730461161E-12   0.1844627867E-13   0.2177066232E-13   0.5445650146E-13   0.2950000004E-01  -0.1476550002E-01  -0.1476550002E-01   0.2864141115E-15   0.1634262566E-15   0.9152153254E-15   0.7750000011E+01
   0.1029500000E+01   0.9852345000E+00   0.9852345000E+00  -0.7250000000E-02   0.3622750000E-02   0.3622750000E-02   0.3675000000E-01  -0.1838825000E-01  -0.1838825000E-01  -0.7750000010E+01   0.2294918789E-12   0.3112315933E-12   0.2186149055E-13   0.1663393930E-13  -0.4869121802E-13   0.2950000004E-01  -0.1476550002E-01  -0.1476550002E-01   0.2968149471E-15   0.2329825680E-15  -0.7764167083E-15   0.7750000010E+01
   0.0000000000E+00   0.9852345000E+00   0.9852345000E+00   0.0000000000E+00   0.3622750000E-02   0.3622750000E-02   0.0000000000E+00  -0.1838825000E-01  -0.1838825000E-01  -0.7750000010E+01  -0.2500667702E-13   0.7714676189E-13   0.6896781451E-14  -0.1865458705E-13  -0.3441560891E-13   0.2950000004E-01  -0.1476550002E-01  -0.1476550002E-01   0.4453560272E-16  -0.2726311651E-15  -0.1062300364E-14   0.7750000010E+01
   0.2059000000E+01   0.0000000000E+00  -0.1524042584E-14  -0.1450000000E-01   0.0000000000E+00  -0.1185512717E-14   0.7350000000E-01   0.0000000000E+00  -0.3385298666E-15  -0.7750000012E+01  -0.1050548778E-12  -0.2021244223E-12   0.3437836023E-13   0.4118710997E-13   0.7655606662E-13   0.2950000004E-01  -0.1476550002E-01  -0.1476550002E-01   0.4121704569E-15   0.8333574532E-15   0.1056441282E-14   0.7750000012E+01
   0.2059000000E+01   0.9852345000E+00  -0.9947093109E-15  -0.1450000000E-01   0.3622750000E-02  -0.6077363636E-15   0.7350000000E-01  -0.1838825000E-01  -0.3869729473E-15  -0.7750000011E+01  -0.3816877880E-12  -0.5099231322E-12   0.3444547699E-13   0.5171288707E-13  -0.2543326986E-13   0.2950000004E-01  -0.1476550002E-01  -0.1476550002E-01   0.4348018556E-15   0.7484949999E-15  -0.6552206334E-15   0.7750000011E+01
   0.2059000000E+01   0.0000000000E+00   0.9852345000E+00  -0.1450000000E-01   0.0000000000E+00   0.3622750000E-02   0.7350000000E-01   0.0000000000E+00  -0.1838825000E-01  -0.7750000011E+01   0.1539396510E-13   0.1244471457E-12   0.3550881412E-13   0.3952953486E-13   0.5965886900E-13   0.2950000004E-01  -0.1476550002E-01  -0.1476550002E-01   0.4941326158E-15   0.8607138700E-15   0.8136824112E-15   0.7750000011E+01
   0.2059000000E+01   0.9852345000E+00   0.9852345000E+00  -0.1450000000E-01   0.3622750000E-02   0.3622750000E-02   0.7350000000E-01  -0.1838825000E-01  -0.1838825000E-01  -0.7750000010E+01   0.1072875777E-12   0.1838666044E-12   0.3631851182E-13   0.5177117904E-13  -0.4259288463E-13   0.2950000004E-01  -0.1476550002E-01  -0.1476550002E-01   0.5096143410E-15   0.6740658759E-15  -0.8990889546E-15   0.7750000010E+01
     1     2     3     4     5     6     7     8
     2     9    10     3     6    11    12     7
 VARIABLES = X,Y,Z,DU1,DU2,DU3,U1,U2,U3,S11,S22,S33,S12,S13,S23,E11,E22,E33,E12,E13,E23,SMISES
 ZONE, T="0.1950D+01" F=FEPOINT, I=   12 J=    2 ET=BRICK
   0.0000000000E+00   0.0000000000E+00   0.0000000000E+00   0.0000000000E+00   0.0000000000E+00   0.0000000000E+00   0.0000000000E+00   0.0000000000E+00   0.0000000000E+00  -0.8875000014E+01   0.3328882906E-11   0.3454134845E-11  -0.8103457706E-16   0.9648830346E-13   0.1027839619E-12   0.4750000007E-02  -0.2392750004E-02  -0.2392750004E-02   0.3626289312E-17   0.1765413484E-14   0.2382231665E-14   0.8875000014E+01
   0.1004750000E+01   0.0000000000E+00   0.5157255984E-15  -0.2475000000E-01   0.0000000000E+00   0.9443021722E-15   0.2950000000E-01   0.0000000000E+00  -0.4285765738E-15  -0.8875000014E+01   0.1191372753E-11   0.1179180879E-11   0.7521276941E-13   0.3255467556E-13   0.6287213921E-13   0.4750000007E-02  -0.2392750004E-02  -0.2392750004E-02   0.1851496337E-14   0.6584792125E-15   0.1781756960E-14   0.8875000014E+01
   0.1004750000E+01   0.9976072500E+00   0.1409388169E-14  -0.2475000000E-01   0.1237275000E-01   0.1251700624E-14   0.2950000000E-01  -0.1476550000E-01   0.1576875451E-15  -0.8875000013E+01  -0.1345899348E-11  -0.1514915721E-11   0.6917558842E-13  -0.4040369967E-14   0.3135108976E-13   0.4750000007E-02  -0.2392750003E-02  -0.2392750003E-02   0.1694924625E-14  -0.7164020768E-16   0.6261333059E-15   0.8875000013E+01
   0.0000000000E+00   0.9976072500E+00   0.1188787926E-14   0.0000000000E+00   0.1237275000E-01   0.7124953312E-15   0.0000000000E+00  -0.1476550000E-01   0.4762925944E-15  -0.8875000013E+01  -0.2698682319E-11  -0.2731030967E-11   0.5299556637E-13   0.5830577294E-13   0.7001006087E-13   0.4750000007E-02  -0.2392750003E-02  -0.2392750003E-02   0.1188201277E-14   0.1329523211E-14   0.1136798040E-14   0.8875000013E+01
   0.0000000000E+00   0.0000000000E+00   0.9976072500E+00   0.0000000000E+00   0.0000000000E+00   0.1237275000E-01   0.0000000000E+00   0.0000000000E+00  -0.1476550000E-01  -0.8875000013E+01  -0.1525505985E-11  -0.1332984872E-11   0.4015111508E-16   0.4055506898E-13   0.2288151752E-13   0.4750000007E-02  -0.2392750003E-02  -0.2392750003E-02   0.8689654215E-18   0.4473042121E-15   0.4437422212E-15   0.8875000013E+01
   0.1004750000E+01   0.0000000000E+00   0.9976072500E+00  -0.2475000000E-01   0.0000000000E+00   0.1237275000E-01   0.2950000000E-01   0.0000000000E+00  -0.1476550000E-01  -0.8875000013E+01  -0.1461754097E-11  -0.1410962045E-11   0.8235210344E-13   0.3673703446E-13  -0.1590216011E-13   0.4750000007E-02  -0.2392750003E-02  -0.2392750003E-02   0.2046942430E-14   0.8009151154E-15  -0.1449074474E-15   0.8875000013E+01
   0.1004750000E+01   0.9976072500E+00   0.9976072500E+00  -0.2475000000E-01   0.1237275000E-01   0.1237275000E-01   0.2950000000E-01  -0.1476550000E-01  -0.1476550000E-01  -0.8875000012E+01   0.2081037555E-11   0.1973916663E-11   0.7591332205E-13   0.9558827951E-15  -0.4777360137E-13   0.4750000006E-02  -0.2392750003E-02  -0.2392750003E-02   0.1869208974E-14   0.3325723441E-16  -0.1340464129E-14   0.8875000012E+01
   0.0000000000E+00   0.9976072500E+00   0.9976072500E+00   0.0000000000E+00   0.1237275000E-01   0.1237275000E-01   0.0000000000E+00  -0.1476550000E-01  -0.1476550000E-01  -0.8875000012E+01   0.1828144100E-11   0.1858035956E-11   0.5452101845E-13   0.3447837816E-14  -0.8189125023E-14   0.4750000006E-02  -0.2392750003E-02  -0.2392750003E-02   0.1279852482E-14   0.3869042032E-16  -0.7794714187E-15   0.8875000012E+01
   0.2009500000E+01   0.0000000000E+00  -0.4221190367E-15  -0.4950000000E-01   0.0000000000E+00   0.1101923547E-14   0.5900000000E-01   0.0000000000E+00  -0.1524042584E-14  -0.8875000013E+01  -0.5290893569E-13   0.1117981206E-12   0.1517149692E-12  -0.2955571226E-13   0.1610122717E-13   0.4750000007E-02  -0.2392750004E-02  -0.2392750004E-02   0.3650832231E-14  -0.4292699755E-15   0.5154309346E-15   0.8875000013E+01
   0.2009500000E+01   0.9976072500E+00  -0.1644077703E-15  -0.4950000000E-01   0.1237275000E-01   0.8303015406E-15   0.5900000000E-01  -0.1476550000E-01  -0.9947093109E-15  -0.8875000012E+01   0.7474239866E-12   0.7579025436E-12   0.8743816879E-13  -0.6601312659E-13  -0.1644038764E-13   0.4750000007E-02  -0.2392750003E-02  -0.2392750003E-02   0.2119409738E-14  -0.1474321357E-14  -0.7102629122E-15   0.8875000012E+01
   0.2009500000E+01   0.0000000000E+00   0.9976072500E+00  -0.4950000000E-01   0.0000000000E+00   0.1237275000E-01   0.5900000000E-01   0.0000000000E+00  -0.1476550000E-01  -0.8875000012E+01  -0.2956955434E-11  -0.2726400717E-11   0.1637600977E-12   0.3216048906E-13  -0.6152292333E-13   0.4750000007E-02  -0.2392750003E-02  -0.2392750003E-02   0.4013379745E-14   0.1077547828E-14  -0.1401648698E-14   0.8875000012E+01
   0.2009500000E+01   0.9976072500E+00   0.9976072500E+00  -0.4950000000E-01   0.1237275000E-01   0.1237275000E-01   0.5900000000E-01  -0.1476550000E-01  -0.1476550000E-01  -0.8875000011E+01   0.5945990280E-12   0.6714694686E-12   0.9659277635E-13  -0.2245161409E-14  -0.9448837789E-13   0.4750000006E-02  -0.2392750003E-02  -0.2392750003E-02   0.2384660986E-14   0.6197111961E-16  -0.2622388692E-14   0.8875000011E+01
     1     2     3     4     5     6     7     8
     2     9    10     3     6    11    12     7
 VARIABLES = X,Y,Z,DU1,DU2,DU3,U1,U2,U3,S11,S22,S33,S12,S13,S23,E11,E22,E33,E12,E13,E23,SMISES
 ZONE, T="0.2000D+01" F=FEPOINT, I=   12 J=    2 ET=BRICK
   0.0000000000E+00   0.0000000000E+00   0.0000000000E+00   0.0000000000E+00   0.0000000000E+00   0.0000000000E+00   0.0000000000E+00   0.0000000000E+00   0.0000000000E+00  -0.1000000002E+02  -0.1165471734E-11  -0.1161206024E-11  -0.3358320851E-16   0.8027587548E-15  -0.4091670157E-14  -0.2000000003E-01   0.9980000016E-02   0.9980000016E-02  -0.1344618372E-18   0.5540091745E-15   0.9286164939E-15   0.1000000002E+02
   0.9800000000E+00   0.0000000000E+00   0.1323072392E-15  -0.2475000000E-01   0.0000000000E+00  -0.3834183592E-15   0.4750000000E-02   0.0000000000E+00   0.5157255984E-15  -0.1000000002E+02  -0.1736260067E-13  -0.1348400957E-13   0.1793385780E-14   0.1399961316E-14  -0.3075227271E-14  -0.2000000003E-01   0.9980000015E-02   0.9980000015E-02   0.9048868983E-15   0.2959382056E-15   0.8542845616E-15   0.1000000002E+02
   0.9800000000E+00   0.1009980000E+01   0.5596203613E-15  -0.2475000000E-01   0.1237275000E-01  -0.8497678081E-15   0.4750000000E-02  -0.2392750000E-02   0.1409388169E-14  -0.1000000001E+02   0.9117712964E-13   0.9769634261E-13   0.2413407422E-14  -0.2327818969E-14   0.1265711762E-14  -0.2000000003E-01   0.9980000014E-02   0.9980000014E-02   0.8301904995E-15  -0.7414714278E-16   0.2566234540E-15   0.1000000001E+02
   0.0000000000E+00   0.1009980000E+01   0.4658706739E-15   0.0000000000E+00   0.1237275000E-01  -0.7229172517E-15   0.0000000000E+00  -0.2392750000E-02   0.1188787926E-14  -0.1000000001E+02   0.9024654544E-12   0.9106267656E-12   0.1194622118E-14   0.1302568266E-14   0.1599973387E-14  -0.2000000003E-01   0.9980000015E-02   0.9980000015E-02   0.5236855822E-15   0.6100244267E-15   0.3058585299E-15   0.1000000001E+02
   0.0000000000E+00   0.0000000000E+00   0.1009980000E+01   0.0000000000E+00   0.0000000000E+00   0.1237275000E-01   0.0000000000E+00   0.0000000000E+00  -0.2392750000E-02  -0.1000000001E+02   0.8213456011E-12   0.8147139071E-12   0.1243752501E-16   0.1822713290E-14  -0.2265518379E-14  -0.2000000003E-01   0.9980000015E-02   0.9980000015E-02  -0.2619663147E-20   0.1412421350E-16   0.9317997317E-16   0.1000000001E+02
   0.9800000000E+00   0.0000000000E+00   0.1009980000E+01  -0.2475000000E-01   0.0000000000E+00   0.1237275000E-01   0.4750000000E-02   0.0000000000E+00  -0.2392750000E-02  -0.1000000001E+02   0.2543401865E-12   0.2498847067E-12  -0.3325983881E-14   0.2999995872E-14  -0.2086642587E-14  -0.2000000003E-01   0.9980000014E-02   0.9980000014E-02   0.8729201023E-15   0.3792756123E-15  -0.1241774357E-16   0.1000000001E+02
   0.9800000000E+00   0.1009980000E+01   0.1009980000E+01  -0.2475000000E-01   0.1237275000E-01   0.1237275000E-01   0.4750000000E-02  -0.2392750000E-02  -0.2392750000E-02  -0.1000000001E+02  -0.6087677962E-13  -0.6426772689E-13  -0.2563120337E-14  -0.2764126444E-14   0.2247227484E-14  -0.2000000003E-01   0.9980000013E-02   0.9980000013E-02   0.8134280238E-15  -0.3641992509E-16  -0.6378393130E-15   0.1000000001E+02
   0.0000000000E+00   0.1009980000E+01   0.1009980000E+01   0.0000000000E+00   0.1237275000E-01   0.1237275000E-01   0.0000000000E+00  -0.2392750000E-02  -0.2392750000E-02  -0.1000000001E+02  -0.9183122719E-13  -0.9662230047E-13  -0.7745158141E-15   0.1690783671E-14   0.3838161384E-14  -0.2000000003E-01   0.9980000013E-02   0.9980000013E-02   0.5403587723E-15   0.3221755019E-16  -0.5009324200E-15   0.1000000001E+02
   0.1960000000E+01   0.0000000000E+00  -0.3222628943E-15  -0.4950000000E-01   0.0000000000E+00   0.9985614242E-16   0.9500000000E-02   0.0000000000E+00  -0.4221190367E-15  -0.1000000002E+02   0.1126020974E-11   0.1129203291E-11  -0.6038864412E-15   0.5604173454E-15  -0.1541429407E-14  -0.2000000003E-01   0.9980000015E-02   0.9980000015E-02   0.1620702665E-14  -0.8748850715E-16   0.2560432460E-15   0.1000000002E+02
   0.1960000000E+01   0.1009980000E+01  -0.1945380466E-15  -0.4950000000E-01   0.1237275000E-01  -0.3013027627E-16   0.9500000000E-02  -0.2392750000E-02  -0.1644077703E-15  -0.1000000001E+02  -0.1737551309E-11  -0.1733470992E-11   0.5418573204E-15  -0.3169624600E-14   0.4447381572E-14  -0.2000000003E-01   0.9980000014E-02   0.9980000014E-02   0.9693432602E-15  -0.7262192855E-15  -0.3690332686E-15   0.1000000001E+02
   0.1960000000E+01   0.0000000000E+00   0.1009980000E+01  -0.4950000000E-01   0.0000000000E+00   0.1237275000E-01   0.9500000000E-02   0.0000000000E+00  -0.2392750000E-02  -0.1000000001E+02   0.7109283635E-12   0.7025232304E-12  -0.5807540838E-14   0.1511784855E-14  -0.1466573746E-14  -0.2000000003E-01   0.9980000014E-02   0.9980000014E-02   0.1703716000E-14   0.6200760874E-15  -0.6266478262E-15   0.1000000001E+02
   0.1960000000E+01   0.1009980000E+01   0.1009980000E+01  -0.4950000000E-01   0.1237275000E-01   0.1237275000E-01   0.9500000000E-02  -0.2392750000E-02  -0.2392750000E-02  -0.1000000001E+02  -0.5596417048E-13  -0.6226094803E-13  -0.4192433572E-14  -0.3466150150E-14   0.3778408155E-14  -0.2000000003E-01   0.9980000013E-02   0.9980000013E-02   0.1011295523E-14  -0.4477065480E-16  -0.1230541048E-14   0.1000000001E+02
     1     2     3     4     5     6     7     8
     2     9    10     3     6    11    12     7
 VARIABLES = X,Y,Z,DU1,DU2,DU3,U1,U2,U3,S11,S22,S33,S12,S13,S23,E11,E22,E33,E12,E13,E23,SMISES
 ZONE, T="0.2050D+01" F=FEPOINT, I=   12 J=    2 ET=BRICK
   0.0000000000E+00   0.0000000000E+00   0.0000000000E+00   0.0000000000E+00   0.0000000000E+00   0.0000000000E+00   0.0000000000E+00   0.0000000000E+00   0.0000000000E+00  -0.8875000014E+01   0.8439500044E-12   0.1222701808E-11  -0.1502107602E-16   0.3849870541E-12   0.1062073827E-12  -0.1775000003E-01   0.8857250014E-02   0.8857250014E-02  -0.1375196919E-18   0.5163761898E-14   0.2254999490E-14   0.8875000014E+01
   0.9822500000E+00   0.0000000000E+00   0.2504121886E-14   0.2250000000E-02   0.0000000000E+00   0.2371814647E-14  -0.2000000000E-01   0.0000000000E+00   0.1323072392E-15  -0.8875000014E+01  -0.1803288450E-12  -0.8562671691E-13   0.9432728738E-13   0.2565983211E-12  -0.1140199817E-12  -0.1775000003E-01   0.8857250014E-02   0.8857250014E-02   0.2019819371E-14   0.3353819147E-14  -0.4775090389E-15   0.8875000014E+01
   0.9822500000E+00   0.1008857250E+01   0.2266364483E-14   0.2250000000E-02  -0.1122750000E-02   0.1706744122E-14  -0.2000000000E-01   0.9980000000E-02   0.5596203613E-15  -0.8875000013E+01   0.4875349973E-12   0.4008125123E-12   0.8656813338E-13   0.1536302261E-12   0.5498582406E-13  -0.1775000003E-01   0.8857250013E-02   0.8857250013E-02   0.1845433139E-14   0.1779318555E-14   0.8921786034E-15   0.8875000013E+01
   0.0000000000E+00   0.1008857250E+01   0.1127201134E-14   0.0000000000E+00  -0.1122750000E-02   0.6613304604E-15   0.0000000000E+00   0.9980000000E-02   0.4658706739E-15  -0.8875000013E+01   0.1091818720E-11   0.1282734802E-11   0.1039234947E-12   0.1044311478E-12   0.2684225727E-12  -0.1775000003E-01   0.8857250013E-02   0.8857250013E-02   0.1751323826E-14   0.1848447484E-14   0.3503032051E-14   0.8875000013E+01
   0.0000000000E+00   0.0000000000E+00   0.1008857250E+01   0.0000000000E+00   0.0000000000E+00  -0.1122750000E-02   0.0000000000E+00   0.0000000000E+00   0.9980000000E-02  -0.8875000013E+01   0.4561185984E-12   0.5098722260E-12   0.1775194370E-16   0.2723941847E-12   0.1219699383E-13  -0.1775000003E-01   0.8857250013E-02   0.8857250013E-02  -0.1019754944E-17   0.3270444450E-14   0.2662531962E-15   0.8875000013E+01
   0.9822500000E+00   0.0000000000E+00   0.1008857250E+01   0.2250000000E-02   0.0000000000E+00  -0.1122750000E-02  -0.2000000000E-01   0.0000000000E+00   0.9980000000E-02  -0.8875000013E+01  -0.2032536083E-12  -0.4457360595E-12   0.9155257802E-13   0.2568647957E-12  -0.2051261846E-12  -0.1775000003E-01   0.8857250013E-02   0.8857250013E-02   0.2011438207E-14   0.3404741473E-14  -0.2445577770E-14   0.8875000013E+01
   0.9822500000E+00   0.1008857250E+01   0.1008857250E+01   0.2250000000E-02  -0.1122750000E-02  -0.1122750000E-02  -0.2000000000E-01   0.9980000000E-02   0.9980000000E-02  -0.8875000012E+01   0.5268873282E-12   0.1000065756E-12   0.9007472167E-13   0.1561076391E-12  -0.3625372110E-13  -0.1775000002E-01   0.8857250012E-02   0.8857250012E-02   0.1929333436E-14   0.1886597648E-14  -0.1075317477E-14   0.8875000012E+01
   0.0000000000E+00   0.1008857250E+01   0.1008857250E+01   0.0000000000E+00  -0.1122750000E-02  -0.1122750000E-02   0.0000000000E+00   0.9980000000E-02   0.9980000000E-02  -0.8875000012E+01  -0.7339952995E-12  -0.8682797963E-12   0.1110288003E-12  -0.5394443168E-14   0.1748081524E-12  -0.1775000002E-01   0.8857250012E-02   0.8857250012E-02   0.1881880105E-14  -0.5335140332E-16   0.1535384677E-14   0.8875000012E+01
   0.1964500000E+01   0.0000000000E+00   0.4694892058E-14   0.4500000000E-02   0.0000000000E+00   0.5017154952E-14  -0.4000000000E-01   0.0000000000E+00  -0.3222628943E-15  -0.8875000013E+01  -0.6620465645E-12  -0.2554266004E-12   0.1857797978E-12   0.1209711050E-12  -0.9431509301E-13  -0.1775000003E-01   0.8857250013E-02   0.8857250013E-02   0.3860216607E-14   0.1346502216E-14  -0.8526275110E-15   0.8875000013E+01
   0.1964500000E+01   0.1008857250E+01   0.4266227651E-14   0.4500000000E-02  -0.1122750000E-02   0.4460765698E-14  -0.4000000000E-01   0.9980000000E-02  -0.1945380466E-15  -0.8875000012E+01  -0.4648921587E-13   0.1844989360E-12   0.6746118313E-13   0.1976987101E-12   0.8035549152E-13  -0.1775000002E-01   0.8857250012E-02   0.8857250012E-02   0.1765519079E-14   0.1752655074E-14   0.5406966860E-15   0.8875000012E+01
   0.1964500000E+01   0.0000000000E+00   0.1008857250E+01   0.4500000000E-02   0.0000000000E+00  -0.1122750000E-02  -0.4000000000E-01   0.0000000000E+00   0.9980000000E-02  -0.8875000012E+01  -0.1465161359E-11  -0.1408530685E-11   0.1827825483E-12   0.2328036854E-12  -0.1817721967E-12  -0.1775000002E-01   0.8857250012E-02   0.8857250012E-02   0.3956070383E-14   0.3420987835E-14  -0.2795578428E-14   0.8875000012E+01
   0.1964500000E+01   0.1008857250E+01   0.1008857250E+01   0.4500000000E-02  -0.1122750000E-02  -0.1122750000E-02  -0.4000000000E-01   0.9980000000E-02   0.9980000000E-02  -0.8875000011E+01   0.6783194703E-12   0.5628035777E-12   0.6789358827E-13   0.3132027478E-12  -0.7753081116E-14  -0.1775000002E-01   0.8857250011E-02   0.8857250011E-02   0.1885413394E-14   0.3752283657E-14  -0.1381645367E-14   0.8875000011E+01
     1     2     3     4     5     6     7     8
     2     9    10     3     6    11    12     7
 VARIABLES = X,Y,Z,DU1,DU2,DU3,U1,U2,U3,S11,S22,S33,S12,S13,S23,E11,E22,E33,E12,E13,E23,SMISES
 ZONE, T="0.2100D+01" F=FEPOINT, I=   12 J=    2 ET=BRICK
   0.0000000000E+00   0.0000000000E+00   0.0000000000E+00   0.0000000000E+00   0.0000000000E+00   0.0000000000E+00   0.0000000000E+00   0.0000000000E+00   0.0000000000E+00  -0.7750000012E+01   0.2965373813E-13   0.3387628472E-13   0.2517851696E-17   0.7028045469E-15  -0.4005795682E-14  -0.1550000002E-01   0.7734500012E-02   0.7734500012E-02   0.1766118786E-17   0.5605974352E-15   0.9353107652E-15   0.7750000012E+01
   0.9845000000E+00   0.0000000000E+00   0.1342831188E-15   0.2250000000E-02   0.0000000000E+00  -0.2369838767E-14  -0.1775000000E-01   0.0000000000E+00   0.2504121886E-14  -0.7750000012E+01   0.1072434685E-12   0.1114522090E-12  -0.1436583448E-14   0.1589729354E-15  -0.2984826182E-14  -0.1550000002E-01   0.7734500012E-02   0.7734500012E-02   0.8681446058E-15   0.2711011581E-15   0.8522146483E-15   0.7750000012E+01
   0.9845000000E+00   0.1007734500E+01   0.5624032848E-15   0.2250000000E-02  -0.1122750000E-02  -0.1703961198E-14  -0.1775000000E-01   0.8857250000E-02   0.2266364483E-14  -0.7750000011E+01  -0.2966920786E-13  -0.2284375882E-13  -0.9798087965E-15  -0.1823505154E-15   0.1884727800E-14  -0.1550000002E-01   0.7734500011E-02   0.7734500011E-02   0.7996603294E-15  -0.5376559788E-16   0.2580597426E-15   0.7750000011E+01
   0.0000000000E+00   0.1007734500E+01   0.4663769577E-15   0.0000000000E+00  -0.1122750000E-02  -0.6608241767E-15   0.0000000000E+00   0.8857250000E-02   0.1127201134E-14  -0.7750000011E+01  -0.7896662229E-13  -0.7050345115E-13   0.4883006566E-15   0.1633480028E-14   0.1127573458E-14  -0.1550000002E-01   0.7734500011E-02   0.7734500011E-02   0.5104195528E-15   0.6122455279E-15   0.2972191856E-15   0.7750000011E+01
   0.0000000000E+00   0.0000000000E+00   0.1007734500E+01   0.0000000000E+00   0.0000000000E+00  -0.1122750000E-02   0.0000000000E+00   0.0000000000E+00   0.8857250000E-02  -0.7750000011E+01   0.5926045646E-13   0.5130300741E-13  -0.3532455306E-16   0.2283390247E-14  -0.1474203912E-14  -0.1550000002E-01   0.7734500011E-02   0.7734500011E-02  -0.5209229412E-17   0.2619580420E-16   0.1117710582E-15   0.7750000011E+01
   0.9845000000E+00   0.0000000000E+00   0.1007734500E+01   0.2250000000E-02   0.0000000000E+00  -0.1122750000E-02  -0.1775000000E-01   0.0000000000E+00   0.8857250000E-02  -0.7750000011E+01  -0.6284793676E-13  -0.6604950566E-13  -0.2227423519E-14   0.1020358476E-14  -0.2194977633E-14  -0.1550000002E-01   0.7734500011E-02   0.7734500011E-02   0.8938012216E-15   0.3413589085E-15  -0.1158262951E-16   0.7750000011E+01
   0.9845000000E+00   0.1007734500E+01   0.1007734500E+01   0.2250000000E-02  -0.1122750000E-02  -0.1122750000E-02  -0.1775000000E-01   0.8857250000E-02   0.8857250000E-02  -0.7750000010E+01   0.2554075149E-13   0.2034078179E-13  -0.1429460453E-14  -0.8851478565E-15   0.2410572778E-14  -0.1550000002E-01   0.7734500010E-02   0.7734500010E-02   0.8226252448E-15  -0.2699560540E-17  -0.6242370658E-15   0.7750000010E+01
   0.0000000000E+00   0.1007734500E+01   0.1007734500E+01   0.0000000000E+00  -0.1122750000E-02  -0.1122750000E-02   0.0000000000E+00   0.8857250000E-02   0.8857250000E-02  -0.7750000010E+01   0.5384706025E-13   0.5232463220E-13  -0.2162267395E-15   0.9534335803E-15   0.3996293310E-14  -0.1550000002E-01   0.7734500010E-02   0.7734500010E-02   0.5503058580E-15   0.2403666056E-16  -0.5209528673E-15   0.7750000010E+01
   0.1969000000E+01   0.0000000000E+00  -0.3090616726E-15   0.4500000000E-02   0.0000000000E+00  -0.5003953730E-14  -0.3550000000E-01   0.0000000000E+00   0.4694892058E-14  -0.7750000012E+01   0.7180938499E-13   0.7487815373E-13  -0.9098845603E-15  -0.3049635545E-15  -0.2630918961E-14  -0.1550000002E-01   0.7734500012E-02   0.7734500012E-02   0.1622924248E-14  -0.3537532634E-16   0.2441129707E-15   0.7750000012E+01
   0.1969000000E+01   0.1007734500E+01  -0.1882228135E-15   0.4500000000E-02  -0.1122750000E-02  -0.4454450465E-14  -0.3550000000E-01   0.8857250000E-02   0.4266227651E-14  -0.7750000011E+01  -0.7711206091E-13  -0.7428711374E-13   0.6203031200E-15  -0.2548556497E-14   0.3200480035E-14  -0.1550000002E-01   0.7734500011E-02   0.7734500011E-02   0.9667671606E-15  -0.7145105023E-15  -0.3812817858E-15   0.7750000011E+01
   0.1969000000E+01   0.0000000000E+00   0.1007734500E+01   0.4500000000E-02   0.0000000000E+00  -0.1122750000E-02  -0.3550000000E-01   0.0000000000E+00   0.8857250000E-02  -0.7750000011E+01  -0.8052421523E-13  -0.9199082320E-13  -0.3783745412E-14  -0.3108691196E-17  -0.1982665086E-14  -0.1550000002E-01   0.7734500011E-02   0.7734500011E-02   0.1715888951E-14   0.6203175072E-15  -0.6307773262E-15   0.7750000011E+01
   0.1969000000E+01   0.1007734500E+01   0.1007734500E+01   0.4500000000E-02  -0.1122750000E-02  -0.1122750000E-02  -0.3550000000E-01   0.8857250000E-02   0.8857250000E-02  -0.7750000010E+01   0.7872167384E-13   0.7404706670E-13  -0.2506770497E-14  -0.2389637912E-14   0.3429340911E-14  -0.1550000002E-01   0.7734500010E-02   0.7734500010E-02   0.1045795823E-14   0.1871744677E-16  -0.1241779487E-14   0.7750000010E+01
     1     2     3     4     5     6     7     8
     2     9    10     3     6    11    12     7
 VARIABLES = X,Y,Z,DU1,DU2,DU3,U1,U2,U3,S11,S22,S33,S12,S13,S23,E11,E22,E33,E12,E13,E23,SMISES
 ZONE, T="0.2150D+01" F=FEPOINT, I=   12 J=    2 ET=BRICK
   0.0000000000E+00   0.0000000000E+00   0.0000000000E+00   0.0000000000E+00   0.0000000000E+00   0.0000000000E+00   0.0000000000E+00   0.0000000000E+00   0.0000000000E+00  -0.6625000010E+01   0.1391377887E-14   0.4395206031E-14   0.4795338805E-17   0.6509476630E-15  -0.3788708435E-14  -0.1325000002E-01   0.6611750010E-02   0.6611750010E-02  -0.9320969266E-18   0.5590513802E-15   0.9385184871E-15   0.6625000010E+01
   0.9867500000E+00   0.0000000000E+00   0.1330982435E-15   0.2250000000E-02   0.0000000000E+00  -0.1184875328E-17  -0.1550000000E-01   0.0000000000E+00   0.1342831188E-15  -0.6625000010E+01   0.1530122626E-13   0.1949907803E-13  -0.1065837355E-14   0.3404224729E-15  -0.2852011679E-14  -0.1325000002E-01   0.6611750010E-02   0.6611750010E-02   0.8767924368E-15   0.2708918186E-15   0.8557445025E-15   0.6625000010E+01
   0.9867500000E+00   0.1006611750E+01   0.5620140682E-15   0.2250000000E-02  -0.1122750000E-02  -0.3892165778E-18  -0.1550000000E-01   0.7734500000E-02   0.5624032848E-15  -0.6625000009E+01  -0.9191143542E-14  -0.2568879376E-14  -0.8012812917E-15  -0.4475536519E-15   0.1785363609E-14  -0.1325000002E-01   0.6611750009E-02   0.6611750009E-02   0.8003526227E-15  -0.5662316378E-16   0.2572155062E-15   0.6625000009E+01
   0.0000000000E+00   0.1006611750E+01   0.4676635979E-15   0.0000000000E+00  -0.1122750000E-02   0.1286640216E-17   0.0000000000E+00   0.7734500000E-02   0.4663769577E-15  -0.6625000010E+01   0.1298616500E-12   0.1384452733E-12   0.1297514979E-15   0.1415341955E-14   0.6443183295E-15  -0.1325000002E-01   0.6611750010E-02   0.6611750010E-02   0.5040737084E-15   0.6074154379E-15   0.2880862720E-15   0.6625000010E+01
   0.0000000000E+00   0.0000000000E+00   0.1006611750E+01   0.0000000000E+00   0.0000000000E+00  -0.1122750000E-02   0.0000000000E+00   0.0000000000E+00   0.7734500000E-02  -0.6625000010E+01  -0.9635969524E-14  -0.1670378145E-13  -0.5499619628E-16   0.2417736203E-14  -0.1178835048E-14  -0.1325000002E-01   0.6611750010E-02   0.6611750010E-02   0.5758423540E-18   0.2589205537E-16   0.1082357330E-15   0.6625000010E+01
   0.9867500000E+00   0.0000000000E+00   0.1006611750E+01   0.2250000000E-02   0.0000000000E+00  -0.1122750000E-02  -0.1550000000E-01   0.0000000000E+00   0.7734500000E-02  -0.6625000009E+01   0.2672683701E-13   0.2409126826E-13  -0.2365096241E-14   0.1208170863E-14  -0.2099042406E-14  -0.1325000002E-01   0.6611750009E-02   0.6611750009E-02   0.8812555141E-15   0.3535493161E-15  -0.1427063132E-16   0.6625000009E+01
   0.9867500000E+00   0.1006611750E+01   0.1006611750E+01   0.2250000000E-02  -0.1122750000E-02  -0.1122750000E-02  -0.1550000000E-01   0.7734500000E-02   0.7734500000E-02  -0.6625000009E+01   0.6499920513E-13   0.6041676118E-13  -0.1554934280E-14  -0.1240518146E-14   0.2262468417E-14  -0.1325000002E-01   0.6611750009E-02   0.6611750009E-02   0.8208720753E-15  -0.1525310810E-16  -0.6257864984E-15   0.6625000009E+01
   0.0000000000E+00   0.1006611750E+01   0.1006611750E+01   0.0000000000E+00  -0.1122750000E-02  -0.1122750000E-02   0.0000000000E+00   0.7734500000E-02   0.7734500000E-02  -0.6625000009E+01  -0.2242980575E-13  -0.2342142630E-13  -0.5603433689E-16   0.7506914285E-15   0.3744788759E-14  -0.1325000002E-01   0.6611750009E-02   0.6611750009E-02   0.5516410614E-15   0.2242929828E-16  -0.5155256992E-15   0.6625000009E+01
   0.1973500000E+01   0.0000000000E+00  -0.3152078467E-15   0.4500000000E-02   0.0000000000E+00  -0.6146174091E-17  -0.3100000000E-01   0.0000000000E+00  -0.3090616726E-15  -0.6625000010E+01   0.2515164892E-13   0.2798204013E-13  -0.3374584545E-15   0.1789949188E-15  -0.2222947153E-14  -0.1325000002E-01   0.6611750010E-02   0.6611750010E-02   0.1632811212E-14  -0.2710371695E-16   0.2477912638E-15   0.6625000010E+01
   0.1973500000E+01   0.1006611750E+01  -0.1918967993E-15   0.4500000000E-02  -0.1122750000E-02  -0.3673985713E-17  -0.3100000000E-01   0.7734500000E-02  -0.1882228135E-15  -0.6625000009E+01  -0.1360198164E-12  -0.1333370986E-12   0.1223697475E-14  -0.2873830622E-14   0.3217258458E-14  -0.1325000002E-01   0.6611750009E-02   0.6611750009E-02   0.9766594584E-15  -0.7275521924E-15  -0.3793707216E-15   0.6625000009E+01
   0.1973500000E+01   0.0000000000E+00   0.1006611750E+01   0.4500000000E-02   0.0000000000E+00  -0.1122750000E-02  -0.3100000000E-01   0.0000000000E+00   0.7734500000E-02  -0.6625000009E+01   0.5932655507E-13   0.4848690270E-13  -0.4061783651E-14   0.4336732819E-15  -0.1712002102E-14  -0.1325000002E-01   0.6611750009E-02   0.6611750009E-02   0.1710267834E-14   0.6401637864E-15  -0.6282153290E-15   0.6625000009E+01
   0.1973500000E+01   0.1006611750E+01   0.1006611750E+01   0.4500000000E-02  -0.1122750000E-02  -0.1122750000E-02  -0.3100000000E-01   0.7734500000E-02   0.7734500000E-02  -0.6625000008E+01   0.1257202439E-12   0.1216468296E-12  -0.2903313201E-14  -0.2531728212E-14   0.3307858481E-14  -0.1325000002E-01   0.6611750008E-02   0.6611750008E-02   0.1037352578E-14  -0.3455513108E-16  -0.1243023273E-14   0.6625000008E+01
     1     2     3     4     5     6     7     8
     2     9    10     3     6    11    12     7
 VARIABLES = X,Y,Z,DU1,DU2,DU3,U1,U2,U3,S11,S22,S33,S12,S13,S23,E11,E22,E33,E12,E13,E23,SMISES
 ZONE, T="0.2200D+01" F=FEPOINT, I=   12 J=    2 ET=BRICK
   0.0000000000E+00   0.0000000000E+00   0.0000000000E+00   0.0000000000E+00   0.0000000000E+00   0.0000000000E+00   0.0000000000E+00   0.0000000000E+00   0.0000000000E+00  -0.5500000009E+01  -0.3822226525E-13  -0.3584612212E-13  -0.7821558186E-17   0.4048233918E-15  -0.3435758861E-14  -0.1100000002E-01   0.5489000009E-02   0.5489000009E-02   0.3670699672E-18   0.5522442789E-15   0.9374077310E-15   0.5500000009E+01
   0.9890000000E+00   0.0000000000E+00   0.1305685976E-15   0.2250000000E-02   0.0000000000E+00  -0.2529645892E-17  -0.1325000000E-01   0.0000000000E+00   0.1330982435E-15  -0.5500000008E+01  -0.2007041703E-13  -0.1659168347E-13  -0.1169529806E-14   0.3604622314E-15  -0.2508392746E-14  -0.1100000002E-01   0.5489000008E-02   0.5489000008E-02   0.8734487235E-15   0.2764931458E-15   0.8607035127E-15   0.5500000008E+01
   0.9890000000E+00   0.1005489000E+01   0.5614896158E-15   0.2250000000E-02  -0.1122750000E-02  -0.5244523827E-18  -0.1325000000E-01   0.6611750000E-02   0.5620140682E-15  -0.5500000008E+01  -0.2168756377E-13  -0.1582904030E-13  -0.9065290943E-15  -0.3833591950E-15   0.1345597284E-14  -0.1100000002E-01   0.5489000008E-02   0.5489000008E-02   0.8007683758E-15  -0.6587662758E-16   0.2489181770E-15   0.5500000008E+01
   0.0000000000E+00   0.1005489000E+01   0.4699789914E-15   0.0000000000E+00  -0.1122750000E-02   0.2315393539E-17   0.0000000000E+00   0.6611750000E-02   0.4676635979E-15  -0.5500000008E+01  -0.1543362717E-13  -0.7666533593E-14   0.1740901505E-15   0.1117417998E-14   0.3008395973E-15  -0.1100000002E-01   0.5489000008E-02   0.5489000008E-02   0.5063927131E-15   0.6121584694E-15   0.2928127919E-15   0.5500000008E+01
   0.0000000000E+00   0.0000000000E+00   0.1005489000E+01   0.0000000000E+00   0.0000000000E+00  -0.1122750000E-02   0.0000000000E+00   0.0000000000E+00   0.6611750000E-02  -0.5500000008E+01   0.4380557555E-13   0.3697886336E-13  -0.6340475474E-16   0.2227777650E-14  -0.7935613138E-15  -0.1100000002E-01   0.5489000008E-02   0.5489000008E-02  -0.9159497618E-18   0.2762713151E-16   0.1268537738E-15   0.5500000008E+01
   0.9890000000E+00   0.0000000000E+00   0.1005489000E+01   0.2250000000E-02   0.0000000000E+00  -0.1122750000E-02  -0.1325000000E-01   0.0000000000E+00   0.6611750000E-02  -0.5500000008E+01  -0.1288064800E-13  -0.1493388367E-13  -0.2349957982E-14   0.1198700515E-14  -0.1811897929E-14  -0.1100000002E-01   0.5489000008E-02   0.5489000008E-02   0.8860881053E-15   0.3457877242E-15  -0.1252623475E-16   0.5500000008E+01
   0.9890000000E+00   0.1005489000E+01   0.1005489000E+01   0.2250000000E-02  -0.1122750000E-02  -0.1122750000E-02  -0.1325000000E-01   0.6611750000E-02   0.6611750000E-02  -0.5500000007E+01  -0.5997978565E-13  -0.6381336306E-13  -0.1568918556E-14  -0.8909488013E-15   0.1846865883E-14  -0.1100000001E-01   0.5489000007E-02   0.5489000007E-02   0.8247906557E-15  -0.1366240650E-16  -0.6203097086E-15   0.5500000007E+01
   0.0000000000E+00   0.1005489000E+01   0.1005489000E+01   0.0000000000E+00  -0.1122750000E-02  -0.1122750000E-02   0.0000000000E+00   0.6611750000E-02   0.6611750000E-02  -0.5500000007E+01  -0.1954733207E-13  -0.1959307495E-13  -0.1522202961E-16   0.4049718904E-15   0.3361348943E-14  -0.1100000001E-01   0.5489000007E-02   0.5489000007E-02   0.5501000586E-15   0.1841341072E-16  -0.5388010356E-15   0.5500000007E+01
   0.1978000000E+01   0.0000000000E+00  -0.3247544151E-15   0.4500000000E-02   0.0000000000E+00  -0.9546568391E-17  -0.2650000000E-01   0.0000000000E+00  -0.3152078467E-15  -0.5500000008E+01   0.6825377393E-13   0.7032513937E-13  -0.1911738197E-15   0.2814341145E-15  -0.1803458454E-14  -0.1100000002E-01   0.5489000008E-02   0.5489000008E-02   0.1631329797E-14  -0.4592418994E-16   0.2507831585E-15   0.5500000008E+01
   0.1978000000E+01   0.1005489000E+01  -0.1989402176E-15   0.4500000000E-02  -0.1122750000E-02  -0.7043418330E-17  -0.2650000000E-01   0.6611750000E-02  -0.1918967993E-15  -0.5500000008E+01   0.5851438881E-13   0.6029385862E-13   0.1390979877E-14  -0.3047999417E-14   0.2898300256E-14  -0.1100000002E-01   0.5489000008E-02   0.5489000008E-02   0.9870806857E-15  -0.7086643412E-15  -0.3764182773E-15   0.5500000008E+01
   0.1978000000E+01   0.0000000000E+00   0.1005489000E+01   0.4500000000E-02   0.0000000000E+00  -0.1122750000E-02  -0.2650000000E-01   0.0000000000E+00   0.6611750000E-02  -0.5500000008E+01  -0.5372115627E-13  -0.6382953842E-13  -0.4329439323E-14   0.6240948909E-15  -0.1256154387E-14  -0.1100000002E-01   0.5489000008E-02   0.5489000008E-02   0.1703084298E-14   0.6678080520E-15  -0.6193159516E-15   0.5500000008E+01
   0.1978000000E+01   0.1005489000E+01   0.1005489000E+01   0.4500000000E-02  -0.1122750000E-02  -0.1122750000E-02  -0.2650000000E-01   0.6611750000E-02   0.6611750000E-02  -0.5500000007E+01  -0.1075114075E-12  -0.1103153072E-12  -0.3179788209E-14  -0.2829605493E-14   0.2976926256E-14  -0.1100000001E-01   0.5489000007E-02   0.5489000007E-02   0.1023230631E-14  -0.3475198449E-16  -0.1258790909E-14   0.5500000007E+01
     1     2     3     4     5     6     7     8
     2     9    10     3     6    11    12     7
 VARIABLES = X,Y,Z,DU1,DU2,DU3,U1,U2,U3,S11,S22,S33,S12,S13,S23,E11,E22,E33,E12,E13,E23,SMISES
 ZONE, T="0.2250D+01" F=FEPOINT, I=   12 J=    2 ET=BRICK
   0.0000000000E+00   0.0000000000E+00   0.0000000000E+00   0.0000000000E+00   0.0000000000E+00   0.0000000000E+00   0.0000000000E+00   0.0000000000E+00   0.0000000000E+00  -0.4375000007E+01  -0.5011539181E-13  -0.4779821138E-13   0.1507688601E-17   0.4295375431E-15  -0.3460131125E-14  -0.8750000014E-02   0.4366250007E-02   0.4366250007E-02  -0.1151485011E-18   0.5525488050E-15   0.9403480494E-15   0.4375000007E+01
   0.9912500000E+00   0.0000000000E+00   0.1307344530E-15   0.2250000000E-02   0.0000000000E+00   0.1658553497E-18  -0.1100000000E-01   0.0000000000E+00   0.1305685976E-15  -0.4375000007E+01   0.9190655688E-13   0.9559246082E-13  -0.1417856955E-14   0.1910680117E-15  -0.2545835164E-14  -0.8750000013E-02   0.4366250007E-02   0.4366250007E-02   0.8717814689E-15   0.2760012859E-15   0.8602655464E-15   0.4375000007E+01
   0.9912500000E+00   0.1004366250E+01   0.5612768235E-15   0.2250000000E-02  -0.1122750000E-02  -0.2127923064E-18  -0.1100000000E-01   0.5489000000E-02   0.5614896158E-15  -0.4375000006E+01   0.1951739518E-13   0.2544231847E-13  -0.1133753882E-14  -0.7705603583E-16   0.1215761468E-14  -0.8750000012E-02   0.4366250006E-02   0.4366250006E-02   0.8000891282E-15  -0.6308432172E-16   0.2455971435E-15   0.4375000006E+01
   0.0000000000E+00   0.1004366250E+01   0.4697726391E-15   0.0000000000E+00  -0.1122750000E-02  -0.2063523185E-18   0.0000000000E+00   0.5489000000E-02   0.4699789914E-15  -0.4375000006E+01  -0.1615130670E-13  -0.8007057697E-14   0.3004481133E-15   0.1042353963E-14   0.2888748711E-15  -0.8750000013E-02   0.4366250006E-02   0.4366250006E-02   0.5064983697E-15   0.6097505994E-15   0.2905333701E-15   0.4375000006E+01
   0.0000000000E+00   0.0000000000E+00   0.1004366250E+01   0.0000000000E+00   0.0000000000E+00  -0.1122750000E-02   0.0000000000E+00   0.0000000000E+00   0.5489000000E-02  -0.4375000006E+01   0.6514257533E-15  -0.6698656792E-14  -0.1149009053E-15   0.2245029925E-14  -0.7508277862E-15  -0.8750000013E-02   0.4366250006E-02   0.4366250006E-02  -0.3842313064E-18   0.2566291462E-16   0.1179128996E-15   0.4375000006E+01
   0.9912500000E+00   0.0000000000E+00   0.1004366250E+01   0.2250000000E-02   0.0000000000E+00  -0.1122750000E-02  -0.1100000000E-01   0.0000000000E+00   0.5489000000E-02  -0.4375000006E+01  -0.2000169591E-13  -0.2249503522E-13  -0.2119536825E-14   0.1017930858E-14  -0.1694800193E-14  -0.8750000012E-02   0.4366250006E-02   0.4366250006E-02   0.8864254182E-15   0.3465830833E-15  -0.5727469976E-17   0.4375000006E+01
   0.9912500000E+00   0.1004366250E+01   0.1004366250E+01   0.2250000000E-02  -0.1122750000E-02  -0.1122750000E-02  -0.1100000000E-01   0.5489000000E-02   0.5489000000E-02  -0.4375000006E+01   0.2387573355E-13   0.2037123748E-13  -0.1421334528E-14  -0.8031036948E-15   0.1962033116E-14  -0.8750000011E-02   0.4366250006E-02   0.4366250006E-02   0.8238734606E-15  -0.7961393538E-17  -0.6193569677E-15   0.4375000006E+01
   0.0000000000E+00   0.1004366250E+01   0.1004366250E+01   0.0000000000E+00  -0.1122750000E-02  -0.1122750000E-02   0.0000000000E+00   0.5489000000E-02   0.5489000000E-02  -0.4375000006E+01   0.2947016824E-13   0.2988139595E-13  -0.1390499433E-16   0.5821971378E-15   0.3499728540E-14  -0.8750000012E-02   0.4366250006E-02   0.4366250006E-02   0.5505933185E-15   0.1907811661E-16  -0.5255318716E-15   0.4375000006E+01
   0.1982500000E+01   0.0000000000E+00  -0.3230772210E-15   0.4500000000E-02   0.0000000000E+00   0.1677194087E-17  -0.2200000000E-01   0.0000000000E+00  -0.3247544151E-15  -0.4375000007E+01   0.5998449819E-13   0.6123461905E-13  -0.6572676895E-15   0.6590827008E-15  -0.2155236183E-14  -0.8750000013E-02   0.4366250007E-02   0.4366250007E-02   0.1632369200E-14  -0.4139212998E-16   0.2467170659E-15   0.4375000007E+01
   0.1982500000E+01   0.1004366250E+01  -0.1991986384E-15   0.4500000000E-02  -0.1122750000E-02  -0.2584208274E-18  -0.2200000000E-01   0.5489000000E-02  -0.1989402176E-15  -0.4375000006E+01  -0.4942748839E-13  -0.4736701134E-13   0.8043837999E-15  -0.2891127078E-14   0.2842199802E-14  -0.8750000012E-02   0.4366250006E-02   0.4366250006E-02   0.9821568180E-15  -0.7117665357E-15  -0.3737836229E-15   0.4375000006E+01
   0.1982500000E+01   0.0000000000E+00   0.1004366250E+01   0.4500000000E-02   0.0000000000E+00  -0.1122750000E-02  -0.2200000000E-01   0.0000000000E+00   0.5489000000E-02  -0.4375000006E+01  -0.5334195022E-13  -0.6394793998E-13  -0.4456389356E-14   0.7006059661E-15  -0.1212092035E-14  -0.8750000012E-02   0.4366250006E-02   0.4366250006E-02   0.1704809029E-14   0.6596177895E-15  -0.6212501049E-15   0.4375000006E+01
   0.1982500000E+01   0.1004366250E+01   0.1004366250E+01   0.4500000000E-02  -0.1122750000E-02  -0.1122750000E-02  -0.2200000000E-01   0.5489000000E-02   0.5489000000E-02  -0.4375000006E+01   0.3684993541E-13   0.3361881355E-13  -0.3065906460E-14  -0.3113324740E-14   0.3167715280E-14  -0.8750000011E-02   0.4366250006E-02   0.4366250006E-02   0.1028372540E-14  -0.3823854317E-16  -0.1249141414E-14   0.4375000006E+01
     1     2     3     4     5     6     7     8
     2     9    10     3     6    11    12     7
 VARIABLES = X,Y,Z,DU1,DU2,DU3,U1,U2,U3,S11,S22,S33,S12,S13,S23,E11,E22,E33,E12,E13,E23,SMISES
 ZONE, T="0.2300D+01" F=FEPOINT, I=   12 J=    2 ET=BRICK
   0.0000000000E+00   0.0000000000E+00   0.0000000000E+00   0.0000000000E+00   0.0000000000E+00   0.0000000000E+00   0.0000000000E+00   0.0000000000E+00   0.0000000000E+00  -0.3250000005E+01   0.1514180070E-12   0.1537386390E-12   0.1226581412E-16   0.6515658805E-15  -0.3504658114E-14  -0.6500000010E-02   0.3243500005E-02   0.3243500005E-02   0.5438661066E-18   0.5593438754E-15   0.9373476173E-15   0.3250000005E+01
   0.9935000000E+00   0.0000000000E+00   0.1320840888E-15   0.2250000000E-02   0.0000000000E+00   0.1349635818E-17  -0.8750000000E-02   0.0000000000E+00   0.1307344530E-15  -0.3250000005E+01  -0.4567275284E-13  -0.4176878983E-13  -0.1422805422E-14  -0.1169453929E-15  -0.2716985781E-14  -0.6500000010E-02   0.3243500005E-02   0.3243500005E-02   0.8705252847E-15   0.2613904170E-15   0.8603636628E-15   0.3250000005E+01
   0.9935000000E+00   0.1003243500E+01   0.5616048184E-15   0.2250000000E-02  -0.1122750000E-02   0.3279948735E-18  -0.8750000000E-02   0.4366250000E-02   0.5612768235E-15  -0.3250000005E+01  -0.1007786724E-13  -0.3986410534E-14  -0.1164411203E-14  -0.1564842157E-15   0.1460762181E-14  -0.6500000009E-02   0.3243500005E-02   0.3243500005E-02   0.7957833267E-15  -0.5101750792E-16   0.2480560105E-15   0.3250000005E+01
   0.0000000000E+00   0.1003243500E+01   0.4693623769E-15   0.0000000000E+00  -0.1122750000E-02  -0.4102621899E-18   0.0000000000E+00   0.4366250000E-02   0.4697726391E-15  -0.3250000005E+01  -0.3453592260E-13  -0.2619592580E-13   0.2010238306E-15   0.1150861853E-14   0.4451876671E-15  -0.6500000009E-02   0.3243500005E-02   0.3243500005E-02   0.5044026694E-15   0.6069502342E-15   0.2962747816E-15   0.3250000005E+01
   0.0000000000E+00   0.0000000000E+00   0.1003243500E+01   0.0000000000E+00   0.0000000000E+00  -0.1122750000E-02   0.0000000000E+00   0.0000000000E+00   0.4366250000E-02  -0.3250000005E+01  -0.3267134185E-13  -0.4013045398E-13  -0.1308211942E-15   0.2428521539E-14  -0.9545630241E-15  -0.6500000009E-02   0.3243500005E-02   0.3243500005E-02  -0.9979291949E-18   0.2470891679E-16   0.1160645607E-15   0.3250000005E+01
   0.9935000000E+00   0.0000000000E+00   0.1003243500E+01   0.2250000000E-02   0.0000000000E+00  -0.1122750000E-02  -0.8750000000E-02   0.0000000000E+00   0.4366250000E-02  -0.3250000005E+01  -0.1741309852E-13  -0.2052794908E-13  -0.1881806415E-14   0.9168832775E-15  -0.2032304126E-14  -0.6500000009E-02   0.3243500005E-02   0.3243500005E-02   0.8934226651E-15   0.3504724261E-15  -0.1253881454E-16   0.3250000005E+01
   0.9935000000E+00   0.1003243500E+01   0.1003243500E+01   0.2250000000E-02  -0.1122750000E-02  -0.1122750000E-02  -0.8750000000E-02   0.4366250000E-02   0.4366250000E-02  -0.3250000004E+01   0.2653471623E-13   0.2235718326E-13  -0.1312930564E-14  -0.8640318423E-15   0.1966496267E-14  -0.6500000009E-02   0.3243500004E-02   0.3243500004E-02   0.8262629113E-15  -0.9119599253E-17  -0.6170068811E-15   0.3250000004E+01
   0.0000000000E+00   0.1003243500E+01   0.1003243500E+01   0.0000000000E+00  -0.1122750000E-02  -0.1122750000E-02   0.0000000000E+00   0.4366250000E-02   0.4366250000E-02  -0.3250000004E+01  -0.6156049450E-14  -0.6449599730E-14   0.8452655050E-16   0.5319185728E-15   0.3630201904E-14  -0.6500000009E-02   0.3243500004E-02   0.3243500004E-02   0.5528279367E-15   0.2031228062E-16  -0.5305169183E-15   0.3250000004E+01
   0.1987000000E+01   0.0000000000E+00  -0.3210686212E-15   0.4500000000E-02   0.0000000000E+00   0.2008599853E-17  -0.1750000000E-01   0.0000000000E+00  -0.3230772210E-15  -0.3250000005E+01  -0.1062327195E-12  -0.1036399764E-12   0.6672188909E-16   0.1577385778E-15  -0.1944476312E-14  -0.6500000010E-02   0.3243500005E-02   0.3243500005E-02   0.1641300098E-14  -0.2053063640E-16   0.2483926774E-15   0.3250000005E+01
   0.1987000000E+01   0.1003243500E+01  -0.1958843975E-15   0.4500000000E-02  -0.1122750000E-02   0.3314240953E-17  -0.1750000000E-01   0.4366250000E-02  -0.1991986384E-15  -0.3250000005E+01   0.3747945465E-14   0.5523429746E-14   0.1724065712E-14  -0.2863096234E-14   0.3194750227E-14  -0.6500000009E-02   0.3243500005E-02   0.3243500005E-02   0.9911931764E-15  -0.7172434662E-15  -0.3706991653E-15   0.3250000005E+01
   0.1987000000E+01   0.0000000000E+00   0.1003243500E+01   0.4500000000E-02   0.0000000000E+00  -0.1122750000E-02  -0.1750000000E-01   0.0000000000E+00   0.4366250000E-02  -0.3250000005E+01   0.7847322123E-13   0.6830932789E-13  -0.4286468737E-14   0.1108245607E-14  -0.1470104971E-14  -0.6500000009E-02   0.3243500005E-02   0.3243500005E-02   0.1707972851E-14   0.6484620829E-15  -0.6231409667E-15   0.3250000005E+01
   0.1987000000E+01   0.1003243500E+01   0.1003243500E+01   0.4500000000E-02  -0.1122750000E-02  -0.1122750000E-02  -0.1750000000E-01   0.4366250000E-02   0.4366250000E-02  -0.3250000004E+01  -0.4538413011E-13  -0.4901272589E-13  -0.3202507953E-14  -0.3149393301E-14   0.3086861408E-14  -0.6500000008E-02   0.3243500004E-02   0.3243500004E-02   0.1032570108E-14  -0.1857528921E-16  -0.1253297804E-14   0.3250000004E+01
     1     2     3     4     5     6     7     8
     2     9    10     3     6    11    12     7
 VARIABLES = X,Y,Z,DU1,DU2,DU3,U1,U2,U3,S11,S22,S33,S12,S13,S23,E11,E22,E33,E12,E13,E23,SMISES
 ZONE, T="0.2350D+01" F=FEPOINT, I=   12 J=    2 ET=BRICK
   0.0000000000E+00   0.0000000000E+00   0.0000000000E+00   0.0000000000E+00   0.0000000000E+00   0.0000000000E+00   0.0000000000E+00   0.0000000000E+00   0.0000000000E+00  -0.2125000003E+01   0.8792554518E-13   0.9028508839E-13   0.3223029700E-16   0.4543067249E-15  -0.3712587857E-14  -0.4250000007E-02   0.2120750003E-02   0.2120750003E-02   0.1021591151E-17   0.5551030761E-15   0.9362295275E-15   0.2125000003E+01
   0.9957500000E+00   0.0000000000E+00   0.1315689649E-15   0.2250000000E-02   0.0000000000E+00  -0.5151239168E-18  -0.6500000000E-02   0.0000000000E+00   0.1320840888E-15  -0.2125000003E+01   0.2401529376E-13   0.2827064939E-13  -0.1388743554E-14   0.1143979396E-15  -0.2708391007E-14  -0.4250000007E-02   0.2120750003E-02   0.2120750003E-02   0.8702807762E-15   0.2693726660E-15   0.8603139532E-15   0.2125000003E+01
   0.9957500000E+00   0.1002120750E+01   0.5610966496E-15   0.2250000000E-02  -0.1122750000E-02  -0.5081687461E-18  -0.6500000000E-02   0.3243500000E-02   0.5616048184E-15  -0.2125000003E+01  -0.1054415945E-13  -0.4206888079E-14  -0.1145809706E-14  -0.1049688996E-16   0.1535167640E-14  -0.4250000006E-02   0.2120750003E-02   0.2120750003E-02   0.7953083480E-15  -0.5584526479E-16   0.2483443221E-15   0.2125000003E+01
   0.0000000000E+00   0.1002120750E+01   0.4680535995E-15   0.0000000000E+00  -0.1122750000E-02  -0.1308777390E-17   0.0000000000E+00   0.3243500000E-02   0.4693623769E-15  -0.2125000003E+01  -0.4578663063E-13  -0.3689995582E-13   0.1763702261E-15   0.1218025423E-14   0.3342356451E-15  -0.4250000006E-02   0.2120750003E-02   0.2120750003E-02   0.5050607677E-15   0.6104156909E-15   0.2941426292E-15   0.2125000003E+01
   0.0000000000E+00   0.0000000000E+00   0.1002120750E+01   0.0000000000E+00   0.0000000000E+00  -0.1122750000E-02   0.0000000000E+00   0.0000000000E+00   0.3243500000E-02  -0.2125000003E+01  -0.3598127241E-16  -0.7928756322E-14  -0.1349279988E-15   0.2408330666E-14  -0.8866433825E-15  -0.4250000006E-02   0.2120750003E-02   0.2120750003E-02   0.7548409342E-20   0.2923496230E-16   0.1175772047E-15   0.2125000003E+01
   0.9957500000E+00   0.0000000000E+00   0.1002120750E+01   0.2250000000E-02   0.0000000000E+00  -0.1122750000E-02  -0.6500000000E-02   0.0000000000E+00   0.3243500000E-02  -0.2125000003E+01   0.4787388147E-13   0.4502370523E-13  -0.2025735343E-14   0.1315671481E-14  -0.2122791135E-14  -0.4250000006E-02   0.2120750003E-02   0.2120750003E-02   0.8883050780E-15   0.3472768104E-15  -0.1264227471E-16   0.2125000003E+01
   0.9957500000E+00   0.1002120750E+01   0.1002120750E+01   0.2250000000E-02  -0.1122750000E-02  -0.1122750000E-02  -0.6500000000E-02   0.3243500000E-02   0.3243500000E-02  -0.2125000003E+01  -0.3171258488E-13  -0.3589755493E-13  -0.1434850206E-14  -0.1087824178E-14   0.2040357931E-14  -0.4250000006E-02   0.2120750003E-02   0.2120750003E-02   0.8258768392E-15  -0.4031830673E-17  -0.6237559596E-15   0.2125000003E+01
   0.0000000000E+00   0.1002120750E+01   0.1002120750E+01   0.0000000000E+00  -0.1122750000E-02  -0.1122750000E-02   0.0000000000E+00   0.3243500000E-02   0.3243500000E-02  -0.2125000003E+01   0.1056221908E-12   0.1054860111E-12  -0.5094372697E-16   0.4993691400E-15   0.3820752453E-14  -0.4250000006E-02   0.2120750003E-02   0.2120750003E-02   0.5522673734E-15   0.1443840120E-16  -0.5268836781E-15   0.2125000003E+01
   0.1991500000E+01   0.0000000000E+00  -0.3188667520E-15   0.4500000000E-02   0.0000000000E+00   0.2201869183E-17  -0.1300000000E-01   0.0000000000E+00  -0.3210686212E-15  -0.2125000003E+01  -0.6635576892E-13  -0.6400910748E-13  -0.2066961059E-15   0.3041805095E-15  -0.2180331534E-14  -0.4250000006E-02   0.2120750003E-02   0.2120750003E-02   0.1636108774E-14  -0.3197793061E-16   0.2469485397E-15   0.2125000003E+01
   0.1991500000E+01   0.1002120750E+01  -0.1950639195E-15   0.4500000000E-02  -0.1122750000E-02   0.8204779904E-18  -0.1300000000E-01   0.3243500000E-02  -0.1958843975E-15  -0.2125000003E+01   0.1773014954E-12   0.1794442428E-12   0.1329710834E-14  -0.3144681682E-14   0.3296815998E-14  -0.4250000006E-02   0.2120750003E-02   0.2120750003E-02   0.9857105832E-15  -0.7154454832E-15  -0.3729550409E-15   0.2125000003E+01
   0.1991500000E+01   0.0000000000E+00   0.1002120750E+01   0.4500000000E-02   0.0000000000E+00  -0.1122750000E-02  -0.1300000000E-01   0.0000000000E+00   0.3243500000E-02  -0.2125000003E+01   0.1490706045E-13   0.4130089319E-14  -0.4480061723E-14   0.5748261382E-15  -0.1546721968E-14  -0.4250000006E-02   0.2120750003E-02   0.2120750003E-02   0.1703916523E-14   0.6436817231E-15  -0.6279133830E-15   0.2125000003E+01
   0.1991500000E+01   0.1002120750E+01   0.1002120750E+01   0.4500000000E-02  -0.1122750000E-02  -0.1122750000E-02  -0.1300000000E-01   0.3243500000E-02   0.3243500000E-02  -0.2125000003E+01  -0.1112422568E-12  -0.1152869192E-12  -0.3167381219E-14  -0.3158553596E-14   0.3261108187E-14  -0.4250000005E-02   0.2120750003E-02   0.2120750003E-02   0.1029963536E-14  -0.2763259453E-16  -0.1246829610E-14   0.2125000003E+01
     1     2     3     4     5     6     7     8
     2     9    10     3     6    11    12     7
 VARIABLES = X,Y,Z,DU1,DU2,DU3,U1,U2,U3,S11,S22,S33,S12,S13,S23,E11,E22,E33,E12,E13,E23,SMISES
 ZONE, T="0.2400D+01" F=FEPOINT, I=   12 J=    2 ET=BRICK
   0.0000000000E+00   0.0000000000E+00   0.0000000000E+00   0.0000000000E+00   0.0000000000E+00   0.0000000000E+00   0.0000000000E+00   0.0000000000E+00   0.0000000000E+00  -0.1000000002E+01  -0.1535035740E-12  -0.1510379058E-12   0.5651088180E-16   0.4576731128E-15  -0.3779335984E-14  -0.2000000003E-02   0.9980000016E-03   0.9980000016E-03   0.3287463205E-18   0.5542957577E-15   0.9351484381E-15   0.1000000002E+01
   0.9980000000E+00   0.0000000000E+00   0.1318330725E-15   0.2250000000E-02   0.0000000000E+00   0.2641076538E-18  -0.4250000000E-02   0.0000000000E+00   0.1315689649E-15  -0.1000000002E+01   0.4637360314E-13   0.5056093094E-13  -0.1006667302E-14   0.2968104502E-15  -0.2722221897E-14  -0.2000000003E-02   0.9980000015E-03   0.9980000015E-03   0.8755572529E-15   0.2725604586E-15   0.8579580682E-15   0.1000000002E+01
   0.9980000000E+00   0.1000998000E+01   0.5611738695E-15   0.2250000000E-02  -0.1122750000E-02   0.7721988550E-19  -0.4250000000E-02   0.2120750000E-02   0.5610966496E-15  -0.1000000001E+01   0.2171297413E-13   0.2820326585E-13  -0.7597704164E-15  -0.3236607828E-15   0.1473151872E-14  -0.2000000003E-02   0.9980000014E-03   0.9980000014E-03   0.8008947198E-15  -0.6211908684E-16   0.2513504837E-15   0.1000000001E+01
   0.0000000000E+00   0.1000998000E+01   0.4676989654E-15   0.0000000000E+00  -0.1122750000E-02  -0.3546341700E-18   0.0000000000E+00   0.2120750000E-02   0.4680535995E-15  -0.1000000001E+01   0.1019646618E-12   0.1108774153E-12   0.2874006121E-15   0.1274301162E-14   0.5021903123E-15  -0.2000000003E-02   0.9980000015E-03   0.9980000015E-03   0.5069552580E-15   0.6123658201E-15   0.2934165944E-15   0.1000000001E+01
   0.0000000000E+00   0.0000000000E+00   0.1000998000E+01   0.0000000000E+00   0.0000000000E+00  -0.1122750000E-02   0.0000000000E+00   0.0000000000E+00   0.2120750000E-02  -0.1000000001E+01   0.7509776404E-14  -0.6565199998E-15  -0.1438388759E-15   0.2379731869E-14  -0.1052392346E-14  -0.2000000003E-02   0.9980000015E-03   0.9980000015E-03   0.5628943175E-18   0.2677577693E-16   0.1168228084E-15   0.1000000001E+01
   0.9980000000E+00   0.0000000000E+00   0.1000998000E+01   0.2250000000E-02   0.0000000000E+00  -0.1122750000E-02  -0.4250000000E-02   0.0000000000E+00   0.2120750000E-02  -0.1000000001E+01  -0.5354073475E-13  -0.5644306831E-13  -0.2091644458E-14   0.1728115542E-14  -0.2084664526E-14  -0.2000000003E-02   0.9980000014E-03   0.9980000014E-03   0.8862536638E-15   0.3525205491E-15  -0.1237368065E-16   0.1000000001E+01
   0.9980000000E+00   0.1000998000E+01   0.1000998000E+01   0.2250000000E-02  -0.1122750000E-02  -0.1122750000E-02  -0.4250000000E-02   0.2120750000E-02   0.2120750000E-02  -0.1000000001E+01  -0.1495117032E-13  -0.1914194939E-13  -0.1518072166E-14  -0.1384001872E-14   0.2152703680E-14  -0.2000000003E-02   0.9980000013E-03   0.9980000013E-03   0.8259350971E-15  -0.1374487677E-16  -0.6213221759E-15   0.1000000001E+01
   0.0000000000E+00   0.1000998000E+01   0.1000998000E+01   0.0000000000E+00  -0.1122750000E-02  -0.1122750000E-02   0.0000000000E+00   0.2120750000E-02   0.2120750000E-02  -0.1000000001E+01  -0.3900609167E-13  -0.3940848913E-13  -0.8995531659E-16   0.7091101841E-15   0.3815884006E-14  -0.2000000003E-02   0.9980000013E-03   0.9980000013E-03   0.5500944913E-15   0.2183620063E-16  -0.5234826716E-15   0.1000000001E+01
   0.1996000000E+01   0.0000000000E+00  -0.3174039555E-15   0.4500000000E-02   0.0000000000E+00   0.1462796494E-17  -0.8500000000E-02   0.0000000000E+00  -0.3188667520E-15  -0.1000000002E+01   0.1451864894E-12   0.1485211113E-12  -0.4860857447E-15  -0.1097022237E-16  -0.2265970273E-14  -0.2000000003E-02   0.9980000015E-03   0.9980000015E-03   0.1633388558E-14  -0.3963928318E-16   0.2474851983E-15   0.1000000002E+01
   0.1996000000E+01   0.1000998000E+01  -0.1939362214E-15   0.4500000000E-02  -0.1122750000E-02   0.1127698019E-17  -0.8500000000E-02   0.2120750000E-02  -0.1950639195E-15  -0.1000000001E+01  -0.1428481473E-12  -0.1402108303E-12   0.7091711859E-15  -0.2998549733E-14   0.3635762639E-14  -0.2000000003E-02   0.9980000014E-03   0.9980000014E-03   0.9764973724E-15  -0.7089738170E-15  -0.3719396090E-15   0.1000000001E+01
   0.1996000000E+01   0.0000000000E+00   0.1000998000E+01   0.4500000000E-02   0.0000000000E+00  -0.1122750000E-02  -0.8500000000E-02   0.0000000000E+00   0.2120750000E-02  -0.1000000001E+01  -0.5268432893E-13  -0.6341055266E-13  -0.3959423729E-14   0.3725867980E-15  -0.1740621321E-14  -0.2000000003E-02   0.9980000014E-03   0.9980000014E-03   0.1709064557E-14   0.6427949409E-15  -0.6310703836E-15   0.1000000001E+01
   0.1996000000E+01   0.1000998000E+01   0.1000998000E+01   0.4500000000E-02  -0.1122750000E-02  -0.1122750000E-02  -0.8500000000E-02   0.2120750000E-02   0.2120750000E-02  -0.1000000001E+01   0.4709487340E-13   0.4303615088E-13  -0.2666887809E-14  -0.3064654086E-14   0.3293642284E-14  -0.2000000003E-02   0.9980000013E-03   0.9980000013E-03   0.1033167592E-14  -0.2571582146E-16  -0.1244068442E-14   0.1000000001E+01
     1     2     3     4     5     6     7     8
     2     9    10     3     6    11    12     7
 VARIABLES = X,Y,Z,DU1,DU2,DU3,U1,U2,U3,S11,S22,S33,S12,S13,S23,E11,E22,E33,E12,E13,E23,SMISES
 ZONE, T="0.2450D+01" F=FEPOINT, I=   12 J=    2 ET=BRICK
   0.0000000000E+00   0.0000000000E+00   0.0000000000E+00   0.0000000000E+00   0.0000000000E+00   0.0000000000E+00   0.0000000000E+00   0.0000000000E+00   0.0000000000E+00   0.1250000002E+00   0.6085529598E-13   0.6338187856E-13   0.1163549872E-15   0.4637830212E-15  -0.3716926188E-14   0.2500000004E-03  -0.1247500002E-03  -0.1247500002E-03   0.4685589524E-18   0.5549410960E-15   0.9365616305E-15   0.1250000002E+00
   0.1000250000E+01   0.0000000000E+00   0.1320187961E-15   0.2250000000E-02   0.0000000000E+00   0.1857235306E-18  -0.2000000000E-02   0.0000000000E+00   0.1318330725E-15   0.1250000002E+00   0.5308375230E-13   0.5736531115E-13  -0.1465961188E-14   0.1883541871E-15  -0.2665023659E-14   0.2500000004E-03  -0.1247500002E-03  -0.1247500002E-03   0.8710962026E-15   0.2685756065E-15   0.8593508144E-15   0.1250000002E+00
   0.1000250000E+01   0.9998752500E+00   0.5615714507E-15   0.2250000000E-02  -0.1122750000E-02   0.3975812258E-18  -0.2000000000E-02   0.9980000000E-03   0.5611738695E-15   0.1250000002E+00  -0.1054138388E-12  -0.9896108825E-13  -0.1071958138E-14  -0.1001816140E-15   0.1501919156E-14   0.2500000004E-03  -0.1247500002E-03  -0.1247500002E-03   0.7974327817E-15  -0.5915926784E-16   0.2502580759E-15   0.1250000002E+00
   0.0000000000E+00   0.9998752500E+00   0.4682577320E-15   0.0000000000E+00  -0.1122750000E-02   0.5587665788E-18   0.0000000000E+00   0.9980000000E-03   0.4676989654E-15   0.1250000002E+00  -0.8223412828E-13  -0.7336964792E-13   0.1357270110E-15   0.1298350472E-14   0.6105865314E-15   0.2500000004E-03  -0.1247500002E-03  -0.1247500002E-03   0.5053804677E-15   0.6119344550E-15   0.2946101505E-15   0.1250000002E+00
   0.0000000000E+00   0.0000000000E+00   0.9998752500E+00   0.0000000000E+00   0.0000000000E+00  -0.1122750000E-02   0.0000000000E+00   0.0000000000E+00   0.9980000000E-03   0.1250000002E+00  -0.5620137433E-13  -0.6410416739E-13  -0.2087548001E-15   0.2358218916E-14  -0.1059143589E-14   0.2500000004E-03  -0.1247500002E-03  -0.1247500002E-03  -0.7546771384E-18   0.2812019277E-16   0.1162032354E-15   0.1250000002E+00
   0.1000250000E+01   0.0000000000E+00   0.9998752500E+00   0.2250000000E-02   0.0000000000E+00  -0.1122750000E-02  -0.2000000000E-02   0.0000000000E+00   0.9980000000E-03   0.1250000002E+00  -0.2696834539E-13  -0.2985842027E-13  -0.1790229235E-14   0.1276786519E-14  -0.2092949965E-14   0.2500000004E-03  -0.1247500002E-03  -0.1247500002E-03   0.8910977897E-15   0.3457944140E-15  -0.1328764332E-16   0.1250000002E+00
   0.1000250000E+01   0.9998752500E+00   0.9998752500E+00   0.2250000000E-02  -0.1122750000E-02  -0.1122750000E-02  -0.2000000000E-02   0.9980000000E-03   0.9980000000E-03   0.1250000002E+00   0.4035238217E-13   0.3603168120E-13  -0.1330095468E-14  -0.1026909312E-14   0.2218955990E-14   0.2500000003E-03  -0.1247500002E-03  -0.1247500002E-03   0.8277200449E-15  -0.7774283421E-17  -0.6187658067E-15   0.1250000002E+00
   0.0000000000E+00   0.9998752500E+00   0.9998752500E+00   0.0000000000E+00  -0.1122750000E-02  -0.1122750000E-02   0.0000000000E+00   0.9980000000E-03   0.9980000000E-03   0.1250000002E+00   0.6698385222E-13   0.6671634842E-13  -0.1466416549E-16   0.6068519652E-15   0.3716172823E-14   0.2500000003E-03  -0.1247500002E-03  -0.1247500002E-03   0.5514440086E-15   0.1964241766E-16  -0.5273971753E-15   0.1250000002E+00
   0.2000500000E+01   0.0000000000E+00  -0.3178205164E-15   0.4500000000E-02   0.0000000000E+00  -0.4165609433E-18  -0.4000000000E-02   0.0000000000E+00  -0.3174039555E-15   0.1250000002E+00   0.4174119663E-13   0.4449065294E-13  -0.6252063583E-15   0.1937686664E-15  -0.2223578800E-14   0.2500000004E-03  -0.1247500002E-03  -0.1247500002E-03   0.1633266828E-14  -0.3634547807E-16   0.2475796694E-15   0.1250000002E+00
   0.2000500000E+01   0.9998752500E+00  -0.1940438092E-15   0.4500000000E-02  -0.1122750000E-02  -0.1075877477E-18  -0.4000000000E-02   0.9980000000E-03  -0.1939362214E-15   0.1250000002E+00  -0.6130660938E-13  -0.5922146478E-13   0.8524596522E-15  -0.2814411701E-14   0.3494202175E-14   0.2500000003E-03  -0.1247500002E-03  -0.1247500002E-03   0.9795681060E-15  -0.7095067332E-15  -0.3723691197E-15   0.1250000002E+00
   0.2000500000E+01   0.0000000000E+00   0.9998752500E+00   0.4500000000E-02   0.0000000000E+00  -0.1122750000E-02  -0.4000000000E-02   0.0000000000E+00   0.9980000000E-03   0.1250000002E+00  -0.5574396517E-13  -0.6656840430E-13  -0.3901313595E-14   0.4647356883E-15  -0.1678400975E-14   0.2500000003E-03  -0.1247500002E-03  -0.1247500002E-03   0.1708974563E-14   0.6425815353E-15  -0.6290318121E-15   0.1250000002E+00
   0.2000500000E+01   0.9998752500E+00   0.9998752500E+00   0.4500000000E-02  -0.1122750000E-02  -0.1122750000E-02  -0.4000000000E-02   0.9980000000E-03   0.9980000000E-03   0.1250000002E+00  -0.1449704737E-13  -0.1862238663E-13  -0.2864437008E-14  -0.3063041170E-14   0.3023593296E-14   0.2500000003E-03  -0.1247500002E-03  -0.1247500002E-03   0.1031236414E-14  -0.2536759183E-16  -0.1250454405E-14   0.1250000002E+00
     1     2     3     4     5     6     7     8
     2     9    10     3     6    11    12     7
 VARIABLES = X,Y,Z,DU1,DU2,DU3,U1,U2,U3,S11,S22,S33,S12,S13,S23,E11,E22,E33,E12,E13,E23,SMISES
 ZONE, T="0.2500D+01" F=FEPOINT, I=   12 J=    2 ET=BRICK
   0.0000000000E+00   0.0000000000E+00   0.0000000000E+00   0.0000000000E+00   0.0000000000E+00   0.0000000000E+00   0.0000000000E+00   0.0000000000E+00   0.0000000000E+00   0.1250000002E+01   0.4363118719E-13   0.4600020909E-13   0.9276261343E-16   0.6064685070E-15  -0.3844998840E-14   0.2500000004E-02  -0.1247500002E-02  -0.1247500002E-02  -0.1289975271E-18   0.5560554849E-15   0.9353810883E-15   0.1250000002E+01
   0.1002500000E+01   0.0000000000E+00   0.1327222501E-15   0.2250000000E-02   0.0000000000E+00   0.7034540582E-18   0.2500000000E-03   0.0000000000E+00   0.1320187961E-15   0.1250000002E+01  -0.8553168209E-13  -0.8138326550E-13  -0.1075316141E-14   0.3836144399E-15  -0.2825223733E-14   0.2500000004E-02  -0.1247500002E-02  -0.1247500002E-02   0.8761156998E-15   0.2721862269E-15   0.8569063479E-15   0.1250000002E+01
   0.1002500000E+01   0.9987525000E+00   0.5611025757E-15   0.2250000000E-02  -0.1122750000E-02  -0.4688750351E-18   0.2500000000E-03  -0.1247500000E-03   0.5615714507E-15   0.1250000002E+01   0.8357486064E-13   0.9007903015E-13  -0.7093692364E-15  -0.4568181714E-15   0.1281436854E-14   0.2500000004E-02  -0.1247500002E-02  -0.1247500002E-02   0.8021563053E-15  -0.6158081818E-16   0.2489093528E-15   0.1250000002E+01
   0.0000000000E+00   0.9987525000E+00   0.4677187212E-15   0.0000000000E+00  -0.1122750000E-02  -0.5390107796E-18   0.0000000000E+00  -0.1247500000E-03   0.4682577320E-15   0.1250000002E+01   0.4716901217E-13   0.5606131364E-13   0.2017793495E-15   0.1267912032E-14   0.6744375152E-15   0.2500000004E-02  -0.1247500002E-02  -0.1247500002E-02   0.5061002870E-15   0.6104047735E-15   0.2941930085E-15   0.1250000002E+01
   0.0000000000E+00   0.0000000000E+00   0.9987525000E+00   0.0000000000E+00   0.0000000000E+00  -0.1122750000E-02   0.0000000000E+00   0.0000000000E+00  -0.1247500000E-03   0.1250000002E+01  -0.1038695375E-13  -0.1836317790E-13  -0.1901567696E-15   0.2439651522E-14  -0.1166725269E-14   0.2500000004E-02  -0.1247500002E-02  -0.1247500002E-02   0.1730730454E-18   0.2910292723E-16   0.1150671457E-15   0.1250000002E+01
   0.1002500000E+01   0.0000000000E+00   0.9987525000E+00   0.2250000000E-02   0.0000000000E+00  -0.1122750000E-02   0.2500000000E-03   0.0000000000E+00  -0.1247500000E-03   0.1250000002E+01   0.8518162930E-14   0.5253281149E-14  -0.2092726884E-14   0.1467304460E-14  -0.2218384024E-14   0.2500000004E-02  -0.1247500002E-02  -0.1247500002E-02   0.8863783518E-15   0.3474944331E-15  -0.1370939740E-16   0.1250000002E+01
   0.1002500000E+01   0.9987525000E+00   0.9987525000E+00   0.2250000000E-02  -0.1122750000E-02  -0.1122750000E-02   0.2500000000E-03  -0.1247500000E-03  -0.1247500000E-03   0.1250000002E+01  -0.2990845646E-13  -0.3412055042E-13  -0.1637775529E-14  -0.1339714958E-14   0.2233973170E-14   0.2500000003E-02  -0.1247500002E-02  -0.1247500002E-02   0.8235192605E-15  -0.1131355683E-16  -0.6212280469E-15   0.1250000002E+01
   0.0000000000E+00   0.9987525000E+00   0.9987525000E+00   0.0000000000E+00  -0.1122750000E-02  -0.1122750000E-02   0.0000000000E+00  -0.1247500000E-03  -0.1247500000E-03   0.1250000002E+01  -0.1126848088E-13  -0.1189006726E-13  -0.2143815915E-16   0.6601140676E-15   0.3659756328E-14   0.2500000003E-02  -0.1247500002E-02  -0.1247500002E-02   0.5516686034E-15   0.2075534821E-16  -0.5262312189E-15   0.1250000002E+01
   0.2005000000E+01   0.0000000000E+00  -0.3174714782E-15   0.4500000000E-02   0.0000000000E+00   0.3490382078E-18   0.5000000000E-03   0.0000000000E+00  -0.3178205164E-15   0.1250000002E+01  -0.1757995643E-12  -0.1726032222E-12  -0.1105759358E-15   0.6721617923E-15  -0.2038507218E-14   0.2500000004E-02  -0.1247500002E-02  -0.1247500002E-02   0.1638459330E-14  -0.3692763978E-16   0.2497918308E-15   0.1250000002E+01
   0.2005000000E+01   0.9987525000E+00  -0.1926232616E-15   0.4500000000E-02  -0.1122750000E-02   0.1420547580E-17   0.5000000000E-03  -0.1247500000E-03  -0.1940438092E-15   0.1250000002E+01   0.6721729100E-13   0.6982300039E-13   0.1262016471E-14  -0.3350340079E-14   0.3829266403E-14   0.2500000003E-02  -0.1247500002E-02  -0.1247500002E-02   0.9842418321E-15  -0.7139195319E-15  -0.3686028448E-15   0.1250000002E+01
   0.2005000000E+01   0.0000000000E+00   0.9987525000E+00   0.4500000000E-02   0.0000000000E+00  -0.1122750000E-02   0.5000000000E-03   0.0000000000E+00  -0.1247500000E-03   0.1250000002E+01   0.1203766119E-12   0.1094880714E-12  -0.4463168758E-14   0.7897871305E-15  -0.1442894222E-14   0.2500000003E-02  -0.1247500002E-02  -0.1247500002E-02   0.1702502992E-14   0.6480465324E-15  -0.6262807866E-15   0.1250000002E+01
   0.2005000000E+01   0.9987525000E+00   0.9987525000E+00   0.4500000000E-02  -0.1122750000E-02  -0.1122750000E-02   0.5000000000E-03  -0.1247500000E-03  -0.1247500000E-03   0.1250000002E+01  -0.8792415663E-13  -0.9212995700E-13  -0.3370532756E-14  -0.3471267726E-14   0.3399273184E-14   0.2500000003E-02  -0.1247500002E-02  -0.1247500002E-02   0.1025307881E-14  -0.2703437094E-16  -0.1244840853E-14   0.1250000002E+01
     1     2     3     4     5     6     7     8
     2     9    10     3     6    11    12     7
 VARIABLES = X,Y,Z,DU1,DU2,DU3,U1,U2,U3,S11,S22,S33,S12,S13,S23,E11,E22,E33,E12,E13,E23,SMISES
 ZONE, T="0.2550D+01" F=FEPOINT, I=   12 J=    2 ET=BRICK
   0.0000000000E+00   0.0000000000E+00   0.0000000000E+00   0.0000000000E+00   0.0000000000E+00   0.0000000000E+00   0.0000000000E+00   0.0000000000E+00   0.0000000000E+00   0.2375000004E+01  -0.8056191824E-14  -0.5724768889E-14   0.1014015623E-15   0.4191950371E-15  -0.3891236477E-14   0.4750000007E-02  -0.2370250004E-02  -0.2370250004E-02  -0.1962283240E-18   0.5543693514E-15   0.9344301036E-15   0.2375000004E+01
   0.1004750000E+01   0.0000000000E+00   0.1321350901E-15   0.2250000000E-02   0.0000000000E+00  -0.5871600271E-18   0.2500000000E-02   0.0000000000E+00   0.1327222501E-15   0.2375000004E+01   0.3456208689E-13   0.3881272762E-13  -0.1297684953E-14   0.3133942281E-15  -0.2701614214E-14   0.4750000007E-02  -0.2370250004E-02  -0.2370250004E-02   0.8741106073E-15   0.2709794687E-15   0.8586201093E-15   0.2375000004E+01
   0.1004750000E+01   0.9976297500E+00   0.5614172608E-15   0.2250000000E-02  -0.1122750000E-02   0.3146850415E-18   0.2500000000E-02  -0.1247500000E-02   0.5611025757E-15   0.2375000003E+01   0.2148156581E-13   0.2812487789E-13  -0.7893851853E-15  -0.3610369711E-15   0.1573061483E-14   0.4750000007E-02  -0.2370250003E-02  -0.2370250003E-02   0.8004548046E-15  -0.5979174385E-16   0.2520061746E-15   0.2375000003E+01
   0.0000000000E+00   0.9976297500E+00   0.4672721380E-15   0.0000000000E+00  -0.1122750000E-02  -0.4465832007E-18   0.0000000000E+00  -0.1247500000E-02   0.4677187212E-15   0.2375000003E+01  -0.4761959314E-14   0.4601372877E-14   0.2253482336E-15   0.1447709047E-14   0.6787186669E-15   0.4750000007E-02  -0.2370250003E-02  -0.2370250003E-02   0.5067759263E-15   0.6119705832E-15   0.2937359615E-15   0.2375000003E+01
   0.0000000000E+00   0.0000000000E+00   0.9976297500E+00   0.0000000000E+00   0.0000000000E+00  -0.1122750000E-02   0.0000000000E+00   0.0000000000E+00  -0.1247500000E-02   0.2375000003E+01  -0.3562022679E-13  -0.4382312580E-13  -0.2258975893E-15   0.2459294922E-14  -0.1173069203E-14   0.4750000007E-02  -0.2370250003E-02  -0.2370250003E-02   0.2220007985E-18   0.2809675011E-16   0.1159929304E-15   0.2375000003E+01
   0.1004750000E+01   0.0000000000E+00   0.9976297500E+00   0.2250000000E-02   0.0000000000E+00  -0.1122750000E-02   0.2500000000E-02   0.0000000000E+00  -0.1247500000E-02   0.2375000003E+01  -0.3200476655E-13  -0.3516098351E-13  -0.2061391042E-14   0.1483718001E-14  -0.2209040508E-14   0.4750000007E-02  -0.2370250003E-02  -0.2370250003E-02   0.8855182514E-15   0.3492055768E-15  -0.1314524112E-16   0.2375000003E+01
   0.1004750000E+01   0.9976297500E+00   0.9976297500E+00   0.2250000000E-02  -0.1122750000E-02  -0.1122750000E-02   0.2500000000E-02  -0.1247500000E-02  -0.1247500000E-02   0.2375000003E+01   0.1780136121E-13   0.1356015061E-13  -0.1639775384E-14  -0.1200732997E-14   0.2289507514E-14   0.4750000006E-02  -0.2370250003E-02  -0.2370250003E-02   0.8251280850E-15  -0.1192660711E-16  -0.6212815929E-15   0.2375000003E+01
   0.0000000000E+00   0.9976297500E+00   0.9976297500E+00   0.0000000000E+00  -0.1122750000E-02  -0.1122750000E-02   0.0000000000E+00  -0.1247500000E-02  -0.1247500000E-02   0.2375000003E+01  -0.9493721962E-14  -0.9798792549E-14  -0.8849620790E-17   0.7467059395E-15   0.3822414752E-14   0.4750000006E-02  -0.2370250003E-02  -0.2370250003E-02   0.5513226287E-15   0.2282784756E-16  -0.5257074342E-15   0.2375000003E+01
   0.2009500000E+01   0.0000000000E+00  -0.3164561193E-15   0.4500000000E-02   0.0000000000E+00   0.1015358941E-17   0.5000000000E-02   0.0000000000E+00  -0.3174714782E-15   0.2375000004E+01   0.1278846752E-12   0.1312046052E-12  -0.9764000408E-15   0.4820044264E-15  -0.2133850685E-14   0.4750000007E-02  -0.2370250004E-02  -0.2370250004E-02   0.1629140559E-14  -0.4058163069E-16   0.2479735469E-15   0.2375000004E+01
   0.2009500000E+01   0.9976297500E+00  -0.1923120609E-15   0.4500000000E-02  -0.1122750000E-02   0.3112006945E-18   0.5000000000E-02  -0.1247500000E-02  -0.1926232616E-15   0.2375000003E+01   0.6710039991E-14   0.8821678019E-14   0.6474420636E-15  -0.2941401752E-14   0.3552026585E-14   0.4750000007E-02  -0.2370250003E-02  -0.2370250003E-02   0.9765790885E-15  -0.7111945282E-15  -0.3711086205E-15   0.2375000003E+01
   0.2009500000E+01   0.0000000000E+00   0.9976297500E+00   0.4500000000E-02   0.0000000000E+00  -0.1122750000E-02   0.5000000000E-02   0.0000000000E+00  -0.1247500000E-02   0.2375000003E+01   0.2185596182E-13   0.1094356668E-13  -0.3792743461E-14   0.2649651672E-15  -0.1749712697E-14   0.4750000007E-02  -0.2370250003E-02  -0.2370250003E-02   0.1710180513E-14   0.6400959222E-15  -0.6309287295E-15   0.2375000003E+01
   0.2009500000E+01   0.9976297500E+00   0.9976297500E+00   0.4500000000E-02  -0.1122750000E-02  -0.1122750000E-02   0.5000000000E-02  -0.1247500000E-02  -0.1247500000E-02   0.2375000003E+01  -0.3675985545E-13  -0.4112579743E-13  -0.2810110576E-14  -0.3042767643E-14   0.3123880155E-14   0.4750000006E-02  -0.2370250003E-02  -0.2370250003E-02   0.1032064272E-14  -0.2329847285E-16  -0.1247260882E-14   0.2375000003E+01
     1     2     3     4     5     6     7     8
     2     9    10     3     6    11    12     7
 VARIABLES = X,Y,Z,DU1,DU2,DU3,U1,U2,U3,S11,S22,S33,S12,S13,S23,E11,E22,E33,E12,E13,E23,SMISES
 ZONE, T="0.2600D+01" F=FEPOINT, I=   12 J=    2 ET=BRICK
   0.0000000000E+00   0.0000000000E+00   0.0000000000E+00   0.0000000000E+00   0.0000000000E+00   0.0000000000E+00   0.0000000000E+00   0.0000000000E+00   0.0000000000E+00   0.3500000005E+01   0.7695643214E-13   0.7963589381E-13   0.1260585312E-15   0.3839459711E-15  -0.3671155279E-14   0.7000000011E-02  -0.3493000005E-02  -0.3493000005E-02  -0.2122602579E-18   0.5550014355E-15   0.9370247936E-15   0.3500000005E+01
   0.1007000000E+01   0.0000000000E+00   0.1314921339E-15   0.2250000000E-02   0.0000000000E+00  -0.6429561575E-18   0.4750000000E-02   0.0000000000E+00   0.1321350901E-15   0.3500000005E+01   0.2111426754E-13   0.2540282310E-13  -0.1370006136E-14   0.4069869191E-15  -0.2605073835E-14   0.7000000011E-02  -0.3493000005E-02  -0.3493000005E-02   0.8739053070E-15   0.2709866300E-15   0.8601824330E-15   0.3500000005E+01
   0.1007000000E+01   0.9965070000E+00   0.5614265401E-15   0.2250000000E-02  -0.1122750000E-02   0.9279366984E-20   0.4750000000E-02  -0.2370250000E-02   0.5614172608E-15   0.3500000005E+01  -0.5602536060E-13  -0.4969008200E-13  -0.9952872849E-15  -0.3502168157E-15   0.1621695164E-14   0.7000000010E-02  -0.3493000005E-02  -0.3493000005E-02   0.7969698600E-15  -0.6497973338E-16   0.2524118863E-15   0.3500000005E+01
   0.0000000000E+00   0.9965070000E+00   0.4686686989E-15   0.0000000000E+00  -0.1122750000E-02   0.1396560976E-17   0.0000000000E+00  -0.2370250000E-02   0.4672721380E-15   0.3500000005E+01  -0.7237981552E-13  -0.6373251464E-13   0.7181391657E-16   0.1238130059E-14   0.6055054416E-15   0.7000000010E-02  -0.3493000005E-02  -0.3493000005E-02   0.5058302991E-15   0.6110486255E-15   0.2937646679E-15   0.3500000005E+01
   0.0000000000E+00   0.0000000000E+00   0.9965070000E+00   0.0000000000E+00   0.0000000000E+00  -0.1122750000E-02   0.0000000000E+00   0.0000000000E+00  -0.2370250000E-02   0.3500000005E+01  -0.4220987751E-13  -0.5035145631E-13  -0.2215156652E-15   0.2461856778E-14  -0.1082813075E-14   0.7000000010E-02  -0.3493000005E-02  -0.3493000005E-02   0.1090421798E-17   0.3215092271E-16   0.1165620135E-15   0.3500000005E+01
   0.1007000000E+01   0.0000000000E+00   0.9965070000E+00   0.2250000000E-02   0.0000000000E+00  -0.1122750000E-02   0.4750000000E-02   0.0000000000E+00  -0.2370250000E-02   0.3500000005E+01   0.5412438839E-13   0.5141298999E-13  -0.1979670832E-14   0.1561228514E-14  -0.2321130373E-14   0.7000000010E-02  -0.3493000005E-02  -0.3493000005E-02   0.8861935318E-15   0.3449000472E-15  -0.1512355298E-16   0.3500000005E+01
   0.1007000000E+01   0.9965070000E+00   0.9965070000E+00   0.2250000000E-02  -0.1122750000E-02  -0.1122750000E-02   0.4750000000E-02  -0.2370250000E-02  -0.2370250000E-02   0.3500000005E+01   0.3987140908E-13   0.3537966893E-13  -0.1420368004E-14  -0.1196945437E-14   0.2067479247E-14   0.7000000009E-02  -0.3493000005E-02  -0.3493000005E-02   0.8274795935E-15  -0.6561360712E-17  -0.6219566953E-15   0.3500000005E+01
   0.0000000000E+00   0.9965070000E+00   0.9965070000E+00   0.0000000000E+00  -0.1122750000E-02  -0.1122750000E-02   0.0000000000E+00  -0.2370250000E-02  -0.2370250000E-02   0.3500000005E+01  -0.6920650580E-14  -0.7082860097E-14   0.1226532362E-15   0.4445287233E-15   0.3571202618E-14   0.7000000009E-02  -0.3493000005E-02  -0.3493000005E-02   0.5519312907E-15   0.1570328454E-16  -0.5287427769E-15   0.3500000005E+01
   0.2014000000E+01   0.0000000000E+00  -0.3188624829E-15   0.4500000000E-02   0.0000000000E+00  -0.2406363676E-17   0.9500000000E-02   0.0000000000E+00  -0.3164561193E-15   0.3500000005E+01  -0.6932470789E-13  -0.6579624640E-13  -0.7578059711E-15   0.5023170478E-15  -0.2238762646E-14   0.7000000011E-02  -0.3493000005E-02  -0.3493000005E-02   0.1633198116E-14  -0.4036045205E-16   0.2459363119E-15   0.3500000005E+01
   0.2014000000E+01   0.9965070000E+00  -0.1953132829E-15   0.4500000000E-02  -0.1122750000E-02  -0.3001221945E-17   0.9500000000E-02  -0.2370250000E-02  -0.1923120609E-15   0.3500000005E+01  -0.3783517286E-14  -0.1123840189E-14   0.5177526380E-15  -0.3206129413E-14   0.3782764459E-14   0.7000000010E-02  -0.3493000005E-02  -0.3493000005E-02   0.9755068058E-15  -0.7133673203E-15  -0.3678108227E-15   0.3500000005E+01
   0.2014000000E+01   0.0000000000E+00   0.9965070000E+00   0.4500000000E-02   0.0000000000E+00  -0.1122750000E-02   0.9500000000E-02   0.0000000000E+00  -0.2370250000E-02   0.3500000005E+01   0.6111290411E-13   0.4981156626E-13  -0.3487596314E-14   0.1074588940E-15  -0.1845728176E-14   0.7000000010E-02  -0.3493000005E-02  -0.3493000005E-02   0.1710898353E-14   0.6423555439E-15  -0.6302289168E-15   0.3500000005E+01
   0.2014000000E+01   0.9965070000E+00   0.9965070000E+00   0.4500000000E-02  -0.1122750000E-02  -0.1122750000E-02   0.9500000000E-02  -0.2370250000E-02  -0.2370250000E-02   0.3500000004E+01   0.2741971041E-13   0.2289058884E-13  -0.2528029776E-14  -0.3131216985E-14   0.3393378490E-14   0.7000000009E-02  -0.3493000004E-02  -0.3493000004E-02   0.1036260392E-14  -0.2956822828E-16  -0.1246042361E-14   0.3500000004E+01
     1     2     3     4     5     6     7     8
     2     9    10     3     6    11    12     7
 VARIABLES = X,Y,Z,DU1,DU2,DU3,U1,U2,U3,S11,S22,S33,S12,S13,S23,E11,E22,E33,E12,E13,E23,SMISES
 ZONE, T="0.2650D+01" F=FEPOINT, I=   12 J=    2 ET=BRICK
   0.0000000000E+00   0.0000000000E+00   0.0000000000E+00   0.0000000000E+00   0.0000000000E+00   0.0000000000E+00   0.0000000000E+00   0.0000000000E+00   0.0000000000E+00   0.4625000007E+01   0.6945815417E-14   0.8815455105E-14   0.1330862241E-15   0.2233016684E-15  -0.3456798412E-14   0.9250000015E-02  -0.4615750007E-02  -0.4615750007E-02   0.3955804919E-18   0.5534509129E-15   0.9404081429E-15   0.4625000007E+01
   0.1009250000E+01   0.0000000000E+00   0.1294558185E-15   0.2250000000E-02   0.0000000000E+00  -0.2036315456E-17   0.7000000000E-02   0.0000000000E+00   0.1314921339E-15   0.4625000007E+01   0.3334693310E-13   0.3694757758E-13  -0.1100413114E-14   0.4444018060E-15  -0.2232725881E-14   0.9250000014E-02  -0.4615750007E-02  -0.4615750007E-02   0.8772019197E-15   0.2682809185E-15   0.8640893164E-15   0.4625000007E+01
   0.1009250000E+01   0.9953842500E+00   0.5616645536E-15   0.2250000000E-02  -0.1122750000E-02   0.2380134788E-18   0.7000000000E-02  -0.3493000000E-02   0.5614265401E-15   0.4625000007E+01  -0.1225610936E-13  -0.7063719596E-14  -0.6696147107E-15  -0.4787561739E-15   0.1177680010E-14   0.9250000013E-02  -0.4615750007E-02  -0.4615750007E-02   0.8008984058E-15  -0.5822419591E-16   0.2495687141E-15   0.4625000007E+01
   0.0000000000E+00   0.9953842500E+00   0.4699638396E-15   0.0000000000E+00  -0.1122750000E-02   0.1295140607E-17   0.0000000000E+00  -0.3493000000E-02   0.4686686989E-15   0.4625000007E+01   0.9812232273E-13   0.1066422683E-12   0.3155592482E-15   0.1228382957E-14   0.4067289667E-15   0.9250000013E-02  -0.4615750007E-02  -0.4615750007E-02   0.5069011945E-15   0.6070757246E-15   0.2872984418E-15   0.4625000007E+01
   0.0000000000E+00   0.0000000000E+00   0.9953842500E+00   0.0000000000E+00   0.0000000000E+00  -0.1122750000E-02   0.0000000000E+00   0.0000000000E+00  -0.3493000000E-02   0.4625000007E+01   0.1975857779E-13   0.1203824294E-13  -0.2480849677E-15   0.2182253054E-14  -0.8410447886E-15   0.9250000013E-02  -0.4615750007E-02  -0.4615750007E-02  -0.4537546608E-18   0.2584660563E-16   0.1186683570E-15   0.4625000007E+01
   0.1009250000E+01   0.0000000000E+00   0.9953842500E+00   0.2250000000E-02   0.0000000000E+00  -0.1122750000E-02   0.7000000000E-02   0.0000000000E+00  -0.3493000000E-02   0.4625000007E+01  -0.9098877380E-14  -0.1101134243E-13  -0.2036102945E-14   0.1671387807E-14  -0.1896860945E-14   0.9250000013E-02  -0.4615750007E-02  -0.4615750007E-02   0.8863340606E-15   0.3499151628E-15  -0.1034635604E-16   0.4625000007E+01
   0.1009250000E+01   0.9953842500E+00   0.9953842500E+00   0.2250000000E-02  -0.1122750000E-02  -0.1122750000E-02   0.7000000000E-02  -0.3493000000E-02  -0.3493000000E-02   0.4625000006E+01   0.7607840332E-14   0.4036944445E-14  -0.1562753665E-14  -0.1318363483E-14   0.1656279988E-14   0.9250000012E-02  -0.4615750006E-02  -0.4615750006E-02   0.8266107988E-15  -0.1237177007E-16  -0.6294514766E-15   0.4625000006E+01
   0.0000000000E+00   0.9953842500E+00   0.9953842500E+00   0.0000000000E+00  -0.1122750000E-02  -0.1122750000E-02   0.0000000000E+00  -0.3493000000E-02  -0.3493000000E-02   0.4625000006E+01  -0.2910233384E-13  -0.2902616577E-13  -0.8097743729E-16   0.3391555489E-15   0.3236027437E-14   0.9250000012E-02  -0.4615750006E-02  -0.4615750006E-02   0.5494109374E-15   0.1712966981E-16  -0.5305721967E-15   0.4625000006E+01
   0.2018500000E+01   0.0000000000E+00  -0.3267025024E-15   0.4500000000E-02   0.0000000000E+00  -0.7840019419E-17   0.1400000000E-01   0.0000000000E+00  -0.3188624829E-15   0.4625000007E+01   0.3346067601E-13   0.3617931552E-13  -0.5738123677E-15   0.7803474521E-15  -0.1726771052E-14   0.9250000014E-02  -0.4615750007E-02  -0.4615750007E-02   0.1630604493E-14  -0.4310964815E-16   0.2530436029E-15   0.4625000007E+01
   0.2018500000E+01   0.9953842500E+00  -0.2001715009E-15   0.4500000000E-02  -0.1122750000E-02  -0.4858218080E-17   0.1400000000E-01  -0.3493000000E-02  -0.1953132829E-15   0.4625000006E+01  -0.7959149429E-13  -0.7751415031E-13   0.7310382527E-15  -0.3122879641E-14   0.3346616613E-14   0.9250000013E-02  -0.4615750006E-02  -0.4615750006E-02   0.9794234369E-15  -0.7028265525E-15  -0.3729991158E-15   0.4625000006E+01
   0.2018500000E+01   0.0000000000E+00   0.9953842500E+00   0.4500000000E-02   0.0000000000E+00  -0.1122750000E-02   0.1400000000E-01   0.0000000000E+00  -0.3493000000E-02   0.4625000006E+01  -0.1023436087E-13  -0.2078138787E-13  -0.3520230083E-14   0.6763859387E-15  -0.1356556503E-14   0.9250000013E-02  -0.4615750006E-02  -0.4615750006E-02   0.1713269259E-14   0.6504458418E-15  -0.6237762305E-15   0.4625000006E+01
   0.2018500000E+01   0.9953842500E+00   0.9953842500E+00   0.4500000000E-02  -0.1122750000E-02  -0.1122750000E-02   0.1400000000E-01  -0.3493000000E-02  -0.3493000000E-02   0.4625000006E+01   0.1032957554E-12   0.9945998919E-13  -0.2648319522E-14  -0.2876370252E-14   0.3048242095E-14   0.9250000012E-02  -0.4615750006E-02  -0.4615750006E-02   0.1028016916E-14  -0.3137999155E-16  -0.1250251778E-14   0.4625000006E+01
     1     2     3     4     5     6     7     8
     2     9    10     3     6    11    12     7
 VARIABLES = X,Y,Z,DU1,DU2,DU3,U1,U2,U3,S11,S22,S33,S12,S13,S23,E11,E22,E33,E12,E13,E23,SMISES
 ZONE, T="0.2700D+01" F=FEPOINT, I=   12 J=    2 ET=BRICK
   0.0000000000E+00   0.0000000000E+00   0.0000000000E+00   0.0000000000E+00   0.0000000000E+00   0.0000000000E+00   0.0000000000E+00   0.0000000000E+00   0.0000000000E+00   0.5750000009E+01  -0.1085772400E-13  -0.8846584308E-14   0.1081888883E-15   0.2810631766E-15  -0.3482534021E-14   0.1150000002E-01  -0.5738500009E-02  -0.5738500009E-02  -0.4704392451E-18   0.5513283699E-15   0.9408389580E-15   0.5750000009E+01
   0.1011500000E+01   0.0000000000E+00   0.1296446203E-15   0.2250000000E-02   0.0000000000E+00   0.1888018029E-18   0.9250000000E-02   0.0000000000E+00   0.1294558185E-15   0.5750000009E+01   0.2948146899E-13   0.3306179499E-13  -0.1303121533E-14   0.3219291429E-15  -0.2311007327E-14   0.1150000002E-01  -0.5738500009E-02  -0.5738500009E-02   0.8759269681E-15   0.2698713118E-15   0.8634808645E-15   0.5750000009E+01
   0.1011500000E+01   0.9942615000E+00   0.5613569248E-15   0.2250000000E-02  -0.1122750000E-02  -0.3076288374E-18   0.9250000000E-02  -0.4615750000E-02   0.5616645536E-15   0.5750000008E+01  -0.3298828303E-13  -0.2752776739E-13  -0.8569493004E-15  -0.2596161288E-15   0.1076354386E-14   0.1150000002E-01  -0.5738500008E-02  -0.5738500008E-02   0.7990378213E-15  -0.5609079488E-16   0.2464003995E-15   0.5750000008E+01
   0.0000000000E+00   0.9942615000E+00   0.4697715845E-15   0.0000000000E+00  -0.1122750000E-02  -0.1922550731E-18   0.0000000000E+00  -0.4615750000E-02   0.4699638396E-15   0.5750000008E+01  -0.6369854448E-13  -0.5522594356E-13   0.4680179581E-15   0.1178653440E-14   0.5064491640E-15   0.1150000002E-01  -0.5738500008E-02  -0.5738500008E-02   0.5088882954E-15   0.6092322466E-15   0.2890214372E-15   0.5750000008E+01
   0.0000000000E+00   0.0000000000E+00   0.9942615000E+00   0.0000000000E+00   0.0000000000E+00  -0.1122750000E-02   0.0000000000E+00   0.0000000000E+00  -0.4615750000E-02   0.5750000008E+01  -0.5950082640E-13  -0.6773981668E-13  -0.2218698587E-15   0.2236392022E-14  -0.8831467100E-15   0.1150000002E-01  -0.5738500008E-02  -0.5738500008E-02   0.7516435161E-18   0.2467155275E-16   0.1162653319E-15   0.5750000008E+01
   0.1011500000E+01   0.0000000000E+00   0.9942615000E+00   0.2250000000E-02   0.0000000000E+00  -0.1122750000E-02   0.9250000000E-02   0.0000000000E+00  -0.4615750000E-02   0.5750000008E+01  -0.4547743297E-13  -0.4757674996E-13  -0.1965630051E-14   0.1426355658E-14  -0.1867026998E-14   0.1150000002E-01  -0.5738500008E-02  -0.5738500008E-02   0.8876122056E-15   0.3515579632E-15  -0.1169131111E-16   0.5750000008E+01
   0.1011500000E+01   0.9942615000E+00   0.9942615000E+00   0.2250000000E-02  -0.1122750000E-02  -0.1122750000E-02   0.9250000000E-02  -0.4615750000E-02  -0.4615750000E-02   0.5750000008E+01   0.6239814806E-13   0.5880693369E-13  -0.1522916710E-14  -0.1113260308E-14   0.1655719659E-14   0.1150000002E-01  -0.5738500008E-02  -0.5738500008E-02   0.8256823601E-15  -0.1225897349E-16  -0.6250195644E-15   0.5750000008E+01
   0.0000000000E+00   0.9942615000E+00   0.9942615000E+00   0.0000000000E+00  -0.1122750000E-02  -0.1122750000E-02   0.0000000000E+00  -0.4615750000E-02  -0.4615750000E-02   0.5750000008E+01   0.1734413139E-13   0.1756179947E-13  -0.1412968749E-15   0.3410436697E-15   0.3337963671E-14   0.1150000002E-01  -0.5738500008E-02  -0.5738500008E-02   0.5499633218E-15   0.1950474736E-16  -0.5312818077E-15   0.5750000008E+01
   0.2023000000E+01   0.0000000000E+00  -0.3271484619E-15   0.4500000000E-02   0.0000000000E+00  -0.4459595845E-18   0.1850000000E-01   0.0000000000E+00  -0.3267025024E-15   0.5750000009E+01   0.3527537674E-13   0.3800417548E-13  -0.5817558862E-15   0.7933019909E-15  -0.1633232674E-14   0.1150000002E-01  -0.5738500009E-02  -0.5738500009E-02   0.1632354071E-14  -0.4866319885E-16   0.2539263341E-15   0.5750000009E+01
   0.2023000000E+01   0.9942615000E+00  -0.1999887338E-15   0.4500000000E-02  -0.1122750000E-02   0.1827671546E-18   0.1850000000E-01  -0.4615750000E-02  -0.2001715009E-15   0.5750000008E+01  -0.2187202780E-13  -0.1992874675E-13   0.7405506339E-15  -0.3386052395E-14   0.3310395086E-14   0.1150000002E-01  -0.5738500008E-02  -0.5738500008E-02   0.9735491060E-15  -0.7144788814E-15  -0.3745399941E-15   0.5750000008E+01
   0.2023000000E+01   0.0000000000E+00   0.9942615000E+00   0.4500000000E-02   0.0000000000E+00  -0.1122750000E-02   0.1850000000E-01   0.0000000000E+00  -0.4615750000E-02   0.5750000008E+01  -0.6570298752E-13  -0.7615658855E-13  -0.3728323391E-14   0.6744346868E-15  -0.1250809392E-14   0.1150000002E-01  -0.5738500008E-02  -0.5738500008E-02   0.1711852005E-14   0.6284587228E-15  -0.6218125014E-15   0.5750000008E+01
   0.2023000000E+01   0.9942615000E+00   0.9942615000E+00   0.4500000000E-02  -0.1122750000E-02  -0.1122750000E-02   0.1850000000E-01  -0.4615750000E-02  -0.4615750000E-02   0.5750000007E+01   0.4892606573E-13   0.4510045879E-13  -0.2978216137E-14  -0.3022085678E-14   0.2932223456E-14   0.1150000001E-01  -0.5738500007E-02  -0.5738500007E-02   0.1037619863E-14  -0.8420929142E-18  -0.1253312255E-14   0.5750000007E+01
     1     2     3     4     5     6     7     8
     2     9    10     3     6    11    12     7
 VARIABLES = X,Y,Z,DU1,DU2,DU3,U1,U2,U3,S11,S22,S33,S12,S13,S23,E11,E22,E33,E12,E13,E23,SMISES
 ZONE, T="0.2750D+01" F=FEPOINT, I=   12 J=    2 ET=BRICK
   0.0000000000E+00   0.0000000000E+00   0.0000000000E+00   0.0000000000E+00   0.0000000000E+00   0.0000000000E+00   0.0000000000E+00   0.0000000000E+00   0.0000000000E+00   0.6875000011E+01  -0.1142888817E-13  -0.9943111607E-14   0.1099004754E-15   0.3880253292E-15  -0.3442159853E-14   0.1375000002E-01  -0.6861250011E-02  -0.6861250011E-02  -0.8946046791E-18   0.5492309076E-15   0.9392413402E-15   0.6875000011E+01
   0.1013750000E+01   0.0000000000E+00   0.1303205576E-15   0.2250000000E-02   0.0000000000E+00   0.6759372869E-18   0.1150000000E-01   0.0000000000E+00   0.1296446203E-15   0.6875000011E+01  -0.3408393098E-14   0.3642291207E-15  -0.1077463888E-14   0.4577775238E-15  -0.2297782678E-14   0.1375000002E-01  -0.6861250011E-02  -0.6861250011E-02   0.8772705874E-15   0.2733475299E-15   0.8633064336E-15   0.6875000011E+01
   0.1013750000E+01   0.9931387500E+00   0.5620455594E-15   0.2250000000E-02  -0.1122750000E-02   0.6886346676E-18   0.1150000000E-01  -0.5738500000E-02   0.5613569248E-15   0.6875000010E+01   0.8241782037E-13   0.8723106195E-13  -0.6730208352E-15  -0.2866369037E-15   0.1157126760E-14   0.1375000002E-01  -0.6861250010E-02  -0.6861250010E-02   0.7984920674E-15  -0.6221179565E-16   0.2495235587E-15   0.6875000010E+01
   0.0000000000E+00   0.9931387500E+00   0.4701973404E-15   0.0000000000E+00  -0.1122750000E-02   0.4257559653E-18   0.0000000000E+00  -0.5738500000E-02   0.4697715845E-15   0.6875000010E+01  -0.3330454994E-13  -0.2505943796E-13   0.4358120245E-15   0.1149028970E-14   0.6869804517E-15   0.1375000002E-01  -0.6861250010E-02  -0.6861250010E-02   0.5097619920E-15   0.6098683908E-15   0.2953677084E-15   0.6875000010E+01
   0.0000000000E+00   0.0000000000E+00   0.9931387500E+00   0.0000000000E+00   0.0000000000E+00  -0.1122750000E-02   0.0000000000E+00   0.0000000000E+00  -0.5738500000E-02   0.6875000010E+01   0.5000827586E-13   0.4191695931E-13  -0.2261050026E-15   0.2271910822E-14  -0.9936507644E-15   0.1375000002E-01  -0.6861250010E-02  -0.6861250010E-02   0.2907891092E-18   0.2357697979E-16   0.1194366010E-15   0.6875000010E+01
   0.1013750000E+01   0.0000000000E+00   0.9931387500E+00   0.2250000000E-02   0.0000000000E+00  -0.1122750000E-02   0.1150000000E-01   0.0000000000E+00  -0.5738500000E-02   0.6875000010E+01   0.6552030066E-14   0.4452713087E-14  -0.1930626789E-14   0.1537358660E-14  -0.2115384916E-14   0.1375000002E-01  -0.6861250010E-02  -0.6861250010E-02   0.8926045180E-15   0.3526910185E-15  -0.1611276518E-16   0.6875000010E+01
   0.1013750000E+01   0.9931387500E+00   0.9931387500E+00   0.2250000000E-02  -0.1122750000E-02  -0.1122750000E-02   0.1150000000E-01  -0.5738500000E-02  -0.5738500000E-02   0.6875000009E+01  -0.1168833965E-12  -0.1207372924E-12  -0.1462371698E-14  -0.1048705007E-14   0.1541765902E-14   0.1375000002E-01  -0.6861250009E-02  -0.6861250009E-02   0.8279261948E-15  -0.1279683933E-16  -0.6279228890E-15   0.6875000009E+01
   0.0000000000E+00   0.9931387500E+00   0.9931387500E+00   0.0000000000E+00  -0.1122750000E-02  -0.1122750000E-02   0.0000000000E+00  -0.5738500000E-02  -0.5738500000E-02   0.6875000009E+01   0.2245937702E-13   0.2283414868E-13  -0.1723236734E-15   0.1891844010E-15   0.3231664881E-14   0.1375000002E-01  -0.6861250009E-02  -0.6861250009E-02   0.5529864949E-15   0.1859359531E-16  -0.5368040454E-15   0.6875000009E+01
   0.2027500000E+01   0.0000000000E+00  -0.3258579177E-15   0.4500000000E-02   0.0000000000E+00   0.1290544239E-17   0.2300000000E-01   0.0000000000E+00  -0.3271484619E-15   0.6875000010E+01   0.2226293237E-13   0.2537632365E-13   0.2679000284E-15   0.1139798270E-14  -0.1405008003E-14   0.1375000002E-01  -0.6861250010E-02  -0.6861250010E-02   0.1642247193E-14  -0.4217298548E-16   0.2577455943E-15   0.6875000010E+01
   0.2027500000E+01   0.9931387500E+00  -0.1972540224E-15   0.4500000000E-02  -0.1122750000E-02   0.2734711352E-17   0.2300000000E-01  -0.5738500000E-02  -0.1999887338E-15   0.6875000010E+01   0.1756316917E-12   0.1778024616E-12   0.1438452951E-14  -0.4198286791E-14   0.3829983266E-14   0.1375000002E-01  -0.6861250010E-02  -0.6861250010E-02   0.9862749784E-15  -0.7306184801E-15  -0.3683913154E-15   0.6875000010E+01
   0.2027500000E+01   0.0000000000E+00   0.9931387500E+00   0.4500000000E-02   0.0000000000E+00  -0.1122750000E-02   0.2300000000E-01   0.0000000000E+00  -0.5738500000E-02   0.6875000010E+01   0.8713670284E-13   0.7716384242E-13  -0.3944435473E-14   0.9867753644E-15  -0.1387755450E-14   0.1375000002E-01  -0.6861250010E-02  -0.6861250010E-02   0.1702348307E-14   0.6492120019E-15  -0.6230102440E-15   0.6875000010E+01
   0.2027500000E+01   0.9931387500E+00   0.9931387500E+00   0.4500000000E-02  -0.1122750000E-02  -0.1122750000E-02   0.2300000000E-01  -0.5738500000E-02  -0.5738500000E-02   0.6875000009E+01  -0.2092654560E-12  -0.2136327591E-12  -0.3071903451E-14  -0.3496790778E-14   0.2980453577E-14   0.1375000002E-01  -0.6861250009E-02  -0.6861250009E-02   0.1027326223E-14  -0.2755432729E-16  -0.1250158198E-14   0.6875000009E+01
     1     2     3     4     5     6     7     8
     2     9    10     3     6    11    12     7
 VARIABLES = X,Y,Z,DU1,DU2,DU3,U1,U2,U3,S11,S22,S33,S12,S13,S23,E11,E22,E33,E12,E13,E23,SMISES
 ZONE, T="0.2800D+01" F=FEPOINT, I=   12 J=    2 ET=BRICK
   0.0000000000E+00   0.0000000000E+00   0.0000000000E+00   0.0000000000E+00   0.0000000000E+00   0.0000000000E+00   0.0000000000E+00   0.0000000000E+00   0.0000000000E+00   0.8000000013E+01   0.1023513009E-12   0.1048743885E-12   0.1093470489E-15   0.8091798465E-15  -0.4167746855E-14   0.1600000003E-01  -0.7984000013E-02  -0.7984000013E-02  -0.3562504809E-18   0.5579965380E-15   0.9318195985E-15   0.8000000013E+01
   0.1016000000E+01   0.0000000000E+00   0.1351469613E-15   0.2250000000E-02   0.0000000000E+00   0.4826403777E-17   0.1375000000E-01   0.0000000000E+00   0.1303205576E-15   0.8000000012E+01   0.1266508193E-13   0.1901591175E-13  -0.1459244053E-14   0.3002132683E-15  -0.3137339559E-14   0.1600000002E-01  -0.7984000012E-02  -0.7984000012E-02   0.8693751665E-15   0.2613047188E-15   0.8541691193E-15   0.8000000012E+01
   0.1016000000E+01   0.9920160000E+00   0.5618637403E-15   0.2250000000E-02  -0.1122750000E-02  -0.1818191074E-18   0.1375000000E-01  -0.6861250000E-02   0.5620455594E-15   0.8000000011E+01  -0.9171180826E-13  -0.8479419650E-13  -0.1072292917E-14  -0.2600931639E-15   0.2005690345E-14   0.1600000002E-01  -0.7984000011E-02  -0.7984000011E-02   0.7922076076E-15  -0.6422235188E-16   0.2554710692E-15   0.8000000011E+01
   0.0000000000E+00   0.9920160000E+00   0.4659651480E-15   0.0000000000E+00  -0.1122750000E-02  -0.4232192427E-17   0.0000000000E+00  -0.6861250000E-02   0.4701973404E-15   0.8000000012E+01   0.1370669627E-13   0.2313679295E-13   0.1990352098E-15   0.1478214948E-14   0.1390649563E-14   0.1600000002E-01  -0.7984000012E-02  -0.7984000012E-02   0.5072914835E-15   0.6170977821E-15   0.2984033883E-15   0.8000000012E+01
   0.0000000000E+00   0.0000000000E+00   0.9920160000E+00   0.0000000000E+00   0.0000000000E+00  -0.1122750000E-02   0.0000000000E+00   0.0000000000E+00  -0.6861250000E-02   0.8000000012E+01  -0.1106992264E-13  -0.1986149773E-13  -0.2109299183E-15   0.2629199876E-14  -0.1629732555E-14   0.1600000002E-01  -0.7984000012E-02  -0.7984000012E-02   0.1110581041E-17   0.2744563866E-16   0.1050125790E-15   0.8000000012E+01
   0.1016000000E+01   0.0000000000E+00   0.9920160000E+00   0.2250000000E-02   0.0000000000E+00  -0.1122750000E-02   0.1375000000E-01   0.0000000000E+00  -0.6861250000E-02   0.8000000011E+01  -0.5141441819E-13  -0.5553683129E-13  -0.1866393806E-14   0.1321729003E-14  -0.2765775041E-14   0.1600000002E-01  -0.7984000011E-02  -0.7984000011E-02   0.8921537759E-15   0.3499952648E-15  -0.2027690241E-16   0.8000000011E+01
   0.1016000000E+01   0.9920160000E+00   0.9920160000E+00   0.2250000000E-02  -0.1122750000E-02  -0.1122750000E-02   0.1375000000E-01  -0.6861250000E-02  -0.6861250000E-02   0.8000000010E+01   0.6611405591E-13   0.6133931567E-13  -0.1368431034E-14  -0.9598935920E-15   0.2499496941E-14   0.1600000002E-01  -0.7984000010E-02  -0.7984000010E-02   0.8306138600E-15  -0.1128176020E-16  -0.6153331802E-15   0.8000000010E+01
   0.0000000000E+00   0.9920160000E+00   0.9920160000E+00   0.0000000000E+00  -0.1122750000E-02  -0.1122750000E-02   0.0000000000E+00  -0.6861250000E-02  -0.6861250000E-02   0.8000000011E+01   0.2769724024E-14   0.2226178127E-14  -0.4698561820E-16   0.6291473919E-15   0.3981350321E-14   0.1600000002E-01  -0.7984000011E-02  -0.7984000011E-02   0.5551088042E-15   0.2135516654E-16  -0.5197357881E-15   0.8000000011E+01
   0.2032000000E+01   0.0000000000E+00  -0.3063353175E-15   0.4500000000E-02   0.0000000000E+00   0.1952260021E-16   0.2750000000E-01   0.0000000000E+00  -0.3258579177E-15   0.8000000012E+01   0.5141399260E-13   0.5510971700E-13  -0.7845583101E-15   0.2324886688E-15  -0.2646868538E-14   0.1600000002E-01  -0.7984000012E-02  -0.7984000012E-02   0.1634920869E-14  -0.4701286169E-16   0.2434314836E-15   0.8000000012E+01
   0.2032000000E+01   0.9920160000E+00  -0.1852436807E-15   0.4500000000E-02  -0.1122750000E-02   0.1201034177E-16   0.2750000000E-01  -0.6861250000E-02  -0.1972540224E-15   0.8000000011E+01  -0.5653910246E-13  -0.5306143689E-13   0.5455144394E-15  -0.3754919559E-14   0.4164911292E-14   0.1600000002E-01  -0.7984000011E-02  -0.7984000011E-02   0.9808957980E-15  -0.7040266211E-15  -0.3643714344E-15   0.8000000011E+01
   0.2032000000E+01   0.0000000000E+00   0.9920160000E+00   0.4500000000E-02   0.0000000000E+00  -0.1122750000E-02   0.2750000000E-01   0.0000000000E+00  -0.6861250000E-02   0.8000000011E+01  -0.1323560742E-12  -0.1447271934E-12  -0.3294984728E-14   0.1046079667E-15  -0.2222780805E-14   0.1600000002E-01  -0.7984000011E-02  -0.7984000011E-02   0.1712339364E-14   0.5945274839E-15  -0.6372062969E-15   0.8000000011E+01
   0.2032000000E+01   0.9920160000E+00   0.9920160000E+00   0.4500000000E-02  -0.1122750000E-02  -0.1122750000E-02   0.2750000000E-01  -0.6861250000E-02  -0.6861250000E-02   0.8000000010E+01   0.6871154213E-13   0.6388089931E-13  -0.2461954380E-14  -0.3232293090E-14   0.3817208431E-14   0.1600000002E-01  -0.7984000010E-02  -0.7984000010E-02   0.1035191098E-14  -0.6973790596E-18  -0.1245266778E-14   0.8000000010E+01
     1     2     3     4     5     6     7     8
     2     9    10     3     6    11    12     7
 VARIABLES = X,Y,Z,DU1,DU2,DU3,U1,U2,U3,S11,S22,S33,S12,S13,S23,E11,E22,E33,E12,E13,E23,SMISES
 ZONE, T="0.2850D+01" F=FEPOINT, I=   12 J=    2 ET=BRICK
   0.0000000000E+00   0.0000000000E+00   0.0000000000E+00   0.0000000000E+00   0.0000000000E+00   0.0000000000E+00   0.0000000000E+00   0.0000000000E+00   0.0000000000E+00   0.9125000014E+01   0.7193488869E-13   0.7314310957E-13   0.1337880308E-15   0.5365893677E-15  -0.3692279823E-14   0.1825000003E-01  -0.9106750014E-02  -0.9106750014E-02   0.2230576294E-17   0.5552947982E-15   0.9366596363E-15   0.9125000014E+01
   0.1018250000E+01   0.0000000000E+00   0.1319239972E-15   0.2250000000E-02   0.0000000000E+00  -0.3222964183E-17   0.1600000000E-01   0.0000000000E+00   0.1351469613E-15   0.9125000014E+01  -0.1615872216E-13  -0.1130562539E-13  -0.1354166713E-14   0.3610475101E-15  -0.2568862517E-14   0.1825000003E-01  -0.9106750014E-02  -0.9106750014E-02   0.8635189323E-15   0.2626160432E-15   0.8590706492E-15   0.9125000014E+01
   0.1018250000E+01   0.9908932500E+00   0.5619622463E-15   0.2250000000E-02  -0.1122750000E-02   0.9850600528E-19   0.1600000000E-01  -0.7984000000E-02   0.5618637403E-15   0.9125000013E+01  -0.6324992508E-14  -0.8535881856E-15  -0.9179621966E-15  -0.4625222540E-15   0.1320623874E-14   0.1825000003E-01  -0.9106750013E-02  -0.9106750013E-02   0.7946818193E-15  -0.5832448075E-16   0.2518322693E-15   0.9125000013E+01
   0.0000000000E+00   0.9908932500E+00   0.4689307257E-15   0.0000000000E+00  -0.1122750000E-02   0.2965577713E-17   0.0000000000E+00  -0.7984000000E-02   0.4659651480E-15   0.9125000013E+01  -0.1114562710E-12  -0.1033668038E-12   0.6074994988E-15   0.1327878600E-14   0.1081683860E-14   0.1825000003E-01  -0.9106750013E-02  -0.9106750013E-02   0.5110891269E-15   0.6136118272E-15   0.2979819478E-15   0.9125000013E+01
   0.0000000000E+00   0.0000000000E+00   0.9908932500E+00   0.0000000000E+00   0.0000000000E+00  -0.1122750000E-02   0.0000000000E+00   0.0000000000E+00  -0.7984000000E-02   0.9125000013E+01  -0.1933147472E-13  -0.2722650952E-13  -0.2387457875E-15   0.2353343596E-14  -0.1203891741E-14   0.1825000003E-01  -0.9106750013E-02  -0.9106750013E-02   0.3705703402E-18   0.2788206569E-16   0.1180549674E-15   0.9125000013E+01
   0.1018250000E+01   0.0000000000E+00   0.9908932500E+00   0.2250000000E-02   0.0000000000E+00  -0.1122750000E-02   0.1600000000E-01   0.0000000000E+00  -0.7984000000E-02   0.9125000013E+01  -0.2422307235E-13  -0.2734336723E-13  -0.1808858966E-14   0.1290300451E-14  -0.2183283865E-14   0.1825000003E-01  -0.9106750013E-02  -0.9106750013E-02   0.8968557275E-15   0.3373580402E-15  -0.1256812973E-16   0.9125000013E+01
   0.1018250000E+01   0.9908932500E+00   0.9908932500E+00   0.2250000000E-02  -0.1122750000E-02  -0.1122750000E-02   0.1600000000E-01  -0.7984000000E-02  -0.7984000000E-02   0.9125000012E+01  -0.8977436093E-14  -0.1294235433E-13  -0.1371333563E-14  -0.9115422977E-15   0.1920511269E-14   0.1825000002E-01  -0.9106750012E-02  -0.9106750012E-02   0.8332782954E-15   0.4707521852E-17  -0.6251106154E-15   0.9125000012E+01
   0.0000000000E+00   0.9908932500E+00   0.9908932500E+00   0.0000000000E+00  -0.1122750000E-02  -0.1122750000E-02   0.0000000000E+00  -0.7984000000E-02  -0.7984000000E-02   0.9125000012E+01   0.9584430408E-14   0.1003357289E-13  -0.1840422713E-15   0.5566427255E-15   0.3420575298E-14   0.1825000002E-01  -0.9106750012E-02  -0.9106750012E-02   0.5503342355E-15   0.1611917635E-16  -0.5272442963E-15   0.9125000012E+01
   0.2036500000E+01   0.0000000000E+00  -0.3196667537E-15   0.4500000000E-02   0.0000000000E+00  -0.1333143623E-16   0.3200000000E-01   0.0000000000E+00  -0.3063353175E-15   0.9125000014E+01  -0.1268106405E-12  -0.1236417381E-12  -0.4393087423E-15   0.7699995709E-15  -0.2069453664E-14   0.1825000003E-01  -0.9106750014E-02  -0.9106750014E-02   0.1635667537E-14  -0.4849755900E-16   0.2509424880E-15   0.9125000014E+01
   0.2036500000E+01   0.9908932500E+00  -0.1952373486E-15   0.4500000000E-02  -0.1122750000E-02  -0.9993667885E-17   0.3200000000E-01  -0.7984000000E-02  -0.1852436807E-15   0.9125000013E+01   0.3378109441E-13   0.3637310837E-13   0.5966413749E-15  -0.3859264079E-14   0.3617409796E-14   0.1825000003E-01  -0.9106750013E-02  -0.9106750013E-02   0.9850114797E-15  -0.7112849236E-15  -0.3712028040E-15   0.9125000013E+01
   0.2036500000E+01   0.0000000000E+00   0.9908932500E+00   0.4500000000E-02   0.0000000000E+00  -0.1122750000E-02   0.3200000000E-01   0.0000000000E+00  -0.7984000000E-02   0.9125000013E+01   0.1043679858E-12   0.9243842903E-13  -0.3643608863E-14   0.8525541647E-15  -0.1512422925E-14   0.1825000003E-01  -0.9106750013E-02  -0.9106750013E-02   0.1713250907E-14   0.6630451645E-15  -0.6278659354E-15   0.9125000013E+01
   0.2036500000E+01   0.9908932500E+00   0.9908932500E+00   0.4500000000E-02  -0.1122750000E-02  -0.1122750000E-02   0.3200000000E-01  -0.7984000000E-02  -0.7984000000E-02   0.9125000012E+01   0.3117070321E-13   0.2812079346E-13  -0.2854330812E-14  -0.3155459486E-14   0.3495298260E-14   0.1825000002E-01  -0.9106750012E-02  -0.9106750012E-02   0.1012079959E-14  -0.5103785535E-16  -0.1248434606E-14   0.9125000012E+01
     1     2     3     4     5     6     7     8
     2     9    10     3     6    11    12     7
 VARIABLES = X,Y,Z,DU1,DU2,DU3,U1,U2,U3,S11,S22,S33,S12,S13,S23,E11,E22,E33,E12,E13,E23,SMISES
 ZONE, T="0.2900D+01" F=FEPOINT, I=   12 J=    2 ET=BRICK
   0.0000000000E+00   0.0000000000E+00   0.0000000000E+00   0.0000000000E+00   0.0000000000E+00   0.0000000000E+00   0.0000000000E+00   0.0000000000E+00   0.0000000000E+00   0.1025000002E+02   0.1348337094E-11   0.1627383211E-11   0.1252241084E-15   0.1842922939E-12  -0.4227781724E-13   0.2550000004E-01  -0.1272950002E-01  -0.1272950002E-01  -0.1433752181E-17   0.3287430050E-14   0.3267035849E-15   0.1025000002E+02
   0.1025500000E+01   0.0000000000E+00   0.1700045935E-14   0.7250000000E-02   0.0000000000E+00   0.1568121938E-14   0.1825000000E-01   0.0000000000E+00   0.1319239972E-15   0.1025000002E+02   0.2354322202E-12   0.4317388755E-12  -0.2135736397E-13   0.4967727677E-13  -0.1291026359E-12   0.2550000004E-01  -0.1272950002E-01  -0.1272950002E-01   0.5532354426E-15   0.9927847838E-15  -0.1057435295E-14   0.1025000002E+02
   0.1025500000E+01   0.9872705000E+00   0.1171416030E-14   0.7250000000E-02  -0.3622750000E-02   0.6094537833E-15   0.1825000000E-01  -0.9106750000E-02   0.5619622463E-15   0.1025000001E+02   0.1116454098E-12   0.3505525883E-12  -0.6161646652E-14   0.1554706068E-13   0.8485110154E-13   0.2550000004E-01  -0.1272950002E-01  -0.1272950002E-01   0.6965103684E-15   0.1750811037E-15   0.1489064199E-14   0.1025000001E+02
   0.0000000000E+00   0.9872705000E+00   0.1640502256E-15   0.0000000000E+00  -0.3622750000E-02  -0.3048805002E-15   0.0000000000E+00  -0.9106750000E-02   0.4689307257E-15   0.1025000001E+02  -0.3386997561E-13   0.2870244903E-12   0.2549584342E-13   0.7057269786E-13   0.1749958507E-12   0.2550000004E-01  -0.1272950002E-01  -0.1272950002E-01   0.8715929674E-15   0.1631637079E-14   0.2888996585E-14   0.1025000001E+02
   0.0000000000E+00   0.0000000000E+00   0.9872705000E+00   0.0000000000E+00   0.0000000000E+00  -0.3622750000E-02   0.0000000000E+00   0.0000000000E+00  -0.9106750000E-02   0.1025000001E+02  -0.1626083558E-12  -0.3172813870E-12  -0.1770465982E-15   0.1614362442E-12  -0.2190859473E-13   0.2550000004E-01  -0.1272950002E-01  -0.1272950002E-01   0.7407563648E-18   0.2412282355E-14  -0.1957364247E-15   0.1025000001E+02
   0.1025500000E+01   0.0000000000E+00   0.9872705000E+00   0.7250000000E-02   0.0000000000E+00  -0.3622750000E-02   0.1825000000E-01   0.0000000000E+00  -0.9106750000E-02   0.1025000001E+02  -0.2597639321E-12  -0.4906880290E-12  -0.2082066736E-13   0.3723390978E-13  -0.1084086254E-12   0.2550000004E-01  -0.1272950002E-01  -0.1272950002E-01   0.5817710994E-15   0.8590857363E-15  -0.1603987430E-14   0.1025000001E+02
   0.1025500000E+01   0.9872705000E+00   0.9872705000E+00   0.7250000000E-02  -0.3622750000E-02  -0.3622750000E-02   0.1825000000E-01  -0.9106750000E-02  -0.9106750000E-02   0.1025000001E+02  -0.4476282439E-13  -0.2363039082E-12  -0.8780770913E-14   0.2976876334E-14   0.1059041352E-12   0.2550000003E-01  -0.1272950002E-01  -0.1272950002E-01   0.6972102194E-15   0.5748763101E-16   0.9403564295E-15   0.1025000001E+02
   0.0000000000E+00   0.9872705000E+00   0.9872705000E+00   0.0000000000E+00  -0.3622750000E-02  -0.3622750000E-02   0.0000000000E+00  -0.9106750000E-02  -0.9106750000E-02   0.1025000001E+02  -0.8373032765E-12  -0.9502084514E-12   0.2260760828E-13   0.4792270813E-13   0.1950802096E-12   0.2550000003E-01  -0.1272950002E-01  -0.1272950002E-01   0.8762278695E-15   0.7242231660E-15   0.2363992725E-14   0.1025000001E+02
   0.2051000000E+01   0.0000000000E+00   0.3626740774E-14   0.1450000000E-01   0.0000000000E+00   0.3946407528E-14   0.3650000000E-01   0.0000000000E+00  -0.3196667537E-15   0.1025000002E+02   0.1289671408E-12   0.2971740825E-12  -0.4161476307E-13  -0.7971859761E-13  -0.1095204030E-12   0.2550000004E-01  -0.1272950002E-01  -0.1272950002E-01   0.9872522965E-15  -0.1201274633E-14  -0.1366699795E-14   0.1025000002E+02
   0.2051000000E+01   0.9872705000E+00   0.2943579675E-14   0.1450000000E-01  -0.3622750000E-02   0.3138817024E-14   0.3650000000E-01  -0.9106750000E-02  -0.1952373486E-15   0.1025000001E+02   0.1466121947E-12   0.3557336162E-12  -0.3583785297E-13  -0.3571713096E-13   0.1020998814E-12   0.2550000004E-01  -0.1272950002E-01  -0.1272950002E-01   0.4176741747E-15  -0.1225080048E-14   0.1120501021E-14   0.1025000001E+02
   0.2051000000E+01   0.0000000000E+00   0.9872705000E+00   0.1450000000E-01   0.0000000000E+00  -0.3622750000E-02   0.3650000000E-01   0.0000000000E+00  -0.9106750000E-02   0.1025000001E+02  -0.1663756692E-12  -0.4226815689E-12  -0.4203686429E-13  -0.8112398870E-13  -0.8862891934E-13   0.2550000004E-01  -0.1272950002E-01  -0.1272950002E-01   0.1059047848E-14  -0.5993353083E-15  -0.1914352718E-14   0.1025000001E+02
   0.2051000000E+01   0.9872705000E+00   0.9872705000E+00   0.1450000000E-01  -0.3622750000E-02  -0.3622750000E-02   0.3650000000E-01  -0.9106750000E-02  -0.9106750000E-02   0.1025000001E+02  -0.2202029123E-12  -0.4304110866E-12  -0.4136508319E-13  -0.3772232501E-13   0.1223654202E-12   0.2550000003E-01  -0.1272950002E-01  -0.1272950002E-01   0.4206337315E-15  -0.5265513879E-15   0.5668754216E-15   0.1025000001E+02
     1     2     3     4     5     6     7     8
     2     9    10     3     6    11    12     7
 VARIABLES = X,Y,Z,DU1,DU2,DU3,U1,U2,U3,S11,S22,S33,S12,S13,S23,E11,E22,E33,E12,E13,E23,SMISES
 ZONE, T="0.2950D+01" F=FEPOINT, I=   12 J=    2 ET=BRICK
   0.0000000000E+00   0.0000000000E+00   0.0000000000E+00   0.0000000000E+00   0.0000000000E+00   0.0000000000E+00   0.0000000000E+00   0.0000000000E+00   0.0000000000E+00   0.1137500002E+02  -0.1736121797E-11  -0.1426038303E-11  -0.1337602071E-15  -0.3243144229E-13  -0.2288591148E-12   0.5025000008E-01  -0.2510225004E-01  -0.2510225004E-01  -0.2645637476E-17   0.1876406259E-15  -0.4770043599E-14   0.1137500002E+02
   0.1050250000E+01   0.0000000000E+00   0.1272841582E-14   0.2475000000E-01   0.0000000000E+00  -0.4272043530E-15   0.2550000000E-01   0.0000000000E+00   0.1700045935E-14   0.1137500002E+02  -0.9237292982E-12  -0.5761809874E-12  -0.5708888576E-13   0.1839829379E-13  -0.1685012307E-12   0.5025000008E-01  -0.2510225004E-01  -0.2510225004E-01  -0.6545089995E-15   0.7809553047E-15  -0.3621530264E-14   0.1137500002E+02
   0.1050250000E+01   0.9748977500E+00  -0.5388870907E-15   0.2475000000E-01  -0.1237275000E-01  -0.1710303120E-14   0.2550000000E-01  -0.1272950000E-01   0.1171416030E-14   0.1137500002E+02  -0.5159327401E-12  -0.5589112060E-13  -0.1792001696E-13   0.3223433242E-13   0.9524441090E-13   0.5025000007E-01  -0.2510225004E-01  -0.2510225004E-01   0.2619238982E-15   0.7871698091E-15   0.2720971982E-14   0.1137500002E+02
   0.0000000000E+00   0.9748977500E+00  -0.2384927601E-14   0.0000000000E+00  -0.1237275000E-01  -0.2548977827E-14   0.0000000000E+00  -0.1272950000E-01   0.1640502256E-15   0.1137500002E+02  -0.5608953114E-12  -0.1312380633E-12  -0.2888441220E-13   0.5118303290E-13   0.4124261169E-13   0.5025000007E-01  -0.2510225004E-01  -0.2510225004E-01  -0.1949420919E-15   0.1934737539E-14   0.1702857067E-14   0.1137500002E+02
   0.0000000000E+00   0.0000000000E+00   0.9748977500E+00   0.0000000000E+00   0.0000000000E+00  -0.1237275000E-01   0.0000000000E+00   0.0000000000E+00  -0.1272950000E-01   0.1137500002E+02   0.3185975897E-12   0.8772090334E-13   0.4812953036E-16   0.3225246054E-14  -0.1690352167E-12   0.5025000007E-01  -0.2510225004E-01  -0.2510225004E-01   0.2260990558E-17   0.5082458811E-15  -0.4033720120E-14   0.1137500002E+02
   0.1050250000E+01   0.0000000000E+00   0.9748977500E+00   0.2475000000E-01   0.0000000000E+00  -0.1237275000E-01   0.2550000000E-01   0.0000000000E+00  -0.1272950000E-01   0.1137500002E+02  -0.6351098544E-12  -0.8136979025E-12  -0.5716151550E-13  -0.1320250598E-13  -0.1128863616E-12   0.5025000007E-01  -0.2510225004E-01  -0.2510225004E-01  -0.6191638098E-15   0.5237094381E-16  -0.3004438272E-14   0.1137500002E+02
   0.1050250000E+01   0.9748977500E+00   0.9748977500E+00   0.2475000000E-01  -0.1237275000E-01  -0.1237275000E-01   0.2550000000E-01  -0.1272950000E-01  -0.1272950000E-01   0.1137500001E+02  -0.7548561891E-12  -0.8230146613E-12  -0.2342149196E-13  -0.4271844000E-14   0.1504347403E-12   0.5025000007E-01  -0.2510225003E-01  -0.2510225003E-01   0.1631215196E-15  -0.8389848746E-16   0.3339775141E-14   0.1137500001E+02
   0.0000000000E+00   0.9748977500E+00   0.9748977500E+00   0.0000000000E+00  -0.1237275000E-01  -0.1237275000E-01   0.0000000000E+00  -0.1272950000E-01  -0.1272950000E-01   0.1137500002E+02   0.1324085946E-11   0.1212547945E-11  -0.3591400715E-13   0.8255338666E-13   0.1012010291E-12   0.5025000007E-01  -0.2510225003E-01  -0.2510225003E-01  -0.3190426968E-15   0.2121853820E-14   0.2474866945E-14   0.1137500002E+02
   0.2100500000E+01   0.0000000000E+00   0.7263213433E-14   0.4950000000E-01   0.0000000000E+00   0.3636472659E-14   0.5100000000E-01   0.0000000000E+00   0.3626740774E-14   0.1137500002E+02   0.1141739592E-11   0.1164926607E-11  -0.1109767777E-12   0.7626819708E-13  -0.2001358900E-12   0.5025000008E-01  -0.2510225004E-01  -0.2510225004E-01  -0.1359812386E-14   0.1655529718E-14  -0.4878160761E-14   0.1137500002E+02
   0.2100500000E+01   0.9748977500E+00   0.4823647797E-14   0.4950000000E-01  -0.1237275000E-01   0.1880068122E-14   0.5100000000E-01  -0.1272950000E-01   0.2943579675E-14   0.1137500002E+02  -0.3262702604E-12  -0.2004655804E-12  -0.2453660370E-14   0.1840685811E-13   0.5824528649E-13   0.5025000007E-01  -0.2510225004E-01  -0.2510225004E-01   0.6985481194E-15  -0.2581991086E-15   0.1313946637E-14   0.1137500002E+02
   0.2100500000E+01   0.0000000000E+00   0.9748977500E+00   0.4950000000E-01   0.0000000000E+00  -0.1237275000E-01   0.5100000000E-01   0.0000000000E+00  -0.1272950000E-01   0.1137500002E+02   0.1023241894E-11   0.5269921034E-12  -0.1111350438E-12  -0.2402999951E-13  -0.1487764462E-12   0.5025000007E-01  -0.2510225004E-01  -0.2510225004E-01  -0.1289453312E-14  -0.2570697391E-15  -0.4358880274E-14   0.1137500002E+02
   0.2100500000E+01   0.9748977500E+00   0.9748977500E+00   0.4950000000E-01  -0.1237275000E-01  -0.1237275000E-01   0.5100000000E-01  -0.1272950000E-01  -0.1272950000E-01   0.1137500001E+02  -0.1380881818E-11  -0.1771483677E-11  -0.9746211736E-14  -0.8436105513E-13   0.1099996489E-12   0.5025000006E-01  -0.2510225003E-01  -0.2510225003E-01   0.5710290331E-15  -0.2072142138E-14   0.1849412692E-14   0.1137500001E+02
     1     2     3     4     5     6     7     8
     2     9    10     3     6    11    12     7
 VARIABLES = X,Y,Z,DU1,DU2,DU3,U1,U2,U3,S11,S22,S33,S12,S13,S23,E11,E22,E33,E12,E13,E23,SMISES
 ZONE, T="0.3000D+01" F=FEPOINT, I=   12 J=    2 ET=BRICK
   0.0000000000E+00   0.0000000000E+00   0.0000000000E+00   0.0000000000E+00   0.0000000000E+00   0.0000000000E+00   0.0000000000E+00   0.0000000000E+00   0.0000000000E+00   0.1250000002E+02   0.6088381249E-12   0.5891484684E-12  -0.4564460993E-16  -0.3928011418E-14   0.9929972444E-14   0.7500000012E-01  -0.3747500006E-01  -0.3747500006E-01   0.1868134181E-17   0.4001239207E-15  -0.1589969418E-14   0.1250000002E+02
   0.1075000000E+01   0.0000000000E+00   0.6505925386E-15   0.2475000000E-01   0.0000000000E+00  -0.6222490437E-15   0.5025000000E-01   0.0000000000E+00   0.1272841582E-14   0.1250000002E+02  -0.2613828490E-12  -0.2772541931E-12  -0.5016799681E-15   0.8390689403E-15   0.8203862633E-14   0.7500000012E-01  -0.3747500006E-01  -0.3747500006E-01   0.2080384922E-16   0.5515988120E-15  -0.1233466922E-14   0.1250000002E+02
   0.1075000000E+01   0.9625250000E+00   0.2922649402E-16   0.2475000000E-01  -0.1237275000E-01   0.5681135848E-15   0.5025000000E-01  -0.2510225000E-01  -0.5388870907E-15   0.1250000002E+02   0.4692823637E-13   0.3259526223E-13  -0.2045884027E-14  -0.1612362819E-15  -0.8310022824E-14   0.7500000011E-01  -0.3747500005E-01  -0.3747500005E-01   0.4036420704E-15   0.3702024911E-15   0.1230719578E-14   0.1250000002E+02
   0.0000000000E+00   0.9625250000E+00  -0.7909729313E-15   0.0000000000E+00  -0.1237275000E-01   0.1593954670E-14   0.0000000000E+00  -0.2510225000E-01  -0.2384927601E-14   0.1250000002E+02   0.3139933811E-12   0.2950452970E-12  -0.2231731989E-14  -0.5329006933E-14  -0.9637094617E-14   0.7500000011E-01  -0.3747500005E-01  -0.3747500005E-01   0.7621039941E-16   0.1061916983E-14   0.8544064048E-15   0.1250000002E+02
   0.0000000000E+00   0.0000000000E+00   0.9625250000E+00   0.0000000000E+00   0.0000000000E+00  -0.1237275000E-01   0.0000000000E+00   0.0000000000E+00  -0.2510225000E-01   0.1250000002E+02  -0.2594679710E-12  -0.2384460468E-12  -0.9188021988E-18  -0.4392257033E-14   0.9027995730E-14   0.7500000011E-01  -0.3747500005E-01  -0.3747500005E-01   0.2208893212E-17   0.3252409384E-15  -0.1546123125E-14   0.1250000002E+02
   0.1075000000E+01   0.0000000000E+00   0.9625250000E+00   0.2475000000E-01   0.0000000000E+00  -0.1237275000E-01   0.5025000000E-01   0.0000000000E+00  -0.2510225000E-01   0.1250000002E+02   0.1514987764E-12   0.1687023880E-12   0.1018617763E-14   0.5127082122E-15   0.8398034686E-14   0.7500000011E-01  -0.3747500005E-01  -0.3747500005E-01   0.8489619571E-16   0.1711549863E-15  -0.1297894824E-14   0.1250000002E+02
   0.1075000000E+01   0.9625250000E+00   0.9625250000E+00   0.2475000000E-01  -0.1237275000E-01  -0.1237275000E-01   0.5025000000E-01  -0.2510225000E-01  -0.2510225000E-01   0.1250000002E+02   0.3651232208E-12   0.3812006676E-12   0.2083237425E-14   0.5765217656E-15  -0.7790733684E-14   0.7500000010E-01  -0.3747500005E-01  -0.3747500005E-01   0.4598482255E-15   0.7147138827E-17   0.1205855026E-14   0.1250000002E+02
   0.0000000000E+00   0.9625250000E+00   0.9625250000E+00   0.0000000000E+00  -0.1237275000E-01  -0.1237275000E-01   0.0000000000E+00  -0.2510225000E-01  -0.2510225000E-01   0.1250000002E+02   0.3656307482E-12   0.3838850862E-12   0.1071746006E-14  -0.5347131095E-14  -0.9981555899E-14   0.7500000010E-01  -0.3747500005E-01  -0.3747500005E-01   0.1249642769E-15   0.8679379953E-15   0.8382617303E-15   0.1250000002E+02
   0.2150000000E+01   0.0000000000E+00   0.3063879652E-14   0.4950000000E-01   0.0000000000E+00  -0.4199333781E-14   0.1005000000E+00   0.0000000000E+00   0.7263213433E-14   0.1250000002E+02  -0.8754554651E-12  -0.8959143068E-12  -0.9903308321E-15   0.5263365334E-14   0.6159442674E-14   0.7500000011E-01  -0.3747500006E-01  -0.3747500006E-01  -0.2971216615E-16   0.7515247628E-15  -0.2086356276E-14   0.1250000002E+02
   0.2150000000E+01   0.9625250000E+00   0.2025238130E-14   0.4950000000E-01  -0.1237275000E-01  -0.2798409667E-14   0.1005000000E+00  -0.2510225000E-01   0.4823647797E-14   0.1250000002E+02   0.6566567660E-12   0.6438621618E-12  -0.1560536802E-14   0.2582534621E-14  -0.7955003101E-14   0.7500000010E-01  -0.3747500005E-01  -0.3747500005E-01   0.6220211127E-15  -0.3646852204E-15   0.3687810820E-15   0.1250000002E+02
   0.2150000000E+01   0.0000000000E+00   0.9625250000E+00   0.4950000000E-01   0.0000000000E+00  -0.1237275000E-01   0.1005000000E+00   0.0000000000E+00  -0.2510225000E-01   0.1250000002E+02  -0.4312442761E-12  -0.4209357171E-12   0.1007745371E-15   0.1390616862E-14   0.8872614084E-14   0.7500000010E-01  -0.3747500005E-01  -0.3747500005E-01   0.3251002130E-16   0.1586438375E-15  -0.2083000199E-14   0.1250000002E+02
   0.2150000000E+01   0.9625250000E+00   0.9625250000E+00   0.4950000000E-01  -0.1237275000E-01  -0.1237275000E-01   0.1005000000E+00  -0.2510225000E-01  -0.2510225000E-01   0.1250000002E+02  -0.4536966493E-13  -0.2921677966E-13  -0.2163308378E-15   0.3378561825E-14  -0.5768819582E-14   0.7500000010E-01  -0.3747500005E-01  -0.3747500005E-01   0.6042834992E-15  -0.1004252147E-14   0.3399910007E-15   0.1250000002E+02
     1     2     3     4     5     6     7     8
     2     9    10     3     6    11    12     7
 VARIABLES = X,Y,Z,DU1,DU2,DU3,U1,U2,U3,S11,S22,S33,S12,S13,S23,E11,E22,E33,E12,E13,E23,SMISES
 ZONE, T="0.3050D+01" F=FEPOINT, I=   12 J=    2 ET=BRICK
   0.0000000000E+00   0.0000000000E+00   0.0000000000E+00   0.0000000000E+00   0.0000000000E+00   0.0000000000E+00   0.0000000000E+00   0.0000000000E+00   0.0000000000E+00   0.1137500002E+02  -0.1109807114E-11  -0.1509949100E-11  -0.2010744349E-17  -0.3877254233E-12  -0.9486560331E-13   0.7275000011E-01  -0.3635225006E-01  -0.3635225006E-01   0.1140376123E-16  -0.4185325646E-14  -0.2836166077E-14   0.1137500002E+02
   0.1072750000E+01   0.0000000000E+00  -0.1722091595E-14  -0.2250000000E-02   0.0000000000E+00  -0.2372684134E-14   0.7500000000E-01   0.0000000000E+00   0.6505925386E-15   0.1137500002E+02  -0.1164475245E-12  -0.2218377507E-12  -0.9083628024E-13  -0.2480034610E-12   0.1214914460E-12   0.7275000011E-01  -0.3635225006E-01  -0.3635225006E-01  -0.1066868267E-14  -0.2456308479E-14   0.1096139345E-15   0.1137500002E+02
   0.1072750000E+01   0.9636477500E+00  -0.1664215497E-14  -0.2250000000E-02   0.1122750000E-02  -0.1693441991E-14   0.7500000000E-01  -0.3747500000E-01   0.2922649402E-16   0.1137500002E+02  -0.1047516029E-11  -0.9710832431E-12  -0.8593415507E-13  -0.1551801750E-12  -0.6166205599E-13   0.7275000010E-01  -0.3635225005E-01  -0.3635225005E-01  -0.6132609616E-15  -0.1486414606E-14   0.5893519820E-15   0.1137500002E+02
   0.0000000000E+00   0.9636477500E+00  -0.1419364841E-14   0.0000000000E+00   0.1122750000E-02  -0.6283919094E-15   0.0000000000E+00  -0.3747500000E-01  -0.7909729313E-15   0.1137500002E+02   0.1000575317E-11   0.7891168787E-12  -0.1095695504E-12  -0.1115094525E-12  -0.2807883997E-12   0.7275000011E-01  -0.3635225005E-01  -0.3635225005E-01  -0.1205474444E-14  -0.2331448615E-15  -0.2377213094E-14   0.1137500002E+02
   0.0000000000E+00   0.0000000000E+00   0.9636477500E+00   0.0000000000E+00   0.0000000000E+00   0.1122750000E-02   0.0000000000E+00   0.0000000000E+00  -0.3747500000E-01   0.1137500002E+02   0.6347507812E-12   0.6084409700E-12  -0.3339356096E-16  -0.2744059985E-12  -0.2009688647E-14   0.7275000011E-01  -0.3635225005E-01  -0.3635225005E-01  -0.1163006155E-16  -0.2941702435E-14  -0.1722218926E-14   0.1137500002E+02
   0.1072750000E+01   0.0000000000E+00   0.9636477500E+00  -0.2250000000E-02   0.0000000000E+00   0.1122750000E-02   0.7500000000E-01   0.0000000000E+00  -0.3747500000E-01   0.1137500002E+02   0.5087268190E-12   0.7700078309E-12  -0.9443849247E-13  -0.2478293491E-12   0.2117870795E-12   0.7275000010E-01  -0.3635225005E-01  -0.3635225005E-01  -0.1037582917E-14  -0.2784389980E-14   0.1165153601E-14   0.1137500002E+02
   0.1072750000E+01   0.9636477500E+00   0.9636477500E+00  -0.2250000000E-02   0.1122750000E-02   0.1122750000E-02   0.7500000000E-01  -0.3747500000E-01  -0.3747500000E-01   0.1137500001E+02  -0.5175159697E-12  -0.7683265904E-13  -0.8882316707E-13  -0.1568656860E-12   0.2895627886E-13   0.7275000010E-01  -0.3635225005E-01  -0.3635225005E-01  -0.6693754757E-15  -0.1958232813E-14   0.1634569451E-14   0.1137500001E+02
   0.0000000000E+00   0.9636477500E+00   0.9636477500E+00   0.0000000000E+00   0.1122750000E-02   0.1122750000E-02   0.0000000000E+00  -0.3747500000E-01  -0.3747500000E-01   0.1137500002E+02  -0.3934321773E-12  -0.2351118213E-12  -0.1057765784E-12  -0.1839081777E-14  -0.1873416433E-12   0.7275000010E-01  -0.3635225005E-01  -0.3635225005E-01  -0.1136432960E-14   0.9511134110E-15  -0.1234404531E-14   0.1137500002E+02
   0.2145500000E+01   0.0000000000E+00  -0.1966036124E-14  -0.4500000000E-02   0.0000000000E+00  -0.5029915776E-14   0.1500000000E+00   0.0000000000E+00   0.3063879652E-14   0.1137500002E+02   0.1612376026E-11   0.1188216857E-11  -0.1861514193E-12  -0.1138355247E-12   0.9894799799E-13   0.7275000011E-01  -0.3635225005E-01  -0.3635225005E-01  -0.2271741239E-14  -0.7469931423E-15  -0.9636881755E-15   0.1137500002E+02
   0.2145500000E+01   0.9636477500E+00  -0.2448176490E-14  -0.4500000000E-02   0.1122750000E-02  -0.4473414620E-14   0.1500000000E+00  -0.3747500000E-01   0.2025238130E-14   0.1137500002E+02  -0.6600044960E-12  -0.8993876743E-12  -0.6660033008E-13  -0.1969490390E-12  -0.8493136866E-13   0.7275000010E-01  -0.3635225005E-01  -0.3635225005E-01  -0.1639556780E-15  -0.2750844331E-14  -0.5784602929E-15   0.1137500002E+02
   0.2145500000E+01   0.0000000000E+00   0.9636477500E+00  -0.4500000000E-02   0.0000000000E+00   0.1122750000E-02   0.1500000000E+00   0.0000000000E+00  -0.3747500000E-01   0.1137500002E+02  -0.1602157604E-11  -0.1655660689E-11  -0.1849480578E-12  -0.2313471963E-12   0.1902960785E-12   0.7275000010E-01  -0.3635225005E-01  -0.3635225005E-01  -0.2195222480E-14  -0.2667348330E-14   0.8198228743E-16   0.1137500002E+02
   0.2145500000E+01   0.9636477500E+00   0.9636477500E+00  -0.4500000000E-02   0.1122750000E-02   0.1122750000E-02   0.1500000000E+00  -0.3747500000E-01  -0.3747500000E-01   0.1137500001E+02  -0.9586270716E-12  -0.8304497657E-12  -0.6930702248E-13  -0.3102522157E-12   0.5745955998E-14   0.7275000009E-01  -0.3635225005E-01  -0.3635225005E-01  -0.1842592817E-15  -0.4717128913E-14   0.4803790364E-15   0.1137500001E+02
     1     2     3     4     5     6     7     8
     2     9    10     3     6    11    12     7
 VARIABLES = X,Y,Z,DU1,DU2,DU3,U1,U2,U3,S11,S22,S33,S12,S13,S23,E11,E22,E33,E12,E13,E23,SMISES
 ZONE, T="0.3100D+01" F=FEPOINT, I=   12 J=    2 ET=BRICK
   0.0000000000E+00   0.0000000000E+00   0.0000000000E+00   0.0000000000E+00   0.0000000000E+00   0.0000000000E+00   0.0000000000E+00   0.0000000000E+00   0.0000000000E+00   0.1025000002E+02   0.2129876765E-13  -0.1527623872E-15   0.6690389640E-18  -0.4709655647E-14   0.1118245128E-13   0.7050000011E-01  -0.3522950006E-01  -0.3522950006E-01  -0.5396037009E-17   0.4023728038E-15  -0.1562397176E-14   0.1025000002E+02
   0.1070500000E+01   0.0000000000E+00   0.6426172443E-15  -0.2250000000E-02   0.0000000000E+00   0.2364708840E-14   0.7275000000E-01   0.0000000000E+00  -0.1722091595E-14   0.1025000002E+02  -0.4455010868E-13  -0.6371731980E-13  -0.2143397504E-15   0.1713994787E-14   0.9456556695E-14   0.7050000011E-01  -0.3522950005E-01  -0.3522950005E-01   0.3312301397E-16   0.5796221097E-15  -0.1228000717E-14   0.1025000002E+02
   0.1070500000E+01   0.9647705000E+00   0.2879363704E-16  -0.2250000000E-02   0.1122750000E-02   0.1693009134E-14   0.7275000000E-01  -0.3635225000E-01  -0.1664215497E-14   0.1025000001E+02  -0.4533210679E-13  -0.6325629547E-13  -0.2254852666E-14   0.1377221783E-15  -0.9668354767E-14   0.7050000010E-01  -0.3522950005E-01  -0.3522950005E-01   0.3717036967E-15   0.3449034208E-15   0.1231466050E-14   0.1025000001E+02
   0.0000000000E+00   0.9647705000E+00  -0.7833773696E-15   0.0000000000E+00   0.1122750000E-02   0.6359874711E-15   0.0000000000E+00  -0.3635225000E-01  -0.1419364841E-14   0.1025000001E+02  -0.1234189164E-12  -0.1453787997E-12  -0.1713771745E-14  -0.6182541247E-14  -0.1070558540E-13   0.7050000010E-01  -0.3522950005E-01  -0.3522950005E-01   0.8686600136E-16   0.1052787702E-14   0.8405511474E-15   0.1025000001E+02
   0.0000000000E+00   0.0000000000E+00   0.9647705000E+00   0.0000000000E+00   0.0000000000E+00   0.1122750000E-02   0.0000000000E+00   0.0000000000E+00  -0.3635225000E-01   0.1025000001E+02  -0.4358736606E-13  -0.2037143580E-13  -0.5018255933E-16  -0.5564840103E-14   0.1000038343E-13   0.7050000010E-01  -0.3522950005E-01  -0.3522950005E-01   0.1064399246E-16   0.3396481181E-15  -0.1558598498E-14   0.1025000001E+02
   0.1070500000E+01   0.0000000000E+00   0.9647705000E+00  -0.2250000000E-02   0.0000000000E+00   0.1122750000E-02   0.7275000000E-01   0.0000000000E+00  -0.3635225000E-01   0.1025000001E+02   0.1181931456E-13   0.3214827418E-13   0.6474813606E-15   0.1848465438E-14   0.9382414856E-14   0.7050000010E-01  -0.3522950005E-01  -0.3522950005E-01   0.8242314134E-16   0.1155396404E-15  -0.1277394932E-14   0.1025000001E+02
   0.1070500000E+01   0.9647705000E+00   0.9647705000E+00  -0.2250000000E-02   0.1122750000E-02   0.1122750000E-02   0.7275000000E-01  -0.3635225000E-01  -0.3635225000E-01   0.1025000001E+02   0.2377669393E-13   0.4177418558E-13   0.1948523129E-14   0.3832712631E-15  -0.9506527897E-14   0.7050000009E-01  -0.3522950005E-01  -0.3522950005E-01   0.4562703851E-15   0.3532677917E-16   0.1169685860E-14   0.1025000001E+02
   0.0000000000E+00   0.9647705000E+00   0.9647705000E+00   0.0000000000E+00   0.1122750000E-02   0.1122750000E-02   0.0000000000E+00  -0.3635225000E-01  -0.3635225000E-01   0.1025000001E+02   0.2844504205E-13   0.4925221569E-13   0.7154435812E-15  -0.6149112769E-14  -0.1139680794E-13   0.7050000009E-01  -0.3522950005E-01  -0.3522950005E-01   0.1028271310E-15   0.8573445870E-15   0.8819269781E-15   0.1025000001E+02
   0.2141000000E+01   0.0000000000E+00   0.3036601668E-14  -0.4500000000E-02   0.0000000000E+00   0.5002637791E-14   0.1455000000E+00   0.0000000000E+00  -0.1966036124E-14   0.1025000002E+02  -0.1168137919E-12  -0.1351320030E-12  -0.1534028299E-14   0.5853942240E-14   0.7123670732E-14   0.7050000011E-01  -0.3522950005E-01  -0.3522950005E-01  -0.1212127297E-15   0.6423706440E-15  -0.2059522141E-14   0.1025000002E+02
   0.2141000000E+01   0.9647705000E+00   0.2003861929E-14  -0.4500000000E-02   0.1122750000E-02   0.4452038419E-14   0.1455000000E+00  -0.3635225000E-01  -0.2448176490E-14   0.1025000001E+02   0.1024448133E-12   0.8929789156E-13  -0.3777921528E-14   0.2891480632E-14  -0.7348782252E-14   0.7050000010E-01  -0.3522950005E-01  -0.3522950005E-01   0.5294727293E-15  -0.2742556476E-15   0.3653379573E-15   0.1025000001E+02
   0.2141000000E+01   0.0000000000E+00   0.9647705000E+00  -0.4500000000E-02   0.0000000000E+00   0.1122750000E-02   0.1455000000E+00   0.0000000000E+00  -0.3635225000E-01   0.1025000001E+02   0.3689362444E-14   0.1654385410E-13   0.3061883615E-16   0.2431976800E-14   0.8434555207E-14   0.7050000010E-01  -0.3522950005E-01  -0.3522950005E-01   0.3282568818E-16   0.6748884747E-16  -0.2094918110E-14   0.1025000001E+02
   0.2141000000E+01   0.9647705000E+00   0.9647705000E+00  -0.4500000000E-02   0.1122750000E-02   0.1122750000E-02   0.1455000000E+00  -0.3635225000E-01  -0.3635225000E-01   0.1025000001E+02  -0.6291354432E-15   0.1445562283E-13   0.8417988607E-15   0.3140492231E-14  -0.6570741542E-14   0.7050000009E-01  -0.3522950005E-01  -0.3522950005E-01   0.6721531472E-15  -0.8234545159E-15   0.3134369446E-15   0.1025000001E+02
     1     2     3     4     5     6     7     8
     2     9    10     3     6    11    12     7
 VARIABLES = X,Y,Z,DU1,DU2,DU3,U1,U2,U3,S11,S22,S33,S12,S13,S23,E11,E22,E33,E12,E13,E23,SMISES
 ZONE, T="0.3150D+01" F=FEPOINT, I=   12 J=    2 ET=BRICK
   0.0000000000E+00   0.0000000000E+00   0.0000000000E+00   0.0000000000E+00   0.0000000000E+00   0.0000000000E+00   0.0000000000E+00   0.0000000000E+00   0.0000000000E+00   0.9125000014E+01  -0.1298807908E-12  -0.1514542317E-12  -0.1575541996E-16  -0.4703778118E-14   0.1077332890E-13   0.6825000011E-01  -0.3410675005E-01  -0.3410675005E-01  -0.2583539634E-17   0.3963467407E-15  -0.1575171361E-14   0.9125000014E+01
   0.1068250000E+01   0.0000000000E+00   0.6440471952E-15  -0.2250000000E-02   0.0000000000E+00   0.1429950805E-17   0.7050000000E-01   0.0000000000E+00   0.6426172443E-15   0.9125000014E+01   0.3838844859E-13   0.1970888120E-13   0.1025438239E-15   0.1917932892E-14   0.9143648434E-14   0.6825000011E-01  -0.3410675005E-01  -0.3410675005E-01   0.7576648423E-16   0.6023530149E-15  -0.1223081815E-14   0.9125000014E+01
   0.1068250000E+01   0.9658932500E+00   0.2843186784E-16  -0.2250000000E-02   0.1122750000E-02  -0.3617691997E-18   0.7050000000E-01  -0.3522950000E-01   0.2879363704E-16   0.9125000013E+01   0.3906369682E-13   0.2166487134E-13  -0.1906605438E-14  -0.7365567452E-16  -0.9362508316E-14   0.6825000010E-01  -0.3410675005E-01  -0.3410675005E-01   0.4370921226E-15   0.3696622249E-15   0.1176147313E-14   0.9125000013E+01
   0.0000000000E+00   0.9658932500E+00  -0.7859266633E-15   0.0000000000E+00   0.1122750000E-02  -0.2549293700E-17   0.0000000000E+00  -0.3522950000E-01  -0.7833773696E-15   0.9125000013E+01   0.2429256938E-13   0.3678759830E-14  -0.1579210211E-14  -0.6011697321E-14  -0.1037638809E-13   0.6825000010E-01  -0.3410675005E-01  -0.3410675005E-01   0.5877479448E-16   0.1032515268E-14   0.8425498476E-15   0.9125000013E+01
   0.0000000000E+00   0.0000000000E+00   0.9658932500E+00   0.0000000000E+00   0.0000000000E+00   0.1122750000E-02   0.0000000000E+00   0.0000000000E+00  -0.3522950000E-01   0.9125000013E+01   0.1167426712E-12   0.1395740089E-12  -0.4043554404E-16  -0.5437708565E-14   0.9575786103E-14   0.6825000010E-01  -0.3410675005E-01  -0.3410675005E-01  -0.4455769815E-17   0.3097799253E-15  -0.1554901869E-14   0.9125000013E+01
   0.1068250000E+01   0.0000000000E+00   0.9658932500E+00  -0.2250000000E-02   0.0000000000E+00   0.1122750000E-02   0.7050000000E-01   0.0000000000E+00  -0.3522950000E-01   0.9125000013E+01   0.1610058236E-13   0.3580112765E-13   0.5042443048E-15   0.2067637255E-14   0.9139449362E-14   0.6825000010E-01  -0.3410675005E-01  -0.3410675005E-01   0.9356312601E-16   0.1942091339E-15  -0.1251163211E-14   0.9125000013E+01
   0.1068250000E+01   0.9658932500E+00   0.9658932500E+00  -0.2250000000E-02   0.1122750000E-02   0.1122750000E-02   0.7050000000E-01  -0.3522950000E-01  -0.3522950000E-01   0.9125000012E+01   0.2927138627E-13   0.4765347035E-13   0.1775802519E-14   0.1718937520E-15  -0.9263161441E-14   0.6825000009E-01  -0.3410675004E-01  -0.3410675004E-01   0.4215600339E-15  -0.3753557465E-16   0.1163374313E-14   0.9125000012E+01
   0.0000000000E+00   0.9658932500E+00   0.9658932500E+00   0.0000000000E+00   0.1122750000E-02   0.1122750000E-02   0.0000000000E+00  -0.3522950000E-01  -0.3522950000E-01   0.9125000012E+01   0.1754250592E-14   0.2042730588E-13   0.4880998339E-15  -0.5714086333E-14  -0.1107258919E-13   0.6825000009E-01  -0.3410675005E-01  -0.3410675005E-01   0.1191613628E-15   0.8931762487E-15   0.8350411959E-15   0.9125000012E+01
   0.2136500000E+01   0.0000000000E+00   0.3044068238E-14  -0.4500000000E-02   0.0000000000E+00   0.7466570454E-17   0.1410000000E+00   0.0000000000E+00   0.3036601668E-14   0.9125000014E+01   0.2003459322E-12   0.1813804472E-12  -0.1564282572E-14   0.5686529016E-14   0.6948878897E-14   0.6825000010E-01  -0.3410675005E-01  -0.3410675005E-01  -0.1265512214E-15   0.7468957213E-15  -0.2059093191E-14   0.9125000014E+01
   0.2136500000E+01   0.9658932500E+00   0.2010337904E-14  -0.4500000000E-02   0.1122750000E-02   0.6475974628E-17   0.1410000000E+00  -0.3522950000E-01   0.2003861929E-14   0.9125000013E+01  -0.3939628439E-13  -0.5130018370E-13  -0.3720423387E-14   0.2667654339E-14  -0.6947919418E-14   0.6825000010E-01  -0.3410675005E-01  -0.3410675005E-01   0.5482248876E-15  -0.3691499659E-15   0.3357536746E-15   0.9125000013E+01
   0.2136500000E+01   0.0000000000E+00   0.9658932500E+00  -0.4500000000E-02   0.0000000000E+00   0.1122750000E-02   0.1410000000E+00   0.0000000000E+00  -0.3522950000E-01   0.9125000013E+01   0.1407389503E-13   0.2759452034E-13  -0.5972355554E-16   0.2497606168E-14   0.8057592183E-14   0.6825000010E-01  -0.3410675005E-01  -0.3410675005E-01   0.2717980937E-16  -0.3098527749E-16  -0.2101273441E-14   0.9125000013E+01
   0.2136500000E+01   0.9658932500E+00   0.9658932500E+00  -0.4500000000E-02   0.1122750000E-02   0.1122750000E-02   0.1410000000E+00  -0.3522950000E-01  -0.3522950000E-01   0.9125000012E+01   0.3848635934E-13   0.5206541366E-13   0.8823509291E-15   0.2823678588E-14  -0.6388951953E-14   0.6825000009E-01  -0.3410675004E-01  -0.3410675004E-01   0.6858540705E-15  -0.8356117005E-15   0.3454192114E-15   0.9125000012E+01
     1     2     3     4     5     6     7     8
     2     9    10     3     6    11    12     7
 VARIABLES = X,Y,Z,DU1,DU2,DU3,U1,U2,U3,S11,S22,S33,S12,S13,S23,E11,E22,E33,E12,E13,E23,SMISES
 ZONE, T="0.3200D+01" F=FEPOINT, I=   12 J=    2 ET=BRICK
   0.0000000000E+00   0.0000000000E+00   0.0000000000E+00   0.0000000000E+00   0.0000000000E+00   0.0000000000E+00   0.0000000000E+00   0.0000000000E+00   0.0000000000E+00   0.8000000013E+01   0.9361341721E-13   0.7240026473E-13  -0.1649261627E-16  -0.4542422747E-14   0.1121599858E-13   0.6600000010E-01  -0.3298400005E-01  -0.3298400005E-01   0.5018810023E-17   0.4241213161E-15  -0.1572076514E-14   0.8000000013E+01
   0.1066000000E+01   0.0000000000E+00   0.6435723021E-15  -0.2250000000E-02   0.0000000000E+00  -0.4748930598E-18   0.6825000000E-01   0.0000000000E+00   0.6440471952E-15   0.8000000012E+01  -0.6209475638E-13  -0.8191721257E-13   0.1707989062E-15   0.1432002873E-14   0.9572676889E-14   0.6600000010E-01  -0.3298400005E-01  -0.3298400005E-01   0.4268613106E-16   0.5744478956E-15  -0.1234167063E-14   0.8000000012E+01
   0.1066000000E+01   0.9670160000E+00   0.3043606177E-16  -0.2250000000E-02   0.1122750000E-02   0.2004193934E-17   0.6825000000E-01  -0.3410675000E-01   0.2843186784E-16   0.8000000011E+01   0.2247589155E-13   0.4267243997E-14  -0.1880316809E-14   0.1552082286E-15  -0.9452475590E-14   0.6600000009E-01  -0.3298400005E-01  -0.3298400005E-01   0.4187190078E-15   0.3131900293E-15   0.1208405930E-14   0.8000000011E+01
   0.0000000000E+00   0.9670160000E+00  -0.7831265198E-15   0.0000000000E+00   0.1122750000E-02   0.2800143513E-17   0.0000000000E+00  -0.3410675000E-01  -0.7859266633E-15   0.8000000012E+01   0.3230655718E-13   0.1082197018E-13  -0.1401085463E-14  -0.6043161688E-14  -0.1031152997E-13   0.6600000010E-01  -0.3298400005E-01  -0.3298400005E-01   0.7980285552E-16   0.1045088137E-14   0.8486400244E-15   0.8000000012E+01
   0.0000000000E+00   0.0000000000E+00   0.9670160000E+00   0.0000000000E+00   0.0000000000E+00   0.1122750000E-02   0.0000000000E+00   0.0000000000E+00  -0.3410675000E-01   0.8000000012E+01  -0.2611477521E-13  -0.2634704642E-14  -0.1245905791E-16  -0.5443814225E-14   0.9769503516E-14   0.6600000010E-01  -0.3298400005E-01  -0.3298400005E-01  -0.3219455107E-17   0.2932506188E-15  -0.1557043621E-14   0.8000000012E+01
   0.1066000000E+01   0.0000000000E+00   0.9670160000E+00  -0.2250000000E-02   0.0000000000E+00   0.1122750000E-02   0.6825000000E-01   0.0000000000E+00  -0.3410675000E-01   0.8000000011E+01   0.3693213019E-13   0.5788658656E-13   0.1033018415E-14   0.1751795151E-14   0.9065841210E-14   0.6600000009E-01  -0.3298400005E-01  -0.3298400005E-01   0.7009740480E-16   0.2061445702E-15  -0.1246485245E-14   0.8000000011E+01
   0.1066000000E+01   0.9670160000E+00   0.9670160000E+00  -0.2250000000E-02   0.1122750000E-02   0.1122750000E-02   0.6825000000E-01  -0.3410675000E-01  -0.3410675000E-01   0.8000000010E+01   0.2584084998E-13   0.4308004525E-13   0.2232665909E-14   0.3523931499E-15  -0.9742305242E-14   0.6600000009E-01  -0.3298400004E-01  -0.3298400004E-01   0.4132937274E-15   0.1450273923E-16   0.1156637355E-14   0.8000000010E+01
   0.0000000000E+00   0.9670160000E+00   0.9670160000E+00   0.0000000000E+00   0.1122750000E-02   0.1122750000E-02   0.0000000000E+00  -0.3410675000E-01  -0.3410675000E-01   0.8000000011E+01   0.2481079529E-13   0.4384413901E-13   0.7504711007E-15  -0.6111982592E-14  -0.1141614044E-13   0.6600000009E-01  -0.3298400004E-01  -0.3298400004E-01   0.1203899456E-15   0.8787705161E-15   0.8114573384E-15   0.8000000011E+01
   0.2132000000E+01   0.0000000000E+00   0.3038306787E-14  -0.4500000000E-02   0.0000000000E+00  -0.5761451239E-17   0.1365000000E+00   0.0000000000E+00   0.3044068238E-14   0.8000000012E+01  -0.3096081025E-12  -0.3277583212E-12  -0.5232939412E-15   0.5772796491E-14   0.7490479889E-14   0.6600000010E-01  -0.3298400005E-01  -0.3298400005E-01  -0.1180764130E-15   0.5696091694E-15  -0.2058115634E-14   0.8000000012E+01
   0.2132000000E+01   0.9670160000E+00   0.2007909550E-14  -0.4500000000E-02   0.1122750000E-02  -0.2428353731E-17   0.1365000000E+00  -0.3410675000E-01   0.2010337904E-14   0.8000000011E+01  -0.5362583929E-14  -0.1734921596E-13  -0.2959734937E-14   0.2861198925E-14  -0.6957083040E-14   0.6600000009E-01  -0.3298400005E-01  -0.3298400005E-01   0.5509211089E-15  -0.2908933588E-15   0.3252988343E-15   0.8000000011E+01
   0.2132000000E+01   0.0000000000E+00   0.9670160000E+00  -0.4500000000E-02   0.0000000000E+00   0.1122750000E-02   0.1365000000E+00   0.0000000000E+00  -0.3410675000E-01   0.8000000011E+01   0.5799041196E-13   0.7270399304E-13   0.8711621320E-15   0.2886779611E-14   0.8223512214E-14   0.6600000009E-01  -0.3298400005E-01  -0.3298400005E-01   0.9656580013E-16   0.8162085493E-16  -0.2071236245E-14   0.8000000011E+01
   0.2132000000E+01   0.9670160000E+00   0.9670160000E+00  -0.4500000000E-02   0.1122750000E-02   0.1122750000E-02   0.1365000000E+00  -0.3410675000E-01  -0.3410675000E-01   0.8000000010E+01   0.3098898721E-13   0.4538330783E-13   0.1147456703E-14   0.3393302486E-14  -0.6915894566E-14   0.6600000008E-01  -0.3298400004E-01  -0.3298400004E-01   0.6706418913E-15  -0.9576455829E-15   0.3385200155E-15   0.8000000010E+01
     1     2     3     4     5     6     7     8
     2     9    10     3     6    11    12     7
 VARIABLES = X,Y,Z,DU1,DU2,DU3,U1,U2,U3,S11,S22,S33,S12,S13,S23,E11,E22,E33,E12,E13,E23,SMISES
 ZONE, T="0.3250D+01" F=FEPOINT, I=   12 J=    2 ET=BRICK
   0.0000000000E+00   0.0000000000E+00   0.0000000000E+00   0.0000000000E+00   0.0000000000E+00   0.0000000000E+00   0.0000000000E+00   0.0000000000E+00   0.0000000000E+00   0.6875000011E+01   0.1099576138E-13  -0.9575561336E-14  -0.3404951044E-16  -0.4628221997E-14   0.1067077842E-13   0.6375000010E-01  -0.3186125005E-01  -0.3186125005E-01  -0.1498750836E-16   0.3997277901E-15  -0.1572798159E-14   0.6875000011E+01
   0.1063750000E+01   0.0000000000E+00   0.6445871341E-15  -0.2250000000E-02   0.0000000000E+00   0.1014832014E-17   0.6600000000E-01   0.0000000000E+00   0.6435723021E-15   0.6875000011E+01   0.3620863541E-13   0.1692243104E-13  -0.1221062350E-15   0.1482323291E-14   0.9197715381E-14   0.6375000010E-01  -0.3186125005E-01  -0.3186125005E-01   0.8064130061E-16   0.5847020670E-15  -0.1224867860E-14   0.6875000011E+01
   0.1063750000E+01   0.9681387500E+00   0.2935146682E-16  -0.2250000000E-02   0.1122750000E-02  -0.1084594949E-17   0.6600000000E-01  -0.3298400000E-01   0.3043606177E-16   0.6875000010E+01  -0.9779396986E-13  -0.1143641138E-12  -0.2104989170E-14   0.2618452174E-15  -0.8989557251E-14   0.6375000009E-01  -0.3186125005E-01  -0.3186125005E-01   0.4314509109E-15   0.3135159809E-15   0.1195132506E-14   0.6875000010E+01
   0.0000000000E+00   0.9681387500E+00  -0.7863124073E-15   0.0000000000E+00   0.1122750000E-02  -0.3185887536E-17   0.0000000000E+00  -0.3298400000E-01  -0.7831265198E-15   0.6875000010E+01  -0.7868440843E-13  -0.9892451406E-13  -0.1576763723E-14  -0.5825382767E-14  -0.1015108797E-13   0.6375000009E-01  -0.3186125005E-01  -0.3186125005E-01   0.4468691946E-16   0.1061978838E-14   0.8495606078E-15   0.6875000010E+01
   0.0000000000E+00   0.0000000000E+00   0.9681387500E+00   0.0000000000E+00   0.0000000000E+00   0.1122750000E-02   0.0000000000E+00   0.0000000000E+00  -0.3298400000E-01   0.6875000010E+01  -0.1418232491E-13   0.8375442580E-14  -0.2165281540E-16  -0.5403237810E-14   0.9577430308E-14   0.6375000009E-01  -0.3186125005E-01  -0.3186125005E-01   0.7912561316E-17   0.3325067846E-15  -0.1565071266E-14   0.6875000010E+01
   0.1063750000E+01   0.0000000000E+00   0.9681387500E+00  -0.2250000000E-02   0.0000000000E+00   0.1122750000E-02   0.6600000000E-01   0.0000000000E+00  -0.3298400000E-01   0.6875000010E+01  -0.3060948138E-14   0.1694291562E-13   0.8005937620E-15   0.2031216521E-14   0.8892890960E-14   0.6375000009E-01  -0.3186125005E-01  -0.3186125005E-01   0.2925874991E-16   0.1493625894E-15  -0.1283226979E-14   0.6875000010E+01
   0.1063750000E+01   0.9681387500E+00   0.9681387500E+00  -0.2250000000E-02   0.1122750000E-02   0.1122750000E-02   0.6600000000E-01  -0.3298400000E-01  -0.3298400000E-01   0.6875000009E+01   0.3887858449E-13   0.5602561717E-13   0.1993984664E-14   0.3173337644E-15  -0.9182472492E-14   0.6375000008E-01  -0.3186125004E-01  -0.3186125004E-01   0.4297975599E-15  -0.2307911711E-16   0.1159924899E-14   0.6875000009E+01
   0.0000000000E+00   0.9681387500E+00   0.9681387500E+00   0.0000000000E+00   0.1122750000E-02   0.1122750000E-02   0.0000000000E+00  -0.3298400000E-01  -0.3298400000E-01   0.6875000009E+01   0.3443839926E-13   0.5327400242E-13   0.6472656737E-15  -0.5897683350E-14  -0.1101922040E-13   0.6375000009E-01  -0.3186125004E-01  -0.3186125004E-01   0.1155261611E-15   0.8628824872E-15   0.8149252498E-15   0.6875000009E+01
   0.2127500000E+01   0.0000000000E+00   0.3046360755E-14  -0.4500000000E-02   0.0000000000E+00   0.8053967610E-17   0.1320000000E+00   0.0000000000E+00   0.3038306787E-14   0.6875000010E+01   0.1390648005E-12   0.1220113893E-12  -0.1561926510E-14   0.5137608797E-14   0.7024523781E-14   0.6375000010E-01  -0.3186125005E-01  -0.3186125005E-01  -0.1450564641E-15   0.5316350953E-15  -0.2063486869E-14   0.6875000010E+01
   0.2127500000E+01   0.9681387500E+00   0.2013371924E-14  -0.4500000000E-02   0.1122750000E-02   0.5462374274E-17   0.1320000000E+00  -0.3298400000E-01   0.2007909550E-14   0.6875000010E+01  -0.6973671739E-13  -0.8217686836E-13  -0.3608156148E-14   0.3092642089E-14  -0.6715133465E-14   0.6375000009E-01  -0.3186125004E-01  -0.3186125004E-01   0.5218710828E-15  -0.3119490073E-15   0.3414639795E-15   0.6875000010E+01
   0.2127500000E+01   0.0000000000E+00   0.9681387500E+00  -0.4500000000E-02   0.0000000000E+00   0.1122750000E-02   0.1320000000E+00   0.0000000000E+00  -0.3298400000E-01   0.6875000010E+01   0.2858189389E-13   0.4249508283E-13   0.6561343869E-15   0.2130574609E-14   0.7758735266E-14   0.6375000009E-01  -0.3186125004E-01  -0.3186125004E-01   0.8033487390E-16  -0.6560778449E-16  -0.2106751348E-14   0.6875000010E+01
   0.2127500000E+01   0.9681387500E+00   0.9681387500E+00  -0.4500000000E-02   0.1122750000E-02   0.1122750000E-02   0.1320000000E+00  -0.3298400000E-01  -0.3298400000E-01   0.6875000009E+01   0.1057991909E-14   0.1479959409E-13   0.1074214671E-14   0.3173883812E-14  -0.6766325010E-14   0.6375000008E-01  -0.3186125004E-01  -0.3186125004E-01   0.6670944135E-15  -0.8584131843E-15   0.3268661020E-15   0.6875000009E+01
     1     2     3     4     5     6     7     8
     2     9    10     3     6    11    12     7
 VARIABLES = X,Y,Z,DU1,DU2,DU3,U1,U2,U3,S11,S22,S33,S12,S13,S23,E11,E22,E33,E12,E13,E23,SMISES
 ZONE, T="0.3300D+01" F=FEPOINT, I=   12 J=    2 ET=BRICK
   0.0000000000E+00   0.0000000000E+00   0.0000000000E+00   0.0000000000E+00   0.0000000000E+00   0.0000000000E+00   0.0000000000E+00   0.0000000000E+00   0.0000000000E+00   0.5750000009E+01  -0.5059776084E-13  -0.7107094269E-13  -0.4736875599E-16  -0.4512917179E-14   0.1051735883E-13   0.6150000010E-01  -0.3073850005E-01  -0.3073850005E-01  -0.7494125077E-17   0.4186504607E-15  -0.1572904874E-14   0.5750000009E+01
   0.1061500000E+01   0.0000000000E+00   0.6450846248E-15  -0.2250000000E-02   0.0000000000E+00   0.4974906543E-18   0.6375000000E-01   0.0000000000E+00   0.6445871341E-15   0.5750000009E+01  -0.4455700880E-13  -0.6454599836E-13   0.5915948843E-16   0.1743431366E-14   0.9000468733E-14   0.6150000009E-01  -0.3073850005E-01  -0.3073850005E-01   0.8155540405E-16   0.5893744603E-15  -0.1232845443E-14   0.5750000009E+01
   0.1061500000E+01   0.9692615000E+00   0.2879778006E-16  -0.2250000000E-02   0.1122750000E-02  -0.5536867647E-18   0.6375000000E-01  -0.3186125000E-01   0.2935146682E-16   0.5750000008E+01   0.7689008805E-14  -0.8359757501E-14  -0.1918565272E-14   0.1886343314E-15  -0.9172738896E-14   0.6150000009E-01  -0.3073850004E-01  -0.3073850004E-01   0.4407207234E-15   0.2782290651E-15   0.1200239060E-14   0.5750000008E+01
   0.0000000000E+00   0.9692615000E+00  -0.7871443211E-15   0.0000000000E+00   0.1122750000E-02  -0.8319137706E-18   0.0000000000E+00  -0.3186125000E-01  -0.7863124073E-15   0.5750000008E+01  -0.4310763560E-14  -0.2432138749E-13  -0.1504366489E-14  -0.5860199528E-14  -0.1023016601E-13   0.6150000009E-01  -0.3073850004E-01  -0.3073850004E-01   0.5445665773E-16   0.1056150514E-14   0.8330349011E-15   0.5750000008E+01
   0.0000000000E+00   0.0000000000E+00   0.9692615000E+00   0.0000000000E+00   0.0000000000E+00   0.1122750000E-02   0.0000000000E+00   0.0000000000E+00  -0.3186125000E-01   0.5750000008E+01   0.3551378256E-13   0.5807354283E-13  -0.1693515365E-16  -0.5359184642E-14   0.9629069168E-14   0.6150000009E-01  -0.3073850004E-01  -0.3073850004E-01   0.7894564199E-17   0.3048856813E-15  -0.1575181719E-14   0.5750000008E+01
   0.1061500000E+01   0.0000000000E+00   0.9692615000E+00  -0.2250000000E-02   0.0000000000E+00   0.1122750000E-02   0.6375000000E-01   0.0000000000E+00  -0.3186125000E-01   0.5750000008E+01   0.1857815646E-13   0.3840459809E-13   0.4355097468E-15   0.2103679633E-14   0.9012375658E-14   0.6150000009E-01  -0.3073850004E-01  -0.3073850004E-01   0.1651019954E-16   0.1920529380E-15  -0.1269179232E-14   0.5750000008E+01
   0.1061500000E+01   0.9692615000E+00   0.9692615000E+00  -0.2250000000E-02   0.1122750000E-02   0.1122750000E-02   0.6375000000E-01  -0.3186125000E-01  -0.3186125000E-01   0.5750000008E+01   0.3060592112E-13   0.4788973893E-13   0.1672323181E-14   0.1798011118E-15  -0.9145509389E-14   0.6150000008E-01  -0.3073850004E-01  -0.3073850004E-01   0.3821289649E-15  -0.3898684665E-16   0.1152371111E-14   0.5750000008E+01
   0.0000000000E+00   0.9692615000E+00   0.9692615000E+00   0.0000000000E+00   0.1122750000E-02   0.1122750000E-02   0.0000000000E+00  -0.3186125000E-01  -0.3186125000E-01   0.5750000008E+01   0.3652838631E-14   0.2286559722E-13   0.6068387582E-15  -0.5827425617E-14  -0.1094137562E-13   0.6150000008E-01  -0.3073850004E-01  -0.3073850004E-01   0.1116967496E-15   0.8735762874E-15   0.8470801553E-15   0.5750000008E+01
   0.2123000000E+01   0.0000000000E+00   0.3047586585E-14  -0.4500000000E-02   0.0000000000E+00   0.1225829947E-17   0.1275000000E+00   0.0000000000E+00   0.3046360755E-14   0.5750000009E+01  -0.3952740917E-14  -0.2159990783E-13  -0.1435890567E-14   0.5653907797E-14   0.6872341517E-14   0.6150000009E-01  -0.3073850005E-01  -0.3073850005E-01  -0.1427845921E-15   0.7670877718E-15  -0.2069136034E-14   0.5750000009E+01
   0.2123000000E+01   0.9692615000E+00   0.2013652531E-14  -0.4500000000E-02   0.1122750000E-02   0.2806063612E-18   0.1275000000E+00  -0.3186125000E-01   0.2013371924E-14   0.5750000008E+01   0.2377581985E-13   0.1190512054E-13  -0.3451017777E-14   0.2380765710E-14  -0.6835455896E-14   0.6150000009E-01  -0.3073850004E-01  -0.3073850004E-01   0.5519079789E-15  -0.4945837376E-15   0.3560715502E-15   0.5750000008E+01
   0.2123000000E+01   0.0000000000E+00   0.9692615000E+00  -0.4500000000E-02   0.0000000000E+00   0.1122750000E-02   0.1275000000E+00   0.0000000000E+00  -0.3186125000E-01   0.5750000008E+01   0.3370718511E-13   0.4635358147E-13  -0.1808376868E-16   0.2118796713E-14   0.8149170717E-14   0.6150000009E-01  -0.3073850004E-01  -0.3073850004E-01   0.8143313554E-17   0.4415915652E-16  -0.2093226056E-14   0.5750000008E+01
   0.2123000000E+01   0.9692615000E+00   0.9692615000E+00  -0.4500000000E-02   0.1122750000E-02   0.1122750000E-02   0.1275000000E+00  -0.3186125000E-01  -0.3186125000E-01   0.5750000007E+01   0.2684141529E-13   0.4072325411E-13   0.5034824708E-15   0.2752059631E-14  -0.6312931807E-14   0.6150000008E-01  -0.3073850004E-01  -0.3073850004E-01   0.5999493437E-15  -0.9434222565E-15   0.3386464323E-15   0.5750000007E+01
     1     2     3     4     5     6     7     8
     2     9    10     3     6    11    12     7
 VARIABLES = X,Y,Z,DU1,DU2,DU3,U1,U2,U3,S11,S22,S33,S12,S13,S23,E11,E22,E33,E12,E13,E23,SMISES
 ZONE, T="0.3350D+01" F=FEPOINT, I=   12 J=    2 ET=BRICK
   0.0000000000E+00   0.0000000000E+00   0.0000000000E+00   0.0000000000E+00   0.0000000000E+00   0.0000000000E+00   0.0000000000E+00   0.0000000000E+00   0.0000000000E+00   0.4625000007E+01  -0.9645877239E-13  -0.1179400508E-12  -0.3601329894E-16  -0.4852860938E-14   0.1104149324E-13   0.5925000009E-01  -0.2961575005E-01  -0.2961575005E-01   0.6872764305E-17   0.4265396998E-15  -0.1580195508E-14   0.4625000007E+01
   0.1059250000E+01   0.0000000000E+00   0.6419201454E-15  -0.2250000000E-02   0.0000000000E+00  -0.3164479392E-17   0.6150000000E-01   0.0000000000E+00   0.6450846248E-15   0.4625000007E+01  -0.4177822108E-14  -0.2468818930E-13   0.4347340240E-15   0.1620105194E-14   0.9630780710E-14   0.5925000009E-01  -0.2961575005E-01  -0.2961575005E-01   0.5449783322E-16   0.5696388413E-15  -0.1225839676E-14   0.4625000007E+01
   0.1059250000E+01   0.9703842500E+00   0.2956210670E-16  -0.2250000000E-02   0.1122750000E-02   0.7643266453E-18   0.6150000000E-01  -0.3073850000E-01   0.2879778006E-16   0.4625000007E+01  -0.5740961789E-14  -0.2315067604E-13  -0.1634776366E-14   0.2109437963E-15  -0.9411871205E-14   0.5925000008E-01  -0.2961575004E-01  -0.2961575004E-01   0.4278349996E-15   0.3367253880E-15   0.1207940019E-14   0.4625000007E+01
   0.0000000000E+00   0.9703842500E+00  -0.7839762208E-15   0.0000000000E+00   0.1122750000E-02   0.3168100326E-17   0.0000000000E+00  -0.3073850000E-01  -0.7871443211E-15   0.4625000007E+01   0.3589308121E-14  -0.1770842692E-13  -0.1379734243E-14  -0.6107908986E-14  -0.1046951141E-13   0.5925000009E-01  -0.2961575004E-01  -0.2961575004E-01   0.6948276915E-16   0.1012008909E-14   0.8625233992E-15   0.4625000007E+01
   0.0000000000E+00   0.0000000000E+00   0.9703842500E+00   0.0000000000E+00   0.0000000000E+00   0.1122750000E-02   0.0000000000E+00   0.0000000000E+00  -0.3073850000E-01   0.4625000007E+01  -0.1949955262E-13   0.3590481136E-14  -0.2186897726E-16  -0.5615547163E-14   0.9874892339E-14   0.5925000009E-01  -0.2961575004E-01  -0.2961575004E-01  -0.2606641299E-17   0.3103180633E-15  -0.1569570308E-14   0.4625000007E+01
   0.1059250000E+01   0.0000000000E+00   0.9703842500E+00  -0.2250000000E-02   0.0000000000E+00   0.1122750000E-02   0.6150000000E-01   0.0000000000E+00  -0.3073850000E-01   0.4625000007E+01  -0.2196287892E-13  -0.1119444869E-14   0.7137542930E-15   0.2426497182E-14   0.9240992458E-14   0.5925000008E-01  -0.2961575004E-01  -0.2961575004E-01   0.2178161359E-16   0.1897128163E-15  -0.1261260259E-14   0.4625000007E+01
   0.1059250000E+01   0.9703842500E+00   0.9703842500E+00  -0.2250000000E-02   0.1122750000E-02   0.1122750000E-02   0.6150000000E-01  -0.3073850000E-01  -0.3073850000E-01   0.4625000006E+01  -0.1048624012E-13   0.6974999785E-14   0.1916859911E-14   0.1860777605E-15  -0.9858770493E-14   0.5925000008E-01  -0.2961575004E-01  -0.2961575004E-01   0.3860140320E-15  -0.7660672525E-16   0.1146466438E-14   0.4625000006E+01
   0.0000000000E+00   0.9703842500E+00   0.9703842500E+00   0.0000000000E+00   0.1122750000E-02   0.1122750000E-02   0.0000000000E+00  -0.3073850000E-01  -0.3073850000E-01   0.4625000006E+01  -0.2365153918E-13  -0.4187521667E-14   0.5889511873E-15  -0.6062007363E-14  -0.1148284179E-13   0.5925000008E-01  -0.2961575004E-01  -0.2961575004E-01   0.9830983106E-16   0.9022065496E-15   0.8041192761E-15   0.4625000006E+01
   0.2118500000E+01   0.0000000000E+00   0.3037673536E-14  -0.4500000000E-02   0.0000000000E+00  -0.9913048750E-17   0.1230000000E+00   0.0000000000E+00   0.3047586585E-14   0.4625000007E+01  -0.5470429929E-14  -0.2290843363E-13  -0.6966091524E-15   0.5620799886E-14   0.7504618730E-14   0.5925000009E-01  -0.2961575004E-01  -0.2961575004E-01  -0.8838421931E-16   0.7072677837E-15  -0.2064979037E-14   0.4625000007E+01
   0.2118500000E+01   0.9703842500E+00   0.2007582315E-14  -0.4500000000E-02   0.1122750000E-02  -0.6070215784E-17   0.1230000000E+00  -0.3073850000E-01   0.2013652531E-14   0.4625000006E+01  -0.3193907041E-13  -0.4433459888E-13  -0.2878261319E-14   0.2547898726E-14  -0.7070320902E-14   0.5925000008E-01  -0.2961575004E-01  -0.2961575004E-01   0.6035971746E-15  -0.4548876312E-15   0.3380453458E-15   0.4625000006E+01
   0.2118500000E+01   0.0000000000E+00   0.9703842500E+00  -0.4500000000E-02   0.0000000000E+00   0.1122750000E-02   0.1230000000E+00   0.0000000000E+00  -0.3073850000E-01   0.4625000006E+01  -0.6793939257E-13  -0.5354546295E-13   0.7912575095E-15   0.2357109426E-14   0.8387282118E-14   0.5925000008E-01  -0.2961575004E-01  -0.2961575004E-01  -0.1639902435E-16   0.1961912479E-16  -0.2090041530E-14   0.4625000006E+01
   0.2118500000E+01   0.9703842500E+00   0.9703842500E+00  -0.4500000000E-02   0.1122750000E-02   0.1122750000E-02   0.1230000000E+00  -0.3073850000E-01  -0.3073850000E-01   0.4625000006E+01   0.7027157103E-14   0.2192253681E-13   0.1189151902E-14   0.3499435061E-14  -0.7051281396E-14   0.5925000008E-01  -0.2961575004E-01  -0.2961575004E-01   0.5816024440E-15  -0.9659141029E-15   0.3282864994E-15   0.4625000006E+01
     1     2     3     4     5     6     7     8
     2     9    10     3     6    11    12     7
 VARIABLES = X,Y,Z,DU1,DU2,DU3,U1,U2,U3,S11,S22,S33,S12,S13,S23,E11,E22,E33,E12,E13,E23,SMISES
 ZONE, T="0.3400D+01" F=FEPOINT, I=   12 J=    2 ET=BRICK
   0.0000000000E+00   0.0000000000E+00   0.0000000000E+00   0.0000000000E+00   0.0000000000E+00   0.0000000000E+00   0.0000000000E+00   0.0000000000E+00   0.0000000000E+00   0.3500000005E+01  -0.4359036397E-13  -0.6429030533E-13  -0.2367509706E-16  -0.4622227170E-14   0.1071195192E-13   0.5700000009E-01  -0.2849300004E-01  -0.2849300004E-01  -0.7753859423E-17   0.4017690900E-15  -0.1558138146E-14   0.3500000005E+01
   0.1057000000E+01   0.0000000000E+00   0.6440737799E-15  -0.2250000000E-02   0.0000000000E+00   0.2153634517E-17   0.5925000000E-01   0.0000000000E+00   0.6419201454E-15   0.3500000005E+01  -0.1602190560E-13  -0.3610159898E-13   0.2046329513E-15   0.1498812999E-14   0.9292630769E-14   0.5700000009E-01  -0.2849300004E-01  -0.2849300004E-01   0.6182624888E-16   0.5870252484E-15  -0.1227489188E-14   0.3500000005E+01
   0.1057000000E+01   0.9715070000E+00   0.2967187448E-16  -0.2250000000E-02   0.1122750000E-02   0.1097677815E-18   0.5925000000E-01  -0.2961575000E-01   0.2956210670E-16   0.3500000005E+01  -0.2061558378E-13  -0.3742809077E-13  -0.1691725896E-14   0.3273804838E-15  -0.9191942098E-14   0.5700000008E-01  -0.2849300004E-01  -0.2849300004E-01   0.4331410452E-15   0.2787521515E-15   0.1205096176E-14   0.3500000005E+01
   0.0000000000E+00   0.9715070000E+00  -0.7860587506E-15   0.0000000000E+00   0.1122750000E-02  -0.2082529879E-17   0.0000000000E+00  -0.2961575000E-01  -0.7839762208E-15   0.3500000005E+01   0.1864036945E-13  -0.1792761858E-14  -0.1426919469E-14  -0.5920088929E-14  -0.1011457895E-13   0.5700000008E-01  -0.2849300004E-01  -0.2849300004E-01   0.6331200288E-16   0.1053803667E-14   0.8130213153E-15   0.3500000005E+01
   0.0000000000E+00   0.0000000000E+00   0.9715070000E+00   0.0000000000E+00   0.0000000000E+00   0.1122750000E-02   0.0000000000E+00   0.0000000000E+00  -0.2961575000E-01   0.3500000005E+01   0.6086054417E-13   0.8366140413E-13  -0.3041762714E-16  -0.5467198366E-14   0.9488071445E-14   0.5700000008E-01  -0.2849300004E-01  -0.2849300004E-01   0.2796925898E-17   0.2995988435E-15  -0.1591215654E-14   0.3500000005E+01
   0.1057000000E+01   0.0000000000E+00   0.9715070000E+00  -0.2250000000E-02   0.0000000000E+00   0.1122750000E-02   0.5925000000E-01   0.0000000000E+00  -0.2961575000E-01   0.3500000005E+01   0.5803493787E-13   0.7832180165E-13   0.5844954853E-15   0.2062740100E-14   0.9063505223E-14   0.5700000008E-01  -0.2849300004E-01  -0.2849300004E-01   0.3091486879E-16   0.2021082044E-15  -0.1272148270E-14   0.3500000005E+01
   0.1057000000E+01   0.9715070000E+00   0.9715070000E+00  -0.2250000000E-02   0.1122750000E-02   0.1122750000E-02   0.5925000000E-01  -0.2961575000E-01  -0.2961575000E-01   0.3500000005E+01  -0.4118880198E-13  -0.2399568799E-13   0.1654638860E-14   0.2266847341E-15  -0.9514358183E-14   0.5700000007E-01  -0.2849300004E-01  -0.2849300004E-01   0.3867579667E-15  -0.9114584583E-16   0.1149390701E-14   0.3500000005E+01
   0.0000000000E+00   0.9715070000E+00   0.9715070000E+00   0.0000000000E+00   0.1122750000E-02   0.1122750000E-02   0.0000000000E+00  -0.2961575000E-01  -0.2961575000E-01   0.3500000005E+01  -0.8993240699E-13  -0.7152329667E-13   0.4909964800E-15  -0.5876367642E-14  -0.1118216288E-13   0.5700000008E-01  -0.2849300004E-01  -0.2849300004E-01   0.1020165684E-15   0.8962695214E-15   0.8661130789E-15   0.3500000005E+01
   0.2114000000E+01   0.0000000000E+00   0.3045147534E-14  -0.4500000000E-02   0.0000000000E+00   0.7473998015E-17   0.1185000000E+00   0.0000000000E+00   0.3037673536E-14   0.3500000005E+01   0.3370844911E-13   0.1591433786E-13  -0.1029237074E-14   0.5814687782E-14   0.7197305971E-14   0.5700000009E-01  -0.2849300004E-01  -0.2849300004E-01  -0.1358931211E-15   0.6060284010E-15  -0.2060906048E-14   0.3500000005E+01
   0.2114000000E+01   0.9715070000E+00   0.2013297432E-14  -0.4500000000E-02   0.1122750000E-02   0.5715117653E-17   0.1185000000E+00  -0.2961575000E-01   0.2007582315E-14   0.3500000005E+01  -0.1314084121E-13  -0.2539885519E-13  -0.2797452891E-14   0.2494818405E-14  -0.7025056022E-14   0.5700000008E-01  -0.2849300004E-01  -0.2849300004E-01   0.5411114743E-15  -0.3856024291E-15   0.3397397040E-15   0.3500000005E+01
   0.2114000000E+01   0.0000000000E+00   0.9715070000E+00  -0.4500000000E-02   0.0000000000E+00   0.1122750000E-02   0.1185000000E+00   0.0000000000E+00  -0.2961575000E-01   0.3500000005E+01   0.7462854501E-13   0.8800621158E-13   0.4226385817E-15   0.2395144704E-14   0.8221258227E-14   0.5700000008E-01  -0.2849300004E-01  -0.2849300004E-01   0.2404346942E-16  -0.9368307303E-16  -0.2095148155E-14   0.3500000005E+01
   0.2114000000E+01   0.9715070000E+00   0.9715070000E+00  -0.4500000000E-02   0.1122750000E-02   0.1122750000E-02   0.1185000000E+00  -0.2961575000E-01  -0.2961575000E-01   0.3500000004E+01   0.2039082733E-13   0.3470261057E-13   0.7279187932E-15   0.3161966385E-14  -0.6822597267E-14   0.5700000007E-01  -0.2849300004E-01  -0.2849300004E-01   0.6150500730E-15  -0.8644219429E-15   0.3158244722E-15   0.3500000004E+01
     1     2     3     4     5     6     7     8
     2     9    10     3     6    11    12     7
 VARIABLES = X,Y,Z,DU1,DU2,DU3,U1,U2,U3,S11,S22,S33,S12,S13,S23,E11,E22,E33,E12,E13,E23,SMISES
 ZONE, T="0.3450D+01" F=FEPOINT, I=   12 J=    2 ET=BRICK
   0.0000000000E+00   0.0000000000E+00   0.0000000000E+00   0.0000000000E+00   0.0000000000E+00   0.0000000000E+00   0.0000000000E+00   0.0000000000E+00   0.0000000000E+00   0.2375000004E+01   0.8407660464E-14  -0.1246897359E-13  -0.4793462357E-16  -0.4558320581E-14   0.1077655116E-13   0.5475000009E-01  -0.2737025004E-01  -0.2737025004E-01   0.1019588936E-18   0.4183450161E-15  -0.1557938763E-14   0.2375000004E+01
   0.1054750000E+01   0.0000000000E+00   0.6440773104E-15  -0.2250000000E-02   0.0000000000E+00   0.3530492528E-20   0.5700000000E-01   0.0000000000E+00   0.6440737799E-15   0.2375000004E+01   0.4955351256E-14  -0.1529631988E-13  -0.3983051628E-16   0.1206669600E-14   0.9355573389E-14   0.5475000008E-01  -0.2737025004E-01  -0.2737025004E-01   0.4394045055E-16   0.5711145722E-15  -0.1230637275E-14   0.2375000004E+01
   0.1054750000E+01   0.9726297500E+00   0.3004257886E-16  -0.2250000000E-02   0.1122750000E-02   0.3707043713E-18   0.5700000000E-01  -0.2849300000E-01   0.2967187448E-16   0.2375000003E+01   0.1259741353E-13  -0.4316685921E-14  -0.2096554393E-14   0.5682937564E-15  -0.9097565360E-14   0.5475000008E-01  -0.2737025004E-01  -0.2737025004E-01   0.4227842207E-15   0.2944516947E-15   0.1208097006E-14   0.2375000003E+01
   0.0000000000E+00   0.9726297500E+00  -0.7857250753E-15   0.0000000000E+00   0.1122750000E-02   0.3336753561E-18   0.0000000000E+00  -0.2849300000E-01  -0.7860587506E-15   0.2375000003E+01  -0.5814523970E-13  -0.7833527854E-13  -0.1296074676E-14  -0.5888029975E-14  -0.1014066001E-13   0.5475000008E-01  -0.2737025004E-01  -0.2737025004E-01   0.6191388326E-16   0.1037366159E-14   0.8332762762E-15   0.2375000003E+01
   0.0000000000E+00   0.0000000000E+00   0.9726297500E+00   0.0000000000E+00   0.0000000000E+00   0.1122750000E-02   0.0000000000E+00   0.0000000000E+00  -0.2849300000E-01   0.2375000003E+01  -0.1364598358E-13   0.8912513294E-14  -0.9973217202E-18  -0.5505332480E-14   0.9656333184E-14   0.5475000008E-01  -0.2737025004E-01  -0.2737025004E-01  -0.3662186048E-17   0.3170071963E-15  -0.1598476859E-14   0.2375000003E+01
   0.1054750000E+01   0.0000000000E+00   0.9726297500E+00  -0.2250000000E-02   0.0000000000E+00   0.1122750000E-02   0.5700000000E-01   0.0000000000E+00  -0.2849300000E-01   0.2375000003E+01  -0.6072304576E-13  -0.4047681896E-13   0.8321860517E-15   0.2083719245E-14   0.9091146564E-14   0.5475000008E-01  -0.2737025004E-01  -0.2737025004E-01   0.3982266323E-16   0.1608134495E-15  -0.1280427120E-14   0.2375000003E+01
   0.1054750000E+01   0.9726297500E+00   0.9726297500E+00  -0.2250000000E-02   0.1122750000E-02   0.1122750000E-02   0.5700000000E-01  -0.2849300000E-01  -0.2849300000E-01   0.2375000003E+01   0.6929834572E-13   0.8635467461E-13   0.2011352266E-14   0.3951527363E-15  -0.9512519698E-14   0.5475000007E-01  -0.2737025004E-01  -0.2737025004E-01   0.4025374218E-15  -0.1817180788E-16   0.1168248253E-14   0.2375000003E+01
   0.0000000000E+00   0.9726297500E+00   0.9726297500E+00   0.0000000000E+00   0.1122750000E-02   0.1122750000E-02   0.0000000000E+00  -0.2849300000E-01  -0.2849300000E-01   0.2375000003E+01   0.8498899139E-13   0.1036587905E-12   0.5482261598E-15  -0.5941188716E-14  -0.1097122408E-13   0.5475000007E-01  -0.2737025004E-01  -0.2737025004E-01   0.9988713287E-16   0.8668929338E-15   0.8491432109E-15   0.2375000003E+01
   0.2109500000E+01   0.0000000000E+00   0.3044715014E-14  -0.4500000000E-02   0.0000000000E+00  -0.4325199445E-18   0.1140000000E+00   0.0000000000E+00   0.3045147534E-14   0.2375000004E+01   0.4567482837E-13   0.2855302462E-13  -0.9685604895E-15   0.5180468813E-14   0.7195723473E-14   0.5475000008E-01  -0.2737025004E-01  -0.2737025004E-01  -0.1338636598E-15   0.5310061546E-15  -0.2066478307E-14   0.2375000004E+01
   0.2109500000E+01   0.9726297500E+00   0.2012810127E-14  -0.4500000000E-02   0.1122750000E-02  -0.4873053756E-18   0.1140000000E+00  -0.2849300000E-01   0.2013297432E-14   0.2375000003E+01   0.4486579011E-13   0.3266800222E-13  -0.2852979396E-14   0.2736674839E-14  -0.6951435067E-14   0.5475000008E-01  -0.2737025004E-01  -0.2737025004E-01   0.5518394536E-15  -0.4135980120E-15   0.3454944556E-15   0.2375000003E+01
   0.2109500000E+01   0.0000000000E+00   0.9726297500E+00  -0.4500000000E-02   0.0000000000E+00   0.1122750000E-02   0.1140000000E+00   0.0000000000E+00  -0.2849300000E-01   0.2375000003E+01  -0.6567220493E-13  -0.5129387891E-13   0.1385388102E-14   0.1896064831E-14   0.7890238788E-14   0.5475000008E-01  -0.2737025004E-01  -0.2737025004E-01   0.5340673436E-17   0.5883746608E-16  -0.2084948171E-14   0.2375000003E+01
   0.2109500000E+01   0.9726297500E+00   0.9726297500E+00  -0.4500000000E-02   0.1122750000E-02   0.1122750000E-02   0.1140000000E+00  -0.2849300000E-01  -0.2849300000E-01   0.2375000003E+01  -0.1979311447E-13  -0.5509086773E-14   0.1389048059E-14   0.3531940838E-14  -0.7009110070E-14   0.5475000007E-01  -0.2737025004E-01  -0.2737025004E-01   0.5988093351E-15  -0.1069646442E-14   0.3141631939E-15   0.2375000003E+01
     1     2     3     4     5     6     7     8
     2     9    10     3     6    11    12     7
 VARIABLES = X,Y,Z,DU1,DU2,DU3,U1,U2,U3,S11,S22,S33,S12,S13,S23,E11,E22,E33,E12,E13,E23,SMISES
 ZONE, T="0.3500D+01" F=FEPOINT, I=   12 J=    2 ET=BRICK
   0.0000000000E+00   0.0000000000E+00   0.0000000000E+00   0.0000000000E+00   0.0000000000E+00   0.0000000000E+00   0.0000000000E+00   0.0000000000E+00   0.0000000000E+00   0.1250000002E+01   0.1526979944E-13  -0.5262380870E-14  -0.4376147627E-16  -0.4497976915E-14   0.1072555985E-13   0.5250000008E-01  -0.2624750004E-01  -0.2624750004E-01   0.3938524133E-17   0.4008042021E-15  -0.1583190950E-14   0.1250000002E+01
   0.1052500000E+01   0.0000000000E+00   0.6450398668E-15  -0.2250000000E-02   0.0000000000E+00   0.9625564668E-18   0.5475000000E-01   0.0000000000E+00   0.6440773104E-15   0.1250000002E+01  -0.3698585579E-13  -0.5678898982E-13   0.1023802902E-15   0.1510173222E-14   0.9229449006E-14   0.5250000008E-01  -0.2624750004E-01  -0.2624750004E-01   0.3536528377E-16   0.5797631073E-15  -0.1231295891E-14   0.1250000002E+01
   0.1052500000E+01   0.9737525000E+00   0.3022780756E-16  -0.2250000000E-02   0.1122750000E-02   0.1852287053E-18   0.5475000000E-01  -0.2737025000E-01   0.3004257886E-16   0.1250000002E+01  -0.4495026788E-13  -0.6147333410E-13  -0.2006253824E-14   0.1628878294E-15  -0.8980502741E-14   0.5250000007E-01  -0.2624750004E-01  -0.2624750004E-01   0.4059900238E-15   0.2863457009E-15   0.1218706030E-14   0.1250000002E+01
   0.0000000000E+00   0.9737525000E+00  -0.7861899664E-15   0.0000000000E+00   0.1122750000E-02  -0.4648910731E-18   0.0000000000E+00  -0.2737025000E-01  -0.7857250753E-15   0.1250000002E+01   0.4499796569E-13   0.2495364363E-13  -0.1378637583E-14  -0.5760275979E-14  -0.1014818860E-13   0.5250000008E-01  -0.2624750004E-01  -0.2624750004E-01   0.6877555218E-16   0.1050031055E-14   0.8591335431E-15   0.1250000002E+01
   0.0000000000E+00   0.0000000000E+00   0.9737525000E+00   0.0000000000E+00   0.0000000000E+00   0.1122750000E-02   0.0000000000E+00   0.0000000000E+00  -0.2737025000E-01   0.1250000002E+01   0.1290030745E-13   0.3561567673E-13  -0.5577478720E-17  -0.5489089051E-14   0.9459770483E-14   0.5250000008E-01  -0.2624750004E-01  -0.2624750004E-01   0.6040083100E-17   0.3025431249E-15  -0.1546745596E-14   0.1250000002E+01
   0.1052500000E+01   0.0000000000E+00   0.9737525000E+00  -0.2250000000E-02   0.0000000000E+00   0.1122750000E-02   0.5475000000E-01   0.0000000000E+00  -0.2737025000E-01   0.1250000002E+01   0.3591035219E-13   0.5599303469E-13   0.5954455052E-15   0.2109817353E-14   0.8920789838E-14   0.5250000007E-01  -0.2624750004E-01  -0.2624750004E-01   0.4405397356E-16   0.1916995136E-15  -0.1274830264E-14   0.1250000002E+01
   0.1052500000E+01   0.9737525000E+00   0.9737525000E+00  -0.2250000000E-02   0.1122750000E-02   0.1122750000E-02   0.5475000000E-01  -0.2737025000E-01  -0.2737025000E-01   0.1250000002E+01   0.4199527377E-13   0.5891382118E-13   0.1868919510E-14   0.2464427302E-15  -0.9406693958E-14   0.5250000007E-01  -0.2624750003E-01  -0.2624750003E-01   0.4027516476E-15  -0.9438977865E-16   0.1150756029E-14   0.1250000002E+01
   0.0000000000E+00   0.9737525000E+00   0.9737525000E+00   0.0000000000E+00   0.1122750000E-02   0.1122750000E-02   0.0000000000E+00  -0.2737025000E-01  -0.2737025000E-01   0.1250000002E+01  -0.6295584875E-13  -0.4436954756E-13   0.5714525342E-15  -0.5942933899E-14  -0.1103381366E-13   0.5250000007E-01  -0.2624750004E-01  -0.2624750004E-01   0.9092563221E-16   0.8896085305E-15   0.8221760691E-15   0.1250000002E+01
   0.2105000000E+01   0.0000000000E+00   0.3048437202E-14  -0.4500000000E-02   0.0000000000E+00   0.3722187577E-17   0.1095000000E+00   0.0000000000E+00   0.3044715014E-14   0.1250000002E+01  -0.1103070636E-12  -0.1276642916E-12  -0.1033144020E-14   0.5705149027E-14   0.6806759282E-14   0.5250000008E-01  -0.2624750004E-01  -0.2624750004E-01  -0.1131587035E-15   0.6004350912E-15  -0.2064709872E-14   0.1250000002E+01
   0.2105000000E+01   0.9737525000E+00   0.2014339072E-14  -0.4500000000E-02   0.1122750000E-02   0.1528945169E-17   0.1095000000E+00  -0.2737025000E-01   0.2012810127E-14   0.1250000002E+01  -0.2211665930E-13  -0.3363347504E-13  -0.2961456054E-14   0.2440895077E-14  -0.6860871609E-14   0.5250000007E-01  -0.2624750004E-01  -0.2624750004E-01   0.5705644422E-15  -0.3575073521E-15   0.3282004520E-15   0.1250000002E+01
   0.2105000000E+01   0.0000000000E+00   0.9737525000E+00  -0.4500000000E-02   0.0000000000E+00   0.1122750000E-02   0.1095000000E+00   0.0000000000E+00  -0.2737025000E-01   0.1250000002E+01  -0.1847893683E-13  -0.5206083050E-14   0.8844815845E-15   0.1950415425E-14   0.8010916592E-14   0.5250000007E-01  -0.2624750004E-01  -0.2624750004E-01   0.1757696150E-16   0.4651467762E-16  -0.2100582912E-14   0.1250000002E+01
   0.2105000000E+01   0.9737525000E+00   0.9737525000E+00  -0.4500000000E-02   0.1122750000E-02   0.1122750000E-02   0.1095000000E+00  -0.2737025000E-01  -0.2737025000E-01   0.1250000002E+01   0.1705118026E-12   0.1848149212E-12   0.1004547833E-14   0.3455576547E-14  -0.6456913420E-14   0.5250000007E-01  -0.2624750003E-01  -0.2624750003E-01   0.6147223397E-15  -0.9305234660E-15   0.3421096947E-15   0.1250000002E+01
     1     2     3     4     5     6     7     8
     2     9    10     3     6    11    12     7
 VARIABLES = X,Y,Z,DU1,DU2,DU3,U1,U2,U3,S11,S22,S33,S12,S13,S23,E11,E22,E33,E12,E13,E23,SMISES
 ZONE, T="0.3550D+01" F=FEPOINT, I=   12 J=    2 ET=BRICK
   0.0000000000E+00   0.0000000000E+00   0.0000000000E+00   0.0000000000E+00   0.0000000000E+00   0.0000000000E+00   0.0000000000E+00   0.0000000000E+00   0.0000000000E+00   0.1250000002E+00   0.5472458961E-14  -0.1522828748E-13  -0.4952709432E-16  -0.4602782680E-14   0.1071648237E-13   0.5025000008E-01  -0.2512475004E-01  -0.2512475004E-01  -0.7382392749E-17   0.4160690659E-15  -0.1575556593E-14   0.1250000002E+00
   0.1050250000E+01   0.0000000000E+00   0.6438898017E-15  -0.2250000000E-02   0.0000000000E+00  -0.1150065107E-17   0.5250000000E-01   0.0000000000E+00   0.6450398668E-15   0.1250000002E+00   0.2032577111E-13   0.1187045877E-15  -0.9639358718E-16   0.1283101435E-14   0.9366548450E-14   0.5025000008E-01  -0.2512475004E-01  -0.2512475004E-01   0.7043397637E-16   0.5677019704E-15  -0.1228272546E-14   0.1250000002E+00
   0.1050250000E+01   0.9748752500E+00   0.2994908994E-16  -0.2250000000E-02   0.1122750000E-02  -0.2787176234E-18   0.5250000000E-01  -0.2624750000E-01   0.3022780756E-16   0.1250000002E+00  -0.3455592245E-13  -0.5144682332E-13  -0.2126676209E-14   0.4379684488E-15  -0.9150882891E-14   0.5025000007E-01  -0.2512475004E-01  -0.2512475004E-01   0.4416812826E-15   0.2957791819E-15   0.1197876364E-14   0.1250000002E+00
   0.0000000000E+00   0.9748752500E+00  -0.7862269579E-15   0.0000000000E+00   0.1122750000E-02  -0.3699150693E-19   0.0000000000E+00  -0.2624750000E-01  -0.7861899664E-15   0.1250000002E+00  -0.3232491952E-13  -0.5239945801E-13  -0.1155038000E-14  -0.5791467576E-14  -0.1020162416E-13   0.5025000007E-01  -0.2512475004E-01  -0.2512475004E-01   0.5911509371E-16   0.1046364412E-14   0.8428386505E-15   0.1250000002E+00
   0.0000000000E+00   0.0000000000E+00   0.9748752500E+00   0.0000000000E+00   0.0000000000E+00   0.1122750000E-02   0.0000000000E+00   0.0000000000E+00  -0.2624750000E-01   0.1250000002E+00   0.3635104846E-13   0.5904900376E-13  -0.1227482317E-16  -0.5571714359E-14   0.9571877355E-14   0.5025000007E-01  -0.2512475004E-01  -0.2512475004E-01  -0.6661079880E-17   0.2923934881E-15  -0.1563649782E-14   0.1250000002E+00
   0.1050250000E+01   0.0000000000E+00   0.9748752500E+00  -0.2250000000E-02   0.0000000000E+00   0.1122750000E-02   0.5250000000E-01   0.0000000000E+00  -0.2624750000E-01   0.1250000002E+00  -0.8239645684E-13  -0.6210283652E-13   0.6071228497E-15   0.2172120038E-14   0.9058938077E-14   0.5025000007E-01  -0.2512475004E-01  -0.2512475004E-01   0.2553543278E-16   0.2079463495E-15  -0.1280056470E-14   0.1250000002E+00
   0.1050250000E+01   0.9748752500E+00   0.9748752500E+00  -0.2250000000E-02   0.1122750000E-02   0.1122750000E-02   0.5250000000E-01  -0.2624750000E-01  -0.2624750000E-01   0.1250000002E+00  -0.1486732263E-13   0.2280232678E-14   0.1928420765E-14   0.5064719270E-15  -0.9600071831E-14   0.5025000007E-01  -0.2512475003E-01  -0.2512475003E-01   0.3959479035E-15  -0.5937101059E-16   0.1157093682E-14   0.1250000002E+00
   0.0000000000E+00   0.9748752500E+00   0.9748752500E+00   0.0000000000E+00   0.1122750000E-02   0.1122750000E-02   0.0000000000E+00  -0.2624750000E-01  -0.2624750000E-01   0.1250000002E+00   0.1096243707E-14   0.1981249451E-13   0.4477923551E-15  -0.5978540552E-14  -0.1097329475E-13   0.5025000007E-01  -0.2512475003E-01  -0.2512475003E-01   0.1018847707E-15   0.8706032695E-15   0.8753052974E-15   0.1250000002E+00
   0.2100500000E+01   0.0000000000E+00   0.3044683118E-14  -0.4500000000E-02   0.0000000000E+00  -0.3754083761E-17   0.1050000000E+00   0.0000000000E+00   0.3048437202E-14   0.1250000002E+00   0.9917793263E-13   0.8195452748E-13  -0.1048595942E-14   0.5583764558E-14   0.7237619923E-14   0.5025000008E-01  -0.2512475004E-01  -0.2512475004E-01  -0.1206346509E-15   0.6837329448E-15  -0.2050840821E-14   0.1250000002E+00
   0.2100500000E+01   0.9748752500E+00   0.2013040469E-14  -0.4500000000E-02   0.1122750000E-02  -0.1298602846E-17   0.1050000000E+00  -0.2624750000E-01   0.2014339072E-14   0.1250000002E+00  -0.5526705848E-13  -0.6760574483E-13  -0.2955288144E-14   0.2491003478E-14  -0.6779711975E-14   0.5025000007E-01  -0.2512475004E-01  -0.2512475004E-01   0.5533636524E-15  -0.4689963748E-15   0.3212283189E-15   0.1250000002E+00
   0.2100500000E+01   0.0000000000E+00   0.9748752500E+00  -0.4500000000E-02   0.0000000000E+00   0.1122750000E-02   0.1050000000E+00   0.0000000000E+00  -0.2624750000E-01   0.1250000002E+00  -0.8454466766E-13  -0.7051179174E-13   0.8568540109E-15   0.1991967989E-14   0.7892615531E-14   0.5025000007E-01  -0.2512475004E-01  -0.2512475004E-01  -0.2057741899E-17  -0.4044435987E-17  -0.2111951373E-14   0.1250000002E+00
   0.2100500000E+01   0.9748752500E+00   0.9748752500E+00  -0.4500000000E-02   0.1122750000E-02   0.1122750000E-02   0.1050000000E+00  -0.2624750000E-01  -0.2624750000E-01   0.1250000002E+00  -0.2998984254E-13  -0.1585535354E-13   0.1078224068E-14   0.3344667936E-14  -0.6930659345E-14   0.5025000006E-01  -0.2512475003E-01  -0.2512475003E-01   0.5847727810E-15  -0.9747757725E-15   0.3236717191E-15   0.1250000002E+00
     1     2     3     4     5     6     7     8
     2     9    10     3     6    11    12     7
 VARIABLES = X,Y,Z,DU1,DU2,DU3,U1,U2,U3,S11,S22,S33,S12,S13,S23,E11,E22,E33,E12,E13,E23,SMISES
 ZONE, T="0.3600D+01" F=FEPOINT, I=   12 J=    2 ET=BRICK
   0.0000000000E+00   0.0000000000E+00   0.0000000000E+00   0.0000000000E+00   0.0000000000E+00   0.0000000000E+00   0.0000000000E+00   0.0000000000E+00   0.0000000000E+00  -0.1000000002E+01  -0.1820248762E-13  -0.3906406516E-13  -0.4116625995E-16  -0.4640601992E-14   0.1081183066E-13   0.4800000008E-01  -0.2400200004E-01  -0.2400200004E-01   0.9493635028E-17   0.4244364235E-15  -0.1565838094E-14   0.1000000002E+01
   0.1048000000E+01   0.0000000000E+00   0.6434605206E-15  -0.2250000000E-02   0.0000000000E+00  -0.4292811573E-18   0.5025000000E-01   0.0000000000E+00   0.6438898017E-15  -0.1000000002E+01   0.5867741353E-15  -0.1975596551E-13   0.5955426695E-16   0.1411224971E-14   0.9361742202E-14   0.4800000007E-01  -0.2400200004E-01  -0.2400200004E-01   0.5124607132E-16   0.5833804938E-15  -0.1223360266E-14   0.1000000002E+01
   0.1048000000E+01   0.9759980000E+00   0.2961643372E-16  -0.2250000000E-02   0.1122750000E-02  -0.3326562217E-18   0.5025000000E-01  -0.2512475000E-01   0.2994908994E-16  -0.1000000001E+01   0.9658594203E-14  -0.7392922032E-14  -0.2131465133E-14   0.2320393574E-15  -0.9102601092E-14   0.4800000007E-01  -0.2400200003E-01  -0.2400200003E-01   0.4307326854E-15   0.3007746146E-15   0.1196951133E-14   0.1000000001E+01
   0.0000000000E+00   0.9759980000E+00  -0.7857696843E-15   0.0000000000E+00   0.1122750000E-02   0.4572736068E-18   0.0000000000E+00  -0.2512475000E-01  -0.7862269579E-15  -0.1000000001E+01  -0.4088210013E-14  -0.2441471811E-13  -0.1152121933E-14  -0.5866570098E-14  -0.1030033852E-13   0.4800000007E-01  -0.2400200003E-01  -0.2400200003E-01   0.7382912309E-16   0.1044008632E-14   0.8676521700E-15   0.1000000001E+01
   0.0000000000E+00   0.0000000000E+00   0.9759980000E+00   0.0000000000E+00   0.0000000000E+00   0.1122750000E-02   0.0000000000E+00   0.0000000000E+00  -0.2512475000E-01  -0.1000000001E+01  -0.5943677333E-13  -0.3671813484E-13  -0.1963543286E-16  -0.5517610941E-14   0.9640467633E-14   0.4800000007E-01  -0.2400200003E-01  -0.2400200003E-01  -0.2669601821E-17   0.3086152013E-15  -0.1576996478E-14   0.1000000001E+01
   0.1048000000E+01   0.0000000000E+00   0.9759980000E+00  -0.2250000000E-02   0.0000000000E+00   0.1122750000E-02   0.5025000000E-01   0.0000000000E+00  -0.2512475000E-01  -0.1000000001E+01   0.4142402240E-13   0.6192685475E-13   0.6017017001E-15   0.2169324240E-14   0.9070462784E-14   0.4800000007E-01  -0.2400200003E-01  -0.2400200003E-01   0.4022758896E-16   0.2283585929E-15  -0.1280443009E-14   0.1000000001E+01
   0.1048000000E+01   0.9759980000E+00   0.9759980000E+00  -0.2250000000E-02   0.1122750000E-02   0.1122750000E-02   0.5025000000E-01  -0.2512475000E-01  -0.2512475000E-01  -0.1000000001E+01   0.1051324489E-13   0.2760513114E-13   0.1955671514E-14   0.4034668154E-15  -0.9794601257E-14   0.4800000006E-01  -0.2400200003E-01  -0.2400200003E-01   0.3863034363E-15  -0.6905274603E-16   0.1152912432E-14   0.1000000001E+01
   0.0000000000E+00   0.9759980000E+00   0.9759980000E+00   0.0000000000E+00   0.1122750000E-02   0.1122750000E-02   0.0000000000E+00  -0.2512475000E-01  -0.2512475000E-01  -0.1000000001E+01   0.3842644826E-13   0.5719221315E-13   0.4569886110E-15  -0.6080545812E-14  -0.1093526511E-13   0.4800000006E-01  -0.2400200003E-01  -0.2400200003E-01   0.9246581925E-16   0.8750856484E-15   0.8406786389E-15   0.1000000001E+01
   0.2096000000E+01   0.0000000000E+00   0.3042427989E-14  -0.4500000000E-02   0.0000000000E+00  -0.2255128972E-17   0.1005000000E+00   0.0000000000E+00   0.3044683118E-14  -0.1000000002E+01  -0.7629299623E-13  -0.9369526024E-13  -0.5187048031E-15   0.6099954442E-14   0.7278164149E-14   0.4800000007E-01  -0.2400200004E-01  -0.2400200004E-01  -0.1037204374E-15   0.6409448865E-15  -0.2058814569E-14   0.1000000002E+01
   0.2096000000E+01   0.9759980000E+00   0.2011026510E-14  -0.4500000000E-02   0.1122750000E-02  -0.2013959200E-17   0.1005000000E+00  -0.2512475000E-01   0.2013040469E-14  -0.1000000001E+01   0.8142863267E-14  -0.4126355192E-14  -0.2402653335E-14   0.2378481695E-14  -0.6828365241E-14   0.4800000007E-01  -0.2400200003E-01  -0.2400200003E-01   0.5675292566E-15  -0.4498883520E-15   0.3423678797E-15   0.1000000001E+01
   0.2096000000E+01   0.0000000000E+00   0.9759980000E+00  -0.4500000000E-02   0.0000000000E+00   0.1122750000E-02   0.1005000000E+00   0.0000000000E+00  -0.2512475000E-01  -0.1000000001E+01   0.9937773377E-13   0.1131768624E-12   0.3838753877E-15   0.2201058717E-14   0.8086863584E-14   0.4800000007E-01  -0.2400200003E-01  -0.2400200003E-01  -0.5436601801E-16   0.3203599311E-16  -0.2099078976E-14   0.1000000001E+01
   0.2096000000E+01   0.9759980000E+00   0.9759980000E+00  -0.4500000000E-02   0.1122750000E-02   0.1122750000E-02   0.1005000000E+00  -0.2512475000E-01  -0.2512475000E-01  -0.1000000001E+01  -0.1364853348E-13   0.6939098514E-15   0.5288678287E-15   0.3194395926E-14  -0.6755662377E-14   0.4800000006E-01  -0.2400200003E-01  -0.2400200003E-01   0.6095419074E-15  -0.9752373070E-15   0.3059793726E-15   0.1000000001E+01
     1     2     3     4     5     6     7     8
     2     9    10     3     6    11    12     7
 VARIABLES = X,Y,Z,DU1,DU2,DU3,U1,U2,U3,S11,S22,S33,S12,S13,S23,E11,E22,E33,E12,E13,E23,SMISES
 ZONE, T="0.3650D+01" F=FEPOINT, I=   12 J=    2 ET=BRICK
   0.0000000000E+00   0.0000000000E+00   0.0000000000E+00   0.0000000000E+00   0.0000000000E+00   0.0000000000E+00   0.0000000000E+00   0.0000000000E+00   0.0000000000E+00  -0.2125000003E+01   0.1471249319E-13  -0.6027720447E-14  -0.4949088321E-16  -0.4637964769E-14   0.1085255608E-13   0.4575000007E-01  -0.2287925004E-01  -0.2287925004E-01   0.2284164493E-17   0.4028164609E-15  -0.1584993005E-14   0.2125000003E+01
   0.1045750000E+01   0.0000000000E+00   0.6432345214E-15  -0.2250000000E-02   0.0000000000E+00  -0.2259992154E-18   0.4800000000E-01   0.0000000000E+00   0.6434605206E-15  -0.2125000003E+01  -0.6585267188E-13  -0.8630679850E-13   0.7283674548E-16   0.1612730155E-14   0.9394117312E-14   0.4575000007E-01  -0.2287925004E-01  -0.2287925004E-01   0.4315230434E-16   0.6003444956E-15  -0.1232424783E-14   0.2125000003E+01
   0.1045750000E+01   0.9771207500E+00   0.2940918173E-16  -0.2250000000E-02   0.1122750000E-02  -0.2072519891E-18   0.4800000000E-01  -0.2400200000E-01   0.2961643372E-16  -0.2125000003E+01  -0.2959898446E-13  -0.4647516910E-13  -0.2207107887E-14   0.2136923072E-15  -0.9188322825E-14   0.4575000007E-01  -0.2287925003E-01  -0.2287925003E-01   0.4317566853E-15   0.2655679482E-15   0.1205392243E-14   0.2125000003E+01
   0.0000000000E+00   0.9771207500E+00  -0.7853024599E-15   0.0000000000E+00   0.1122750000E-02   0.4672243969E-18   0.0000000000E+00  -0.2400200000E-01  -0.7857696843E-15  -0.2125000003E+01  -0.2474876753E-13  -0.4510543751E-13  -0.1237101542E-14  -0.5969807304E-14  -0.1026044007E-13   0.4575000007E-01  -0.2287925003E-01  -0.2287925003E-01   0.7395429714E-16   0.1063661323E-14   0.8758310115E-15   0.2125000003E+01
   0.0000000000E+00   0.0000000000E+00   0.9771207500E+00   0.0000000000E+00   0.0000000000E+00   0.1122750000E-02   0.0000000000E+00   0.0000000000E+00  -0.2400200000E-01  -0.2125000003E+01   0.1072601739E-12   0.1302898838E-12  -0.2104382877E-16  -0.5694266486E-14   0.9641328795E-14   0.4575000007E-01  -0.2287925003E-01  -0.2287925003E-01   0.1884780178E-17   0.3034915122E-15  -0.1551201937E-14   0.2125000003E+01
   0.1045750000E+01   0.0000000000E+00   0.9771207500E+00  -0.2250000000E-02   0.0000000000E+00   0.1122750000E-02   0.4800000000E-01   0.0000000000E+00  -0.2400200000E-01  -0.2125000003E+01   0.1974147487E-14   0.2271326690E-13   0.4366521052E-15   0.2228675971E-14   0.9075604599E-14   0.4575000007E-01  -0.2287925003E-01  -0.2287925003E-01   0.2647040667E-16   0.2226649861E-15  -0.1273354747E-14   0.2125000003E+01
   0.1045750000E+01   0.9771207500E+00   0.9771207500E+00  -0.2250000000E-02   0.1122750000E-02   0.1122750000E-02   0.4800000000E-01  -0.2400200000E-01  -0.2400200000E-01  -0.2125000003E+01  -0.1762929134E-14   0.1534419600E-13   0.1821386390E-14   0.4379593262E-15  -0.9713767858E-14   0.4575000006E-01  -0.2287925003E-01  -0.2287925003E-01   0.3833179140E-15  -0.5760289299E-16   0.1155153926E-14   0.2125000003E+01
   0.0000000000E+00   0.9771207500E+00   0.9771207500E+00   0.0000000000E+00   0.1122750000E-02   0.1122750000E-02   0.0000000000E+00  -0.2400200000E-01  -0.2400200000E-01  -0.2125000003E+01  -0.1046277251E-13   0.8505265539E-14   0.4611320890E-15  -0.6182635030E-14  -0.1115605342E-13   0.4575000006E-01  -0.2287925003E-01  -0.2287925003E-01   0.1009931313E-15   0.8600708363E-15   0.8256219455E-15   0.2125000003E+01
   0.2091500000E+01   0.0000000000E+00   0.3040615630E-14  -0.4500000000E-02   0.0000000000E+00  -0.1812358720E-17   0.9600000000E-01   0.0000000000E+00   0.3042427989E-14  -0.2125000003E+01  -0.7063907959E-13  -0.8827645194E-13  -0.4113008310E-15   0.5895573856E-14   0.7276937377E-14   0.4575000007E-01  -0.2287925003E-01  -0.2287925003E-01  -0.1039807462E-15   0.6070748016E-15  -0.2064414583E-14   0.2125000003E+01
   0.2091500000E+01   0.9771207500E+00   0.2009352780E-14  -0.4500000000E-02   0.1122750000E-02  -0.1673729965E-17   0.9600000000E-01  -0.2400200000E-01   0.2011026510E-14  -0.2125000003E+01   0.1264032402E-13   0.3450269125E-15  -0.2113589625E-14   0.2517250101E-14  -0.6819771703E-14   0.4575000006E-01  -0.2287925003E-01  -0.2287925003E-01   0.5906867228E-15  -0.3723156222E-15   0.3407234144E-15   0.2125000003E+01
   0.2091500000E+01   0.0000000000E+00   0.9771207500E+00  -0.4500000000E-02   0.0000000000E+00   0.1122750000E-02   0.9600000000E-01   0.0000000000E+00  -0.2400200000E-01  -0.2125000003E+01  -0.8386690268E-13  -0.6998010820E-13   0.3749418484E-15   0.2048217923E-14   0.8180599219E-14   0.4575000006E-01  -0.2287925003E-01  -0.2287925003E-01  -0.2616885174E-16   0.1182206019E-17  -0.2075622047E-14   0.2125000003E+01
   0.2091500000E+01   0.9771207500E+00   0.9771207500E+00  -0.4500000000E-02   0.1122750000E-02   0.1122750000E-02   0.9600000000E-01  -0.2400200000E-01  -0.2400200000E-01  -0.2125000003E+01  -0.3518999612E-13  -0.2074378523E-13   0.4828915775E-15   0.2965795394E-14  -0.6818900502E-14   0.4575000006E-01  -0.2287925003E-01  -0.2287925003E-01   0.5647300329E-15  -0.9227387619E-15   0.2898312754E-15   0.2125000003E+01
     1     2     3     4     5     6     7     8
     2     9    10     3     6    11    12     7
 VARIABLES = X,Y,Z,DU1,DU2,DU3,U1,U2,U3,S11,S22,S33,S12,S13,S23,E11,E22,E33,E12,E13,E23,SMISES
 ZONE, T="0.3700D+01" F=FEPOINT, I=   12 J=    2 ET=BRICK
   0.0000000000E+00   0.0000000000E+00   0.0000000000E+00   0.0000000000E+00   0.0000000000E+00   0.0000000000E+00   0.0000000000E+00   0.0000000000E+00   0.0000000000E+00  -0.3250000005E+01  -0.1128678890E-13  -0.3220133773E-13  -0.6625247853E-16  -0.4589452896E-14   0.1056672889E-13   0.4350000007E-01  -0.2175650003E-01  -0.2175650003E-01   0.1361253177E-17   0.3982391945E-15  -0.1573837464E-14   0.3250000005E+01
   0.1043500000E+01   0.0000000000E+00   0.6437485421E-15  -0.2250000000E-02   0.0000000000E+00   0.5140207508E-18   0.4575000000E-01   0.0000000000E+00   0.6432345214E-15  -0.3250000005E+01  -0.4868208871E-14  -0.2504405037E-13  -0.1032538783E-15   0.1273668893E-14   0.9304802732E-14   0.4350000007E-01  -0.2175650003E-01  -0.2175650003E-01   0.5134340786E-16   0.5974295228E-15  -0.1233294873E-14   0.3250000005E+01
   0.1043500000E+01   0.9782435000E+00   0.2940302564E-16  -0.2250000000E-02   0.1122750000E-02  -0.6156086020E-20   0.4575000000E-01  -0.2287925000E-01   0.2940918173E-16  -0.3250000005E+01  -0.1277983197E-13  -0.2942580552E-13  -0.2280685105E-14   0.2718295662E-15  -0.9202647798E-14   0.4350000006E-01  -0.2175650003E-01  -0.2175650003E-01   0.4350256134E-15   0.2797455383E-15   0.1209883249E-14   0.3250000005E+01
   0.0000000000E+00   0.9782435000E+00  -0.7869880138E-15   0.0000000000E+00   0.1122750000E-02  -0.1685553938E-17   0.0000000000E+00  -0.2287925000E-01  -0.7853024599E-15  -0.3250000005E+01  -0.2573100416E-13  -0.4538897218E-13  -0.1027798638E-14  -0.5643758871E-14  -0.1015057160E-13   0.4350000006E-01  -0.2175650003E-01  -0.2175650003E-01   0.7270227570E-16   0.1069234132E-14   0.8382815787E-15   0.3250000005E+01
   0.0000000000E+00   0.0000000000E+00   0.9782435000E+00   0.0000000000E+00   0.0000000000E+00   0.1122750000E-02   0.0000000000E+00   0.0000000000E+00  -0.2287925000E-01  -0.3250000005E+01   0.4228185528E-14   0.2698097143E-13   0.1975457296E-16  -0.5591815867E-14   0.9664395674E-14   0.4350000006E-01  -0.2175650003E-01  -0.2175650003E-01  -0.3780212885E-17   0.3197659214E-15  -0.1570988689E-14   0.3250000005E+01
   0.1043500000E+01   0.0000000000E+00   0.9782435000E+00  -0.2250000000E-02   0.0000000000E+00   0.1122750000E-02   0.4575000000E-01   0.0000000000E+00  -0.2287925000E-01  -0.3250000005E+01  -0.2397187779E-14   0.1812659474E-13   0.3815175182E-15   0.1997859423E-14   0.9068236464E-14   0.4350000006E-01  -0.2175650003E-01  -0.2175650003E-01   0.4022462724E-16   0.2189915985E-15  -0.1285541475E-14   0.3250000005E+01
   0.1043500000E+01   0.9782435000E+00   0.9782435000E+00  -0.2250000000E-02   0.1122750000E-02   0.1122750000E-02   0.4575000000E-01  -0.2287925000E-01  -0.2287925000E-01  -0.3250000004E+01   0.5784157594E-13   0.7486815652E-13   0.1736035691E-14   0.4537069528E-15  -0.9629191399E-14   0.4350000006E-01  -0.2175650003E-01  -0.2175650003E-01   0.3763827895E-15  -0.2694408633E-16   0.1167707696E-14   0.3250000004E+01
   0.0000000000E+00   0.9782435000E+00   0.9782435000E+00   0.0000000000E+00   0.1122750000E-02   0.1122750000E-02   0.0000000000E+00  -0.2287925000E-01  -0.2287925000E-01  -0.3250000004E+01   0.1932220218E-13   0.3800687549E-13   0.2632326186E-15  -0.6057328129E-14  -0.1077802538E-13   0.4350000006E-01  -0.2175650003E-01  -0.2175650003E-01   0.1019946744E-15   0.8515527944E-15   0.8536809089E-15   0.3250000004E+01
   0.2087000000E+01   0.0000000000E+00   0.3043054011E-14  -0.4500000000E-02   0.0000000000E+00   0.2438380520E-17   0.9150000000E-01   0.0000000000E+00   0.3040615630E-14  -0.3250000005E+01   0.1139989308E-13  -0.6512677534E-14  -0.7002143937E-15   0.6161929668E-14   0.7144991208E-14   0.4350000007E-01  -0.2175650003E-01  -0.2175650003E-01  -0.1299813373E-15   0.6658255420E-15  -0.2062775466E-14   0.3250000005E+01
   0.2087000000E+01   0.9782435000E+00   0.2010995246E-14  -0.4500000000E-02   0.1122750000E-02   0.1642465582E-17   0.9150000000E-01  -0.2287925000E-01   0.2009352780E-14  -0.3250000005E+01   0.3574343894E-13   0.2356869168E-13  -0.2393443190E-14   0.2617265459E-14  -0.6917154789E-14   0.4350000006E-01  -0.2175650003E-01  -0.2175650003E-01   0.5431108355E-15  -0.4716535037E-15   0.3371969432E-15   0.3250000005E+01
   0.2087000000E+01   0.0000000000E+00   0.9782435000E+00  -0.4500000000E-02   0.0000000000E+00   0.1122750000E-02   0.9150000000E-01   0.0000000000E+00  -0.2287925000E-01  -0.3250000005E+01   0.5386101999E-13   0.6761982750E-13   0.2603893169E-15   0.1874696909E-14   0.8089000437E-14   0.4350000006E-01  -0.2175650003E-01  -0.2175650003E-01  -0.7161731573E-16   0.1003620031E-15  -0.2084748862E-14   0.3250000005E+01
   0.2087000000E+01   0.9782435000E+00   0.9782435000E+00  -0.4500000000E-02   0.1122750000E-02   0.1122750000E-02   0.9150000000E-01  -0.2287925000E-01  -0.2287925000E-01  -0.3250000004E+01   0.1515075643E-12   0.1657360808E-12   0.4181724098E-15   0.3360388338E-14  -0.6801320406E-14   0.4350000006E-01  -0.2175650003E-01  -0.2175650003E-01   0.5955113064E-15  -0.1016800955E-14   0.3054211068E-15   0.3250000004E+01
     1     2     3     4     5     6     7     8
     2     9    10     3     6    11    12     7
 VARIABLES = X,Y,Z,DU1,DU2,DU3,U1,U2,U3,S11,S22,S33,S12,S13,S23,E11,E22,E33,E12,E13,E23,SMISES
 ZONE, T="0.3750D+01" F=FEPOINT, I=   12 J=    2 ET=BRICK
   0.0000000000E+00   0.0000000000E+00   0.0000000000E+00   0.0000000000E+00   0.0000000000E+00   0.0000000000E+00   0.0000000000E+00   0.0000000000E+00   0.0000000000E+00  -0.4375000007E+01   0.3406040823E-14  -0.1750777861E-13  -0.6433591413E-16  -0.4559572856E-14   0.1070669654E-13   0.4125000006E-01  -0.2063375003E-01  -0.2063375003E-01   0.1504557446E-17   0.4165659678E-15  -0.1563453624E-14   0.4375000007E+01
   0.1041250000E+01   0.0000000000E+00   0.6437587476E-15  -0.2250000000E-02   0.0000000000E+00   0.1020551099E-19   0.4350000000E-01   0.0000000000E+00   0.6437485421E-15  -0.4375000007E+01  -0.1166794526E-13  -0.3186410524E-13   0.3572488925E-16   0.1316179844E-14   0.9327177949E-14   0.4125000006E-01  -0.2063375003E-01  -0.2063375003E-01   0.5812257998E-16   0.5772877418E-15  -0.1223829104E-14   0.4375000007E+01
   0.1041250000E+01   0.9793662500E+00   0.2978750216E-16  -0.2250000000E-02   0.1122750000E-02   0.3844765159E-18   0.4350000000E-01  -0.2175650000E-01   0.2940302564E-16  -0.4375000006E+01  -0.3563630554E-13  -0.5266142728E-13  -0.2236906398E-14   0.3511173655E-15  -0.9070618887E-14   0.4125000006E-01  -0.2063375003E-01  -0.2063375003E-01   0.4515472404E-15   0.3104538425E-15   0.1210656702E-14   0.4375000006E+01
   0.0000000000E+00   0.9793662500E+00  -0.7862486182E-15   0.0000000000E+00   0.1122750000E-02   0.7393956365E-18   0.0000000000E+00  -0.2175650000E-01  -0.7869880138E-15  -0.4375000006E+01  -0.1309574839E-13  -0.3310583843E-13  -0.1059698864E-14  -0.5722677702E-14  -0.1024231331E-13   0.4125000006E-01  -0.2063375003E-01  -0.2063375003E-01   0.6306522134E-16   0.1052887330E-14   0.8299065553E-15   0.4375000006E+01
   0.0000000000E+00   0.0000000000E+00   0.9793662500E+00   0.0000000000E+00   0.0000000000E+00   0.1122750000E-02   0.0000000000E+00   0.0000000000E+00  -0.2175650000E-01  -0.4375000006E+01  -0.1815762466E-13   0.5073179716E-14   0.2915394831E-16  -0.5549836414E-14   0.9690067042E-14   0.4125000006E-01  -0.2063375003E-01  -0.2063375003E-01  -0.5979894149E-17   0.3105031549E-15  -0.1582472936E-14   0.4375000006E+01
   0.1041250000E+01   0.0000000000E+00   0.9793662500E+00  -0.2250000000E-02   0.0000000000E+00   0.1122750000E-02   0.4350000000E-01   0.0000000000E+00  -0.2175650000E-01  -0.4375000006E+01   0.2851087339E-13   0.4930278178E-13   0.4303603704E-15   0.2109954913E-14   0.9046968662E-14   0.4125000006E-01  -0.2063375003E-01  -0.2063375003E-01   0.4293329731E-16   0.2322213751E-15  -0.1291877928E-14   0.4375000006E+01
   0.1041250000E+01   0.9793662500E+00   0.9793662500E+00  -0.2250000000E-02   0.1122750000E-02   0.1122750000E-02   0.4350000000E-01  -0.2175650000E-01  -0.2175650000E-01  -0.4375000006E+01   0.1976793537E-13   0.3658190121E-13   0.1853941925E-14   0.3960848653E-15  -0.9802982224E-14   0.4125000005E-01  -0.2063375003E-01  -0.2063375003E-01   0.3821585327E-15  -0.6340651963E-16   0.1148019227E-14   0.4375000006E+01
   0.0000000000E+00   0.9793662500E+00   0.9793662500E+00   0.0000000000E+00   0.1122750000E-02   0.1122750000E-02   0.0000000000E+00  -0.2175650000E-01  -0.2175650000E-01  -0.4375000006E+01   0.2176361104E-13   0.4042325093E-13   0.3780628073E-15  -0.6141662244E-14  -0.1095794106E-13   0.4125000006E-01  -0.2063375003E-01  -0.2063375003E-01   0.1049671372E-15   0.8602922493E-15   0.8790378392E-15   0.4375000006E+01
   0.2082500000E+01   0.0000000000E+00   0.3042849013E-14  -0.4500000000E-02   0.0000000000E+00  -0.2049975726E-18   0.8700000000E-01   0.0000000000E+00   0.3043054011E-14  -0.4375000007E+01  -0.1115536922E-12  -0.1289307404E-12  -0.2677516948E-15   0.6431528255E-14   0.7249757818E-14   0.4125000006E-01  -0.2063375003E-01  -0.2063375003E-01  -0.1022451717E-15   0.6173059114E-15  -0.2056668527E-14   0.4375000007E+01
   0.2082500000E+01   0.9793662500E+00   0.2011291896E-14  -0.4500000000E-02   0.1122750000E-02   0.2966504558E-18   0.8700000000E-01  -0.2175650000E-01   0.2010995246E-14  -0.4375000006E+01  -0.7954785553E-14  -0.2020264028E-13  -0.2056366329E-14   0.2049312910E-14  -0.6722992691E-14   0.4125000006E-01  -0.2063375003E-01  -0.2063375003E-01   0.5661228035E-15  -0.3984487466E-15   0.3110454841E-15   0.4375000006E+01
   0.2082500000E+01   0.0000000000E+00   0.9793662500E+00  -0.4500000000E-02   0.0000000000E+00   0.1122750000E-02   0.8700000000E-01   0.0000000000E+00  -0.2175650000E-01  -0.4375000006E+01  -0.6311439303E-13  -0.4963041906E-13   0.2504719466E-15   0.1838581919E-14   0.7985746100E-14   0.4125000006E-01  -0.2063375003E-01  -0.2063375003E-01  -0.8090391952E-16   0.4679528277E-16  -0.2092176390E-14   0.4375000006E+01
   0.2082500000E+01   0.9793662500E+00   0.9793662500E+00  -0.4500000000E-02   0.1122750000E-02   0.1122750000E-02   0.8700000000E-01  -0.2175650000E-01  -0.2175650000E-01  -0.4375000006E+01  -0.2240854213E-13  -0.8003332939E-14   0.3728998761E-15   0.3465373273E-14  -0.6649173399E-14   0.4125000005E-01  -0.2063375003E-01  -0.2063375003E-01   0.5905203588E-15  -0.9949434634E-15   0.3197567786E-15   0.4375000006E+01
     1     2     3     4     5     6     7     8
     2     9    10     3     6    11    12     7
 VARIABLES = X,Y,Z,DU1,DU2,DU3,U1,U2,U3,S11,S22,S33,S12,S13,S23,E11,E22,E33,E12,E13,E23,SMISES
 ZONE, T="0.3800D+01" F=FEPOINT, I=   12 J=    2 ET=BRICK
   0.0000000000E+00   0.0000000000E+00   0.0000000000E+00   0.0000000000E+00   0.0000000000E+00   0.0000000000E+00   0.0000000000E+00   0.0000000000E+00   0.0000000000E+00  -0.5500000009E+01   0.1606655086E-13  -0.5132990803E-14  -0.5297066351E-16  -0.4623444102E-14   0.1094404509E-13   0.3900000006E-01  -0.1951100003E-01  -0.1951100003E-01  -0.3976991504E-17   0.4210883271E-15  -0.1562101717E-14   0.5500000009E+01
   0.1039000000E+01   0.0000000000E+00   0.6421255921E-15  -0.2250000000E-02   0.0000000000E+00  -0.1633155524E-17   0.4125000000E-01   0.0000000000E+00   0.6437587476E-15  -0.5500000008E+01  -0.6226613015E-13  -0.8311500852E-13   0.1331928456E-16   0.1204530688E-14   0.9581941164E-14   0.3900000006E-01  -0.1951100003E-01  -0.1951100003E-01   0.7868340019E-16   0.5766084850E-15  -0.1225889219E-14   0.5500000008E+01
   0.1039000000E+01   0.9804890000E+00   0.2968962799E-16  -0.2250000000E-02   0.1122750000E-02  -0.9787416296E-19   0.4125000000E-01  -0.2063375000E-01   0.2978750216E-16  -0.5500000008E+01   0.3880165956E-13   0.2148264910E-13  -0.2108190525E-14   0.3154043252E-15  -0.9564794310E-14   0.3900000006E-01  -0.1951100003E-01  -0.1951100003E-01   0.4409562524E-15   0.3155454889E-15   0.1201650166E-14   0.5500000008E+01
   0.0000000000E+00   0.9804890000E+00  -0.7847429387E-15   0.0000000000E+00   0.1122750000E-02   0.1505679497E-17   0.0000000000E+00  -0.2063375000E-01  -0.7862486182E-15  -0.5500000008E+01   0.2571037441E-13   0.5279769810E-14  -0.9939686603E-15  -0.5870793346E-14  -0.1044603263E-13   0.3900000006E-01  -0.1951100003E-01  -0.1951100003E-01   0.7876828617E-16   0.1037979890E-14   0.8307879885E-15   0.5500000008E+01
   0.0000000000E+00   0.0000000000E+00   0.9804890000E+00   0.0000000000E+00   0.0000000000E+00   0.1122750000E-02   0.0000000000E+00   0.0000000000E+00  -0.2063375000E-01  -0.5500000008E+01   0.1128573500E-12   0.1364977804E-12   0.3482859589E-16  -0.5876606968E-14   0.9989111235E-14   0.3900000006E-01  -0.1951100003E-01  -0.1951100003E-01   0.4043039797E-17   0.3038937589E-15  -0.1555093001E-14   0.5500000008E+01
   0.1039000000E+01   0.0000000000E+00   0.9804890000E+00  -0.2250000000E-02   0.0000000000E+00   0.1122750000E-02   0.4125000000E-01   0.0000000000E+00  -0.2063375000E-01  -0.5500000008E+01   0.2455955475E-13   0.4594867039E-13   0.2054106741E-15   0.2257555074E-14   0.9443106213E-14   0.3900000006E-01  -0.1951100003E-01  -0.1951100003E-01   0.1868680550E-16   0.2339478388E-15  -0.1287525566E-14   0.5500000008E+01
   0.1039000000E+01   0.9804890000E+00   0.9804890000E+00  -0.2250000000E-02   0.1122750000E-02   0.1122750000E-02   0.4125000000E-01  -0.2063375000E-01  -0.2063375000E-01  -0.5500000007E+01  -0.2077390442E-13  -0.3458879439E-14   0.1563118777E-14   0.2306428932E-15  -0.1015107101E-13   0.3900000005E-01  -0.1951100003E-01  -0.1951100003E-01   0.3942187066E-15  -0.8561124946E-16   0.1160521378E-14   0.5500000007E+01
   0.0000000000E+00   0.9804890000E+00   0.9804890000E+00   0.0000000000E+00   0.1122750000E-02   0.1122750000E-02   0.0000000000E+00  -0.2063375000E-01  -0.2063375000E-01  -0.5500000007E+01  -0.6579069589E-13  -0.4683988946E-13   0.8425343689E-16  -0.6159887210E-14  -0.1119640325E-13   0.3900000005E-01  -0.1951100003E-01  -0.1951100003E-01   0.9469721383E-16   0.8762108027E-15   0.8277035316E-15   0.5500000007E+01
   0.2078000000E+01   0.0000000000E+00   0.3035068592E-14  -0.4500000000E-02   0.0000000000E+00  -0.7780420881E-17   0.8250000000E-01   0.0000000000E+00   0.3042849013E-14  -0.5500000008E+01  -0.4646117546E-13  -0.6466564205E-13  -0.2444284824E-15   0.7080041886E-14   0.7654331738E-14   0.3900000006E-01  -0.1951100003E-01  -0.1951100003E-01  -0.7268459778E-16   0.7273033387E-15  -0.2054433012E-14   0.5500000008E+01
   0.2078000000E+01   0.9804890000E+00   0.2005943721E-14  -0.4500000000E-02   0.1122750000E-02  -0.5348175641E-17   0.8250000000E-01  -0.2063375000E-01   0.2011291896E-14  -0.5500000008E+01   0.1110177333E-13  -0.2031003606E-14  -0.1951893454E-14   0.1790898783E-14  -0.7060674965E-14   0.3900000005E-01  -0.1951100003E-01  -0.1951100003E-01   0.6064667090E-15  -0.4336317974E-15   0.3243996481E-15   0.5500000008E+01
   0.2078000000E+01   0.0000000000E+00   0.9804890000E+00  -0.4500000000E-02   0.0000000000E+00   0.1122750000E-02   0.8250000000E-01   0.0000000000E+00  -0.2063375000E-01  -0.5500000008E+01   0.1412739293E-12   0.1554911662E-12  -0.3410476535E-16   0.2219797344E-14   0.8356366972E-14   0.3900000005E-01  -0.1951100003E-01  -0.1951100003E-01  -0.7113555725E-16   0.8619311876E-16  -0.2084679592E-14   0.5500000008E+01
   0.2078000000E+01   0.9804890000E+00   0.9804890000E+00  -0.4500000000E-02   0.1122750000E-02   0.1122750000E-02   0.8250000000E-01  -0.2063375000E-01  -0.2063375000E-01  -0.5500000007E+01   0.5509781972E-13   0.7040627687E-13   0.3007014117E-15   0.3442448213E-14  -0.7055835649E-14   0.3900000005E-01  -0.1951100002E-01  -0.1951100002E-01   0.5720486907E-15  -0.9653327094E-15   0.2896992043E-15   0.5500000007E+01
     1     2     3     4     5     6     7     8
     2     9    10     3     6    11    12     7
 VARIABLES = X,Y,Z,DU1,DU2,DU3,U1,U2,U3,S11,S22,S33,S12,S13,S23,E11,E22,E33,E12,E13,E23,SMISES
 ZONE, T="0.3850D+01" F=FEPOINT, I=   12 J=    2 ET=BRICK
   0.0000000000E+00   0.0000000000E+00   0.0000000000E+00   0.0000000000E+00   0.0000000000E+00   0.0000000000E+00   0.0000000000E+00   0.0000000000E+00   0.0000000000E+00  -0.6625000010E+01   0.1157439569E-13  -0.9323090831E-14  -0.4394233872E-16  -0.4673116417E-14   0.1077440547E-13   0.3675000006E-01  -0.1838825003E-01  -0.1838825003E-01  -0.5939846671E-17   0.4090805550E-15  -0.1564369877E-14   0.6625000010E+01
   0.1036750000E+01   0.0000000000E+00   0.6429454901E-15  -0.2250000000E-02   0.0000000000E+00   0.8198979875E-18   0.3900000000E-01   0.0000000000E+00   0.6421255921E-15  -0.6625000010E+01   0.3551410667E-13   0.1435646547E-13  -0.2370249093E-15   0.1009515918E-14   0.9454905138E-14   0.3675000006E-01  -0.1838825003E-01  -0.1838825003E-01   0.8114730387E-16   0.5892004167E-15  -0.1227099345E-14   0.6625000010E+01
   0.1036750000E+01   0.9816117500E+00   0.2974681318E-16  -0.2250000000E-02   0.1122750000E-02   0.5718518248E-19   0.3900000000E-01  -0.1951100000E-01   0.2968962799E-16  -0.6625000009E+01  -0.3728676389E-13  -0.5352384104E-13  -0.2254743338E-14   0.6558112965E-15  -0.9276576287E-14   0.3675000005E-01  -0.1838825003E-01  -0.1838825003E-01   0.4463043104E-15   0.2781077065E-15   0.1211800959E-14   0.6625000009E+01
   0.0000000000E+00   0.9816117500E+00  -0.7858339550E-15   0.0000000000E+00   0.1122750000E-02  -0.1091016279E-17   0.0000000000E+00  -0.1951100000E-01  -0.7847429387E-15  -0.6625000010E+01  -0.5107199827E-13  -0.7156282885E-13  -0.9668126324E-15  -0.5718499401E-14  -0.1028484160E-13   0.3675000005E-01  -0.1838825003E-01  -0.1838825003E-01   0.7205477204E-16   0.1056619145E-14   0.8380159568E-15   0.6625000010E+01
   0.0000000000E+00   0.0000000000E+00   0.9816117500E+00   0.0000000000E+00   0.0000000000E+00   0.1122750000E-02   0.0000000000E+00   0.0000000000E+00  -0.1951100000E-01  -0.6625000010E+01  -0.4575808789E-13  -0.2310417221E-13   0.3860565436E-16  -0.5749064570E-14   0.9951747167E-14   0.3675000005E-01  -0.1838825003E-01  -0.1838825003E-01   0.3489506266E-17   0.3067615422E-15  -0.1569919095E-14   0.6625000010E+01
   0.1036750000E+01   0.0000000000E+00   0.9816117500E+00  -0.2250000000E-02   0.0000000000E+00   0.1122750000E-02   0.3900000000E-01   0.0000000000E+00  -0.1951100000E-01  -0.6625000009E+01  -0.3205803836E-13  -0.1095192283E-13   0.6469394351E-15   0.2022111968E-14   0.9287062694E-14   0.3675000005E-01  -0.1838825003E-01  -0.1838825003E-01   0.8904319252E-17   0.2476586962E-15  -0.1275128512E-14   0.6625000009E+01
   0.1036750000E+01   0.9816117500E+00   0.9816117500E+00  -0.2250000000E-02   0.1122750000E-02   0.1122750000E-02   0.3900000000E-01  -0.1951100000E-01  -0.1951100000E-01  -0.6625000009E+01   0.1919013088E-13   0.3533796305E-13   0.1980518603E-14   0.6259047318E-15  -0.9948004916E-14   0.3675000005E-01  -0.1838825002E-01  -0.1838825002E-01   0.3692836485E-15  -0.7266665291E-16   0.1157640921E-14   0.6625000009E+01
   0.0000000000E+00   0.9816117500E+00   0.9816117500E+00   0.0000000000E+00   0.1122750000E-02   0.1122750000E-02   0.0000000000E+00  -0.1951100000E-01  -0.1951100000E-01  -0.6625000009E+01   0.5311309341E-13   0.7300632587E-13   0.2081583644E-15  -0.6160627146E-14  -0.1093472396E-13   0.3675000005E-01  -0.1838825002E-01  -0.1838825002E-01   0.1066599407E-15   0.8763508898E-15   0.8650339756E-15   0.6625000009E+01
   0.2073500000E+01   0.0000000000E+00   0.3039907757E-14  -0.4500000000E-02   0.0000000000E+00   0.4839164633E-17   0.7800000000E-01   0.0000000000E+00   0.3035068592E-14  -0.6625000010E+01   0.3642068027E-13   0.1769503151E-13  -0.8673556380E-15   0.6546568367E-14   0.7312760218E-14   0.3675000006E-01  -0.1838825003E-01  -0.1838825003E-01  -0.8834331044E-16   0.6693944917E-15  -0.2058105799E-14   0.6625000010E+01
   0.2073500000E+01   0.9816117500E+00   0.2008801989E-14  -0.4500000000E-02   0.1122750000E-02   0.2858267917E-17   0.7800000000E-01  -0.1951100000E-01   0.2005943721E-14  -0.6625000009E+01   0.3502998371E-13   0.2196832150E-13  -0.2473353657E-14   0.2045635913E-14  -0.7121125487E-14   0.3675000005E-01  -0.1838825003E-01  -0.1838825003E-01   0.5739560592E-15  -0.3127156547E-15   0.3331239818E-15   0.6625000009E+01
   0.2073500000E+01   0.0000000000E+00   0.9816117500E+00  -0.4500000000E-02   0.0000000000E+00   0.1122750000E-02   0.7800000000E-01   0.0000000000E+00  -0.1951100000E-01  -0.6625000009E+01  -0.3843025408E-13  -0.2394707950E-13   0.5586611224E-15   0.1243039965E-14   0.8265955720E-14   0.3675000005E-01  -0.1838825003E-01  -0.1838825003E-01  -0.5240954364E-16   0.6903528713E-16  -0.2092088227E-14   0.6625000009E+01
   0.2073500000E+01   0.9816117500E+00   0.9816117500E+00  -0.4500000000E-02   0.1122750000E-02   0.1122750000E-02   0.7800000000E-01  -0.1951100000E-01  -0.1951100000E-01  -0.6625000008E+01   0.7531123658E-14   0.2262570267E-13   0.7487250696E-15   0.3768821215E-14  -0.6863426326E-14   0.3675000005E-01  -0.1838825002E-01  -0.1838825002E-01   0.5748769718E-15  -0.9355609170E-15   0.3144520935E-15   0.6625000008E+01
     1     2     3     4     5     6     7     8
     2     9    10     3     6    11    12     7
 VARIABLES = X,Y,Z,DU1,DU2,DU3,U1,U2,U3,S11,S22,S33,S12,S13,S23,E11,E22,E33,E12,E13,E23,SMISES
 ZONE, T="0.3900D+01" F=FEPOINT, I=   12 J=    2 ET=BRICK
   0.0000000000E+00   0.0000000000E+00   0.0000000000E+00   0.0000000000E+00   0.0000000000E+00   0.0000000000E+00   0.0000000000E+00   0.0000000000E+00   0.0000000000E+00  -0.7750000012E+01  -0.9966239926E-12  -0.1181673528E-11  -0.5460589281E-16  -0.1345480232E-12   0.3295737770E-14   0.2950000005E-01  -0.1476550002E-01  -0.1476550002E-01   0.2298489607E-17  -0.1542958318E-14  -0.1607980309E-14   0.7750000012E+01
   0.1029500000E+01   0.0000000000E+00  -0.4012960272E-15  -0.7250000000E-02   0.0000000000E+00  -0.1044241517E-14   0.3675000000E-01   0.0000000000E+00   0.6429454901E-15  -0.7750000012E+01  -0.2931910964E-12  -0.4146249045E-12   0.7766618568E-16  -0.3472383968E-13   0.6898576394E-13   0.2950000005E-01  -0.1476550002E-01  -0.1476550002E-01   0.5014130466E-16   0.2913005192E-16  -0.2722331285E-15   0.7750000012E+01
   0.1029500000E+01   0.9852345000E+00  -0.5398098165E-15  -0.7250000000E-02   0.3622750000E-02  -0.5695566297E-15   0.3675000000E-01  -0.1838825000E-01   0.2974681318E-16  -0.7750000011E+01  -0.6299822187E-13  -0.1813690963E-12  -0.7022087489E-14  -0.1245949323E-13  -0.5882105556E-13   0.2950000004E-01  -0.1476550002E-01  -0.1476550002E-01   0.3396373387E-15   0.8239566078E-16   0.4065294090E-15   0.7750000011E+01
   0.0000000000E+00   0.9852345000E+00  -0.8051042306E-15   0.0000000000E+00   0.3622750000E-02  -0.1927027562E-16   0.0000000000E+00  -0.1838825000E-01  -0.7858339550E-15  -0.7750000011E+01   0.3501680366E-12   0.1723121051E-12  -0.2096383821E-13  -0.4752609192E-13  -0.1278590150E-12   0.2950000004E-01  -0.1476550002E-01  -0.1476550002E-01  -0.2285063363E-15   0.3799267571E-15  -0.9618085967E-15   0.7750000011E+01
   0.0000000000E+00   0.0000000000E+00   0.9852345000E+00   0.0000000000E+00   0.0000000000E+00   0.3622750000E-02   0.0000000000E+00   0.0000000000E+00  -0.1838825000E-01  -0.7750000011E+01   0.4754627820E-12   0.5550864819E-12   0.5201069735E-16  -0.1145006297E-12   0.4988152398E-14   0.2950000004E-01  -0.1476550002E-01  -0.1476550002E-01  -0.3995224152E-18  -0.1340408194E-14  -0.1563886366E-14   0.7750000011E+01
   0.1029500000E+01   0.0000000000E+00   0.9852345000E+00  -0.7250000000E-02   0.0000000000E+00   0.3622750000E-02   0.3675000000E-01   0.0000000000E+00  -0.1838825000E-01  -0.7750000011E+01   0.3234432547E-12   0.4613241492E-12  -0.1547479035E-14  -0.2798140576E-13   0.6899198552E-13   0.2950000004E-01  -0.1476550002E-01  -0.1476550002E-01  -0.1430312560E-16  -0.2059322230E-15  -0.3410894867E-15   0.7750000011E+01
   0.1029500000E+01   0.9852345000E+00   0.9852345000E+00  -0.7250000000E-02   0.3622750000E-02   0.3622750000E-02   0.3675000000E-01  -0.1838825000E-01  -0.1838825000E-01  -0.7750000010E+01  -0.1944145286E-12  -0.6037585947E-13  -0.4330520849E-14  -0.8474666412E-14  -0.5939522836E-13   0.2950000004E-01  -0.1476550002E-01  -0.1476550002E-01   0.2728311598E-15  -0.1931569359E-15   0.3590361550E-15   0.7750000010E+01
   0.0000000000E+00   0.9852345000E+00   0.9852345000E+00   0.0000000000E+00   0.3622750000E-02   0.3622750000E-02   0.0000000000E+00  -0.1838825000E-01  -0.1838825000E-01  -0.7750000010E+01   0.4641189860E-12   0.5455506407E-12  -0.1895634557E-13  -0.2970060431E-13  -0.1256320265E-12   0.2950000004E-01  -0.1476550002E-01  -0.1476550002E-01  -0.1870918257E-15   0.4810338025E-15  -0.9083023967E-15   0.7750000010E+01
   0.2059000000E+01   0.0000000000E+00   0.7047648601E-15  -0.1450000000E-01   0.0000000000E+00  -0.2335142897E-14   0.7350000000E-01   0.0000000000E+00   0.3039907757E-14  -0.7750000012E+01  -0.4102214352E-12  -0.5489824333E-12  -0.3075823949E-15   0.6257997179E-13   0.4932736568E-13   0.2950000004E-01  -0.1476550002E-01  -0.1476550002E-01  -0.1038666116E-15   0.1523431716E-14  -0.1358376185E-14   0.7750000012E+01
   0.2059000000E+01   0.9852345000E+00   0.2357911615E-16  -0.1450000000E-01   0.3622750000E-02  -0.1985222872E-14   0.7350000000E-01  -0.1838825000E-01   0.2008801989E-14  -0.7750000011E+01  -0.2520950384E-12  -0.3857500791E-12   0.7299803238E-14   0.1652663419E-13  -0.7314646925E-13   0.2950000004E-01  -0.1476550002E-01  -0.1476550002E-01   0.6833636681E-15  -0.1402092347E-15  -0.6880512188E-15   0.7750000011E+01
   0.2059000000E+01   0.0000000000E+00   0.9852345000E+00  -0.1450000000E-01   0.0000000000E+00   0.3622750000E-02   0.7350000000E-01   0.0000000000E+00  -0.1838825000E-01  -0.7750000011E+01  -0.4187060084E-14   0.1051913987E-12  -0.1184510647E-14   0.4693528687E-13   0.4924068853E-13   0.2950000004E-01  -0.1476550002E-01  -0.1476550002E-01  -0.9129481496E-16   0.6860155995E-15  -0.1395756793E-14   0.7750000011E+01
   0.2059000000E+01   0.9852345000E+00   0.9852345000E+00  -0.1450000000E-01   0.3622750000E-02   0.3622750000E-02   0.7350000000E-01  -0.1838825000E-01  -0.1838825000E-01  -0.7750000010E+01  -0.9409255900E-14   0.9895804575E-13   0.1050093188E-13   0.6808165175E-14  -0.7335151980E-13   0.2950000004E-01  -0.1476550002E-01  -0.1476550002E-01   0.6938589763E-15  -0.7878708776E-15  -0.7126808018E-15   0.7750000010E+01
     1     2     3     4     5     6     7     8
     2     9    10     3     6    11    12     7
 VARIABLES = X,Y,Z,DU1,DU2,DU3,U1,U2,U3,S11,S22,S33,S12,S13,S23,E11,E22,E33,E12,E13,E23,SMISES
 ZONE, T="0.3950D+01" F=FEPOINT, I=   12 J=    2 ET=BRICK
   0.0000000000E+00   0.0000000000E+00   0.0000000000E+00   0.0000000000E+00   0.0000000000E+00   0.0000000000E+00   0.0000000000E+00   0.0000000000E+00   0.0000000000E+00  -0.8875000014E+01   0.3127491384E-11   0.3331169300E-11   0.2277132475E-16   0.2633383672E-12   0.2351271622E-13   0.4750000007E-02  -0.2392750004E-02  -0.2392750004E-02   0.1212142979E-18   0.6420515429E-14  -0.9170819117E-15   0.8875000014E+01
   0.1004750000E+01   0.0000000000E+00   0.3687166173E-14  -0.2475000000E-01   0.0000000000E+00   0.4088462200E-14   0.2950000000E-01   0.0000000000E+00  -0.4012960272E-15  -0.8875000014E+01  -0.5234024586E-12  -0.3774285535E-12  -0.3665278600E-13   0.1101771300E-12  -0.1908825170E-12   0.4750000007E-02  -0.2392750004E-02  -0.2392750004E-02  -0.8177375477E-15   0.3056911786E-14  -0.5599304376E-14   0.8875000014E+01
   0.1004750000E+01   0.9976072500E+00   0.8890596150E-15  -0.2475000000E-01   0.1237275000E-01   0.1428869432E-14   0.2950000000E-01  -0.1476550000E-01  -0.5398098165E-15  -0.8875000013E+01  -0.2570084371E-14   0.2205762511E-12   0.8850367840E-14   0.4573662874E-13  -0.1848497287E-13   0.4750000007E-02  -0.2392750003E-02  -0.2392750003E-02   0.6056283199E-15   0.1316920946E-14   0.5457650817E-15   0.8875000013E+01
   0.0000000000E+00   0.9976072500E+00  -0.4591073237E-15   0.0000000000E+00   0.1237275000E-01   0.3459969069E-15   0.0000000000E+00  -0.1476550000E-01  -0.8051042306E-15  -0.8875000013E+01  -0.2232231751E-12   0.4834912525E-13  -0.3482664113E-14  -0.2523533656E-13   0.1965442799E-12   0.4750000007E-02  -0.2392750003E-02  -0.2392750003E-02  -0.6678993058E-16   0.2436144375E-15   0.5269865355E-14   0.8875000013E+01
   0.0000000000E+00   0.0000000000E+00   0.9976072500E+00   0.0000000000E+00   0.0000000000E+00   0.1237275000E-01   0.0000000000E+00   0.0000000000E+00  -0.1476550000E-01  -0.8875000013E+01   0.3099035093E-12   0.1689400650E-12   0.1921769337E-16   0.2619220421E-12   0.5619468015E-13   0.4750000007E-02  -0.2392750003E-02  -0.2392750003E-02   0.4195871497E-18   0.6361799273E-14  -0.9754724319E-16   0.8875000013E+01
   0.1004750000E+01   0.0000000000E+00   0.9976072500E+00  -0.2475000000E-01   0.0000000000E+00   0.1237275000E-01   0.2950000000E-01   0.0000000000E+00  -0.1476550000E-01  -0.8875000013E+01  -0.1146250388E-11  -0.1342423045E-11  -0.3587762415E-13   0.6477308729E-13  -0.1527203877E-12   0.4750000007E-02  -0.2392750003E-02  -0.2392750003E-02  -0.8657716945E-15   0.1653342104E-14  -0.4721179080E-14   0.8875000013E+01
   0.1004750000E+01   0.9976072500E+00   0.9976072500E+00  -0.2475000000E-01   0.1237275000E-01   0.1237275000E-01   0.2950000000E-01  -0.1476550000E-01  -0.1476550000E-01  -0.8875000012E+01   0.3598112573E-12   0.2381464955E-12   0.6584371518E-14   0.2626869172E-14   0.1859990447E-13   0.4750000006E-02  -0.2392750003E-02  -0.2392750003E-02   0.4525998378E-15  -0.4202980107E-16   0.1413284378E-14   0.8875000012E+01
   0.0000000000E+00   0.9976072500E+00   0.9976072500E+00   0.0000000000E+00   0.1237275000E-01   0.1237275000E-01   0.0000000000E+00  -0.1476550000E-01  -0.1476550000E-01  -0.8875000012E+01  -0.1372279109E-11  -0.1448435016E-11  -0.4457562599E-14  -0.2088368193E-13   0.2293417744E-12   0.4750000006E-02  -0.2392750003E-02  -0.2392750003E-02  -0.7622946314E-16   0.2479045626E-15   0.6059972486E-14   0.8875000012E+01
   0.2009500000E+01   0.0000000000E+00   0.9308387290E-14  -0.4950000000E-01   0.0000000000E+00   0.8603622430E-14   0.5900000000E-01   0.0000000000E+00   0.7047648601E-15  -0.8875000013E+01   0.1546126717E-11   0.1383717734E-11  -0.7662627768E-13  -0.3799451429E-13  -0.1053952862E-12   0.4750000007E-02  -0.2392750004E-02  -0.2392750004E-02  -0.1934527725E-14  -0.2433247281E-15  -0.4294515645E-14   0.8875000013E+01
   0.2009500000E+01   0.9976072500E+00   0.7159117605E-14  -0.4950000000E-01   0.1237275000E-01   0.7135538489E-14   0.5900000000E-01  -0.1476550000E-01   0.2357911615E-16  -0.8875000012E+01   0.4855704356E-12   0.4016183243E-12   0.1751225130E-13   0.1234624179E-12   0.6318559293E-13   0.4750000007E-02  -0.2392750003E-02  -0.2392750003E-02   0.9577242714E-15   0.2671153478E-14   0.1686633218E-14   0.8875000012E+01
   0.2009500000E+01   0.0000000000E+00   0.9976072500E+00  -0.4950000000E-01   0.0000000000E+00   0.1237275000E-01   0.5900000000E-01   0.0000000000E+00  -0.1476550000E-01  -0.8875000012E+01  -0.1446691976E-12  -0.6427331429E-12  -0.7217434702E-13  -0.1340413754E-12  -0.6724862071E-13   0.4750000007E-02  -0.2392750003E-02  -0.2392750003E-02  -0.1825903895E-14  -0.3029193354E-14  -0.3399607959E-14   0.8875000012E+01
   0.2009500000E+01   0.9976072500E+00   0.9976072500E+00  -0.4950000000E-01   0.1237275000E-01   0.1237275000E-01   0.5900000000E-01  -0.1476550000E-01  -0.1476550000E-01  -0.8875000011E+01  -0.9286819791E-12  -0.1350531275E-11   0.1576727530E-13   0.3113911245E-13   0.1014956443E-12   0.4750000006E-02  -0.2392750003E-02  -0.2392750003E-02   0.8965192003E-15  -0.8059640794E-16   0.2576235615E-14   0.8875000011E+01
     1     2     3     4     5     6     7     8
     2     9    10     3     6    11    12     7
 VARIABLES = X,Y,Z,DU1,DU2,DU3,U1,U2,U3,S11,S22,S33,S12,S13,S23,E11,E22,E33,E12,E13,E23,SMISES
 ZONE, T="0.4000D+01" F=FEPOINT, I=   12 J=    2 ET=BRICK
   0.0000000000E+00   0.0000000000E+00   0.0000000000E+00   0.0000000000E+00   0.0000000000E+00   0.0000000000E+00   0.0000000000E+00   0.0000000000E+00   0.0000000000E+00  -0.1000000002E+02   0.3185465346E-12   0.2915684800E-12   0.2199073017E-15  -0.7464228617E-14   0.1171230635E-13  -0.2000000003E-01   0.9980000016E-02   0.9980000016E-02   0.4688832315E-17   0.2749381950E-14  -0.7908718349E-15   0.1000000002E+02
   0.9800000000E+00   0.0000000000E+00   0.1698182770E-14  -0.2475000000E-01   0.0000000000E+00  -0.1988983403E-14   0.4750000000E-02   0.0000000000E+00   0.3687166173E-14  -0.1000000002E+02  -0.5884472468E-13  -0.8115109030E-13   0.9012106410E-15   0.2023826662E-14   0.1245017167E-13  -0.2000000003E-01   0.9980000015E-02   0.9980000015E-02  -0.3126653946E-15   0.1604845113E-14  -0.2672786604E-14   0.1000000002E+02
   0.9800000000E+00   0.1009980000E+01   0.3631909948E-15  -0.2475000000E-01   0.1237275000E-01  -0.5258686202E-15   0.4750000000E-02  -0.2392750000E-02   0.8890596150E-15  -0.1000000001E+02  -0.1184400497E-12  -0.1435793333E-12   0.5486791079E-15  -0.1501847596E-14  -0.1107803426E-13  -0.2000000003E-01   0.9980000014E-02   0.9980000014E-02   0.4663404021E-15   0.6840810548E-15   0.4250352518E-15   0.1000000001E+02
   0.0000000000E+00   0.1009980000E+01  -0.3995599715E-15   0.0000000000E+00   0.1237275000E-01   0.5954735222E-16   0.0000000000E+00  -0.2392750000E-02  -0.4591073237E-15  -0.1000000001E+02   0.3597342465E-12   0.3358379852E-12   0.3319690950E-15  -0.5673320975E-14  -0.1339443298E-13  -0.2000000003E-01   0.9980000015E-02   0.9980000015E-02  -0.2380053497E-16   0.3386818060E-15   0.2272402083E-14   0.1000000001E+02
   0.0000000000E+00   0.0000000000E+00   0.1009980000E+01   0.0000000000E+00   0.0000000000E+00   0.1237275000E-01   0.0000000000E+00   0.0000000000E+00  -0.2392750000E-02  -0.1000000001E+02   0.5693042218E-12   0.5935662157E-12  -0.2071856329E-15  -0.5644394162E-14   0.1231085250E-13  -0.2000000003E-01   0.9980000015E-02   0.9980000015E-02  -0.5178429349E-17   0.2754078651E-14  -0.3972800141E-15   0.1000000001E+02
   0.9800000000E+00   0.0000000000E+00   0.1009980000E+01  -0.2475000000E-01   0.0000000000E+00   0.1237275000E-01   0.4750000000E-02   0.0000000000E+00  -0.2392750000E-02  -0.1000000001E+02  -0.3313023479E-12  -0.3068945298E-12  -0.7130582730E-15   0.3551170778E-14   0.1115611698E-13  -0.2000000003E-01   0.9980000014E-02   0.9980000014E-02  -0.4146894973E-15   0.8763869145E-15  -0.2337032021E-14   0.1000000001E+02
   0.9800000000E+00   0.1009980000E+01   0.1009980000E+01  -0.2475000000E-01   0.1237275000E-01   0.1237275000E-01   0.4750000000E-02  -0.2392750000E-02  -0.2392750000E-02  -0.1000000001E+02   0.1575263705E-12   0.1794104241E-12  -0.1930535753E-15  -0.1095986236E-14  -0.1339494573E-13  -0.2000000003E-01   0.9980000013E-02   0.9980000013E-02   0.3295769139E-15  -0.8240161071E-16   0.7497526097E-15   0.1000000001E+02
   0.0000000000E+00   0.1009980000E+01   0.1009980000E+01   0.0000000000E+00   0.1237275000E-01   0.1237275000E-01   0.0000000000E+00  -0.2392750000E-02  -0.2392750000E-02  -0.1000000001E+02  -0.1024933780E-12  -0.7688025684E-13   0.7417846750E-15  -0.7193139086E-14  -0.1140684419E-13  -0.2000000003E-01   0.9980000013E-02   0.9980000013E-02   0.2905229522E-18   0.2662028006E-15   0.2710414775E-14   0.1000000001E+02
   0.1960000000E+01   0.0000000000E+00   0.4712470693E-14  -0.4950000000E-01   0.0000000000E+00  -0.4595916597E-14   0.9500000000E-02   0.0000000000E+00   0.9308387290E-14  -0.1000000002E+02   0.9391424469E-12   0.9183555919E-12   0.1365041298E-14   0.7896937763E-14   0.1117423446E-13  -0.2000000003E-01   0.9980000015E-02   0.9980000015E-02  -0.8984157584E-15   0.3342510131E-15  -0.2458263658E-14   0.1000000002E+02
   0.1960000000E+01   0.1009980000E+01   0.3483277576E-14  -0.4950000000E-01   0.1237275000E-01  -0.3675840029E-14   0.9500000000E-02  -0.2392750000E-02   0.7159117605E-14  -0.1000000001E+02  -0.3466099047E-12  -0.3662002098E-12  -0.1155372343E-14   0.1997066161E-14  -0.9087899850E-14  -0.2000000003E-01   0.9980000014E-02   0.9980000014E-02   0.6419015545E-15   0.1084991264E-14   0.6149519786E-15   0.1000000001E+02
   0.1960000000E+01   0.0000000000E+00   0.1009980000E+01  -0.4950000000E-01   0.0000000000E+00   0.1237275000E-01   0.9500000000E-02   0.0000000000E+00  -0.2392750000E-02  -0.1000000001E+02  -0.5142786077E-12  -0.4895943018E-12   0.1187585597E-14   0.3102058843E-14   0.9880216303E-14  -0.2000000003E-01   0.9980000014E-02   0.9980000014E-02  -0.8551531036E-15  -0.1232023192E-14  -0.2082673045E-14   0.1000000001E+02
   0.1960000000E+01   0.1009980000E+01   0.1009980000E+01  -0.4950000000E-01   0.1237275000E-01   0.1237275000E-01   0.9500000000E-02  -0.2392750000E-02  -0.2392750000E-02  -0.1000000001E+02  -0.1096555296E-13   0.8034057087E-14   0.3506697727E-14   0.6830200732E-14  -0.1010205307E-13  -0.2000000003E-01   0.9980000013E-02   0.9980000013E-02   0.7079215169E-15  -0.2542456626E-15   0.9677082775E-15   0.1000000001E+02
     1     2     3     4     5     6     7     8
     2     9    10     3     6    11    12     7
 VARIABLES = X,Y,Z,DU1,DU2,DU3,U1,U2,U3,S11,S22,S33,S12,S13,S23,E11,E22,E33,E12,E13,E23,SMISES
 ZONE, T="0.4050D+01" F=FEPOINT, I=   12 J=    2 ET=BRICK
   0.0000000000E+00   0.0000000000E+00   0.0000000000E+00   0.0000000000E+00   0.0000000000E+00   0.0000000000E+00   0.0000000000E+00   0.0000000000E+00   0.0000000000E+00  -0.8875000014E+01   0.2380208858E-11   0.2734334393E-11   0.2054634860E-15   0.3768267615E-12   0.1190818725E-12  -0.1775000003E-01   0.8857250014E-02   0.8857250014E-02  -0.3988137433E-17   0.7346996560E-14   0.4854675641E-15   0.8875000014E+01
   0.9822500000E+00   0.0000000000E+00   0.4072438026E-14   0.2250000000E-02   0.0000000000E+00   0.2374255256E-14  -0.2000000000E-01   0.0000000000E+00   0.1698182770E-14  -0.8875000014E+01   0.1504275967E-12   0.2194143342E-12   0.9288845979E-13   0.2518307049E-12  -0.1002789314E-12  -0.1775000003E-01   0.8857250014E-02   0.8857250014E-02   0.8042261908E-15   0.4610997419E-14  -0.4020916063E-14   0.8875000014E+01
   0.9822500000E+00   0.1008857250E+01   0.2061432424E-14   0.2250000000E-02  -0.1122750000E-02   0.1698241429E-14  -0.2000000000E-01   0.9980000000E-02   0.3631909948E-15  -0.8875000013E+01   0.1084209454E-11   0.9670773306E-12   0.8453204654E-13   0.1540483442E-12   0.4167144619E-13  -0.1775000003E-01   0.8857250013E-02   0.8857250013E-02   0.1466812215E-14   0.2539323105E-14   0.1052626121E-14   0.8875000013E+01
   0.0000000000E+00   0.1008857250E+01   0.2442014628E-15   0.0000000000E+00  -0.1122750000E-02   0.6437614343E-15   0.0000000000E+00   0.9980000000E-02  -0.3995599715E-15  -0.8875000013E+01  -0.1502747592E-11  -0.1342787898E-11   0.1067737516E-12   0.9844570304E-13   0.2585875032E-12  -0.1775000003E-01   0.8857250013E-02   0.8857250013E-02   0.1258796668E-14   0.1593294675E-14   0.5558350933E-14   0.8875000013E+01
   0.0000000000E+00   0.0000000000E+00   0.1008857250E+01   0.0000000000E+00   0.0000000000E+00  -0.1122750000E-02   0.0000000000E+00   0.0000000000E+00   0.9980000000E-02  -0.8875000013E+01  -0.1450311757E-12  -0.6803030629E-13  -0.2064041531E-15   0.2641901524E-12   0.2065667878E-13  -0.1775000003E-01   0.8857250013E-02   0.8857250013E-02   0.4303945731E-18   0.5998860585E-14  -0.2809694600E-15   0.8875000013E+01
   0.9822500000E+00   0.0000000000E+00   0.1008857250E+01   0.2250000000E-02   0.0000000000E+00  -0.1122750000E-02  -0.2000000000E-01   0.0000000000E+00   0.9980000000E-02  -0.8875000013E+01  -0.3650166922E-12  -0.5805290597E-12   0.9708716562E-13   0.2525595163E-12  -0.1933726618E-12  -0.1775000003E-01   0.8857250013E-02   0.8857250013E-02   0.7472295274E-15   0.3855260425E-14  -0.4797556263E-14   0.8875000013E+01
   0.9822500000E+00   0.1008857250E+01   0.1008857250E+01   0.2250000000E-02  -0.1122750000E-02  -0.1122750000E-02  -0.2000000000E-01   0.9980000000E-02   0.9980000000E-02  -0.8875000012E+01   0.2493954670E-12  -0.1510166526E-12   0.9355694212E-13   0.1582675755E-12  -0.5247883681E-13  -0.1775000002E-01   0.8857250012E-02   0.8857250012E-02   0.1457828267E-14   0.1830020756E-14   0.2981489070E-15   0.8875000012E+01
   0.0000000000E+00   0.1008857250E+01   0.1008857250E+01   0.0000000000E+00  -0.1122750000E-02  -0.1122750000E-02   0.0000000000E+00   0.9980000000E-02   0.9980000000E-02  -0.8875000012E+01  -0.8330074188E-13  -0.2042274472E-12   0.1064600350E-12  -0.9041293860E-14   0.1616024698E-12  -0.1775000002E-01   0.8857250012E-02   0.8857250012E-02   0.1265825726E-14   0.2380532008E-15   0.4763075157E-14   0.8875000012E+01
   0.1964500000E+01   0.0000000000E+00   0.9741234368E-14   0.4500000000E-02   0.0000000000E+00   0.5028763675E-14  -0.4000000000E-01   0.0000000000E+00   0.4712470693E-14  -0.8875000013E+01  -0.1528746593E-11  -0.1139557443E-11   0.1889325732E-12   0.1291814932E-12  -0.8155899148E-13  -0.1775000003E-01   0.8857250013E-02   0.8857250013E-02   0.1338999130E-14   0.1759683551E-14  -0.3568302307E-14   0.8875000013E+01
   0.1964500000E+01   0.1008857250E+01   0.7956090897E-14   0.4500000000E-02  -0.1122750000E-02   0.4472813321E-14  -0.4000000000E-01   0.9980000000E-02   0.3483277576E-14  -0.8875000012E+01   0.6054164651E-12   0.8163074177E-12   0.6410563600E-13   0.1996864609E-12   0.7063811558E-13  -0.1775000002E-01   0.8857250012E-02   0.8857250012E-02   0.1426751302E-14   0.3472248940E-14   0.1564820735E-14   0.8875000012E+01
   0.1964500000E+01   0.0000000000E+00   0.1008857250E+01   0.4500000000E-02   0.0000000000E+00  -0.1122750000E-02  -0.4000000000E-01   0.0000000000E+00   0.9980000000E-02  -0.8875000012E+01   0.2348448002E-11   0.2437543686E-11   0.1851438959E-12   0.2368969693E-12  -0.1723804016E-12  -0.1775000002E-01   0.8857250012E-02   0.8857250012E-02   0.1369225968E-14   0.1600328969E-14  -0.4271474910E-14   0.8875000012E+01
   0.1964500000E+01   0.1008857250E+01   0.1008857250E+01   0.4500000000E-02  -0.1122750000E-02  -0.1122750000E-02  -0.4000000000E-01   0.9980000000E-02   0.9980000000E-02  -0.8875000011E+01  -0.1169681034E-12  -0.2115084384E-12   0.7360288988E-13   0.3182929779E-12  -0.1992786697E-13  -0.1775000002E-01   0.8857250011E-02   0.8857250011E-02   0.1524830228E-14   0.3443079749E-14   0.8718564974E-15   0.8875000011E+01
     1     2     3     4     5     6     7     8
     2     9    10     3     6    11    12     7
 VARIABLES = X,Y,Z,DU1,DU2,DU3,U1,U2,U3,S11,S22,S33,S12,S13,S23,E11,E22,E33,E12,E13,E23,SMISES
 ZONE, T="0.4100D+01" F=FEPOINT, I=   12 J=    2 ET=BRICK
   0.0000000000E+00   0.0000000000E+00   0.0000000000E+00   0.0000000000E+00   0.0000000000E+00   0.0000000000E+00   0.0000000000E+00   0.0000000000E+00   0.0000000000E+00  -0.7750000012E+01   0.4096836430E-13   0.1331873167E-13   0.2139890191E-15  -0.7969406042E-14   0.1180488253E-13  -0.1550000002E-01   0.7734500012E-02   0.7734500012E-02   0.8452193966E-18   0.2732565471E-14  -0.7985471897E-15   0.7750000012E+01
   0.9845000000E+00   0.0000000000E+00   0.1695149814E-14   0.2250000000E-02   0.0000000000E+00  -0.2377288212E-14  -0.1775000000E-01   0.0000000000E+00   0.4072438026E-14  -0.7750000012E+01   0.2757124762E-13   0.5172719350E-14   0.1006552092E-14   0.1458833301E-14   0.1293191795E-13  -0.1550000002E-01   0.7734500012E-02   0.7734500012E-02  -0.3066084936E-15   0.1611126635E-14  -0.2665347578E-14   0.7750000012E+01
   0.9845000000E+00   0.1007734500E+01   0.3629742302E-15   0.2250000000E-02  -0.1122750000E-02  -0.1698458193E-14  -0.1775000000E-01   0.8857250000E-02   0.2061432424E-14  -0.7750000011E+01  -0.3232754652E-13  -0.5869896392E-13   0.4385761102E-15  -0.1329273168E-14  -0.1120104700E-13  -0.1550000002E-01   0.7734500011E-02   0.7734500011E-02   0.4585546507E-15   0.6667999045E-15   0.4226978758E-15   0.7750000011E+01
   0.0000000000E+00   0.1007734500E+01  -0.3987830440E-15   0.0000000000E+00  -0.1122750000E-02  -0.6429845068E-15   0.0000000000E+00   0.8857250000E-02   0.2442014628E-15  -0.7750000011E+01  -0.6633781750E-13  -0.9033567139E-13   0.1006651034E-14  -0.5602260511E-14  -0.1326601470E-13  -0.1550000002E-01   0.7734500011E-02   0.7734500011E-02  -0.1218114327E-16   0.3523461467E-15   0.2295926113E-14   0.7750000011E+01
   0.0000000000E+00   0.0000000000E+00   0.1007734500E+01   0.0000000000E+00   0.0000000000E+00  -0.1122750000E-02   0.0000000000E+00   0.0000000000E+00   0.8857250000E-02  -0.7750000011E+01  -0.1119396415E-12  -0.8729159624E-13  -0.2259076320E-15  -0.5073927654E-14   0.1244884963E-13  -0.1550000002E-01   0.7734500011E-02   0.7734500011E-02  -0.2343827533E-17   0.2773495349E-14  -0.3911051991E-15   0.7750000011E+01
   0.9845000000E+00   0.0000000000E+00   0.1007734500E+01   0.2250000000E-02   0.0000000000E+00  -0.1122750000E-02  -0.1775000000E-01   0.0000000000E+00   0.8857250000E-02  -0.7750000011E+01   0.3625446216E-14   0.2813339791E-13   0.4056108450E-15   0.2664297357E-14   0.1094339732E-13  -0.1550000002E-01   0.7734500011E-02   0.7734500011E-02  -0.4036906337E-15   0.8534848186E-15  -0.2336543645E-14   0.7750000011E+01
   0.9845000000E+00   0.1007734500E+01   0.1007734500E+01   0.2250000000E-02  -0.1122750000E-02  -0.1122750000E-02  -0.1775000000E-01   0.8857250000E-02   0.8857250000E-02  -0.7750000010E+01   0.6571714833E-15   0.2307747686E-13   0.7579605309E-15  -0.5251603020E-15  -0.1428208024E-13  -0.1550000002E-01   0.7734500010E-02   0.7734500010E-02   0.3562557607E-15  -0.6500362866E-16   0.7446827635E-15   0.7750000010E+01
   0.0000000000E+00   0.1007734500E+01   0.1007734500E+01   0.0000000000E+00  -0.1122750000E-02  -0.1122750000E-02   0.0000000000E+00   0.8857250000E-02   0.8857250000E-02  -0.7750000010E+01   0.1271740258E-12   0.1518013617E-12   0.4811252461E-15  -0.7361188020E-14  -0.1142932395E-13  -0.1550000002E-01   0.7734500010E-02   0.7734500010E-02  -0.1377763142E-16   0.2478598625E-15   0.2696369000E-14   0.7750000010E+01
   0.1969000000E+01   0.0000000000E+00   0.4705529099E-14   0.4500000000E-02   0.0000000000E+00  -0.5035705270E-14  -0.3550000000E-01   0.0000000000E+00   0.9741234368E-14  -0.7750000012E+01   0.3188018570E-13   0.1091444982E-13   0.2793788773E-14   0.9777284938E-14   0.1115169493E-13  -0.1550000002E-01   0.7734500012E-02   0.7734500012E-02  -0.8957998503E-15   0.2923848444E-15  -0.2458941691E-14   0.7750000012E+01
   0.1969000000E+01   0.1007734500E+01   0.3476174587E-14   0.4500000000E-02  -0.1122750000E-02  -0.4479916310E-14  -0.3550000000E-01   0.8857250000E-02   0.7956090897E-14  -0.7750000011E+01   0.2666842348E-13   0.8533755689E-14  -0.7210140733E-15   0.1050721634E-14  -0.9125412864E-14  -0.1550000002E-01   0.7734500011E-02   0.7734500011E-02   0.6504254656E-15   0.1145191453E-14   0.6118431962E-15   0.7750000011E+01
   0.1969000000E+01   0.0000000000E+00   0.1007734500E+01   0.4500000000E-02   0.0000000000E+00  -0.1122750000E-02  -0.3550000000E-01   0.0000000000E+00   0.8857250000E-02  -0.7750000011E+01   0.1788151861E-12   0.2018029505E-12   0.4184505983E-15   0.3512103669E-14   0.1090140118E-13  -0.1550000002E-01   0.7734500011E-02   0.7734500011E-02  -0.8456490269E-15  -0.1145394962E-14  -0.2070992092E-14   0.7750000011E+01
   0.1969000000E+01   0.1007734500E+01   0.1007734500E+01   0.4500000000E-02  -0.1122750000E-02  -0.1122750000E-02  -0.3550000000E-01   0.8857250000E-02   0.8857250000E-02  -0.7750000010E+01  -0.6818560514E-13  -0.4646157253E-13   0.2784733491E-14   0.6663572880E-14  -0.9085675383E-14  -0.1550000002E-01   0.7734500010E-02   0.7734500010E-02   0.6799588707E-15  -0.3273214944E-15   0.9926608634E-15   0.7750000010E+01
     1     2     3     4     5     6     7     8
     2     9    10     3     6    11    12     7
 VARIABLES = X,Y,Z,DU1,DU2,DU3,U1,U2,U3,S11,S22,S33,S12,S13,S23,E11,E22,E33,E12,E13,E23,SMISES
 ZONE, T="0.4150D+01" F=FEPOINT, I=   12 J=    2 ET=BRICK
   0.0000000000E+00   0.0000000000E+00   0.0000000000E+00   0.0000000000E+00   0.0000000000E+00   0.0000000000E+00   0.0000000000E+00   0.0000000000E+00   0.0000000000E+00  -0.6625000010E+01  -0.5950815316E-13  -0.8585779329E-13   0.2087890766E-15  -0.7606641418E-14   0.1077053896E-13  -0.1325000002E-01   0.6611750010E-02   0.6611750010E-02  -0.2028737203E-17   0.2734379109E-14  -0.8086657993E-15   0.6625000010E+01
   0.9867500000E+00   0.0000000000E+00   0.1699771887E-14   0.2250000000E-02   0.0000000000E+00   0.4622072626E-17  -0.1550000000E-01   0.0000000000E+00   0.1695149814E-14  -0.6625000010E+01  -0.4488687318E-13  -0.6589869066E-13   0.8646410141E-15   0.1780744982E-14   0.1186168749E-13  -0.1325000002E-01   0.6611750010E-02   0.6611750010E-02  -0.3068355403E-15   0.1615913534E-14  -0.2675641406E-14   0.6625000010E+01
   0.9867500000E+00   0.1006611750E+01   0.3611858578E-15   0.2250000000E-02  -0.1122750000E-02  -0.1788372363E-17  -0.1550000000E-01   0.7734500000E-02   0.3629742302E-15  -0.6625000009E+01  -0.8352732100E-13  -0.1070251833E-12   0.4752100024E-15  -0.1574969874E-14  -0.1063680058E-13  -0.1325000002E-01   0.6611750009E-02   0.6611750009E-02   0.4581267514E-15   0.6660835151E-15   0.4252630051E-15   0.6625000009E+01
   0.0000000000E+00   0.1006611750E+01  -0.4051056144E-15   0.0000000000E+00  -0.1122750000E-02  -0.6322570408E-17   0.0000000000E+00   0.7734500000E-02  -0.3987830440E-15  -0.6625000010E+01   0.6301668246E-13   0.4106224331E-13   0.8580215270E-15  -0.5306790735E-14  -0.1275283612E-13  -0.1325000002E-01   0.6611750010E-02   0.6611750010E-02  -0.9688026699E-17   0.3535312265E-15   0.2295588873E-14   0.6625000010E+01
   0.0000000000E+00   0.0000000000E+00   0.1006611750E+01   0.0000000000E+00   0.0000000000E+00  -0.1122750000E-02   0.0000000000E+00   0.0000000000E+00   0.7734500000E-02  -0.6625000010E+01   0.1164962480E-12   0.1393606425E-12  -0.2073731972E-15  -0.4660678295E-14   0.1171164590E-13  -0.1325000002E-01   0.6611750010E-02   0.6611750010E-02   0.9260399908E-19   0.2770696692E-14  -0.3971258829E-15   0.6625000010E+01
   0.9867500000E+00   0.0000000000E+00   0.1006611750E+01   0.2250000000E-02   0.0000000000E+00  -0.1122750000E-02  -0.1550000000E-01   0.0000000000E+00   0.7734500000E-02  -0.6625000009E+01   0.4550247313E-13   0.6851269176E-13  -0.5088386436E-15   0.2871238604E-14   0.1033557527E-13  -0.1325000002E-01   0.6611750009E-02   0.6611750009E-02  -0.4212559600E-15   0.8620209962E-15  -0.2350175023E-14   0.6625000009E+01
   0.9867500000E+00   0.1006611750E+01   0.1006611750E+01   0.2250000000E-02  -0.1122750000E-02  -0.1122750000E-02  -0.1550000000E-01   0.7734500000E-02   0.7734500000E-02  -0.6625000009E+01   0.6330490108E-13   0.8480436220E-13   0.3604509866E-16  -0.7446692433E-15  -0.1324310675E-13  -0.1325000002E-01   0.6611750009E-02   0.6611750009E-02   0.3347426948E-15  -0.7820145723E-16   0.7550838795E-15   0.6625000009E+01
   0.0000000000E+00   0.1006611750E+01   0.1006611750E+01   0.0000000000E+00  -0.1122750000E-02  -0.1122750000E-02   0.0000000000E+00   0.7734500000E-02   0.7734500000E-02  -0.6625000009E+01  -0.6379560931E-13  -0.4017583595E-13   0.5144057631E-15  -0.6910024795E-14  -0.1059310812E-13  -0.1325000002E-01   0.6611750009E-02   0.6611750009E-02  -0.7322473087E-17   0.2587766419E-15   0.2708321705E-14   0.6625000009E+01
   0.1973500000E+01   0.0000000000E+00   0.4725117566E-14   0.4500000000E-02   0.0000000000E+00   0.1958846741E-16  -0.3100000000E-01   0.0000000000E+00   0.4705529099E-14  -0.6625000010E+01   0.6612509268E-13   0.4547900827E-13   0.2006902479E-14   0.1014904529E-13   0.1018151412E-13  -0.1325000002E-01   0.6611750010E-02   0.6611750010E-02  -0.9046560047E-15   0.3652240713E-15  -0.2472471212E-14   0.6625000010E+01
   0.1973500000E+01   0.1006611750E+01   0.3489940732E-14   0.4500000000E-02  -0.1122750000E-02   0.1376614507E-16  -0.3100000000E-01   0.7734500000E-02   0.3476174587E-14  -0.6625000009E+01  -0.1819992463E-12  -0.1994039072E-12  -0.1005989452E-14   0.8764850926E-15  -0.8686239628E-14  -0.1325000002E-01   0.6611750009E-02   0.6611750009E-02   0.6335054690E-15   0.1090399534E-14   0.6184233572E-15   0.6625000009E+01
   0.1973500000E+01   0.0000000000E+00   0.1006611750E+01   0.4500000000E-02   0.0000000000E+00  -0.1122750000E-02  -0.3100000000E-01   0.0000000000E+00   0.7734500000E-02  -0.6625000009E+01  -0.5202619976E-13  -0.3189167205E-13  -0.3361998845E-15   0.2796939176E-14   0.1056321218E-13  -0.1325000002E-01   0.6611750009E-02   0.6611750009E-02  -0.8634479804E-15  -0.1164850215E-14  -0.2078382180E-14   0.6625000009E+01
   0.1973500000E+01   0.1006611750E+01   0.1006611750E+01   0.4500000000E-02  -0.1122750000E-02  -0.1122750000E-02  -0.3100000000E-01   0.7734500000E-02   0.7734500000E-02  -0.6625000008E+01   0.1109367963E-12   0.1306729254E-12   0.2090448266E-14   0.6395841865E-14  -0.8004054422E-14  -0.1325000002E-01   0.6611750008E-02   0.6611750008E-02   0.6718937808E-15  -0.3145981664E-15   0.1016718669E-14   0.6625000008E+01
     1     2     3     4     5     6     7     8
     2     9    10     3     6    11    12     7
 VARIABLES = X,Y,Z,DU1,DU2,DU3,U1,U2,U3,S11,S22,S33,S12,S13,S23,E11,E22,E33,E12,E13,E23,SMISES
 ZONE, T="0.4200D+01" F=FEPOINT, I=   12 J=    2 ET=BRICK
   0.0000000000E+00   0.0000000000E+00   0.0000000000E+00   0.0000000000E+00   0.0000000000E+00   0.0000000000E+00   0.0000000000E+00   0.0000000000E+00   0.0000000000E+00  -0.5500000009E+01   0.4877126893E-13   0.2143511410E-13   0.2056273612E-15  -0.7678541664E-14   0.1132339964E-13  -0.1100000002E-01   0.5489000009E-02   0.5489000009E-02  -0.4586988145E-19   0.2739018711E-14  -0.8032725543E-15   0.5500000009E+01
   0.9890000000E+00   0.0000000000E+00   0.1697745464E-14   0.2250000000E-02   0.0000000000E+00  -0.2026422653E-17  -0.1325000000E-01   0.0000000000E+00   0.1699771887E-14  -0.5500000008E+01   0.2594206752E-13   0.3615383428E-14   0.6337257707E-15   0.1323590432E-14   0.1236249810E-13  -0.1100000002E-01   0.5489000008E-02   0.5489000008E-02  -0.3060730934E-15   0.1610544387E-14  -0.2671454213E-14   0.5500000008E+01
   0.9890000000E+00   0.1005489000E+01   0.3622257648E-15   0.2250000000E-02  -0.1122750000E-02   0.1039906933E-17  -0.1325000000E-01   0.6611750000E-02   0.3611858578E-15  -0.5500000008E+01  -0.3602858113E-13  -0.6041209505E-13   0.1734670638E-15  -0.1308812407E-14  -0.1104622934E-13  -0.1100000002E-01   0.5489000008E-02   0.5489000008E-02   0.4580773115E-15   0.6774156070E-15   0.4236977635E-15   0.5500000008E+01
   0.0000000000E+00   0.1005489000E+01  -0.4017041559E-15   0.0000000000E+00  -0.1122750000E-02   0.3401458474E-17   0.0000000000E+00   0.6611750000E-02  -0.4051056144E-15  -0.5500000008E+01  -0.6079910962E-13  -0.8378813754E-13   0.9316606932E-15  -0.5497969361E-14  -0.1301548218E-13  -0.1100000002E-01   0.5489000008E-02   0.5489000008E-02  -0.1213421987E-16   0.3433097590E-15   0.2292839405E-14   0.5500000008E+01
   0.0000000000E+00   0.0000000000E+00   0.1005489000E+01   0.0000000000E+00   0.0000000000E+00  -0.1122750000E-02   0.0000000000E+00   0.0000000000E+00   0.6611750000E-02  -0.5500000008E+01  -0.2990172310E-14   0.2072740334E-13  -0.1921225419E-15  -0.4867684211E-14   0.1223686744E-13  -0.1100000002E-01   0.5489000008E-02   0.5489000008E-02   0.1145341544E-17   0.2766284157E-14  -0.3825775320E-15   0.5500000008E+01
   0.9890000000E+00   0.0000000000E+00   0.1005489000E+01   0.2250000000E-02   0.0000000000E+00  -0.1122750000E-02  -0.1325000000E-01   0.0000000000E+00   0.6611750000E-02  -0.5500000008E+01  -0.3372201872E-13  -0.9604103899E-14  -0.8830689673E-16   0.2642975048E-14   0.1079114956E-13  -0.1100000002E-01   0.5489000008E-02   0.5489000008E-02  -0.4211378347E-15   0.8668203378E-15  -0.2343203239E-14   0.5500000008E+01
   0.9890000000E+00   0.1005489000E+01   0.1005489000E+01   0.2250000000E-02  -0.1122750000E-02  -0.1122750000E-02  -0.1325000000E-01   0.6611750000E-02   0.6611750000E-02  -0.5500000007E+01   0.1561699493E-13   0.3786532258E-13   0.3953194871E-15  -0.5176831401E-15  -0.1377945113E-13  -0.1100000001E-01   0.5489000007E-02   0.5489000007E-02   0.3415864421E-15  -0.8159733543E-16   0.7549821143E-15   0.5500000007E+01
   0.0000000000E+00   0.1005489000E+01   0.1005489000E+01   0.0000000000E+00  -0.1122750000E-02  -0.1122750000E-02   0.0000000000E+00   0.6611750000E-02   0.6611750000E-02  -0.5500000007E+01   0.4458808132E-13   0.6861893941E-13   0.5086173243E-15  -0.7067673228E-14  -0.1105871728E-13  -0.1100000001E-01   0.5489000007E-02   0.5489000007E-02  -0.6108318814E-17   0.2629397028E-15   0.2694416985E-14   0.5500000007E+01
   0.1978000000E+01   0.0000000000E+00   0.4716346553E-14   0.4500000000E-02   0.0000000000E+00  -0.8771013091E-17  -0.2650000000E-01   0.0000000000E+00   0.4725117566E-14  -0.5500000008E+01   0.2169115710E-13   0.6448766103E-15   0.2257177776E-14   0.1080618683E-13   0.1052844658E-13  -0.1100000002E-01   0.5489000008E-02   0.5489000008E-02  -0.8961304752E-15   0.3573501508E-15  -0.2468594128E-14   0.5500000008E+01
   0.1978000000E+01   0.1005489000E+01   0.3483207003E-14   0.4500000000E-02  -0.1122750000E-02  -0.6733729502E-17  -0.2650000000E-01   0.6611750000E-02   0.3489940732E-14  -0.5500000008E+01   0.6873520368E-13   0.5092689511E-13  -0.9159591331E-15   0.7178460182E-15  -0.9227400715E-14  -0.1100000002E-01   0.5489000008E-02   0.5489000008E-02   0.6577484711E-15   0.1094950070E-14   0.6154829058E-15   0.5500000008E+01
   0.1978000000E+01   0.0000000000E+00   0.1005489000E+01   0.4500000000E-02   0.0000000000E+00  -0.1122750000E-02  -0.2650000000E-01   0.0000000000E+00   0.6611750000E-02  -0.5500000008E+01  -0.5906758498E-13  -0.3790391282E-13  -0.1768640468E-15   0.3017482093E-14   0.1102748796E-13  -0.1100000002E-01   0.5489000008E-02   0.5489000008E-02  -0.8501750332E-15  -0.1175108356E-14  -0.2069661465E-14   0.5500000008E+01
   0.1978000000E+01   0.1005489000E+01   0.1005489000E+01   0.4500000000E-02  -0.1122750000E-02  -0.1122750000E-02  -0.2650000000E-01   0.6611750000E-02   0.6611750000E-02  -0.5500000007E+01   0.4652448989E-13   0.6725802227E-13   0.2235950242E-14   0.6710562288E-14  -0.8380730213E-14  -0.1100000001E-01   0.5489000007E-02   0.5489000007E-02   0.6620036336E-15  -0.2962972068E-15   0.1001079488E-14   0.5500000007E+01
     1     2     3     4     5     6     7     8
     2     9    10     3     6    11    12     7
 VARIABLES = X,Y,Z,DU1,DU2,DU3,U1,U2,U3,S11,S22,S33,S12,S13,S23,E11,E22,E33,E12,E13,E23,SMISES
 ZONE, T="0.4250D+01" F=FEPOINT, I=   12 J=    2 ET=BRICK
   0.0000000000E+00   0.0000000000E+00   0.0000000000E+00   0.0000000000E+00   0.0000000000E+00   0.0000000000E+00   0.0000000000E+00   0.0000000000E+00   0.0000000000E+00  -0.4375000007E+01   0.4776967027E-13   0.2019042299E-13   0.2030460780E-15  -0.7488177883E-14   0.1134497835E-13  -0.8750000014E-02   0.4366250007E-02   0.4366250007E-02   0.4668763459E-18   0.2735358510E-14  -0.8009536900E-15   0.4375000007E+01
   0.9912500000E+00   0.0000000000E+00   0.1698002753E-14   0.2250000000E-02   0.0000000000E+00   0.2572889285E-18  -0.1100000000E-01   0.0000000000E+00   0.1697745464E-14  -0.4375000007E+01  -0.2507498882E-13  -0.4749237671E-13   0.7121258120E-15   0.1283637893E-14   0.1234166844E-13  -0.8750000013E-02   0.4366250007E-02   0.4366250007E-02  -0.3078256255E-15   0.1612503406E-14  -0.2673297790E-14   0.4375000007E+01
   0.9912500000E+00   0.1004366250E+01   0.3622409681E-15   0.2250000000E-02  -0.1122750000E-02   0.1520331853E-19  -0.1100000000E-01   0.5489000000E-02   0.3622257648E-15  -0.4375000006E+01   0.2699844892E-13   0.2761149959E-14   0.2445420022E-15  -0.1472038415E-14  -0.1119468314E-13  -0.8750000012E-02   0.4366250006E-02   0.4366250006E-02   0.4582044606E-15   0.6757825256E-15   0.4278563648E-15   0.4375000006E+01
   0.0000000000E+00   0.1004366250E+01  -0.4015721044E-15   0.0000000000E+00  -0.1122750000E-02   0.1320514870E-18   0.0000000000E+00   0.5489000000E-02  -0.4017041559E-15  -0.4375000006E+01   0.8840485478E-14  -0.1372204960E-13   0.9743400503E-15  -0.5442548708E-14  -0.1318131079E-13  -0.8750000013E-02   0.4366250006E-02   0.4366250006E-02  -0.9980806055E-17   0.3477846015E-15   0.2286799399E-14   0.4375000006E+01
   0.0000000000E+00   0.0000000000E+00   0.1004366250E+01   0.0000000000E+00   0.0000000000E+00  -0.1122750000E-02   0.0000000000E+00   0.0000000000E+00   0.5489000000E-02  -0.4375000006E+01  -0.6981594599E-13  -0.4563668485E-13  -0.2102160824E-15  -0.4756645819E-14   0.1224233016E-13  -0.8750000013E-02   0.4366250006E-02   0.4366250006E-02   0.1270359981E-17   0.2770453677E-14  -0.3929670874E-15   0.4375000006E+01
   0.9912500000E+00   0.0000000000E+00   0.1004366250E+01   0.2250000000E-02   0.0000000000E+00  -0.1122750000E-02  -0.1100000000E-01   0.0000000000E+00   0.5489000000E-02  -0.4375000006E+01   0.6045700456E-13   0.8465074904E-13  -0.1233117779E-15   0.2564052162E-14   0.1081170940E-13  -0.8750000012E-02   0.4366250006E-02   0.4366250006E-02  -0.4178670211E-15   0.8669915671E-15  -0.2342478974E-14   0.4375000006E+01
   0.9912500000E+00   0.1004366250E+01   0.1004366250E+01   0.2250000000E-02  -0.1122750000E-02  -0.1122750000E-02  -0.1100000000E-01   0.5489000000E-02   0.5489000000E-02  -0.4375000006E+01   0.6891669140E-14   0.2957465611E-13   0.4635819463E-15  -0.6748164374E-15  -0.1383779751E-13  -0.8750000011E-02   0.4366250006E-02   0.4366250006E-02   0.3412461822E-15  -0.8517853876E-16   0.7435067957E-15   0.4375000006E+01
   0.0000000000E+00   0.1004366250E+01   0.1004366250E+01   0.0000000000E+00  -0.1122750000E-02  -0.1122750000E-02   0.0000000000E+00   0.5489000000E-02   0.5489000000E-02  -0.4375000006E+01  -0.4992776172E-14   0.1910919668E-13   0.6616066767E-15  -0.7033587644E-14  -0.1117936826E-13  -0.8750000012E-02   0.4366250006E-02   0.4366250006E-02  -0.6174021514E-17   0.2589560070E-15   0.2706797959E-14   0.4375000006E+01
   0.1982500000E+01   0.0000000000E+00   0.4714069457E-14   0.4500000000E-02   0.0000000000E+00  -0.2277096010E-17  -0.2200000000E-01   0.0000000000E+00   0.4716346553E-14  -0.4375000007E+01  -0.1191735725E-12  -0.1400689232E-12   0.2486513716E-14   0.1116348254E-13   0.1072641576E-13  -0.8750000013E-02   0.4366250007E-02   0.4366250007E-02  -0.8883703623E-15   0.3622679067E-15  -0.2464266288E-14   0.4375000007E+01
   0.1982500000E+01   0.1004366250E+01   0.3482242789E-14   0.4500000000E-02  -0.1122750000E-02  -0.9642141265E-18  -0.2200000000E-01   0.5489000000E-02   0.3483207003E-14  -0.4375000006E+01   0.3111680027E-13   0.1284136187E-13  -0.8060960870E-15   0.4840302499E-15  -0.8961423262E-14  -0.8750000012E-02   0.4366250006E-02   0.4366250006E-02   0.6520312734E-15   0.1092730790E-14   0.6125931406E-15   0.4375000006E+01
   0.1982500000E+01   0.0000000000E+00   0.1004366250E+01   0.4500000000E-02   0.0000000000E+00  -0.1122750000E-02  -0.2200000000E-01   0.0000000000E+00   0.5489000000E-02  -0.4375000006E+01   0.1020833668E-12   0.1232700796E-12  -0.5715711866E-15   0.3344782482E-14   0.1097650769E-13  -0.8750000012E-02   0.4366250006E-02   0.4366250006E-02  -0.8573343247E-15  -0.1190489874E-14  -0.2075788132E-14   0.4375000006E+01
   0.1982500000E+01   0.1004366250E+01   0.1004366250E+01   0.4500000000E-02  -0.1122750000E-02  -0.1122750000E-02  -0.2200000000E-01   0.5489000000E-02   0.5489000000E-02  -0.4375000006E+01  -0.6842504803E-13  -0.4813633422E-13   0.1858330907E-14   0.6226353862E-14  -0.8339350510E-14  -0.8750000011E-02   0.4366250006E-02   0.4366250006E-02   0.6658077185E-15  -0.2940455430E-15   0.1011467883E-14   0.4375000006E+01
     1     2     3     4     5     6     7     8
     2     9    10     3     6    11    12     7
 VARIABLES = X,Y,Z,DU1,DU2,DU3,U1,U2,U3,S11,S22,S33,S12,S13,S23,E11,E22,E33,E12,E13,E23,SMISES
 ZONE, T="0.4300D+01" F=FEPOINT, I=   12 J=    2 ET=BRICK
   0.0000000000E+00   0.0000000000E+00   0.0000000000E+00   0.0000000000E+00   0.0000000000E+00   0.0000000000E+00   0.0000000000E+00   0.0000000000E+00   0.0000000000E+00  -0.3250000005E+01   0.3963257126E-13   0.1161122758E-13   0.1878966018E-15  -0.7585856860E-14   0.1137229290E-13  -0.6500000010E-02   0.3243500005E-02   0.3243500005E-02  -0.1605170524E-17   0.2735961427E-14  -0.8048247219E-15   0.3250000005E+01
   0.9935000000E+00   0.0000000000E+00   0.1697006646E-14   0.2250000000E-02   0.0000000000E+00  -0.9961067125E-18  -0.8750000000E-02   0.0000000000E+00   0.1698002753E-14  -0.3250000005E+01  -0.1210818064E-13  -0.3488439823E-13   0.5216444625E-15   0.1207338867E-14   0.1243179595E-13  -0.6500000010E-02   0.3243500005E-02   0.3243500005E-02  -0.3040897286E-15   0.1613303633E-14  -0.2672364351E-14   0.3250000005E+01
   0.9935000000E+00   0.1003243500E+01   0.3617648753E-15   0.2250000000E-02  -0.1122750000E-02  -0.4760927573E-18  -0.8750000000E-02   0.4366250000E-02   0.3622409681E-15  -0.3250000005E+01  -0.7818202173E-13  -0.1024450835E-12   0.1341255701E-15  -0.1262422666E-14  -0.1138473973E-13  -0.6500000009E-02   0.3243500005E-02   0.3243500005E-02   0.4626906027E-15   0.6677493149E-15   0.4240456929E-15   0.3250000005E+01
   0.0000000000E+00   0.1003243500E+01  -0.4015083429E-15   0.0000000000E+00  -0.1122750000E-02   0.6376150589E-19   0.0000000000E+00   0.4366250000E-02  -0.4015721044E-15  -0.3250000005E+01  -0.1053609253E-12  -0.1277440456E-12   0.1148763639E-14  -0.5510159883E-14  -0.1319348682E-13  -0.6500000009E-02   0.3243500005E-02   0.3243500005E-02  -0.1039278751E-16   0.3511612013E-15   0.2292458240E-14   0.3250000005E+01
   0.0000000000E+00   0.0000000000E+00   0.1003243500E+01   0.0000000000E+00   0.0000000000E+00  -0.1122750000E-02   0.0000000000E+00   0.0000000000E+00   0.4366250000E-02  -0.3250000005E+01   0.4818447582E-13   0.7251738897E-13  -0.2029981968E-15  -0.4988656275E-14   0.1236145414E-13  -0.6500000009E-02   0.3243500005E-02   0.3243500005E-02   0.2985317047E-17   0.2763133964E-14  -0.3857514213E-15   0.3250000005E+01
   0.9935000000E+00   0.0000000000E+00   0.1003243500E+01   0.2250000000E-02   0.0000000000E+00  -0.1122750000E-02  -0.8750000000E-02   0.0000000000E+00   0.4366250000E-02  -0.3250000005E+01  -0.5820065797E-14   0.1839944150E-13  -0.2665482862E-15   0.2586675034E-14   0.1097881296E-13  -0.6500000009E-02   0.3243500005E-02   0.3243500005E-02  -0.4225148110E-15   0.8829234581E-15  -0.2340869137E-14   0.3250000005E+01
   0.9935000000E+00   0.1003243500E+01   0.1003243500E+01   0.2250000000E-02  -0.1122750000E-02  -0.1122750000E-02  -0.8750000000E-02   0.4366250000E-02   0.4366250000E-02  -0.3250000004E+01   0.9337258640E-13   0.1160813362E-12   0.2977414020E-15  -0.7305279192E-15  -0.1392714896E-13  -0.6500000009E-02   0.3243500004E-02   0.3243500004E-02   0.3384431626E-15  -0.9033424862E-16   0.7458852289E-15   0.3250000004E+01
   0.0000000000E+00   0.1003243500E+01   0.1003243500E+01   0.0000000000E+00  -0.1122750000E-02  -0.1122750000E-02   0.0000000000E+00   0.4366250000E-02   0.4366250000E-02  -0.3250000004E+01   0.3357235300E-13   0.5761682195E-13   0.5014517045E-15  -0.7084599711E-14  -0.1109024386E-13  -0.6500000009E-02   0.3243500004E-02   0.3243500004E-02  -0.6366835527E-17   0.2614101254E-15   0.2701117911E-14   0.3250000004E+01
   0.1987000000E+01   0.0000000000E+00   0.4710718697E-14   0.4500000000E-02   0.0000000000E+00  -0.3350760306E-17  -0.1750000000E-01   0.0000000000E+00   0.4714069457E-14  -0.3250000005E+01   0.6250224983E-13   0.4133133620E-13   0.2073288405E-14   0.1083856141E-13   0.1090038132E-13  -0.6500000010E-02   0.3243500005E-02   0.3243500005E-02  -0.8930829773E-15   0.3556689758E-15  -0.2460619332E-14   0.3250000005E+01
   0.1987000000E+01   0.1003243500E+01   0.3479824398E-14   0.4500000000E-02  -0.1122750000E-02  -0.2418390387E-17  -0.1750000000E-01   0.4366250000E-02   0.3482242789E-14  -0.3250000005E+01  -0.7973042810E-13  -0.9890294073E-13  -0.1234205514E-14   0.1024580955E-14  -0.9145597183E-14  -0.6500000009E-02   0.3243500005E-02   0.3243500005E-02   0.6515512463E-15   0.1095373468E-14   0.6115813376E-15   0.3250000005E+01
   0.1987000000E+01   0.0000000000E+00   0.1003243500E+01   0.4500000000E-02   0.0000000000E+00  -0.1122750000E-02  -0.1750000000E-01   0.0000000000E+00   0.4366250000E-02  -0.3250000005E+01   0.5466683155E-13   0.7641755168E-13  -0.4149842672E-15   0.3531628587E-14   0.1101825710E-13  -0.6500000009E-02   0.3243500005E-02   0.3243500005E-02  -0.8588561484E-15  -0.1179636073E-14  -0.2073450697E-14   0.3250000005E+01
   0.1987000000E+01   0.1003243500E+01   0.1003243500E+01   0.4500000000E-02  -0.1122750000E-02  -0.1122750000E-02  -0.1750000000E-01   0.4366250000E-02   0.4366250000E-02  -0.3250000004E+01   0.1056631023E-12   0.1260608456E-12   0.2098790757E-14   0.6463884467E-14  -0.8617738981E-14  -0.6500000008E-02   0.3243500004E-02   0.3243500004E-02   0.6627263287E-15  -0.3070078700E-15   0.9998520248E-15   0.3250000004E+01
     1     2     3     4     5     6     7     8
     2     9    10     3     6    11    12     7
 VARIABLES = X,Y,Z,DU1,DU2,DU3,U1,U2,U3,S11,S22,S33,S12,S13,S23,E11,E22,E33,E12,E13,E23,SMISES
 ZONE, T="0.4350D+01" F=FEPOINT, I=   12 J=    2 ET=BRICK
   0.0000000000E+00   0.0000000000E+00   0.0000000000E+00   0.0000000000E+00   0.0000000000E+00   0.0000000000E+00   0.0000000000E+00   0.0000000000E+00   0.0000000000E+00  -0.2125000003E+01  -0.3966687848E-13  -0.6804705186E-13   0.1844143455E-15  -0.7595534410E-14   0.1137612177E-13  -0.4250000007E-02   0.2120750003E-02   0.2120750003E-02  -0.5406220334E-18   0.2733447773E-14  -0.8045005624E-15   0.2125000003E+01
   0.9957500000E+00   0.0000000000E+00   0.1696819621E-14   0.2250000000E-02   0.0000000000E+00  -0.1870250590E-18  -0.6500000000E-02   0.0000000000E+00   0.1697006646E-14  -0.2125000003E+01  -0.1704349330E-13  -0.3968837012E-13   0.9098679038E-15   0.1237915295E-14   0.1254079697E-13  -0.4250000007E-02   0.2120750003E-02   0.2120750003E-02  -0.3011939374E-15   0.1617268240E-14  -0.2669571053E-14   0.2125000003E+01
   0.9957500000E+00   0.1002120750E+01   0.3620704524E-15   0.2250000000E-02  -0.1122750000E-02   0.3055770818E-18  -0.6500000000E-02   0.3243500000E-02   0.3617648753E-15  -0.2125000003E+01   0.3458166057E-14  -0.2109334010E-13   0.4968170200E-15  -0.1466931332E-14  -0.1139508699E-13  -0.4250000006E-02   0.2120750003E-02   0.2120750003E-02   0.4666953569E-15   0.6652815416E-15   0.4222287578E-15   0.2125000003E+01
   0.0000000000E+00   0.1002120750E+01  -0.4013474680E-15   0.0000000000E+00  -0.1122750000E-02   0.1608749416E-18   0.0000000000E+00   0.3243500000E-02  -0.4015083429E-15  -0.2125000003E+01   0.8294906784E-14  -0.1432041732E-13   0.1162222380E-14  -0.5500029588E-14  -0.1329245307E-13  -0.4250000006E-02   0.2120750003E-02   0.2120750003E-02  -0.1038141379E-16   0.3509128609E-15   0.2290571659E-14   0.2125000003E+01
   0.0000000000E+00   0.0000000000E+00   0.1002120750E+01   0.0000000000E+00   0.0000000000E+00  -0.1122750000E-02   0.0000000000E+00   0.0000000000E+00   0.3243500000E-02  -0.2125000003E+01  -0.7098111881E-13  -0.4673618732E-13  -0.2311980882E-15  -0.4810619920E-14   0.1250385198E-13  -0.4250000006E-02   0.2120750003E-02   0.2120750003E-02  -0.1142527821E-17   0.2771605456E-14  -0.3844969601E-15   0.2125000003E+01
   0.9957500000E+00   0.0000000000E+00   0.1002120750E+01   0.2250000000E-02   0.0000000000E+00  -0.1122750000E-02  -0.6500000000E-02   0.0000000000E+00   0.3243500000E-02  -0.2125000003E+01   0.5790548338E-13   0.8212499069E-13  -0.2228746060E-15   0.2856605469E-14   0.1079490118E-13  -0.4250000006E-02   0.2120750003E-02   0.2120750003E-02  -0.4140327887E-15   0.8717684465E-15  -0.2346760120E-14   0.2125000003E+01
   0.9957500000E+00   0.1002120750E+01   0.1002120750E+01   0.2250000000E-02  -0.1122750000E-02  -0.1122750000E-02  -0.6500000000E-02   0.3243500000E-02   0.3243500000E-02  -0.2125000003E+01  -0.2694318607E-13  -0.4199243643E-14   0.1695922418E-15  -0.8802503151E-15  -0.1400528803E-13  -0.4250000006E-02   0.2120750003E-02   0.2120750003E-02   0.3407761870E-15  -0.7966098219E-16   0.7473032739E-15   0.2125000003E+01
   0.0000000000E+00   0.1002120750E+01   0.1002120750E+01   0.0000000000E+00  -0.1122750000E-02  -0.1122750000E-02   0.0000000000E+00   0.3243500000E-02   0.3243500000E-02  -0.2125000003E+01  -0.8206973640E-13  -0.5810853418E-13   0.6663288232E-15  -0.7163132124E-14  -0.1113097596E-13  -0.4250000006E-02   0.2120750003E-02   0.2120750003E-02  -0.4201557352E-17   0.2561946055E-15   0.2700232496E-14   0.2125000003E+01
   0.1991500000E+01   0.0000000000E+00   0.4711081897E-14   0.4500000000E-02   0.0000000000E+00   0.3632005762E-18  -0.1300000000E-01   0.0000000000E+00   0.4710718697E-14  -0.2125000003E+01   0.2616272004E-13   0.5613317701E-14   0.2848385409E-14   0.1145731081E-13   0.1105621988E-13  -0.4250000006E-02   0.2120750003E-02   0.2120750003E-02  -0.8833404671E-15   0.3419283133E-15  -0.2460269213E-14   0.2125000003E+01
   0.1991500000E+01   0.1002120750E+01   0.3481188020E-14   0.4500000000E-02  -0.1122750000E-02   0.1363621983E-17  -0.1300000000E-01   0.3243500000E-02   0.3479824398E-14  -0.2125000003E+01   0.2732852157E-13   0.8388212795E-14  -0.6846274841E-15   0.2349850086E-15  -0.8924055632E-14  -0.4250000006E-02   0.2120750003E-02   0.2120750003E-02   0.6589736106E-15   0.1110400168E-14   0.6145707591E-15   0.2125000003E+01
   0.1991500000E+01   0.0000000000E+00   0.1002120750E+01   0.4500000000E-02   0.0000000000E+00  -0.1122750000E-02  -0.1300000000E-01   0.0000000000E+00   0.3243500000E-02  -0.2125000003E+01   0.8693537462E-13   0.1093509652E-12  -0.6205488239E-15   0.3803890773E-14   0.1115762608E-13  -0.4250000006E-02   0.2120750003E-02   0.2120750003E-02  -0.8633850956E-15  -0.1150696627E-14  -0.2071952473E-14   0.2125000003E+01
   0.1991500000E+01   0.1002120750E+01   0.1002120750E+01   0.4500000000E-02  -0.1122750000E-02  -0.1122750000E-02  -0.1300000000E-01   0.3243500000E-02   0.3243500000E-02  -0.2125000003E+01  -0.7047174271E-13  -0.4992034732E-13   0.1880179791E-14   0.6198161909E-14  -0.8504568672E-14  -0.4250000005E-02   0.2120750003E-02   0.2120750003E-02   0.6573947817E-15  -0.3283733713E-15   0.1004799969E-14   0.2125000003E+01
     1     2     3     4     5     6     7     8
     2     9    10     3     6    11    12     7
 VARIABLES = X,Y,Z,DU1,DU2,DU3,U1,U2,U3,S11,S22,S33,S12,S13,S23,E11,E22,E33,E12,E13,E23,SMISES
 ZONE, T="0.4400D+01" F=FEPOINT, I=   12 J=    2 ET=BRICK
   0.0000000000E+00   0.0000000000E+00   0.0000000000E+00   0.0000000000E+00   0.0000000000E+00   0.0000000000E+00   0.0000000000E+00   0.0000000000E+00   0.0000000000E+00  -0.1000000002E+01   0.6721428145E-14  -0.2096543872E-13   0.1733016142E-15  -0.7483628266E-14   0.1120467135E-13  -0.2000000003E-02   0.9980000016E-03   0.9980000016E-03  -0.4453805738E-18   0.2735849534E-14  -0.8052331733E-15   0.1000000002E+01
   0.9980000000E+00   0.0000000000E+00   0.1697540805E-14   0.2250000000E-02   0.0000000000E+00   0.7211838868E-18  -0.4250000000E-02   0.0000000000E+00   0.1696819621E-14  -0.1000000002E+01   0.4406545895E-13   0.2143754680E-13   0.7798577964E-15   0.1023140384E-14   0.1237297073E-13  -0.2000000003E-02   0.9980000015E-03   0.9980000015E-03  -0.3048502484E-15   0.1610587985E-14  -0.2671352588E-14   0.1000000002E+01
   0.9980000000E+00   0.1000998000E+01   0.3618753329E-15   0.2250000000E-02  -0.1122750000E-02  -0.1951195303E-18  -0.4250000000E-02   0.2120750000E-02   0.3620704524E-15  -0.1000000001E+01  -0.5521337018E-13  -0.7949638575E-13   0.4722695749E-15  -0.1333333235E-14  -0.1129037695E-13  -0.2000000003E-02   0.9980000014E-03   0.9980000014E-03   0.4630310931E-15   0.6720104212E-15   0.4226459534E-15   0.1000000001E+01
   0.0000000000E+00   0.1000998000E+01  -0.4025609896E-15   0.0000000000E+00  -0.1122750000E-02  -0.1213521632E-17   0.0000000000E+00   0.2120750000E-02  -0.4013474680E-15  -0.1000000001E+01  -0.3789137185E-13  -0.5982540796E-13   0.1300595617E-14  -0.5344396082E-14  -0.1308197673E-13  -0.2000000003E-02   0.9980000014E-03   0.9980000015E-03  -0.7263800826E-17   0.3496661525E-15   0.2292576454E-14   0.1000000001E+01
   0.0000000000E+00   0.0000000000E+00   0.1000998000E+01   0.0000000000E+00   0.0000000000E+00  -0.1122750000E-02   0.0000000000E+00   0.0000000000E+00   0.2120750000E-02  -0.1000000001E+01  -0.3769737906E-14   0.2017912978E-13  -0.2209327736E-15  -0.4870339573E-14   0.1225526149E-13  -0.2000000003E-02   0.9980000015E-03   0.9980000015E-03   0.5858208988E-18   0.2768776110E-14  -0.3902943751E-15   0.1000000001E+01
   0.9980000000E+00   0.0000000000E+00   0.1000998000E+01   0.2250000000E-02   0.0000000000E+00  -0.1122750000E-02  -0.4250000000E-02   0.0000000000E+00   0.2120750000E-02  -0.1000000001E+01  -0.2321803918E-13   0.7505738510E-15  -0.9836866616E-16   0.2729435355E-14   0.1070547545E-13  -0.2000000003E-02   0.9980000014E-03   0.9980000014E-03  -0.4149652291E-15   0.8663750457E-15  -0.2346412791E-14   0.1000000001E+01
   0.9980000000E+00   0.1000998000E+01   0.1000998000E+01   0.2250000000E-02  -0.1122750000E-02  -0.1122750000E-02  -0.4250000000E-02   0.2120750000E-02   0.2120750000E-02  -0.1000000001E+01   0.4291384715E-13   0.6546141008E-13   0.2022097524E-15  -0.7483887761E-15  -0.1390556450E-13  -0.2000000003E-02   0.9980000013E-03   0.9980000013E-03   0.3433016996E-15  -0.8345288819E-16   0.7492269346E-15   0.1000000001E+01
   0.0000000000E+00   0.1000998000E+01   0.1000998000E+01   0.0000000000E+00  -0.1122750000E-02  -0.1122750000E-02   0.0000000000E+00   0.2120750000E-02   0.2120750000E-02  -0.1000000001E+01   0.8192672477E-13   0.1054285501E-12   0.5183242887E-15  -0.7060088399E-14  -0.1064778380E-13  -0.2000000003E-02   0.9980000013E-03   0.9980000013E-03  -0.7203136783E-17   0.2600127170E-15   0.2707271840E-14   0.1000000001E+01
   0.1996000000E+01   0.0000000000E+00   0.4714205156E-14   0.4500000000E-02   0.0000000000E+00   0.3123259028E-17  -0.8500000000E-02   0.0000000000E+00   0.4711081897E-14  -0.1000000002E+01   0.2430183391E-13   0.3868217629E-14   0.2417912000E-14   0.1128794256E-13   0.1081915905E-13  -0.2000000003E-02   0.9980000015E-03   0.9980000015E-03  -0.8907460884E-15   0.3414556111E-15  -0.2462991264E-14   0.1000000002E+01
   0.1996000000E+01   0.1000998000E+01   0.3482701330E-14   0.4500000000E-02  -0.1122750000E-02   0.1513309997E-17  -0.8500000000E-02   0.2120750000E-02   0.3481188020E-14  -0.1000000001E+01  -0.1212303119E-12  -0.1397672532E-12  -0.1213797627E-14   0.5365325101E-15  -0.8925169189E-14  -0.2000000003E-02   0.9980000014E-03   0.9980000014E-03   0.6512799081E-15   0.1097785028E-14   0.6147847365E-15   0.1000000001E+01
   0.1996000000E+01   0.0000000000E+00   0.1000998000E+01   0.4500000000E-02   0.0000000000E+00  -0.1122750000E-02  -0.8500000000E-02   0.0000000000E+00   0.2120750000E-02  -0.1000000001E+01  -0.2432432794E-14   0.1932590679E-13  -0.2042578626E-15   0.3225762337E-14   0.1096510207E-13  -0.2000000003E-02   0.9980000014E-03   0.9980000014E-03  -0.8585338266E-15  -0.1171662223E-14  -0.2073250398E-14   0.1000000001E+01
   0.1996000000E+01   0.1000998000E+01   0.1000998000E+01   0.4500000000E-02  -0.1122750000E-02  -0.1122750000E-02  -0.8500000000E-02   0.2120750000E-02   0.2120750000E-02  -0.1000000001E+01   0.4504803681E-13   0.6527547932E-13   0.2451468670E-14   0.6785711611E-14  -0.8284805990E-14  -0.2000000003E-02   0.9980000013E-03   0.9980000013E-03   0.6630508315E-15  -0.3149718525E-15   0.1007910541E-14   0.1000000001E+01
     1     2     3     4     5     6     7     8
     2     9    10     3     6    11    12     7
 VARIABLES = X,Y,Z,DU1,DU2,DU3,U1,U2,U3,S11,S22,S33,S12,S13,S23,E11,E22,E33,E12,E13,E23,SMISES
 ZONE, T="0.4450D+01" F=FEPOINT, I=   12 J=    2 ET=BRICK
   0.0000000000E+00   0.0000000000E+00   0.0000000000E+00   0.0000000000E+00   0.0000000000E+00   0.0000000000E+00   0.0000000000E+00   0.0000000000E+00   0.0000000000E+00   0.1250000002E+00  -0.2903119073E-13  -0.5703973197E-13   0.1445187017E-15  -0.7593925416E-14   0.1117228638E-13   0.2500000004E-03  -0.1247500002E-03  -0.1247500002E-03   0.8822700988E-19   0.2735107205E-14  -0.8053768206E-15   0.1250000002E+00
   0.1000250000E+01   0.0000000000E+00   0.1697016759E-14   0.2250000000E-02   0.0000000000E+00  -0.5240457939E-18  -0.2000000000E-02   0.0000000000E+00   0.1697540805E-14   0.1250000002E+00  -0.9655452836E-13  -0.1191384497E-12   0.9582307961E-15   0.1226672152E-14   0.1237463524E-13   0.2500000004E-03  -0.1247500002E-03  -0.1247500002E-03  -0.3042750795E-15   0.1609720758E-14  -0.2671366906E-14   0.1250000002E+00
   0.1000250000E+01   0.9998752500E+00   0.3613716609E-15   0.2250000000E-02  -0.1122750000E-02  -0.5036719476E-18  -0.2000000000E-02   0.9980000000E-03   0.3618753329E-15   0.1250000002E+00   0.1768489867E-13  -0.6554126080E-14   0.5457194156E-15  -0.1522267250E-14  -0.1126950365E-13   0.2500000004E-03  -0.1247500002E-03  -0.1247500002E-03   0.4642394073E-15   0.6725659080E-15   0.4225628088E-15   0.1250000002E+00
   0.0000000000E+00   0.9998752500E+00  -0.4026407490E-15   0.0000000000E+00  -0.1122750000E-02  -0.7975937415E-19   0.0000000000E+00   0.9980000000E-03  -0.4025609896E-15   0.1250000002E+00   0.2891129916E-13   0.6855288659E-14   0.1185514250E-14  -0.5356129588E-14  -0.1318710724E-13   0.2500000004E-03  -0.1247500002E-03  -0.1247500002E-03  -0.8597584178E-17   0.3495037098E-15   0.2291904634E-14   0.1250000002E+00
   0.0000000000E+00   0.0000000000E+00   0.9998752500E+00   0.0000000000E+00   0.0000000000E+00  -0.1122750000E-02   0.0000000000E+00   0.0000000000E+00   0.9980000000E-03   0.1250000002E+00   0.4858742987E-14   0.2896784016E-13  -0.2099354718E-15  -0.4807494950E-14   0.1229271346E-13   0.2500000004E-03  -0.1247500002E-03  -0.1247500002E-03  -0.1032793721E-18   0.2769721368E-14  -0.3911504905E-15   0.1250000002E+00
   0.1000250000E+01   0.0000000000E+00   0.9998752500E+00   0.2250000000E-02   0.0000000000E+00  -0.1122750000E-02  -0.2000000000E-02   0.0000000000E+00   0.9980000000E-03   0.1250000002E+00   0.5704662107E-13   0.8091115071E-13  -0.2440154846E-15   0.2812205560E-14   0.1071737042E-13   0.2500000004E-03  -0.1247500002E-03  -0.1247500002E-03  -0.4160582372E-15   0.8710195545E-15  -0.2344991531E-14   0.1250000002E+00
   0.1000250000E+01   0.9998752500E+00   0.9998752500E+00   0.2250000000E-02  -0.1122750000E-02  -0.1122750000E-02  -0.2000000000E-02   0.9980000000E-03   0.9980000000E-03   0.1250000002E+00   0.6596925942E-13   0.8841273895E-13   0.1028655839E-15  -0.7765875687E-15  -0.1383879191E-13   0.2500000003E-03  -0.1247500002E-03  -0.1247500002E-03   0.3411189049E-15  -0.8381176679E-16   0.7491917068E-15   0.1250000002E+00
   0.0000000000E+00   0.9998752500E+00   0.9998752500E+00   0.0000000000E+00  -0.1122750000E-02  -0.1122750000E-02   0.0000000000E+00   0.9980000000E-03   0.9980000000E-03   0.1250000002E+00   0.3581471046E-14   0.2741859945E-13   0.6396575965E-15  -0.7237927415E-14  -0.1080988370E-13   0.2500000003E-03  -0.1247500002E-03  -0.1247500002E-03  -0.4770775562E-17   0.2566423458E-15   0.2704324210E-14   0.1250000002E+00
   0.2000500000E+01   0.0000000000E+00   0.4712257361E-14   0.4500000000E-02   0.0000000000E+00  -0.1947795398E-17  -0.4000000000E-02   0.0000000000E+00   0.4714205156E-14   0.1250000002E+00  -0.1439821035E-12  -0.1643022122E-12   0.2990648084E-14   0.1165187044E-13   0.1093273907E-13   0.2500000004E-03  -0.1247500002E-03  -0.1247500002E-03  -0.8826822642E-15   0.3468965932E-15  -0.2461889094E-14   0.1250000002E+00
   0.2000500000E+01   0.9998752500E+00   0.3481582703E-14   0.4500000000E-02  -0.1122750000E-02  -0.1118626926E-17  -0.4000000000E-02   0.9980000000E-03   0.3482701330E-14   0.1250000002E+00   0.3497459249E-13   0.1635145888E-13  -0.5079082089E-15   0.1597010162E-16  -0.8839312510E-14   0.2500000004E-03  -0.1247500002E-03  -0.1247500002E-03   0.6599462462E-15   0.1095546604E-14   0.6159009004E-15   0.1250000002E+00
   0.2000500000E+01   0.0000000000E+00   0.9998752500E+00   0.4500000000E-02   0.0000000000E+00  -0.1122750000E-02  -0.4000000000E-02   0.0000000000E+00   0.9980000000E-03   0.1250000002E+00   0.9436586424E-14   0.3136304846E-13  -0.3570879908E-15   0.3563408762E-14   0.1101246046E-13   0.2500000004E-03  -0.1247500002E-03  -0.1247500002E-03  -0.8599937252E-15  -0.1167318196E-14  -0.2071584547E-14   0.1250000002E+00
   0.2000500000E+01   0.9998752500E+00   0.9998752500E+00   0.4500000000E-02  -0.1122750000E-02  -0.1122750000E-02  -0.4000000000E-02   0.9980000000E-03   0.9980000000E-03   0.1250000002E+00   0.2944385858E-13   0.4966434998E-13   0.2108986292E-14   0.6442347210E-14  -0.8372388114E-14   0.2500000003E-03  -0.1247500002E-03  -0.1247500002E-03   0.6586177780E-15  -0.3192218177E-15   0.1005350302E-14   0.1250000002E+00
     1     2     3     4     5     6     7     8
     2     9    10     3     6    11    12     7
 VARIABLES = X,Y,Z,DU1,DU2,DU3,U1,U2,U3,S11,S22,S33,S12,S13,S23,E11,E22,E33,E12,E13,E23,SMISES
 ZONE, T="0.4500D+01" F=FEPOINT, I=   12 J=    2 ET=BRICK
   0.0000000000E+00   0.0000000000E+00   0.0000000000E+00   0.0000000000E+00   0.0000000000E+00   0.0000000000E+00   0.0000000000E+00   0.0000000000E+00   0.0000000000E+00   0.1250000002E+01   0.2527013428E-14  -0.2507082657E-13   0.1374091496E-15  -0.7616875958E-14   0.1112981293E-13   0.2500000004E-02  -0.1247500002E-02  -0.1247500002E-02  -0.6679394578E-19   0.2733889315E-14  -0.8058175104E-15   0.1250000002E+01
   0.1002500000E+01   0.0000000000E+00   0.1696756425E-14   0.2250000000E-02   0.0000000000E+00  -0.2603342681E-18   0.2500000000E-03   0.0000000000E+00   0.1697016759E-14   0.1250000002E+01   0.4735782648E-13   0.2450378651E-13   0.7562646540E-15   0.8928764996E-15   0.1253386643E-13   0.2500000004E-02  -0.1247500002E-02  -0.1247500002E-02  -0.3060331340E-15   0.1608393969E-14  -0.2669299929E-14   0.1250000002E+01
   0.1002500000E+01   0.9987525000E+00   0.3620254833E-15   0.2250000000E-02  -0.1122750000E-02   0.6538223667E-18   0.2500000000E-03  -0.1247500000E-03   0.3613716609E-15   0.1250000002E+01   0.2348600852E-13  -0.1055338398E-14   0.5127551841E-15  -0.1305642485E-14  -0.1128976023E-13   0.2500000004E-02  -0.1247500002E-02  -0.1247500002E-02   0.4632284569E-15   0.6721641471E-15   0.4225416667E-15   0.1250000002E+01
   0.0000000000E+00   0.9987525000E+00  -0.4029870327E-15   0.0000000000E+00  -0.1122750000E-02  -0.3462837515E-18   0.0000000000E+00  -0.1247500000E-03  -0.4026407490E-15   0.1250000002E+01  -0.7978929055E-13  -0.1016181980E-12   0.1411877533E-14  -0.5183065790E-14  -0.1295599982E-13   0.2500000004E-02  -0.1247500002E-02  -0.1247500002E-02  -0.5538483796E-17   0.3524583526E-15   0.2292416075E-14   0.1250000002E+01
   0.0000000000E+00   0.0000000000E+00   0.9987525000E+00   0.0000000000E+00   0.0000000000E+00  -0.1122750000E-02   0.0000000000E+00   0.0000000000E+00  -0.1247500000E-03   0.1250000002E+01   0.2828965353E-14   0.2669946359E-13  -0.2054077671E-15  -0.4898073327E-14   0.1214578258E-13   0.2500000004E-02  -0.1247500002E-02  -0.1247500002E-02   0.1032783522E-19   0.2768819824E-14  -0.3914615101E-15   0.1250000002E+01
   0.1002500000E+01   0.0000000000E+00   0.9987525000E+00   0.2250000000E-02   0.0000000000E+00  -0.1122750000E-02   0.2500000000E-03   0.0000000000E+00  -0.1247500000E-03   0.1250000002E+01  -0.6144434832E-13  -0.3730611498E-13  -0.9727226811E-16   0.2659173784E-14   0.1071464513E-13   0.2500000004E-02  -0.1247500002E-02  -0.1247500002E-02  -0.4145316691E-15   0.8686185473E-15  -0.2345291535E-14   0.1250000002E+01
   0.1002500000E+01   0.9987525000E+00   0.9987525000E+00   0.2250000000E-02  -0.1122750000E-02  -0.1122750000E-02   0.2500000000E-03  -0.1247500000E-03  -0.1247500000E-03   0.1250000002E+01   0.2594070704E-13   0.4851194229E-13   0.7245746597E-16  -0.5859191085E-15  -0.1397484485E-13   0.2500000003E-02  -0.1247500002E-02  -0.1247500002E-02   0.3410884288E-15  -0.8190041522E-16   0.7466566434E-15   0.1250000002E+01
   0.0000000000E+00   0.9987525000E+00   0.9987525000E+00   0.0000000000E+00  -0.1122750000E-02  -0.1122750000E-02   0.0000000000E+00  -0.1247500000E-03  -0.1247500000E-03   0.1250000002E+01   0.7789884397E-13   0.1013952739E-12   0.3498703876E-15  -0.7040967310E-14  -0.1062922755E-13   0.2500000003E-02  -0.1247500002E-02  -0.1247500002E-02  -0.8275453988E-17   0.2595079164E-15   0.2707885926E-14   0.1250000002E+01
   0.2005000000E+01   0.0000000000E+00   0.4712122563E-14   0.4500000000E-02   0.0000000000E+00  -0.1347979907E-18   0.5000000000E-03   0.0000000000E+00   0.4712257361E-14   0.1250000002E+01   0.8872705905E-13   0.6868442711E-13   0.2348310002E-14   0.1118386252E-13   0.1117049600E-13   0.2500000004E-02  -0.1247500002E-02  -0.1247500002E-02  -0.8905658341E-15   0.3395525237E-15  -0.2458706022E-14   0.1250000002E+01
   0.2005000000E+01   0.9987525000E+00   0.3482619640E-14   0.4500000000E-02  -0.1122750000E-02   0.1036936281E-17   0.5000000000E-03  -0.1247500000E-03   0.3481582703E-14   0.1250000002E+01  -0.3055207576E-13  -0.4967216408E-13  -0.1042423703E-14   0.4235551659E-15  -0.9037841812E-14   0.2500000003E-02  -0.1247500002E-02  -0.1247500002E-02   0.6526076962E-15   0.1101326915E-14   0.6132653113E-15   0.1250000002E+01
   0.2005000000E+01   0.0000000000E+00   0.9987525000E+00   0.4500000000E-02   0.0000000000E+00  -0.1122750000E-02   0.5000000000E-03   0.0000000000E+00  -0.1247500000E-03   0.1250000002E+01   0.2255779685E-13   0.4527199102E-13   0.1410855692E-15   0.3396524790E-14   0.1082918416E-13   0.2500000003E-02  -0.1247500002E-02  -0.1247500002E-02  -0.8550020421E-15  -0.1173694504E-14  -0.2074211065E-14   0.1250000002E+01
   0.2005000000E+01   0.9987525000E+00   0.9987525000E+00   0.4500000000E-02  -0.1122750000E-02  -0.1122750000E-02   0.5000000000E-03  -0.1247500000E-03  -0.1247500000E-03   0.1250000002E+01  -0.3880488237E-13  -0.1859163347E-13   0.2615105205E-14   0.6963254884E-14  -0.8812746498E-14   0.2500000003E-02  -0.1247500002E-02  -0.1247500002E-02   0.6662905654E-15  -0.3148269063E-15   0.9997468428E-15   0.1250000002E+01
     1     2     3     4     5     6     7     8
     2     9    10     3     6    11    12     7
 VARIABLES = X,Y,Z,DU1,DU2,DU3,U1,U2,U3,S11,S22,S33,S12,S13,S23,E11,E22,E33,E12,E13,E23,SMISES
 ZONE, T="0.4550D+01" F=FEPOINT, I=   12 J=    2 ET=BRICK
   0.0000000000E+00   0.0000000000E+00   0.0000000000E+00   0.0000000000E+00   0.0000000000E+00   0.0000000000E+00   0.0000000000E+00   0.0000000000E+00   0.0000000000E+00   0.2375000004E+01   0.4300752420E-13   0.1496051545E-13   0.9737947390E-16  -0.7645582243E-14   0.1121111133E-13   0.4750000007E-02  -0.2370250004E-02  -0.2370250004E-02  -0.2033219968E-18   0.2735008793E-14  -0.8046423876E-15   0.2375000004E+01
   0.1004750000E+01   0.0000000000E+00   0.1696589262E-14   0.2250000000E-02   0.0000000000E+00  -0.1671628572E-18   0.2500000000E-02   0.0000000000E+00   0.1696756425E-14   0.2375000004E+01  -0.8892932808E-13  -0.1111923346E-12   0.9753059765E-15   0.1071399097E-14   0.1254611225E-13   0.4750000007E-02  -0.2370250004E-02  -0.2370250004E-02  -0.3039288897E-15   0.1608722339E-14  -0.2669363307E-14   0.2375000004E+01
   0.1004750000E+01   0.9976297500E+00   0.3619226915E-15   0.2250000000E-02  -0.1122750000E-02  -0.1027918293E-18   0.2500000000E-02  -0.1247500000E-02   0.3620254833E-15   0.2375000003E+01  -0.9142135115E-13  -0.1158665499E-12   0.7211937272E-15  -0.1497922514E-14  -0.1111549368E-13   0.4750000007E-02  -0.2370250003E-02  -0.2370250003E-02   0.4654123908E-15   0.6710882953E-15   0.4244398833E-15   0.2375000003E+01
   0.0000000000E+00   0.9976297500E+00  -0.4024944834E-15   0.0000000000E+00  -0.1122750000E-02   0.4925493927E-18   0.0000000000E+00  -0.1247500000E-02  -0.4029870327E-15   0.2375000003E+01  -0.6277737643E-13  -0.8489944321E-13   0.1003723669E-14  -0.5266235891E-14  -0.1310109933E-13   0.4750000007E-02  -0.2370250003E-02  -0.2370250003E-02  -0.1030912818E-16   0.3508063042E-15   0.2289910822E-14   0.2375000003E+01
   0.0000000000E+00   0.0000000000E+00   0.9976297500E+00   0.0000000000E+00   0.0000000000E+00  -0.1122750000E-02   0.0000000000E+00   0.0000000000E+00  -0.1247500000E-02   0.2375000003E+01  -0.3728078247E-14   0.2028899962E-13  -0.1992967464E-15  -0.4747829005E-14   0.1221933540E-13   0.4750000007E-02  -0.2370250003E-02  -0.2370250003E-02  -0.5335489951E-20   0.2768308662E-14  -0.3895273929E-15   0.2375000003E+01
   0.1004750000E+01   0.0000000000E+00   0.9976297500E+00   0.2250000000E-02   0.0000000000E+00  -0.1122750000E-02   0.2500000000E-02   0.0000000000E+00  -0.1247500000E-02   0.2375000003E+01   0.4321219579E-13   0.6724956610E-13  -0.2641551425E-15   0.2556541046E-14   0.1062500212E-13   0.4750000007E-02  -0.2370250003E-02  -0.2370250003E-02  -0.4164293383E-15   0.8717390150E-15  -0.2346248444E-14   0.2375000003E+01
   0.1004750000E+01   0.9976297500E+00   0.9976297500E+00   0.2250000000E-02  -0.1122750000E-02  -0.1122750000E-02   0.2500000000E-02  -0.1247500000E-02  -0.1247500000E-02   0.2375000003E+01   0.4372215072E-13   0.6606934864E-13  -0.1481174060E-15  -0.7219030848E-15  -0.1389897319E-13   0.4750000006E-02  -0.2370250003E-02  -0.2370250003E-02   0.3401355332E-15  -0.8362127349E-16   0.7486659228E-15   0.2375000003E+01
   0.0000000000E+00   0.9976297500E+00   0.9976297500E+00   0.0000000000E+00  -0.1122750000E-02  -0.1122750000E-02   0.0000000000E+00  -0.1247500000E-02  -0.1247500000E-02   0.2375000003E+01  -0.5986984160E-13  -0.3640090033E-13   0.6102942903E-15  -0.7268012902E-14  -0.1076445914E-13   0.4750000006E-02  -0.2370250003E-02  -0.2370250003E-02  -0.6026046529E-17   0.2563836319E-15   0.2705766358E-14   0.2375000003E+01
   0.2009500000E+01   0.0000000000E+00   0.4710965880E-14   0.4500000000E-02   0.0000000000E+00  -0.1156682820E-17   0.5000000000E-02   0.0000000000E+00   0.4712122563E-14   0.2375000004E+01  -0.7199860463E-13  -0.9280932745E-13   0.2435047383E-14   0.1142349974E-13   0.1107421223E-13   0.4750000007E-02  -0.2370250004E-02  -0.2370250004E-02  -0.8887864622E-15   0.3411992549E-15  -0.2460088083E-14   0.2375000004E+01
   0.2009500000E+01   0.9976297500E+00   0.3481093829E-14   0.4500000000E-02  -0.1122750000E-02  -0.1525810102E-17   0.5000000000E-02  -0.1247500000E-02   0.3482619640E-14   0.2375000003E+01   0.3680460701E-13   0.1767980376E-13  -0.6762675214E-15   0.1344465202E-19  -0.9073980044E-14   0.4750000007E-02  -0.2370250003E-02  -0.2370250003E-02   0.6567490127E-15   0.1098382402E-14   0.6130290618E-15   0.2375000003E+01
   0.2009500000E+01   0.0000000000E+00   0.9976297500E+00   0.4500000000E-02   0.0000000000E+00  -0.1122750000E-02   0.5000000000E-02   0.0000000000E+00  -0.1247500000E-02   0.2375000003E+01  -0.4441109801E-13  -0.2203577975E-13   0.6052755983E-16   0.3570414373E-14   0.1103658867E-13   0.4750000007E-02  -0.2370250003E-02  -0.2370250003E-02  -0.8570297553E-15  -0.1174611763E-14  -0.2071831957E-14   0.2375000003E+01
   0.2009500000E+01   0.9976297500E+00   0.9976297500E+00   0.4500000000E-02  -0.1122750000E-02  -0.1122750000E-02   0.5000000000E-02  -0.1247500000E-02  -0.1247500000E-02   0.2375000003E+01   0.1440715692E-13   0.3496462830E-13   0.2328533437E-14   0.6649568200E-14  -0.8685024782E-14   0.4750000006E-02  -0.2370250003E-02  -0.2370250003E-02   0.6617550665E-15  -0.3205107800E-15   0.1002062789E-14   0.2375000003E+01
     1     2     3     4     5     6     7     8
     2     9    10     3     6    11    12     7
 VARIABLES = X,Y,Z,DU1,DU2,DU3,U1,U2,U3,S11,S22,S33,S12,S13,S23,E11,E22,E33,E12,E13,E23,SMISES
 ZONE, T="0.4600D+01" F=FEPOINT, I=   12 J=    2 ET=BRICK
   0.0000000000E+00   0.0000000000E+00   0.0000000000E+00   0.0000000000E+00   0.0000000000E+00   0.0000000000E+00   0.0000000000E+00   0.0000000000E+00   0.0000000000E+00   0.3500000005E+01  -0.5118320355E-13  -0.7932028443E-13   0.9705250344E-16  -0.7664116237E-14   0.1100771376E-13   0.7000000011E-02  -0.3493000005E-02  -0.3493000005E-02   0.8280570254E-19   0.2732276938E-14  -0.8076644496E-15   0.3500000005E+01
   0.1007000000E+01   0.0000000000E+00   0.1696848340E-14   0.2250000000E-02   0.0000000000E+00   0.2590780811E-18   0.4750000000E-02   0.0000000000E+00   0.1696589262E-14   0.3500000005E+01   0.3259084480E-13   0.1028992351E-13   0.9726885879E-15   0.1215622922E-14   0.1238845091E-13   0.7000000011E-02  -0.3493000005E-02  -0.3493000005E-02  -0.3051553080E-15   0.1612830937E-14  -0.2671270746E-14   0.3500000005E+01
   0.1007000000E+01   0.9965070000E+00   0.3612918961E-15   0.2250000000E-02  -0.1122750000E-02  -0.6307953867E-18   0.4750000000E-02  -0.2370250000E-02   0.3619226915E-15   0.3500000005E+01  -0.5664666372E-13  -0.8086364418E-13   0.6650002648E-15  -0.1358717453E-14  -0.1135707347E-13   0.7000000010E-02  -0.3493000005E-02  -0.3493000005E-02   0.4618981220E-15   0.6672332673E-15   0.4221809336E-15   0.3500000005E+01
   0.0000000000E+00   0.9965070000E+00  -0.4036688261E-15   0.0000000000E+00  -0.1122750000E-02  -0.1174342749E-17   0.0000000000E+00  -0.2370250000E-02  -0.4024944834E-15   0.3500000005E+01   0.6424618479E-13   0.4287189045E-13   0.1213933142E-14  -0.5293762425E-14  -0.1309719637E-13   0.7000000010E-02  -0.3493000005E-02  -0.3493000005E-02  -0.6154414785E-17   0.3531014977E-15   0.2291145493E-14   0.3500000005E+01
   0.0000000000E+00   0.0000000000E+00   0.9965070000E+00   0.0000000000E+00   0.0000000000E+00  -0.1122750000E-02   0.0000000000E+00   0.0000000000E+00  -0.2370250000E-02   0.3500000005E+01  -0.6404324492E-14   0.1696039972E-13  -0.2306240439E-15  -0.4741416588E-14   0.1231903908E-13   0.7000000010E-02  -0.3493000005E-02  -0.3493000005E-02  -0.3793537967E-18   0.2773232003E-14  -0.3872653810E-15   0.3500000005E+01
   0.1007000000E+01   0.0000000000E+00   0.9965070000E+00   0.2250000000E-02   0.0000000000E+00  -0.1122750000E-02   0.4750000000E-02   0.0000000000E+00  -0.2370250000E-02   0.3500000005E+01  -0.5621965951E-13  -0.3212750749E-13  -0.2786083234E-15   0.2760206461E-14   0.1064391829E-13   0.7000000010E-02  -0.3493000005E-02  -0.3493000005E-02  -0.4171703441E-15   0.8664841150E-15  -0.2346846409E-14   0.3500000005E+01
   0.1007000000E+01   0.9965070000E+00   0.9965070000E+00   0.2250000000E-02  -0.1122750000E-02  -0.1122750000E-02   0.4750000000E-02  -0.2370250000E-02  -0.2370250000E-02   0.3500000005E+01   0.2026430304E-13   0.4253839349E-13  -0.1104220270E-15  -0.8303888033E-15  -0.1394388408E-13   0.7000000009E-02  -0.3493000005E-02  -0.3493000005E-02   0.3409838170E-15  -0.8231477616E-16   0.7460708843E-15   0.3500000005E+01
   0.0000000000E+00   0.9965070000E+00   0.9965070000E+00   0.0000000000E+00  -0.1122750000E-02  -0.1122750000E-02   0.0000000000E+00  -0.2370250000E-02  -0.2370250000E-02   0.3500000005E+01   0.7652041342E-13   0.1006603011E-12   0.3759793688E-15  -0.7268395759E-14  -0.1052519713E-13   0.7000000009E-02  -0.3493000005E-02  -0.3493000005E-02  -0.9324904467E-17   0.2552711786E-15   0.2708343116E-14   0.3500000005E+01
   0.2014000000E+01   0.0000000000E+00   0.4713764447E-14   0.4500000000E-02   0.0000000000E+00   0.2798567169E-17   0.9500000000E-02   0.0000000000E+00   0.4710965880E-14   0.3500000005E+01   0.3652278488E-13   0.1555977110E-13   0.1945816095E-14   0.1136573632E-13   0.1087016698E-13   0.7000000011E-02  -0.3493000005E-02  -0.3493000005E-02  -0.8965254213E-15   0.3392955464E-15  -0.2462528441E-14   0.3500000005E+01
   0.2014000000E+01   0.9965070000E+00   0.3482533658E-14   0.4500000000E-02  -0.1122750000E-02   0.1439828138E-17   0.9500000000E-02  -0.2370250000E-02   0.3481093829E-14   0.3500000005E+01  -0.1957228333E-12  -0.2144282161E-12  -0.1520936878E-14   0.5022934612E-16  -0.8792501902E-14   0.7000000010E-02  -0.3493000005E-02  -0.3493000005E-02   0.6464292913E-15   0.1097384660E-14   0.6157954816E-15   0.3500000005E+01
   0.2014000000E+01   0.0000000000E+00   0.9965070000E+00   0.4500000000E-02   0.0000000000E+00  -0.1122750000E-02   0.9500000000E-02   0.0000000000E+00  -0.2370250000E-02   0.3500000005E+01  -0.3362413026E-13  -0.1177453985E-13  -0.1839862438E-15   0.3250572152E-14   0.1095669380E-13   0.7000000010E-02  -0.3493000005E-02  -0.3493000005E-02  -0.8559731766E-15  -0.1168677493E-14  -0.2071649521E-14   0.3500000005E+01
   0.2014000000E+01   0.9965070000E+00   0.9965070000E+00   0.4500000000E-02  -0.1122750000E-02  -0.1122750000E-02   0.9500000000E-02  -0.2370250000E-02  -0.2370250000E-02   0.3500000004E+01   0.9000140260E-13   0.1099082461E-12   0.2676578926E-14   0.6719732724E-14  -0.8265388441E-14   0.7000000009E-02  -0.3493000004E-02  -0.3493000004E-02   0.6656942821E-15  -0.3173595043E-15   0.1006553602E-14   0.3500000004E+01
     1     2     3     4     5     6     7     8
     2     9    10     3     6    11    12     7
 VARIABLES = X,Y,Z,DU1,DU2,DU3,U1,U2,U3,S11,S22,S33,S12,S13,S23,E11,E22,E33,E12,E13,E23,SMISES
 ZONE, T="0.4650D+01" F=FEPOINT, I=   12 J=    2 ET=BRICK
   0.0000000000E+00   0.0000000000E+00   0.0000000000E+00   0.0000000000E+00   0.0000000000E+00   0.0000000000E+00   0.0000000000E+00   0.0000000000E+00   0.0000000000E+00   0.4625000007E+01  -0.3524177810E-13  -0.6354539238E-13   0.1021892805E-15  -0.7637074426E-14   0.1124681588E-13   0.9250000015E-02  -0.4615750007E-02  -0.4615750007E-02  -0.2908570939E-18   0.2733683391E-14  -0.8041442627E-15   0.4625000007E+01
   0.1009250000E+01   0.0000000000E+00   0.1696204907E-14   0.2250000000E-02   0.0000000000E+00  -0.6434331976E-18   0.7000000000E-02   0.0000000000E+00   0.1696848340E-14   0.4625000007E+01  -0.3198580150E-13  -0.5421633750E-13   0.1104411502E-14   0.1113788818E-14   0.1258962441E-13   0.9250000014E-02  -0.4615750007E-02  -0.4615750007E-02  -0.3036099142E-15   0.1607142422E-14  -0.2668172242E-14   0.4625000007E+01
   0.1009250000E+01   0.9953842500E+00   0.3618646731E-15   0.2250000000E-02  -0.1122750000E-02   0.5727769852E-18   0.7000000000E-02  -0.3493000000E-02   0.3612918961E-15   0.4625000007E+01   0.4179405726E-13   0.1687827711E-13   0.8974670711E-15  -0.1337311600E-14  -0.1132118471E-13   0.9250000013E-02  -0.4615750007E-02  -0.4615750007E-02   0.4632404095E-15   0.6668192563E-15   0.4204923301E-15   0.4625000007E+01
   0.0000000000E+00   0.9953842500E+00  -0.4023814740E-15   0.0000000000E+00  -0.1122750000E-02   0.1287352141E-17   0.0000000000E+00  -0.3493000000E-02  -0.4036688261E-15   0.4625000007E+01  -0.5060576087E-13  -0.7217235150E-13   0.1215225000E-14  -0.5394462289E-14  -0.1319106031E-13   0.9250000013E-02  -0.4615750007E-02  -0.4615750007E-02  -0.5957761059E-17   0.3532759857E-15   0.2290146196E-14   0.4625000007E+01
   0.0000000000E+00   0.0000000000E+00   0.9953842500E+00   0.0000000000E+00   0.0000000000E+00  -0.1122750000E-02   0.0000000000E+00   0.0000000000E+00  -0.3493000000E-02   0.4625000007E+01   0.7038192403E-13   0.9471755932E-13  -0.2134600731E-15  -0.4851651038E-14   0.1225219403E-13   0.9250000013E-02  -0.4615750007E-02  -0.4615750007E-02   0.7160405098E-18   0.2765785768E-14  -0.3915670528E-15   0.4625000007E+01
   0.1009250000E+01   0.0000000000E+00   0.9953842500E+00   0.2250000000E-02   0.0000000000E+00  -0.1122750000E-02   0.7000000000E-02   0.0000000000E+00  -0.3493000000E-02   0.4625000007E+01   0.3210245237E-13   0.5638690068E-13  -0.2201517556E-15   0.2904922930E-14   0.1066265141E-13   0.9250000013E-02  -0.4615750007E-02  -0.4615750007E-02  -0.4189032278E-15   0.8753409345E-15  -0.2345521184E-14   0.4625000007E+01
   0.1009250000E+01   0.9953842500E+00   0.9953842500E+00   0.2250000000E-02  -0.1122750000E-02  -0.1122750000E-02   0.7000000000E-02  -0.3493000000E-02  -0.3493000000E-02   0.4625000006E+01  -0.2114397945E-15   0.2206265065E-13  -0.1186511974E-15  -0.8309372327E-15  -0.1415852229E-13   0.9250000012E-02  -0.4615750006E-02  -0.4615750006E-02   0.3388713247E-15  -0.9078221879E-16   0.7437583076E-15   0.4625000006E+01
   0.0000000000E+00   0.9953842500E+00   0.9953842500E+00   0.0000000000E+00  -0.1122750000E-02  -0.1122750000E-02   0.0000000000E+00  -0.3493000000E-02  -0.3493000000E-02   0.4625000006E+01  -0.3871906502E-14   0.2013664041E-13   0.5807939936E-15  -0.7334498963E-14  -0.1079468826E-13   0.9250000012E-02  -0.4615750006E-02  -0.4615750006E-02  -0.6548788811E-17   0.2576514509E-15   0.2707971438E-14   0.4625000006E+01
   0.2018500000E+01   0.0000000000E+00   0.4709934377E-14   0.4500000000E-02   0.0000000000E+00  -0.3830070213E-17   0.1400000000E-01   0.0000000000E+00   0.4713764447E-14   0.4625000007E+01   0.1212794066E-13  -0.8668539645E-14   0.2911542907E-14   0.1193989288E-13   0.1134173936E-13   0.9250000014E-02  -0.4615750007E-02  -0.4615750007E-02  -0.8862646238E-15   0.3380905539E-15  -0.2457330367E-14   0.4625000007E+01
   0.2018500000E+01   0.9953842500E+00   0.3481342382E-14   0.4500000000E-02  -0.1122750000E-02  -0.1191275633E-17   0.1400000000E-01  -0.3493000000E-02   0.3482533658E-14   0.4625000006E+01   0.1267330332E-12   0.1078353541E-12  -0.6152137317E-15  -0.3250078213E-15  -0.8854778937E-14   0.9250000013E-02  -0.4615750006E-02  -0.4615750006E-02   0.6582125411E-15   0.1105405242E-14   0.6173429710E-15   0.4625000006E+01
   0.2018500000E+01   0.0000000000E+00   0.9953842500E+00   0.4500000000E-02   0.0000000000E+00  -0.1122750000E-02   0.1400000000E-01   0.0000000000E+00  -0.3493000000E-02   0.4625000006E+01   0.2166722550E-13   0.4460963797E-13  -0.2892039671E-15   0.3480224359E-14   0.1105008491E-13   0.9250000013E-02  -0.4615750006E-02  -0.4615750006E-02  -0.8603463065E-15  -0.1166695327E-14  -0.2070937110E-14   0.4625000006E+01
   0.2018500000E+01   0.9953842500E+00   0.9953842500E+00   0.4500000000E-02  -0.1122750000E-02  -0.1122750000E-02   0.1400000000E-01  -0.3493000000E-02  -0.3493000000E-02   0.4625000006E+01  -0.2164044542E-13  -0.1076898009E-14   0.2390250819E-14   0.6406908612E-14  -0.8584720255E-14   0.9250000012E-02  -0.4615750006E-02  -0.4615750006E-02   0.6610985111E-15  -0.3131835020E-15   0.9977462470E-15   0.4625000006E+01
     1     2     3     4     5     6     7     8
     2     9    10     3     6    11    12     7
 VARIABLES = X,Y,Z,DU1,DU2,DU3,U1,U2,U3,S11,S22,S33,S12,S13,S23,E11,E22,E33,E12,E13,E23,SMISES
 ZONE, T="0.4700D+01" F=FEPOINT, I=   12 J=    2 ET=BRICK
   0.0000000000E+00   0.0000000000E+00   0.0000000000E+00   0.0000000000E+00   0.0000000000E+00   0.0000000000E+00   0.0000000000E+00   0.0000000000E+00   0.0000000000E+00   0.5750000009E+01  -0.3952352401E-13  -0.6777361991E-13   0.9097607927E-16  -0.7607389461E-14   0.1114006164E-13   0.1150000002E-01  -0.5738500009E-02  -0.5738500009E-02  -0.1189278580E-18   0.2739424634E-14  -0.8061341129E-15   0.5750000009E+01
   0.1011500000E+01   0.0000000000E+00   0.1697119429E-14   0.2250000000E-02   0.0000000000E+00   0.9145223728E-18   0.9250000000E-02   0.0000000000E+00   0.1696204907E-14   0.5750000009E+01  -0.3458696371E-13  -0.5648841837E-13   0.1062339644E-14   0.8970187731E-15   0.1255745331E-13   0.1150000002E-01  -0.5738500009E-02  -0.5738500009E-02  -0.3032355139E-15   0.1601582324E-14  -0.2668671705E-14   0.5750000009E+01
   0.1011500000E+01   0.9942615000E+00   0.3625678561E-15   0.2250000000E-02  -0.1122750000E-02   0.7031830318E-18   0.9250000000E-02  -0.4615750000E-02   0.3618646731E-15   0.5750000008E+01  -0.1998440482E-13  -0.4495569609E-13   0.8581403225E-15  -0.1260863407E-14  -0.1115832974E-13   0.1150000002E-01  -0.5738500008E-02  -0.5738500008E-02   0.4644454478E-15   0.6735425563E-15   0.4235607441E-15   0.5750000008E+01
   0.0000000000E+00   0.9942615000E+00  -0.4031650877E-15   0.0000000000E+00  -0.1122750000E-02  -0.7836137002E-18   0.0000000000E+00  -0.4615750000E-02  -0.4023814740E-15   0.5750000008E+01   0.2469658908E-13   0.3375813067E-14   0.1225575466E-14  -0.5168456668E-14  -0.1305667939E-13   0.1150000002E-01  -0.5738500008E-02  -0.5738500008E-02  -0.5300189461E-17   0.3496391153E-15   0.2294856964E-14   0.5750000008E+01
   0.0000000000E+00   0.0000000000E+00   0.9942615000E+00   0.0000000000E+00   0.0000000000E+00  -0.1122750000E-02   0.0000000000E+00   0.0000000000E+00  -0.4615750000E-02   0.5750000008E+01  -0.9882176339E-13  -0.7507988382E-13  -0.2155232433E-15  -0.4665014763E-14   0.1210508111E-13   0.1150000002E-01  -0.5738500008E-02  -0.5738500008E-02  -0.3221914996E-19   0.2767354543E-14  -0.3904959535E-15   0.5750000008E+01
   0.1011500000E+01   0.0000000000E+00   0.9942615000E+00   0.2250000000E-02   0.0000000000E+00  -0.1122750000E-02   0.9250000000E-02   0.0000000000E+00  -0.4615750000E-02   0.5750000008E+01  -0.7943825831E-14   0.1590051884E-13   0.6246868533E-16   0.2627991512E-14   0.1055099997E-13   0.1150000002E-01  -0.5738500008E-02  -0.5738500008E-02  -0.4161397188E-15   0.8783538315E-15  -0.2350655620E-14   0.5750000008E+01
   0.1011500000E+01   0.9942615000E+00   0.9942615000E+00   0.2250000000E-02  -0.1122750000E-02  -0.1122750000E-02   0.9250000000E-02  -0.4615750000E-02  -0.4615750000E-02   0.5750000008E+01   0.7446777681E-14   0.2947306070E-13   0.1308962560E-15  -0.8005833660E-15  -0.1402927496E-13   0.1150000002E-01  -0.5738500008E-02  -0.5738500008E-02   0.3396831811E-15  -0.8987699515E-16   0.7466253502E-15   0.5750000008E+01
   0.0000000000E+00   0.9942615000E+00   0.9942615000E+00   0.0000000000E+00  -0.1122750000E-02  -0.1122750000E-02   0.0000000000E+00  -0.4615750000E-02  -0.4615750000E-02   0.5750000008E+01   0.1472694119E-13   0.3804558428E-13   0.4728649370E-15  -0.7114170620E-14  -0.1059508433E-13   0.1150000002E-01  -0.5738500008E-02  -0.5738500008E-02  -0.1017899670E-16   0.2602296771E-15   0.2709431825E-14   0.5750000008E+01
   0.2023000000E+01   0.0000000000E+00   0.4713492752E-14   0.4500000000E-02   0.0000000000E+00   0.3558374826E-17   0.1850000000E-01   0.0000000000E+00   0.4709934377E-14   0.5750000009E+01  -0.3077016134E-13  -0.5134658977E-13   0.2480110365E-14   0.1123919880E-13   0.1122162826E-13   0.1150000002E-01  -0.5738500009E-02  -0.5738500009E-02  -0.8843107816E-15   0.3592328026E-15  -0.2459312860E-14   0.5750000009E+01
   0.2023000000E+01   0.9942615000E+00   0.3484016204E-14   0.4500000000E-02  -0.1122750000E-02   0.2673822123E-17   0.1850000000E-01  -0.4615750000E-02   0.3481342382E-14   0.5750000008E+01  -0.6154453253E-13  -0.8002986354E-13  -0.1142759054E-14   0.3475391976E-15  -0.8872068270E-14   0.1150000002E-01  -0.5738500008E-02  -0.5738500008E-02   0.6573309401E-15   0.1084798621E-14   0.6166939331E-15   0.5750000008E+01
   0.2023000000E+01   0.0000000000E+00   0.9942615000E+00   0.4500000000E-02   0.0000000000E+00  -0.1122750000E-02   0.1850000000E-01   0.0000000000E+00  -0.4615750000E-02   0.5750000008E+01   0.6673710015E-13   0.9016224599E-13   0.2096941274E-15   0.3264449817E-14   0.1084209014E-13   0.1150000002E-01  -0.5738500008E-02  -0.5738500008E-02  -0.8576809168E-15  -0.1191471624E-14  -0.2071924481E-14   0.5750000008E+01
   0.2023000000E+01   0.9942615000E+00   0.9942615000E+00   0.4500000000E-02  -0.1122750000E-02  -0.1122750000E-02   0.1850000000E-01  -0.4615750000E-02  -0.4615750000E-02   0.5750000007E+01  -0.1294355064E-13   0.7429693306E-14   0.2778361532E-14   0.6651185700E-14  -0.8656693563E-14   0.1150000001E-01  -0.5738500007E-02  -0.5738500007E-02   0.6673228266E-15  -0.3059935423E-15   0.9943980435E-15   0.5750000007E+01
     1     2     3     4     5     6     7     8
     2     9    10     3     6    11    12     7
 VARIABLES = X,Y,Z,DU1,DU2,DU3,U1,U2,U3,S11,S22,S33,S12,S13,S23,E11,E22,E33,E12,E13,E23,SMISES
 ZONE, T="0.4750D+01" F=FEPOINT, I=   12 J=    2 ET=BRICK
   0.0000000000E+00   0.0000000000E+00   0.0000000000E+00   0.0000000000E+00   0.0000000000E+00   0.0000000000E+00   0.0000000000E+00   0.0000000000E+00   0.0000000000E+00   0.6875000011E+01   0.5712761495E-13   0.2898781193E-13   0.5434946919E-16  -0.7759064047E-14   0.1134796121E-13   0.1375000002E-01  -0.6861250011E-02  -0.6861250011E-02   0.6239117828E-18   0.2733633163E-14  -0.8045964975E-15   0.6875000011E+01
   0.1013750000E+01   0.0000000000E+00   0.1696402850E-14   0.2250000000E-02   0.0000000000E+00  -0.7165789465E-18   0.1150000000E-01   0.0000000000E+00   0.1697119429E-14   0.6875000011E+01   0.2282412048E-13   0.9836213098E-15   0.8945315048E-15   0.1098246288E-14   0.1272492890E-13   0.1375000002E-01  -0.6861250011E-02  -0.6861250011E-02  -0.3072505772E-15   0.1603400037E-14  -0.2667025736E-14   0.6875000011E+01
   0.1013750000E+01   0.9931387500E+00   0.3627706944E-15   0.2250000000E-02  -0.1122750000E-02   0.2028382580E-18   0.1150000000E-01  -0.5738500000E-02   0.3625678561E-15   0.6875000010E+01  -0.6933704031E-13  -0.9401045738E-13   0.6788610661E-15  -0.1274505238E-14  -0.1113826398E-13   0.1375000002E-01  -0.6861250010E-02  -0.6861250010E-02   0.4610991306E-15   0.6687704409E-15   0.4237179711E-15   0.6875000010E+01
   0.0000000000E+00   0.9931387500E+00  -0.4019243339E-15   0.0000000000E+00  -0.1122750000E-02   0.1240753717E-17   0.0000000000E+00  -0.5738500000E-02  -0.4031650877E-15   0.6875000010E+01  -0.1300308175E-13  -0.3499815798E-13   0.1117150299E-14  -0.5265890305E-14  -0.1307099820E-13   0.1375000002E-01  -0.6861250010E-02  -0.6861250010E-02  -0.8903941000E-17   0.3525549084E-15   0.2292627733E-14   0.6875000010E+01
   0.0000000000E+00   0.0000000000E+00   0.9931387500E+00   0.0000000000E+00   0.0000000000E+00  -0.1122750000E-02   0.0000000000E+00   0.0000000000E+00  -0.5738500000E-02   0.6875000010E+01   0.2971456884E-13   0.5376248913E-13  -0.2097690709E-15  -0.4825158270E-14   0.1219257883E-13   0.1375000002E-01  -0.6861250010E-02  -0.6861250010E-02  -0.2077334789E-17   0.2771751567E-14  -0.3902735715E-15   0.6875000010E+01
   0.1013750000E+01   0.0000000000E+00   0.9931387500E+00   0.2250000000E-02   0.0000000000E+00  -0.1122750000E-02   0.1150000000E-01   0.0000000000E+00  -0.5738500000E-02   0.6875000010E+01   0.4379181167E-13   0.6779325994E-13  -0.5060897802E-17   0.2582611779E-14   0.1065143955E-13   0.1375000002E-01  -0.6861250010E-02  -0.6861250010E-02  -0.4141368385E-15   0.8661780938E-15  -0.2347045621E-14   0.6875000010E+01
   0.1013750000E+01   0.9931387500E+00   0.9931387500E+00   0.2250000000E-02  -0.1122750000E-02  -0.1122750000E-02   0.1150000000E-01  -0.5738500000E-02  -0.5738500000E-02   0.6875000009E+01   0.5996662476E-13   0.8193195232E-13   0.6155847208E-16  -0.5258421015E-15  -0.1397674150E-13   0.1375000002E-01  -0.6861250009E-02  -0.6861250009E-02   0.3386290627E-15  -0.8270882406E-16   0.7444729651E-15   0.6875000009E+01
   0.0000000000E+00   0.9931387500E+00   0.9931387500E+00   0.0000000000E+00  -0.1122750000E-02  -0.1122750000E-02   0.0000000000E+00  -0.5738500000E-02  -0.5738500000E-02   0.6875000009E+01  -0.4428460998E-13  -0.2079471854E-13   0.5095590485E-15  -0.7305226974E-14  -0.1078153629E-13   0.1375000002E-01  -0.6861250009E-02  -0.6861250009E-02  -0.1057374376E-16   0.2552079090E-15   0.2713320924E-14   0.6875000009E+01
   0.2027500000E+01   0.0000000000E+00   0.4712276204E-14   0.4500000000E-02   0.0000000000E+00  -0.1216547385E-17   0.2300000000E-01   0.0000000000E+00   0.4713492752E-14   0.6875000010E+01   0.4165304650E-13   0.2142130299E-13   0.2146232412E-14   0.1137427720E-13   0.1112227850E-13   0.1375000002E-01  -0.6861250010E-02  -0.6861250010E-02  -0.8984799804E-15   0.3433788977E-15  -0.2460075628E-14   0.6875000010E+01
   0.2027500000E+01   0.9931387500E+00   0.3482294488E-14   0.4500000000E-02  -0.1122750000E-02  -0.1721715934E-17   0.2300000000E-01  -0.5738500000E-02   0.3484016204E-14   0.6875000010E+01  -0.1440645502E-13  -0.3286475984E-13  -0.1414580070E-14   0.3825924506E-15  -0.9010055069E-14   0.1375000002E-01  -0.6861250010E-02  -0.6861250010E-02   0.6530158306E-15   0.1100464679E-14   0.6145564812E-15   0.6875000010E+01
   0.2027500000E+01   0.0000000000E+00   0.9931387500E+00   0.4500000000E-02   0.0000000000E+00  -0.1122750000E-02   0.2300000000E-01   0.0000000000E+00  -0.5738500000E-02   0.6875000010E+01  -0.6801000452E-13  -0.4448744720E-13   0.4218313845E-15   0.3019029832E-14   0.1082182994E-13   0.1375000002E-01  -0.6861250010E-02  -0.6861250010E-02  -0.8426105583E-15  -0.1175343120E-14  -0.2074636537E-14   0.6875000010E+01
   0.2027500000E+01   0.9931387500E+00   0.9931387500E+00   0.4500000000E-02  -0.1122750000E-02  -0.1122750000E-02   0.2300000000E-01  -0.5738500000E-02  -0.5738500000E-02   0.6875000009E+01   0.9877847855E-13   0.1185254963E-12   0.2986863278E-14   0.6726856740E-14  -0.8828936547E-14   0.1375000002E-01  -0.6861250009E-02  -0.6861250009E-02   0.6675314679E-15  -0.3152501540E-15   0.9970764305E-15   0.6875000009E+01
     1     2     3     4     5     6     7     8
     2     9    10     3     6    11    12     7
 VARIABLES = X,Y,Z,DU1,DU2,DU3,U1,U2,U3,S11,S22,S33,S12,S13,S23,E11,E22,E33,E12,E13,E23,SMISES
 ZONE, T="0.4800D+01" F=FEPOINT, I=   12 J=    2 ET=BRICK
   0.0000000000E+00   0.0000000000E+00   0.0000000000E+00   0.0000000000E+00   0.0000000000E+00   0.0000000000E+00   0.0000000000E+00   0.0000000000E+00   0.0000000000E+00   0.8000000013E+01   0.9714734233E-13   0.7006370985E-13   0.5339380604E-16  -0.7612975146E-14   0.1113373719E-13   0.1600000003E-01  -0.7984000013E-02  -0.7984000013E-02  -0.2813733001E-17   0.2729894940E-14  -0.8060895917E-15   0.8000000013E+01
   0.1016000000E+01   0.0000000000E+00   0.1697158052E-14   0.2250000000E-02   0.0000000000E+00   0.7552018821E-18   0.1375000000E-01   0.0000000000E+00   0.1696402850E-14   0.8000000012E+01   0.2297734062E-13   0.9851822113E-15   0.8861070136E-15   0.9168110616E-15   0.1258386620E-13   0.1600000002E-01  -0.7984000012E-02  -0.7984000012E-02  -0.2992947473E-15   0.1616404756E-14  -0.2669966202E-14   0.8000000012E+01
   0.1016000000E+01   0.9920160000E+00   0.3625514510E-15   0.2250000000E-02  -0.1122750000E-02  -0.2192433482E-18   0.1375000000E-01  -0.6861250000E-02   0.3627706944E-15   0.8000000011E+01  -0.2105010952E-13  -0.4568288963E-13   0.7619636404E-15  -0.1240974880E-14  -0.1135611415E-13   0.1600000002E-01  -0.7984000011E-02  -0.7984000011E-02   0.4679623376E-15   0.6577275693E-15   0.4257150841E-15   0.8000000011E+01
   0.0000000000E+00   0.9920160000E+00  -0.4029672909E-15   0.0000000000E+00  -0.1122750000E-02  -0.1042956999E-17   0.0000000000E+00  -0.6861250000E-02  -0.4019243339E-15   0.8000000012E+01  -0.1383504162E-12  -0.1606284924E-12   0.1520000307E-14  -0.5151713760E-14  -0.1270856402E-13   0.1600000002E-01  -0.7984000012E-02  -0.7984000012E-02  -0.5694441061E-17   0.3552943104E-15   0.2297997126E-14   0.8000000012E+01
   0.0000000000E+00   0.0000000000E+00   0.9920160000E+00   0.0000000000E+00   0.0000000000E+00  -0.1122750000E-02   0.0000000000E+00   0.0000000000E+00  -0.6861250000E-02   0.8000000012E+01   0.6084013679E-14   0.2984893396E-13  -0.2091936005E-15  -0.4875138639E-14   0.1203735139E-13   0.1600000002E-01  -0.7984000012E-02  -0.7984000012E-02   0.2412366377E-17   0.2770724862E-14  -0.3918550757E-15   0.8000000012E+01
   0.1016000000E+01   0.0000000000E+00   0.9920160000E+00   0.2250000000E-02   0.0000000000E+00  -0.1122750000E-02   0.1375000000E-01   0.0000000000E+00  -0.6861250000E-02   0.8000000011E+01  -0.6342133934E-13  -0.3937925410E-13   0.1448503762E-15   0.2470679292E-14   0.1056480588E-13   0.1600000002E-01  -0.7984000011E-02  -0.7984000011E-02  -0.4205699255E-15   0.8625612055E-15  -0.2347319978E-14   0.8000000011E+01
   0.1016000000E+01   0.9920160000E+00   0.9920160000E+00   0.2250000000E-02  -0.1122750000E-02  -0.1122750000E-02   0.1375000000E-01  -0.6861250000E-02  -0.6861250000E-02   0.8000000010E+01   0.1131006214E-14   0.2308544513E-13   0.1285656757E-15  -0.4207642622E-15  -0.1397401339E-13   0.1600000002E-01  -0.7984000010E-02  -0.7984000010E-02   0.3402959450E-15  -0.7851352336E-16   0.7405084813E-15   0.8000000010E+01
   0.0000000000E+00   0.9920160000E+00   0.9920160000E+00   0.0000000000E+00  -0.1122750000E-02  -0.1122750000E-02   0.0000000000E+00  -0.6861250000E-02  -0.6861250000E-02   0.8000000011E+01   0.9075915536E-13   0.1143248764E-12   0.2148950453E-15  -0.7160523055E-14  -0.1050932107E-13   0.1600000002E-01  -0.7984000011E-02  -0.7984000011E-02  -0.1495653302E-16   0.2553359506E-15   0.2712030347E-14   0.8000000011E+01
   0.2032000000E+01   0.0000000000E+00   0.4713902318E-14   0.4500000000E-02   0.0000000000E+00   0.1626113206E-17   0.2750000000E-01   0.0000000000E+00   0.4712276204E-14   0.8000000012E+01  -0.2258193820E-13  -0.4273785209E-13   0.2325663606E-14   0.1152151239E-13   0.1115362077E-13   0.1600000002E-01  -0.7984000012E-02  -0.7984000012E-02  -0.8927289976E-15   0.3540502690E-15  -0.2459484062E-14   0.8000000012E+01
   0.2032000000E+01   0.9920160000E+00   0.3484041570E-14   0.4500000000E-02  -0.1122750000E-02   0.1747081553E-17   0.2750000000E-01  -0.6861250000E-02   0.3482294488E-14   0.8000000011E+01   0.2227632774E-13   0.3797704431E-14  -0.1248172307E-14   0.2295255356E-15  -0.8990149428E-14   0.1600000002E-01  -0.7984000011E-02  -0.7984000011E-02   0.6595452935E-15   0.1081923612E-14   0.6132245523E-15   0.8000000011E+01
   0.2032000000E+01   0.0000000000E+00   0.9920160000E+00   0.4500000000E-02   0.0000000000E+00  -0.1122750000E-02   0.2750000000E-01   0.0000000000E+00  -0.6861250000E-02   0.8000000011E+01  -0.9724981820E-14   0.1377725702E-13   0.1245218151E-15   0.3223463897E-14   0.1087141469E-13   0.1600000002E-01  -0.7984000011E-02  -0.7984000011E-02  -0.8429745755E-15  -0.1181120804E-14  -0.2077434176E-14   0.8000000011E+01
   0.2032000000E+01   0.9920160000E+00   0.9920160000E+00   0.4500000000E-02  -0.1122750000E-02  -0.1122750000E-02   0.2750000000E-01  -0.6861250000E-02  -0.6861250000E-02   0.8000000010E+01  -0.6788002464E-13  -0.4812756255E-13   0.2797715221E-14   0.6520078749E-14  -0.8790753805E-14   0.1600000002E-01  -0.7984000010E-02  -0.7984000010E-02   0.6636825789E-15  -0.3007748714E-15   0.9990654286E-15   0.8000000010E+01
     1     2     3     4     5     6     7     8
     2     9    10     3     6    11    12     7
 VARIABLES = X,Y,Z,DU1,DU2,DU3,U1,U2,U3,S11,S22,S33,S12,S13,S23,E11,E22,E33,E12,E13,E23,SMISES
 ZONE, T="0.4850D+01" F=FEPOINT, I=   12 J=    2 ET=BRICK
   0.0000000000E+00   0.0000000000E+00   0.0000000000E+00   0.0000000000E+00   0.0000000000E+00   0.0000000000E+00   0.0000000000E+00   0.0000000000E+00   0.0000000000E+00   0.9125000014E+01  -0.6971277710E-13  -0.9546666886E-13   0.3529462479E-16  -0.7443455308E-14   0.1065612239E-13   0.1825000003E-01  -0.9106750014E-02  -0.9106750014E-02  -0.1772553878E-18   0.2737530772E-14  -0.8105089860E-15   0.9125000014E+01
   0.1018250000E+01   0.0000000000E+00   0.1698756661E-14   0.2250000000E-02   0.0000000000E+00   0.1598609204E-17   0.1600000000E-01   0.0000000000E+00   0.1697158052E-14   0.9125000014E+01   0.1999703620E-13  -0.1155551887E-14   0.1355164313E-14   0.1023422226E-14   0.1222028105E-13   0.1825000003E-01  -0.9106750014E-02  -0.9106750014E-02  -0.3020493337E-15   0.1609525981E-14  -0.2675206112E-14   0.9125000014E+01
   0.1018250000E+01   0.9908932500E+00   0.3616412465E-15   0.2250000000E-02  -0.1122750000E-02  -0.9102045648E-18   0.1600000000E-01  -0.7984000000E-02   0.3625514510E-15   0.9125000013E+01  -0.8839009803E-14  -0.3310605709E-13   0.1180679262E-14  -0.1479242531E-14  -0.1103424910E-13   0.1825000003E-01  -0.9106750013E-02  -0.9106750013E-02   0.4634459159E-15   0.6663981629E-15   0.4262849069E-15   0.9125000013E+01
   0.0000000000E+00   0.9908932500E+00  -0.4056270846E-15   0.0000000000E+00  -0.1122750000E-02  -0.2659793690E-17   0.0000000000E+00  -0.7984000000E-02  -0.4029672909E-15   0.9125000013E+01   0.5948127517E-14  -0.1667244539E-13   0.1321930237E-14  -0.5093875883E-14  -0.1250931955E-13   0.1825000003E-01  -0.9106750013E-02  -0.9106750013E-02  -0.2263744768E-17   0.3533710216E-15   0.2296141569E-14   0.9125000013E+01
   0.0000000000E+00   0.0000000000E+00   0.9908932500E+00   0.0000000000E+00   0.0000000000E+00  -0.1122750000E-02   0.0000000000E+00   0.0000000000E+00  -0.7984000000E-02   0.9125000013E+01   0.2656659907E-13   0.4843179298E-13  -0.2373818442E-15  -0.4587147622E-14   0.1171455895E-13   0.1825000003E-01  -0.9106750013E-02  -0.9106750013E-02   0.1066436644E-18   0.2779501080E-14  -0.3985435764E-15   0.9125000013E+01
   0.1018250000E+01   0.0000000000E+00   0.9908932500E+00   0.2250000000E-02   0.0000000000E+00  -0.1122750000E-02   0.1600000000E-01   0.0000000000E+00  -0.7984000000E-02   0.9125000013E+01  -0.1486633335E-14   0.2190817780E-13  -0.1446383067E-16   0.2837461724E-14   0.1004632491E-13   0.1825000003E-01  -0.9106750013E-02  -0.9106750013E-02  -0.4100982972E-15   0.8568324523E-15  -0.2354921222E-14   0.9125000013E+01
   0.1018250000E+01   0.9908932500E+00   0.9908932500E+00   0.2250000000E-02  -0.1122750000E-02  -0.1122750000E-02   0.1600000000E-01  -0.7984000000E-02  -0.7984000000E-02   0.9125000012E+01   0.2454410720E-13   0.4579974641E-13  -0.2439319162E-16  -0.7472457304E-15  -0.1359144063E-13   0.1825000002E-01  -0.9106750012E-02  -0.9106750012E-02   0.3506053575E-15  -0.7240483564E-16   0.7486534443E-15   0.9125000012E+01
   0.0000000000E+00   0.9908932500E+00   0.9908932500E+00   0.0000000000E+00  -0.1122750000E-02  -0.1122750000E-02   0.0000000000E+00  -0.7984000000E-02  -0.7984000000E-02   0.9125000012E+01  -0.3992905512E-13  -0.1657196338E-13   0.3755783420E-15  -0.7045584143E-14  -0.1028855715E-13   0.1825000002E-01  -0.9106750012E-02  -0.9106750012E-02  -0.1721362450E-16   0.2558042452E-15   0.2720015345E-14   0.9125000012E+01
   0.2036500000E+01   0.0000000000E+00   0.4720847028E-14   0.4500000000E-02   0.0000000000E+00   0.6944710706E-17   0.3200000000E-01   0.0000000000E+00   0.4713902318E-14   0.9125000014E+01   0.6303507776E-13   0.4361315623E-13   0.2786992546E-14   0.1141390271E-13   0.1089432509E-13   0.1825000003E-01  -0.9106750014E-02  -0.9106750014E-02  -0.8775389742E-15   0.3356243914E-15  -0.2463276581E-14   0.9125000014E+01
   0.2036500000E+01   0.9908932500E+00   0.3489550718E-14   0.4500000000E-02  -0.1122750000E-02   0.5509148407E-17   0.3200000000E-01  -0.7984000000E-02   0.3484041570E-14   0.9125000013E+01  -0.6314893804E-13  -0.8065665024E-13  -0.8094599391E-15  -0.4081844615E-15  -0.8289173895E-14   0.1825000003E-01  -0.9106750013E-02  -0.9106750013E-02   0.6661426013E-15   0.1098363003E-14   0.6218536347E-15   0.9125000013E+01
   0.2036500000E+01   0.0000000000E+00   0.9908932500E+00   0.4500000000E-02   0.0000000000E+00  -0.1122750000E-02   0.3200000000E-01   0.0000000000E+00  -0.7984000000E-02   0.9125000013E+01  -0.3309143599E-13  -0.1041933763E-13  -0.5806209522E-16   0.2901740418E-14   0.1062168134E-13   0.1825000003E-01  -0.9106750013E-02  -0.9106750013E-02  -0.8549832695E-15  -0.1198975444E-14  -0.2075531698E-14   0.9125000013E+01
   0.2036500000E+01   0.9908932500E+00   0.9908932500E+00   0.4500000000E-02  -0.1122750000E-02  -0.1122750000E-02   0.3200000000E-01  -0.7984000000E-02  -0.7984000000E-02   0.9125000012E+01   0.9030712533E-13   0.1092552098E-12   0.2706977255E-14   0.6054594470E-14  -0.8208623717E-14   0.1825000002E-01  -0.9106750012E-02  -0.9106750012E-02   0.6753352301E-15  -0.3187063209E-15   0.9979138720E-15   0.9125000012E+01
     1     2     3     4     5     6     7     8
     2     9    10     3     6    11    12     7
 VARIABLES = X,Y,Z,DU1,DU2,DU3,U1,U2,U3,S11,S22,S33,S12,S13,S23,E11,E22,E33,E12,E13,E23,SMISES
 ZONE, T="0.4900D+01" F=FEPOINT, I=   12 J=    2 ET=BRICK
   0.0000000000E+00   0.0000000000E+00   0.0000000000E+00   0.0000000000E+00   0.0000000000E+00   0.0000000000E+00   0.0000000000E+00   0.0000000000E+00   0.0000000000E+00   0.1025000002E+02  -0.4168659842E-13  -0.4580583299E-13  -0.1445868080E-16  -0.2804429690E-13  -0.4795823613E-13   0.2550000004E-01  -0.1272950002E-01  -0.1272950002E-01  -0.5281346786E-19   0.2333426165E-14  -0.1629326729E-14   0.1025000002E+02
   0.1025500000E+01   0.0000000000E+00   0.1657834428E-14   0.7250000000E-02   0.0000000000E+00  -0.4092223299E-16   0.1825000000E-01   0.0000000000E+00   0.1698756661E-14   0.1025000002E+02   0.1565913923E-12   0.1985743898E-12  -0.2503018207E-13   0.3701495716E-14  -0.2233803014E-13   0.2550000004E-01  -0.1272950002E-01  -0.1272950002E-01  -0.6824411139E-15   0.1629965901E-14  -0.3087625380E-14   0.1025000002E+02
   0.1025500000E+01   0.9872705000E+00   0.1150296273E-15   0.7250000000E-02  -0.3622750000E-02  -0.2466116191E-15   0.1825000000E-01  -0.9106750000E-02   0.3616412465E-15   0.1025000001E+02  -0.1371252335E-13   0.7558915948E-13  -0.1297762284E-13   0.2456034672E-14  -0.3423957236E-15   0.2550000004E-01  -0.1272950002E-01  -0.1272950002E-01   0.2492733107E-15   0.6994074112E-15   0.5415661381E-15   0.1025000001E+02
   0.0000000000E+00   0.9872705000E+00  -0.8152468489E-15   0.0000000000E+00  -0.3622750000E-02  -0.4096197643E-15   0.0000000000E+00  -0.9106750000E-02  -0.4056270846E-15   0.1025000001E+02  -0.2640787987E-12  -0.2134005043E-12  -0.1929213097E-13   0.1039246871E-13  -0.2422014287E-13   0.2550000004E-01  -0.1272950002E-01  -0.1272950002E-01  -0.3124693848E-15   0.5628462340E-15   0.2020159954E-14   0.1025000001E+02
   0.0000000000E+00   0.0000000000E+00   0.9872705000E+00   0.0000000000E+00   0.0000000000E+00  -0.3622750000E-02   0.0000000000E+00   0.0000000000E+00  -0.9106750000E-02   0.1025000001E+02  -0.3446510022E-12  -0.3936764658E-12  -0.1068015330E-15  -0.4438334147E-14  -0.2141119369E-13   0.2550000004E-01  -0.1272950002E-01  -0.1272950002E-01   0.2700147426E-17   0.2700660384E-14  -0.8436437502E-15   0.1025000001E+02
   0.1025500000E+01   0.0000000000E+00   0.9872705000E+00   0.7250000000E-02   0.0000000000E+00  -0.3622750000E-02   0.1825000000E-01   0.0000000000E+00  -0.9106750000E-02   0.1025000001E+02  -0.2532970779E-13  -0.3052462428E-13  -0.2517276101E-13  -0.6351945936E-14   0.1748015163E-14   0.2550000004E-01  -0.1272950002E-01  -0.1272950002E-01  -0.7817167080E-15   0.7152232190E-15  -0.2392248836E-14   0.1025000001E+02
   0.1025500000E+01   0.9872705000E+00   0.9872705000E+00   0.7250000000E-02  -0.3622750000E-02  -0.3622750000E-02   0.1825000000E-01  -0.9106750000E-02  -0.9106750000E-02   0.1025000001E+02  -0.1426520797E-12  -0.9700164705E-13  -0.1393070513E-13  -0.7429617448E-14   0.2347598879E-13   0.2550000003E-01  -0.1272950002E-01  -0.1272950002E-01   0.1287260789E-15  -0.1780253794E-15   0.1236672102E-14   0.1025000001E+02
   0.0000000000E+00   0.9872705000E+00   0.9872705000E+00   0.0000000000E+00  -0.3622750000E-02  -0.3622750000E-02   0.0000000000E+00  -0.9106750000E-02  -0.9106750000E-02   0.1025000001E+02   0.2701147849E-12   0.2738143648E-12  -0.2170430495E-13   0.2995849361E-13   0.2798205742E-14   0.2550000003E-01  -0.1272950002E-01  -0.1272950002E-01  -0.3472795189E-15   0.7851875288E-15   0.2821730580E-14   0.1025000001E+02
   0.2051000000E+01   0.0000000000E+00   0.5276301875E-14   0.1450000000E-01   0.0000000000E+00   0.5554548468E-15   0.3650000000E-01   0.0000000000E+00   0.4720847028E-14   0.1025000002E+02   0.1786650135E-12   0.8371182225E-13  -0.5057096827E-13   0.3987137453E-13  -0.4872149368E-13   0.2550000004E-01  -0.1272950002E-01  -0.1272950002E-01  -0.1667205672E-14   0.7604869362E-15  -0.3255580433E-14   0.1025000002E+02
   0.2051000000E+01   0.9872705000E+00   0.3647923527E-14   0.1450000000E-01  -0.3622750000E-02   0.1583728089E-15   0.3650000000E-01  -0.9106750000E-02   0.3489550718E-14   0.1025000001E+02   0.6033961876E-12   0.5673265725E-12  -0.8364625017E-14  -0.6211246350E-14  -0.2439853134E-13   0.2550000004E-01  -0.1272950002E-01  -0.1272950002E-01   0.5218609580E-15   0.1005249765E-14   0.3384632947E-15   0.1025000001E+02
   0.2051000000E+01   0.0000000000E+00   0.9872705000E+00   0.1450000000E-01   0.0000000000E+00  -0.3622750000E-02   0.3650000000E-01   0.0000000000E+00  -0.9106750000E-02   0.1025000001E+02   0.3702997220E-12   0.2329502595E-12  -0.5181897323E-13  -0.1181987729E-13  -0.2165859359E-13   0.2550000004E-01  -0.1272950002E-01  -0.1272950002E-01  -0.1593779086E-14  -0.1383909495E-14  -0.2475303475E-14   0.1025000001E+02
   0.2051000000E+01   0.9872705000E+00   0.9872705000E+00   0.1450000000E-01  -0.3622750000E-02  -0.3622750000E-02   0.3650000000E-01  -0.9106750000E-02  -0.9106750000E-02   0.1025000001E+02   0.7306621503E-13  -0.1704185058E-13  -0.5586533201E-14  -0.4473011820E-13   0.2789347211E-14   0.2550000003E-01  -0.1272950002E-01  -0.1272950002E-01   0.5446745681E-15  -0.1037941208E-14   0.1119494162E-14   0.1025000001E+02
     1     2     3     4     5     6     7     8
     2     9    10     3     6    11    12     7
 VARIABLES = X,Y,Z,DU1,DU2,DU3,U1,U2,U3,S11,S22,S33,S12,S13,S23,E11,E22,E33,E12,E13,E23,SMISES
 ZONE, T="0.4950D+01" F=FEPOINT, I=   12 J=    2 ET=BRICK
   0.0000000000E+00   0.0000000000E+00   0.0000000000E+00   0.0000000000E+00   0.0000000000E+00   0.0000000000E+00   0.0000000000E+00   0.0000000000E+00   0.0000000000E+00   0.1137500002E+02  -0.2089709121E-11  -0.2272179016E-11  -0.1102279633E-15  -0.2094974031E-12  -0.1841339942E-12   0.5025000008E-01  -0.2510225004E-01  -0.2510225004E-01  -0.3942655524E-17  -0.2661597672E-14  -0.5389077605E-14   0.1137500002E+02
   0.1050250000E+01   0.0000000000E+00  -0.4694980897E-15   0.2475000000E-01   0.0000000000E+00  -0.2127332518E-14   0.2550000000E-01   0.0000000000E+00   0.1657834428E-14   0.1137500002E+02  -0.2720106224E-11  -0.2759027018E-11  -0.8335874611E-13  -0.7129189121E-13  -0.3825452796E-13   0.5025000008E-01  -0.2510225004E-01  -0.2510225004E-01  -0.2345475039E-14  -0.2848555378E-15  -0.3452810898E-14   0.1137500002E+02
   0.1050250000E+01   0.9748977500E+00  -0.2197120909E-14   0.2475000000E-01  -0.1237275000E-01  -0.2312150536E-14   0.2550000000E-01  -0.1272950000E-01   0.1150296273E-15   0.1137500002E+02  -0.2257927977E-12  -0.9317152576E-13  -0.6614334287E-13  -0.1068325614E-13  -0.4429852330E-13   0.5025000007E-01  -0.2510225004E-01  -0.2510225004E-01  -0.1217844262E-14   0.3191666671E-15  -0.5846294041E-15   0.1137500002E+02
   0.0000000000E+00   0.9748977500E+00  -0.2694744168E-14   0.0000000000E+00  -0.1237275000E-01  -0.1879497319E-14   0.0000000000E+00  -0.1272950000E-01  -0.8152468489E-15   0.1137500002E+02   0.2910714004E-11   0.2906622798E-11  -0.6111432341E-13  -0.2384267025E-13  -0.1917425037E-12   0.5025000007E-01  -0.2510225004E-01  -0.2510225004E-01  -0.1549075876E-14  -0.1767075825E-15  -0.2544767122E-14   0.1137500002E+02
   0.0000000000E+00   0.0000000000E+00   0.9748977500E+00   0.0000000000E+00   0.0000000000E+00  -0.1237275000E-01   0.0000000000E+00   0.0000000000E+00  -0.1272950000E-01   0.1137500002E+02   0.8579683020E-12   0.6935397392E-12   0.3434558196E-16  -0.1477199649E-12  -0.9578684598E-13   0.5025000007E-01  -0.2510225004E-01  -0.2510225004E-01   0.5398707610E-17  -0.1080299885E-14  -0.2833560310E-14   0.1137500002E+02
   0.1050250000E+01   0.0000000000E+00   0.9748977500E+00   0.2475000000E-01   0.0000000000E+00  -0.1237275000E-01   0.2550000000E-01   0.0000000000E+00  -0.1272950000E-01   0.1137500002E+02   0.2013016207E-11   0.1984877811E-11  -0.8888136032E-13  -0.8737115394E-13   0.4757921376E-13   0.5025000007E-01  -0.2510225004E-01  -0.2510225004E-01  -0.2584597956E-14  -0.1392532463E-14  -0.1030887071E-14   0.1137500002E+02
   0.1050250000E+01   0.9748977500E+00   0.9748977500E+00   0.2475000000E-01  -0.1237275000E-01  -0.1237275000E-01   0.2550000000E-01  -0.1272950000E-01  -0.1272950000E-01   0.1137500001E+02  -0.6412178572E-12  -0.4965950793E-12  -0.7169746069E-13  -0.2785430571E-13   0.4128024586E-13   0.5025000007E-01  -0.2510225003E-01  -0.2510225003E-01  -0.1478850494E-14  -0.7480051462E-15   0.1862826540E-14   0.1137500001E+02
   0.0000000000E+00   0.9748977500E+00   0.9748977500E+00   0.0000000000E+00  -0.1237275000E-01  -0.1237275000E-01   0.0000000000E+00  -0.1272950000E-01  -0.1272950000E-01   0.1137500002E+02  -0.1114089076E-11  -0.1103900683E-11  -0.5892569731E-13   0.3467946391E-13  -0.1034736217E-12   0.5025000007E-01  -0.2510225003E-01  -0.2510225003E-01  -0.1497229834E-14   0.1210705741E-14  -0.8142874656E-17   0.1137500002E+02
   0.2100500000E+01   0.0000000000E+00   0.2493328652E-14   0.4950000000E-01   0.0000000000E+00  -0.2782973223E-14   0.5100000000E-01   0.0000000000E+00   0.5276301875E-14   0.1137500002E+02  -0.7387884798E-12  -0.1058949005E-11  -0.1683320162E-12   0.7055323946E-13  -0.5200579338E-13   0.5025000008E-01  -0.2510225004E-01  -0.2510225004E-01  -0.5028531845E-14   0.1882044867E-14  -0.3653069889E-14   0.1137500002E+02
   0.2100500000E+01   0.9748977500E+00   0.6648896536E-15   0.4950000000E-01  -0.1237275000E-01  -0.2983033873E-14   0.5100000000E-01  -0.1272950000E-01   0.3647923527E-14   0.1137500002E+02   0.1099934710E-11   0.9589082526E-12  -0.7215149633E-13   0.9587925132E-15  -0.5970239828E-13   0.5025000007E-01  -0.2510225004E-01  -0.2510225004E-01  -0.1182051414E-14   0.1058604531E-14  -0.8829917888E-15   0.1137500002E+02
   0.2100500000E+01   0.0000000000E+00   0.9748977500E+00   0.4950000000E-01   0.0000000000E+00  -0.1237275000E-01   0.5100000000E-01   0.0000000000E+00  -0.1272950000E-01   0.1137500002E+02   0.3934217325E-12   0.9121329409E-13  -0.1788292925E-12  -0.3185330985E-13   0.3631709376E-13   0.5025000007E-01  -0.2510225004E-01  -0.2510225004E-01  -0.5189008223E-14  -0.1932178780E-14  -0.1110061838E-14   0.1137500002E+02
   0.2100500000E+01   0.9748977500E+00   0.9748977500E+00   0.4950000000E-01  -0.1237275000E-01  -0.1237275000E-01   0.5100000000E-01  -0.1272950000E-01  -0.1272950000E-01   0.1137500001E+02  -0.1092469555E-11  -0.1220881749E-11  -0.8525420047E-13  -0.8566093402E-13   0.2908721796E-13   0.5025000006E-01  -0.2510225003E-01  -0.2510225003E-01  -0.1526825108E-14  -0.2560722663E-14   0.1666876345E-14   0.1137500001E+02
     1     2     3     4     5     6     7     8
     2     9    10     3     6    11    12     7
 VARIABLES = X,Y,Z,DU1,DU2,DU3,U1,U2,U3,S11,S22,S33,S12,S13,S23,E11,E22,E33,E12,E13,E23,SMISES
 ZONE, T="0.5000D+01" F=FEPOINT, I=   12 J=    2 ET=BRICK
   0.0000000000E+00   0.0000000000E+00   0.0000000000E+00   0.0000000000E+00   0.0000000000E+00   0.0000000000E+00   0.0000000000E+00   0.0000000000E+00   0.0000000000E+00   0.1250000002E+02  -0.1259701720E-11  -0.1277427777E-11  -0.4762162556E-16  -0.4993259998E-14   0.9933801857E-14   0.7500000012E-01  -0.3747500006E-01  -0.3747500006E-01   0.3112902656E-17  -0.2594051912E-15  -0.2604696684E-14   0.1250000002E+02
   0.1075000000E+01   0.0000000000E+00   0.3611416507E-15   0.2475000000E-01   0.0000000000E+00   0.8306397404E-15   0.5025000000E-01   0.0000000000E+00  -0.4694980897E-15   0.1250000002E+02   0.3921412308E-12   0.3740871603E-12  -0.8073497177E-15  -0.2755658928E-14   0.1139028171E-13   0.7500000012E-01  -0.3747500006E-01  -0.3747500006E-01  -0.1251310206E-14   0.4672718169E-15  -0.2431825356E-14   0.1250000002E+02
   0.1075000000E+01   0.9625250000E+00  -0.8480248809E-15   0.2475000000E-01  -0.1237275000E-01   0.1349096028E-14   0.5025000000E-01  -0.2510225000E-01  -0.2197120909E-14   0.1250000002E+02  -0.4786415408E-12  -0.5019768552E-12  -0.1597876346E-14   0.1679508298E-14  -0.8149375382E-14   0.7500000011E-01  -0.3747500005E-01  -0.3747500005E-01  -0.4195509940E-15   0.4594015212E-15  -0.2219751615E-15   0.1250000002E+02
   0.0000000000E+00   0.9625250000E+00  -0.1308138041E-14   0.0000000000E+00  -0.1237275000E-01   0.1386606127E-14   0.0000000000E+00  -0.2510225000E-01  -0.2694744168E-14   0.1250000002E+02   0.4524705384E-12   0.4324608391E-12   0.2142113596E-14  -0.3141436734E-14  -0.7098304107E-14   0.7500000011E-01  -0.3747500005E-01  -0.3747500005E-01  -0.6931401794E-15   0.6544877937E-17  -0.3934046016E-15   0.1250000002E+02
   0.0000000000E+00   0.0000000000E+00   0.9625250000E+00   0.0000000000E+00   0.0000000000E+00  -0.1237275000E-01   0.0000000000E+00   0.0000000000E+00  -0.2510225000E-01   0.1250000002E+02  -0.1451735731E-12  -0.1268371794E-12  -0.4302379155E-16  -0.4739614722E-14   0.8757270370E-14   0.7500000011E-01  -0.3747500005E-01  -0.3747500005E-01   0.2426824620E-17   0.5018244939E-15  -0.1323880565E-14   0.1250000002E+02
   0.1075000000E+01   0.0000000000E+00   0.9625250000E+00   0.2475000000E-01   0.0000000000E+00  -0.1237275000E-01   0.5025000000E-01   0.0000000000E+00  -0.2510225000E-01   0.1250000002E+02   0.1919117305E-13   0.4110711065E-13   0.4104485937E-14  -0.6580135236E-15   0.8159180039E-14   0.7500000011E-01  -0.3747500005E-01  -0.3747500005E-01  -0.1272964321E-14  -0.3329706741E-15  -0.1218970603E-14   0.1250000002E+02
   0.1075000000E+01   0.9625250000E+00   0.9625250000E+00   0.2475000000E-01  -0.1237275000E-01  -0.1237275000E-01   0.5025000000E-01  -0.2510225000E-01  -0.2510225000E-01   0.1250000002E+02  -0.3649570057E-12  -0.3514744905E-12   0.3323978171E-14   0.2051091327E-14  -0.1153994135E-13   0.7500000010E-01  -0.3747500005E-01  -0.3747500005E-01  -0.4861115972E-15  -0.3266493796E-15   0.9165156454E-15   0.1250000002E+02
   0.0000000000E+00   0.9625250000E+00   0.9625250000E+00   0.0000000000E+00  -0.1237275000E-01  -0.1237275000E-01   0.0000000000E+00  -0.2510225000E-01  -0.2510225000E-01   0.1250000002E+02   0.8899455187E-12   0.9067297359E-12  -0.8468055578E-15  -0.4564040456E-14  -0.9069010089E-14   0.7500000010E-01  -0.3747500005E-01  -0.3747500005E-01  -0.7333146739E-15   0.5946341759E-15   0.8827049293E-15   0.1250000002E+02
   0.2150000000E+01   0.0000000000E+00   0.2683634090E-14   0.4950000000E-01   0.0000000000E+00   0.1903054379E-15   0.1005000000E+00   0.0000000000E+00   0.2493328652E-14   0.1250000002E+02   0.9051499970E-12   0.8936905782E-12   0.2054899082E-14   0.6088452910E-14   0.9345738758E-14   0.7500000011E-01  -0.3747500006E-01  -0.3747500006E-01  -0.2651267124E-14   0.1049522014E-14  -0.2504035035E-14   0.1250000002E+02
   0.2150000000E+01   0.9625250000E+00   0.1433266928E-14   0.4950000000E-01  -0.1237275000E-01   0.7683772739E-15   0.1005000000E+00  -0.2510225000E-01   0.6648896536E-15   0.1250000002E+02  -0.6986866485E-12  -0.7140711307E-12  -0.1536558853E-14   0.2652903204E-14  -0.7541379341E-14   0.7500000010E-01  -0.3747500005E-01  -0.3747500005E-01  -0.3377042983E-15   0.9068218793E-15  -0.3292123662E-15   0.1250000002E+02
   0.2150000000E+01   0.0000000000E+00   0.9625250000E+00   0.4950000000E-01   0.0000000000E+00  -0.1237275000E-01   0.1005000000E+00   0.0000000000E+00  -0.2510225000E-01   0.1250000002E+02  -0.2644497751E-12  -0.2410005205E-12   0.7032467928E-14   0.1051028260E-14   0.5989176370E-14   0.7500000010E-01  -0.3747500005E-01  -0.3747500005E-01  -0.2596983290E-14  -0.1316316793E-14  -0.1220557383E-14   0.1250000002E+02
   0.2150000000E+01   0.9625250000E+00   0.9625250000E+00   0.4950000000E-01  -0.1237275000E-01  -0.1237275000E-01   0.1005000000E+00  -0.2510225000E-01  -0.2510225000E-01   0.1250000002E+02  -0.2087338499E-12  -0.1916303717E-12   0.6286122127E-14   0.8866122379E-14  -0.1047894927E-13   0.7500000010E-01  -0.3747500005E-01  -0.3747500005E-01  -0.2751547679E-15  -0.1268760717E-14   0.9353116446E-15   0.1250000002E+02
     1     2     3     4     5     6     7     8
     2     9    10     3     6    11    12     7
 VARIABLES = X,Y,Z,DU1,DU2,DU3,U1,U2,U3,S11,S22,S33,S12,S13,S23,E11,E22,E33,E12,E13,E23,SMISES
 ZONE, T="0.5050D+01" F=FEPOINT, I=   12 J=    2 ET=BRICK
   0.0000000000E+00   0.0000000000E+00   0.0000000000E+00   0.0000000000E+00   0.0000000000E+00   0.0000000000E+00   0.0000000000E+00   0.0000000000E+00   0.0000000000E+00   0.1137500002E+02  -0.1850624378E-11  -0.2244346218E-11  -0.4327676053E-16  -0.3871033223E-12  -0.9802517447E-13   0.7275000011E-01  -0.3635225006E-01  -0.3635225006E-01   0.1600829865E-17  -0.4822214278E-14  -0.3924277660E-14   0.1137500002E+02
   0.1072750000E+01   0.0000000000E+00  -0.2000922956E-14  -0.2250000000E-02   0.0000000000E+00  -0.2362064607E-14   0.7500000000E-01   0.0000000000E+00   0.3611416507E-15   0.1137500002E+02  -0.4536812479E-12  -0.5702151223E-12  -0.9453342630E-13  -0.2559676325E-12   0.1215141413E-12   0.7275000011E-01  -0.3635225006E-01  -0.3635225006E-01  -0.2391026062E-14  -0.2651942140E-14  -0.1102808472E-14   0.1137500002E+02
   0.1072750000E+01   0.9636477500E+00  -0.2549759258E-14  -0.2250000000E-02   0.1122750000E-02  -0.1701734377E-14   0.7500000000E-01  -0.3747500000E-01  -0.8480248809E-15   0.1137500002E+02   0.7361876050E-12   0.8020398248E-12  -0.8752535974E-13  -0.1532895965E-12  -0.6381211923E-13   0.7275000010E-01  -0.3635225005E-01  -0.3635225005E-01  -0.1457611714E-14  -0.1355474454E-14  -0.8728286996E-15   0.1137500002E+02
   0.0000000000E+00   0.9636477500E+00  -0.1955448179E-14   0.0000000000E+00   0.1122750000E-02  -0.6473101381E-15   0.0000000000E+00  -0.3747500000E-01  -0.1308138041E-14   0.1137500002E+02  -0.2147570071E-12  -0.4192800424E-12  -0.9943081122E-13  -0.1081325951E-12  -0.2758944051E-12   0.7275000011E-01  -0.3635225005E-01  -0.3635225005E-01  -0.1918861646E-14  -0.1266014455E-14  -0.3620977479E-14   0.1137500002E+02
   0.0000000000E+00   0.0000000000E+00   0.9636477500E+00   0.0000000000E+00   0.0000000000E+00   0.1122750000E-02   0.0000000000E+00   0.0000000000E+00  -0.3747500000E-01   0.1137500002E+02  -0.1593367925E-12  -0.1953719431E-12  -0.4530716750E-16  -0.2765816036E-12  -0.3359057691E-14   0.7275000011E-01  -0.3635225005E-01  -0.3635225005E-01   0.2953612590E-17  -0.2739114959E-14  -0.1434995535E-14   0.1137500002E+02
   0.1072750000E+01   0.0000000000E+00   0.9636477500E+00  -0.2250000000E-02   0.0000000000E+00   0.1122750000E-02   0.7500000000E-01   0.0000000000E+00  -0.3747500000E-01   0.1137500002E+02  -0.4563485806E-12  -0.2019328735E-12  -0.9138993379E-13  -0.2534863624E-12   0.2121013625E-12   0.7275000010E-01  -0.3635225005E-01  -0.3635225005E-01  -0.2410118975E-14  -0.3369904096E-14   0.1201620421E-14   0.1137500002E+02
   0.1072750000E+01   0.9636477500E+00   0.9636477500E+00  -0.2250000000E-02   0.1122750000E-02   0.1122750000E-02   0.7500000000E-01  -0.3747500000E-01  -0.3747500000E-01   0.1137500001E+02  -0.7826653969E-12  -0.3481058186E-12  -0.8797807366E-13  -0.1556076710E-12   0.2671478862E-13   0.7275000010E-01  -0.3635225005E-01  -0.3635225005E-01  -0.1597923969E-14  -0.2222269994E-14   0.1372115641E-14   0.1137500001E+02
   0.0000000000E+00   0.9636477500E+00   0.9636477500E+00   0.0000000000E+00   0.1122750000E-02   0.1122750000E-02   0.0000000000E+00  -0.3747500000E-01  -0.3747500000E-01   0.1137500002E+02   0.6622211739E-12   0.8160836279E-12  -0.1079528144E-12  -0.6727287796E-15  -0.1821297662E-12   0.7275000010E-01  -0.3635225005E-01  -0.3635225005E-01  -0.2007112469E-14   0.6359959124E-15  -0.1142161781E-14   0.1137500002E+02
   0.2145500000E+01   0.0000000000E+00  -0.2325018060E-14  -0.4500000000E-02   0.0000000000E+00  -0.5008652149E-14   0.1500000000E+00   0.0000000000E+00   0.2683634090E-14   0.1137500002E+02  -0.2289066009E-12  -0.6463502759E-12  -0.1772550639E-12  -0.1126564366E-12   0.1017138052E-12   0.7275000011E-01  -0.3635225005E-01  -0.3635225005E-01  -0.4786464363E-14  -0.3265064270E-15  -0.1384526371E-14   0.1137500002E+02
   0.2145500000E+01   0.9636477500E+00  -0.3021624808E-14  -0.4500000000E-02   0.1122750000E-02  -0.4454891735E-14   0.1500000000E+00  -0.3747500000E-01   0.1433266928E-14   0.1137500002E+02   0.1067724055E-11   0.8253661197E-12  -0.6367140209E-13  -0.2008295456E-12  -0.8326774651E-13   0.7275000010E-01  -0.3635225005E-01  -0.3635225005E-01  -0.1052156269E-14  -0.1487507859E-14  -0.1242590087E-14   0.1137500002E+02
   0.2145500000E+01   0.0000000000E+00   0.9636477500E+00  -0.4500000000E-02   0.0000000000E+00   0.1122750000E-02   0.1500000000E+00   0.0000000000E+00  -0.3747500000E-01   0.1137500002E+02   0.1260323300E-12   0.8032307783E-13  -0.1804895631E-12  -0.2272673995E-12   0.1876711594E-12   0.7275000010E-01  -0.3635225005E-01  -0.3635225005E-01  -0.4883051807E-14  -0.4159547307E-14   0.9420318299E-15   0.1137500002E+02
   0.2145500000E+01   0.9636477500E+00   0.9636477500E+00  -0.4500000000E-02   0.1122750000E-02   0.1122750000E-02   0.1500000000E+00  -0.3747500000E-01  -0.3747500000E-01   0.1137500001E+02  -0.7884762841E-12  -0.6619754874E-12  -0.6578194912E-13  -0.3094089134E-12   0.3085389400E-14   0.7275000009E-01  -0.3635225005E-01  -0.3635225005E-01  -0.1168412717E-14  -0.5053403031E-14   0.1086308062E-14   0.1137500001E+02
     1     2     3     4     5     6     7     8
     2     9    10     3     6    11    12     7
 VARIABLES = X,Y,Z,DU1,DU2,DU3,U1,U2,U3,S11,S22,S33,S12,S13,S23,E11,E22,E33,E12,E13,E23,SMISES
 ZONE, T="0.5100D+01" F=FEPOINT, I=   12 J=    2 ET=BRICK
   0.0000000000E+00   0.0000000000E+00   0.0000000000E+00   0.0000000000E+00   0.0000000000E+00   0.0000000000E+00   0.0000000000E+00   0.0000000000E+00   0.0000000000E+00   0.1025000002E+02  -0.1443329907E-12  -0.1605424553E-12  -0.1349842208E-16  -0.3600381291E-14   0.1033324867E-13   0.7050000011E-01  -0.3522950006E-01  -0.3522950006E-01  -0.2201586489E-17  -0.2554532794E-15  -0.2590620992E-14   0.1025000002E+02
   0.1070500000E+01   0.0000000000E+00   0.3696991097E-15  -0.2250000000E-02   0.0000000000E+00   0.2370622066E-14   0.7275000000E-01   0.0000000000E+00  -0.2000922956E-14   0.1025000002E+02  -0.5298915201E-13  -0.6980817111E-13  -0.1654368361E-14  -0.2411850695E-14   0.1005439970E-13   0.7050000011E-01  -0.3522950005E-01  -0.3522950005E-01  -0.1234179406E-14   0.4865037397E-15  -0.2444813660E-14   0.1025000002E+02
   0.1070500000E+01   0.9647705000E+00  -0.8475728830E-15  -0.2250000000E-02   0.1122750000E-02   0.1702186375E-14   0.7275000000E-01  -0.3635225000E-01  -0.2549759258E-14   0.1025000001E+02   0.5868029918E-14  -0.1528455808E-13  -0.2718690311E-14   0.1101175562E-14  -0.7880798519E-14   0.7050000010E-01  -0.3522950005E-01  -0.3522950005E-01  -0.4193198900E-15   0.4301780038E-15  -0.2193899935E-15   0.1025000001E+02
   0.0000000000E+00   0.9647705000E+00  -0.1305671307E-14   0.0000000000E+00   0.1122750000E-02   0.6497768718E-15   0.0000000000E+00  -0.3635225000E-01  -0.1955448179E-14   0.1025000001E+02   0.2555587518E-13   0.4923596794E-14   0.1524990278E-14  -0.4082907268E-14  -0.6645491362E-14   0.7050000010E-01  -0.3522950005E-01  -0.3522950005E-01  -0.7036915132E-15   0.6448951098E-17  -0.4273027378E-15   0.1025000001E+02
   0.0000000000E+00   0.0000000000E+00   0.9647705000E+00   0.0000000000E+00   0.0000000000E+00   0.1122750000E-02   0.0000000000E+00   0.0000000000E+00  -0.3635225000E-01   0.1025000001E+02   0.1041545097E-12   0.1239936898E-12  -0.5763607802E-16  -0.4788653565E-14   0.8088955026E-14   0.7050000010E-01  -0.3522950005E-01  -0.3522950005E-01   0.6038415398E-17   0.5120779854E-15  -0.1359555995E-14   0.1025000001E+02
   0.1070500000E+01   0.0000000000E+00   0.9647705000E+00  -0.2250000000E-02   0.0000000000E+00   0.1122750000E-02   0.7275000000E-01   0.0000000000E+00  -0.3635225000E-01   0.1025000001E+02   0.5417382357E-13   0.7291580521E-13   0.3099989561E-14  -0.5981755227E-15   0.7724750115E-14   0.7050000010E-01  -0.3522950005E-01  -0.3522950005E-01  -0.1287896543E-14  -0.3152842939E-15  -0.1236105383E-14   0.1025000001E+02
   0.1070500000E+01   0.9647705000E+00   0.9647705000E+00  -0.2250000000E-02   0.1122750000E-02   0.1122750000E-02   0.7275000000E-01  -0.3635225000E-01  -0.3635225000E-01   0.1025000001E+02   0.5052011766E-14   0.1812815707E-13   0.2970893242E-14   0.1961075408E-14  -0.1016976573E-13   0.7050000009E-01  -0.3522950005E-01  -0.3522950005E-01  -0.4710566662E-15  -0.3315397498E-15   0.9755955498E-15   0.1025000001E+02
   0.0000000000E+00   0.9647705000E+00   0.9647705000E+00   0.0000000000E+00   0.1122750000E-02   0.1122750000E-02   0.0000000000E+00  -0.3635225000E-01  -0.3635225000E-01   0.1025000001E+02  -0.1057030101E-12  -0.9004282203E-13   0.6321094918E-15  -0.4059991885E-14  -0.9822413788E-14   0.7050000009E-01  -0.3522950005E-01  -0.3522950005E-01  -0.7203555309E-15   0.5889640968E-15   0.9654194657E-15   0.1025000001E+02
   0.2141000000E+01   0.0000000000E+00   0.2699809266E-14  -0.4500000000E-02   0.0000000000E+00   0.5024827326E-14   0.1455000000E+00   0.0000000000E+00  -0.2325018060E-14   0.1025000002E+02   0.1171315406E-12   0.1071887145E-12   0.3963799522E-14   0.5637288562E-14   0.9067424017E-14   0.7050000011E-01  -0.3522950005E-01  -0.3522950005E-01  -0.2656382049E-14   0.9618358732E-15  -0.2501482828E-14   0.1025000002E+02
   0.2141000000E+01   0.9647705000E+00   0.1447655593E-14  -0.4500000000E-02   0.1122750000E-02   0.4469280401E-14   0.1455000000E+00  -0.3635225000E-01  -0.3021624808E-14   0.1025000001E+02   0.7548451454E-13   0.6129736451E-13   0.5679731678E-15   0.2054145137E-14  -0.6053985599E-14   0.7050000010E-01  -0.3522950005E-01  -0.3522950005E-01  -0.3226871796E-15   0.1043297728E-14  -0.3079963248E-15   0.1025000001E+02
   0.2141000000E+01   0.0000000000E+00   0.9647705000E+00  -0.4500000000E-02   0.0000000000E+00   0.1122750000E-02   0.1455000000E+00   0.0000000000E+00  -0.3635225000E-01   0.1025000001E+02  -0.3972927591E-13  -0.1726327998E-13   0.6503521232E-14   0.2109748774E-14   0.5157482806E-14   0.7050000010E-01  -0.3522950005E-01  -0.3522950005E-01  -0.2639791433E-14  -0.1357717463E-14  -0.1266630889E-14   0.1025000001E+02
   0.2141000000E+01   0.9647705000E+00   0.9647705000E+00  -0.4500000000E-02   0.1122750000E-02   0.1122750000E-02   0.1455000000E+00  -0.3635225000E-01  -0.3635225000E-01   0.1025000001E+02   0.8933476040E-13   0.1046480757E-12   0.5335548829E-14   0.6837066987E-14  -0.9616914784E-14   0.7050000009E-01  -0.3522950005E-01  -0.3522950005E-01  -0.3457514360E-15  -0.1413202731E-14   0.9640155542E-15   0.1025000001E+02
     1     2     3     4     5     6     7     8
     2     9    10     3     6    11    12     7
 VARIABLES = X,Y,Z,DU1,DU2,DU3,U1,U2,U3,S11,S22,S33,S12,S13,S23,E11,E22,E33,E12,E13,E23,SMISES
 ZONE, T="0.5150D+01" F=FEPOINT, I=   12 J=    2 ET=BRICK
   0.0000000000E+00   0.0000000000E+00   0.0000000000E+00   0.0000000000E+00   0.0000000000E+00   0.0000000000E+00   0.0000000000E+00   0.0000000000E+00   0.0000000000E+00   0.9125000014E+01  -0.3582290046E-13  -0.5200951980E-13  -0.8076590798E-17  -0.3727987132E-14   0.1019222276E-13   0.6825000011E-01  -0.3410675005E-01  -0.3410675005E-01   0.2190382343E-17  -0.2322637132E-15  -0.2610669179E-14   0.9125000014E+01
   0.1068250000E+01   0.0000000000E+00   0.3694076166E-15  -0.2250000000E-02   0.0000000000E+00  -0.2914930908E-18   0.7050000000E-01   0.0000000000E+00   0.3696991097E-15   0.9125000014E+01  -0.2990050873E-14  -0.2016391415E-13  -0.2089687252E-14  -0.2369114607E-14   0.9988354384E-14   0.6825000011E-01  -0.3410675005E-01  -0.3410675005E-01  -0.1254093278E-14   0.4579735265E-15  -0.2431639768E-14   0.9125000014E+01
   0.1068250000E+01   0.9658932500E+00  -0.8482844672E-15  -0.2250000000E-02   0.1122750000E-02  -0.7115841762E-18   0.7050000000E-01  -0.3522950000E-01  -0.8475728830E-15   0.9125000013E+01  -0.9825185721E-14  -0.3017884037E-13  -0.3127669125E-14   0.1075069220E-14  -0.8133302731E-14   0.6825000010E-01  -0.3410675005E-01  -0.3410675005E-01  -0.4330411560E-15   0.4233339786E-15  -0.2685055680E-15   0.9125000013E+01
   0.0000000000E+00   0.9658932500E+00  -0.1306421647E-14   0.0000000000E+00   0.1122750000E-02  -0.7503398241E-18   0.0000000000E+00  -0.3522950000E-01  -0.1305671307E-14   0.9125000013E+01   0.1665240919E-13  -0.3802447016E-14   0.1569272858E-14  -0.3960802907E-14  -0.6859793773E-14   0.6825000010E-01  -0.3410675005E-01  -0.3410675005E-01  -0.6922469292E-15   0.6864718949E-17  -0.3806991011E-15   0.9125000013E+01
   0.0000000000E+00   0.0000000000E+00   0.9658932500E+00   0.0000000000E+00   0.0000000000E+00   0.1122750000E-02   0.0000000000E+00   0.0000000000E+00  -0.3522950000E-01   0.9125000013E+01  -0.3143275232E-13  -0.1185226826E-13  -0.4415509338E-16  -0.4774418511E-14   0.8401347258E-14   0.6825000010E-01  -0.3410675005E-01  -0.3410675005E-01  -0.4637133546E-17   0.5135501346E-15  -0.1327701771E-14   0.9125000013E+01
   0.1068250000E+01   0.0000000000E+00   0.9658932500E+00  -0.2250000000E-02   0.0000000000E+00   0.1122750000E-02   0.7050000000E-01   0.0000000000E+00  -0.3522950000E-01   0.9125000013E+01  -0.9179265208E-14   0.8926331043E-14   0.2927323359E-14  -0.8922476854E-15   0.8082764695E-14   0.6825000010E-01  -0.3410675005E-01  -0.3410675005E-01  -0.1300503961E-14  -0.3111509059E-15  -0.1227396382E-14   0.9125000013E+01
   0.1068250000E+01   0.9658932500E+00   0.9658932500E+00  -0.2250000000E-02   0.1122750000E-02   0.1122750000E-02   0.7050000000E-01  -0.3522950000E-01  -0.3522950000E-01   0.9125000012E+01   0.3763327737E-13   0.5189294853E-13   0.2990221031E-14   0.2076988742E-14  -0.1005834641E-13   0.6825000009E-01  -0.3410675004E-01  -0.3410675004E-01  -0.5307946242E-15  -0.3601581972E-15   0.9639299730E-15   0.9125000012E+01
   0.0000000000E+00   0.9658932500E+00   0.9658932500E+00   0.0000000000E+00   0.1122750000E-02   0.1122750000E-02   0.0000000000E+00  -0.3522950000E-01  -0.3522950000E-01   0.9125000012E+01   0.4767040077E-13   0.6489180407E-13   0.3593009060E-15  -0.3988590587E-14  -0.9596097430E-14   0.6825000009E-01  -0.3410675005E-01  -0.3410675005E-01  -0.7273850738E-15   0.6083220888E-15   0.9208515999E-15   0.9125000012E+01
   0.2136500000E+01   0.0000000000E+00   0.2699909365E-14  -0.4500000000E-02   0.0000000000E+00   0.1000993313E-18   0.1410000000E+00   0.0000000000E+00   0.2699809266E-14   0.9125000014E+01   0.1340295756E-13   0.1958412909E-14   0.3068734766E-14   0.5729177389E-14   0.8797988658E-14   0.6825000010E-01  -0.3410675005E-01  -0.3410675005E-01  -0.2648289542E-14   0.9457992882E-15  -0.2510394399E-14   0.9125000014E+01
   0.2136500000E+01   0.9658932500E+00   0.1446243970E-14  -0.4500000000E-02   0.1122750000E-02  -0.1411622390E-17   0.1410000000E+00  -0.3522950000E-01   0.1447655593E-14   0.9125000013E+01  -0.4270278944E-13  -0.5757094741E-13  -0.1690020565E-15   0.2546756969E-14  -0.6288969532E-14   0.6825000010E-01  -0.3410675005E-01  -0.3410675005E-01  -0.3313542488E-15   0.9211868073E-15  -0.3029053540E-15   0.9125000013E+01
   0.2136500000E+01   0.0000000000E+00   0.9658932500E+00  -0.4500000000E-02   0.0000000000E+00   0.1122750000E-02   0.1410000000E+00   0.0000000000E+00  -0.3522950000E-01   0.9125000013E+01   0.3331956173E-13   0.5533456529E-13   0.5967658499E-14   0.1961206865E-14   0.5332022439E-14   0.6825000010E-01  -0.3410675005E-01  -0.3410675005E-01  -0.2710629994E-14  -0.1292233878E-14  -0.1242992290E-14   0.9125000013E+01
   0.2136500000E+01   0.9658932500E+00   0.9658932500E+00  -0.4500000000E-02   0.1122750000E-02   0.1122750000E-02   0.1410000000E+00  -0.3522950000E-01  -0.3522950000E-01   0.9125000012E+01   0.6711154496E-13   0.8246151167E-13   0.5156180569E-14   0.6753679593E-14  -0.9491896283E-14   0.6825000009E-01  -0.3410675004E-01  -0.3410675004E-01  -0.3541284950E-15  -0.1293406433E-14   0.9703970678E-15   0.9125000012E+01
     1     2     3     4     5     6     7     8
     2     9    10     3     6    11    12     7
 VARIABLES = X,Y,Z,DU1,DU2,DU3,U1,U2,U3,S11,S22,S33,S12,S13,S23,E11,E22,E33,E12,E13,E23,SMISES
 ZONE, T="0.5200D+01" F=FEPOINT, I=   12 J=    2 ET=BRICK
   0.0000000000E+00   0.0000000000E+00   0.0000000000E+00   0.0000000000E+00   0.0000000000E+00   0.0000000000E+00   0.0000000000E+00   0.0000000000E+00   0.0000000000E+00   0.8000000013E+01  -0.1616418159E-12  -0.1778284352E-12  -0.1626260266E-17  -0.3838970514E-14   0.1047113625E-13   0.6600000010E-01  -0.3298400005E-01  -0.3298400005E-01   0.1108664521E-17  -0.2282670228E-15  -0.2612684386E-14   0.8000000013E+01
   0.1066000000E+01   0.0000000000E+00   0.3679335781E-15  -0.2250000000E-02   0.0000000000E+00  -0.1474038480E-17   0.6825000000E-01   0.0000000000E+00   0.3694076166E-15   0.8000000012E+01  -0.1054449747E-12  -0.1226188380E-12  -0.1611836885E-14  -0.2190968251E-14   0.1027160311E-13   0.6600000010E-01  -0.3298400005E-01  -0.3298400005E-01  -0.1268791405E-14   0.4152930715E-15  -0.2436843824E-14   0.8000000012E+01
   0.1066000000E+01   0.9670160000E+00  -0.8479571313E-15  -0.2250000000E-02   0.1122750000E-02   0.3273358663E-18   0.6825000000E-01  -0.3410675000E-01  -0.8482844672E-15   0.8000000011E+01   0.6356836300E-13   0.4244552333E-13  -0.2683002653E-14   0.8487326860E-15  -0.8181088934E-14   0.6600000009E-01  -0.3298400005E-01  -0.3298400005E-01  -0.4411496400E-15   0.5010975451E-15  -0.2441629313E-15   0.8000000011E+01
   0.0000000000E+00   0.9670160000E+00  -0.1304722956E-14   0.0000000000E+00   0.1122750000E-02   0.1698690782E-17   0.0000000000E+00  -0.3410675000E-01  -0.1306421647E-14   0.8000000012E+01   0.9244298643E-13   0.7121894520E-13   0.1579743400E-14  -0.4114986763E-14  -0.6956491835E-14   0.6600000010E-01  -0.3298400005E-01  -0.3298400005E-01  -0.7102688043E-15  -0.3032650295E-16  -0.3818731149E-15   0.8000000012E+01
   0.0000000000E+00   0.0000000000E+00   0.9670160000E+00   0.0000000000E+00   0.0000000000E+00   0.1122750000E-02   0.0000000000E+00   0.0000000000E+00  -0.3410675000E-01   0.8000000012E+01   0.7467024650E-13   0.9501991558E-13  -0.3682879173E-16  -0.4878582360E-14   0.8432477166E-14   0.6600000010E-01  -0.3298400005E-01  -0.3298400005E-01  -0.4526941878E-17   0.5099664133E-15  -0.1300188299E-14   0.8000000012E+01
   0.1066000000E+01   0.0000000000E+00   0.9670160000E+00  -0.2250000000E-02   0.0000000000E+00   0.1122750000E-02   0.6825000000E-01   0.0000000000E+00  -0.3410675000E-01   0.8000000011E+01   0.1281882635E-14   0.2015666390E-13   0.2879325841E-14  -0.5860034439E-15   0.8104782983E-14   0.6600000009E-01  -0.3298400005E-01  -0.3298400005E-01  -0.1289347517E-14  -0.3192248553E-15  -0.1233352151E-14   0.8000000011E+01
   0.1066000000E+01   0.9670160000E+00   0.9670160000E+00  -0.2250000000E-02   0.1122750000E-02   0.1122750000E-02   0.6825000000E-01  -0.3410675000E-01  -0.3410675000E-01   0.8000000010E+01   0.8115573832E-14   0.2237524499E-13   0.2807911012E-14   0.1773832171E-14  -0.1044170990E-13   0.6600000009E-01  -0.3298400004E-01  -0.3298400004E-01  -0.5091111627E-15  -0.3048844954E-15   0.9565550303E-15   0.8000000010E+01
   0.0000000000E+00   0.9670160000E+00   0.9670160000E+00   0.0000000000E+00   0.1122750000E-02   0.1122750000E-02   0.0000000000E+00  -0.3410675000E-01  -0.3410675000E-01   0.8000000011E+01  -0.2231492241E-13  -0.5093519105E-14   0.3652769315E-15  -0.4091138685E-14  -0.9988920611E-14   0.6600000009E-01  -0.3298400004E-01  -0.3298400004E-01  -0.7321513084E-15   0.6028174572E-15   0.8878100334E-15   0.8000000011E+01
   0.2132000000E+01   0.0000000000E+00   0.2693664147E-14  -0.4500000000E-02   0.0000000000E+00  -0.6245218438E-17   0.1365000000E+00   0.0000000000E+00   0.2699909365E-14   0.8000000012E+01  -0.4288313698E-13  -0.5432768164E-13   0.4121357675E-14   0.5948648099E-14   0.9317452435E-14   0.6600000010E-01  -0.3298400005E-01  -0.3298400005E-01  -0.2711799464E-14   0.9095455404E-15  -0.2505732730E-14   0.8000000012E+01
   0.2132000000E+01   0.9670160000E+00   0.1443076510E-14  -0.4500000000E-02   0.1122750000E-02  -0.3167460222E-17   0.1365000000E+00  -0.3410675000E-01   0.1446243970E-14   0.8000000011E+01  -0.2192128747E-14  -0.1782947173E-13   0.7245719657E-15   0.2308282028E-14  -0.6265681507E-14   0.6600000009E-01  -0.3298400005E-01  -0.3298400005E-01  -0.3700670534E-15   0.9816424090E-15  -0.3304241869E-15   0.8000000011E+01
   0.2132000000E+01   0.0000000000E+00   0.9670160000E+00  -0.4500000000E-02   0.0000000000E+00   0.1122750000E-02   0.1365000000E+00   0.0000000000E+00  -0.3410675000E-01   0.8000000011E+01  -0.8367926834E-13  -0.6089507976E-13   0.6245793791E-14   0.2289759061E-14   0.5516255459E-14   0.6600000009E-01  -0.3298400005E-01  -0.3298400005E-01  -0.2715771956E-14  -0.1262721125E-14  -0.1207583780E-14   0.8000000011E+01
   0.2132000000E+01   0.9670160000E+00   0.9670160000E+00  -0.4500000000E-02   0.1122750000E-02   0.1122750000E-02   0.1365000000E+00  -0.3410675000E-01  -0.3410675000E-01   0.8000000010E+01  -0.7047363156E-14   0.8302603556E-14   0.5225188497E-14   0.6657037455E-14  -0.9810233888E-14   0.6600000008E-01  -0.3298400004E-01  -0.3298400004E-01  -0.4271814944E-15  -0.1402754936E-14   0.9563998021E-15   0.8000000010E+01
     1     2     3     4     5     6     7     8
     2     9    10     3     6    11    12     7
 VARIABLES = X,Y,Z,DU1,DU2,DU3,U1,U2,U3,S11,S22,S33,S12,S13,S23,E11,E22,E33,E12,E13,E23,SMISES
 ZONE, T="0.5250D+01" F=FEPOINT, I=   12 J=    2 ET=BRICK
   0.0000000000E+00   0.0000000000E+00   0.0000000000E+00   0.0000000000E+00   0.0000000000E+00   0.0000000000E+00   0.0000000000E+00   0.0000000000E+00   0.0000000000E+00   0.6875000011E+01   0.2763884766E-13   0.1149976843E-13  -0.1785619231E-16  -0.3598259123E-14   0.1041135260E-13   0.6375000010E-01  -0.3186125005E-01  -0.3186125005E-01   0.3669847951E-17  -0.2497775587E-15  -0.2604777201E-14   0.6875000011E+01
   0.1063750000E+01   0.0000000000E+00   0.3698390944E-15  -0.2250000000E-02   0.0000000000E+00   0.1905516275E-17   0.6600000000E-01   0.0000000000E+00   0.3679335781E-15   0.6875000011E+01   0.3663251265E-13   0.2019808599E-13  -0.1664461899E-14  -0.2607062817E-14   0.1021001748E-13   0.6375000010E-01  -0.3186125005E-01  -0.3186125005E-01  -0.1291784039E-14   0.4529245444E-15  -0.2434691927E-14   0.6875000011E+01
   0.1063750000E+01   0.9681387500E+00  -0.8463969555E-15  -0.2250000000E-02   0.1122750000E-02   0.1560175812E-17   0.6600000000E-01  -0.3298400000E-01  -0.8479571313E-15   0.6875000010E+01  -0.1636156726E-14  -0.2355792972E-13  -0.2898801727E-14   0.9832813982E-15  -0.7607037298E-14   0.6375000009E-01  -0.3186125005E-01  -0.3186125005E-01  -0.4744263318E-15   0.4368545616E-15  -0.2438204180E-15   0.6875000010E+01
   0.0000000000E+00   0.9681387500E+00  -0.1305069927E-14   0.0000000000E+00   0.1122750000E-02  -0.3469708549E-18   0.0000000000E+00  -0.3298400000E-01  -0.1304722956E-14   0.6875000010E+01  -0.4683908854E-13  -0.6806711540E-13   0.1595256120E-14  -0.3922299376E-14  -0.6464235295E-14   0.6375000009E-01  -0.3186125005E-01  -0.3186125005E-01  -0.6950787966E-15   0.9180435858E-17  -0.3904086784E-15   0.6875000010E+01
   0.0000000000E+00   0.0000000000E+00   0.9681387500E+00   0.0000000000E+00   0.0000000000E+00   0.1122750000E-02   0.0000000000E+00   0.0000000000E+00  -0.3298400000E-01   0.6875000010E+01  -0.1802866919E-13   0.2317014255E-14  -0.1140655209E-16  -0.4782532864E-14   0.7896895952E-14   0.6375000009E-01  -0.3186125005E-01  -0.3186125005E-01  -0.2478572563E-17   0.4985963517E-15  -0.1308386135E-14   0.6875000010E+01
   0.1063750000E+01   0.0000000000E+00   0.9681387500E+00  -0.2250000000E-02   0.0000000000E+00   0.1122750000E-02   0.6600000000E-01   0.0000000000E+00  -0.3298400000E-01   0.6875000010E+01   0.3261820399E-13   0.5069405194E-13   0.3208164291E-14  -0.5652266138E-15   0.7569362938E-14   0.6375000009E-01  -0.3186125005E-01  -0.3186125005E-01  -0.1303521163E-14  -0.2936761286E-15  -0.1241526084E-14   0.6875000010E+01
   0.1063750000E+01   0.9681387500E+00   0.9681387500E+00  -0.2250000000E-02   0.1122750000E-02   0.1122750000E-02   0.6600000000E-01  -0.3298400000E-01  -0.3298400000E-01   0.6875000009E+01  -0.6447262577E-14   0.6628882661E-14   0.3011308748E-14   0.1939939393E-14  -0.1034726743E-13   0.6375000008E-01  -0.3186125004E-01  -0.3186125004E-01  -0.5077797192E-15  -0.3465400545E-15   0.9371452811E-15   0.6875000009E+01
   0.0000000000E+00   0.9681387500E+00   0.9681387500E+00   0.0000000000E+00   0.1122750000E-02   0.1122750000E-02   0.0000000000E+00  -0.3298400000E-01  -0.3298400000E-01   0.6875000009E+01  -0.3508203540E-13  -0.2006912140E-13   0.4944874895E-15  -0.3923059128E-14  -0.9965476747E-14   0.6375000009E-01  -0.3186125004E-01  -0.3186125004E-01  -0.7296193657E-15   0.6200529897E-15   0.8748723534E-15   0.6875000009E+01
   0.2127500000E+01   0.0000000000E+00   0.2700688524E-14  -0.4500000000E-02   0.0000000000E+00   0.7024377317E-17   0.1320000000E+00   0.0000000000E+00   0.2693664147E-14   0.6875000010E+01  -0.4361011340E-13  -0.5362332475E-13   0.4225187869E-14   0.5536738265E-14   0.9056124758E-14   0.6375000010E-01  -0.3186125005E-01  -0.3186125005E-01  -0.2717510438E-14   0.9327294464E-15  -0.2508634610E-14   0.6875000010E+01
   0.2127500000E+01   0.9681387500E+00   0.1448657578E-14  -0.4500000000E-02   0.1122750000E-02   0.5581068169E-17   0.1320000000E+00  -0.3298400000E-01   0.1443076510E-14   0.6875000010E+01   0.7130869108E-13   0.5638502197E-13   0.4921277818E-15   0.2062206610E-14  -0.5869008146E-14   0.6375000009E-01  -0.3186125004E-01  -0.3186125004E-01  -0.4039214661E-15   0.1007141067E-14  -0.2999984182E-15   0.6875000010E+01
   0.2127500000E+01   0.0000000000E+00   0.9681387500E+00  -0.4500000000E-02   0.0000000000E+00   0.1122750000E-02   0.1320000000E+00   0.0000000000E+00  -0.3298400000E-01   0.6875000010E+01  -0.2754881973E-13  -0.4050957287E-14   0.6831098751E-14   0.1875973481E-14   0.5015595344E-14   0.6375000009E-01  -0.3186125004E-01  -0.3186125004E-01  -0.2722673183E-14  -0.1233631318E-14  -0.1205628090E-14   0.6875000010E+01
   0.2127500000E+01   0.9681387500E+00   0.9681387500E+00  -0.4500000000E-02   0.1122750000E-02   0.1122750000E-02   0.1320000000E+00  -0.3298400000E-01  -0.3298400000E-01   0.6875000009E+01   0.4219714862E-13   0.5738855296E-13   0.5518826701E-14   0.7081586947E-14  -0.9777209588E-14   0.6375000008E-01  -0.3186125004E-01  -0.3186125004E-01  -0.3991364036E-15  -0.1335019247E-14   0.9576063214E-15   0.6875000009E+01
     1     2     3     4     5     6     7     8
     2     9    10     3     6    11    12     7
 VARIABLES = X,Y,Z,DU1,DU2,DU3,U1,U2,U3,S11,S22,S33,S12,S13,S23,E11,E22,E33,E12,E13,E23,SMISES
 ZONE, T="0.5300D+01" F=FEPOINT, I=   12 J=    2 ET=BRICK
   0.0000000000E+00   0.0000000000E+00   0.0000000000E+00   0.0000000000E+00   0.0000000000E+00   0.0000000000E+00   0.0000000000E+00   0.0000000000E+00   0.0000000000E+00   0.5750000009E+01  -0.3246649062E-13  -0.4839441388E-13  -0.7785613993E-18  -0.3567670469E-14   0.1039526737E-13   0.6150000010E-01  -0.3073850005E-01  -0.3073850005E-01   0.5770886134E-17  -0.2460377031E-15  -0.2614742564E-14   0.5750000009E+01
   0.1061500000E+01   0.0000000000E+00   0.3691227467E-15  -0.2250000000E-02   0.0000000000E+00  -0.7163477352E-18   0.6375000000E-01   0.0000000000E+00   0.3698390944E-15   0.5750000009E+01  -0.7628195101E-13  -0.9283828859E-13  -0.1540243176E-14  -0.2354853933E-14   0.1021673250E-13   0.6150000009E-01  -0.3073850005E-01  -0.3073850005E-01  -0.1285025389E-14   0.4364632984E-15  -0.2442420840E-14   0.5750000009E+01
   0.1061500000E+01   0.9692615000E+00  -0.8470590557E-15  -0.2250000000E-02   0.1122750000E-02  -0.6621001983E-18   0.6375000000E-01  -0.3186125000E-01  -0.8463969555E-15   0.5750000008E+01  -0.4754873100E-13  -0.6940011867E-13  -0.2670066744E-14   0.8506229034E-15  -0.7743853522E-14   0.6150000009E-01  -0.3073850004E-01  -0.3073850004E-01  -0.4622760743E-15   0.4841312140E-15  -0.2529762305E-15   0.5750000008E+01
   0.0000000000E+00   0.9692615000E+00  -0.1305016619E-14   0.0000000000E+00   0.1122750000E-02   0.5330801487E-19   0.0000000000E+00  -0.3186125000E-01  -0.1305069927E-14   0.5750000008E+01   0.6894115444E-13   0.4823849075E-13   0.1428913802E-14  -0.4005186253E-14  -0.6792378220E-14   0.6150000009E-01  -0.3073850004E-01  -0.3073850004E-01  -0.6987616389E-15   0.1184533393E-17  -0.3711376778E-15   0.5750000008E+01
   0.0000000000E+00   0.0000000000E+00   0.9692615000E+00   0.0000000000E+00   0.0000000000E+00   0.1122750000E-02   0.0000000000E+00   0.0000000000E+00  -0.3186125000E-01   0.5750000008E+01   0.7111718912E-13   0.9192728027E-13  -0.8549114102E-17  -0.4905976601E-14   0.8120264791E-14   0.6150000009E-01  -0.3073850004E-01  -0.3073850004E-01  -0.1410460046E-16   0.5094823512E-15  -0.1304546204E-14   0.5750000008E+01
   0.1061500000E+01   0.0000000000E+00   0.9692615000E+00  -0.2250000000E-02   0.0000000000E+00   0.1122750000E-02   0.6375000000E-01   0.0000000000E+00  -0.3186125000E-01   0.5750000008E+01   0.7856359241E-13   0.9683173663E-13   0.2769910099E-14  -0.3156612674E-15   0.7733227253E-14   0.6150000009E-01  -0.3073850004E-01  -0.3073850004E-01  -0.1258641877E-14  -0.3237802164E-15  -0.1204103464E-14   0.5750000008E+01
   0.1061500000E+01   0.9692615000E+00   0.9692615000E+00  -0.2250000000E-02   0.1122750000E-02   0.1122750000E-02   0.6375000000E-01  -0.3186125000E-01  -0.3186125000E-01   0.5750000008E+01  -0.1624802723E-14   0.1216900191E-13   0.2671381998E-14   0.1640868623E-14  -0.1038687795E-13   0.6150000008E-01  -0.3073850004E-01  -0.3073850004E-01  -0.5056399130E-15  -0.3135508802E-15   0.9394728367E-15   0.5750000008E+01
   0.0000000000E+00   0.9692615000E+00   0.9692615000E+00   0.0000000000E+00   0.1122750000E-02   0.1122750000E-02   0.0000000000E+00  -0.3186125000E-01  -0.3186125000E-01   0.5750000008E+01  -0.4072837108E-13  -0.2489221968E-13   0.5685265579E-15  -0.4099188325E-14  -0.9972944505E-14   0.6150000008E-01  -0.3073850004E-01  -0.3073850004E-01  -0.7186974945E-15   0.6239639913E-15   0.8689445313E-15   0.5750000008E+01
   0.2123000000E+01   0.0000000000E+00   0.2696469229E-14  -0.4500000000E-02   0.0000000000E+00  -0.4219294976E-17   0.1275000000E+00   0.0000000000E+00   0.2700688524E-14   0.5750000009E+01   0.5825361913E-13   0.4792620056E-13   0.4191226068E-14   0.5908737753E-14   0.9333424530E-14   0.6150000009E-01  -0.3073850005E-01  -0.3073850005E-01  -0.2737499020E-14   0.8546487488E-15  -0.2498975107E-14   0.5750000009E+01
   0.2123000000E+01   0.9692615000E+00   0.1446132380E-14  -0.4500000000E-02   0.1122750000E-02  -0.2525198778E-17   0.1275000000E+00  -0.3186125000E-01   0.1448657578E-14   0.5750000008E+01  -0.1389158457E-12  -0.1547494705E-12   0.6862261202E-15   0.2105913792E-14  -0.5765771279E-14   0.6150000009E-01  -0.3073850004E-01  -0.3073850004E-01  -0.4192922149E-15   0.9806794040E-15  -0.2755582768E-15   0.5750000008E+01
   0.2123000000E+01   0.0000000000E+00   0.9692615000E+00  -0.4500000000E-02   0.0000000000E+00   0.1122750000E-02   0.1275000000E+00   0.0000000000E+00  -0.3186125000E-01   0.5750000008E+01   0.1351135802E-12   0.1586723981E-12   0.6300140331E-14   0.2529711203E-14   0.5060235347E-14   0.6150000009E-01  -0.3073850004E-01  -0.3073850004E-01  -0.2662040604E-14  -0.1293223782E-14  -0.1247287908E-14   0.5750000008E+01
   0.2123000000E+01   0.9692615000E+00   0.9692615000E+00  -0.4500000000E-02   0.1122750000E-02   0.1122750000E-02   0.1275000000E+00  -0.3186125000E-01  -0.3186125000E-01   0.5750000007E+01  -0.5395435879E-13  -0.3867623618E-13   0.5037022687E-14   0.6678189963E-14  -0.9861188929E-14   0.6150000008E-01  -0.3073850004E-01  -0.3073850004E-01  -0.3193985092E-15  -0.1326648837E-14   0.1006899666E-14   0.5750000007E+01
     1     2     3     4     5     6     7     8
     2     9    10     3     6    11    12     7
 VARIABLES = X,Y,Z,DU1,DU2,DU3,U1,U2,U3,S11,S22,S33,S12,S13,S23,E11,E22,E33,E12,E13,E23,SMISES
 ZONE, T="0.5350D+01" F=FEPOINT, I=   12 J=    2 ET=BRICK
   0.0000000000E+00   0.0000000000E+00   0.0000000000E+00   0.0000000000E+00   0.0000000000E+00   0.0000000000E+00   0.0000000000E+00   0.0000000000E+00   0.0000000000E+00   0.4625000007E+01  -0.1349573344E-12  -0.1513531168E-12  -0.2032493498E-16  -0.3611922820E-14   0.1016971047E-13   0.5925000009E-01  -0.2961575005E-01  -0.2961575005E-01  -0.4517172709E-17  -0.2333965275E-15  -0.2599593621E-14   0.4625000007E+01
   0.1059250000E+01   0.0000000000E+00   0.3690045736E-15  -0.2250000000E-02   0.0000000000E+00  -0.1181730994E-18   0.6150000000E-01   0.0000000000E+00   0.3691227467E-15   0.4625000007E+01   0.4203972814E-13   0.2519494620E-13  -0.1701099186E-14  -0.2476544316E-14   0.1003889261E-13   0.5925000009E-01  -0.2961575005E-01  -0.2961575005E-01  -0.1271258336E-14   0.3914268033E-15  -0.2435181660E-14   0.4625000007E+01
   0.1059250000E+01   0.9703842500E+00  -0.8481364876E-15  -0.2250000000E-02   0.1122750000E-02  -0.1077431898E-17   0.6150000000E-01  -0.3073850000E-01  -0.8470590557E-15   0.4625000007E+01   0.3458998513E-13   0.1334124903E-13  -0.2767850441E-14   0.9039876831E-15  -0.7860718236E-14   0.5925000008E-01  -0.2961575004E-01  -0.2961575004E-01  -0.4765320279E-15   0.4813075891E-15  -0.2369020752E-15   0.4625000007E+01
   0.0000000000E+00   0.9703842500E+00  -0.1306491233E-14   0.0000000000E+00   0.1122750000E-02  -0.1474613929E-17   0.0000000000E+00  -0.3073850000E-01  -0.1305016619E-14   0.4625000007E+01   0.2060694973E-13   0.6442566706E-15   0.1547636582E-14  -0.4014480694E-14  -0.6784191843E-14   0.5925000009E-01  -0.2961575004E-01  -0.2961575004E-01  -0.6908945087E-15  -0.7796602318E-17  -0.4169800981E-15   0.4625000007E+01
   0.0000000000E+00   0.0000000000E+00   0.9703842500E+00   0.0000000000E+00   0.0000000000E+00   0.1122750000E-02   0.0000000000E+00   0.0000000000E+00  -0.3073850000E-01   0.4625000007E+01   0.8939328615E-13   0.1096393700E-12   0.1476501993E-16  -0.4850952557E-14   0.8147094181E-14   0.5925000009E-01  -0.2961575004E-01  -0.2961575004E-01   0.5701867204E-17   0.4993100938E-15  -0.1340781625E-14   0.4625000007E+01
   0.1059250000E+01   0.0000000000E+00   0.9703842500E+00  -0.2250000000E-02   0.0000000000E+00   0.1122750000E-02   0.6150000000E-01   0.0000000000E+00  -0.3073850000E-01   0.4625000007E+01  -0.1135131360E-13   0.7153749331E-14   0.2482150639E-14  -0.2807544618E-15   0.7799603253E-14   0.5925000008E-01  -0.2961575004E-01  -0.2961575004E-01  -0.1283184472E-14  -0.3422541769E-15  -0.1231110603E-14   0.4625000007E+01
   0.1059250000E+01   0.9703842500E+00   0.9703842500E+00  -0.2250000000E-02   0.1122750000E-02   0.1122750000E-02   0.6150000000E-01  -0.3073850000E-01  -0.3073850000E-01   0.4625000006E+01  -0.1893172008E-13  -0.4919856347E-14   0.2493372440E-14   0.1702214654E-14  -0.1035585704E-13   0.5925000008E-01  -0.2961575004E-01  -0.2961575004E-01  -0.4801085183E-15  -0.2922612834E-15   0.9600347311E-15   0.4625000006E+01
   0.0000000000E+00   0.9703842500E+00   0.9703842500E+00   0.0000000000E+00   0.1122750000E-02   0.1122750000E-02   0.0000000000E+00  -0.3073850000E-01  -0.3073850000E-01   0.4625000006E+01  -0.2111501929E-13  -0.4968112252E-14   0.3456445450E-15  -0.3968496423E-14  -0.9681355083E-14   0.5925000008E-01  -0.2961575004E-01  -0.2961575004E-01  -0.7411694631E-15   0.5986004006E-15   0.9274068591E-15   0.4625000006E+01
   0.2118500000E+01   0.0000000000E+00   0.2698758537E-14  -0.4500000000E-02   0.0000000000E+00   0.2289307404E-17   0.1230000000E+00   0.0000000000E+00   0.2696469229E-14   0.4625000007E+01   0.6401893789E-13   0.5305712661E-13   0.3841757562E-14   0.6324204796E-14   0.9034738297E-14   0.5925000009E-01  -0.2961575004E-01  -0.2961575004E-01  -0.2720194590E-14   0.9941958177E-15  -0.2504169643E-14   0.4625000007E+01
   0.2118500000E+01   0.9703842500E+00   0.1446600849E-14  -0.4500000000E-02   0.1122750000E-02   0.4684696677E-18   0.1230000000E+00  -0.3073850000E-01   0.1446132380E-14   0.4625000006E+01   0.1053337486E-13  -0.5181790509E-14   0.5056202835E-15   0.1838569686E-14  -0.6000530360E-14   0.5925000008E-01  -0.2961575004E-01  -0.2961575004E-01  -0.4047437648E-15   0.9100140316E-15  -0.3082329934E-15   0.4625000006E+01
   0.2118500000E+01   0.0000000000E+00   0.9703842500E+00  -0.4500000000E-02   0.0000000000E+00   0.1122750000E-02   0.1230000000E+00   0.0000000000E+00  -0.3073850000E-01   0.4625000006E+01  -0.1248224778E-12  -0.1025710894E-12   0.6084185393E-14   0.1735625281E-14   0.5358660502E-14   0.5925000008E-01  -0.2961575004E-01  -0.2961575004E-01  -0.2691063636E-14  -0.1307642014E-14  -0.1219945446E-14   0.4625000006E+01
   0.2118500000E+01   0.9703842500E+00   0.9703842500E+00  -0.4500000000E-02   0.1122750000E-02   0.1122750000E-02   0.1230000000E+00  -0.3073850000E-01  -0.3073850000E-01   0.4625000006E+01   0.1013485499E-12   0.1168928056E-12   0.4980404855E-14   0.6754149569E-14  -0.9452386710E-14   0.5925000008E-01  -0.2961575004E-01  -0.2961575004E-01  -0.3641222989E-15  -0.1361627634E-14   0.9629063896E-15   0.4625000006E+01
     1     2     3     4     5     6     7     8
     2     9    10     3     6    11    12     7
 VARIABLES = X,Y,Z,DU1,DU2,DU3,U1,U2,U3,S11,S22,S33,S12,S13,S23,E11,E22,E33,E12,E13,E23,SMISES
 ZONE, T="0.5400D+01" F=FEPOINT, I=   12 J=    2 ET=BRICK
   0.0000000000E+00   0.0000000000E+00   0.0000000000E+00   0.0000000000E+00   0.0000000000E+00   0.0000000000E+00   0.0000000000E+00   0.0000000000E+00   0.0000000000E+00   0.3500000005E+01   0.7517985768E-13   0.5901501571E-13  -0.3229475223E-16  -0.3290927042E-14   0.1001775165E-13   0.5700000009E-01  -0.2849300004E-01  -0.2849300004E-01   0.1353345277E-17  -0.2268351773E-15  -0.2615660632E-14   0.3500000005E+01
   0.1057000000E+01   0.0000000000E+00   0.3713886825E-15  -0.2250000000E-02   0.0000000000E+00   0.2384108960E-17   0.5925000000E-01   0.0000000000E+00   0.3690045736E-15   0.3500000005E+01  -0.1330830086E-12  -0.1492547537E-12  -0.1713742244E-14  -0.2665093695E-14   0.9716684621E-14   0.5700000009E-01  -0.2849300004E-01  -0.2849300004E-01  -0.1284113385E-14   0.4165237127E-15  -0.2427058492E-14   0.3500000005E+01
   0.1057000000E+01   0.9715070000E+00  -0.8476717624E-15  -0.2250000000E-02   0.1122750000E-02   0.4647252484E-18   0.5925000000E-01  -0.2961575000E-01  -0.8481364876E-15   0.3500000005E+01   0.2792314354E-13   0.7295918701E-14  -0.2760528558E-14   0.8394038474E-15  -0.7489800197E-14   0.5700000008E-01  -0.2849300004E-01  -0.2849300004E-01  -0.4798120339E-15   0.5025023158E-15  -0.2578098607E-15   0.3500000005E+01
   0.0000000000E+00   0.9715070000E+00  -0.1307412232E-14   0.0000000000E+00   0.1122750000E-02  -0.9209985107E-18   0.0000000000E+00  -0.2961575000E-01  -0.1306491233E-14   0.3500000005E+01  -0.8746964622E-14  -0.2828642097E-13   0.1393817499E-14  -0.3864369726E-14  -0.6470815969E-14   0.5700000008E-01  -0.2849300004E-01  -0.2849300004E-01  -0.6891052751E-15  -0.3482148410E-16  -0.3829819523E-15   0.3500000005E+01
   0.0000000000E+00   0.0000000000E+00   0.9715070000E+00   0.0000000000E+00   0.0000000000E+00   0.1122750000E-02   0.0000000000E+00   0.0000000000E+00  -0.2961575000E-01   0.3500000005E+01   0.4459065734E-13   0.6476290422E-13  -0.3785077115E-17  -0.4582557281E-14   0.7751219963E-14   0.5700000008E-01  -0.2849300004E-01  -0.2849300004E-01   0.4152872778E-17   0.5072196194E-15  -0.1320752799E-14   0.3500000005E+01
   0.1057000000E+01   0.0000000000E+00   0.9715070000E+00  -0.2250000000E-02   0.0000000000E+00   0.1122750000E-02   0.5925000000E-01   0.0000000000E+00  -0.2961575000E-01   0.3500000005E+01   0.1097965901E-12   0.1273659346E-12   0.2750947697E-14  -0.5564702507E-15   0.7459932094E-14   0.5700000008E-01  -0.2849300004E-01  -0.2849300004E-01  -0.1292584000E-14  -0.3767170824E-15  -0.1233641518E-14   0.3500000005E+01
   0.1057000000E+01   0.9715070000E+00   0.9715070000E+00  -0.2250000000E-02   0.1122750000E-02   0.1122750000E-02   0.5925000000E-01  -0.2961575000E-01  -0.2961575000E-01   0.3500000005E+01  -0.8100763849E-15   0.1245836513E-13   0.2600951449E-14   0.1953262313E-14  -0.9963530172E-14   0.5700000007E-01  -0.2849300004E-01  -0.2849300004E-01  -0.4821774260E-15  -0.2896183139E-15   0.9610381025E-15   0.3500000005E+01
   0.0000000000E+00   0.9715070000E+00   0.9715070000E+00   0.0000000000E+00   0.1122750000E-02   0.1122750000E-02   0.0000000000E+00  -0.2961575000E-01  -0.2961575000E-01   0.3500000005E+01  -0.7009147389E-14   0.8346263392E-14   0.6191455650E-15  -0.3859580920E-14  -0.9586315723E-14   0.5700000008E-01  -0.2849300004E-01  -0.2849300004E-01  -0.7302279444E-15   0.6322643104E-15   0.8643659759E-15   0.3500000005E+01
   0.2114000000E+01   0.0000000000E+00   0.2704656677E-14  -0.4500000000E-02   0.0000000000E+00   0.5898140150E-17   0.1185000000E+00   0.0000000000E+00   0.2698758537E-14   0.3500000005E+01  -0.2046770203E-12  -0.2150490614E-12   0.4445428530E-14   0.6406355979E-14   0.8958098507E-14   0.5700000009E-01  -0.2849300004E-01  -0.2849300004E-01  -0.2707541407E-14   0.9705712490E-15  -0.2511902630E-14   0.3500000005E+01
   0.2114000000E+01   0.9715070000E+00   0.1452043413E-14  -0.4500000000E-02   0.1122750000E-02   0.5442564121E-17   0.1185000000E+00  -0.2961575000E-01   0.1446600849E-14   0.3500000005E+01   0.1543060874E-12   0.1393729885E-12   0.1267195614E-14   0.1612695461E-14  -0.5711432656E-14   0.5700000008E-01  -0.2849300004E-01  -0.2849300004E-01  -0.4085014346E-15   0.7940184884E-15  -0.2853316963E-15   0.3500000005E+01
   0.2114000000E+01   0.0000000000E+00   0.9715070000E+00  -0.4500000000E-02   0.0000000000E+00   0.1122750000E-02   0.1185000000E+00   0.0000000000E+00  -0.2961575000E-01   0.3500000005E+01   0.1268256793E-12   0.1492401496E-12   0.5941186404E-14   0.2044433736E-14   0.5026257999E-14   0.5700000008E-01  -0.2849300004E-01  -0.2849300004E-01  -0.2673798145E-14  -0.1341716916E-14  -0.1214842641E-14   0.3500000005E+01
   0.2114000000E+01   0.9715070000E+00   0.9715070000E+00  -0.4500000000E-02   0.1122750000E-02   0.1122750000E-02   0.1185000000E+00  -0.2961575000E-01  -0.2961575000E-01   0.3500000004E+01  -0.7243720735E-13  -0.5744752913E-13   0.4504542655E-14   0.6574259263E-14  -0.9413842323E-14   0.5700000007E-01  -0.2849300004E-01  -0.2849300004E-01  -0.3433432940E-15  -0.1305894489E-14   0.9766319942E-15   0.3500000004E+01
     1     2     3     4     5     6     7     8
     2     9    10     3     6    11    12     7
 VARIABLES = X,Y,Z,DU1,DU2,DU3,U1,U2,U3,S11,S22,S33,S12,S13,S23,E11,E22,E33,E12,E13,E23,SMISES
 ZONE, T="0.5450D+01" F=FEPOINT, I=   12 J=    2 ET=BRICK
   0.0000000000E+00   0.0000000000E+00   0.0000000000E+00   0.0000000000E+00   0.0000000000E+00   0.0000000000E+00   0.0000000000E+00   0.0000000000E+00   0.0000000000E+00   0.2375000004E+01  -0.7810756268E-13  -0.9465971933E-13  -0.5008688988E-16  -0.3541340600E-14   0.1013466674E-13   0.5475000009E-01  -0.2737025004E-01  -0.2737025004E-01   0.1245482398E-16  -0.2271464123E-15  -0.2623446562E-14   0.2375000004E+01
   0.1054750000E+01   0.0000000000E+00   0.3700224063E-15  -0.2250000000E-02   0.0000000000E+00  -0.1366276243E-17   0.5700000000E-01   0.0000000000E+00   0.3713886825E-15   0.2375000004E+01   0.5247716815E-13   0.3605761568E-13  -0.1582576874E-14  -0.2578797590E-14   0.9971749232E-14   0.5475000008E-01  -0.2737025004E-01  -0.2737025004E-01  -0.1298649664E-14   0.4023114470E-15  -0.2437439150E-14   0.2375000004E+01
   0.1054750000E+01   0.9726297500E+00  -0.8475537530E-15  -0.2250000000E-02   0.1122750000E-02   0.1180094249E-18   0.5700000000E-01  -0.2849300000E-01  -0.8476717624E-15   0.2375000003E+01  -0.2259317834E-13  -0.4369569948E-13  -0.2802589274E-14   0.9122980029E-15  -0.7580283775E-14   0.5475000008E-01  -0.2737025004E-01  -0.2737025004E-01  -0.4713324817E-15   0.4460195692E-15  -0.2446500400E-15   0.2375000003E+01
   0.0000000000E+00   0.9726297500E+00  -0.1306704338E-14   0.0000000000E+00   0.1122750000E-02   0.7078933665E-18   0.0000000000E+00  -0.2849300000E-01  -0.1307412232E-14   0.2375000003E+01   0.8701781855E-13   0.6712152526E-13   0.1439178815E-14  -0.3903757017E-14  -0.6612068243E-14   0.5475000008E-01  -0.2737025004E-01  -0.2737025004E-01  -0.7023958891E-15  -0.4856278455E-17  -0.3876785068E-15   0.2375000003E+01
   0.0000000000E+00   0.0000000000E+00   0.9726297500E+00   0.0000000000E+00   0.0000000000E+00   0.1122750000E-02   0.0000000000E+00   0.0000000000E+00  -0.2849300000E-01   0.2375000003E+01   0.9643414773E-14   0.2994773186E-13   0.1978264025E-16  -0.4831175529E-14   0.7956453096E-14   0.5475000008E-01  -0.2737025004E-01  -0.2737025004E-01  -0.5303437956E-17   0.5111270433E-15  -0.1299983544E-14   0.2375000003E+01
   0.1054750000E+01   0.0000000000E+00   0.9726297500E+00  -0.2250000000E-02   0.0000000000E+00   0.1122750000E-02   0.5700000000E-01   0.0000000000E+00  -0.2849300000E-01   0.2375000003E+01  -0.3670944694E-13  -0.1874063577E-13   0.2779597314E-14  -0.1947922824E-15   0.7678737153E-14   0.5475000008E-01  -0.2737025004E-01  -0.2737025004E-01  -0.1283099233E-14  -0.3608750583E-15  -0.1222958534E-14   0.2375000003E+01
   0.1054750000E+01   0.9726297500E+00   0.9726297500E+00  -0.2250000000E-02   0.1122750000E-02   0.1122750000E-02   0.5700000000E-01  -0.2849300000E-01  -0.2849300000E-01   0.2375000003E+01  -0.4984038845E-14   0.8622913867E-14   0.2798365558E-14   0.1854843389E-14  -0.1006827936E-13   0.5475000007E-01  -0.2737025004E-01  -0.2737025004E-01  -0.4966919494E-15  -0.3107026415E-15   0.9430726063E-15   0.2375000003E+01
   0.0000000000E+00   0.9726297500E+00   0.9726297500E+00   0.0000000000E+00   0.1122750000E-02   0.1122750000E-02   0.0000000000E+00  -0.2849300000E-01  -0.2849300000E-01   0.2375000003E+01   0.1728635679E-13   0.3311507112E-13   0.5455922756E-15  -0.3868169632E-14  -0.9752986516E-14   0.5475000007E-01  -0.2737025004E-01  -0.2737025004E-01  -0.7257061913E-15   0.6181029981E-15   0.8936987207E-15   0.2375000003E+01
   0.2109500000E+01   0.0000000000E+00   0.2702525157E-14  -0.4500000000E-02   0.0000000000E+00  -0.2131519740E-17   0.1140000000E+00   0.0000000000E+00   0.2704656677E-14   0.2375000004E+01   0.2227456729E-12   0.2128610802E-12   0.3826490461E-14   0.5860230370E-14   0.8934288819E-14   0.5475000008E-01  -0.2737025004E-01  -0.2737025004E-01  -0.2705297356E-14   0.8636139196E-15  -0.2507386882E-14   0.2375000004E+01
   0.2109500000E+01   0.9726297500E+00   0.1449847975E-14  -0.4500000000E-02   0.1122750000E-02  -0.2195438509E-17   0.1140000000E+00  -0.2849300000E-01   0.1452043413E-14   0.2375000003E+01  -0.1400533088E-12  -0.1549844149E-12   0.4960413641E-15   0.1653134389E-14  -0.5785124436E-14   0.5475000008E-01  -0.2737025004E-01  -0.2737025004E-01  -0.4401013826E-15   0.8790805636E-15  -0.3118881705E-15   0.2375000003E+01
   0.2109500000E+01   0.0000000000E+00   0.9726297500E+00  -0.4500000000E-02   0.0000000000E+00   0.1122750000E-02   0.1140000000E+00   0.0000000000E+00  -0.2849300000E-01   0.2375000003E+01  -0.6559836100E-13  -0.4292047979E-13   0.6608629607E-14   0.1528506715E-14   0.4853939960E-14   0.5475000008E-01  -0.2737025004E-01  -0.2737025004E-01  -0.2704294621E-14  -0.1377218388E-14  -0.1230006254E-14   0.2375000003E+01
   0.2109500000E+01   0.9726297500E+00   0.9726297500E+00  -0.4500000000E-02   0.1122750000E-02   0.1122750000E-02   0.1140000000E+00  -0.2849300000E-01  -0.2849300000E-01   0.2375000003E+01  -0.3886295665E-13  -0.2407301175E-13   0.5159437453E-14   0.6861781518E-14  -0.9654493639E-14   0.5475000007E-01  -0.2737025004E-01  -0.2737025004E-01  -0.3608627724E-15  -0.1380829668E-14   0.1020680556E-14   0.2375000003E+01
     1     2     3     4     5     6     7     8
     2     9    10     3     6    11    12     7
 VARIABLES = X,Y,Z,DU1,DU2,DU3,U1,U2,U3,S11,S22,S33,S12,S13,S23,E11,E22,E33,E12,E13,E23,SMISES
 ZONE, T="0.5500D+01" F=FEPOINT, I=   12 J=    2 ET=BRICK
   0.0000000000E+00   0.0000000000E+00   0.0000000000E+00   0.0000000000E+00   0.0000000000E+00   0.0000000000E+00   0.0000000000E+00   0.0000000000E+00   0.0000000000E+00   0.1250000002E+01  -0.4237034729E-13  -0.5916523171E-13  -0.7272876020E-17  -0.3487309596E-14   0.1020888029E-13   0.5250000008E-01  -0.2624750004E-01  -0.2624750004E-01   0.6071224573E-18  -0.2333331673E-15  -0.2608840521E-14   0.1250000002E+01
   0.1052500000E+01   0.0000000000E+00   0.3696395313E-15  -0.2250000000E-02   0.0000000000E+00  -0.3828749940E-18   0.5475000000E-01   0.0000000000E+00   0.3700224063E-15   0.1250000002E+01  -0.5389854206E-13  -0.7065461299E-13  -0.1874696184E-14  -0.2639232156E-14   0.9971674152E-14   0.5250000008E-01  -0.2624750004E-01  -0.2624750004E-01  -0.1287634038E-14   0.4042243669E-15  -0.2437093294E-14   0.1250000002E+01
   0.1052500000E+01   0.9737525000E+00  -0.8479310022E-15  -0.2250000000E-02   0.1122750000E-02  -0.3772492800E-18   0.5475000000E-01  -0.2737025000E-01  -0.8475537530E-15   0.1250000002E+01  -0.8987484669E-15  -0.2230731033E-13  -0.2993198198E-14   0.1059485704E-14  -0.7779143466E-14   0.5250000007E-01  -0.2624750004E-01  -0.2624750004E-01  -0.4944529012E-15   0.4760484093E-15  -0.2567760290E-15   0.1250000002E+01
   0.0000000000E+00   0.9737525000E+00  -0.1306192092E-14   0.0000000000E+00   0.1122750000E-02   0.5122461946E-18   0.0000000000E+00  -0.2737025000E-01  -0.1306704338E-14   0.1250000002E+01   0.3621369200E-13   0.1632855434E-13   0.1471874915E-14  -0.4017821771E-14  -0.6728953476E-14   0.5250000008E-01  -0.2624750004E-01  -0.2624750004E-01  -0.6936984961E-15   0.1615266832E-17  -0.3959914131E-15   0.1250000002E+01
   0.0000000000E+00   0.0000000000E+00   0.9737525000E+00   0.0000000000E+00   0.0000000000E+00   0.1122750000E-02   0.0000000000E+00   0.0000000000E+00  -0.2737025000E-01   0.1250000002E+01   0.8377829542E-13   0.1044631218E-12  -0.8593566503E-17  -0.4824344240E-14   0.8157955183E-14   0.5250000008E-01  -0.2624750004E-01  -0.2624750004E-01   0.3329372342E-17   0.5026414815E-15  -0.1311939919E-14   0.1250000002E+01
   0.1052500000E+01   0.0000000000E+00   0.9737525000E+00  -0.2250000000E-02   0.0000000000E+00   0.1122750000E-02   0.5475000000E-01   0.0000000000E+00  -0.2737025000E-01   0.1250000002E+01   0.5435254043E-13   0.7243038113E-13   0.2612211834E-14  -0.3056183810E-15   0.7689077175E-14   0.5250000007E-01  -0.2624750004E-01  -0.2624750004E-01  -0.1302397840E-14  -0.3377352264E-15  -0.1231033298E-14   0.1250000002E+01
   0.1052500000E+01   0.9737525000E+00   0.9737525000E+00  -0.2250000000E-02   0.1122750000E-02   0.1122750000E-02   0.5475000000E-01  -0.2737025000E-01  -0.2737025000E-01   0.1250000002E+01  -0.2406324545E-14   0.1125686872E-13   0.2487341817E-14   0.1779612824E-14  -0.1019518526E-13   0.5250000007E-01  -0.2624750003E-01  -0.2624750003E-01  -0.4776195894E-15  -0.3541807034E-15   0.9443949461E-15   0.1250000002E+01
   0.0000000000E+00   0.9737525000E+00   0.9737525000E+00   0.0000000000E+00   0.1122750000E-02   0.1122750000E-02   0.0000000000E+00  -0.2737025000E-01  -0.2737025000E-01   0.1250000002E+01  -0.4901598233E-13  -0.3270825315E-13   0.6304329277E-15  -0.4114180753E-14  -0.9850302218E-14   0.5250000007E-01  -0.2624750004E-01  -0.2624750004E-01  -0.7379322043E-15   0.6250496867E-15   0.8885514792E-15   0.1250000002E+01
   0.2105000000E+01   0.0000000000E+00   0.2698342156E-14  -0.4500000000E-02   0.0000000000E+00  -0.4183000640E-17   0.1095000000E+00   0.0000000000E+00   0.2702525157E-14   0.1250000002E+01  -0.5695591161E-13  -0.6754292490E-13   0.4614823424E-14   0.6642674000E-14   0.9248342255E-14   0.5250000008E-01  -0.2624750004E-01  -0.2624750004E-01  -0.2699427322E-14   0.8853805519E-15  -0.2497060856E-14   0.1250000002E+01
   0.2105000000E+01   0.9737525000E+00   0.1447622563E-14  -0.4500000000E-02   0.1122750000E-02  -0.2225412157E-17   0.1095000000E+00  -0.2737025000E-01   0.1449847975E-14   0.1250000002E+01   0.3105154672E-13   0.1555815894E-13   0.1318524185E-14   0.1273477623E-14  -0.5861827561E-14   0.5250000007E-01  -0.2624750004E-01  -0.2624750004E-01  -0.4001913379E-15   0.8831383036E-15  -0.3157938149E-15   0.1250000002E+01
   0.2105000000E+01   0.0000000000E+00   0.9737525000E+00  -0.4500000000E-02   0.0000000000E+00   0.1122750000E-02   0.1095000000E+00   0.0000000000E+00  -0.2737025000E-01   0.1250000002E+01  -0.9769045567E-13  -0.7494753576E-13   0.6214696967E-14   0.1686683733E-14   0.5261508769E-14   0.5250000007E-01  -0.2624750004E-01  -0.2624750004E-01  -0.2671963618E-14  -0.1364988454E-14  -0.1211889538E-14   0.1250000002E+01
   0.2105000000E+01   0.9737525000E+00   0.9737525000E+00  -0.4500000000E-02   0.1122750000E-02   0.1122750000E-02   0.1095000000E+00  -0.2737025000E-01  -0.2737025000E-01   0.1250000002E+01   0.1215328910E-14   0.1619929582E-13   0.4808397825E-14   0.6855138186E-14  -0.9700541659E-14   0.5250000007E-01  -0.2624750003E-01  -0.2624750003E-01  -0.3473643096E-15  -0.1272782305E-14   0.9759007448E-15   0.1250000002E+01
     1     2     3     4     5     6     7     8
     2     9    10     3     6    11    12     7
 VARIABLES = X,Y,Z,DU1,DU2,DU3,U1,U2,U3,S11,S22,S33,S12,S13,S23,E11,E22,E33,E12,E13,E23,SMISES
 ZONE, T="0.5550D+01" F=FEPOINT, I=   12 J=    2 ET=BRICK
   0.0000000000E+00   0.0000000000E+00   0.0000000000E+00   0.0000000000E+00   0.0000000000E+00   0.0000000000E+00   0.0000000000E+00   0.0000000000E+00   0.0000000000E+00   0.1250000002E+00  -0.4280787109E-13  -0.5943932847E-13   0.4991611548E-17  -0.3375899339E-14   0.1025565408E-13   0.5025000008E-01  -0.2512475004E-01  -0.2512475004E-01   0.8430244133E-17  -0.2300839202E-15  -0.2604572216E-14   0.1250000002E+00
   0.1050250000E+01   0.0000000000E+00   0.3700195132E-15  -0.2250000000E-02   0.0000000000E+00   0.3799818705E-18   0.5250000000E-01   0.0000000000E+00   0.3696395313E-15   0.1250000002E+00  -0.7831126403E-13  -0.9541849962E-13  -0.2026139340E-14  -0.2878357740E-14   0.9922617966E-14   0.5025000008E-01  -0.2512475004E-01  -0.2512475004E-01  -0.1296481259E-14   0.4193808129E-15  -0.2427868416E-14   0.1250000002E+00
   0.1050250000E+01   0.9748752500E+00  -0.8478111024E-15  -0.2250000000E-02   0.1122750000E-02   0.1198998852E-18   0.5250000000E-01  -0.2624750000E-01  -0.8479310022E-15   0.1250000002E+00   0.2895128563E-13   0.7531124488E-14  -0.3079794580E-14   0.1209430175E-14  -0.7934549462E-14   0.5025000007E-01  -0.2512475004E-01  -0.2512475004E-01  -0.5026830332E-15   0.4824055522E-15  -0.2610370057E-15   0.1250000002E+00
   0.0000000000E+00   0.9748752500E+00  -0.1306032264E-14   0.0000000000E+00   0.1122750000E-02   0.1598279924E-18   0.0000000000E+00  -0.2624750000E-01  -0.1306192092E-14   0.1250000002E+00  -0.5865881480E-14  -0.2567597628E-13   0.1584194038E-14  -0.4052644177E-14  -0.6587645409E-14   0.5025000007E-01  -0.2512475004E-01  -0.2512475004E-01  -0.6815818275E-15  -0.2325378004E-16  -0.3918700250E-15   0.1250000002E+00
   0.0000000000E+00   0.0000000000E+00   0.9748752500E+00   0.0000000000E+00   0.0000000000E+00   0.1122750000E-02   0.0000000000E+00   0.0000000000E+00  -0.2624750000E-01   0.1250000002E+00   0.3884142228E-13   0.5930887948E-13  -0.1584111975E-16  -0.4918406849E-14   0.8052228453E-14   0.5025000007E-01  -0.2512475004E-01  -0.2512475004E-01   0.4280992766E-17   0.5325496536E-15  -0.1325447505E-14   0.1250000002E+00
   0.1050250000E+01   0.0000000000E+00   0.9748752500E+00  -0.2250000000E-02   0.0000000000E+00   0.1122750000E-02   0.5250000000E-01   0.0000000000E+00  -0.2624750000E-01   0.1250000002E+00  -0.8726756007E-14   0.9279392834E-14   0.2880248084E-14  -0.4332345903E-15   0.7773508589E-14   0.5025000007E-01  -0.2512475004E-01  -0.2512475004E-01  -0.1301849461E-14  -0.3690452617E-15  -0.1240684600E-14   0.1250000002E+00
   0.1050250000E+01   0.9748752500E+00   0.9748752500E+00  -0.2250000000E-02   0.1122750000E-02   0.1122750000E-02   0.5250000000E-01  -0.2624750000E-01  -0.2624750000E-01   0.1250000002E+00  -0.1143919817E-13   0.2477650548E-14   0.2745306472E-14   0.1976194259E-14  -0.1027708779E-13   0.5025000007E-01  -0.2512475003E-01  -0.2512475003E-01  -0.5049119686E-15  -0.3014128342E-15   0.9643280701E-15   0.1250000002E+00
   0.0000000000E+00   0.9748752500E+00   0.9748752500E+00   0.0000000000E+00   0.1122750000E-02   0.1122750000E-02   0.0000000000E+00  -0.2624750000E-01  -0.2624750000E-01   0.1250000002E+00   0.2708519410E-13   0.4308768037E-13   0.4267923630E-15  -0.3896152365E-14  -0.9707500407E-14   0.5025000007E-01  -0.2512475003E-01  -0.2512475003E-01  -0.7289173150E-15   0.5949299583E-15   0.9094423894E-15   0.1250000002E+00
   0.2100500000E+01   0.0000000000E+00   0.2698324803E-14  -0.4500000000E-02   0.0000000000E+00  -0.1735286419E-19   0.1050000000E+00   0.0000000000E+00   0.2698342156E-14   0.1250000002E+00  -0.4301149380E-13  -0.5335678061E-13   0.4635332293E-14   0.6337563416E-14   0.9312237523E-14   0.5025000008E-01  -0.2512475004E-01  -0.2512475004E-01  -0.2658371788E-14   0.9341436245E-15  -0.2503628475E-14   0.1250000002E+00
   0.2100500000E+01   0.9748752500E+00   0.1447926792E-14  -0.4500000000E-02   0.1122750000E-02   0.3042289192E-18   0.1050000000E+00  -0.2624750000E-01   0.1447622563E-14   0.1250000002E+00  -0.2188749792E-13  -0.3723274756E-13   0.1380964813E-14   0.1482726483E-14  -0.5938017303E-14   0.5025000007E-01  -0.2512475004E-01  -0.2512475004E-01  -0.3689234389E-15   0.9511948004E-15  -0.2895544040E-15   0.1250000002E+00
   0.2100500000E+01   0.0000000000E+00   0.9748752500E+00  -0.4500000000E-02   0.0000000000E+00   0.1122750000E-02   0.1050000000E+00   0.0000000000E+00  -0.2624750000E-01   0.1250000002E+00   0.1004385209E-12   0.1235018058E-12   0.6202430188E-14   0.2018784650E-14   0.5297189082E-14   0.5025000007E-01  -0.2512475004E-01  -0.2512475004E-01  -0.2691499865E-14  -0.1231399280E-14  -0.1206503471E-14   0.1250000002E+00
   0.2100500000E+01   0.9748752500E+00   0.9748752500E+00  -0.4500000000E-02   0.1122750000E-02   0.1122750000E-02   0.1050000000E+00  -0.2624750000E-01  -0.2624750000E-01   0.1250000002E+00  -0.2978658968E-13  -0.1456873709E-13   0.4814261454E-14   0.7072423755E-14  -0.9832271023E-14   0.5025000006E-01  -0.2512475003E-01  -0.2512475003E-01  -0.3480093842E-15  -0.1418773581E-14   0.9651278308E-15   0.1250000002E+00
     1     2     3     4     5     6     7     8
     2     9    10     3     6    11    12     7
 VARIABLES = X,Y,Z,DU1,DU2,DU3,U1,U2,U3,S11,S22,S33,S12,S13,S23,E11,E22,E33,E12,E13,E23,SMISES
 ZONE, T="0.5600D+01" F=FEPOINT, I=   12 J=    2 ET=BRICK
   0.0000000000E+00   0.0000000000E+00   0.0000000000E+00   0.0000000000E+00   0.0000000000E+00   0.0000000000E+00   0.0000000000E+00   0.0000000000E+00   0.0000000000E+00  -0.1000000002E+01   0.5501307628E-14  -0.1125702305E-13  -0.2383744479E-16  -0.3502023516E-14   0.1037091328E-13   0.4800000008E-01  -0.2400200004E-01  -0.2400200004E-01  -0.4850106440E-17  -0.2467729076E-15  -0.2606387192E-14   0.1000000002E+01
   0.1048000000E+01   0.0000000000E+00   0.3694754951E-15  -0.2250000000E-02   0.0000000000E+00  -0.5440180369E-18   0.5025000000E-01   0.0000000000E+00   0.3700195132E-15  -0.1000000002E+01   0.2327257913E-14  -0.1452768330E-13  -0.2127923086E-14  -0.2958468612E-14   0.9974764472E-14   0.4800000007E-01  -0.2400200004E-01  -0.2400200004E-01  -0.1279663999E-14   0.4413532530E-15  -0.2439118860E-14   0.1000000002E+01
   0.1048000000E+01   0.9759980000E+00  -0.8478231823E-15  -0.2250000000E-02   0.1122750000E-02  -0.1207999487E-19   0.5025000000E-01  -0.2512475000E-01  -0.8478111024E-15  -0.1000000001E+01  -0.8563796361E-14  -0.2990940999E-13  -0.3214616833E-14   0.1338897448E-14  -0.7758324734E-14   0.4800000007E-01  -0.2400200003E-01  -0.2400200003E-01  -0.4847982094E-15   0.4917131742E-15  -0.2453866197E-15   0.1000000001E+01
   0.0000000000E+00   0.9759980000E+00  -0.1305574923E-14   0.0000000000E+00   0.1122750000E-02   0.4573413332E-18   0.0000000000E+00  -0.2512475000E-01  -0.1306032264E-14  -0.1000000001E+01  -0.3664222424E-13  -0.5654123969E-13   0.1530073040E-14  -0.4126313852E-14  -0.6736954420E-14   0.4800000007E-01  -0.2400200003E-01  -0.2400200003E-01  -0.6874785420E-15  -0.7083942616E-17  -0.4041874208E-15   0.1000000001E+01
   0.0000000000E+00   0.0000000000E+00   0.9759980000E+00   0.0000000000E+00   0.0000000000E+00   0.1122750000E-02   0.0000000000E+00   0.0000000000E+00  -0.2512475000E-01  -0.1000000001E+01  -0.8852956182E-14   0.1181155168E-13   0.8004065341E-17  -0.4841827379E-14   0.8146507561E-14   0.4800000007E-01  -0.2400200003E-01  -0.2400200003E-01   0.3171054604E-17   0.5261020714E-15  -0.1313925873E-14   0.1000000001E+01
   0.1048000000E+01   0.0000000000E+00   0.9759980000E+00  -0.2250000000E-02   0.0000000000E+00   0.1122750000E-02   0.5025000000E-01   0.0000000000E+00  -0.2512475000E-01  -0.1000000001E+01   0.4649519628E-13   0.6464886663E-13   0.2812155202E-14  -0.4266351784E-15   0.7856799014E-14   0.4800000007E-01  -0.2400200003E-01  -0.2400200003E-01  -0.1287932975E-14  -0.3545127611E-15  -0.1216834511E-14   0.1000000001E+01
   0.1048000000E+01   0.9759980000E+00   0.9759980000E+00  -0.2250000000E-02   0.1122750000E-02   0.1122750000E-02   0.5025000000E-01  -0.2512475000E-01  -0.2512475000E-01  -0.1000000001E+01   0.3391751238E-13   0.4781835381E-13   0.2860869957E-14   0.2105398598E-14  -0.1022718613E-13   0.4800000006E-01  -0.2400200003E-01  -0.2400200003E-01  -0.4972955898E-15  -0.2961651504E-15   0.9248014473E-15   0.1000000001E+01
   0.0000000000E+00   0.9759980000E+00   0.9759980000E+00   0.0000000000E+00   0.1122750000E-02   0.1122750000E-02   0.0000000000E+00  -0.2512475000E-01  -0.2512475000E-01  -0.1000000001E+01   0.8776175946E-14   0.2501315512E-13   0.6456736034E-15  -0.3967977881E-14  -0.9805688890E-14   0.4800000006E-01  -0.2400200003E-01  -0.2400200003E-01  -0.7337644989E-15   0.6079700135E-15   0.8961318089E-15   0.1000000001E+01
   0.2096000000E+01   0.0000000000E+00   0.2698156561E-14  -0.4500000000E-02   0.0000000000E+00  -0.1682426101E-18   0.1005000000E+00   0.0000000000E+00   0.2698324803E-14  -0.1000000002E+01   0.3094135285E-13   0.2012004525E-13   0.4699177905E-14   0.6335815601E-14   0.9216951756E-14   0.4800000007E-01  -0.2400200004E-01  -0.2400200004E-01  -0.2707087101E-14   0.1020988512E-14  -0.2500081752E-14   0.1000000002E+01
   0.2096000000E+01   0.9759980000E+00   0.1447239768E-14  -0.4500000000E-02   0.1122750000E-02  -0.6870232066E-18   0.1005000000E+00  -0.2512475000E-01   0.1447926792E-14  -0.1000000001E+01   0.5708885552E-13   0.4156870856E-13   0.1618729879E-14   0.1378738502E-14  -0.6206157685E-14   0.4800000007E-01  -0.2400200003E-01  -0.2400200003E-01  -0.3858029739E-15   0.8720497360E-15  -0.3017531573E-15   0.1000000001E+01
   0.2096000000E+01   0.0000000000E+00   0.9759980000E+00  -0.4500000000E-02   0.0000000000E+00   0.1122750000E-02   0.1005000000E+00   0.0000000000E+00  -0.2512475000E-01  -0.1000000001E+01  -0.5226240402E-13  -0.2918097290E-13   0.6093913171E-14   0.1784970781E-14   0.5399711136E-14   0.4800000007E-01  -0.2400200003E-01  -0.2400200003E-01  -0.2660441750E-14  -0.1254058404E-14  -0.1240429450E-14   0.1000000001E+01
   0.2096000000E+01   0.9759980000E+00   0.9759980000E+00  -0.4500000000E-02   0.1122750000E-02   0.1122750000E-02   0.1005000000E+00  -0.2512475000E-01  -0.2512475000E-01  -0.1000000001E+01  -0.6935816520E-13  -0.5382815196E-13   0.4734547921E-14   0.6968848730E-14  -0.9890359887E-14   0.4800000006E-01  -0.2400200003E-01  -0.2400200003E-01  -0.3349261130E-15  -0.1373070842E-14   0.1026830591E-14   0.1000000001E+01
     1     2     3     4     5     6     7     8
     2     9    10     3     6    11    12     7
 VARIABLES = X,Y,Z,DU1,DU2,DU3,U1,U2,U3,S11,S22,S33,S12,S13,S23,E11,E22,E33,E12,E13,E23,SMISES
 ZONE, T="0.5650D+01" F=FEPOINT, I=   12 J=    2 ET=BRICK
   0.0000000000E+00   0.0000000000E+00   0.0000000000E+00   0.0000000000E+00   0.0000000000E+00   0.0000000000E+00   0.0000000000E+00   0.0000000000E+00   0.0000000000E+00  -0.2125000003E+01  -0.1415089431E-12  -0.1582256404E-12  -0.3203100953E-16  -0.3378579451E-14   0.1034144455E-13   0.4575000007E-01  -0.2287925004E-01  -0.2287925004E-01  -0.4269599403E-17  -0.2458090206E-15  -0.2604838987E-14   0.2125000003E+01
   0.1045750000E+01   0.0000000000E+00   0.3700557280E-15  -0.2250000000E-02   0.0000000000E+00   0.5802328735E-18   0.4800000000E-01   0.0000000000E+00   0.3694754951E-15  -0.2125000003E+01  -0.5350195733E-13  -0.7058910237E-13  -0.1875904006E-14  -0.2741683069E-14   0.9843745040E-14   0.4575000007E-01  -0.2287925004E-01  -0.2287925004E-01  -0.1285869992E-14   0.4270634090E-15  -0.2443950248E-14   0.2125000003E+01
   0.1045750000E+01   0.9771207500E+00  -0.8480296026E-15  -0.2250000000E-02   0.1122750000E-02  -0.2064202160E-18   0.4800000000E-01  -0.2400200000E-01  -0.8478231823E-15  -0.2125000003E+01   0.1019952816E-12   0.8054880494E-13  -0.3069943712E-14   0.1206821007E-14  -0.7888089084E-14   0.4575000007E-01  -0.2287925003E-01  -0.2287925003E-01  -0.4966945704E-15   0.4790543042E-15  -0.2491520429E-15   0.2125000003E+01
   0.0000000000E+00   0.9771207500E+00  -0.1305808696E-14   0.0000000000E+00   0.1122750000E-02  -0.2337730838E-18   0.0000000000E+00  -0.2400200000E-01  -0.1305574923E-14  -0.2125000003E+01   0.2366399650E-13   0.3813055104E-14   0.1612834860E-14  -0.4175716260E-14  -0.6744857969E-14   0.4575000007E-01  -0.2287925003E-01  -0.2287925003E-01  -0.6853954386E-15   0.9334212355E-17  -0.3973928909E-15   0.2125000003E+01
   0.0000000000E+00   0.0000000000E+00   0.9771207500E+00   0.0000000000E+00   0.0000000000E+00   0.1122750000E-02   0.0000000000E+00   0.0000000000E+00  -0.2400200000E-01  -0.2125000003E+01   0.9505240070E-13   0.1157690659E-12   0.2173296236E-16  -0.4855605389E-14   0.8152979829E-14   0.4575000007E-01  -0.2287925003E-01  -0.2287925003E-01   0.2560073509E-17   0.5326780200E-15  -0.1321295928E-14   0.2125000003E+01
   0.1045750000E+01   0.0000000000E+00   0.9771207500E+00  -0.2250000000E-02   0.0000000000E+00   0.1122750000E-02   0.4800000000E-01   0.0000000000E+00  -0.2400200000E-01  -0.2125000003E+01   0.5015104736E-13   0.6819568816E-13   0.2639286541E-14  -0.2832017169E-15   0.7779124975E-14   0.4575000007E-01  -0.2287925003E-01  -0.2287925003E-01  -0.1286452057E-14  -0.3795727095E-15  -0.1232747844E-14   0.2125000003E+01
   0.1045750000E+01   0.9771207500E+00   0.9771207500E+00  -0.2250000000E-02   0.1122750000E-02   0.1122750000E-02   0.4800000000E-01  -0.2400200000E-01  -0.2400200000E-01  -0.2125000003E+01  -0.6625297664E-13  -0.5241309070E-13   0.2798562831E-14   0.1988958758E-14  -0.1030950875E-13   0.4575000006E-01  -0.2287925003E-01  -0.2287925003E-01  -0.4771345543E-15  -0.2869627285E-15   0.9606170906E-15   0.2125000003E+01
   0.0000000000E+00   0.9771207500E+00   0.9771207500E+00   0.0000000000E+00   0.1122750000E-02   0.1122750000E-02   0.0000000000E+00  -0.2400200000E-01  -0.2400200000E-01  -0.2125000003E+01  -0.3225475782E-13  -0.1611455845E-13   0.5380353265E-15  -0.4105031930E-14  -0.9672021649E-14   0.4575000006E-01  -0.2287925003E-01  -0.2287925003E-01  -0.7357338102E-15   0.6061284295E-15   0.8670340601E-15   0.2125000003E+01
   0.2091500000E+01   0.0000000000E+00   0.2699063803E-14  -0.4500000000E-02   0.0000000000E+00   0.9072420694E-18   0.9600000000E-01   0.0000000000E+00   0.2698156561E-14  -0.2125000003E+01  -0.2330278165E-13  -0.3371074480E-13   0.5065323475E-14   0.6472941618E-14   0.9133020505E-14   0.4575000007E-01  -0.2287925003E-01  -0.2287925003E-01  -0.2686800345E-14   0.9115322756E-15  -0.2494389273E-14   0.2125000003E+01
   0.2091500000E+01   0.9771207500E+00   0.1447735360E-14  -0.4500000000E-02   0.1122750000E-02   0.4955915402E-18   0.9600000000E-01  -0.2400200000E-01   0.1447239768E-14  -0.2125000003E+01   0.1289426801E-12   0.1139255850E-12   0.1713323123E-14   0.9858600693E-15  -0.5857547004E-14   0.4575000006E-01  -0.2287925003E-01  -0.2287925003E-01  -0.3992079665E-15   0.9264362512E-15  -0.2968095893E-15   0.2125000003E+01
   0.2091500000E+01   0.0000000000E+00   0.9771207500E+00  -0.4500000000E-02   0.0000000000E+00   0.1122750000E-02   0.9600000000E-01   0.0000000000E+00  -0.2400200000E-01  -0.2125000003E+01   0.3413492020E-13   0.5686631980E-13   0.5898746197E-14   0.2214318191E-14   0.5372510644E-14   0.4575000006E-01  -0.2287925003E-01  -0.2287925003E-01  -0.2659034828E-14  -0.1235448517E-14  -0.1225673662E-14   0.2125000003E+01
   0.2091500000E+01   0.9771207500E+00   0.9771207500E+00  -0.4500000000E-02   0.1122750000E-02   0.1122750000E-02   0.9600000000E-01  -0.2400200000E-01  -0.2400200000E-01  -0.2125000003E+01  -0.4648160812E-13  -0.3122307460E-13   0.4546124072E-14   0.6579663195E-14  -0.9578920371E-14   0.4575000006E-01  -0.2287925003E-01  -0.2287925003E-01  -0.3189188286E-15  -0.1438307164E-14   0.9949864230E-15   0.2125000003E+01
     1     2     3     4     5     6     7     8
     2     9    10     3     6    11    12     7
 VARIABLES = X,Y,Z,DU1,DU2,DU3,U1,U2,U3,S11,S22,S33,S12,S13,S23,E11,E22,E33,E12,E13,E23,SMISES
 ZONE, T="0.5700D+01" F=FEPOINT, I=   12 J=    2 ET=BRICK
   0.0000000000E+00   0.0000000000E+00   0.0000000000E+00   0.0000000000E+00   0.0000000000E+00   0.0000000000E+00   0.0000000000E+00   0.0000000000E+00   0.0000000000E+00  -0.3250000005E+01  -0.4914731990E-13  -0.6607862473E-13  -0.5951379072E-16  -0.3389743985E-14   0.1041920878E-13   0.4350000007E-01  -0.2175650003E-01  -0.2175650003E-01  -0.3834703909E-17  -0.2426713255E-15  -0.2617695894E-14   0.3250000005E+01
   0.1043500000E+01   0.0000000000E+00   0.3697033602E-15  -0.2250000000E-02   0.0000000000E+00  -0.3523678214E-18   0.4575000000E-01   0.0000000000E+00   0.3700557280E-15  -0.3250000005E+01  -0.4962097688E-13  -0.6663773660E-13  -0.2168724362E-14  -0.3095406544E-14   0.9979463224E-14   0.4350000007E-01  -0.2175650003E-01  -0.2175650003E-01  -0.1287709156E-14   0.4118262075E-15  -0.2424609963E-14   0.3250000005E+01
   0.1043500000E+01   0.9782435000E+00  -0.8476042848E-15  -0.2250000000E-02   0.1122750000E-02   0.4253177530E-18   0.4575000000E-01  -0.2287925000E-01  -0.8480296026E-15  -0.3250000005E+01  -0.5701919427E-13  -0.7813260409E-13  -0.3416328996E-14   0.1427685093E-14  -0.7894285582E-14   0.4350000006E-01  -0.2175650003E-01  -0.2175650003E-01  -0.4896156027E-15   0.5107924208E-15  -0.2593847851E-15   0.3250000005E+01
   0.0000000000E+00   0.9782435000E+00  -0.1305269638E-14   0.0000000000E+00   0.1122750000E-02   0.5390583731E-18   0.0000000000E+00  -0.2287925000E-01  -0.1305808696E-14  -0.3250000005E+01   0.4516090611E-13   0.2484210551E-13   0.1389508430E-14  -0.4163146261E-14  -0.6824237577E-14   0.4350000006E-01  -0.2175650003E-01  -0.2175650003E-01  -0.6976388433E-15  -0.8499195714E-17  -0.3958366505E-15   0.3250000005E+01
   0.0000000000E+00   0.0000000000E+00   0.9782435000E+00   0.0000000000E+00   0.0000000000E+00   0.1122750000E-02   0.0000000000E+00   0.0000000000E+00  -0.2287925000E-01  -0.3250000005E+01   0.3923473477E-13   0.6017543727E-13   0.4004548950E-16  -0.4934756767E-14   0.8245787383E-14   0.4350000006E-01  -0.2175650003E-01  -0.2175650003E-01  -0.3471083066E-17   0.5203913258E-15  -0.1295617414E-14   0.3250000005E+01
   0.1043500000E+01   0.0000000000E+00   0.9782435000E+00  -0.2250000000E-02   0.0000000000E+00   0.1122750000E-02   0.4575000000E-01   0.0000000000E+00  -0.2287925000E-01  -0.3250000005E+01  -0.2930561331E-13  -0.1094676530E-13   0.2803181666E-14  -0.6918062395E-15   0.7971748627E-14   0.4350000006E-01  -0.2175650003E-01  -0.2175650003E-01  -0.1275116414E-14  -0.3601838109E-15  -0.1243951058E-14   0.3250000005E+01
   0.1043500000E+01   0.9782435000E+00   0.9782435000E+00  -0.2250000000E-02   0.1122750000E-02   0.1122750000E-02   0.4575000000E-01  -0.2287925000E-01  -0.2287925000E-01  -0.3250000004E+01   0.7150147969E-13   0.8546327661E-13   0.2995191881E-14   0.2068981425E-14  -0.1020338408E-13   0.4350000006E-01  -0.2175650003E-01  -0.2175650003E-01  -0.4775341747E-15  -0.3150988366E-15   0.9434331655E-15   0.3250000004E+01
   0.0000000000E+00   0.9782435000E+00   0.9782435000E+00   0.0000000000E+00   0.1122750000E-02   0.1122750000E-02   0.0000000000E+00  -0.2287925000E-01  -0.2287925000E-01  -0.3250000004E+01  -0.2403907806E-13  -0.7911760107E-14   0.5119694935E-15  -0.3976701589E-14  -0.9834732979E-14   0.4350000006E-01  -0.2175650003E-01  -0.2175650003E-01  -0.7262578205E-15   0.6179589448E-15   0.8958565790E-15   0.3250000004E+01
   0.2087000000E+01   0.0000000000E+00   0.2697653329E-14  -0.4500000000E-02   0.0000000000E+00  -0.1410473585E-17   0.9150000000E-01   0.0000000000E+00   0.2699063803E-14  -0.3250000005E+01   0.1290771072E-12   0.1179737959E-12   0.4311380280E-14   0.6201989058E-14   0.9070142177E-14   0.4350000007E-01  -0.2175650003E-01  -0.2175650003E-01  -0.2673655144E-14   0.9870329224E-15  -0.2512260934E-14   0.3250000005E+01
   0.2087000000E+01   0.9782435000E+00   0.1446097687E-14  -0.4500000000E-02   0.1122750000E-02  -0.1637672607E-17   0.9150000000E-01  -0.2287925000E-01   0.1447735360E-14  -0.3250000005E+01  -0.8069658158E-13  -0.9654036556E-13   0.1190684475E-14   0.1710287434E-14  -0.6225561950E-14   0.4350000006E-01  -0.2175650003E-01  -0.2175650003E-01  -0.3553850194E-15   0.7817373418E-15  -0.2903964813E-15   0.3250000005E+01
   0.2087000000E+01   0.0000000000E+00   0.9782435000E+00  -0.4500000000E-02   0.0000000000E+00   0.1122750000E-02   0.9150000000E-01   0.0000000000E+00  -0.2287925000E-01  -0.3250000005E+01  -0.1032760965E-12  -0.8010260052E-13   0.6345500547E-14   0.2042151829E-14   0.5338441364E-14   0.4350000006E-01  -0.2175650003E-01  -0.2175650003E-01  -0.2646087360E-14  -0.1345503086E-14  -0.1210308368E-14   0.3250000005E+01
   0.2087000000E+01   0.9782435000E+00   0.9782435000E+00  -0.4500000000E-02   0.1122750000E-02   0.1122750000E-02   0.9150000000E-01  -0.2287925000E-01  -0.2287925000E-01  -0.3250000004E+01   0.7709575727E-13   0.9289253531E-13   0.4875301250E-14   0.7023742445E-14  -0.1007303868E-13   0.4350000006E-01  -0.2175650003E-01  -0.2175650003E-01  -0.3103499901E-15  -0.1284919612E-14   0.9727408058E-15   0.3250000004E+01
     1     2     3     4     5     6     7     8
     2     9    10     3     6    11    12     7
 VARIABLES = X,Y,Z,DU1,DU2,DU3,U1,U2,U3,S11,S22,S33,S12,S13,S23,E11,E22,E33,E12,E13,E23,SMISES
 ZONE, T="0.5750D+01" F=FEPOINT, I=   12 J=    2 ET=BRICK
   0.0000000000E+00   0.0000000000E+00   0.0000000000E+00   0.0000000000E+00   0.0000000000E+00   0.0000000000E+00   0.0000000000E+00   0.0000000000E+00   0.0000000000E+00  -0.4375000007E+01  -0.2495547722E-13  -0.4227954103E-13  -0.8508267159E-16  -0.3494517794E-14   0.1077137514E-13   0.4125000006E-01  -0.2063375003E-01  -0.2063375003E-01   0.5936837540E-17  -0.2533455758E-15  -0.2617764638E-14   0.4375000007E+01
   0.1041250000E+01   0.0000000000E+00   0.3679869026E-15  -0.2250000000E-02   0.0000000000E+00  -0.1716457588E-17   0.4350000000E-01   0.0000000000E+00   0.3697033602E-15  -0.4375000007E+01  -0.2338225048E-13  -0.4094070631E-13  -0.2175856869E-14  -0.3200682734E-14   0.1035025005E-13   0.4125000006E-01  -0.2063375003E-01  -0.2063375003E-01  -0.1318967040E-14   0.4149206363E-15  -0.2425589059E-14   0.4375000007E+01
   0.1041250000E+01   0.9793662500E+00  -0.8470766547E-15  -0.2250000000E-02   0.1122750000E-02   0.5276301143E-18   0.4350000000E-01  -0.2175650000E-01  -0.8476042848E-15  -0.4375000006E+01   0.4648080115E-13   0.2420418399E-13  -0.3427787164E-14   0.1500139747E-14  -0.8356011584E-14   0.4125000006E-01  -0.2063375003E-01  -0.2063375003E-01  -0.5025473952E-15   0.4867619506E-15  -0.2530501559E-15   0.4375000006E+01
   0.0000000000E+00   0.9793662500E+00  -0.1303176505E-14   0.0000000000E+00   0.1122750000E-02   0.2093132826E-17   0.0000000000E+00  -0.2175650000E-01  -0.1305269638E-14  -0.4375000006E+01   0.1080600996E-13  -0.9761327460E-14   0.1712752004E-14  -0.4284723690E-14  -0.7047209134E-14   0.4125000006E-01  -0.2063375003E-01  -0.2063375003E-01  -0.6836673608E-15   0.3555403438E-17  -0.3954616278E-15   0.4375000006E+01
   0.0000000000E+00   0.0000000000E+00   0.9793662500E+00   0.0000000000E+00   0.0000000000E+00   0.1122750000E-02   0.0000000000E+00   0.0000000000E+00  -0.2175650000E-01  -0.4375000006E+01   0.1805805736E-14   0.2341483022E-13   0.4508198813E-16  -0.4890518787E-14   0.8628665077E-14   0.4125000006E-01  -0.2063375003E-01  -0.2063375003E-01  -0.3790391093E-17   0.5302616292E-15  -0.1293140254E-14   0.4375000006E+01
   0.1041250000E+01   0.0000000000E+00   0.9793662500E+00  -0.2250000000E-02   0.0000000000E+00   0.1122750000E-02   0.4350000000E-01   0.0000000000E+00  -0.2175650000E-01  -0.4375000006E+01   0.7688111546E-13   0.9594819302E-13   0.2798889805E-14  -0.8461236909E-15   0.8209021876E-14   0.4125000006E-01  -0.2063375003E-01  -0.2063375003E-01  -0.1253024906E-14  -0.3989916520E-15  -0.1236829555E-14   0.4375000006E+01
   0.1041250000E+01   0.9793662500E+00   0.9793662500E+00  -0.2250000000E-02   0.1122750000E-02   0.1122750000E-02   0.4350000000E-01  -0.2175650000E-01  -0.2175650000E-01  -0.4375000006E+01  -0.1595578897E-13  -0.1119229087E-14   0.3088029899E-14   0.1976245987E-14  -0.1083170668E-13   0.4125000005E-01  -0.2063375003E-01  -0.2063375003E-01  -0.4577191332E-15  -0.2569314095E-15   0.9461421554E-15   0.4375000006E+01
   0.0000000000E+00   0.9793662500E+00   0.9793662500E+00   0.0000000000E+00   0.1122750000E-02   0.1122750000E-02   0.0000000000E+00  -0.2175650000E-01  -0.2175650000E-01  -0.4375000006E+01   0.1564903745E-13   0.3240603317E-13   0.4831179969E-15  -0.4210877997E-14  -0.1004704097E-13   0.4125000006E-01  -0.2063375003E-01  -0.2063375003E-01  -0.7382653994E-15   0.5947786607E-15   0.8916645910E-15   0.4375000006E+01
   0.2082500000E+01   0.0000000000E+00   0.2689781697E-14  -0.4500000000E-02   0.0000000000E+00  -0.7871632636E-17   0.8700000000E-01   0.0000000000E+00   0.2697653329E-14  -0.4375000007E+01  -0.6714482902E-13  -0.7860570665E-13   0.4931652550E-14   0.6750997209E-14   0.9564385851E-14   0.4125000006E-01  -0.2063375003E-01  -0.2063375003E-01  -0.2665614539E-14   0.8647264855E-15  -0.2503558653E-14   0.4375000007E+01
   0.2082500000E+01   0.9793662500E+00   0.1441179240E-14  -0.4500000000E-02   0.1122750000E-02  -0.4918446890E-17   0.8700000000E-01  -0.2175650000E-01   0.1446097687E-14  -0.4375000006E+01   0.4315446551E-13   0.2647582612E-13   0.1662578929E-14   0.1579992000E-14  -0.6358451114E-14   0.4125000006E-01  -0.2063375003E-01  -0.2063375003E-01  -0.3931649487E-15   0.9903351398E-15  -0.2901904999E-15   0.4375000006E+01
   0.2082500000E+01   0.0000000000E+00   0.9793662500E+00  -0.4500000000E-02   0.0000000000E+00   0.1122750000E-02   0.8700000000E-01   0.0000000000E+00  -0.2175650000E-01  -0.4375000006E+01   0.1382683796E-12   0.1621007677E-12   0.5835045495E-14   0.2648030940E-14   0.5776167176E-14   0.4125000006E-01  -0.2063375003E-01  -0.2063375003E-01  -0.2680845047E-14  -0.1248355601E-14  -0.1212618114E-14   0.4375000006E+01
   0.2082500000E+01   0.9793662500E+00   0.9793662500E+00  -0.4500000000E-02   0.1122750000E-02   0.1122750000E-02   0.8700000000E-01  -0.2175650000E-01  -0.2175650000E-01  -0.4375000006E+01  -0.3760732222E-13  -0.2102376284E-13   0.4502545206E-14   0.6920930721E-14  -0.1015592928E-13   0.4125000005E-01  -0.2063375003E-01  -0.2063375003E-01  -0.3361764629E-15  -0.1374630548E-14   0.1015593655E-14   0.4375000006E+01
     1     2     3     4     5     6     7     8
     2     9    10     3     6    11    12     7
 VARIABLES = X,Y,Z,DU1,DU2,DU3,U1,U2,U3,S11,S22,S33,S12,S13,S23,E11,E22,E33,E12,E13,E23,SMISES
 ZONE, T="0.5800D+01" F=FEPOINT, I=   12 J=    2 ET=BRICK
   0.0000000000E+00   0.0000000000E+00   0.0000000000E+00   0.0000000000E+00   0.0000000000E+00   0.0000000000E+00   0.0000000000E+00   0.0000000000E+00   0.0000000000E+00  -0.5500000009E+01  -0.1192766286E-12  -0.1360129151E-12  -0.5356144131E-16  -0.3332394301E-14   0.1062671144E-13   0.3900000006E-01  -0.1951100003E-01  -0.1951100003E-01  -0.6868137049E-18  -0.2484954656E-15  -0.2606972881E-14   0.5500000009E+01
   0.1039000000E+01   0.0000000000E+00   0.3701282019E-15  -0.2250000000E-02   0.0000000000E+00   0.2141299287E-17   0.4125000000E-01   0.0000000000E+00   0.3679869026E-15  -0.5500000008E+01  -0.1351528924E-13  -0.3060787861E-13  -0.1985294640E-14  -0.3137892456E-14   0.1015579984E-13   0.3900000006E-01  -0.1951100003E-01  -0.1951100003E-01  -0.1300132879E-14   0.4360707785E-15  -0.2431343890E-14   0.5500000008E+01
   0.1039000000E+01   0.9804890000E+00  -0.8460201309E-15  -0.2250000000E-02   0.1122750000E-02   0.1056523791E-17   0.4125000000E-01  -0.2063375000E-01  -0.8470766547E-15  -0.5500000008E+01  -0.2671086417E-13  -0.4878429642E-13  -0.3214968261E-14   0.1314411497E-14  -0.7913163543E-14   0.3900000006E-01  -0.1951100003E-01  -0.1951100003E-01  -0.5034733099E-15   0.4705718087E-15  -0.2571353712E-15   0.5500000008E+01
   0.0000000000E+00   0.9804890000E+00  -0.1304285494E-14   0.0000000000E+00   0.1122750000E-02  -0.1108989145E-17   0.0000000000E+00  -0.2063375000E-01  -0.1303176505E-14  -0.5500000008E+01   0.1519383426E-13  -0.5231273760E-14   0.1716605258E-14  -0.3986640973E-14  -0.6729035365E-14   0.3900000006E-01  -0.1951100003E-01  -0.1951100003E-01  -0.6755353410E-15   0.1759519109E-16  -0.3902457723E-15   0.5500000008E+01
   0.0000000000E+00   0.0000000000E+00   0.9804890000E+00   0.0000000000E+00   0.0000000000E+00   0.1122750000E-02   0.0000000000E+00   0.0000000000E+00  -0.2063375000E-01  -0.5500000008E+01  -0.4476352250E-13  -0.2375569080E-13   0.2397905628E-16  -0.4714133134E-14   0.8168489235E-14   0.3900000006E-01  -0.1951100003E-01  -0.1951100003E-01   0.7110132992E-17   0.5295114226E-15  -0.1312901064E-14   0.5500000008E+01
   0.1039000000E+01   0.0000000000E+00   0.9804890000E+00  -0.2250000000E-02   0.0000000000E+00   0.1122750000E-02   0.4125000000E-01   0.0000000000E+00  -0.2063375000E-01  -0.5500000008E+01  -0.5294241066E-14   0.1315531074E-13   0.2979895283E-14  -0.9691047740E-15   0.7951496688E-14   0.3900000006E-01  -0.1951100003E-01  -0.1951100003E-01  -0.1268347634E-14  -0.3691436273E-15  -0.1239099753E-14   0.5500000008E+01
   0.1039000000E+01   0.9804890000E+00   0.9804890000E+00  -0.2250000000E-02   0.1122750000E-02   0.1122750000E-02   0.4125000000E-01  -0.2063375000E-01  -0.2063375000E-01  -0.5500000007E+01   0.3621364117E-13   0.5016999373E-13   0.3200444712E-14   0.2052098257E-14  -0.1059658824E-13   0.3900000005E-01  -0.1951100003E-01  -0.1951100003E-01  -0.4484100916E-15  -0.2596969052E-15   0.9387336424E-15   0.5500000007E+01
   0.0000000000E+00   0.9804890000E+00   0.9804890000E+00   0.0000000000E+00   0.1122750000E-02   0.1122750000E-02   0.0000000000E+00  -0.2063375000E-01  -0.2063375000E-01  -0.5500000007E+01  -0.4091301704E-13  -0.2520276208E-13   0.5105963007E-15  -0.4056012584E-14  -0.9805291706E-14   0.3900000005E-01  -0.1951100003E-01  -0.1951100003E-01  -0.7443755081E-15   0.5957345079E-15   0.8973779160E-15   0.5500000007E+01
   0.2078000000E+01   0.0000000000E+00   0.2697925472E-14  -0.4500000000E-02   0.0000000000E+00   0.8143775271E-17   0.8250000000E-01   0.0000000000E+00   0.2689781697E-14  -0.5500000008E+01  -0.2809070850E-13  -0.3882303809E-13   0.4923963591E-14   0.6772802481E-14   0.9206027858E-14   0.3900000006E-01  -0.1951100003E-01  -0.1951100003E-01  -0.2703672328E-14   0.8907431544E-15  -0.2503627149E-14   0.5500000008E+01
   0.2078000000E+01   0.9804890000E+00   0.1447045005E-14  -0.4500000000E-02   0.1122750000E-02   0.5865764967E-17   0.8250000000E-01  -0.2063375000E-01   0.1441179240E-14  -0.5500000008E+01  -0.1275070345E-12  -0.1428708072E-12   0.1536854286E-14   0.1304114981E-14  -0.6255386369E-14   0.3900000005E-01  -0.1951100003E-01  -0.1951100003E-01  -0.3874950499E-15   0.9682698837E-15  -0.2628808972E-15   0.5500000008E+01
   0.2078000000E+01   0.0000000000E+00   0.9804890000E+00  -0.4500000000E-02   0.0000000000E+00   0.1122750000E-02   0.8250000000E-01   0.0000000000E+00  -0.2063375000E-01  -0.5500000008E+01  -0.5269404757E-13  -0.2977705936E-13   0.6254393501E-14   0.2076299947E-14   0.5509988722E-14   0.3900000005E-01  -0.1951100003E-01  -0.1951100003E-01  -0.2637131510E-14  -0.1256253801E-14  -0.1216928345E-14   0.5500000008E+01
   0.2078000000E+01   0.9804890000E+00   0.9804890000E+00  -0.4500000000E-02   0.1122750000E-02   0.1122750000E-02   0.8250000000E-01  -0.2063375000E-01  -0.2063375000E-01  -0.5500000007E+01   0.1029156038E-12   0.1191700819E-12   0.4804227341E-14   0.7091967471E-14  -0.9890081296E-14   0.3900000005E-01  -0.1951100002E-01  -0.1951100002E-01  -0.3374059772E-15  -0.1350998850E-14   0.9693482798E-15   0.5500000007E+01
     1     2     3     4     5     6     7     8
     2     9    10     3     6    11    12     7
 VARIABLES = X,Y,Z,DU1,DU2,DU3,U1,U2,U3,S11,S22,S33,S12,S13,S23,E11,E22,E33,E12,E13,E23,SMISES
 ZONE, T="0.5850D+01" F=FEPOINT, I=   12 J=    2 ET=BRICK
   0.0000000000E+00   0.0000000000E+00   0.0000000000E+00   0.0000000000E+00   0.0000000000E+00   0.0000000000E+00   0.0000000000E+00   0.0000000000E+00   0.0000000000E+00  -0.6625000010E+01   0.5798706667E-13   0.4130629144E-13  -0.4105147002E-16  -0.3079481760E-14   0.1038986354E-13   0.3675000006E-01  -0.1838825003E-01  -0.1838825003E-01  -0.6198005422E-17  -0.2465769685E-15  -0.2609860796E-14   0.6625000010E+01
   0.1036750000E+01   0.0000000000E+00   0.3723294195E-15  -0.2250000000E-02   0.0000000000E+00   0.2201217591E-17   0.3900000000E-01   0.0000000000E+00   0.3701282019E-15  -0.6625000010E+01  -0.4812901772E-13  -0.6501842219E-13  -0.2067851231E-14  -0.3103221302E-14   0.9835567518E-14   0.3675000006E-01  -0.1838825003E-01  -0.1838825003E-01  -0.1291705019E-14   0.4263558109E-15  -0.2439142540E-14   0.6625000010E+01
   0.1036750000E+01   0.9816117500E+00  -0.8456323103E-15  -0.2250000000E-02   0.1122750000E-02   0.3878205968E-18   0.3900000000E-01  -0.1951100000E-01  -0.8460201309E-15  -0.6625000009E+01   0.2316551747E-13   0.1506426064E-14  -0.3265974142E-14   0.1233604654E-14  -0.7692108467E-14   0.3675000005E-01  -0.1838825003E-01  -0.1838825003E-01  -0.4842413637E-15   0.4998346352E-15  -0.2449584089E-15   0.6625000009E+01
   0.0000000000E+00   0.9816117500E+00  -0.1305745663E-14   0.0000000000E+00   0.1122750000E-02  -0.1460168992E-17   0.0000000000E+00  -0.1951100000E-01  -0.1304285494E-14  -0.6625000010E+01   0.8902193194E-13   0.6962324616E-13   0.1665598036E-14  -0.3833346787E-14  -0.6517834415E-14   0.3675000005E-01  -0.1838825003E-01  -0.1838825003E-01  -0.6898434426E-15   0.4947354495E-17  -0.3948577357E-15   0.6625000010E+01
   0.0000000000E+00   0.0000000000E+00   0.9816117500E+00   0.0000000000E+00   0.0000000000E+00   0.1122750000E-02   0.0000000000E+00   0.0000000000E+00  -0.1951100000E-01  -0.6625000010E+01   0.3252320007E-13   0.5373674334E-13   0.3729064718E-16  -0.4490821774E-14   0.7891913900E-14   0.3675000005E-01  -0.1838825003E-01  -0.1838825003E-01   0.3733741762E-17   0.5427775079E-15  -0.1312284447E-14   0.6625000010E+01
   0.1036750000E+01   0.0000000000E+00   0.9816117500E+00  -0.2250000000E-02   0.0000000000E+00   0.1122750000E-02   0.3900000000E-01   0.0000000000E+00  -0.1951100000E-01  -0.6625000009E+01   0.6111961846E-13   0.7907355549E-13   0.2677484880E-14  -0.9312070148E-15   0.7619974508E-14   0.3675000005E-01  -0.1838825003E-01  -0.1838825003E-01  -0.1275536194E-14  -0.3742624812E-15  -0.1245887608E-14   0.6625000009E+01
   0.1036750000E+01   0.9816117500E+00   0.9816117500E+00  -0.2250000000E-02   0.1122750000E-02   0.1122750000E-02   0.3900000000E-01  -0.1951100000E-01  -0.1951100000E-01  -0.6625000009E+01  -0.8403147744E-13  -0.7011576189E-13   0.2964851451E-14   0.1956073414E-14  -0.1048354516E-13   0.3675000005E-01  -0.1838825002E-01  -0.1838825002E-01  -0.4755168295E-15  -0.2652723765E-15   0.9412843696E-15   0.6625000009E+01
   0.0000000000E+00   0.9816117500E+00   0.9816117500E+00   0.0000000000E+00   0.1122750000E-02   0.1122750000E-02   0.0000000000E+00  -0.1951100000E-01  -0.1951100000E-01  -0.6625000009E+01  -0.9178175514E-13  -0.7680403367E-13   0.4576670283E-15  -0.4077964317E-14  -0.9559820485E-14   0.3675000005E-01  -0.1838825002E-01  -0.1838825002E-01  -0.7265848105E-15   0.5933284095E-15   0.9052948412E-15   0.6625000009E+01
   0.2073500000E+01   0.0000000000E+00   0.2704606394E-14  -0.4500000000E-02   0.0000000000E+00   0.6680922135E-17   0.7800000000E-01   0.0000000000E+00   0.2697925472E-14  -0.6625000010E+01  -0.3913806285E-13  -0.4962258506E-13   0.5387166121E-14   0.7247088430E-14   0.9232562853E-14   0.3675000006E-01  -0.1838825003E-01  -0.1838825003E-01  -0.2696435296E-14   0.9332135664E-15  -0.2506327744E-14   0.6625000010E+01
   0.2073500000E+01   0.9816117500E+00   0.1453838566E-14  -0.4500000000E-02   0.1122750000E-02   0.6793560570E-17   0.7800000000E-01  -0.1951100000E-01   0.1447045005E-14  -0.6625000009E+01   0.2321790044E-13   0.7374845843E-14   0.2216979506E-14   0.4642035280E-15  -0.5848737147E-14   0.3675000005E-01  -0.1838825003E-01  -0.1838825003E-01  -0.4121409884E-15   0.9156460136E-15  -0.2812435499E-15   0.6625000009E+01
   0.2073500000E+01   0.0000000000E+00   0.9816117500E+00  -0.4500000000E-02   0.0000000000E+00   0.1122750000E-02   0.7800000000E-01   0.0000000000E+00  -0.1951100000E-01  -0.6625000009E+01   0.1276472182E-12   0.1504179914E-12   0.5536162212E-14   0.2194258258E-14   0.5380642358E-14   0.3675000005E-01  -0.1838825003E-01  -0.1838825003E-01  -0.2667003263E-14  -0.1237672046E-14  -0.1209548717E-14   0.6625000009E+01
   0.2073500000E+01   0.9816117500E+00   0.9816117500E+00  -0.4500000000E-02   0.1122750000E-02   0.1122750000E-02   0.7800000000E-01  -0.1951100000E-01  -0.1951100000E-01  -0.6625000008E+01  -0.6908782249E-13  -0.5361740364E-13   0.4141373832E-14   0.6914626234E-14  -0.9601302492E-14   0.3675000005E-01  -0.1838825002E-01  -0.1838825002E-01  -0.3239531874E-15  -0.1341827253E-14   0.1013159980E-14   0.6625000008E+01
     1     2     3     4     5     6     7     8
     2     9    10     3     6    11    12     7
 VARIABLES = X,Y,Z,DU1,DU2,DU3,U1,U2,U3,S11,S22,S33,S12,S13,S23,E11,E22,E33,E12,E13,E23,SMISES
 ZONE, T="0.5900D+01" F=FEPOINT, I=   12 J=    2 ET=BRICK
   0.0000000000E+00   0.0000000000E+00   0.0000000000E+00   0.0000000000E+00   0.0000000000E+00   0.0000000000E+00   0.0000000000E+00   0.0000000000E+00   0.0000000000E+00  -0.7750000012E+01   0.2552258814E-12   0.2554076017E-12   0.7572974012E-18   0.4562015845E-13   0.6345982921E-13   0.2950000005E-01  -0.1476550002E-01  -0.1476550002E-01   0.5785950646E-17   0.4932981310E-15  -0.1724814006E-14   0.7750000012E+01
   0.1029500000E+01   0.0000000000E+00   0.5696038071E-15  -0.7250000000E-02   0.0000000000E+00   0.1972743877E-15   0.3675000000E-01   0.0000000000E+00   0.3723294195E-15  -0.7750000012E+01  -0.5522945762E-12  -0.5996894813E-12   0.2655911646E-13   0.1124089551E-13   0.2941749436E-13   0.2950000005E-01  -0.1476550002E-01  -0.1476550002E-01  -0.8618751589E-15   0.5801299315E-15  -0.2052333826E-14   0.7750000012E+01
   0.1029500000E+01   0.9852345000E+00  -0.4565543051E-15  -0.7250000000E-02   0.3622750000E-02   0.3890780052E-15   0.3675000000E-01  -0.1838825000E-01  -0.8456323103E-15  -0.7750000011E+01   0.3476841983E-12   0.2411890113E-12   0.1682360330E-13   0.1013502420E-13  -0.9326657690E-14   0.2950000004E-01  -0.1476550002E-01  -0.1476550002E-01  -0.2044384585E-15   0.6418721972E-15  -0.2937715486E-15   0.7750000011E+01
   0.0000000000E+00   0.9852345000E+00  -0.8610292417E-15   0.0000000000E+00   0.3622750000E-02   0.4447164212E-15   0.0000000000E+00  -0.1838825000E-01  -0.1305745663E-14  -0.7750000011E+01   0.1555020131E-12   0.9854598285E-13   0.2245168872E-13  -0.3851554316E-14   0.2354373554E-13   0.2950000004E-01  -0.1476550002E-01  -0.1476550002E-01  -0.3487485902E-15  -0.2249522390E-16   0.4913284248E-16   0.7750000011E+01
   0.0000000000E+00   0.0000000000E+00   0.9852345000E+00   0.0000000000E+00   0.0000000000E+00   0.3622750000E-02   0.0000000000E+00   0.0000000000E+00  -0.1838825000E-01  -0.7750000011E+01   0.1753039120E-12   0.2588699715E-12   0.4493606529E-16   0.2117942711E-13   0.3361876502E-13   0.2950000004E-01  -0.1476550002E-01  -0.1476550002E-01  -0.6358063685E-17   0.8897938188E-15  -0.8822370640E-15   0.7750000011E+01
   0.1029500000E+01   0.0000000000E+00   0.9852345000E+00  -0.7250000000E-02   0.0000000000E+00   0.3622750000E-02   0.3675000000E-01   0.0000000000E+00  -0.1838825000E-01  -0.7750000011E+01   0.1846534304E-12   0.2146508647E-12   0.2943773636E-13   0.2094663802E-13  -0.7015735598E-16   0.2950000004E-01  -0.1476550002E-01  -0.1476550002E-01  -0.8158199151E-15  -0.5840242715E-16  -0.1299134695E-14   0.7750000011E+01
   0.1029500000E+01   0.9852345000E+00   0.9852345000E+00  -0.7250000000E-02   0.3622750000E-02   0.3622750000E-02   0.3675000000E-01  -0.1838825000E-01  -0.1838825000E-01  -0.7750000010E+01  -0.1103160284E-12  -0.1381997669E-12   0.2146776001E-13   0.1846666045E-13  -0.3978939235E-13   0.2950000004E-01  -0.1476550002E-01  -0.1476550002E-01  -0.1779439254E-15  -0.1292196541E-16   0.4533453159E-15   0.7750000010E+01
   0.0000000000E+00   0.9852345000E+00   0.9852345000E+00   0.0000000000E+00   0.3622750000E-02   0.3622750000E-02   0.0000000000E+00  -0.1838825000E-01  -0.1838825000E-01  -0.7750000010E+01  -0.2361052163E-12  -0.2138609523E-12   0.2318655969E-13  -0.2673706652E-13  -0.6057534143E-14   0.2950000004E-01  -0.1476550002E-01  -0.1476550002E-01  -0.3694538083E-15   0.2473158509E-15   0.9057716194E-15   0.7750000010E+01
   0.2059000000E+01   0.0000000000E+00   0.2446932651E-14  -0.1450000000E-01   0.0000000000E+00  -0.2576737433E-15   0.7350000000E-01   0.0000000000E+00   0.2704606394E-14  -0.7750000012E+01  -0.7389192158E-12  -0.6675682921E-12   0.6165941357E-13  -0.1545319554E-13   0.5565726566E-13   0.2950000004E-01  -0.1476550002E-01  -0.1476550002E-01  -0.1733787307E-14   0.5727334920E-15  -0.1717229315E-14   0.7750000012E+01
   0.2059000000E+01   0.9852345000E+00   0.1587991544E-14  -0.1450000000E-01   0.3622750000E-02   0.1341529779E-15   0.7350000000E-01  -0.1838825000E-01   0.1453838566E-14  -0.7750000011E+01   0.7799250223E-12   0.7926513508E-12   0.1999321231E-13   0.1823491427E-13   0.1886124322E-13   0.2950000004E-01  -0.1476550002E-01  -0.1476550002E-01  -0.9981857672E-16   0.1072143671E-14   0.7525811419E-16   0.7750000011E+01
   0.2059000000E+01   0.0000000000E+00   0.9852345000E+00  -0.1450000000E-01   0.0000000000E+00   0.3622750000E-02   0.7350000000E-01   0.0000000000E+00  -0.1838825000E-01  -0.7750000011E+01   0.7701391562E-13   0.2262001995E-12   0.5993384530E-13   0.1811884779E-13   0.2433399457E-13   0.2950000004E-01  -0.1476550002E-01  -0.1476550002E-01  -0.1777512185E-14  -0.9811366583E-15  -0.8890643335E-15   0.7750000011E+01
   0.2059000000E+01   0.9852345000E+00   0.9852345000E+00  -0.1450000000E-01   0.3622750000E-02   0.3622750000E-02   0.7350000000E-01  -0.1838825000E-01  -0.1838825000E-01  -0.7750000010E+01  -0.4454321774E-12  -0.3597859990E-12   0.1956531818E-13   0.6144037792E-13  -0.1223420727E-13   0.2950000004E-01  -0.1476550002E-01  -0.1476550002E-01  -0.7720440218E-16  -0.4906617903E-15   0.9070552226E-15   0.7750000010E+01
     1     2     3     4     5     6     7     8
     2     9    10     3     6    11    12     7
 VARIABLES = X,Y,Z,DU1,DU2,DU3,U1,U2,U3,S11,S22,S33,S12,S13,S23,E11,E22,E33,E12,E13,E23,SMISES
 ZONE, T="0.5950D+01" F=FEPOINT, I=   12 J=    2 ET=BRICK
   0.0000000000E+00   0.0000000000E+00   0.0000000000E+00   0.0000000000E+00   0.0000000000E+00   0.0000000000E+00   0.0000000000E+00   0.0000000000E+00   0.0000000000E+00  -0.8875000014E+01  -0.3337974570E-12  -0.1959965072E-12  -0.2287462150E-16   0.9463592567E-14  -0.3225825092E-14   0.4750000007E-02  -0.2392750004E-02  -0.2392750004E-02   0.2394014261E-17   0.1730453490E-15  -0.2297729427E-14   0.8875000014E+01
   0.1004750000E+01   0.0000000000E+00   0.8610763053E-15  -0.2475000000E-01   0.0000000000E+00   0.2914724982E-15   0.2950000000E-01   0.0000000000E+00   0.5696038071E-15  -0.8875000014E+01   0.6051130714E-12   0.7028563042E-12   0.1645195377E-13   0.2673549287E-13  -0.2739799848E-14   0.4750000007E-02  -0.2392750004E-02  -0.2392750004E-02  -0.6501207364E-15   0.1073262690E-14  -0.2231048308E-14   0.8875000014E+01
   0.1004750000E+01   0.9976072500E+00  -0.2537935845E-15  -0.2475000000E-01   0.1237275000E-01   0.2027607206E-15   0.2950000000E-01  -0.1476550000E-01  -0.4565543051E-15  -0.8875000013E+01  -0.6052399805E-12  -0.5439060717E-12   0.1263673736E-13  -0.4205639017E-13   0.6614136615E-13   0.4750000007E-02  -0.2392750003E-02  -0.2392750003E-02  -0.4842477454E-16  -0.5649712350E-15   0.1422765189E-14   0.8875000013E+01
   0.0000000000E+00   0.9976072500E+00  -0.1153155781E-14   0.0000000000E+00   0.1237275000E-01  -0.2921265393E-15   0.0000000000E+00  -0.1476550000E-01  -0.8610292417E-15  -0.8875000013E+01   0.1607854714E-11   0.1715027183E-11   0.1932884064E-13   0.4409749467E-13   0.6647453444E-13   0.4750000007E-02  -0.2392750003E-02  -0.2392750003E-02  -0.9524281632E-16   0.1083981877E-14   0.1382221572E-14   0.8875000013E+01
   0.0000000000E+00   0.0000000000E+00   0.9976072500E+00   0.0000000000E+00   0.0000000000E+00   0.1237275000E-01   0.0000000000E+00   0.0000000000E+00  -0.1476550000E-01  -0.8875000013E+01   0.2848429433E-12   0.2868997472E-12  -0.3965990588E-16  -0.7240650040E-14  -0.1984895188E-13   0.4750000007E-02  -0.2392750003E-02  -0.2392750003E-02  -0.4299331556E-18   0.3831469061E-15  -0.1634685005E-14   0.8875000013E+01
   0.1004750000E+01   0.0000000000E+00   0.9976072500E+00  -0.2475000000E-01   0.0000000000E+00   0.1237275000E-01   0.2950000000E-01   0.0000000000E+00  -0.1476550000E-01  -0.8875000013E+01  -0.1990626463E-12  -0.2380420504E-12   0.1722602980E-13   0.3358120571E-13  -0.2220347310E-13   0.4750000007E-02  -0.2392750003E-02  -0.2392750003E-02  -0.6469747839E-15   0.5580338719E-15  -0.1696760185E-14   0.8875000013E+01
   0.1004750000E+01   0.9976072500E+00   0.9976072500E+00  -0.2475000000E-01   0.1237275000E-01   0.1237275000E-01   0.2950000000E-01  -0.1476550000E-01  -0.1476550000E-01  -0.8875000012E+01   0.4295181647E-12   0.3523748573E-12   0.1183810644E-13  -0.3642881328E-13   0.4681624415E-13   0.4750000006E-02  -0.2392750003E-02  -0.2392750003E-02  -0.1052844411E-15  -0.1093482200E-14   0.1958979232E-14   0.8875000012E+01
   0.0000000000E+00   0.9976072500E+00   0.9976072500E+00   0.0000000000E+00   0.1237275000E-01   0.1237275000E-01   0.0000000000E+00  -0.1476550000E-01  -0.1476550000E-01  -0.8875000012E+01  -0.9090854614E-12  -0.9427750513E-12   0.1898002251E-13   0.2491070838E-13   0.4957558149E-13   0.4750000006E-02  -0.2392750003E-02  -0.2392750003E-02  -0.1288073761E-15   0.1100930001E-14   0.2067913197E-14   0.8875000012E+01
   0.2009500000E+01   0.0000000000E+00   0.4815264971E-14  -0.4950000000E-01   0.0000000000E+00   0.2368332320E-14   0.5900000000E-01   0.0000000000E+00   0.2446932651E-14  -0.8875000013E+01   0.3485774324E-11   0.3666350953E-11   0.3485743629E-13   0.4476703077E-13  -0.1397310206E-12   0.4750000007E-02  -0.2392750004E-02  -0.2392750004E-02  -0.1415064447E-14   0.1772817070E-14  -0.5513273772E-14   0.8875000013E+01
   0.2009500000E+01   0.9976072500E+00   0.2058081150E-14  -0.4950000000E-01   0.1237275000E-01   0.4700896065E-15   0.5900000000E-01  -0.1476550000E-01   0.1587991544E-14  -0.8875000012E+01  -0.1684460668E-11  -0.1546918831E-11   0.7937080368E-14  -0.1245257652E-12  -0.7304385842E-13   0.4750000007E-02  -0.2392750003E-02  -0.2392750003E-02  -0.1410773497E-15  -0.2185330325E-14  -0.1909718347E-14   0.8875000012E+01
   0.2009500000E+01   0.0000000000E+00   0.9976072500E+00  -0.4950000000E-01   0.0000000000E+00   0.1237275000E-01   0.5900000000E-01   0.0000000000E+00  -0.1476550000E-01  -0.8875000012E+01  -0.1646083167E-11  -0.1597390952E-11   0.3912871049E-13   0.7236839180E-13  -0.1617662191E-12   0.4750000007E-02  -0.2392750003E-02  -0.2392750003E-02  -0.1313294349E-14   0.6262064480E-15  -0.4943860619E-14   0.8875000012E+01
   0.2009500000E+01   0.9976072500E+00   0.9976072500E+00  -0.4950000000E-01   0.1237275000E-01   0.1237275000E-01   0.5900000000E-01  -0.1476550000E-01  -0.1476550000E-01  -0.8875000011E+01   0.2482079890E-13   0.2977942179E-13   0.9632758452E-14  -0.9380459812E-13  -0.9422699923E-13   0.4750000006E-02  -0.2392750003E-02  -0.2392750003E-02  -0.7449456428E-16  -0.3363657291E-14  -0.1321918278E-14   0.8875000011E+01
     1     2     3     4     5     6     7     8
     2     9    10     3     6    11    12     7
 VARIABLES = X,Y,Z,DU1,DU2,DU3,U1,U2,U3,S11,S22,S33,S12,S13,S23,E11,E22,E33,E12,E13,E23,SMISES
 ZONE, T="0.6000D+01" F=FEPOINT, I=   12 J=    2 ET=BRICK
   0.0000000000E+00   0.0000000000E+00   0.0000000000E+00   0.0000000000E+00   0.0000000000E+00   0.0000000000E+00   0.0000000000E+00   0.0000000000E+00   0.0000000000E+00  -0.1000000002E+02  -0.4053289548E-12  -0.4197591450E-12  -0.4160616912E-16  -0.3954391357E-14   0.8774508706E-14  -0.2000000003E-01   0.9980000016E-02   0.9980000016E-02   0.1709599540E-17  -0.4470899846E-16  -0.1826333848E-14   0.1000000002E+02
   0.9800000000E+00   0.0000000000E+00   0.4720122750E-15  -0.2475000000E-01   0.0000000000E+00  -0.3890640303E-15   0.4750000000E-02   0.0000000000E+00   0.8610763053E-15  -0.1000000002E+02  -0.2076351222E-12  -0.2225529561E-12   0.1012235747E-15  -0.4132678436E-15   0.8458909080E-14  -0.2000000003E-01   0.9980000015E-02   0.9980000015E-02  -0.7656898146E-15   0.6525030442E-15  -0.1770613534E-14   0.1000000002E+02
   0.9800000000E+00   0.1009980000E+01  -0.4126493173E-15  -0.2475000000E-01   0.1237275000E-01  -0.1588557328E-15   0.4750000000E-02  -0.2392750000E-02  -0.2537935845E-15  -0.1000000001E+02  -0.7942788376E-12  -0.8105942710E-12  -0.2393734265E-15  -0.1882439377E-15  -0.7152687504E-14  -0.2000000003E-01   0.9980000014E-02   0.9980000014E-02  -0.1912095850E-15  -0.3892037866E-16   0.3958676320E-15   0.1000000001E+02
   0.0000000000E+00   0.1009980000E+01  -0.9124271137E-15   0.0000000000E+00   0.1237275000E-01   0.2407286674E-15   0.0000000000E+00  -0.2392750000E-02  -0.1153155781E-14  -0.1000000001E+02  -0.1099062236E-11  -0.1117075670E-11   0.7957550072E-15  -0.4108068704E-14  -0.6444904853E-14  -0.2000000003E-01   0.9980000015E-02   0.9980000015E-02  -0.2793755214E-15   0.4059345284E-15   0.3726818981E-15   0.1000000001E+02
   0.0000000000E+00   0.0000000000E+00   0.1009980000E+01   0.0000000000E+00   0.0000000000E+00   0.1237275000E-01   0.0000000000E+00   0.0000000000E+00  -0.2392750000E-02  -0.1000000001E+02  -0.5958488243E-12  -0.5779166647E-12  -0.1563245547E-16  -0.3873148458E-14   0.7417873363E-14  -0.2000000003E-01   0.9980000015E-02   0.9980000015E-02  -0.1146612639E-17   0.3431988688E-15  -0.1066051279E-14   0.1000000001E+02
   0.9800000000E+00   0.0000000000E+00   0.1009980000E+01  -0.2475000000E-01   0.0000000000E+00   0.1237275000E-01   0.4750000000E-02   0.0000000000E+00  -0.2392750000E-02  -0.1000000001E+02   0.2188457921E-13   0.3787491664E-13   0.1947344979E-14  -0.5178983738E-15   0.6753969850E-14  -0.2000000003E-01   0.9980000014E-02   0.9980000014E-02  -0.7254066827E-15   0.1123251413E-15  -0.1125307576E-14   0.1000000001E+02
   0.9800000000E+00   0.1009980000E+01   0.1009980000E+01  -0.2475000000E-01   0.1237275000E-01   0.1237275000E-01   0.4750000000E-02  -0.2392750000E-02  -0.2392750000E-02  -0.1000000001E+02  -0.2982344085E-13  -0.1656297029E-13   0.1713816134E-14   0.9788160119E-15  -0.8774994411E-14  -0.2000000003E-01   0.9980000013E-02   0.9980000013E-02  -0.1732154987E-15  -0.5833024912E-15   0.1035547466E-14   0.1000000001E+02
   0.0000000000E+00   0.1009980000E+01   0.1009980000E+01   0.0000000000E+00   0.1237275000E-01   0.1237275000E-01   0.0000000000E+00  -0.2392750000E-02  -0.2392750000E-02  -0.1000000001E+02   0.1232962458E-12   0.1358905825E-12  -0.3866548260E-15  -0.3858423143E-14  -0.8606370947E-14  -0.2000000003E-01   0.9980000013E-02   0.9980000013E-02  -0.3358289021E-15   0.6324225636E-15   0.1116344771E-14   0.1000000001E+02
   0.1960000000E+01   0.0000000000E+00   0.2911281576E-14  -0.4950000000E-01   0.0000000000E+00  -0.1903983395E-14   0.9500000000E-02   0.0000000000E+00   0.4815264971E-14  -0.1000000002E+02  -0.3292777820E-12  -0.3444771570E-12   0.3343348336E-14   0.6840091581E-14   0.7062585058E-14  -0.2000000003E-01   0.9980000015E-02   0.9980000015E-02  -0.1575528877E-14   0.1227626040E-14  -0.3280797830E-14   0.1000000002E+02
   0.1960000000E+01   0.1009980000E+01   0.1271105017E-14  -0.4950000000E-01   0.1237275000E-01  -0.7869761334E-15   0.9500000000E-02  -0.2392750000E-02   0.2058081150E-14  -0.1000000001E+02  -0.3251582107E-12  -0.3382372736E-12   0.1754252851E-14   0.4248895356E-16  -0.7626154440E-14  -0.2000000003E-01   0.9980000014E-02   0.9980000014E-02  -0.1735958640E-15  -0.6257815461E-15  -0.1101996036E-14   0.1000000001E+02
   0.1960000000E+01   0.0000000000E+00   0.1009980000E+01  -0.4950000000E-01   0.0000000000E+00   0.1237275000E-01   0.9500000000E-02   0.0000000000E+00  -0.2392750000E-02  -0.1000000001E+02   0.9923821649E-14   0.2551070696E-13   0.5633323251E-15   0.2751886703E-14   0.7740869881E-14  -0.2000000003E-01   0.9980000014E-02   0.9980000014E-02  -0.1599907816E-14  -0.1590735383E-15  -0.2511162863E-14   0.1000000001E+02
   0.1960000000E+01   0.1009980000E+01   0.1009980000E+01  -0.4950000000E-01   0.1237275000E-01   0.1237275000E-01   0.9500000000E-02  -0.2392750000E-02  -0.2392750000E-02  -0.1000000001E+02  -0.2851200283E-12  -0.2683227865E-12   0.1174758077E-14   0.6204647657E-14  -0.6663685203E-14  -0.2000000003E-01   0.9980000013E-02   0.9980000013E-02  -0.1355766216E-15  -0.1889891575E-14  -0.3368525586E-15   0.1000000001E+02
     1     2     3     4     5     6     7     8
     2     9    10     3     6    11    12     7
 VARIABLES = X,Y,Z,DU1,DU2,DU3,U1,U2,U3,S11,S22,S33,S12,S13,S23,E11,E22,E33,E12,E13,E23,SMISES
 ZONE, T="0.6050D+01" F=FEPOINT, I=   12 J=    2 ET=BRICK
   0.0000000000E+00   0.0000000000E+00   0.0000000000E+00   0.0000000000E+00   0.0000000000E+00   0.0000000000E+00   0.0000000000E+00   0.0000000000E+00   0.0000000000E+00  -0.8875000014E+01   0.9370470132E-12   0.1297132665E-11  -0.4371462247E-16   0.3802361091E-12   0.1170861350E-12  -0.1775000003E-01   0.8857250014E-02   0.8857250014E-02   0.5154583079E-18   0.4569185199E-14  -0.5261129757E-15   0.8875000014E+01
   0.9822500000E+00   0.0000000000E+00   0.2845646999E-14   0.2250000000E-02   0.0000000000E+00   0.2373634724E-14  -0.2000000000E-01   0.0000000000E+00   0.4720122750E-15  -0.8875000014E+01   0.6932920534E-12   0.7714835343E-12   0.9382829451E-13   0.2568075919E-12  -0.1026825909E-12  -0.1775000003E-01   0.8857250014E-02   0.8857250014E-02   0.3592884812E-15   0.3724521930E-14  -0.3100125871E-14   0.8875000014E+01
   0.9822500000E+00   0.1008857250E+01   0.1294738449E-14   0.2250000000E-02  -0.1122750000E-02   0.1707387767E-14  -0.2000000000E-01   0.9980000000E-02  -0.4126493173E-15  -0.8875000013E+01  -0.1166217803E-12  -0.2255722744E-12   0.8522295098E-13   0.1550396892E-12   0.4697826020E-13  -0.1775000003E-01   0.8857250013E-02   0.8857250013E-02   0.8233833874E-15   0.1822312915E-14   0.1033097173E-14   0.8875000013E+01
   0.0000000000E+00   0.1008857250E+01  -0.2631151635E-15   0.0000000000E+00  -0.1122750000E-02   0.6493119501E-15   0.0000000000E+00   0.9980000000E-02  -0.9124271137E-15  -0.8875000013E+01   0.4367599600E-12   0.6045235944E-12   0.1038700054E-12   0.1007857200E-12   0.2597893823E-12  -0.1775000003E-01   0.8857250013E-02   0.8857250013E-02   0.9622942320E-15   0.1665048558E-14   0.3568277381E-14   0.8875000013E+01
   0.0000000000E+00   0.0000000000E+00   0.1008857250E+01   0.0000000000E+00   0.0000000000E+00  -0.1122750000E-02   0.0000000000E+00   0.0000000000E+00   0.9980000000E-02  -0.8875000013E+01   0.4757340708E-12   0.5514733445E-12  -0.1949368496E-16   0.2684018759E-12   0.2187224377E-13  -0.1775000003E-01   0.8857250013E-02   0.8857250013E-02   0.1932916832E-17   0.3598715461E-14  -0.9086372444E-15   0.8875000013E+01
   0.9822500000E+00   0.0000000000E+00   0.1008857250E+01   0.2250000000E-02   0.0000000000E+00  -0.1122750000E-02  -0.2000000000E-01   0.0000000000E+00   0.9980000000E-02  -0.8875000013E+01   0.2829830672E-13  -0.1928501488E-12   0.9335822080E-13   0.2562884413E-12  -0.1975101589E-12  -0.1775000003E-01   0.8857250013E-02   0.8857250013E-02   0.3647386618E-15   0.3197611860E-14  -0.3570695644E-14   0.8875000013E+01
   0.9822500000E+00   0.1008857250E+01   0.1008857250E+01   0.2250000000E-02  -0.1122750000E-02  -0.1122750000E-02  -0.2000000000E-01   0.9980000000E-02   0.9980000000E-02  -0.8875000012E+01  -0.2903259640E-13  -0.4400528935E-12   0.9084361816E-13   0.1581228207E-12  -0.4784209386E-13  -0.1775000002E-01   0.8857250012E-02   0.8857250012E-02   0.8926157529E-15   0.1303731075E-14   0.5602088110E-15   0.8875000012E+01
   0.0000000000E+00   0.1008857250E+01   0.1008857250E+01   0.0000000000E+00  -0.1122750000E-02  -0.1122750000E-02   0.0000000000E+00   0.9980000000E-02   0.9980000000E-02  -0.8875000012E+01  -0.5070688443E-12  -0.6231312783E-12   0.1105748088E-12  -0.1095038157E-13   0.1638725582E-12  -0.1775000002E-01   0.8857250012E-02   0.8857250012E-02   0.9950160828E-15   0.5512245441E-15   0.3194565856E-14   0.8875000012E+01
   0.1964500000E+01   0.0000000000E+00   0.7936766694E-14   0.4500000000E-02   0.0000000000E+00   0.5025485117E-14  -0.4000000000E-01   0.0000000000E+00   0.2911281576E-14  -0.8875000013E+01   0.4028815630E-12   0.7948924563E-12   0.1885262833E-12   0.1247776292E-12  -0.8345474619E-13  -0.1775000003E-01   0.8857250013E-02   0.8857250013E-02   0.6311671943E-15   0.2711192487E-14  -0.4364421266E-14   0.8875000013E+01
   0.1964500000E+01   0.1008857250E+01   0.5753654476E-14   0.4500000000E-02  -0.1122750000E-02   0.4482549459E-14  -0.4000000000E-01   0.9980000000E-02   0.1271105017E-14  -0.8875000012E+01   0.8524556463E-12   0.1065038478E-11   0.6739783754E-13   0.2001986961E-12   0.7161104292E-13  -0.1775000002E-01   0.8857250012E-02   0.8857250012E-02   0.6042187349E-15   0.1759430424E-14  -0.1521574066E-15   0.8875000012E+01
   0.1964500000E+01   0.0000000000E+00   0.1008857250E+01   0.4500000000E-02   0.0000000000E+00  -0.1122750000E-02  -0.4000000000E-01   0.0000000000E+00   0.9980000000E-02  -0.8875000012E+01  -0.2190043382E-11  -0.2107167577E-11   0.1869135619E-12   0.2330200486E-12  -0.1728064564E-12  -0.1775000002E-01   0.8857250012E-02   0.8857250012E-02   0.6523321383E-15   0.2578800865E-14  -0.4679228260E-14   0.8875000012E+01
   0.1964500000E+01   0.1008857250E+01   0.1008857250E+01   0.4500000000E-02  -0.1122750000E-02  -0.1122750000E-02  -0.4000000000E-01   0.9980000000E-02   0.9980000000E-02  -0.8875000011E+01   0.2864408542E-12   0.1908312188E-12   0.7189371928E-13   0.3216906073E-12  -0.1738038434E-13  -0.1775000002E-01   0.8857250011E-02   0.8857250011E-02   0.7173479769E-15   0.1929652023E-14  -0.4680906506E-15   0.8875000011E+01
     1     2     3     4     5     6     7     8
     2     9    10     3     6    11    12     7
 VARIABLES = X,Y,Z,DU1,DU2,DU3,U1,U2,U3,S11,S22,S33,S12,S13,S23,E11,E22,E33,E12,E13,E23,SMISES
 ZONE, T="0.6100D+01" F=FEPOINT, I=   12 J=    2 ET=BRICK
   0.0000000000E+00   0.0000000000E+00   0.0000000000E+00   0.0000000000E+00   0.0000000000E+00   0.0000000000E+00   0.0000000000E+00   0.0000000000E+00   0.0000000000E+00  -0.7750000012E+01  -0.1570391852E-12  -0.1738106643E-12  -0.6187508249E-16  -0.3930694130E-14   0.9030826388E-14  -0.1550000002E-01   0.7734500012E-02   0.7734500012E-02  -0.4421253108E-18  -0.3609234887E-16  -0.1823097622E-14   0.7750000012E+01
   0.9845000000E+00   0.0000000000E+00   0.4712529053E-15   0.2250000000E-02   0.0000000000E+00  -0.2374394094E-14  -0.1775000000E-01   0.0000000000E+00   0.2845646999E-14  -0.7750000012E+01   0.6439428221E-13   0.4719864167E-13   0.9436960129E-15   0.8835204214E-15   0.8882470433E-14  -0.1550000002E-01   0.7734500012E-02   0.7734500012E-02  -0.7527466263E-15   0.6584817488E-15  -0.1761579706E-14   0.7750000012E+01
   0.9845000000E+00   0.1007734500E+01  -0.4109775010E-15   0.2250000000E-02  -0.1122750000E-02  -0.1705715950E-14  -0.1775000000E-01   0.8857250000E-02   0.1294738449E-14  -0.7750000011E+01   0.2448446192E-13   0.7570362410E-14  -0.1027414231E-15  -0.8234215634E-15  -0.8116336071E-14  -0.1550000002E-01   0.7734500011E-02   0.7734500011E-02  -0.1940141193E-15  -0.4824612676E-16   0.3727870699E-15   0.7750000011E+01
   0.0000000000E+00   0.1007734500E+01  -0.9108347178E-15   0.0000000000E+00  -0.1122750000E-02  -0.6477195543E-15   0.0000000000E+00   0.8857250000E-02  -0.2631151635E-15  -0.7750000011E+01   0.5765263261E-13   0.3818900608E-13   0.9143942187E-15  -0.3928599316E-14  -0.7963298990E-14  -0.1550000002E-01   0.7734500011E-02   0.7734500011E-02  -0.2769586104E-15   0.4079303938E-15   0.3634183278E-15   0.7750000011E+01
   0.0000000000E+00   0.0000000000E+00   0.1007734500E+01   0.0000000000E+00   0.0000000000E+00  -0.1122750000E-02   0.0000000000E+00   0.0000000000E+00   0.8857250000E-02  -0.7750000011E+01   0.4853639399E-14   0.2399508770E-13  -0.2688848004E-16  -0.4116396513E-14   0.8455633085E-14  -0.1550000002E-01   0.7734500011E-02   0.7734500011E-02   0.1718168518E-18   0.3392293282E-15  -0.1062682830E-14   0.7750000011E+01
   0.9845000000E+00   0.0000000000E+00   0.1007734500E+01   0.2250000000E-02   0.0000000000E+00  -0.1122750000E-02  -0.1775000000E-01   0.0000000000E+00   0.8857250000E-02  -0.7750000011E+01   0.4830539373E-14   0.2133826885E-13   0.6867358802E-15   0.8312953103E-15   0.7293655324E-14  -0.1550000002E-01   0.7734500011E-02   0.7734500011E-02  -0.7439369415E-15   0.1213730704E-15  -0.1116916598E-14   0.7750000011E+01
   0.9845000000E+00   0.1007734500E+01   0.1007734500E+01   0.2250000000E-02  -0.1122750000E-02  -0.1122750000E-02  -0.1775000000E-01   0.8857250000E-02   0.8857250000E-02  -0.7750000010E+01   0.6917705378E-13   0.8232650215E-13   0.8065465679E-15  -0.2809150395E-16  -0.9483307595E-14  -0.1550000002E-01   0.7734500010E-02   0.7734500010E-02  -0.1766288089E-15  -0.5637483615E-15   0.1029981125E-14   0.7750000010E+01
   0.0000000000E+00   0.1007734500E+01   0.1007734500E+01   0.0000000000E+00  -0.1122750000E-02  -0.1122750000E-02   0.0000000000E+00   0.8857250000E-02   0.8857250000E-02  -0.7750000010E+01   0.5961678980E-13   0.7704137796E-13   0.2433911402E-16  -0.4635617505E-14  -0.9385036334E-14  -0.1550000002E-01   0.7734500010E-02   0.7734500010E-02  -0.3314764804E-15   0.6079444804E-15   0.1108353105E-14   0.7750000010E+01
   0.1969000000E+01   0.0000000000E+00   0.2903999090E-14   0.4500000000E-02   0.0000000000E+00  -0.5032767604E-14  -0.3550000000E-01   0.0000000000E+00   0.7936766694E-14  -0.7750000012E+01   0.9040548418E-13   0.7732535336E-13   0.4905258577E-14   0.6126366614E-14   0.8057952079E-14  -0.1550000002E-01   0.7734500012E-02   0.7734500012E-02  -0.1581939239E-14   0.1269638557E-14  -0.3271655316E-14   0.7750000012E+01
   0.1969000000E+01   0.1007734500E+01   0.1269633119E-14   0.4500000000E-02  -0.1122750000E-02  -0.4484021357E-14  -0.3550000000E-01   0.8857250000E-02   0.5753654476E-14  -0.7750000011E+01  -0.4222266492E-13  -0.5666267566E-13   0.1873435154E-14  -0.4129402108E-15  -0.6513576773E-14  -0.1550000002E-01   0.7734500011E-02   0.7734500011E-02  -0.1815012177E-15  -0.6194935482E-15  -0.1086475905E-14   0.7750000011E+01
   0.1969000000E+01   0.0000000000E+00   0.1007734500E+01   0.4500000000E-02   0.0000000000E+00  -0.1122750000E-02  -0.3550000000E-01   0.0000000000E+00   0.8857250000E-02  -0.7750000011E+01  -0.1739486669E-12  -0.1561532922E-12   0.8194770628E-15   0.4035545426E-14   0.7794118435E-14  -0.1550000002E-01   0.7734500011E-02   0.7734500011E-02  -0.1578643447E-14  -0.1351178464E-15  -0.2511763705E-14   0.7750000011E+01
   0.1969000000E+01   0.1007734500E+01   0.1007734500E+01   0.4500000000E-02  -0.1122750000E-02  -0.1122750000E-02  -0.3550000000E-01   0.8857250000E-02   0.8857250000E-02  -0.7750000010E+01   0.9647784144E-13   0.1138886235E-12   0.1617615545E-14   0.5045399970E-14  -0.6431587401E-14  -0.1550000002E-01   0.7734500010E-02   0.7734500010E-02  -0.1349358064E-15  -0.1923755038E-14  -0.3357595986E-15   0.7750000010E+01
     1     2     3     4     5     6     7     8
     2     9    10     3     6    11    12     7
 VARIABLES = X,Y,Z,DU1,DU2,DU3,U1,U2,U3,S11,S22,S33,S12,S13,S23,E11,E22,E33,E12,E13,E23,SMISES
 ZONE, T="0.6150D+01" F=FEPOINT, I=   12 J=    2 ET=BRICK
   0.0000000000E+00   0.0000000000E+00   0.0000000000E+00   0.0000000000E+00   0.0000000000E+00   0.0000000000E+00   0.0000000000E+00   0.0000000000E+00   0.0000000000E+00  -0.6625000010E+01   0.1069736998E-12   0.8997871739E-13  -0.5980515974E-16  -0.3762469140E-14   0.8827164413E-14  -0.1325000002E-01   0.6611750010E-02   0.6611750010E-02  -0.2036562174E-18  -0.3913347654E-16  -0.1825365077E-14   0.6625000010E+01
   0.9867500000E+00   0.0000000000E+00   0.4723752257E-15   0.2250000000E-02   0.0000000000E+00   0.1122320395E-17  -0.1550000000E-01   0.0000000000E+00   0.4712529053E-15  -0.6625000010E+01  -0.3575095470E-13  -0.5274341032E-13   0.7903929659E-16   0.5327731323E-15   0.8558690985E-14  -0.1325000002E-01   0.6611750010E-02   0.6611750010E-02  -0.7647329776E-15   0.6635250466E-15  -0.1766498121E-14   0.6625000010E+01
   0.9867500000E+00   0.1006611750E+01  -0.4118281405E-15   0.2250000000E-02  -0.1122750000E-02  -0.8506395538E-18  -0.1550000000E-01   0.7734500000E-02  -0.4109775010E-15  -0.6625000009E+01  -0.5302630571E-13  -0.6835342717E-13  -0.8479988369E-15  -0.5793810450E-15  -0.8309033713E-14  -0.1325000002E-01   0.6611750009E-02   0.6611750009E-02  -0.2014818545E-15  -0.4159268849E-16   0.3770431413E-15   0.6625000009E+01
   0.0000000000E+00   0.1006611750E+01  -0.9120479773E-15   0.0000000000E+00  -0.1122750000E-02  -0.1213259436E-17   0.0000000000E+00   0.7734500000E-02  -0.9108347178E-15  -0.6625000010E+01  -0.1009521041E-12  -0.1198442862E-12   0.5712188217E-15  -0.3996184457E-14  -0.7918786136E-14  -0.1325000002E-01   0.6611750010E-02   0.6611750010E-02  -0.2817535304E-15   0.4082636362E-15   0.3560645313E-15   0.6625000010E+01
   0.0000000000E+00   0.0000000000E+00   0.1006611750E+01   0.0000000000E+00   0.0000000000E+00  -0.1122750000E-02   0.0000000000E+00   0.0000000000E+00   0.7734500000E-02  -0.6625000010E+01  -0.4956686270E-13  -0.3034161375E-13  -0.3183103419E-16  -0.4039372664E-14   0.8479993925E-14  -0.1325000002E-01   0.6611750010E-02   0.6611750010E-02  -0.1403554049E-17   0.3364262313E-15  -0.1068079817E-14   0.6625000010E+01
   0.9867500000E+00   0.0000000000E+00   0.1006611750E+01   0.2250000000E-02   0.0000000000E+00  -0.1122750000E-02  -0.1550000000E-01   0.0000000000E+00   0.7734500000E-02  -0.6625000009E+01  -0.5853188006E-13  -0.4225708378E-13   0.3300127428E-15   0.4886415272E-15   0.7447583268E-14  -0.1325000002E-01   0.6611750009E-02   0.6611750009E-02  -0.7451244195E-15   0.1153337886E-15  -0.1117835635E-14   0.6625000009E+01
   0.9867500000E+00   0.1006611750E+01   0.1006611750E+01   0.2250000000E-02  -0.1122750000E-02  -0.1122750000E-02  -0.1550000000E-01   0.7734500000E-02   0.7734500000E-02  -0.6625000009E+01  -0.2368781631E-13  -0.9809819905E-14   0.4751158049E-15   0.5757910011E-16  -0.9128152632E-14  -0.1325000002E-01   0.6611750009E-02   0.6611750009E-02  -0.1848197774E-15  -0.5636729233E-15   0.1031668154E-14   0.6625000009E+01
   0.0000000000E+00   0.1006611750E+01   0.1006611750E+01   0.0000000000E+00  -0.1122750000E-02  -0.1122750000E-02   0.0000000000E+00   0.7734500000E-02   0.7734500000E-02  -0.6625000009E+01   0.9667930977E-13   0.1136177130E-12  -0.3267918850E-15  -0.4307619840E-14  -0.9166579140E-14  -0.1325000002E-01   0.6611750009E-02   0.6611750009E-02  -0.3354118562E-15   0.6129716856E-15   0.1123847192E-14   0.6625000009E+01
   0.1973500000E+01   0.0000000000E+00   0.2907545928E-14   0.4500000000E-02   0.0000000000E+00   0.3546838278E-17  -0.3100000000E-01   0.0000000000E+00   0.2903999090E-14  -0.6625000010E+01  -0.1108903801E-12  -0.1249820589E-12   0.4197521421E-14   0.6373354699E-14   0.7830423730E-14  -0.1325000002E-01   0.6611750010E-02   0.6611750010E-02  -0.1584670551E-14   0.1297915652E-14  -0.3269733545E-14   0.6625000010E+01
   0.1973500000E+01   0.1006611750E+01   0.1271716293E-14   0.4500000000E-02  -0.1122750000E-02   0.2083174108E-17  -0.3100000000E-01   0.7734500000E-02   0.1269633119E-14  -0.6625000009E+01  -0.4111016795E-13  -0.5543371210E-13   0.1677307951E-14  -0.4375629603E-15  -0.6586806047E-14  -0.1325000002E-01   0.6611750009E-02   0.6611750009E-02  -0.1880364548E-15  -0.6377150834E-15  -0.1092754858E-14   0.6625000009E+01
   0.1973500000E+01   0.0000000000E+00   0.1006611750E+01   0.4500000000E-02   0.0000000000E+00  -0.1122750000E-02  -0.3100000000E-01   0.0000000000E+00   0.7734500000E-02  -0.6625000009E+01   0.7235274292E-13   0.8977694039E-13  -0.3939875996E-15   0.4542396917E-14   0.7720018961E-14  -0.1325000002E-01   0.6611750009E-02   0.6611750009E-02  -0.1591287597E-14  -0.1572112584E-15  -0.2518612708E-14   0.6625000009E+01
   0.1973500000E+01   0.1006611750E+01   0.1006611750E+01   0.4500000000E-02  -0.1122750000E-02  -0.1122750000E-02  -0.3100000000E-01   0.7734500000E-02   0.7734500000E-02  -0.6625000008E+01  -0.7780198065E-13  -0.6142160635E-13   0.9749903315E-15   0.4284794346E-14  -0.6403639553E-14  -0.1325000002E-01   0.6611750008E-02   0.6611750008E-02  -0.1261871106E-15  -0.1919133397E-14  -0.3250658597E-15   0.6625000008E+01
     1     2     3     4     5     6     7     8
     2     9    10     3     6    11    12     7
 VARIABLES = X,Y,Z,DU1,DU2,DU3,U1,U2,U3,S11,S22,S33,S12,S13,S23,E11,E22,E33,E12,E13,E23,SMISES
 ZONE, T="0.6200D+01" F=FEPOINT, I=   12 J=    2 ET=BRICK
   0.0000000000E+00   0.0000000000E+00   0.0000000000E+00   0.0000000000E+00   0.0000000000E+00   0.0000000000E+00   0.0000000000E+00   0.0000000000E+00   0.0000000000E+00  -0.5500000009E+01   0.1689625185E-13  -0.1460752467E-15  -0.1012490640E-15  -0.3730721509E-14   0.9011745159E-14  -0.1100000002E-01   0.5489000009E-02   0.5489000009E-02   0.1790599696E-17  -0.3212647772E-16  -0.1825208601E-14   0.5500000009E+01
   0.9890000000E+00   0.0000000000E+00   0.4723054022E-15   0.2250000000E-02   0.0000000000E+00  -0.6982352504E-19  -0.1325000000E-01   0.0000000000E+00   0.4723752257E-15  -0.5500000008E+01  -0.2516049856E-16  -0.1687140119E-13   0.5254194639E-15   0.9035331874E-15   0.8586048386E-14  -0.1100000002E-01   0.5489000008E-02   0.5489000008E-02  -0.7635584173E-15   0.6610799232E-15  -0.1766823147E-14   0.5500000008E+01
   0.9890000000E+00   0.1005489000E+01  -0.4116519497E-15   0.2250000000E-02  -0.1122750000E-02   0.1761908052E-18  -0.1325000000E-01   0.6611750000E-02  -0.4118281405E-15  -0.5500000008E+01   0.4138102313E-13   0.2584128689E-13  -0.5555917440E-15  -0.7393907862E-15  -0.8281402133E-14  -0.1100000002E-01   0.5489000008E-02   0.5489000008E-02  -0.2026664857E-15  -0.4389979865E-16   0.3796280187E-15   0.5500000008E+01
   0.0000000000E+00   0.1005489000E+01  -0.9109985301E-15   0.0000000000E+00  -0.1122750000E-02   0.1049447224E-17   0.0000000000E+00   0.6611750000E-02  -0.9120479773E-15  -0.5500000008E+01  -0.6754194663E-13  -0.8687894727E-13   0.6119223706E-15  -0.4176711237E-14  -0.8099236444E-14  -0.1100000002E-01   0.5489000008E-02   0.5489000008E-02  -0.2785371812E-15   0.4020265264E-15   0.3622343318E-15   0.5500000008E+01
   0.0000000000E+00   0.0000000000E+00   0.1005489000E+01   0.0000000000E+00   0.0000000000E+00  -0.1122750000E-02   0.0000000000E+00   0.0000000000E+00   0.6611750000E-02  -0.5500000008E+01  -0.1731594477E-13   0.2470589363E-14  -0.8098259318E-17  -0.4062433350E-14   0.8507439378E-14  -0.1100000002E-01   0.5489000008E-02   0.5489000008E-02  -0.2902249714E-17   0.3348009309E-15  -0.1057149213E-14   0.5500000008E+01
   0.9890000000E+00   0.0000000000E+00   0.1005489000E+01   0.2250000000E-02   0.0000000000E+00  -0.1122750000E-02  -0.1325000000E-01   0.0000000000E+00   0.6611750000E-02  -0.5500000008E+01   0.2166754465E-14   0.1828046162E-13   0.1253219023E-15   0.8749196723E-15   0.7341299943E-14  -0.1100000002E-01   0.5489000008E-02   0.5489000008E-02  -0.7427188470E-15   0.1269256430E-15  -0.1116100790E-14   0.5500000008E+01
   0.9890000000E+00   0.1005489000E+01   0.1005489000E+01   0.2250000000E-02  -0.1122750000E-02  -0.1122750000E-02  -0.1325000000E-01   0.6611750000E-02   0.6611750000E-02  -0.5500000007E+01  -0.1300935375E-13   0.2268129188E-15   0.4216655062E-15  -0.9276041495E-16  -0.9248830665E-14  -0.1100000001E-01   0.5489000007E-02   0.5489000007E-02  -0.1828731114E-15  -0.5746447271E-15   0.1030519741E-14   0.5500000007E+01
   0.0000000000E+00   0.1005489000E+01   0.1005489000E+01   0.0000000000E+00  -0.1122750000E-02  -0.1122750000E-02   0.0000000000E+00   0.6611750000E-02   0.6611750000E-02  -0.5500000007E+01  -0.1818265365E-13  -0.1019483656E-14   0.2385727742E-16  -0.4544202198E-14  -0.9379196985E-14  -0.1100000001E-01   0.5489000007E-02   0.5489000007E-02  -0.3317468542E-15   0.6210238520E-15   0.1104195306E-14   0.5500000007E+01
   0.1978000000E+01   0.0000000000E+00   0.2906761702E-14   0.4500000000E-02   0.0000000000E+00  -0.7842262696E-18  -0.2650000000E-01   0.0000000000E+00   0.2907545928E-14  -0.5500000008E+01   0.3516967541E-15  -0.1363022322E-13   0.4641963513E-14   0.6494821742E-14   0.8054448991E-14  -0.1100000002E-01   0.5489000008E-02   0.5489000008E-02  -0.1567806452E-14   0.1283528263E-14  -0.3269829083E-14   0.5500000008E+01
   0.1978000000E+01   0.1005489000E+01   0.1272157271E-14   0.4500000000E-02  -0.1122750000E-02   0.4409777764E-18  -0.2650000000E-01   0.6611750000E-02   0.1271716293E-14  -0.5500000008E+01   0.1716772128E-12   0.1568994203E-12   0.1978772097E-14  -0.4583004398E-15  -0.6422076000E-14  -0.1100000002E-01   0.5489000008E-02   0.5489000008E-02  -0.1727095656E-15  -0.6341739767E-15  -0.1087228793E-14   0.5500000008E+01
   0.1978000000E+01   0.0000000000E+00   0.1005489000E+01   0.4500000000E-02   0.0000000000E+00  -0.1122750000E-02  -0.2650000000E-01   0.0000000000E+00   0.6611750000E-02  -0.5500000008E+01  -0.5356671518E-13  -0.3616755112E-13  -0.2204819518E-15   0.4512545070E-14   0.7870116688E-14  -0.1100000002E-01   0.5489000008E-02   0.5489000008E-02  -0.1596266055E-14  -0.1589443349E-15  -0.2513191888E-14   0.5500000008E+01
   0.1978000000E+01   0.1005489000E+01   0.1005489000E+01   0.4500000000E-02  -0.1122750000E-02  -0.1122750000E-02  -0.2650000000E-01   0.6611750000E-02   0.6611750000E-02  -0.5500000007E+01  -0.4782528380E-13  -0.3118495015E-13   0.9718693617E-15   0.4213817901E-14  -0.6232163349E-14  -0.1100000001E-01   0.5489000007E-02   0.5489000007E-02  -0.1363648615E-15  -0.1906123488E-14  -0.3299989544E-15   0.5500000007E+01
     1     2     3     4     5     6     7     8
     2     9    10     3     6    11    12     7
 VARIABLES = X,Y,Z,DU1,DU2,DU3,U1,U2,U3,S11,S22,S33,S12,S13,S23,E11,E22,E33,E12,E13,E23,SMISES
 ZONE, T="0.6250D+01" F=FEPOINT, I=   12 J=    2 ET=BRICK
   0.0000000000E+00   0.0000000000E+00   0.0000000000E+00   0.0000000000E+00   0.0000000000E+00   0.0000000000E+00   0.0000000000E+00   0.0000000000E+00   0.0000000000E+00  -0.4375000007E+01   0.3856131190E-13   0.2222449213E-13  -0.1165068724E-15  -0.3672356974E-14   0.9036894009E-14  -0.8750000014E-02   0.4366250007E-02   0.4366250007E-02   0.3804150506E-18  -0.3867033001E-16  -0.1820819408E-14   0.4375000007E+01
   0.9912500000E+00   0.0000000000E+00   0.4727310735E-15   0.2250000000E-02   0.0000000000E+00   0.4256713082E-18  -0.1100000000E-01   0.0000000000E+00   0.4723054022E-15  -0.4375000007E+01   0.5272761770E-13   0.3607911762E-13   0.8360675437E-15   0.9048092812E-15   0.8582562170E-14  -0.8750000013E-02   0.4366250007E-02   0.4366250007E-02  -0.7545128928E-15   0.6697974992E-15  -0.1768511947E-14   0.4375000007E+01
   0.9912500000E+00   0.1004366250E+01  -0.4112959591E-15   0.2250000000E-02  -0.1122750000E-02   0.3559905816E-18  -0.1100000000E-01   0.5489000000E-02  -0.4116519497E-15  -0.4375000006E+01   0.1847054931E-13   0.3173176142E-14  -0.4852127358E-15  -0.8093587783E-15  -0.8180098171E-14  -0.8750000012E-02   0.4366250006E-02   0.4366250006E-02  -0.1958419575E-15  -0.5565340606E-16   0.3835154864E-15   0.4375000006E+01
   0.0000000000E+00   0.1004366250E+01  -0.9106283811E-15   0.0000000000E+00  -0.1122750000E-02   0.3701489458E-18   0.0000000000E+00   0.5489000000E-02  -0.9109985301E-15  -0.4375000006E+01  -0.3440216763E-13  -0.5470934995E-13   0.6851499620E-15  -0.4150471942E-14  -0.7789965246E-14  -0.8750000013E-02   0.4366250006E-02   0.4366250006E-02  -0.2792439494E-15   0.4104519321E-15   0.3627365941E-15   0.4375000006E+01
   0.0000000000E+00   0.0000000000E+00   0.1004366250E+01   0.0000000000E+00   0.0000000000E+00  -0.1122750000E-02   0.0000000000E+00   0.0000000000E+00   0.5489000000E-02  -0.4375000006E+01   0.3080548270E-13   0.5056698342E-13   0.2631763415E-16  -0.4142898212E-14   0.8270599895E-14  -0.8750000013E-02   0.4366250006E-02   0.4366250006E-02   0.6409158341E-18   0.3309888583E-15  -0.1068071226E-14   0.4375000006E+01
   0.9912500000E+00   0.0000000000E+00   0.1004366250E+01   0.2250000000E-02   0.0000000000E+00  -0.1122750000E-02  -0.1100000000E-01   0.0000000000E+00   0.5489000000E-02  -0.4375000006E+01   0.3493639945E-14   0.1977932487E-13   0.3523899709E-15   0.9267064484E-15   0.7192825164E-14  -0.8750000012E-02   0.4366250006E-02   0.4366250006E-02  -0.7464744973E-15   0.1342292139E-15  -0.1120081187E-14   0.4375000006E+01
   0.9912500000E+00   0.1004366250E+01   0.1004366250E+01   0.2250000000E-02  -0.1122750000E-02  -0.1122750000E-02  -0.1100000000E-01   0.5489000000E-02   0.5489000000E-02  -0.4375000006E+01   0.7531281732E-13   0.8831060643E-13   0.7559892986E-15  -0.1136115311E-15  -0.9214200394E-14  -0.8750000011E-02   0.4366250006E-02   0.4366250006E-02  -0.1834157535E-15  -0.5857856348E-15   0.1028722192E-14   0.4375000006E+01
   0.0000000000E+00   0.1004366250E+01   0.1004366250E+01   0.0000000000E+00  -0.1122750000E-02  -0.1122750000E-02   0.0000000000E+00   0.5489000000E-02   0.5489000000E-02  -0.4375000006E+01  -0.4070381719E-13  -0.2422583611E-13  -0.5850846965E-16  -0.4384387352E-14  -0.9574325055E-14  -0.8750000012E-02   0.4366250006E-02   0.4366250006E-02  -0.3310791638E-15   0.6211651842E-15   0.1110628117E-14   0.4375000006E+01
   0.1982500000E+01   0.0000000000E+00   0.2907604458E-14   0.4500000000E-02   0.0000000000E+00   0.8427562565E-18  -0.2200000000E-01   0.0000000000E+00   0.2906761702E-14  -0.4375000007E+01  -0.3331164678E-13  -0.4674516294E-13   0.4594340335E-14   0.6173613533E-14   0.7914805681E-14  -0.8750000013E-02   0.4366250007E-02   0.4366250007E-02  -0.1579904299E-14   0.1258824393E-14  -0.3270459861E-14   0.4375000007E+01
   0.1982500000E+01   0.1004366250E+01   0.1272269211E-14   0.4500000000E-02  -0.1122750000E-02   0.1119401526E-18  -0.2200000000E-01   0.5489000000E-02   0.1272157271E-14  -0.4375000006E+01  -0.7783422915E-13  -0.9187477321E-13   0.1681422573E-14  -0.4406643765E-15  -0.6178972694E-14  -0.8750000012E-02   0.4366250006E-02   0.4366250006E-02  -0.1767324702E-15  -0.6272997686E-15  -0.1087047281E-14   0.4375000006E+01
   0.1982500000E+01   0.0000000000E+00   0.1004366250E+01   0.4500000000E-02   0.0000000000E+00  -0.1122750000E-02  -0.2200000000E-01   0.0000000000E+00   0.5489000000E-02  -0.4375000006E+01  -0.5309162934E-13  -0.3537500195E-13   0.2812675728E-15   0.4243623670E-14   0.7716737749E-14  -0.8750000012E-02   0.4366250006E-02   0.4366250006E-02  -0.1582439590E-14  -0.1709988004E-15  -0.2514381579E-14   0.4375000006E+01
   0.1982500000E+01   0.1004366250E+01   0.1004366250E+01   0.4500000000E-02  -0.1122750000E-02  -0.1122750000E-02  -0.2200000000E-01   0.5489000000E-02   0.5489000000E-02  -0.4375000006E+01   0.1430823114E-12   0.1594572413E-12   0.1255081396E-14   0.4366737403E-14  -0.6120451218E-14  -0.8750000011E-02   0.4366250006E-02   0.4366250006E-02  -0.1369875685E-15  -0.1897093429E-14  -0.3284056117E-15   0.4375000006E+01
     1     2     3     4     5     6     7     8
     2     9    10     3     6    11    12     7
 VARIABLES = X,Y,Z,DU1,DU2,DU3,U1,U2,U3,S11,S22,S33,S12,S13,S23,E11,E22,E33,E12,E13,E23,SMISES
 ZONE, T="0.6300D+01" F=FEPOINT, I=   12 J=    2 ET=BRICK
   0.0000000000E+00   0.0000000000E+00   0.0000000000E+00   0.0000000000E+00   0.0000000000E+00   0.0000000000E+00   0.0000000000E+00   0.0000000000E+00   0.0000000000E+00  -0.3250000005E+01  -0.9333323526E-13  -0.1096435628E-12  -0.1161950889E-15  -0.3622805161E-14   0.8893814881E-14  -0.6500000010E-02   0.3243500005E-02   0.3243500005E-02   0.2457867367E-18  -0.3597437569E-16  -0.1821485665E-14   0.3250000005E+01
   0.9935000000E+00   0.0000000000E+00   0.4731765861E-15   0.2250000000E-02   0.0000000000E+00   0.4455126073E-18  -0.8750000000E-02   0.0000000000E+00   0.4727310735E-15  -0.3250000005E+01   0.5269469746E-14  -0.1139934881E-13   0.1002713812E-14   0.8759061565E-15   0.8481604085E-14  -0.6500000010E-02   0.3243500005E-02   0.3243500005E-02  -0.7501907511E-15   0.6690909579E-15  -0.1769947278E-14   0.3250000005E+01
   0.9935000000E+00   0.1003243500E+01  -0.4114469019E-15   0.2250000000E-02  -0.1122750000E-02  -0.1509427784E-18  -0.8750000000E-02   0.4366250000E-02  -0.4112959591E-15  -0.3250000005E+01  -0.1813630564E-13  -0.3309516766E-13  -0.1866464347E-15  -0.7373672446E-15  -0.8032716137E-14  -0.6500000009E-02   0.3243500005E-02   0.3243500005E-02  -0.1946009021E-15  -0.5386977588E-16   0.3816912833E-15   0.3250000005E+01
   0.0000000000E+00   0.1003243500E+01  -0.9115439336E-15   0.0000000000E+00  -0.1122750000E-02  -0.9155524935E-18   0.0000000000E+00   0.4366250000E-02  -0.9106283811E-15  -0.3250000005E+01  -0.5104414415E-13  -0.7133771564E-13   0.7093021245E-15  -0.4033950006E-14  -0.7604518186E-14  -0.6500000009E-02   0.3243500005E-02   0.3243500005E-02  -0.2772675849E-15   0.4082541273E-15   0.3611350658E-15   0.3250000005E+01
   0.0000000000E+00   0.0000000000E+00   0.1003243500E+01   0.0000000000E+00   0.0000000000E+00  -0.1122750000E-02   0.0000000000E+00   0.0000000000E+00   0.4366250000E-02  -0.3250000005E+01  -0.1344048051E-13   0.5933705532E-14   0.3323301294E-16  -0.4074976104E-14   0.8142320162E-14  -0.6500000009E-02   0.3243500005E-02   0.3243500005E-02   0.7574744097E-18   0.3331430112E-15  -0.1072336328E-14   0.3250000005E+01
   0.9935000000E+00   0.0000000000E+00   0.1003243500E+01   0.2250000000E-02   0.0000000000E+00  -0.1122750000E-02  -0.8750000000E-02   0.0000000000E+00   0.4366250000E-02  -0.3250000005E+01   0.4324193357E-13   0.5927038122E-13   0.4925513698E-15   0.9811111587E-15   0.7007868772E-14  -0.6500000009E-02   0.3243500005E-02   0.3243500005E-02  -0.7463141336E-15   0.1406640002E-15  -0.1120194003E-14   0.3250000005E+01
   0.9935000000E+00   0.1003243500E+01   0.1003243500E+01   0.2250000000E-02  -0.1122750000E-02  -0.1122750000E-02  -0.8750000000E-02   0.4366250000E-02   0.4366250000E-02  -0.3250000004E+01   0.1869754156E-13   0.3076505657E-13   0.7819931794E-15   0.9408178827E-17  -0.9206147151E-14  -0.6500000009E-02   0.3243500004E-02   0.3243500004E-02  -0.1812723942E-15  -0.5826486469E-15   0.1027591838E-14   0.3250000004E+01
   0.0000000000E+00   0.1003243500E+01   0.1003243500E+01   0.0000000000E+00  -0.1122750000E-02  -0.1122750000E-02   0.0000000000E+00   0.4366250000E-02   0.4366250000E-02  -0.3250000004E+01   0.8433253099E-13   0.1007150933E-12   0.6855989809E-17  -0.4588352360E-14  -0.9260915109E-14  -0.6500000009E-02   0.3243500004E-02   0.3243500004E-02  -0.3325938293E-15   0.6194981799E-15   0.1118439137E-14   0.3250000004E+01
   0.1987000000E+01   0.0000000000E+00   0.2908931817E-14   0.4500000000E-02   0.0000000000E+00   0.1327358616E-17  -0.1750000000E-01   0.0000000000E+00   0.2907604458E-14  -0.3250000005E+01   0.1082296556E-12   0.9540895024E-13   0.4923439897E-14   0.6368458145E-14   0.8096020174E-14  -0.6500000010E-02   0.3243500005E-02   0.3243500005E-02  -0.1570657268E-14   0.1273256564E-14  -0.3267552503E-14   0.3250000005E+01
   0.1987000000E+01   0.1003243500E+01   0.1274606930E-14   0.4500000000E-02  -0.1122750000E-02   0.2337719569E-17  -0.1750000000E-01   0.4366250000E-02   0.1272269211E-14  -0.3250000005E+01   0.8080061719E-13   0.6603969164E-13   0.2109280523E-14  -0.7146006900E-15  -0.6150456153E-14  -0.6500000009E-02   0.3243500005E-02   0.3243500005E-02  -0.1701488517E-15  -0.6374665786E-15  -0.1084995783E-14   0.3250000005E+01
   0.1987000000E+01   0.0000000000E+00   0.1003243500E+01   0.4500000000E-02   0.0000000000E+00  -0.1122750000E-02  -0.1750000000E-01   0.0000000000E+00   0.4366250000E-02  -0.3250000005E+01   0.1274267731E-13   0.3094675303E-13   0.6991737998E-16   0.4580418417E-14   0.7701704148E-14  -0.6500000009E-02   0.3243500005E-02   0.3243500005E-02  -0.1581036459E-14  -0.1749142134E-15  -0.2518361537E-14   0.3250000005E+01
   0.1987000000E+01   0.1003243500E+01   0.1003243500E+01   0.4500000000E-02  -0.1122750000E-02  -0.1122750000E-02  -0.1750000000E-01   0.4366250000E-02   0.4366250000E-02  -0.3250000004E+01  -0.4591063559E-13  -0.2928862767E-13   0.9151802083E-15   0.4603075242E-14  -0.6277136970E-14  -0.6500000008E-02   0.3243500004E-02   0.3243500004E-02  -0.1343772473E-15  -0.1904031768E-14  -0.3282852263E-15   0.3250000004E+01
     1     2     3     4     5     6     7     8
     2     9    10     3     6    11    12     7
 VARIABLES = X,Y,Z,DU1,DU2,DU3,U1,U2,U3,S11,S22,S33,S12,S13,S23,E11,E22,E33,E12,E13,E23,SMISES
 ZONE, T="0.6350D+01" F=FEPOINT, I=   12 J=    2 ET=BRICK
   0.0000000000E+00   0.0000000000E+00   0.0000000000E+00   0.0000000000E+00   0.0000000000E+00   0.0000000000E+00   0.0000000000E+00   0.0000000000E+00   0.0000000000E+00  -0.2125000003E+01   0.2825423307E-13   0.1187378716E-13  -0.1177551061E-15  -0.3550157794E-14   0.8969971275E-14  -0.4250000007E-02   0.2120750003E-02   0.2120750003E-02   0.7857263525E-18  -0.3485983448E-16  -0.1821827801E-14   0.2125000003E+01
   0.9957500000E+00   0.0000000000E+00   0.4733264719E-15   0.2250000000E-02   0.0000000000E+00   0.1498857416E-18  -0.6500000000E-02   0.0000000000E+00   0.4731765861E-15  -0.2125000003E+01  -0.1328381464E-13  -0.2996007027E-13   0.9189064558E-15   0.8418359212E-15   0.8523476993E-14  -0.4250000007E-02   0.2120750003E-02   0.2120750003E-02  -0.7534016125E-15   0.6682810908E-15  -0.1770124582E-14   0.2125000003E+01
   0.9957500000E+00   0.1002120750E+01  -0.4110925822E-15   0.2250000000E-02  -0.1122750000E-02   0.3543196662E-18  -0.6500000000E-02   0.3243500000E-02  -0.4114469019E-15  -0.2125000003E+01  -0.8530404123E-13  -0.1002351477E-12  -0.3424387713E-15  -0.6528692070E-15  -0.8080968813E-14  -0.4250000006E-02   0.2120750003E-02   0.2120750003E-02  -0.1937330254E-15  -0.4536801415E-16   0.3835127606E-15   0.2125000003E+01
   0.0000000000E+00   0.1002120750E+01  -0.9110643631E-15   0.0000000000E+00  -0.1122750000E-02   0.4795705503E-18   0.0000000000E+00   0.3243500000E-02  -0.9115439336E-15  -0.2125000003E+01  -0.3328997482E-13  -0.5367126097E-13   0.5316489180E-15  -0.4074087729E-14  -0.7767691673E-14  -0.4250000006E-02   0.2120750003E-02   0.2120750003E-02  -0.2801658810E-15   0.4057558605E-15   0.3601841646E-15   0.2125000003E+01
   0.0000000000E+00   0.0000000000E+00   0.1002120750E+01   0.0000000000E+00   0.0000000000E+00  -0.1122750000E-02   0.0000000000E+00   0.0000000000E+00   0.3243500000E-02  -0.2125000003E+01  -0.5809634752E-14   0.1371249203E-13  -0.1679151360E-16  -0.4102030986E-14   0.8213958553E-14  -0.4250000006E-02   0.2120750003E-02   0.2120750003E-02  -0.5879028101E-18   0.3317700041E-15  -0.1068017549E-14   0.2125000003E+01
   0.9957500000E+00   0.0000000000E+00   0.1002120750E+01   0.2250000000E-02   0.0000000000E+00  -0.1122750000E-02  -0.6500000000E-02   0.0000000000E+00   0.3243500000E-02  -0.2125000003E+01  -0.4377953754E-14   0.1190573838E-13   0.6009269281E-15   0.7932924471E-15   0.7049462155E-14  -0.4250000006E-02   0.2120750003E-02   0.2120750003E-02  -0.7430884480E-15   0.1400708022E-15  -0.1118273766E-14   0.2125000003E+01
   0.9957500000E+00   0.1002120750E+01   0.1002120750E+01   0.2250000000E-02  -0.1122750000E-02  -0.1122750000E-02  -0.6500000000E-02   0.3243500000E-02   0.3243500000E-02  -0.2125000003E+01   0.3099837620E-13   0.4335632836E-13   0.7598180981E-15  -0.2086990282E-16  -0.9140732149E-14  -0.4250000006E-02   0.2120750003E-02   0.2120750003E-02  -0.1862904636E-15  -0.5817735467E-15   0.1029170308E-14   0.2125000003E+01
   0.0000000000E+00   0.1002120750E+01   0.1002120750E+01   0.0000000000E+00  -0.1122750000E-02  -0.1122750000E-02   0.0000000000E+00   0.3243500000E-02   0.3243500000E-02  -0.2125000003E+01   0.9633816240E-13   0.1128510691E-12  -0.2420676480E-16  -0.4596319778E-14  -0.9374273215E-14  -0.4250000006E-02   0.2120750003E-02   0.2120750003E-02  -0.3329426144E-15   0.6179340461E-15   0.1114750999E-14   0.2125000003E+01
   0.1991500000E+01   0.0000000000E+00   0.2908674547E-14   0.4500000000E-02   0.0000000000E+00  -0.2572699910E-18  -0.1300000000E-01   0.0000000000E+00   0.2908931817E-14  -0.2125000003E+01  -0.5106012986E-13  -0.6361443512E-13   0.4744478365E-14   0.6390273050E-14   0.8046101506E-14  -0.4250000006E-02   0.2120750003E-02   0.2120750003E-02  -0.1568204743E-14   0.1257337525E-14  -0.3269378786E-14   0.2125000003E+01
   0.1991500000E+01   0.1002120750E+01   0.1274228397E-14   0.4500000000E-02  -0.1122750000E-02  -0.3785333182E-18  -0.1300000000E-01   0.3243500000E-02   0.1274606930E-14  -0.2125000003E+01  -0.1252647140E-12  -0.1400043247E-12   0.1787086554E-14  -0.6977605264E-15  -0.5945017763E-14  -0.4250000006E-02   0.2120750003E-02   0.2120750003E-02  -0.1746134338E-15  -0.6349575509E-15  -0.1081773980E-14   0.2125000003E+01
   0.1991500000E+01   0.0000000000E+00   0.1002120750E+01   0.4500000000E-02   0.0000000000E+00  -0.1122750000E-02  -0.1300000000E-01   0.0000000000E+00   0.3243500000E-02  -0.2125000003E+01  -0.3519077122E-13  -0.1707912508E-13   0.2292171944E-15   0.4406313740E-14   0.7635031096E-14  -0.4250000006E-02   0.2120750003E-02   0.2120750003E-02  -0.1585103057E-14  -0.1731805105E-15  -0.2515941441E-14   0.2125000003E+01
   0.1991500000E+01   0.1002120750E+01   0.1002120750E+01   0.4500000000E-02  -0.1122750000E-02  -0.1122750000E-02  -0.1300000000E-01   0.3243500000E-02   0.3243500000E-02  -0.2125000003E+01  -0.3291114551E-13  -0.1662665240E-13   0.1288449577E-14   0.4698918462E-14  -0.6255423998E-14  -0.4250000005E-02   0.2120750003E-02   0.2120750003E-02  -0.1270474468E-15  -0.1902274131E-14  -0.3328883953E-15   0.2125000003E+01
     1     2     3     4     5     6     7     8
     2     9    10     3     6    11    12     7
 VARIABLES = X,Y,Z,DU1,DU2,DU3,U1,U2,U3,S11,S22,S33,S12,S13,S23,E11,E22,E33,E12,E13,E23,SMISES
 ZONE, T="0.6400D+01" F=FEPOINT, I=   12 J=    2 ET=BRICK
   0.0000000000E+00   0.0000000000E+00   0.0000000000E+00   0.0000000000E+00   0.0000000000E+00   0.0000000000E+00   0.0000000000E+00   0.0000000000E+00   0.0000000000E+00  -0.1000000002E+01  -0.1739072087E-13  -0.3392994729E-13  -0.1056915304E-15  -0.3539996707E-14   0.9013594328E-14  -0.2000000003E-02   0.9980000016E-03   0.9980000016E-03   0.3364258238E-18  -0.3490751123E-16  -0.1820666780E-14   0.1000000002E+01
   0.9980000000E+00   0.0000000000E+00   0.4734724988E-15   0.2250000000E-02   0.0000000000E+00   0.1460268862E-18  -0.4250000000E-02   0.0000000000E+00   0.4733264719E-15  -0.1000000002E+01   0.2905383842E-13   0.1216632912E-13   0.1052318646E-14   0.1121758836E-14   0.8452360516E-14  -0.2000000003E-02   0.9980000015E-03   0.9980000015E-03  -0.7499508991E-15   0.6689689059E-15  -0.1769654454E-14   0.1000000002E+01
   0.9980000000E+00   0.1000998000E+01  -0.4112843974E-15   0.2250000000E-02  -0.1122750000E-02  -0.1918151268E-18  -0.4250000000E-02   0.2120750000E-02  -0.4110925822E-15  -0.1000000001E+01  -0.1162209871E-13  -0.2654812553E-13  -0.2088186330E-15  -0.8563008856E-15  -0.8150540748E-14  -0.2000000003E-02   0.9980000014E-03   0.9980000014E-03  -0.1920396788E-15  -0.5312203206E-16   0.3815411924E-15   0.1000000001E+01
   0.0000000000E+00   0.1000998000E+01  -0.9107041531E-15   0.0000000000E+00  -0.1122750000E-02   0.3602099536E-18   0.0000000000E+00   0.2120750000E-02  -0.9110643631E-15  -0.1000000001E+01  -0.3516763339E-14  -0.2395981899E-13   0.4708298071E-15  -0.4177270678E-14  -0.7812239305E-14  -0.2000000003E-02   0.9980000014E-03   0.9980000014E-03  -0.2820558004E-15   0.4068441235E-15   0.3605425900E-15   0.1000000001E+01
   0.0000000000E+00   0.0000000000E+00   0.1000998000E+01   0.0000000000E+00   0.0000000000E+00  -0.1122750000E-02   0.0000000000E+00   0.0000000000E+00   0.2120750000E-02  -0.1000000001E+01  -0.5775298102E-14   0.1409432039E-13  -0.3340884353E-16  -0.4185331491E-14   0.8299885326E-14  -0.2000000003E-02   0.9980000014E-03   0.9980000014E-03  -0.1016572849E-17   0.3319007377E-15  -0.1071116064E-14   0.1000000001E+01
   0.9980000000E+00   0.0000000000E+00   0.1000998000E+01   0.2250000000E-02   0.0000000000E+00  -0.1122750000E-02  -0.4250000000E-02   0.0000000000E+00   0.2120750000E-02  -0.1000000001E+01  -0.4009498372E-13  -0.2406417860E-13   0.4155013527E-15   0.9709563644E-15   0.7135205304E-14  -0.2000000003E-02   0.9980000014E-03   0.9980000014E-03  -0.7450128436E-15   0.1390885452E-15  -0.1118467505E-14   0.1000000001E+01
   0.9980000000E+00   0.1000998000E+01   0.1000998000E+01   0.2250000000E-02  -0.1122750000E-02  -0.1122750000E-02  -0.4250000000E-02   0.2120750000E-02   0.2120750000E-02  -0.1000000001E+01   0.2656468025E-13   0.3899982312E-13   0.5626467503E-15  -0.1678415707E-15  -0.9133565777E-14  -0.2000000003E-02   0.9980000013E-03   0.9980000013E-03  -0.1856569592E-15  -0.5825231484E-15   0.1031493246E-14   0.1000000001E+01
   0.0000000000E+00   0.1000998000E+01   0.1000998000E+01   0.0000000000E+00  -0.1122750000E-02  -0.1122750000E-02   0.0000000000E+00   0.2120750000E-02   0.2120750000E-02  -0.1000000001E+01   0.9595273416E-14   0.2649581065E-13   0.1299059465E-15  -0.4655900480E-14  -0.9586893084E-14  -0.2000000003E-02   0.9980000013E-03   0.9980000013E-03  -0.3300946777E-15   0.6175937260E-15   0.1114993116E-14   0.1000000001E+01
   0.1996000000E+01   0.0000000000E+00   0.2909252420E-14   0.4500000000E-02   0.0000000000E+00   0.5778728971E-18  -0.8500000000E-02   0.0000000000E+00   0.2908674547E-14  -0.1000000002E+01   0.7955800437E-13   0.6698034261E-13   0.4810932341E-14   0.6570584334E-14   0.7905641208E-14  -0.2000000003E-02   0.9980000015E-03   0.9980000015E-03  -0.1571797000E-14   0.1268157441E-14  -0.3271296003E-14   0.1000000002E+01
   0.1996000000E+01   0.1000998000E+01   0.1273848866E-14   0.4500000000E-02  -0.1122750000E-02  -0.3795305823E-18  -0.8500000000E-02   0.2120750000E-02   0.1274228397E-14  -0.1000000001E+01  -0.7831144013E-14  -0.2219750017E-13   0.1799478376E-14  -0.1011476567E-14  -0.5957804978E-14  -0.2000000003E-02   0.9980000014E-03   0.9980000014E-03  -0.1750582548E-15  -0.6465664788E-15  -0.1080457331E-14   0.1000000001E+01
   0.1996000000E+01   0.0000000000E+00   0.1000998000E+01   0.4500000000E-02   0.0000000000E+00  -0.1122750000E-02  -0.8500000000E-02   0.0000000000E+00   0.2120750000E-02  -0.1000000001E+01  -0.1069828048E-12  -0.8925656521E-13  -0.7511787138E-16   0.4808366038E-14   0.7648693066E-14  -0.2000000003E-02   0.9980000014E-03   0.9980000014E-03  -0.1583998902E-14  -0.1681741932E-15  -0.2517979895E-14   0.1000000001E+01
   0.1996000000E+01   0.1000998000E+01   0.1000998000E+01   0.4500000000E-02  -0.1122750000E-02  -0.1122750000E-02  -0.8500000000E-02   0.2120750000E-02   0.2120750000E-02  -0.1000000001E+01   0.4476262547E-13   0.6105423982E-13   0.1185054863E-14   0.4159070060E-14  -0.6075751897E-14  -0.2000000003E-02   0.9980000013E-03   0.9980000013E-03  -0.1341639015E-15  -0.1917007934E-14  -0.3285954621E-15   0.1000000001E+01
     1     2     3     4     5     6     7     8
     2     9    10     3     6    11    12     7
 VARIABLES = X,Y,Z,DU1,DU2,DU3,U1,U2,U3,S11,S22,S33,S12,S13,S23,E11,E22,E33,E12,E13,E23,SMISES
 ZONE, T="0.6450D+01" F=FEPOINT, I=   12 J=    2 ET=BRICK
   0.0000000000E+00   0.0000000000E+00   0.0000000000E+00   0.0000000000E+00   0.0000000000E+00   0.0000000000E+00   0.0000000000E+00   0.0000000000E+00   0.0000000000E+00   0.1250000002E+00   0.4168628731E-13   0.2521439761E-13  -0.1149091186E-15  -0.3444671454E-14   0.8942888236E-14   0.2500000004E-03  -0.1247500002E-03  -0.1247500002E-03  -0.2279505257E-18  -0.3278805879E-16  -0.1821809756E-14   0.1250000002E+00
   0.1000250000E+01   0.0000000000E+00   0.4734835890E-15   0.2250000000E-02   0.0000000000E+00   0.1109026691E-19  -0.2000000000E-02   0.0000000000E+00   0.4734724988E-15   0.1250000002E+00  -0.4403208871E-13  -0.6099637843E-13   0.1154506173E-14   0.8992312072E-15   0.8417088315E-14   0.2500000004E-03  -0.1247500002E-03  -0.1247500002E-03  -0.7480969842E-15   0.6664467164E-15  -0.1769804299E-14   0.1250000002E+00
   0.1000250000E+01   0.9998752500E+00  -0.4114494740E-15   0.2250000000E-02  -0.1122750000E-02  -0.1650766493E-18  -0.2000000000E-02   0.9980000000E-03  -0.4112843974E-15   0.1250000002E+00   0.5063343613E-13   0.3560551324E-13  -0.3752006827E-16  -0.9253567866E-15  -0.8217271237E-14   0.2500000004E-03  -0.1247500002E-03  -0.1247500002E-03  -0.1896707487E-15  -0.5243730233E-16   0.3797801437E-15   0.1250000002E+00
   0.0000000000E+00   0.9998752500E+00  -0.9111080473E-15   0.0000000000E+00  -0.1122750000E-02  -0.4038942337E-18   0.0000000000E+00   0.9980000000E-03  -0.9107041531E-15   0.1250000002E+00  -0.1481932702E-13  -0.3531946451E-13   0.5641889235E-15  -0.4133939655E-14  -0.7762701701E-14   0.2500000004E-03  -0.1247500002E-03  -0.1247500002E-03  -0.2811354435E-15   0.4055399430E-15   0.3615642729E-15   0.1250000002E+00
   0.0000000000E+00   0.0000000000E+00   0.9998752500E+00   0.0000000000E+00   0.0000000000E+00  -0.1122750000E-02   0.0000000000E+00   0.0000000000E+00   0.9980000000E-03   0.1250000002E+00   0.5855658141E-13   0.7827992105E-13  -0.4132703321E-16  -0.4040849926E-14   0.8223673451E-14   0.2500000004E-03  -0.1247500002E-03  -0.1247500002E-03   0.1443587306E-18   0.3329051165E-15  -0.1070466722E-14   0.1250000002E+00
   0.1000250000E+01   0.0000000000E+00   0.9998752500E+00   0.2250000000E-02   0.0000000000E+00  -0.1122750000E-02  -0.2000000000E-02   0.0000000000E+00   0.9980000000E-03   0.1250000002E+00  -0.8540636036E-15   0.1532943381E-13   0.3291394202E-15   0.7899228558E-15   0.7034188187E-14   0.2500000004E-03  -0.1247500002E-03  -0.1247500002E-03  -0.7481836981E-15   0.1370450646E-15  -0.1120081981E-14   0.1250000002E+00
   0.1000250000E+01   0.9998752500E+00   0.9998752500E+00   0.2250000000E-02  -0.1122750000E-02  -0.1122750000E-02  -0.2000000000E-02   0.9980000000E-03   0.9980000000E-03   0.1250000002E+00  -0.1552361063E-13  -0.2957081403E-14   0.4889538890E-15  -0.2926116624E-15  -0.9238339127E-14   0.2500000003E-03  -0.1247500002E-03  -0.1247500002E-03  -0.1862613430E-15  -0.5846794611E-15   0.1030757933E-14   0.1250000002E+00
   0.0000000000E+00   0.9998752500E+00   0.9998752500E+00   0.0000000000E+00  -0.1122750000E-02  -0.1122750000E-02   0.0000000000E+00   0.9980000000E-03   0.9980000000E-03   0.1250000002E+00  -0.5049731282E-13  -0.3389400427E-13  -0.7036838124E-16  -0.4573222639E-14  -0.9496805782E-14   0.2500000003E-03  -0.1247500002E-03  -0.1247500002E-03  -0.3331879179E-15   0.6199376230E-15   0.1112962631E-14   0.1250000002E+00
   0.2000500000E+01   0.0000000000E+00   0.2907283283E-14   0.4500000000E-02   0.0000000000E+00  -0.1969136969E-17  -0.4000000000E-02   0.0000000000E+00   0.2909252420E-14   0.1250000002E+00  -0.1257171369E-12  -0.1383577608E-12   0.5265316233E-14   0.6705023057E-14   0.8232245899E-14   0.2500000004E-03  -0.1247500002E-03  -0.1247500002E-03  -0.1565643095E-14   0.1265827604E-14  -0.3266696784E-14   0.1250000002E+00
   0.2000500000E+01   0.9998752500E+00   0.1273717105E-14   0.4500000000E-02  -0.1122750000E-02  -0.1317616319E-18  -0.4000000000E-02   0.9980000000E-03   0.1273848866E-14   0.1250000002E+00   0.1966730122E-13   0.4924272780E-14   0.2311691409E-14  -0.1104656619E-14  -0.5878765734E-14   0.2500000004E-03  -0.1247500002E-03  -0.1247500002E-03  -0.1682713333E-15  -0.6457460523E-15  -0.1080086257E-14   0.1250000002E+00
   0.2000500000E+01   0.0000000000E+00   0.9998752500E+00   0.4500000000E-02   0.0000000000E+00  -0.1122750000E-02  -0.4000000000E-02   0.0000000000E+00   0.9980000000E-03   0.1250000002E+00   0.1547032554E-13   0.3339744994E-13  -0.3617447238E-15   0.5086792448E-14   0.7744210589E-14   0.2500000004E-03  -0.1247500002E-03  -0.1247500002E-03  -0.1588532125E-14  -0.1612951709E-15  -0.2517241854E-14   0.1250000002E+00
   0.2000500000E+01   0.9998752500E+00   0.9998752500E+00   0.4500000000E-02  -0.1122750000E-02  -0.1122750000E-02  -0.4000000000E-02   0.9980000000E-03   0.9980000000E-03   0.1250000002E+00   0.2108950129E-13   0.3726638539E-13   0.9209954429E-15   0.3937151212E-14  -0.6159693484E-14   0.2500000003E-03  -0.1247500002E-03  -0.1247500002E-03  -0.1370249144E-15  -0.1923099508E-14  -0.3290911802E-15   0.1250000002E+00
     1     2     3     4     5     6     7     8
     2     9    10     3     6    11    12     7
 VARIABLES = X,Y,Z,DU1,DU2,DU3,U1,U2,U3,S11,S22,S33,S12,S13,S23,E11,E22,E33,E12,E13,E23,SMISES
 ZONE, T="0.6500D+01" F=FEPOINT, I=   12 J=    2 ET=BRICK
   0.0000000000E+00   0.0000000000E+00   0.0000000000E+00   0.0000000000E+00   0.0000000000E+00   0.0000000000E+00   0.0000000000E+00   0.0000000000E+00   0.0000000000E+00   0.1250000002E+01  -0.8207043781E-13  -0.9872086888E-13  -0.1206534629E-15  -0.3555310348E-14   0.8861245588E-14   0.2500000004E-02  -0.1247500002E-02  -0.1247500002E-02  -0.8572468294E-19  -0.3511874177E-16  -0.1822979265E-14   0.1250000002E+01
   0.1002500000E+01   0.0000000000E+00   0.4727296866E-15   0.2250000000E-02   0.0000000000E+00  -0.7539023926E-18   0.2500000000E-03   0.0000000000E+00   0.4734835890E-15   0.1250000002E+01   0.6283881165E-13   0.4599429680E-13   0.1017711968E-14   0.6643385360E-15   0.8521582634E-14   0.2500000004E-02  -0.1247500002E-02  -0.1247500002E-02  -0.7501427025E-15   0.6649331380E-15  -0.1768698106E-14   0.1250000002E+01
   0.1002500000E+01   0.9987525000E+00  -0.4116210318E-15   0.2250000000E-02  -0.1122750000E-02  -0.1715578252E-18   0.2500000000E-03  -0.1247500000E-03  -0.4114494740E-15   0.1250000002E+01  -0.5757309220E-13  -0.7252823568E-13  -0.1178106237E-15  -0.6448006417E-15  -0.8129258752E-14   0.2500000004E-02  -0.1247500002E-02  -0.1247500002E-02  -0.1914021161E-15  -0.5053932593E-16   0.3810558021E-15   0.1250000002E+01
   0.0000000000E+00   0.9987525000E+00  -0.9116405518E-15   0.0000000000E+00  -0.1122750000E-02  -0.5325044297E-18   0.0000000000E+00  -0.1247500000E-03  -0.9111080473E-15   0.1250000002E+01   0.1129256202E-13  -0.8998153812E-14   0.4753727868E-15  -0.4021816299E-14  -0.7817860497E-14   0.2500000004E-02  -0.1247500002E-02  -0.1247500002E-02  -0.2814392291E-15   0.4077603736E-15   0.3610006493E-15   0.1250000002E+01
   0.0000000000E+00   0.0000000000E+00   0.9987525000E+00   0.0000000000E+00   0.0000000000E+00  -0.1122750000E-02   0.0000000000E+00   0.0000000000E+00  -0.1247500000E-03   0.1250000002E+01  -0.6983961649E-13  -0.5030311373E-13  -0.6057719380E-16  -0.4089670241E-14   0.8368364239E-14   0.2500000004E-02  -0.1247500002E-02  -0.1247500002E-02  -0.2507026307E-18   0.3316758549E-15  -0.1069290614E-14   0.1250000002E+01
   0.1002500000E+01   0.0000000000E+00   0.9987525000E+00   0.2250000000E-02   0.0000000000E+00  -0.1122750000E-02   0.2500000000E-03   0.0000000000E+00  -0.1247500000E-03   0.1250000002E+01  -0.2232580879E-14   0.1405755196E-13   0.5712620924E-15   0.7872250904E-15   0.7111087204E-14   0.2500000004E-02  -0.1247500002E-02  -0.1247500002E-02  -0.7447296660E-15   0.1388366715E-15  -0.1118759407E-14   0.1250000002E+01
   0.1002500000E+01   0.9987525000E+00   0.9987525000E+00   0.2250000000E-02  -0.1122750000E-02  -0.1122750000E-02   0.2500000000E-03  -0.1247500000E-03  -0.1247500000E-03   0.1250000002E+01   0.3881448078E-13   0.5132309584E-13   0.6238408629E-15  -0.1197297955E-15  -0.9084275453E-14   0.2500000003E-02  -0.1247500002E-02  -0.1247500002E-02  -0.1859681861E-15  -0.5847745645E-15   0.1031842667E-14   0.1250000002E+01
   0.0000000000E+00   0.9987525000E+00   0.9987525000E+00   0.0000000000E+00  -0.1122750000E-02  -0.1122750000E-02   0.0000000000E+00  -0.1247500000E-03  -0.1247500000E-03   0.1250000002E+01   0.1603284072E-12   0.1772162454E-12  -0.2901354567E-16  -0.4611921355E-14  -0.9400103894E-14   0.2500000003E-02  -0.1247500002E-02  -0.1247500002E-02  -0.3322339728E-15   0.6206671378E-15   0.1115175757E-14   0.1250000002E+01
   0.2005000000E+01   0.0000000000E+00   0.2906669769E-14   0.4500000000E-02   0.0000000000E+00  -0.6135137314E-18   0.5000000000E-03   0.0000000000E+00   0.2907283283E-14   0.1250000002E+01   0.2005623525E-12   0.1878101732E-12   0.4720481181E-14   0.6527008451E-14   0.8190000073E-14   0.2500000004E-02  -0.1247500002E-02  -0.1247500002E-02  -0.1571132679E-14   0.1264112150E-14  -0.3267480004E-14   0.1250000002E+01
   0.2005000000E+01   0.9987525000E+00   0.1272881806E-14   0.4500000000E-02  -0.1122750000E-02  -0.8352990618E-18   0.5000000000E-03  -0.1247500000E-03   0.1273717105E-14   0.1250000002E+01  -0.7133134036E-13  -0.8634093621E-13   0.1989707973E-14  -0.8864548004E-15  -0.6077972232E-14   0.2500000003E-02  -0.1247500002E-02  -0.1247500002E-02  -0.1714392439E-15  -0.6447925905E-15  -0.1082865838E-14   0.1250000002E+01
   0.2005000000E+01   0.0000000000E+00   0.9987525000E+00   0.4500000000E-02   0.0000000000E+00  -0.1122750000E-02   0.5000000000E-03   0.0000000000E+00  -0.1247500000E-03   0.1250000002E+01   0.2122793711E-13   0.3937328133E-13  -0.2084842317E-15   0.4999420181E-14   0.7625771647E-14   0.2500000003E-02  -0.1247500002E-02  -0.1247500002E-02  -0.1587214624E-14  -0.1653175862E-15  -0.2518177348E-14   0.1250000002E+01
   0.2005000000E+01   0.9987525000E+00   0.9987525000E+00   0.4500000000E-02  -0.1122750000E-02  -0.1122750000E-02   0.5000000000E-03  -0.1247500000E-03  -0.1247500000E-03   0.1250000002E+01  -0.3859285811E-13  -0.2234677801E-13   0.8435919959E-15   0.4019548489E-14  -0.6514002787E-14   0.2500000003E-02  -0.1247500002E-02  -0.1247500002E-02  -0.1367528080E-15  -0.1915072021E-14  -0.3335504642E-15   0.1250000002E+01
     1     2     3     4     5     6     7     8
     2     9    10     3     6    11    12     7
 VARIABLES = X,Y,Z,DU1,DU2,DU3,U1,U2,U3,S11,S22,S33,S12,S13,S23,E11,E22,E33,E12,E13,E23,SMISES
 ZONE, T="0.6550D+01" F=FEPOINT, I=   12 J=    2 ET=BRICK
   0.0000000000E+00   0.0000000000E+00   0.0000000000E+00   0.0000000000E+00   0.0000000000E+00   0.0000000000E+00   0.0000000000E+00   0.0000000000E+00   0.0000000000E+00   0.2375000004E+01   0.1651775179E-12   0.1487226034E-12  -0.1498916226E-15  -0.3332308188E-14   0.8957721212E-14   0.4750000007E-02  -0.2370250004E-02  -0.2370250004E-02  -0.2920836555E-18  -0.3388324698E-16  -0.1822335125E-14   0.2375000004E+01
   0.1004750000E+01   0.0000000000E+00   0.4735305419E-15   0.2250000000E-02   0.0000000000E+00   0.8008552876E-18   0.2500000000E-02   0.0000000000E+00   0.4727296866E-15   0.2375000004E+01  -0.5555398225E-13  -0.7253627857E-13   0.9747316918E-15   0.5748420244E-15   0.8422191684E-14   0.4750000007E-02  -0.2370250004E-02  -0.2370250004E-02  -0.7508104438E-15   0.6646897822E-15  -0.1770228647E-14   0.2375000004E+01
   0.1004750000E+01   0.9976297500E+00  -0.4113870768E-15   0.2250000000E-02  -0.1122750000E-02   0.2339549924E-18   0.2500000000E-02  -0.1247500000E-02  -0.4116210318E-15   0.2375000003E+01   0.7711890960E-14  -0.7214500578E-14  -0.7720864617E-16  -0.8084212640E-15  -0.8226883116E-14   0.4750000007E-02  -0.2370250003E-02  -0.2370250003E-02  -0.1908247925E-15  -0.5277111514E-16   0.3798830494E-15   0.2375000003E+01
   0.0000000000E+00   0.9976297500E+00  -0.9111577636E-15   0.0000000000E+00  -0.1122750000E-02   0.4827881544E-18   0.0000000000E+00  -0.1247500000E-02  -0.9116405518E-15   0.2375000003E+01  -0.1387729501E-13  -0.3426093862E-13   0.5934870754E-15  -0.4129005993E-14  -0.7762310147E-14   0.4750000007E-02  -0.2370250003E-02  -0.2370250003E-02  -0.2799399397E-15   0.4072345526E-15   0.3613314513E-15   0.2375000003E+01
   0.0000000000E+00   0.0000000000E+00   0.9976297500E+00   0.0000000000E+00   0.0000000000E+00  -0.1122750000E-02   0.0000000000E+00   0.0000000000E+00  -0.1247500000E-02   0.2375000003E+01   0.1025284017E-13   0.3017134675E-13  -0.4594107359E-16  -0.3957863767E-14   0.8212736249E-14   0.4750000007E-02  -0.2370250003E-02  -0.2370250003E-02   0.1451290548E-18   0.3346643530E-15  -0.1070728283E-14   0.2375000003E+01
   0.1004750000E+01   0.0000000000E+00   0.9976297500E+00   0.2250000000E-02   0.0000000000E+00  -0.1122750000E-02   0.2500000000E-02   0.0000000000E+00  -0.1247500000E-02   0.2375000003E+01   0.9455034379E-13   0.1108293210E-12   0.3414099196E-15   0.5661162021E-15   0.7047197639E-14   0.4750000007E-02  -0.2370250003E-02  -0.2370250003E-02  -0.7474914188E-15   0.1340382944E-15  -0.1118945997E-14   0.2375000003E+01
   0.1004750000E+01   0.9976297500E+00   0.9976297500E+00   0.2250000000E-02  -0.1122750000E-02  -0.1122750000E-02   0.2500000000E-02  -0.1247500000E-02  -0.1247500000E-02   0.2375000003E+01  -0.5525959485E-14   0.6910544476E-14   0.3486218822E-15  -0.4814888726E-16  -0.9265312542E-14   0.4750000006E-02  -0.2370250003E-02  -0.2370250003E-02  -0.1892287333E-15  -0.5828075806E-15   0.1029468832E-14   0.2375000003E+01
   0.0000000000E+00   0.9976297500E+00   0.9976297500E+00   0.0000000000E+00  -0.1122750000E-02  -0.1122750000E-02   0.0000000000E+00  -0.1247500000E-02  -0.1247500000E-02   0.2375000003E+01  -0.3171667557E-13  -0.1512113380E-13   0.3091711286E-16  -0.4561164918E-14  -0.9432480044E-14   0.4750000006E-02  -0.2370250003E-02  -0.2370250003E-02  -0.3315599461E-15   0.6197397088E-15   0.1115489719E-14   0.2375000003E+01
   0.2009500000E+01   0.0000000000E+00   0.2906539123E-14   0.4500000000E-02   0.0000000000E+00  -0.1306460141E-18   0.5000000000E-02   0.0000000000E+00   0.2906669769E-14   0.2375000004E+01  -0.2602629011E-12  -0.2730663748E-12   0.5288284300E-14   0.6812917652E-14   0.8438674253E-14   0.4750000007E-02  -0.2370250004E-02  -0.2370250004E-02  -0.1565600649E-14   0.1267366418E-14  -0.3265056972E-14   0.2375000004E+01
   0.2009500000E+01   0.9976297500E+00   0.1274263540E-14   0.4500000000E-02  -0.1122750000E-02   0.1381733798E-17   0.5000000000E-02  -0.1247500000E-02   0.1272881806E-14   0.2375000003E+01   0.5337149756E-13   0.3814407387E-13   0.2585588974E-14  -0.8241390900E-15  -0.5991061695E-14   0.4750000007E-02  -0.2370250003E-02  -0.2370250003E-02  -0.1653828067E-15  -0.6411422664E-15  -0.1080743132E-14   0.2375000003E+01
   0.2009500000E+01   0.0000000000E+00   0.9976297500E+00   0.4500000000E-02   0.0000000000E+00  -0.1122750000E-02   0.5000000000E-02   0.0000000000E+00  -0.1247500000E-02   0.2375000003E+01   0.1026651438E-12   0.1208705806E-12  -0.4619526925E-15   0.5852033582E-14   0.7919006184E-14   0.4750000007E-02  -0.2370250003E-02  -0.2370250003E-02  -0.1590676667E-14  -0.1541330421E-15  -0.2514163713E-14   0.2375000003E+01
   0.2009500000E+01   0.9976297500E+00   0.9976297500E+00   0.4500000000E-02  -0.1122750000E-02  -0.1122750000E-02   0.5000000000E-02  -0.1247500000E-02  -0.1247500000E-02   0.2375000003E+01  -0.2093322853E-13  -0.4285822506E-14   0.5034331055E-15   0.3594607167E-14  -0.6396997860E-14   0.4750000006E-02  -0.2370250003E-02  -0.2370250003E-02  -0.1391011196E-15  -0.1919875960E-14  -0.3326260890E-15   0.2375000003E+01
     1     2     3     4     5     6     7     8
     2     9    10     3     6    11    12     7
 VARIABLES = X,Y,Z,DU1,DU2,DU3,U1,U2,U3,S11,S22,S33,S12,S13,S23,E11,E22,E33,E12,E13,E23,SMISES
 ZONE, T="0.6600D+01" F=FEPOINT, I=   12 J=    2 ET=BRICK
   0.0000000000E+00   0.0000000000E+00   0.0000000000E+00   0.0000000000E+00   0.0000000000E+00   0.0000000000E+00   0.0000000000E+00   0.0000000000E+00   0.0000000000E+00   0.3500000005E+01   0.8821291559E-13   0.7195265481E-13  -0.1594964205E-15  -0.3491965142E-14   0.8826401734E-14   0.7000000011E-02  -0.3493000005E-02  -0.3493000005E-02   0.8418618457E-19  -0.3403637221E-16  -0.1823741344E-14   0.3500000005E+01
   0.1007000000E+01   0.0000000000E+00   0.4732612007E-15   0.2250000000E-02   0.0000000000E+00  -0.2693411907E-18   0.4750000000E-02   0.0000000000E+00   0.4735305419E-15   0.3500000005E+01  -0.1166612330E-13  -0.2874928266E-13   0.1054317786E-14   0.7246717394E-15   0.8371564314E-14   0.7000000011E-02  -0.3493000005E-02  -0.3493000005E-02  -0.7504774017E-15   0.6629576277E-15  -0.1770678566E-14   0.3500000005E+01
   0.1007000000E+01   0.9965070000E+00  -0.4119434110E-15   0.2250000000E-02  -0.1122750000E-02  -0.5563341469E-18   0.4750000000E-02  -0.2370250000E-02  -0.4113870768E-15   0.3500000005E+01  -0.2674360290E-13  -0.4120685015E-13  -0.1083088395E-16  -0.7205538982E-15  -0.8184364024E-14   0.7000000010E-02  -0.3493000005E-02  -0.3493000005E-02  -0.1909211732E-15  -0.5034703907E-16   0.3802405572E-15   0.3500000005E+01
   0.0000000000E+00   0.9965070000E+00  -0.9119635068E-15   0.0000000000E+00  -0.1122750000E-02  -0.8057432134E-18   0.0000000000E+00  -0.2370250000E-02  -0.9111577636E-15   0.3500000005E+01  -0.1819202084E-12  -0.2023302465E-12   0.6989502930E-15  -0.4121950527E-14  -0.7651164113E-14   0.7000000010E-02  -0.3493000005E-02  -0.3493000005E-02  -0.2782567638E-15   0.4070567221E-15   0.3650216019E-15   0.3500000005E+01
   0.0000000000E+00   0.0000000000E+00   0.9965070000E+00   0.0000000000E+00   0.0000000000E+00  -0.1122750000E-02   0.0000000000E+00   0.0000000000E+00  -0.2370250000E-02   0.3500000005E+01  -0.1009021695E-12  -0.8153887213E-13  -0.2622237468E-16  -0.4143301847E-14   0.8145843065E-14   0.7000000010E-02  -0.3493000005E-02  -0.3493000005E-02  -0.3794531220E-18   0.3320280776E-15  -0.1071783308E-14   0.3500000005E+01
   0.1007000000E+01   0.0000000000E+00   0.9965070000E+00   0.2250000000E-02   0.0000000000E+00  -0.1122750000E-02   0.4750000000E-02   0.0000000000E+00  -0.2370250000E-02   0.3500000005E+01  -0.9169326458E-13  -0.7562417996E-13   0.4545624848E-15   0.7481447055E-15   0.7110727192E-14   0.7000000010E-02  -0.3493000005E-02  -0.3493000005E-02  -0.7438940075E-15   0.1354915235E-15  -0.1117800141E-14   0.3500000005E+01
   0.1007000000E+01   0.9965070000E+00   0.9965070000E+00   0.2250000000E-02  -0.1122750000E-02  -0.1122750000E-02   0.4750000000E-02  -0.2370250000E-02  -0.2370250000E-02   0.3500000005E+01   0.1083402750E-12   0.1207814939E-12   0.5269825107E-15   0.6591701176E-16  -0.9039387247E-14   0.7000000009E-02  -0.3493000005E-02  -0.3493000005E-02  -0.1844784503E-15  -0.5779200454E-15   0.1034373814E-14   0.3500000005E+01
   0.0000000000E+00   0.9965070000E+00   0.9965070000E+00   0.0000000000E+00  -0.1122750000E-02  -0.1122750000E-02   0.0000000000E+00  -0.2370250000E-02  -0.2370250000E-02   0.3500000005E+01   0.6472173137E-13   0.8100416003E-13  -0.5376297550E-16  -0.4509218453E-14  -0.9314990340E-14   0.7000000009E-02  -0.3493000005E-02  -0.3493000005E-02  -0.3330351313E-15   0.6189193140E-15   0.1113944094E-14   0.3500000005E+01
   0.2014000000E+01   0.0000000000E+00   0.2908384723E-14   0.4500000000E-02   0.0000000000E+00   0.1845600510E-17   0.9500000000E-02   0.0000000000E+00   0.2906539123E-14   0.3500000005E+01   0.4404957771E-13   0.3154162069E-13   0.4724150818E-14   0.6162991756E-14   0.8227798916E-14   0.7000000011E-02  -0.3493000005E-02  -0.3493000005E-02  -0.1571476207E-14   0.1257476995E-14  -0.3266894565E-14   0.3500000005E+01
   0.2014000000E+01   0.9965070000E+00   0.1274903407E-14   0.4500000000E-02  -0.1122750000E-02   0.6398674021E-18   0.9500000000E-02  -0.2370250000E-02   0.1274263540E-14   0.3500000005E+01   0.1287182446E-12   0.1137704671E-12   0.2043056293E-14  -0.7245356523E-15  -0.6036016720E-14   0.7000000010E-02  -0.3493000005E-02  -0.3493000005E-02  -0.1730985698E-15  -0.6448770767E-15  -0.1081134623E-14   0.3500000005E+01
   0.2014000000E+01   0.0000000000E+00   0.9965070000E+00   0.4500000000E-02   0.0000000000E+00  -0.1122750000E-02   0.9500000000E-02   0.0000000000E+00  -0.2370250000E-02   0.3500000005E+01  -0.7353937929E-13  -0.5587155532E-13   0.1326076075E-15   0.5374653985E-14   0.7755058900E-14   0.7000000010E-02  -0.3493000005E-02  -0.3493000005E-02  -0.1585544482E-14  -0.1606037074E-15  -0.2515606092E-14   0.3500000005E+01
   0.2014000000E+01   0.9965070000E+00   0.9965070000E+00   0.4500000000E-02  -0.1122750000E-02  -0.1122750000E-02   0.9500000000E-02  -0.2370250000E-02  -0.2370250000E-02   0.3500000004E+01   0.3443873508E-13   0.5110137996E-13   0.1237557157E-14   0.3731198888E-14  -0.6468593764E-14   0.7000000009E-02  -0.3493000004E-02  -0.3493000004E-02  -0.1332743014E-15  -0.1914110458E-14  -0.3323289335E-15   0.3500000004E+01
     1     2     3     4     5     6     7     8
     2     9    10     3     6    11    12     7
 VARIABLES = X,Y,Z,DU1,DU2,DU3,U1,U2,U3,S11,S22,S33,S12,S13,S23,E11,E22,E33,E12,E13,E23,SMISES
 ZONE, T="0.6650D+01" F=FEPOINT, I=   12 J=    2 ET=BRICK
   0.0000000000E+00   0.0000000000E+00   0.0000000000E+00   0.0000000000E+00   0.0000000000E+00   0.0000000000E+00   0.0000000000E+00   0.0000000000E+00   0.0000000000E+00   0.4625000007E+01  -0.8506639974E-13  -0.1016483048E-12  -0.1780989724E-15  -0.3759570587E-14   0.8905565018E-14   0.9250000015E-02  -0.4615750007E-02  -0.4615750007E-02  -0.5000558019E-18  -0.4038362279E-16  -0.1822376854E-14   0.4625000007E+01
   0.1009250000E+01   0.0000000000E+00   0.4712506237E-15   0.2250000000E-02   0.0000000000E+00  -0.2010576988E-17   0.7000000000E-02   0.0000000000E+00   0.4732612007E-15   0.4625000007E+01   0.3112352603E-14  -0.1441091040E-13   0.1738260834E-14   0.1251204298E-14   0.8659259639E-14   0.9250000014E-02  -0.4615750007E-02  -0.4615750007E-02  -0.7405325041E-15   0.6750887897E-15  -0.1766705000E-14   0.4625000007E+01
   0.1009250000E+01   0.9953842500E+00  -0.4121763097E-15   0.2250000000E-02  -0.1122750000E-02  -0.2328986797E-18   0.7000000000E-02  -0.3493000000E-02  -0.4119434110E-15   0.4625000007E+01   0.1384344851E-13  -0.1514880192E-14   0.6103067803E-15  -0.1196505722E-14  -0.8428526712E-14   0.9250000013E-02  -0.4615750007E-02  -0.4615750007E-02  -0.1817955692E-15  -0.5566391895E-16   0.3789923700E-15   0.4625000007E+01
   0.0000000000E+00   0.9953842500E+00  -0.9114553847E-15   0.0000000000E+00  -0.1122750000E-02   0.5081221060E-18   0.0000000000E+00  -0.3493000000E-02  -0.9119635068E-15   0.4625000007E+01   0.4488970544E-13   0.2409706760E-13   0.8665751677E-15  -0.4132896191E-14  -0.8021255989E-14   0.9250000013E-02  -0.4615750007E-02  -0.4615750007E-02  -0.2758969151E-15   0.4063547290E-15   0.3587474569E-15   0.4625000007E+01
   0.0000000000E+00   0.0000000000E+00   0.9953842500E+00   0.0000000000E+00   0.0000000000E+00  -0.1122750000E-02   0.0000000000E+00   0.0000000000E+00  -0.3493000000E-02   0.4625000007E+01   0.6117916997E-14   0.2562145111E-13  -0.4969305907E-17  -0.4059893556E-14   0.8380824420E-14   0.9250000013E-02  -0.4615750007E-02  -0.4615750007E-02   0.1342046395E-18   0.3320041442E-15  -0.1069149327E-14   0.4625000007E+01
   0.1009250000E+01   0.0000000000E+00   0.9953842500E+00   0.2250000000E-02   0.0000000000E+00  -0.1122750000E-02   0.7000000000E-02   0.0000000000E+00  -0.3493000000E-02   0.4625000007E+01   0.5734887439E-13   0.7427240349E-13  -0.9561383777E-16   0.1181641146E-14   0.7139485227E-14   0.9250000013E-02  -0.4615750007E-02  -0.4615750007E-02  -0.7497480598E-15   0.1478146779E-15  -0.1118338775E-14   0.4625000007E+01
   0.1009250000E+01   0.9953842500E+00   0.9953842500E+00   0.2250000000E-02  -0.1122750000E-02  -0.1122750000E-02   0.7000000000E-02  -0.3493000000E-02  -0.3493000000E-02   0.4625000006E+01  -0.9583909483E-13  -0.8299840928E-13   0.9147476244E-16  -0.4903281900E-15  -0.9591640650E-14   0.9250000012E-02  -0.4615750006E-02  -0.4615750006E-02  -0.1906073183E-15  -0.5890290062E-15   0.1024059560E-14   0.4625000006E+01
   0.0000000000E+00   0.9953842500E+00   0.9953842500E+00   0.0000000000E+00  -0.1122750000E-02  -0.1122750000E-02   0.0000000000E+00  -0.3493000000E-02  -0.3493000000E-02   0.4625000006E+01  -0.5042708522E-13  -0.3327733066E-13  -0.1421693629E-15  -0.4788256147E-14  -0.9474702844E-14   0.9250000012E-02  -0.4615750006E-02  -0.4615750006E-02  -0.3336434881E-15   0.6168681663E-15   0.1119276619E-14   0.4625000006E+01
   0.2018500000E+01   0.0000000000E+00   0.2901416612E-14   0.4500000000E-02   0.0000000000E+00  -0.6968111650E-17   0.1400000000E-01   0.0000000000E+00   0.2908384723E-14   0.4625000007E+01  -0.1810332315E-14  -0.1435148922E-13   0.5073578630E-14   0.6527110207E-14   0.8772803862E-14   0.9250000014E-02  -0.4615750007E-02  -0.4615750007E-02  -0.1568585805E-14   0.1257124560E-14  -0.3259807364E-14   0.4625000007E+01
   0.2018500000E+01   0.9953842500E+00   0.1271243054E-14   0.4500000000E-02  -0.1122750000E-02  -0.3660353018E-17   0.1400000000E-01  -0.3493000000E-02   0.1274903407E-14   0.4625000006E+01  -0.4845415211E-13  -0.6361799590E-13   0.2114081076E-14  -0.1144378422E-14  -0.5733601049E-14   0.9250000013E-02  -0.4615750006E-02  -0.4615750006E-02  -0.1728945357E-15  -0.6410423881E-15  -0.1077584569E-14   0.4625000006E+01
   0.2018500000E+01   0.0000000000E+00   0.9953842500E+00   0.4500000000E-02   0.0000000000E+00  -0.1122750000E-02   0.1400000000E-01   0.0000000000E+00  -0.3493000000E-02   0.4625000006E+01   0.8598822637E-13   0.1044177983E-12  -0.4472144427E-15   0.6056130953E-14   0.8070546860E-14   0.9250000013E-02  -0.4615750006E-02  -0.4615750006E-02  -0.1589872176E-14  -0.1540425491E-15  -0.2513731082E-14   0.4625000006E+01
   0.2018500000E+01   0.9953842500E+00   0.9953842500E+00   0.4500000000E-02  -0.1122750000E-02  -0.1122750000E-02   0.1400000000E-01  -0.3493000000E-02  -0.3493000000E-02   0.4625000006E+01  -0.7314818245E-13  -0.5669470071E-13   0.9361866585E-15   0.3791751885E-14  -0.6372278638E-14   0.9250000012E-02  -0.4615750006E-02  -0.4615750006E-02  -0.1379501408E-15  -0.1919418154E-14  -0.3289999050E-15   0.4625000006E+01
     1     2     3     4     5     6     7     8
     2     9    10     3     6    11    12     7
 VARIABLES = X,Y,Z,DU1,DU2,DU3,U1,U2,U3,S11,S22,S33,S12,S13,S23,E11,E22,E33,E12,E13,E23,SMISES
 ZONE, T="0.6700D+01" F=FEPOINT, I=   12 J=    2 ET=BRICK
   0.0000000000E+00   0.0000000000E+00   0.0000000000E+00   0.0000000000E+00   0.0000000000E+00   0.0000000000E+00   0.0000000000E+00   0.0000000000E+00   0.0000000000E+00   0.5750000009E+01  -0.2357921484E-13  -0.3950567938E-13  -0.1817968216E-15  -0.3608356154E-14   0.8779542442E-14   0.1150000002E-01  -0.5738500009E-02  -0.5738500009E-02  -0.1436871677E-18  -0.3281452953E-16  -0.1824159936E-14   0.5750000009E+01
   0.1011500000E+01   0.0000000000E+00   0.4729576948E-15   0.2250000000E-02   0.0000000000E+00   0.1707071096E-17   0.9250000000E-02   0.0000000000E+00   0.4712506237E-15   0.5750000009E+01  -0.2152290840E-13  -0.3869677154E-13   0.1954103652E-14   0.1156946559E-14   0.8492555531E-14   0.1150000002E-01  -0.5738500009E-02  -0.5738500009E-02  -0.7403150371E-15   0.6643930076E-15  -0.1769643726E-14   0.5750000009E+01
   0.1011500000E+01   0.9942615000E+00  -0.4114083046E-15   0.2250000000E-02  -0.1122750000E-02   0.7680051100E-18   0.9250000000E-02  -0.4615750000E-02  -0.4121763097E-15   0.5750000008E+01  -0.1942637438E-13  -0.3453145137E-13   0.6664995329E-15  -0.1197492291E-14  -0.7920432938E-14   0.1150000002E-01  -0.5738500008E-02  -0.5738500008E-02  -0.1853249863E-15  -0.5486300282E-16   0.3849071948E-15   0.5750000008E+01
   0.0000000000E+00   0.9942615000E+00  -0.9122179599E-15   0.0000000000E+00  -0.1122750000E-02  -0.7625751565E-18   0.0000000000E+00  -0.4615750000E-02  -0.9114553847E-15   0.5750000008E+01   0.2513140595E-13   0.4420771459E-14   0.8502857686E-15  -0.3940849962E-14  -0.7563705784E-14   0.1150000002E-01  -0.5738500008E-02  -0.5738500008E-02  -0.2750804794E-15   0.4083801862E-15   0.3630810443E-15   0.5750000008E+01
   0.0000000000E+00   0.0000000000E+00   0.9942615000E+00   0.0000000000E+00   0.0000000000E+00  -0.1122750000E-02   0.0000000000E+00   0.0000000000E+00  -0.4615750000E-02   0.5750000008E+01   0.4157580447E-13   0.6039215691E-13  -0.5917009004E-17  -0.4152294799E-14   0.7904280504E-14   0.1150000002E-01  -0.5738500008E-02  -0.5738500008E-02   0.1608762046E-17   0.3304913239E-15  -0.1073281428E-14   0.5750000008E+01
   0.1011500000E+01   0.0000000000E+00   0.9942615000E+00   0.2250000000E-02   0.0000000000E+00  -0.1122750000E-02   0.9250000000E-02   0.0000000000E+00  -0.4615750000E-02   0.5750000008E+01  -0.4892855413E-13  -0.3252095834E-13   0.4324818021E-15   0.1165593861E-14   0.6889572027E-14   0.1150000002E-01  -0.5738500008E-02  -0.5738500008E-02  -0.7448962663E-15   0.1462498982E-15  -0.1121464609E-14   0.5750000008E+01
   0.1011500000E+01   0.9942615000E+00   0.9942615000E+00   0.2250000000E-02  -0.1122750000E-02  -0.1122750000E-02   0.9250000000E-02  -0.4615750000E-02  -0.4615750000E-02   0.5750000008E+01   0.5969920341E-13   0.7180589661E-13   0.4892300123E-15  -0.3558674095E-15  -0.9188032134E-14   0.1150000002E-01  -0.5738500008E-02  -0.5738500008E-02  -0.1809281054E-15  -0.5828292469E-15   0.1031281924E-14   0.5750000008E+01
   0.0000000000E+00   0.9942615000E+00   0.9942615000E+00   0.0000000000E+00  -0.1122750000E-02  -0.1122750000E-02   0.0000000000E+00  -0.4615750000E-02  -0.4615750000E-02   0.5750000008E+01   0.9308920526E-13   0.1092504524E-12  -0.1222289988E-15  -0.4503236135E-14  -0.9339947841E-14   0.1150000002E-01  -0.5738500008E-02  -0.5738500008E-02  -0.3341408513E-15   0.6193275292E-15   0.1117943746E-14   0.5750000008E+01
   0.2023000000E+01   0.0000000000E+00   0.2908102035E-14   0.4500000000E-02   0.0000000000E+00   0.6685422884E-17   0.1850000000E-01   0.0000000000E+00   0.2901416612E-14   0.5750000009E+01   0.2663838661E-13   0.1524284074E-13   0.4940665329E-14   0.5563373696E-14   0.8301807062E-14   0.1150000002E-01  -0.5738500009E-02  -0.5738500009E-02  -0.1566869728E-14   0.1266025395E-14  -0.3265225033E-14   0.5750000009E+01
   0.2023000000E+01   0.9942615000E+00   0.1275175586E-14   0.4500000000E-02  -0.1122750000E-02   0.3932531879E-17   0.1850000000E-01  -0.4615750000E-02   0.1271243054E-14   0.5750000008E+01  -0.1185656993E-12  -0.1331127467E-12   0.1834247300E-14  -0.8263168914E-15  -0.5609948831E-14   0.1150000002E-01  -0.5738500008E-02  -0.5738500008E-02  -0.1749343754E-15  -0.6338150453E-15  -0.1077773754E-14   0.5750000008E+01
   0.2023000000E+01   0.0000000000E+00   0.9942615000E+00   0.4500000000E-02   0.0000000000E+00  -0.1122750000E-02   0.1850000000E-01   0.0000000000E+00  -0.4615750000E-02   0.5750000008E+01  -0.7677492330E-13  -0.5849774004E-13   0.6663762750E-15   0.5322741006E-14   0.7548980906E-14   0.1150000002E-01  -0.5738500008E-02  -0.5738500008E-02  -0.1586703946E-14  -0.1709391930E-15  -0.2520473396E-14   0.5750000008E+01
   0.2023000000E+01   0.9942615000E+00   0.9942615000E+00   0.4500000000E-02  -0.1122750000E-02  -0.1122750000E-02   0.1850000000E-01  -0.4615750000E-02  -0.4615750000E-02   0.5750000007E+01   0.1712509171E-13   0.3353521431E-13   0.1845761076E-14   0.4247292919E-14  -0.6392848669E-14   0.1150000001E-01  -0.5738500007E-02  -0.5738500007E-02  -0.1317034309E-15  -0.1905321636E-14  -0.3289252032E-15   0.5750000007E+01
     1     2     3     4     5     6     7     8
     2     9    10     3     6    11    12     7
 VARIABLES = X,Y,Z,DU1,DU2,DU3,U1,U2,U3,S11,S22,S33,S12,S13,S23,E11,E22,E33,E12,E13,E23,SMISES
 ZONE, T="0.6750D+01" F=FEPOINT, I=   12 J=    2 ET=BRICK
   0.0000000000E+00   0.0000000000E+00   0.0000000000E+00   0.0000000000E+00   0.0000000000E+00   0.0000000000E+00   0.0000000000E+00   0.0000000000E+00   0.0000000000E+00   0.6875000011E+01  -0.5394370492E-13  -0.6935968052E-13  -0.1860432817E-15  -0.3553544105E-14   0.8327796277E-14   0.1375000002E-01  -0.6861250011E-02  -0.6861250011E-02   0.1026931517E-17  -0.3463461555E-16  -0.1830398644E-14   0.6875000011E+01
   0.1013750000E+01   0.0000000000E+00   0.4747453890E-15   0.2250000000E-02   0.0000000000E+00   0.1787694166E-17   0.1150000000E-01   0.0000000000E+00   0.4729576948E-15   0.6875000011E+01   0.2608560446E-13   0.9781060006E-14   0.1704424961E-14   0.1252037078E-14   0.8130567886E-14   0.1375000002E-01  -0.6861250011E-02  -0.6861250011E-02  -0.7424080422E-15   0.6802519551E-15  -0.1772857591E-14   0.6875000011E+01
   0.1013750000E+01   0.9931387500E+00  -0.4117139039E-15   0.2250000000E-02  -0.1122750000E-02  -0.3055992953E-18   0.1150000000E-01  -0.5738500000E-02  -0.4114083046E-15   0.6875000010E+01  -0.3388492928E-13  -0.4775495481E-13   0.5447515610E-15  -0.1161815136E-14  -0.7513548781E-14   0.1375000002E-01  -0.6861250010E-02  -0.6861250010E-02  -0.1760411669E-15  -0.5989550066E-16   0.3915320227E-15   0.6875000010E+01
   0.0000000000E+00   0.9931387500E+00  -0.9148847622E-15   0.0000000000E+00  -0.1122750000E-02  -0.2666802299E-17   0.0000000000E+00  -0.5738500000E-02  -0.9122179599E-15   0.6875000010E+01  -0.6713679023E-14  -0.2714131339E-13   0.7556695803E-15  -0.3748490312E-14  -0.7444426702E-14   0.1375000002E-01  -0.6861250010E-02  -0.6861250010E-02  -0.2823213071E-15   0.4106268471E-15   0.3650735760E-15   0.6875000010E+01
   0.0000000000E+00   0.0000000000E+00   0.9931387500E+00   0.0000000000E+00   0.0000000000E+00  -0.1122750000E-02   0.0000000000E+00   0.0000000000E+00  -0.5738500000E-02   0.6875000010E+01   0.9901222056E-14   0.2708451524E-13   0.1565099685E-16  -0.3863231052E-14   0.7641239727E-14   0.1375000002E-01  -0.6861250010E-02  -0.6861250010E-02  -0.4682232031E-18   0.3343739481E-15  -0.1076662618E-14   0.6875000010E+01
   0.1013750000E+01   0.0000000000E+00   0.9931387500E+00   0.2250000000E-02   0.0000000000E+00  -0.1122750000E-02   0.1150000000E-01   0.0000000000E+00  -0.5738500000E-02   0.6875000010E+01  -0.2171838920E-14   0.1426550516E-13   0.1879889136E-16   0.1313580420E-14   0.6581199703E-14   0.1375000002E-01  -0.6861250010E-02  -0.6861250010E-02  -0.7505555986E-15   0.1431157599E-15  -0.1126542183E-14   0.6875000010E+01
   0.1013750000E+01   0.9931387500E+00   0.9931387500E+00   0.2250000000E-02  -0.1122750000E-02  -0.1122750000E-02   0.1150000000E-01  -0.5738500000E-02  -0.5738500000E-02   0.6875000009E+01  -0.1002295788E-13   0.1325439020E-14   0.3140575970E-15  -0.4006545636E-15  -0.8850100324E-14   0.1375000002E-01  -0.6861250009E-02  -0.6861250009E-02  -0.1912624702E-15  -0.5870360678E-15   0.1036714961E-14   0.6875000009E+01
   0.0000000000E+00   0.9931387500E+00   0.9931387500E+00   0.0000000000E+00  -0.1122750000E-02  -0.1122750000E-02   0.0000000000E+00  -0.5738500000E-02  -0.5738500000E-02   0.6875000009E+01  -0.7515287135E-13  -0.5848803849E-13  -0.4916111361E-16  -0.4357587430E-14  -0.8977128854E-14   0.1375000002E-01  -0.6861250009E-02  -0.6861250009E-02  -0.3307922846E-15   0.6243672902E-15   0.1128070367E-14   0.6875000009E+01
   0.2027500000E+01   0.0000000000E+00   0.2917289166E-14   0.4500000000E-02   0.0000000000E+00   0.9187131621E-17   0.2300000000E-01   0.0000000000E+00   0.2908102035E-14   0.6875000010E+01   0.1665822036E-12   0.1550825386E-12   0.4664118349E-14   0.5845070603E-14   0.7911541649E-14   0.1375000002E-01  -0.6861250010E-02  -0.6861250010E-02  -0.1572400406E-14   0.1255649292E-14  -0.3270326956E-14   0.6875000010E+01
   0.2027500000E+01   0.9931387500E+00   0.1281918710E-14   0.4500000000E-02  -0.1122750000E-02   0.6743124486E-17   0.2300000000E-01  -0.5738500000E-02   0.1275175586E-14   0.6875000010E+01   0.5062149869E-14  -0.8939215909E-14   0.1943693502E-14  -0.1275692689E-14  -0.5387113822E-14   0.1375000002E-01  -0.6861250010E-02  -0.6861250010E-02  -0.1714889015E-15  -0.6467782446E-15  -0.1072809751E-14   0.6875000010E+01
   0.2027500000E+01   0.0000000000E+00   0.9931387500E+00   0.4500000000E-02   0.0000000000E+00  -0.1122750000E-02   0.2300000000E-01   0.0000000000E+00  -0.5738500000E-02   0.6875000010E+01  -0.1026695926E-12  -0.8567354209E-13   0.2378715018E-15   0.5205339112E-14   0.7216375167E-14   0.1375000002E-01  -0.6861250010E-02  -0.6861250010E-02  -0.1591962509E-14  -0.1557207882E-15  -0.2523294390E-14   0.6875000010E+01
   0.2027500000E+01   0.9931387500E+00   0.9931387500E+00   0.4500000000E-02  -0.1122750000E-02  -0.1122750000E-02   0.2300000000E-01  -0.5738500000E-02  -0.5738500000E-02   0.6875000009E+01   0.2331513704E-14   0.1805372519E-13   0.1453824934E-14   0.4100191687E-14  -0.6118695872E-14   0.1375000002E-01  -0.6861250009E-02  -0.6861250009E-02  -0.1356879614E-15  -0.1919226175E-14  -0.3271622669E-15   0.6875000009E+01
     1     2     3     4     5     6     7     8
     2     9    10     3     6    11    12     7
 VARIABLES = X,Y,Z,DU1,DU2,DU3,U1,U2,U3,S11,S22,S33,S12,S13,S23,E11,E22,E33,E12,E13,E23,SMISES
 ZONE, T="0.6800D+01" F=FEPOINT, I=   12 J=    2 ET=BRICK
   0.0000000000E+00   0.0000000000E+00   0.0000000000E+00   0.0000000000E+00   0.0000000000E+00   0.0000000000E+00   0.0000000000E+00   0.0000000000E+00   0.0000000000E+00   0.8000000013E+01   0.2900450594E-13   0.1276237537E-13  -0.1932920096E-15  -0.3680448425E-14   0.8754325883E-14   0.1600000003E-01  -0.7984000013E-02  -0.7984000013E-02   0.2771677896E-17  -0.3344913109E-16  -0.1824751005E-14   0.8000000013E+01
   0.1016000000E+01   0.0000000000E+00   0.4725107337E-15   0.2250000000E-02   0.0000000000E+00  -0.2234655345E-17   0.1375000000E-01   0.0000000000E+00   0.4747453890E-15   0.8000000012E+01   0.1555067082E-13  -0.1230628803E-14   0.1490692109E-14   0.1173193136E-14   0.8417871643E-14   0.1600000002E-01  -0.7984000012E-02  -0.7984000012E-02  -0.7500003398E-15   0.6667268448E-15  -0.1771153964E-14   0.8000000012E+01
   0.1016000000E+01   0.9920160000E+00  -0.4122795854E-15   0.2250000000E-02  -0.1122750000E-02  -0.5656815258E-18   0.1375000000E-01  -0.6861250000E-02  -0.4117139039E-15   0.8000000011E+01   0.1206100320E-13  -0.2759614923E-14   0.2971099158E-15  -0.1131919686E-14  -0.8136254275E-14   0.1600000002E-01  -0.7984000011E-02  -0.7984000011E-02  -0.1891348755E-15  -0.5788821976E-16   0.3839456297E-15   0.8000000011E+01
   0.0000000000E+00   0.9920160000E+00  -0.9123056593E-15   0.0000000000E+00  -0.1122750000E-02   0.2579102899E-17   0.0000000000E+00  -0.6861250000E-02  -0.9148847622E-15   0.8000000012E+01  -0.6708398015E-15  -0.2211002223E-13   0.8352276885E-15  -0.3999930035E-14  -0.7844324874E-14   0.1600000002E-01  -0.7984000012E-02  -0.7984000012E-02  -0.2823836001E-15   0.4042226412E-15   0.3645658547E-15   0.8000000012E+01
   0.0000000000E+00   0.0000000000E+00   0.9920160000E+00   0.0000000000E+00   0.0000000000E+00  -0.1122750000E-02   0.0000000000E+00   0.0000000000E+00  -0.6861250000E-02   0.8000000012E+01  -0.6933503910E-13  -0.5143262770E-13   0.2873780279E-16  -0.4031734350E-14   0.8198917500E-14   0.1600000002E-01  -0.7984000012E-02  -0.7984000012E-02  -0.1768991340E-17   0.3332875348E-15  -0.1070532869E-14   0.8000000012E+01
   0.1016000000E+01   0.0000000000E+00   0.9920160000E+00   0.2250000000E-02   0.0000000000E+00  -0.1122750000E-02   0.1375000000E-01   0.0000000000E+00  -0.6861250000E-02   0.8000000011E+01  -0.3850722671E-13  -0.2186669769E-13   0.8013934230E-16   0.1072031499E-14   0.7042500343E-14   0.1600000002E-01  -0.7984000011E-02  -0.7984000011E-02  -0.7507617260E-15   0.1368642546E-15  -0.1115141623E-14   0.8000000011E+01
   0.1016000000E+01   0.9920160000E+00   0.9920160000E+00   0.2250000000E-02  -0.1122750000E-02  -0.1122750000E-02   0.1375000000E-01  -0.6861250000E-02  -0.6861250000E-02   0.8000000010E+01   0.6432317325E-13   0.7697700692E-13   0.5225950596E-15  -0.4617169416E-15  -0.9161754248E-14   0.1600000002E-01  -0.7984000010E-02  -0.7984000010E-02  -0.1898970925E-15  -0.5858911571E-15   0.1032705859E-14   0.8000000010E+01
   0.0000000000E+00   0.9920160000E+00   0.9920160000E+00   0.0000000000E+00  -0.1122750000E-02  -0.1122750000E-02   0.0000000000E+00  -0.6861250000E-02  -0.6861250000E-02   0.8000000011E+01   0.6534615196E-13   0.8375506646E-13  -0.1222381884E-15  -0.4619562930E-14  -0.9271370754E-14   0.1600000002E-01  -0.7984000011E-02  -0.7984000011E-02  -0.3281876068E-15   0.6191826666E-15   0.1114509017E-14   0.8000000011E+01
   0.2032000000E+01   0.0000000000E+00   0.2906333381E-14   0.4500000000E-02   0.0000000000E+00  -0.1095578549E-16   0.2750000000E-01   0.0000000000E+00   0.2917289166E-14   0.8000000012E+01  -0.7727071463E-13  -0.9033305370E-13   0.4425487011E-14   0.6170383473E-14   0.8172759417E-14   0.1600000002E-01  -0.7984000012E-02  -0.7984000012E-02  -0.1576485534E-14   0.1275250587E-14  -0.3265624198E-14   0.8000000012E+01
   0.2032000000E+01   0.9920160000E+00   0.1272358953E-14   0.4500000000E-02  -0.1122750000E-02  -0.9559756961E-17   0.2750000000E-01  -0.6861250000E-02   0.1281918710E-14   0.8000000011E+01  -0.1017267182E-12  -0.1162331286E-12   0.1647687273E-14  -0.9700363589E-15  -0.5770828522E-14   0.1600000002E-01  -0.7984000011E-02  -0.7984000011E-02  -0.1787635944E-15  -0.6523840995E-15  -0.1080004478E-14   0.8000000011E+01
   0.2032000000E+01   0.0000000000E+00   0.9920160000E+00   0.4500000000E-02   0.0000000000E+00  -0.1122750000E-02   0.2750000000E-01   0.0000000000E+00  -0.6861250000E-02   0.8000000011E+01   0.3499898516E-13   0.5206687973E-13  -0.1246709610E-15   0.5392033809E-14   0.7798981977E-14   0.1600000002E-01  -0.7984000011E-02  -0.7984000011E-02  -0.1594666546E-14  -0.1703142142E-15  -0.2520242827E-14   0.8000000011E+01
   0.2032000000E+01   0.9920160000E+00   0.9920160000E+00   0.4500000000E-02  -0.1122750000E-02  -0.1122750000E-02   0.2750000000E-01  -0.6861250000E-02  -0.6861250000E-02   0.8000000010E+01   0.8651723646E-13   0.1030031886E-12   0.1445782445E-14   0.4350322235E-14  -0.6151547439E-14   0.1600000002E-01  -0.7984000010E-02  -0.7984000010E-02  -0.1411762091E-15  -0.1904003099E-14  -0.3310498429E-15   0.8000000010E+01
     1     2     3     4     5     6     7     8
     2     9    10     3     6    11    12     7
 VARIABLES = X,Y,Z,DU1,DU2,DU3,U1,U2,U3,S11,S22,S33,S12,S13,S23,E11,E22,E33,E12,E13,E23,SMISES
 ZONE, T="0.6850D+01" F=FEPOINT, I=   12 J=    2 ET=BRICK
   0.0000000000E+00   0.0000000000E+00   0.0000000000E+00   0.0000000000E+00   0.0000000000E+00   0.0000000000E+00   0.0000000000E+00   0.0000000000E+00   0.0000000000E+00   0.9125000014E+01   0.6531543576E-13   0.5055616409E-13  -0.1808008982E-15  -0.3444265408E-14   0.7950277655E-14   0.1825000003E-01  -0.9106750014E-02  -0.9106750014E-02   0.1727098122E-18  -0.3402448106E-16  -0.1830954914E-14   0.9125000014E+01
   0.1018250000E+01   0.0000000000E+00   0.4763672804E-15   0.2250000000E-02   0.0000000000E+00   0.3856546707E-17   0.1600000000E-01   0.0000000000E+00   0.4725107337E-15   0.9125000014E+01  -0.4994586105E-13  -0.6507776835E-13   0.1481859622E-14   0.1322034039E-14   0.7746103214E-14   0.1825000003E-01  -0.9106750014E-02  -0.9106750014E-02  -0.7402844985E-15   0.6812273617E-15  -0.1778676606E-14   0.9125000014E+01
   0.1018250000E+01   0.9908932500E+00  -0.4124623321E-15   0.2250000000E-02  -0.1122750000E-02  -0.1827467299E-18   0.1600000000E-01  -0.7984000000E-02  -0.4122795854E-15   0.9125000013E+01  -0.4005050031E-13  -0.5360631862E-13   0.3490989236E-15  -0.1245590660E-14  -0.7246180326E-14   0.1825000003E-01  -0.9106750013E-02  -0.9106750013E-02  -0.1807925072E-15  -0.5869809594E-16   0.3972613717E-15   0.9125000013E+01
   0.0000000000E+00   0.9908932500E+00  -0.9171799563E-15   0.0000000000E+00  -0.1122750000E-02  -0.4874297003E-17   0.0000000000E+00  -0.7984000000E-02  -0.9123056593E-15   0.9125000013E+01  -0.1315628527E-12  -0.1513268800E-12   0.8306828396E-15  -0.3526507452E-14  -0.7134961808E-14   0.1825000003E-01  -0.9106750013E-02  -0.9106750013E-02  -0.2803365224E-15   0.4138126990E-15   0.3635117863E-15   0.9125000013E+01
   0.0000000000E+00   0.0000000000E+00   0.9908932500E+00   0.0000000000E+00   0.0000000000E+00  -0.1122750000E-02   0.0000000000E+00   0.0000000000E+00  -0.7984000000E-02   0.9125000013E+01  -0.4063398741E-14   0.1231551678E-13   0.1272588131E-16  -0.3523125734E-14   0.7398578214E-14   0.1825000003E-01  -0.9106750013E-02  -0.9106750013E-02   0.5779013439E-18   0.3453347270E-15  -0.1082178545E-14   0.9125000013E+01
   0.1018250000E+01   0.0000000000E+00   0.9908932500E+00   0.2250000000E-02   0.0000000000E+00  -0.1122750000E-02   0.1600000000E-01   0.0000000000E+00  -0.7984000000E-02   0.9125000013E+01   0.5603030966E-13   0.7110272032E-13  -0.9871258319E-16   0.1076259441E-14   0.6094992945E-14   0.1825000003E-01  -0.9106750013E-02  -0.9106750013E-02  -0.7520764516E-15   0.1353195019E-15  -0.1132312373E-14   0.9125000013E+01
   0.1018250000E+01   0.9908932500E+00   0.9908932500E+00   0.2250000000E-02  -0.1122750000E-02  -0.1122750000E-02   0.1600000000E-01  -0.7984000000E-02  -0.7984000000E-02   0.9125000012E+01   0.9465289465E-14   0.2016641226E-13   0.2972929203E-15  -0.4812742045E-15  -0.8552358756E-14   0.1825000002E-01  -0.9106750012E-02  -0.9106750012E-02  -0.1937424608E-15  -0.5869991591E-15   0.1041585562E-14   0.9125000012E+01
   0.0000000000E+00   0.9908932500E+00   0.9908932500E+00   0.0000000000E+00  -0.1122750000E-02  -0.1122750000E-02   0.0000000000E+00  -0.7984000000E-02  -0.7984000000E-02   0.9125000012E+01   0.4480507038E-13   0.6188278525E-13  -0.2408756324E-16  -0.4500485957E-14  -0.8523692892E-14   0.1825000002E-01  -0.9106750012E-02  -0.9106750012E-02  -0.3230134247E-15   0.6216143382E-15   0.1137499157E-14   0.9125000012E+01
   0.2036500000E+01   0.0000000000E+00   0.2921754005E-14   0.4500000000E-02   0.0000000000E+00   0.1542062397E-16   0.3200000000E-01   0.0000000000E+00   0.2906333381E-14   0.9125000014E+01  -0.7292174107E-13  -0.8444969562E-13   0.4718915873E-14   0.5515628674E-14   0.7767089700E-14   0.1825000003E-01  -0.9106750014E-02  -0.9106750014E-02  -0.1579840548E-14   0.1251386612E-14  -0.3270472148E-14   0.9125000014E+01
   0.2036500000E+01   0.9908932500E+00   0.1285325919E-14   0.4500000000E-02  -0.1122750000E-02   0.1296696617E-16   0.3200000000E-01  -0.7984000000E-02   0.1272358953E-14   0.9125000013E+01   0.1493983084E-12   0.1354648012E-12   0.2261406007E-14  -0.1194231829E-14  -0.5028224385E-14   0.1825000003E-01  -0.9106750013E-02  -0.9106750013E-02  -0.1729121863E-15  -0.6511085731E-15  -0.1075062388E-14   0.9125000013E+01
   0.2036500000E+01   0.0000000000E+00   0.9908932500E+00   0.4500000000E-02   0.0000000000E+00  -0.1122750000E-02   0.3200000000E-01   0.0000000000E+00  -0.7984000000E-02   0.9125000013E+01   0.5818518489E-13   0.7469106484E-13  -0.2239223661E-15   0.5292166329E-14   0.7117528915E-14   0.1825000003E-01  -0.9106750013E-02  -0.9106750013E-02  -0.1591678220E-14  -0.1780071147E-15  -0.2528505046E-14   0.9125000013E+01
   0.2036500000E+01   0.9908932500E+00   0.9908932500E+00   0.4500000000E-02  -0.1122750000E-02  -0.1122750000E-02   0.3200000000E-01  -0.7984000000E-02  -0.7984000000E-02   0.9125000012E+01  -0.4816407382E-13  -0.3320161753E-13   0.1039253028E-14   0.3870824654E-14  -0.5682244309E-14   0.1825000002E-01  -0.9106750012E-02  -0.9106750012E-02  -0.1616594319E-15  -0.1924645507E-14  -0.3278800936E-15   0.9125000012E+01
     1     2     3     4     5     6     7     8
     2     9    10     3     6    11    12     7
 VARIABLES = X,Y,Z,DU1,DU2,DU3,U1,U2,U3,S11,S22,S33,S12,S13,S23,E11,E22,E33,E12,E13,E23,SMISES
 ZONE, T="0.6900D+01" F=FEPOINT, I=   12 J=    2 ET=BRICK
   0.0000000000E+00   0.0000000000E+00   0.0000000000E+00   0.0000000000E+00   0.0000000000E+00   0.0000000000E+00   0.0000000000E+00   0.0000000000E+00   0.0000000000E+00   0.1025000002E+02  -0.3876862170E-12  -0.4079168926E-12  -0.1498750787E-15  -0.7440062671E-13  -0.5364115939E-13   0.2550000004E-01  -0.1272950002E-01  -0.1272950002E-01  -0.2949071175E-17  -0.1101497000E-14  -0.2683244292E-14   0.1025000002E+02
   0.1025500000E+01   0.0000000000E+00   0.7005447511E-16   0.7250000000E-02   0.0000000000E+00  -0.4063128053E-15   0.1825000000E-01   0.0000000000E+00   0.4763672804E-15   0.1025000002E+02   0.4044637284E-12   0.4497665064E-12   0.2282885955E-15  -0.3665294292E-13   0.5073569130E-14   0.2550000004E-01  -0.1272950002E-01  -0.1272950002E-01  -0.7307425681E-15   0.9252649329E-16  -0.1750214562E-14   0.1025000002E+02
   0.1025500000E+01   0.9872705000E+00  -0.8045869170E-15   0.7250000000E-02  -0.3622750000E-02  -0.3921245849E-15   0.1825000000E-01  -0.9106750000E-02  -0.4124623321E-15   0.1025000001E+02  -0.2619535153E-12  -0.2178422343E-12   0.2988349067E-15  -0.1267789868E-13   0.1483559068E-13   0.2550000004E-01  -0.1272950002E-01  -0.1272950002E-01  -0.1695343913E-15  -0.2074379181E-15   0.6922384388E-15   0.1025000001E+02
   0.0000000000E+00   0.9872705000E+00  -0.1341604575E-14   0.0000000000E+00  -0.3622750000E-02  -0.4244246183E-15   0.0000000000E+00  -0.9106750000E-02  -0.9171799563E-15   0.1025000001E+02   0.1735195342E-12   0.1543069189E-12  -0.2222962335E-13   0.6947327398E-15  -0.4256873093E-13   0.2550000004E-01  -0.1272950002E-01  -0.1272950002E-01  -0.6172547669E-15   0.4453220015E-15  -0.1954412559E-15   0.1025000001E+02
   0.0000000000E+00   0.0000000000E+00   0.9872705000E+00   0.0000000000E+00   0.0000000000E+00  -0.3622750000E-02   0.0000000000E+00   0.0000000000E+00  -0.9106750000E-02   0.1025000001E+02  -0.5899325916E-13  -0.1004984335E-12   0.5707488709E-16  -0.4857278195E-13  -0.5199348369E-13   0.2550000004E-01  -0.1272950002E-01  -0.1272950002E-01   0.1965840857E-17  -0.3513815447E-15  -0.1915661726E-14   0.1025000001E+02
   0.1025500000E+01   0.0000000000E+00   0.9872705000E+00   0.7250000000E-02   0.0000000000E+00  -0.3622750000E-02   0.1825000000E-01   0.0000000000E+00  -0.9106750000E-02   0.1025000001E+02   0.1728619742E-12   0.1984097636E-12  -0.9007263448E-15  -0.3654037690E-13   0.3090268922E-14   0.2550000004E-01  -0.1272950002E-01  -0.1272950002E-01  -0.7481846380E-15  -0.4129346773E-15  -0.1122482537E-14   0.1025000001E+02
   0.1025500000E+01   0.9872705000E+00   0.9872705000E+00   0.7250000000E-02  -0.3622750000E-02  -0.3622750000E-02   0.1825000000E-01  -0.9106750000E-02  -0.9106750000E-02   0.1025000001E+02  -0.1253489983E-12  -0.1052986618E-12  -0.6331387351E-15  -0.1279787408E-13   0.1318225144E-13   0.2550000003E-01  -0.1272950002E-01  -0.1272950002E-01  -0.1989952043E-15  -0.7493306125E-15   0.1306338557E-14   0.1025000001E+02
   0.0000000000E+00   0.9872705000E+00   0.9872705000E+00   0.0000000000E+00  -0.3622750000E-02  -0.3622750000E-02   0.0000000000E+00  -0.9106750000E-02  -0.9106750000E-02   0.1025000001E+02   0.2184984619E-12   0.1813181032E-12  -0.2468981212E-13   0.2256245377E-13  -0.4162264388E-13   0.2550000003E-01  -0.1272950002E-01  -0.1272950002E-01  -0.6888589045E-15   0.9885422130E-15   0.5789866067E-15   0.1025000001E+02
   0.2051000000E+01   0.0000000000E+00   0.2622257144E-14   0.1450000000E-01   0.0000000000E+00  -0.2994968602E-15   0.3650000000E-01   0.0000000000E+00   0.2921754005E-14   0.1025000002E+02   0.7083830647E-13   0.4963604276E-13   0.2480825025E-14   0.1335214349E-14  -0.1132485519E-14   0.2550000004E-01  -0.1272950002E-01  -0.1272950002E-01  -0.1570752207E-14   0.1209299420E-14  -0.3299430330E-14   0.1025000002E+02
   0.2051000000E+01   0.9872705000E+00   0.9713931491E-15   0.1450000000E-01  -0.3622750000E-02  -0.3139327704E-15   0.3650000000E-01  -0.9106750000E-02   0.1285325919E-14   0.1025000001E+02  -0.1062405598E-12  -0.1274653827E-12   0.2539390840E-13  -0.2501059798E-13   0.9657763350E-14   0.2550000004E-01  -0.1272950002E-01  -0.1272950002E-01   0.1666841641E-15  -0.1009084419E-14  -0.8476255063E-15   0.1025000001E+02
   0.2051000000E+01   0.0000000000E+00   0.9872705000E+00   0.1450000000E-01   0.0000000000E+00  -0.3622750000E-02   0.3650000000E-01   0.0000000000E+00  -0.9106750000E-02   0.1025000001E+02  -0.3456900912E-12  -0.3844138733E-12   0.2745533111E-15  -0.2511059536E-13  -0.2116353090E-14   0.2550000004E-01  -0.1272950002E-01  -0.1272950002E-01  -0.1555843677E-14  -0.6175197007E-15  -0.2580557804E-14   0.1025000001E+02
   0.2051000000E+01   0.9872705000E+00   0.9872705000E+00   0.1450000000E-01  -0.3622750000E-02  -0.3622750000E-02   0.3650000000E-01  -0.9106750000E-02  -0.9106750000E-02   0.1025000001E+02   0.5619691466E-12   0.5205343572E-12   0.2579419812E-13  -0.4450582164E-13   0.8886206233E-14   0.2550000003E-01  -0.1272950002E-01  -0.1272950002E-01   0.2306940505E-15  -0.2548353605E-14  -0.1084970949E-15   0.1025000001E+02
     1     2     3     4     5     6     7     8
     2     9    10     3     6    11    12     7
 VARIABLES = X,Y,Z,DU1,DU2,DU3,U1,U2,U3,S11,S22,S33,S12,S13,S23,E11,E22,E33,E12,E13,E23,SMISES
 ZONE, T="0.6950D+01" F=FEPOINT, I=   12 J=    2 ET=BRICK
   0.0000000000E+00   0.0000000000E+00   0.0000000000E+00   0.0000000000E+00   0.0000000000E+00   0.0000000000E+00   0.0000000000E+00   0.0000000000E+00   0.0000000000E+00   0.1137500002E+02   0.8959828255E-12   0.8753144689E-12  -0.1162355333E-15   0.9557986670E-13   0.1197608034E-12   0.5025000008E-01  -0.2510225004E-01  -0.2510225004E-01   0.4304755839E-18   0.2110800323E-14   0.1061018588E-14   0.1137500002E+02
   0.1050250000E+01   0.0000000000E+00   0.1108286058E-14   0.2475000000E-01   0.0000000000E+00   0.1038231583E-14   0.2550000000E-01   0.0000000000E+00   0.7005447511E-16   0.1137500002E+02  -0.4254785820E-12  -0.5053888509E-12   0.5953297298E-14   0.5098793235E-13   0.3316312663E-13   0.5025000008E-01  -0.2510225004E-01  -0.2510225004E-01  -0.5247272672E-15   0.1709695627E-14  -0.8326971978E-15   0.1137500002E+02
   0.1050250000E+01   0.9748977500E+00   0.6941099288E-15   0.2475000000E-01  -0.1237275000E-01   0.1498696846E-14   0.2550000000E-01  -0.1272950000E-01  -0.8045869170E-15   0.1137500002E+02   0.7228068134E-12   0.6334979410E-12   0.1006452666E-13   0.1658764759E-13  -0.2648556066E-13   0.5025000007E-01  -0.2510225004E-01  -0.2510225004E-01   0.7464666237E-16   0.3535107304E-15  -0.1791094998E-15   0.1137500002E+02
   0.0000000000E+00   0.9748977500E+00   0.5306735386E-15   0.0000000000E+00  -0.1237275000E-01   0.1872278113E-14   0.0000000000E+00  -0.1272950000E-01  -0.1341604575E-14   0.1137500002E+02   0.3551710928E-12   0.3210746644E-12   0.1935615890E-13  -0.1771773915E-13   0.5739989802E-13   0.5025000007E-01  -0.2510225004E-01  -0.2510225004E-01   0.1520949730E-15  -0.2208567342E-16   0.1675525402E-14   0.1137500002E+02
   0.0000000000E+00   0.0000000000E+00   0.9748977500E+00   0.0000000000E+00   0.0000000000E+00  -0.1237275000E-01   0.0000000000E+00   0.0000000000E+00  -0.1272950000E-01   0.1137500002E+02  -0.2698854115E-12  -0.1631404897E-12   0.8598833108E-16   0.7442202044E-13   0.1133884789E-12   0.5025000007E-01  -0.2510225004E-01  -0.2510225004E-01  -0.1170720316E-17   0.1991320276E-14   0.1559410291E-14   0.1137500002E+02
   0.1050250000E+01   0.0000000000E+00   0.9748977500E+00   0.2475000000E-01   0.0000000000E+00  -0.1237275000E-01   0.2550000000E-01   0.0000000000E+00  -0.1272950000E-01   0.1137500002E+02   0.1696628027E-12   0.2101299891E-12   0.6376145106E-14   0.4583479887E-13   0.2709841999E-13   0.5025000007E-01  -0.2510225004E-01  -0.2510225004E-01  -0.4981179624E-15   0.1149757149E-14  -0.3831167836E-15   0.1137500002E+02
   0.1050250000E+01   0.9748977500E+00   0.9748977500E+00   0.2475000000E-01  -0.1237275000E-01  -0.1237275000E-01   0.2550000000E-01  -0.1272950000E-01  -0.1272950000E-01   0.1137500001E+02   0.3907682135E-12   0.4173523503E-12   0.1267565024E-13   0.1208867959E-13  -0.3225026362E-13   0.5025000007E-01  -0.2510225003E-01  -0.2510225003E-01   0.1338039611E-15  -0.2789486583E-15   0.2486676169E-15   0.1137500001E+02
   0.0000000000E+00   0.9748977500E+00   0.9748977500E+00   0.0000000000E+00  -0.1237275000E-01  -0.1237275000E-01   0.0000000000E+00  -0.1272950000E-01  -0.1272950000E-01   0.1137500002E+02  -0.4339962016E-12  -0.3420116191E-12   0.2212103295E-13  -0.3670705254E-13   0.5018934489E-13   0.5025000007E-01  -0.2510225003E-01  -0.2510225003E-01   0.1840767037E-15  -0.2270992562E-15   0.2174538015E-14   0.1137500002E+02
   0.2100500000E+01   0.0000000000E+00   0.2414776022E-14   0.4950000000E-01   0.0000000000E+00  -0.2074811225E-15   0.5100000000E-01   0.0000000000E+00   0.2622257144E-14   0.1137500002E+02  -0.3778922694E-12  -0.4348170923E-12   0.1348496888E-13   0.7295256964E-14   0.5112133930E-13   0.5025000008E-01  -0.2510225004E-01  -0.2510225004E-01  -0.1144983687E-14   0.1131109579E-14  -0.1722718433E-14   0.1137500002E+02
   0.2100500000E+01   0.9748977500E+00   0.1552406645E-14   0.4950000000E-01  -0.1237275000E-01   0.5810134955E-15   0.5100000000E-01  -0.1272950000E-01   0.9713931491E-15   0.1137500002E+02   0.2760602292E-12   0.2087941813E-12   0.1739998144E-14   0.4590722405E-13  -0.6539244333E-14   0.5025000007E-01  -0.2510225004E-01  -0.2510225004E-01  -0.1066635875E-15   0.5163813317E-15  -0.1013808495E-14   0.1137500002E+02
   0.2100500000E+01   0.0000000000E+00   0.9748977500E+00   0.4950000000E-01   0.0000000000E+00  -0.1237275000E-01   0.5100000000E-01   0.0000000000E+00  -0.1272950000E-01   0.1137500002E+02   0.1055153703E-11   0.1115924294E-11   0.1100800111E-13   0.1626842078E-13   0.4440241300E-13   0.5025000007E-01  -0.2510225004E-01  -0.2510225004E-01  -0.1137958416E-14   0.6684528549E-16  -0.1221791034E-14   0.1137500002E+02
   0.2100500000E+01   0.9748977500E+00   0.9748977500E+00   0.4950000000E-01  -0.1237275000E-01  -0.1237275000E-01   0.5100000000E-01  -0.1272950000E-01  -0.1272950000E-01   0.1137500001E+02  -0.4596507332E-12  -0.4122428815E-12   0.2214128994E-14   0.5832671849E-13  -0.1248001583E-13   0.5025000006E-01  -0.2510225003E-01  -0.2510225003E-01  -0.1742214918E-16  -0.3944382004E-15  -0.4985183445E-15   0.1137500001E+02
     1     2     3     4     5     6     7     8
     2     9    10     3     6    11    12     7
 VARIABLES = X,Y,Z,DU1,DU2,DU3,U1,U2,U3,S11,S22,S33,S12,S13,S23,E11,E22,E33,E12,E13,E23,SMISES
 ZONE, T="0.7000D+01" F=FEPOINT, I=   12 J=    2 ET=BRICK
   0.0000000000E+00   0.0000000000E+00   0.0000000000E+00   0.0000000000E+00   0.0000000000E+00   0.0000000000E+00   0.0000000000E+00   0.0000000000E+00   0.0000000000E+00   0.1250000002E+02   0.6502217131E-12   0.6437410013E-12  -0.6575331622E-17  -0.1383079472E-14   0.3281596796E-14   0.7500000012E-01  -0.3747500006E-01  -0.3747500006E-01  -0.5980897013E-17   0.8462412466E-15  -0.2573412440E-15   0.1250000002E+02
   0.1075000000E+01   0.0000000000E+00   0.6368332517E-15   0.2475000000E-01   0.0000000000E+00  -0.4714528059E-15   0.5025000000E-01   0.0000000000E+00   0.1108286058E-14   0.1250000002E+02   0.7189160606E-13   0.6701089687E-13  -0.2309074099E-15  -0.2397322865E-15   0.3689509632E-14   0.7500000012E-01  -0.3747500006E-01  -0.3747500006E-01  -0.5248425720E-15   0.9671968651E-15  -0.9996783130E-15   0.1250000002E+02
   0.1075000000E+01   0.9625250000E+00   0.1302027829E-15   0.2475000000E-01  -0.1237275000E-01  -0.5639071459E-15   0.5025000000E-01  -0.2510225000E-01   0.6941099288E-15   0.1250000002E+02  -0.5061769239E-12  -0.5131590859E-12  -0.3495498094E-15  -0.2601255175E-15  -0.1866525764E-14   0.7500000011E-01  -0.3747500005E-01  -0.3747500005E-01  -0.5373245677E-16   0.1166263688E-15   0.7368013695E-16   0.1250000002E+02
   0.0000000000E+00   0.9625250000E+00  -0.1291125346E-15   0.0000000000E+00  -0.1237275000E-01  -0.6597860732E-15   0.0000000000E+00  -0.2510225000E-01   0.5306735386E-15   0.1250000002E+02  -0.1052978100E-12  -0.1108584593E-12   0.1745284043E-15  -0.6492943026E-15  -0.2343424167E-14   0.7500000011E-01  -0.3747500005E-01  -0.3747500005E-01  -0.7769565835E-16   0.1454902099E-15   0.8101244701E-15   0.1250000002E+02
   0.0000000000E+00   0.0000000000E+00   0.9625250000E+00   0.0000000000E+00   0.0000000000E+00  -0.1237275000E-01   0.0000000000E+00   0.0000000000E+00  -0.2510225000E-01   0.1250000002E+02  -0.2338773955E-13  -0.1762682284E-13   0.8263127044E-16  -0.1039665834E-14   0.2514686275E-14   0.7500000011E-01  -0.3747500005E-01  -0.3747500005E-01  -0.1205228759E-17   0.9376045522E-15   0.2410320839E-15   0.1250000002E+02
   0.1075000000E+01   0.0000000000E+00   0.9625250000E+00   0.2475000000E-01   0.0000000000E+00  -0.1237275000E-01   0.5025000000E-01   0.0000000000E+00  -0.2510225000E-01   0.1250000002E+02   0.2915426555E-12   0.3007888175E-12   0.9627334552E-15  -0.9600760541E-15   0.1703410386E-14   0.7500000011E-01  -0.3747500005E-01  -0.3747500005E-01  -0.5148351426E-15   0.5504374780E-15  -0.6034811106E-15   0.1250000002E+02
   0.1075000000E+01   0.9625250000E+00   0.9625250000E+00   0.2475000000E-01  -0.1237275000E-01  -0.1237275000E-01   0.5025000000E-01  -0.2510225000E-01  -0.2510225000E-01   0.1250000002E+02   0.8683097634E-13   0.8669604126E-13   0.9596684163E-15   0.6385225625E-15  -0.3604715701E-14   0.7500000010E-01  -0.3747500005E-01  -0.3747500005E-01   0.1710217350E-16  -0.3546675135E-15   0.4789418989E-15   0.1250000002E+02
   0.0000000000E+00   0.9625250000E+00   0.9625250000E+00   0.0000000000E+00  -0.1237275000E-01  -0.1237275000E-01   0.0000000000E+00  -0.2510225000E-01  -0.2510225000E-01   0.1250000002E+02  -0.1049744843E-11  -0.1043420844E-11   0.5522626028E-16  -0.1789341308E-14  -0.2789056356E-14   0.7500000010E-01  -0.3747500005E-01  -0.3747500005E-01  -0.7027129088E-16   0.1495433423E-15   0.1368448013E-14   0.1250000002E+02
   0.2150000000E+01   0.0000000000E+00   0.2139015763E-14   0.4950000000E-01   0.0000000000E+00  -0.2757602593E-15   0.1005000000E+00   0.0000000000E+00   0.2414776022E-14   0.1250000002E+02  -0.5427718776E-13  -0.5729656705E-13   0.8571680591E-15   0.9942348653E-16   0.3600606690E-14   0.7500000011E-01  -0.3747500006E-01  -0.3747500006E-01  -0.1159274599E-14   0.1021227742E-14  -0.2020123095E-14   0.1250000002E+02
   0.2150000000E+01   0.9625250000E+00   0.1130192368E-14   0.4950000000E-01  -0.1237275000E-01  -0.4222142768E-15   0.1005000000E+00  -0.2510225000E-01   0.1552406645E-14   0.1250000002E+02   0.3984003714E-12   0.3916859447E-12   0.7207203209E-16   0.1729169484E-14  -0.2187987267E-14   0.7500000010E-01  -0.3747500005E-01  -0.3747500005E-01  -0.1377201755E-15  -0.5980425401E-16  -0.8934693356E-15   0.1250000002E+02
   0.2150000000E+01   0.0000000000E+00   0.9625250000E+00   0.4950000000E-01   0.0000000000E+00  -0.1237275000E-01   0.1005000000E+00   0.0000000000E+00  -0.2510225000E-01   0.1250000002E+02  -0.7312891250E-12  -0.7248620744E-12   0.2783641416E-14   0.2510941724E-14   0.1686639989E-14   0.7500000010E-01  -0.3747500005E-01  -0.3747500005E-01  -0.1094782619E-14  -0.1586360613E-15  -0.1533419446E-14   0.1250000002E+02
   0.2150000000E+01   0.9625250000E+00   0.9625250000E+00   0.4950000000E-01  -0.1237275000E-01  -0.1237275000E-01   0.1005000000E+00  -0.2510225000E-01  -0.2510225000E-01   0.1250000002E+02   0.7989361388E-12   0.8059262714E-12   0.2658509315E-14   0.1897038465E-14  -0.3566803978E-14   0.7500000010E-01  -0.3747500005E-01  -0.3747500005E-01   0.9721964364E-17  -0.8490416088E-15  -0.3866163180E-15   0.1250000002E+02
     1     2     3     4     5     6     7     8
     2     9    10     3     6    11    12     7
 VARIABLES = X,Y,Z,DU1,DU2,DU3,U1,U2,U3,S11,S22,S33,S12,S13,S23,E11,E22,E33,E12,E13,E23,SMISES
 ZONE, T="0.7050D+01" F=FEPOINT, I=   12 J=    2 ET=BRICK
   0.0000000000E+00   0.0000000000E+00   0.0000000000E+00   0.0000000000E+00   0.0000000000E+00   0.0000000000E+00   0.0000000000E+00   0.0000000000E+00   0.0000000000E+00   0.1137500002E+02  -0.2253245664E-11  -0.2637053750E-11  -0.7629722819E-17  -0.3860119566E-12  -0.1055003421E-12   0.7275000011E-01  -0.3635225006E-01  -0.3635225006E-01  -0.5634408522E-17  -0.3755716453E-14  -0.1545657236E-14   0.1137500002E+02
   0.1072750000E+01   0.0000000000E+00  -0.1742827236E-14  -0.2250000000E-02   0.0000000000E+00  -0.2379660488E-14   0.7500000000E-01   0.0000000000E+00   0.6368332517E-15   0.1137500002E+02   0.5486337029E-12   0.4452267180E-12  -0.9281296108E-13  -0.2549509702E-12   0.1155692126E-12   0.7275000011E-01  -0.3635225006E-01  -0.3635225006E-01  -0.1629515341E-14  -0.2135577445E-14   0.3216380924E-15   0.1137500002E+02
   0.1072750000E+01   0.9636477500E+00  -0.1578604758E-14  -0.2250000000E-02   0.1122750000E-02  -0.1708807541E-14   0.7500000000E-01  -0.3747500000E-01   0.1302027829E-15   0.1137500002E+02   0.6735762758E-12   0.7549420781E-12  -0.8447815916E-13  -0.1548964404E-12  -0.6038160347E-13   0.7275000010E-01  -0.3635225005E-01  -0.3635225005E-01  -0.1054628181E-14  -0.1683022154E-14  -0.6046013943E-15   0.1137500002E+02
   0.0000000000E+00   0.9636477500E+00  -0.7813659438E-15   0.0000000000E+00   0.1122750000E-02  -0.6522534092E-15   0.0000000000E+00  -0.3747500000E-01  -0.1291125346E-15   0.1137500002E+02  -0.4384032313E-12  -0.6268369681E-12  -0.9907620585E-13  -0.1049062106E-12  -0.2708349190E-12   0.7275000011E-01  -0.3635225005E-01  -0.3635225005E-01  -0.1251423623E-14  -0.1116083740E-14  -0.2405898145E-14   0.1137500002E+02
   0.0000000000E+00   0.0000000000E+00   0.9636477500E+00   0.0000000000E+00   0.0000000000E+00   0.1122750000E-02   0.0000000000E+00   0.0000000000E+00  -0.3747500000E-01   0.1137500002E+02  -0.4052883808E-12  -0.4579963350E-12   0.9733854394E-16  -0.2716377395E-12  -0.8506143905E-14   0.7275000011E-01  -0.3635225005E-01  -0.3635225005E-01   0.1640863105E-16  -0.2261591471E-14   0.1024986640E-15   0.1137500002E+02
   0.1072750000E+01   0.0000000000E+00   0.9636477500E+00  -0.2250000000E-02   0.0000000000E+00   0.1122750000E-02   0.7500000000E-01   0.0000000000E+00  -0.3747500000E-01   0.1137500002E+02   0.2095617630E-13   0.2732420364E-12  -0.9279474484E-13  -0.2547833590E-12   0.2068273257E-12   0.7275000010E-01  -0.3635225005E-01  -0.3635225005E-01  -0.1653663041E-14  -0.2524271496E-14   0.1843457489E-14   0.1137500002E+02
   0.1072750000E+01   0.9636477500E+00   0.9636477500E+00  -0.2250000000E-02   0.1122750000E-02   0.1122750000E-02   0.7500000000E-01  -0.3747500000E-01  -0.3747500000E-01   0.1137500001E+02  -0.4552980264E-12  -0.2733893447E-13  -0.9051348850E-13  -0.1568363481E-12   0.3109326422E-13   0.7275000010E-01  -0.3635225005E-01  -0.3635225005E-01  -0.1087879481E-14  -0.2231794889E-14   0.8975067098E-15   0.1137500001E+02
   0.0000000000E+00   0.9636477500E+00   0.9636477500E+00   0.0000000000E+00   0.1122750000E-02   0.1122750000E-02   0.0000000000E+00  -0.3747500000E-01  -0.3747500000E-01   0.1137500002E+02   0.6507735173E-12   0.7951466642E-12  -0.1121638926E-12   0.2989574687E-14  -0.1735275109E-12   0.7275000010E-01  -0.3635225005E-01  -0.3635225005E-01  -0.1403830099E-14   0.1882705204E-15  -0.6932580229E-15   0.1137500002E+02
   0.2145500000E+01   0.0000000000E+00  -0.2914410547E-14  -0.4500000000E-02   0.0000000000E+00  -0.5053426309E-14   0.1500000000E+00   0.0000000000E+00   0.2139015763E-14   0.1137500002E+02   0.3265562003E-12  -0.8515776518E-13  -0.1832009717E-12  -0.1190474170E-12   0.9735720032E-13   0.7275000011E-01  -0.3635225005E-01  -0.3635225005E-01  -0.3393419242E-14  -0.4358329476E-15  -0.8868692076E-15   0.1137500002E+02
   0.2145500000E+01   0.9636477500E+00  -0.3360989710E-14  -0.4500000000E-02   0.1122750000E-02  -0.4491182078E-14   0.1500000000E+00  -0.3747500000E-01   0.1130192368E-14   0.1137500002E+02   0.5341585375E-12   0.3010652336E-12  -0.6790858428E-13  -0.1987244665E-12  -0.8024562220E-13   0.7275000010E-01  -0.3635225005E-01  -0.3635225005E-01  -0.9699168756E-15  -0.2426435909E-14  -0.1836523527E-14   0.1137500002E+02
   0.2145500000E+01   0.0000000000E+00   0.9636477500E+00  -0.4500000000E-02   0.0000000000E+00   0.1122750000E-02   0.1500000000E+00   0.0000000000E+00  -0.3747500000E-01   0.1137500002E+02   0.4148281882E-12   0.3572070665E-12  -0.1846281835E-12  -0.2289047186E-12   0.1859638637E-12   0.7275000010E-01  -0.3635225005E-01  -0.3635225005E-01  -0.3306202499E-14  -0.2913661991E-14   0.7143346418E-15   0.1137500002E+02
   0.2145500000E+01   0.9636477500E+00   0.9636477500E+00  -0.4500000000E-02   0.1122750000E-02   0.1122750000E-02   0.1500000000E+00  -0.3747500000E-01  -0.3747500000E-01   0.1137500001E+02   0.2388139312E-12   0.3629831548E-12  -0.6791239344E-13  -0.3130251082E-12   0.8912349240E-14   0.7275000009E-01  -0.3635225005E-01  -0.3635225005E-01  -0.7878649114E-15  -0.4618604444E-14  -0.2431018454E-15   0.1137500001E+02
     1     2     3     4     5     6     7     8
     2     9    10     3     6    11    12     7
 VARIABLES = X,Y,Z,DU1,DU2,DU3,U1,U2,U3,S11,S22,S33,S12,S13,S23,E11,E22,E33,E12,E13,E23,SMISES
 ZONE, T="0.7100D+01" F=FEPOINT, I=   12 J=    2 ET=BRICK
   0.0000000000E+00   0.0000000000E+00   0.0000000000E+00   0.0000000000E+00   0.0000000000E+00   0.0000000000E+00   0.0000000000E+00   0.0000000000E+00   0.0000000000E+00   0.1025000002E+02   0.7356263993E-13   0.6605511479E-13  -0.5051335113E-16  -0.2130060091E-14   0.3890310319E-14   0.7050000011E-01  -0.3522950006E-01  -0.3522950006E-01  -0.2207894492E-17   0.8129478568E-15  -0.2463436822E-15   0.1025000002E+02
   0.1070500000E+01   0.0000000000E+00   0.6288670172E-15  -0.2250000000E-02   0.0000000000E+00   0.2371694253E-14   0.7275000000E-01   0.0000000000E+00  -0.1742827236E-14   0.1025000002E+02   0.5647304860E-13   0.4704256130E-13   0.2036262111E-15  -0.8251808275E-15   0.4408297927E-14   0.7050000011E-01  -0.3522950005E-01  -0.3522950005E-01  -0.5100953603E-15   0.1013389709E-14  -0.1005744185E-14   0.1025000002E+02
   0.1070500000E+01   0.9647705000E+00   0.1267524439E-15  -0.2250000000E-02   0.1122750000E-02   0.1705357202E-14   0.7275000000E-01  -0.3635225000E-01  -0.1578604758E-14   0.1025000001E+02  -0.3925348980E-13  -0.4777402182E-13   0.3263772164E-15   0.7137972628E-16  -0.4132447093E-14   0.7050000010E-01  -0.3522950005E-01  -0.3522950005E-01   0.2596853816E-17   0.1196669354E-15   0.7415772920E-16   0.1025000001E+02
   0.0000000000E+00   0.9647705000E+00  -0.1256927235E-15   0.0000000000E+00   0.1122750000E-02   0.6556732203E-15   0.0000000000E+00  -0.3635225000E-01  -0.7813659438E-15   0.1025000001E+02  -0.5194518002E-13  -0.5988376975E-13   0.1338636570E-14  -0.1296805875E-14  -0.2601626109E-14   0.7050000010E-01  -0.3522950005E-01  -0.3522950005E-01  -0.6043230760E-16   0.1397309515E-15   0.8104437519E-15   0.1025000001E+02
   0.0000000000E+00   0.0000000000E+00   0.9647705000E+00   0.0000000000E+00   0.0000000000E+00   0.1122750000E-02   0.0000000000E+00   0.0000000000E+00  -0.3635225000E-01   0.1025000001E+02   0.2991539181E-14   0.8503580632E-14   0.1399706125E-15  -0.2099754997E-14   0.3254941986E-14   0.7050000010E-01  -0.3522950005E-01  -0.3522950005E-01  -0.2367360918E-17   0.9560539779E-15   0.2221632243E-15   0.1025000001E+02
   0.1070500000E+01   0.0000000000E+00   0.9647705000E+00  -0.2250000000E-02   0.0000000000E+00   0.1122750000E-02   0.7275000000E-01   0.0000000000E+00  -0.3635225000E-01   0.1025000001E+02   0.5804913681E-13   0.6988439506E-13   0.1742505650E-14  -0.1266404026E-14   0.3626853935E-14   0.7050000010E-01  -0.3522950005E-01  -0.3522950005E-01  -0.4689486934E-15   0.5094616093E-15  -0.5921811054E-15   0.1025000001E+02
   0.1070500000E+01   0.9647705000E+00   0.9647705000E+00  -0.2250000000E-02   0.1122750000E-02   0.1122750000E-02   0.7275000000E-01  -0.3635225000E-01  -0.3635225000E-01   0.1025000001E+02   0.1060619582E-13   0.1473949764E-13   0.1268273774E-14   0.9822267754E-15  -0.4784649317E-14   0.7050000009E-01  -0.3522950005E-01  -0.3522950005E-01  -0.6991628872E-17  -0.3364007964E-15   0.4518270478E-15   0.1025000001E+02
   0.0000000000E+00   0.9647705000E+00   0.9647705000E+00   0.0000000000E+00   0.1122750000E-02   0.1122750000E-02   0.0000000000E+00  -0.3635225000E-01  -0.3635225000E-01   0.1025000001E+02  -0.7094515222E-13  -0.6397893267E-13  -0.1673152143E-14  -0.1428201948E-14  -0.2809357748E-14   0.7050000009E-01  -0.3522950005E-01  -0.3522950005E-01  -0.7346230269E-16   0.1685135298E-15   0.1322701029E-14   0.1025000001E+02
   0.2141000000E+01   0.0000000000E+00   0.2109152836E-14  -0.4500000000E-02   0.0000000000E+00   0.5023563382E-14   0.1455000000E+00   0.0000000000E+00  -0.2914410547E-14   0.1025000002E+02   0.6687342728E-13   0.6034118984E-13   0.1668606458E-15   0.9681371312E-15   0.4787847895E-14   0.7050000011E-01  -0.3522950005E-01  -0.3522950005E-01  -0.1191866552E-14   0.8804263183E-15  -0.2010117360E-14   0.1025000002E+02
   0.2141000000E+01   0.9647705000E+00   0.1107520242E-14  -0.4500000000E-02   0.1122750000E-02   0.4468509953E-14   0.1455000000E+00  -0.3635225000E-01  -0.3360989710E-14   0.1025000001E+02   0.4420466797E-13   0.3735452400E-13  -0.1202217925E-14   0.2339505890E-14  -0.3341227365E-14   0.7050000010E-01  -0.3522950005E-01  -0.3522950005E-01  -0.1500044932E-15  -0.3729000938E-16  -0.9021269853E-15   0.1025000001E+02
   0.2141000000E+01   0.0000000000E+00   0.9647705000E+00  -0.4500000000E-02   0.0000000000E+00   0.1122750000E-02   0.1455000000E+00   0.0000000000E+00  -0.3635225000E-01   0.1025000001E+02  -0.1996371509E-13  -0.1021104914E-13   0.1622539271E-14   0.4178223647E-14   0.3049532864E-14   0.7050000010E-01  -0.3522950005E-01  -0.3522950005E-01  -0.1110665589E-14   0.3802858999E-16  -0.1484909768E-14   0.1025000001E+02
   0.2141000000E+01   0.9647705000E+00   0.9647705000E+00  -0.4500000000E-02   0.1122750000E-02   0.1122750000E-02   0.1455000000E+00  -0.3635225000E-01  -0.3635225000E-01   0.1025000001E+02   0.6236001431E-13   0.7114614527E-13   0.2182602183E-14   0.1473875673E-14  -0.4406571996E-14   0.7050000009E-01  -0.3522950005E-01  -0.3522950005E-01  -0.1353323645E-16  -0.1143576662E-14  -0.3711219356E-15   0.1025000001E+02
     1     2     3     4     5     6     7     8
     2     9    10     3     6    11    12     7
 VARIABLES = X,Y,Z,DU1,DU2,DU3,U1,U2,U3,S11,S22,S33,S12,S13,S23,E11,E22,E33,E12,E13,E23,SMISES
 ZONE, T="0.7150D+01" F=FEPOINT, I=   12 J=    2 ET=BRICK
   0.0000000000E+00   0.0000000000E+00   0.0000000000E+00   0.0000000000E+00   0.0000000000E+00   0.0000000000E+00   0.0000000000E+00   0.0000000000E+00   0.0000000000E+00   0.9125000014E+01   0.1188803095E-12   0.1131183249E-12  -0.1490927237E-16  -0.1691870970E-14   0.3096387931E-14   0.6825000011E-01  -0.3410675005E-01  -0.3410675005E-01   0.7756269274E-18   0.8450880942E-15  -0.2581604975E-15   0.9125000014E+01
   0.1068250000E+01   0.0000000000E+00   0.6334229728E-15  -0.2250000000E-02   0.0000000000E+00   0.4555955606E-17   0.7050000000E-01   0.0000000000E+00   0.6288670172E-15   0.9125000014E+01   0.2247485561E-14  -0.6058972537E-14   0.2216539736E-15  -0.9296331256E-15   0.3617187230E-14   0.6825000011E-01  -0.3410675005E-01  -0.3410675005E-01  -0.5392874277E-15   0.9618944112E-15  -0.1009472296E-14   0.9125000014E+01
   0.1068250000E+01   0.9658932500E+00   0.1265750048E-15  -0.2250000000E-02   0.1122750000E-02  -0.1774391050E-18   0.7050000000E-01  -0.3522950000E-01   0.1267524439E-15   0.9125000013E+01  -0.1924728437E-13  -0.2611842408E-13   0.4589374536E-15   0.7586101257E-16  -0.3599012219E-14   0.6825000010E-01  -0.3410675005E-01  -0.3410675005E-01  -0.3210633906E-17   0.9857939385E-16   0.6910925079E-16   0.9125000013E+01
   0.0000000000E+00   0.9658932500E+00  -0.1301245390E-15   0.0000000000E+00   0.1122750000E-02  -0.4431815560E-17   0.0000000000E+00  -0.3522950000E-01  -0.1256927235E-15   0.9125000013E+01  -0.5829032165E-13  -0.6474605248E-13   0.1472517665E-14  -0.9497149274E-15  -0.1769649798E-14   0.6825000010E-01  -0.3410675005E-01  -0.3410675005E-01  -0.6266193635E-16   0.1483138598E-15   0.8537959365E-15   0.9125000013E+01
   0.0000000000E+00   0.0000000000E+00   0.9658932500E+00   0.0000000000E+00   0.0000000000E+00   0.1122750000E-02   0.0000000000E+00   0.0000000000E+00  -0.3522950000E-01   0.9125000013E+01  -0.8043067974E-14  -0.4054522397E-14   0.1297042457E-15  -0.1813396910E-14   0.2583047094E-14   0.6825000010E-01  -0.3410675005E-01  -0.3410675005E-01   0.8287914897E-17   0.9521890260E-15   0.2312352229E-15   0.9125000013E+01
   0.1068250000E+01   0.0000000000E+00   0.9658932500E+00  -0.2250000000E-02   0.0000000000E+00   0.1122750000E-02   0.7050000000E-01   0.0000000000E+00  -0.3522950000E-01   0.9125000013E+01  -0.5743780778E-13  -0.4717066789E-13   0.1936091596E-14  -0.1391571958E-14   0.3016886601E-14   0.6825000010E-01  -0.3410675005E-01  -0.3410675005E-01  -0.4751245998E-15   0.5371155501E-15  -0.6085182247E-15   0.9125000013E+01
   0.1068250000E+01   0.9658932500E+00   0.9658932500E+00  -0.2250000000E-02   0.1122750000E-02   0.1122750000E-02   0.7050000000E-01  -0.3522950000E-01  -0.3522950000E-01   0.9125000012E+01   0.2330785068E-13   0.2639839725E-13   0.1425320514E-14   0.8002340615E-15  -0.4080405301E-14   0.6825000009E-01  -0.3410675004E-01  -0.3410675004E-01   0.2052960973E-16  -0.2958825468E-15   0.4936566972E-15   0.9125000012E+01
   0.0000000000E+00   0.9658932500E+00   0.9658932500E+00   0.0000000000E+00   0.1122750000E-02   0.1122750000E-02   0.0000000000E+00  -0.3522950000E-01  -0.3522950000E-01   0.9125000012E+01   0.1671817556E-14   0.6851859689E-14  -0.1718143505E-14  -0.9486986805E-15  -0.2064236543E-14   0.6825000009E-01  -0.3410675005E-01  -0.3410675005E-01  -0.9074556260E-16   0.1640706944E-15   0.1306112215E-14   0.9125000012E+01
   0.2136500000E+01   0.0000000000E+00   0.2125979223E-14  -0.4500000000E-02   0.0000000000E+00   0.1682638775E-16   0.1410000000E+00   0.0000000000E+00   0.2109152836E-14   0.9125000014E+01   0.1080737153E-13   0.5059193257E-14   0.3606963409E-15   0.5859154630E-15   0.4156329181E-14   0.6825000010E-01  -0.3410675005E-01  -0.3410675005E-01  -0.1155269415E-14   0.9159140853E-15  -0.2015758378E-14   0.9125000014E+01
   0.2136500000E+01   0.9658932500E+00   0.1120474183E-14  -0.4500000000E-02   0.1122750000E-02   0.1295394040E-16   0.1410000000E+00  -0.3522950000E-01   0.1107520242E-14   0.9125000013E+01  -0.2889463102E-13  -0.3497957548E-13  -0.8660569122E-15   0.2212819436E-14  -0.2710261158E-14   0.6825000010E-01  -0.3410675005E-01  -0.3410675005E-01  -0.1190360301E-15  -0.7900205244E-16  -0.8877489323E-15   0.9125000013E+01
   0.2136500000E+01   0.0000000000E+00   0.9658932500E+00  -0.4500000000E-02   0.0000000000E+00   0.1122750000E-02   0.1410000000E+00   0.0000000000E+00  -0.3522950000E-01   0.9125000013E+01  -0.8890955990E-13  -0.8048809359E-13   0.1723690695E-14   0.3743909606E-14   0.2427400661E-14   0.6825000010E-01  -0.3410675005E-01  -0.3410675005E-01  -0.1122267062E-14  -0.7557330561E-16  -0.1520989122E-14   0.9125000013E+01
   0.2136500000E+01   0.9658932500E+00   0.9658932500E+00  -0.4500000000E-02   0.1122750000E-02   0.1122750000E-02   0.1410000000E+00  -0.3522950000E-01  -0.3522950000E-01   0.9125000012E+01  -0.5101979993E-13  -0.4358372826E-13   0.2362777146E-14   0.1143399930E-14  -0.3801165127E-14   0.6825000009E-01  -0.3410675004E-01  -0.3410675004E-01  -0.2551061706E-16  -0.1057874627E-14  -0.3904018220E-15   0.9125000012E+01
     1     2     3     4     5     6     7     8
     2     9    10     3     6    11    12     7
 VARIABLES = X,Y,Z,DU1,DU2,DU3,U1,U2,U3,S11,S22,S33,S12,S13,S23,E11,E22,E33,E12,E13,E23,SMISES
 ZONE, T="0.7200D+01" F=FEPOINT, I=   12 J=    2 ET=BRICK
   0.0000000000E+00   0.0000000000E+00   0.0000000000E+00   0.0000000000E+00   0.0000000000E+00   0.0000000000E+00   0.0000000000E+00   0.0000000000E+00   0.0000000000E+00   0.8000000013E+01  -0.4783462053E-13  -0.5419235360E-13  -0.2111723416E-16  -0.1650383187E-14   0.2806987717E-14   0.6600000010E-01  -0.3298400005E-01  -0.3298400005E-01   0.8124059867E-18   0.8552560692E-15  -0.2814089817E-15   0.8000000013E+01
   0.1066000000E+01   0.0000000000E+00   0.6336674059E-15  -0.2250000000E-02   0.0000000000E+00   0.2444331076E-18   0.6825000000E-01   0.0000000000E+00   0.6334229728E-15   0.8000000012E+01  -0.3608500924E-13  -0.4425069669E-13   0.4454547700E-15  -0.8384758576E-15   0.3512133106E-14   0.6600000010E-01  -0.3298400005E-01  -0.3298400005E-01  -0.5302148492E-15   0.9270514246E-15  -0.1013630646E-14   0.8000000012E+01
   0.1066000000E+01   0.9670160000E+00   0.1262430907E-15  -0.2250000000E-02   0.1122750000E-02  -0.3319141754E-18   0.6825000000E-01  -0.3410675000E-01   0.1265750048E-15   0.8000000011E+01  -0.2714544527E-13  -0.3349122182E-13   0.6410029265E-15  -0.3403828135E-16  -0.3559445126E-14   0.6600000009E-01  -0.3298400005E-01  -0.3298400005E-01  -0.6474563744E-16   0.1377007368E-15   0.7560223766E-16   0.8000000011E+01
   0.0000000000E+00   0.9670160000E+00  -0.1317661112E-15   0.0000000000E+00   0.1122750000E-02  -0.1641572143E-17   0.0000000000E+00  -0.3410675000E-01  -0.1301245390E-15   0.8000000012E+01   0.6876010961E-14   0.2118280446E-14   0.1593915972E-14  -0.7257822241E-15  -0.1823098067E-14   0.6600000010E-01  -0.3298400005E-01  -0.3298400005E-01  -0.3441460447E-16   0.1419459667E-15   0.8710826427E-15   0.8000000012E+01
   0.0000000000E+00   0.0000000000E+00   0.9670160000E+00   0.0000000000E+00   0.0000000000E+00   0.1122750000E-02   0.0000000000E+00   0.0000000000E+00  -0.3410675000E-01   0.8000000012E+01  -0.6625251257E-13  -0.6257817417E-13   0.1545971615E-15  -0.1714514897E-14   0.2557167739E-14   0.6600000010E-01  -0.3298400005E-01  -0.3298400005E-01   0.8954740444E-18   0.9098902246E-15   0.2239132468E-15   0.8000000012E+01
   0.1066000000E+01   0.0000000000E+00   0.9670160000E+00  -0.2250000000E-02   0.0000000000E+00   0.1122750000E-02   0.6825000000E-01   0.0000000000E+00  -0.3410675000E-01   0.8000000011E+01   0.3631033344E-13   0.4699978519E-13   0.1682537270E-14  -0.1217596387E-14   0.2983234213E-14   0.6600000009E-01  -0.3298400005E-01  -0.3298400005E-01  -0.4792070675E-15   0.5722265866E-15  -0.5877471598E-15   0.8000000011E+01
   0.1066000000E+01   0.9670160000E+00   0.9670160000E+00  -0.2250000000E-02   0.1122750000E-02   0.1122750000E-02   0.6825000000E-01  -0.3410675000E-01  -0.3410675000E-01   0.8000000010E+01   0.4115275307E-13   0.4371793657E-13   0.1200696560E-14   0.5814309296E-15  -0.4091422025E-14   0.6600000009E-01  -0.3298400004E-01  -0.3298400004E-01   0.2975125245E-16  -0.4075381686E-15   0.4591391325E-15   0.8000000010E+01
   0.0000000000E+00   0.9670160000E+00   0.9670160000E+00   0.0000000000E+00   0.1122750000E-02   0.1122750000E-02   0.0000000000E+00  -0.3410675000E-01  -0.3410675000E-01   0.8000000011E+01   0.6864033016E-13   0.7446764638E-13  -0.1773244250E-14  -0.9938758539E-15  -0.1763231491E-14   0.6600000009E-01  -0.3298400004E-01  -0.3298400004E-01  -0.9476103153E-16   0.2165011334E-15   0.1318232381E-14   0.8000000011E+01
   0.2132000000E+01   0.0000000000E+00   0.2127092716E-14  -0.4500000000E-02   0.0000000000E+00   0.1113493149E-17   0.1365000000E+00   0.0000000000E+00   0.2125979223E-14   0.8000000012E+01  -0.7159401218E-14  -0.1259337222E-13   0.5550489957E-15   0.8204749705E-15   0.4144549944E-14   0.6600000010E-01  -0.3298400005E-01  -0.3298400005E-01  -0.1172510592E-14   0.7696529279E-15  -0.2001154307E-14   0.8000000012E+01
   0.2132000000E+01   0.9670160000E+00   0.1121519207E-14  -0.4500000000E-02   0.1122750000E-02   0.1045024354E-17   0.1365000000E+00  -0.3410675000E-01   0.1120474183E-14   0.8000000011E+01  -0.1559031012E-14  -0.6189797018E-14  -0.7272823145E-15   0.2123476515E-14  -0.2571437049E-14   0.6600000009E-01  -0.3298400005E-01  -0.3298400005E-01  -0.1250968601E-15   0.1518143531E-16  -0.9203772050E-15   0.8000000011E+01
   0.2132000000E+01   0.0000000000E+00   0.9670160000E+00  -0.4500000000E-02   0.0000000000E+00   0.1122750000E-02   0.1365000000E+00   0.0000000000E+00  -0.3410675000E-01   0.8000000011E+01   0.4926709756E-13   0.5828431235E-13   0.1422823613E-14   0.4188601427E-14   0.2591137523E-14   0.6600000009E-01  -0.3298400005E-01  -0.3298400005E-01  -0.1079426986E-14  -0.8569795780E-16  -0.1519958386E-14   0.8000000011E+01
   0.2132000000E+01   0.9670160000E+00   0.9670160000E+00  -0.4500000000E-02   0.1122750000E-02   0.1122750000E-02   0.1365000000E+00  -0.3410675000E-01  -0.3410675000E-01   0.8000000010E+01   0.2417983556E-13   0.3201935946E-13   0.1779901155E-14   0.1078057887E-14  -0.3469388690E-14   0.6600000008E-01  -0.3298400004E-01  -0.3298400004E-01  -0.5051737432E-16  -0.1100499160E-14  -0.3908444733E-15   0.8000000010E+01
     1     2     3     4     5     6     7     8
     2     9    10     3     6    11    12     7
 VARIABLES = X,Y,Z,DU1,DU2,DU3,U1,U2,U3,S11,S22,S33,S12,S13,S23,E11,E22,E33,E12,E13,E23,SMISES
 ZONE, T="0.7250D+01" F=FEPOINT, I=   12 J=    2 ET=BRICK
   0.0000000000E+00   0.0000000000E+00   0.0000000000E+00   0.0000000000E+00   0.0000000000E+00   0.0000000000E+00   0.0000000000E+00   0.0000000000E+00   0.0000000000E+00   0.6875000011E+01   0.6028707545E-14  -0.5049887746E-15  -0.1254908087E-16  -0.1575218911E-14   0.2763780754E-14   0.6375000010E-01  -0.3186125005E-01  -0.3186125005E-01   0.1457100963E-17   0.8620396399E-15  -0.2573114075E-15   0.6875000011E+01
   0.1063750000E+01   0.0000000000E+00   0.6345569457E-15  -0.2250000000E-02   0.0000000000E+00   0.8895397902E-18   0.6600000000E-01   0.0000000000E+00   0.6336674059E-15   0.6875000011E+01   0.7904934059E-14  -0.8731684124E-16   0.6381555016E-15  -0.7395166811E-15   0.3531201847E-14   0.6375000010E-01  -0.3186125005E-01  -0.3186125005E-01  -0.5353011196E-15   0.9063672343E-15  -0.1027283775E-14   0.6875000011E+01
   0.1063750000E+01   0.9681387500E+00   0.1272218012E-15  -0.2250000000E-02   0.1122750000E-02   0.9787105292E-18   0.6600000000E-01  -0.3298400000E-01   0.1262430907E-15   0.6875000010E+01   0.1021456185E-12   0.9553716043E-13   0.9357399557E-15  -0.2065792240E-15  -0.3429051701E-14   0.6375000009E-01  -0.3186125005E-01  -0.3186125005E-01  -0.4217140456E-16   0.1867230178E-15   0.1017814036E-15   0.6875000010E+01
   0.0000000000E+00   0.9681387500E+00  -0.1320991569E-15   0.0000000000E+00   0.1122750000E-02  -0.3330456684E-18   0.0000000000E+00  -0.3298400000E-01  -0.1317661112E-15   0.6875000010E+01   0.1580856665E-13   0.1151524375E-13   0.1755381591E-14  -0.5785931327E-15  -0.1620738774E-14   0.6375000009E-01  -0.3186125005E-01  -0.3186125005E-01  -0.5169720373E-16   0.1303503479E-15   0.7857430833E-15   0.6875000010E+01
   0.0000000000E+00   0.0000000000E+00   0.9681387500E+00   0.0000000000E+00   0.0000000000E+00   0.1122750000E-02   0.0000000000E+00   0.0000000000E+00  -0.3298400000E-01   0.6875000010E+01  -0.4123736678E-13  -0.3709862077E-13   0.1576322406E-15  -0.1658980212E-14   0.2318513230E-14   0.6375000009E-01  -0.3186125005E-01  -0.3186125005E-01  -0.6252848159E-17   0.9288551456E-15   0.2308856088E-15   0.6875000010E+01
   0.1063750000E+01   0.0000000000E+00   0.9681387500E+00  -0.2250000000E-02   0.0000000000E+00   0.1122750000E-02   0.6600000000E-01   0.0000000000E+00  -0.3298400000E-01   0.6875000010E+01  -0.4065948152E-13  -0.3023271134E-13   0.1544424371E-14  -0.1015897387E-14   0.2782401922E-14   0.6375000009E-01  -0.3186125005E-01  -0.3186125005E-01  -0.4593048007E-15   0.5625467089E-15  -0.5799351406E-15   0.6875000010E+01
   0.1063750000E+01   0.9681387500E+00   0.9681387500E+00  -0.2250000000E-02   0.1122750000E-02   0.1122750000E-02   0.6600000000E-01  -0.3298400000E-01  -0.3298400000E-01   0.6875000009E+01  -0.4228950539E-14  -0.2118744902E-14   0.1113064182E-14   0.3053527857E-15  -0.4199218840E-14   0.6375000008E-01  -0.3186125004E-01  -0.3186125004E-01   0.2403813857E-16  -0.3550397080E-15   0.4581311631E-15   0.6875000009E+01
   0.0000000000E+00   0.9681387500E+00   0.9681387500E+00   0.0000000000E+00   0.1122750000E-02   0.1122750000E-02   0.0000000000E+00  -0.3298400000E-01  -0.3298400000E-01   0.6875000009E+01  -0.8586697179E-13  -0.8105518913E-13  -0.1854983296E-14  -0.7713434583E-15  -0.1685213215E-14   0.6375000009E-01  -0.3186125004E-01  -0.3186125004E-01  -0.7560442034E-16   0.1866911375E-15   0.1357407979E-14   0.6875000009E+01
   0.2127500000E+01   0.0000000000E+00   0.2130700090E-14  -0.4500000000E-02   0.0000000000E+00   0.3607373439E-17   0.1320000000E+00   0.0000000000E+00   0.2127092716E-14   0.6875000010E+01  -0.2910112604E-13  -0.3411531192E-13   0.1257449640E-14   0.9448949588E-15   0.4272254289E-14   0.6375000010E-01  -0.3186125005E-01  -0.3186125005E-01  -0.1176791814E-14   0.7755888539E-15  -0.2015709902E-14   0.6875000010E+01
   0.2127500000E+01   0.9681387500E+00   0.1125858384E-14  -0.4500000000E-02   0.1122750000E-02   0.4339177258E-17   0.1320000000E+00  -0.3298400000E-01   0.1121519207E-14   0.6875000010E+01   0.8593850666E-13   0.8070256233E-13  -0.1075677727E-16   0.2043020409E-14  -0.2283984895E-14   0.6375000009E-01  -0.3186125004E-01  -0.3186125004E-01  -0.8914775857E-16  -0.6454121893E-16  -0.8883468676E-15   0.6875000010E+01
   0.2127500000E+01   0.0000000000E+00   0.9681387500E+00  -0.4500000000E-02   0.0000000000E+00   0.1122750000E-02   0.1320000000E+00   0.0000000000E+00  -0.3298400000E-01   0.6875000010E+01   0.3323354096E-13   0.4164557743E-13   0.1703907124E-14   0.4527248607E-14   0.2381450970E-14   0.6375000009E-01  -0.3186125004E-01  -0.3186125004E-01  -0.1070990736E-14   0.3580989061E-17  -0.1524600093E-14   0.6875000010E+01
   0.2127500000E+01   0.9681387500E+00   0.9681387500E+00  -0.4500000000E-02   0.1122750000E-02   0.1122750000E-02   0.1320000000E+00  -0.3298400000E-01  -0.3298400000E-01   0.6875000009E+01   0.1424436438E-12   0.1489534268E-12   0.2256613829E-14   0.5632743528E-15  -0.3486133804E-14   0.6375000008E-01  -0.3186125004E-01  -0.3186125004E-01  -0.7200277261E-16  -0.1110623198E-14  -0.3869341261E-15   0.6875000009E+01
     1     2     3     4     5     6     7     8
     2     9    10     3     6    11    12     7
 VARIABLES = X,Y,Z,DU1,DU2,DU3,U1,U2,U3,S11,S22,S33,S12,S13,S23,E11,E22,E33,E12,E13,E23,SMISES
 ZONE, T="0.7300D+01" F=FEPOINT, I=   12 J=    2 ET=BRICK
   0.0000000000E+00   0.0000000000E+00   0.0000000000E+00   0.0000000000E+00   0.0000000000E+00   0.0000000000E+00   0.0000000000E+00   0.0000000000E+00   0.0000000000E+00   0.5750000009E+01  -0.4327639355E-13  -0.5021500088E-13  -0.6525611502E-17  -0.1763240711E-14   0.3158016057E-14   0.6150000010E-01  -0.3073850005E-01  -0.3073850005E-01   0.6676200861E-17   0.8535864907E-15  -0.2437782679E-15   0.5750000009E+01
   0.1061500000E+01   0.0000000000E+00   0.6320729959E-15  -0.2250000000E-02   0.0000000000E+00  -0.2483949783E-17   0.6375000000E-01   0.0000000000E+00   0.6345569457E-15   0.5750000009E+01  -0.3220860044E-13  -0.4040403625E-13   0.7171287803E-15  -0.6386069067E-15   0.3873621818E-14   0.6150000009E-01  -0.3073850005E-01  -0.3073850005E-01  -0.5344719694E-15   0.9651766211E-15  -0.1021699317E-14   0.5750000009E+01
   0.1061500000E+01   0.9692615000E+00   0.1267356091E-15  -0.2250000000E-02   0.1122750000E-02  -0.4861921294E-18   0.6375000000E-01  -0.3186125000E-01   0.1272218012E-15   0.5750000008E+01  -0.4733924551E-14  -0.1200054539E-13   0.7809549149E-15  -0.7365133279E-16  -0.3555502771E-14   0.6150000009E-01  -0.3073850004E-01  -0.3073850004E-01  -0.3091611807E-16   0.1458999173E-15   0.8456126654E-16   0.5750000008E+01
   0.0000000000E+00   0.9692615000E+00  -0.1296410690E-15   0.0000000000E+00   0.1122750000E-02   0.2458087831E-17   0.0000000000E+00  -0.3186125000E-01  -0.1320991569E-15   0.5750000008E+01   0.2443009423E-13   0.1917130455E-13   0.1477761624E-14  -0.8967865826E-15  -0.2030619352E-14   0.6150000009E-01  -0.3073850004E-01  -0.3073850004E-01  -0.5966050531E-16   0.1320659961E-15   0.7897823018E-15   0.5750000008E+01
   0.0000000000E+00   0.0000000000E+00   0.9692615000E+00   0.0000000000E+00   0.0000000000E+00   0.1122750000E-02   0.0000000000E+00   0.0000000000E+00  -0.3186125000E-01   0.5750000008E+01   0.9730595072E-13   0.1021231780E-12   0.1608391034E-15  -0.1792588193E-14   0.2678846603E-14   0.6150000009E-01  -0.3073850004E-01  -0.3073850004E-01  -0.6067604456E-17   0.9256843828E-15   0.2281708700E-15   0.5750000008E+01
   0.1061500000E+01   0.0000000000E+00   0.9692615000E+00  -0.2250000000E-02   0.0000000000E+00   0.1122750000E-02   0.6375000000E-01   0.0000000000E+00  -0.3186125000E-01   0.5750000008E+01   0.6245931373E-13   0.7331131342E-13   0.1510149720E-14  -0.8935066432E-15   0.2898212337E-14   0.6150000009E-01  -0.3073850004E-01  -0.3073850004E-01  -0.4591151161E-15   0.5368860532E-15  -0.5910218301E-15   0.5750000008E+01
   0.1061500000E+01   0.9692615000E+00   0.9692615000E+00  -0.2250000000E-02   0.1122750000E-02   0.1122750000E-02   0.6375000000E-01  -0.3186125000E-01  -0.3186125000E-01   0.5750000008E+01  -0.2228797264E-13  -0.1987444845E-13   0.1135991270E-14   0.3685936085E-15  -0.4534349587E-14   0.6150000008E-01  -0.3073850004E-01  -0.3073850004E-01   0.1843059155E-16  -0.3257740771E-15   0.4828379089E-15   0.5750000008E+01
   0.0000000000E+00   0.9692615000E+00   0.9692615000E+00   0.0000000000E+00   0.1122750000E-02   0.1122750000E-02   0.0000000000E+00  -0.3186125000E-01  -0.3186125000E-01   0.5750000008E+01  -0.2506081364E-13  -0.1929843839E-13  -0.1572058657E-14  -0.1357065986E-14  -0.2206404289E-14   0.6150000008E-01  -0.3073850004E-01  -0.3073850004E-01  -0.7606384027E-16   0.1923234738E-15   0.1287174754E-14   0.5750000008E+01
   0.2123000000E+01   0.0000000000E+00   0.2120229789E-14  -0.4500000000E-02   0.0000000000E+00  -0.1047030129E-16   0.1275000000E+00   0.0000000000E+00   0.2130700090E-14   0.5750000009E+01   0.1735318283E-13   0.1258136005E-13   0.1466671861E-14   0.7024531560E-15   0.4705350968E-14   0.6150000009E-01  -0.3073850005E-01  -0.3073850005E-01  -0.1162021711E-14   0.9028878132E-15  -0.1993166380E-14   0.5750000009E+01
   0.2123000000E+01   0.9692615000E+00   0.1118139288E-14  -0.4500000000E-02   0.1122750000E-02  -0.7719096170E-17   0.1275000000E+00  -0.3186125000E-01   0.1125858384E-14   0.5750000008E+01  -0.5930965215E-13  -0.6465263324E-13  -0.5618437004E-16   0.2001145239E-14  -0.2298984083E-14   0.6150000009E-01  -0.3073850004E-01  -0.3073850004E-01  -0.1363789792E-15  -0.6944543133E-16  -0.8966528587E-15   0.5750000008E+01
   0.2123000000E+01   0.0000000000E+00   0.9692615000E+00  -0.4500000000E-02   0.0000000000E+00   0.1122750000E-02   0.1275000000E+00   0.0000000000E+00  -0.3186125000E-01   0.5750000008E+01  -0.4043158990E-13  -0.3093762002E-13   0.1655385065E-14   0.4758341604E-14   0.2546383402E-14   0.6150000009E-01  -0.3073850004E-01  -0.3073850004E-01  -0.1106868348E-14  -0.5051704955E-16  -0.1537739317E-14   0.5750000008E+01
   0.2123000000E+01   0.9692615000E+00   0.9692615000E+00  -0.4500000000E-02   0.1122750000E-02   0.1122750000E-02   0.1275000000E+00  -0.3186125000E-01  -0.3186125000E-01   0.5750000007E+01  -0.9493000690E-13  -0.8785422368E-13   0.1889788238E-14   0.3476485871E-15  -0.3761639101E-14   0.6150000008E-01  -0.3073850004E-01  -0.3073850004E-01  -0.6490499305E-17  -0.9969338875E-15  -0.3968258831E-15   0.5750000007E+01
     1     2     3     4     5     6     7     8
     2     9    10     3     6    11    12     7
 VARIABLES = X,Y,Z,DU1,DU2,DU3,U1,U2,U3,S11,S22,S33,S12,S13,S23,E11,E22,E33,E12,E13,E23,SMISES
 ZONE, T="0.7350D+01" F=FEPOINT, I=   12 J=    2 ET=BRICK
   0.0000000000E+00   0.0000000000E+00   0.0000000000E+00   0.0000000000E+00   0.0000000000E+00   0.0000000000E+00   0.0000000000E+00   0.0000000000E+00   0.0000000000E+00   0.4625000007E+01  -0.1672139839E-13  -0.2425449085E-13   0.2555895322E-16  -0.1967711357E-14   0.3379914229E-14   0.5925000009E-01  -0.2961575005E-01  -0.2961575005E-01  -0.6991956756E-17   0.8401263523E-15  -0.2721290370E-15   0.4625000007E+01
   0.1059250000E+01   0.0000000000E+00   0.6300803751E-15  -0.2250000000E-02   0.0000000000E+00  -0.1992620799E-17   0.6150000000E-01   0.0000000000E+00   0.6320729959E-15   0.4625000007E+01  -0.1983138706E-13  -0.2895311145E-13   0.3638562210E-15  -0.9355314757E-15   0.4186948714E-14   0.5925000009E-01  -0.2961575005E-01  -0.2961575005E-01  -0.5158320650E-15   0.9433910410E-15  -0.9997398120E-15   0.4625000007E+01
   0.1059250000E+01   0.9703842500E+00   0.1264942210E-15  -0.2250000000E-02   0.1122750000E-02  -0.2413880467E-18   0.6150000000E-01  -0.3073850000E-01   0.1267356091E-15   0.4625000007E+01   0.4303924514E-13   0.3544898725E-13   0.6295662247E-15   0.2296183217E-16  -0.3925312647E-14   0.5925000008E-01  -0.2961575004E-01  -0.2961575004E-01  -0.4781693307E-16   0.1728425013E-15   0.5900532136E-16   0.4625000007E+01
   0.0000000000E+00   0.9703842500E+00  -0.1283620347E-15   0.0000000000E+00   0.1122750000E-02   0.1279034366E-17   0.0000000000E+00  -0.3073850000E-01  -0.1296410690E-15   0.4625000007E+01   0.3650994748E-13   0.3081032476E-13   0.1517117646E-14  -0.1007401287E-14  -0.2383365091E-14   0.5925000009E-01  -0.2961575004E-01  -0.2961575004E-01  -0.4796300787E-16   0.1418097695E-15   0.8530003481E-15   0.4625000007E+01
   0.0000000000E+00   0.0000000000E+00   0.9703842500E+00   0.0000000000E+00   0.0000000000E+00   0.1122750000E-02   0.0000000000E+00   0.0000000000E+00  -0.3073850000E-01   0.4625000007E+01  -0.5360431026E-13  -0.4905447947E-13   0.1358857012E-15  -0.1889640547E-14   0.3072662170E-14   0.5925000009E-01  -0.2961575004E-01  -0.2961575004E-01   0.2570429594E-17   0.9278309620E-15   0.2251920010E-15   0.4625000007E+01
   0.1059250000E+01   0.0000000000E+00   0.9703842500E+00  -0.2250000000E-02   0.0000000000E+00   0.1122750000E-02   0.6150000000E-01   0.0000000000E+00  -0.3073850000E-01   0.4625000007E+01   0.5752986425E-13   0.6935277501E-13   0.1622734668E-14  -0.1084087206E-14   0.3286700911E-14   0.5925000008E-01  -0.2961575004E-01  -0.2961575004E-01  -0.4892779453E-15   0.5515729171E-15  -0.5918117413E-15   0.4625000007E+01
   0.1059250000E+01   0.9703842500E+00   0.9703842500E+00  -0.2250000000E-02   0.1122750000E-02   0.1122750000E-02   0.6150000000E-01  -0.3073850000E-01  -0.3073850000E-01   0.4625000006E+01   0.8422356000E-14   0.1137757635E-13   0.1110915858E-14   0.5658656588E-15  -0.4757609016E-14   0.5925000008E-01  -0.2961575004E-01  -0.2961575004E-01   0.5972332289E-16  -0.3349497245E-15   0.4821456497E-15   0.4625000006E+01
   0.0000000000E+00   0.9703842500E+00   0.9703842500E+00   0.0000000000E+00   0.1122750000E-02   0.1122750000E-02   0.0000000000E+00  -0.3073850000E-01  -0.3073850000E-01   0.4625000006E+01  -0.2927452546E-13  -0.2253307265E-13  -0.1574839327E-14  -0.1308787039E-14  -0.2435671325E-14   0.5925000008E-01  -0.2961575004E-01  -0.2961575004E-01  -0.1003938566E-15   0.1847416279E-15   0.1268918027E-14   0.4625000006E+01
   0.2118500000E+01   0.0000000000E+00   0.2113589461E-14  -0.4500000000E-02   0.0000000000E+00  -0.6640327427E-17   0.1230000000E+00   0.0000000000E+00   0.2120229789E-14   0.4625000007E+01  -0.3931417210E-13  -0.4490796888E-13   0.1245155927E-14   0.1208018100E-14   0.4823745996E-14   0.5925000009E-01  -0.2961575004E-01  -0.2961575004E-01  -0.1181174820E-14   0.9083177957E-15  -0.2003332201E-14   0.4625000007E+01
   0.2118500000E+01   0.9703842500E+00   0.1112160407E-14  -0.4500000000E-02   0.1122750000E-02  -0.5978881203E-17   0.1230000000E+00  -0.3073850000E-01   0.1118139288E-14   0.4625000006E+01   0.7835748679E-13   0.7251271720E-13  -0.9527577745E-16   0.2095669731E-14  -0.2962818624E-14   0.5925000008E-01  -0.2961575004E-01  -0.2961575004E-01  -0.1263734316E-15  -0.1121849953E-15  -0.9123640499E-15   0.4625000006E+01
   0.2118500000E+01   0.0000000000E+00   0.9703842500E+00  -0.4500000000E-02   0.0000000000E+00   0.1122750000E-02   0.1230000000E+00   0.0000000000E+00  -0.3073850000E-01   0.4625000006E+01   0.4757289665E-13   0.5764847026E-13   0.1612463900E-14   0.4969535009E-14   0.2964520344E-14   0.5925000008E-01  -0.2961575004E-01  -0.2961575004E-01  -0.1074790881E-14  -0.1065929928E-15  -0.1510197266E-14   0.4625000006E+01
   0.2118500000E+01   0.9703842500E+00   0.9703842500E+00  -0.4500000000E-02   0.1122750000E-02   0.1122750000E-02   0.1230000000E+00  -0.3073850000E-01  -0.3073850000E-01   0.4625000006E+01   0.2441737137E-13   0.3269972108E-13   0.1898988199E-14   0.9011639275E-15  -0.4192920953E-14   0.5925000008E-01  -0.2961575004E-01  -0.2961575004E-01  -0.6932781294E-16  -0.1043150459E-14  -0.4050047204E-15   0.4625000006E+01
     1     2     3     4     5     6     7     8
     2     9    10     3     6    11    12     7
 VARIABLES = X,Y,Z,DU1,DU2,DU3,U1,U2,U3,S11,S22,S33,S12,S13,S23,E11,E22,E33,E12,E13,E23,SMISES
 ZONE, T="0.7400D+01" F=FEPOINT, I=   12 J=    2 ET=BRICK
   0.0000000000E+00   0.0000000000E+00   0.0000000000E+00   0.0000000000E+00   0.0000000000E+00   0.0000000000E+00   0.0000000000E+00   0.0000000000E+00   0.0000000000E+00   0.3500000005E+01   0.2873412188E-14  -0.3834254699E-14   0.2845074922E-16  -0.1662949990E-14   0.3169193769E-14   0.5700000009E-01  -0.2849300004E-01  -0.2849300004E-01   0.3700122569E-17   0.8585409173E-15  -0.2577142519E-15   0.3500000005E+01
   0.1057000000E+01   0.0000000000E+00   0.6329618090E-15  -0.2250000000E-02   0.0000000000E+00   0.2881433891E-17   0.5925000000E-01   0.0000000000E+00   0.6300803751E-15   0.3500000005E+01   0.3478703692E-14  -0.5075561765E-14   0.2234534851E-15  -0.9434403686E-15   0.3791725532E-14   0.5700000009E-01  -0.2849300004E-01  -0.2849300004E-01  -0.5209930486E-15   0.9296757812E-15  -0.1008976591E-14   0.3500000005E+01
   0.1057000000E+01   0.9715070000E+00   0.1270926284E-15  -0.2250000000E-02   0.1122750000E-02   0.5984074197E-18   0.5925000000E-01  -0.2961575000E-01   0.1264942210E-15   0.3500000005E+01  -0.4662209660E-13  -0.5321568060E-13   0.4074961754E-15   0.1441206613E-15  -0.3525083827E-14   0.5700000008E-01  -0.2849300004E-01  -0.2849300004E-01  -0.3949533316E-16   0.1939527869E-15   0.6537502306E-16   0.3500000005E+01
   0.0000000000E+00   0.9715070000E+00  -0.1297732799E-15   0.0000000000E+00   0.1122750000E-02  -0.1411245291E-17   0.0000000000E+00  -0.2961575000E-01  -0.1283620347E-15   0.3500000005E+01  -0.5986021022E-14  -0.1086366974E-13   0.1527386381E-14  -0.8672743279E-15  -0.1818724717E-14   0.5700000008E-01  -0.2849300004E-01  -0.2849300004E-01  -0.5962350969E-16   0.1320657573E-15   0.8140292295E-15   0.3500000005E+01
   0.0000000000E+00   0.0000000000E+00   0.9715070000E+00   0.0000000000E+00   0.0000000000E+00   0.1122750000E-02   0.0000000000E+00   0.0000000000E+00  -0.2961575000E-01   0.3500000005E+01   0.8594294072E-14   0.1255906960E-13   0.1576990765E-15  -0.1848824452E-14   0.2555577504E-14   0.5700000008E-01  -0.2849300004E-01  -0.2849300004E-01  -0.8315067824E-18   0.9456783526E-15   0.2019060952E-15   0.3500000005E+01
   0.1057000000E+01   0.0000000000E+00   0.9715070000E+00  -0.2250000000E-02   0.0000000000E+00   0.1122750000E-02   0.5925000000E-01   0.0000000000E+00  -0.2961575000E-01   0.3500000005E+01   0.5117056018E-14   0.1613558908E-13   0.1646242052E-14  -0.1161321407E-14   0.2967887242E-14   0.5700000008E-01  -0.2849300004E-01  -0.2849300004E-01  -0.4754317619E-15   0.5480993922E-15  -0.6004405082E-15   0.3500000005E+01
   0.1057000000E+01   0.9715070000E+00   0.9715070000E+00  -0.2250000000E-02   0.1122750000E-02   0.1122750000E-02   0.5925000000E-01  -0.2961575000E-01  -0.2961575000E-01   0.3500000005E+01   0.6029719740E-14   0.7821732725E-14   0.1271780793E-14   0.6086516562E-15  -0.4389646975E-14   0.5700000007E-01  -0.2849300004E-01  -0.2849300004E-01   0.2156204845E-16  -0.3293079859E-15   0.4741765056E-15   0.3500000005E+01
   0.0000000000E+00   0.9715070000E+00   0.9715070000E+00   0.0000000000E+00   0.1122750000E-02   0.1122750000E-02   0.0000000000E+00  -0.2961575000E-01  -0.2961575000E-01   0.3500000005E+01   0.5220719227E-13   0.5775495998E-13  -0.1777264850E-14  -0.1092781357E-14  -0.2037696369E-14   0.5700000008E-01  -0.2849300004E-01  -0.2849300004E-01  -0.7826137715E-16   0.1736506706E-15   0.1324387202E-14   0.3500000005E+01
   0.2114000000E+01   0.0000000000E+00   0.2123269517E-14  -0.4500000000E-02   0.0000000000E+00   0.9680055439E-17   0.1185000000E+00   0.0000000000E+00   0.2113589461E-14   0.3500000005E+01  -0.4274712513E-14  -0.9366720794E-14   0.7730367417E-15   0.8385270391E-15   0.4355045054E-14   0.5700000009E-01  -0.2849300004E-01  -0.2849300004E-01  -0.1153206618E-14   0.9731417170E-15  -0.2006331126E-14   0.3500000005E+01
   0.2114000000E+01   0.9715070000E+00   0.1119177174E-14  -0.4500000000E-02   0.1122750000E-02   0.7016766618E-17   0.1185000000E+00  -0.2961575000E-01   0.1112160407E-14   0.3500000005E+01  -0.4954518399E-13  -0.5493623913E-13  -0.5515169104E-15   0.2152412590E-14  -0.2521419580E-14   0.5700000008E-01  -0.2849300004E-01  -0.2849300004E-01  -0.1292848824E-15  -0.4983534760E-16  -0.9197739405E-15   0.3500000005E+01
   0.2114000000E+01   0.0000000000E+00   0.9715070000E+00  -0.4500000000E-02   0.0000000000E+00   0.1122750000E-02   0.1185000000E+00   0.0000000000E+00  -0.2961575000E-01   0.3500000005E+01  -0.2613617956E-14   0.6386729909E-14   0.1785606190E-14   0.4280675021E-14   0.2620138548E-14   0.5700000008E-01  -0.2849300004E-01  -0.2849300004E-01  -0.1114756154E-14  -0.3984984846E-16  -0.1494484579E-14   0.3500000005E+01
   0.2114000000E+01   0.9715070000E+00   0.9715070000E+00  -0.4500000000E-02   0.1122750000E-02   0.1122750000E-02   0.1185000000E+00  -0.2961575000E-01  -0.2961575000E-01   0.3500000004E+01   0.5474426547E-13   0.6208618176E-13   0.2211604766E-14   0.1085265657E-14  -0.3725865883E-14   0.5700000007E-01  -0.2849300004E-01  -0.2849300004E-01   0.9474057938E-17  -0.1024029545E-14  -0.4008115400E-15   0.3500000004E+01
     1     2     3     4     5     6     7     8
     2     9    10     3     6    11    12     7
 VARIABLES = X,Y,Z,DU1,DU2,DU3,U1,U2,U3,S11,S22,S33,S12,S13,S23,E11,E22,E33,E12,E13,E23,SMISES
 ZONE, T="0.7450D+01" F=FEPOINT, I=   12 J=    2 ET=BRICK
   0.0000000000E+00   0.0000000000E+00   0.0000000000E+00   0.0000000000E+00   0.0000000000E+00   0.0000000000E+00   0.0000000000E+00   0.0000000000E+00   0.0000000000E+00   0.2375000004E+01   0.1145215545E-12   0.1074742823E-12   0.5102735502E-16  -0.1753292253E-14   0.3497870153E-14   0.5475000009E-01  -0.2737025004E-01  -0.2737025004E-01   0.8382358858E-17   0.8435482386E-15  -0.2427017960E-15   0.2375000004E+01
   0.1054750000E+01   0.0000000000E+00   0.6317932433E-15  -0.2250000000E-02   0.0000000000E+00  -0.1168565645E-17   0.5700000000E-01   0.0000000000E+00   0.6329618090E-15   0.2375000004E+01  -0.8905771415E-14  -0.1798612939E-13   0.1763922465E-15  -0.7228034274E-15   0.4006260681E-14   0.5475000008E-01  -0.2737025004E-01  -0.2737025004E-01  -0.5475633383E-15   0.9644060100E-15  -0.1020072579E-14   0.2375000004E+01
   0.1054750000E+01   0.9726297500E+00   0.1271982800E-15  -0.2250000000E-02   0.1122750000E-02   0.1056515385E-18   0.5700000000E-01  -0.2849300000E-01   0.1270926284E-15   0.2375000003E+01  -0.9152933146E-14  -0.1595242423E-13   0.4064017723E-15  -0.1266093989E-16  -0.3796019577E-14   0.5475000008E-01  -0.2737025004E-01  -0.2737025004E-01  -0.4039171564E-16   0.1601101407E-15   0.9048182453E-16   0.2375000003E+01
   0.0000000000E+00   0.9726297500E+00  -0.1277601262E-15   0.0000000000E+00   0.1122750000E-02   0.2013153711E-17   0.0000000000E+00  -0.2849300000E-01  -0.1297732799E-15   0.2375000003E+01  -0.8669321432E-13  -0.9252553887E-13   0.1477629488E-14  -0.1059065629E-14  -0.2031885073E-14   0.5475000008E-01  -0.2737025004E-01  -0.2737025004E-01  -0.7279432850E-16   0.1347530316E-15   0.8177672700E-15   0.2375000003E+01
   0.0000000000E+00   0.0000000000E+00   0.9726297500E+00   0.0000000000E+00   0.0000000000E+00   0.1122750000E-02   0.0000000000E+00   0.0000000000E+00  -0.2849300000E-01   0.2375000003E+01   0.5482782473E-13   0.5981493927E-13   0.1449341342E-15  -0.1940740971E-14   0.2743980840E-14   0.5475000008E-01  -0.2737025004E-01  -0.2737025004E-01  -0.7551110636E-17   0.9486399738E-15   0.2278131727E-15   0.2375000003E+01
   0.1054750000E+01   0.0000000000E+00   0.9726297500E+00  -0.2250000000E-02   0.0000000000E+00   0.1122750000E-02   0.5700000000E-01   0.0000000000E+00  -0.2849300000E-01   0.2375000003E+01  -0.2793385223E-13  -0.1637090088E-13   0.1516561081E-14  -0.1189975719E-14   0.3218458787E-14   0.5475000008E-01  -0.2737025004E-01  -0.2737025004E-01  -0.4603509840E-15   0.5192571761E-15  -0.6012616457E-15   0.2375000003E+01
   0.1054750000E+01   0.9726297500E+00   0.9726297500E+00  -0.2250000000E-02   0.1122750000E-02   0.1122750000E-02   0.5700000000E-01  -0.2849300000E-01  -0.2849300000E-01   0.2375000003E+01   0.2283245005E-13   0.2526157787E-13   0.1188000640E-14   0.5617634445E-15  -0.4597004010E-14   0.5475000007E-01  -0.2737025004E-01  -0.2737025004E-01   0.3960773177E-16  -0.3210849075E-15   0.4877374981E-15   0.2375000003E+01
   0.0000000000E+00   0.9726297500E+00   0.9726297500E+00   0.0000000000E+00   0.1122750000E-02   0.1122750000E-02   0.0000000000E+00  -0.2849300000E-01  -0.2849300000E-01   0.2375000003E+01  -0.9430863493E-13  -0.8823985429E-13  -0.1648641852E-14  -0.1125396301E-14  -0.2526785037E-14   0.5475000007E-01  -0.2737025004E-01  -0.2737025004E-01  -0.8376458874E-16   0.1848078325E-15   0.1265205911E-14   0.2375000003E+01
   0.2109500000E+01   0.0000000000E+00   0.2117147859E-14  -0.4500000000E-02   0.0000000000E+00  -0.6121657777E-17   0.1140000000E+00   0.0000000000E+00   0.2123269517E-14   0.2375000004E+01   0.4498272633E-13   0.3967773859E-13   0.1122524401E-14   0.6530764774E-15   0.4687453386E-14   0.5475000008E-01  -0.2737025004E-01  -0.2737025004E-01  -0.1133368354E-14   0.8468354319E-15  -0.1995380999E-14   0.2375000004E+01
   0.2109500000E+01   0.9726297500E+00   0.1114981027E-14  -0.4500000000E-02   0.1122750000E-02  -0.4196146435E-17   0.1140000000E+00  -0.2849300000E-01   0.1119177174E-14   0.2375000003E+01  -0.3263225216E-13  -0.3876809055E-13  -0.1446533756E-15   0.2320167936E-14  -0.2746119431E-14   0.5475000008E-01  -0.2737025004E-01  -0.2737025004E-01  -0.9520113057E-16  -0.9464402461E-16  -0.9078164105E-15   0.2375000003E+01
   0.2109500000E+01   0.0000000000E+00   0.9726297500E+00  -0.4500000000E-02   0.0000000000E+00   0.1122750000E-02   0.1140000000E+00   0.0000000000E+00  -0.2849300000E-01   0.2375000003E+01  -0.3852036322E-13  -0.2874276159E-13   0.1614120959E-14   0.4522831555E-14   0.2783742568E-14   0.5475000008E-01  -0.2737025004E-01  -0.2737025004E-01  -0.1151283805E-14  -0.9737499370E-16  -0.1522887730E-14   0.2375000003E+01
   0.2109500000E+01   0.9726297500E+00   0.9726297500E+00  -0.4500000000E-02   0.1122750000E-02   0.1122750000E-02   0.1140000000E+00  -0.2849300000E-01  -0.2849300000E-01   0.2375000003E+01  -0.1311296448E-13  -0.5517431741E-14   0.2036437209E-14   0.9111231344E-15  -0.4093032444E-14   0.5475000007E-01  -0.2737025004E-01  -0.2737025004E-01  -0.5504252544E-16  -0.1036051228E-14  -0.3893024522E-15   0.2375000003E+01
     1     2     3     4     5     6     7     8
     2     9    10     3     6    11    12     7
 VARIABLES = X,Y,Z,DU1,DU2,DU3,U1,U2,U3,S11,S22,S33,S12,S13,S23,E11,E22,E33,E12,E13,E23,SMISES
 ZONE, T="0.7500D+01" F=FEPOINT, I=   12 J=    2 ET=BRICK
   0.0000000000E+00   0.0000000000E+00   0.0000000000E+00   0.0000000000E+00   0.0000000000E+00   0.0000000000E+00   0.0000000000E+00   0.0000000000E+00   0.0000000000E+00   0.1250000002E+01  -0.8540773042E-13  -0.9229517685E-13   0.5994446791E-16  -0.1867814077E-14   0.3173012866E-14   0.5250000008E-01  -0.2624750004E-01  -0.2624750004E-01   0.1726516259E-17   0.8246900587E-15  -0.2668179310E-15   0.1250000002E+01
   0.1052500000E+01   0.0000000000E+00   0.6320415696E-15  -0.2250000000E-02   0.0000000000E+00   0.2483263164E-18   0.5475000000E-01   0.0000000000E+00   0.6317932433E-15   0.1250000002E+01  -0.2810500377E-13  -0.3690236170E-13   0.5471147205E-15  -0.6091398114E-15   0.3862289441E-14   0.5250000008E-01  -0.2624750004E-01  -0.2624750004E-01  -0.5277867398E-15   0.9954435987E-15  -0.1017817223E-14   0.1250000002E+01
   0.1052500000E+01   0.9737525000E+00   0.1266237366E-15  -0.2250000000E-02   0.1122750000E-02  -0.5745433366E-18   0.5475000000E-01  -0.2737025000E-01   0.1271982800E-15   0.1250000002E+01   0.2423885230E-13   0.1769533512E-13   0.9118150936E-15  -0.2581059154E-15  -0.3639211268E-14   0.5250000007E-01  -0.2624750004E-01  -0.2624750004E-01  -0.2542442953E-16   0.9712829712E-16   0.8136230528E-16   0.1250000002E+01
   0.0000000000E+00   0.9737525000E+00  -0.1298535184E-15   0.0000000000E+00   0.1122750000E-02  -0.2093392176E-17   0.0000000000E+00  -0.2737025000E-01  -0.1277601262E-15   0.1250000002E+01  -0.7329957606E-14  -0.1253396551E-13   0.1545800175E-14  -0.7753716949E-15  -0.1965795940E-14   0.5250000008E-01  -0.2624750004E-01  -0.2624750004E-01  -0.7134306292E-16   0.1798140877E-15   0.8307259041E-15   0.1250000002E+01
   0.0000000000E+00   0.0000000000E+00   0.9737525000E+00   0.0000000000E+00   0.0000000000E+00   0.1122750000E-02   0.0000000000E+00   0.0000000000E+00  -0.2737025000E-01   0.1250000002E+01  -0.3473036845E-13  -0.3033501684E-13   0.1384776597E-15  -0.1723866533E-14   0.2620593367E-14   0.5250000008E-01  -0.2624750004E-01  -0.2624750004E-01  -0.1872095868E-17   0.9768542763E-15   0.2272303419E-15   0.1250000002E+01
   0.1052500000E+01   0.0000000000E+00   0.9737525000E+00  -0.2250000000E-02   0.0000000000E+00   0.1122750000E-02   0.5475000000E-01   0.0000000000E+00  -0.2737025000E-01   0.1250000002E+01   0.4450363798E-13   0.5577270062E-13   0.1567417534E-14  -0.1302755371E-14   0.3078808843E-14   0.5250000007E-01  -0.2624750004E-01  -0.2624750004E-01  -0.4666502866E-15   0.5061800554E-15  -0.6046827558E-15   0.1250000002E+01
   0.1052500000E+01   0.9737525000E+00   0.9737525000E+00  -0.2250000000E-02   0.1122750000E-02   0.1122750000E-02   0.5475000000E-01  -0.2737025000E-01  -0.2737025000E-01   0.1250000002E+01  -0.1450913520E-13  -0.1225670006E-13   0.1136676801E-14   0.5409583248E-15  -0.4522072050E-14   0.5250000007E-01  -0.2624750003E-01  -0.2624750003E-01   0.2477575785E-16  -0.2734148446E-15   0.4817472738E-15   0.1250000002E+01
   0.0000000000E+00   0.9737525000E+00   0.9737525000E+00   0.0000000000E+00   0.1122750000E-02   0.1122750000E-02   0.0000000000E+00  -0.2737025000E-01  -0.2737025000E-01   0.1250000002E+01   0.1434624362E-13   0.1996984099E-13  -0.1770698548E-14  -0.1105927049E-14  -0.2171298049E-14   0.5250000007E-01  -0.2624750004E-01  -0.2624750004E-01  -0.9000941464E-16   0.1392688190E-15   0.1294078604E-14   0.1250000002E+01
   0.2105000000E+01   0.0000000000E+00   0.2120410153E-14  -0.4500000000E-02   0.0000000000E+00   0.3262294073E-17   0.1095000000E+00   0.0000000000E+00   0.2117147859E-14   0.1250000002E+01   0.4437094212E-13   0.3864889140E-13   0.1305524282E-14   0.1135175049E-14   0.4391174052E-14   0.5250000008E-01  -0.2624750004E-01  -0.2624750004E-01  -0.1142449455E-14   0.8495595476E-15  -0.2006333940E-14   0.1250000002E+01
   0.2105000000E+01   0.9737525000E+00   0.1116452292E-14  -0.4500000000E-02   0.1122750000E-02   0.1471265278E-17   0.1095000000E+00  -0.2737025000E-01   0.1114981027E-14   0.1250000002E+01   0.6326227977E-13   0.5764101358E-13   0.5892264985E-16   0.2017405855E-14  -0.2900188400E-14   0.5250000007E-01  -0.2624750004E-01  -0.2624750004E-01  -0.9482643873E-16   0.6897118374E-16  -0.9140635070E-15   0.1250000002E+01
   0.2105000000E+01   0.0000000000E+00   0.9737525000E+00  -0.4500000000E-02   0.0000000000E+00   0.1122750000E-02   0.1095000000E+00   0.0000000000E+00  -0.2737025000E-01   0.1250000002E+01   0.8772703701E-13   0.9697383120E-13   0.1169205171E-14   0.4596771482E-14   0.3012797915E-14   0.5250000007E-01  -0.2624750004E-01  -0.2624750004E-01  -0.1093261386E-14   0.3840451861E-17  -0.1507528300E-14   0.1250000002E+01
   0.2105000000E+01   0.9737525000E+00   0.9737525000E+00  -0.4500000000E-02   0.1122750000E-02   0.1122750000E-02   0.1095000000E+00  -0.2737025000E-01  -0.2737025000E-01   0.1250000002E+01  -0.3401996480E-13  -0.2599013744E-13   0.1536288805E-14   0.9288290676E-15  -0.3711911273E-14   0.5250000007E-01  -0.2624750003E-01  -0.2624750003E-01  -0.7955523976E-16  -0.1069821099E-14  -0.4025262456E-15   0.1250000002E+01
     1     2     3     4     5     6     7     8
     2     9    10     3     6    11    12     7
 VARIABLES = X,Y,Z,DU1,DU2,DU3,U1,U2,U3,S11,S22,S33,S12,S13,S23,E11,E22,E33,E12,E13,E23,SMISES
 ZONE, T="0.7550D+01" F=FEPOINT, I=   12 J=    2 ET=BRICK
   0.0000000000E+00   0.0000000000E+00   0.0000000000E+00   0.0000000000E+00   0.0000000000E+00   0.0000000000E+00   0.0000000000E+00   0.0000000000E+00   0.0000000000E+00   0.1250000002E+00  -0.7529261494E-13  -0.8245124641E-13   0.7050685270E-16  -0.1856742441E-14   0.3214556924E-14   0.5025000008E-01  -0.2512475004E-01  -0.2512475004E-01   0.4451879719E-17   0.8450777798E-15  -0.2580461346E-15   0.1250000002E+00
   0.1050250000E+01   0.0000000000E+00   0.6320979560E-15  -0.2250000000E-02   0.0000000000E+00   0.5638637490E-19   0.5250000000E-01   0.0000000000E+00   0.6320415696E-15   0.1250000002E+00   0.3651681947E-13   0.2776930369E-13   0.4613903650E-15  -0.7148492343E-15   0.3920533421E-14   0.5025000008E-01  -0.2512475004E-01  -0.2512475004E-01  -0.5419807729E-15   0.9477237957E-15  -0.1003667351E-14   0.1250000002E+00
   0.1050250000E+01   0.9748752500E+00   0.1270534433E-15  -0.2250000000E-02   0.1122750000E-02   0.4297066285E-18   0.5250000000E-01  -0.2624750000E-01   0.1266237366E-15   0.1250000002E+00  -0.3073476252E-13  -0.3756059920E-13   0.8337330951E-15  -0.3552899063E-15  -0.3643988853E-14   0.5025000007E-01  -0.2512475004E-01  -0.2512475004E-01  -0.5412874923E-16   0.1825903125E-15   0.7084212989E-16   0.1250000002E+00
   0.0000000000E+00   0.9748752500E+00  -0.1298636655E-15   0.0000000000E+00   0.1122750000E-02  -0.1014706363E-19   0.0000000000E+00  -0.2624750000E-01  -0.1298535184E-15   0.1250000002E+00   0.1166816147E-12   0.1115806694E-12   0.1531173912E-14  -0.6809748324E-15  -0.2056391232E-14   0.5025000007E-01  -0.2512475004E-01  -0.2512475004E-01  -0.6190935276E-16   0.1386991244E-15   0.8134542711E-15   0.1250000002E+00
   0.0000000000E+00   0.0000000000E+00   0.9748752500E+00   0.0000000000E+00   0.0000000000E+00   0.1122750000E-02   0.0000000000E+00   0.0000000000E+00  -0.2624750000E-01   0.1250000002E+00  -0.3607354044E-13  -0.3184539059E-13   0.1209833252E-15  -0.1679466352E-14   0.2694970117E-14   0.5025000007E-01  -0.2512475004E-01  -0.2512475004E-01   0.2508750746E-17   0.9681946983E-15   0.2179948052E-15   0.1250000002E+00
   0.1050250000E+01   0.0000000000E+00   0.9748752500E+00  -0.2250000000E-02   0.0000000000E+00   0.1122750000E-02   0.5250000000E-01   0.0000000000E+00  -0.2624750000E-01   0.1250000002E+00   0.3775677716E-13   0.4922827086E-13   0.1523524882E-14  -0.1233111832E-14   0.3036975477E-14   0.5025000007E-01  -0.2512475004E-01  -0.2512475004E-01  -0.4766459530E-15   0.4992894292E-15  -0.6184132333E-15   0.1250000002E+00
   0.1050250000E+01   0.9748752500E+00   0.9748752500E+00  -0.2250000000E-02   0.1122750000E-02   0.1122750000E-02   0.5250000000E-01  -0.2624750000E-01  -0.2624750000E-01   0.1250000002E+00   0.2139627451E-13   0.2350857070E-13   0.1032356645E-14   0.3925624951E-15  -0.4520163312E-14   0.5025000007E-01  -0.2512475003E-01  -0.2512475003E-01   0.1711163301E-16  -0.2807422244E-15   0.4727560281E-15   0.1250000002E+00
   0.0000000000E+00   0.9748752500E+00   0.9748752500E+00   0.0000000000E+00   0.1122750000E-02   0.1122750000E-02   0.0000000000E+00  -0.2624750000E-01  -0.2624750000E-01   0.1250000002E+00   0.4579370538E-13   0.5162955278E-13  -0.1736060539E-14  -0.1181131924E-14  -0.2109107752E-14   0.5025000007E-01  -0.2512475003E-01  -0.2512475003E-01  -0.8730579944E-16   0.1305007647E-15   0.1335141505E-14   0.1250000002E+00
   0.2100500000E+01   0.0000000000E+00   0.2120567699E-14  -0.4500000000E-02   0.0000000000E+00   0.1575464245E-18   0.1050000000E+00   0.0000000000E+00   0.2120410153E-14   0.1250000002E+00   0.1261667560E-13   0.7029754228E-14   0.1341964858E-14   0.1075035393E-14   0.4369538083E-14   0.5025000008E-01  -0.2512475004E-01  -0.2512475004E-01  -0.1147988202E-14   0.8970606051E-15  -0.2009152323E-14   0.1250000002E+00
   0.2100500000E+01   0.9748752500E+00   0.1116564313E-14  -0.4500000000E-02   0.1122750000E-02   0.1120205626E-18   0.1050000000E+00  -0.2624750000E-01   0.1116452292E-14   0.1250000002E+00  -0.1054971647E-12  -0.1111892054E-12   0.1273199289E-16   0.2167975111E-14  -0.2871727011E-14   0.5025000007E-01  -0.2512475004E-01  -0.2512475004E-01  -0.9213950833E-16  -0.1286549440E-15  -0.9157156480E-15   0.1250000002E+00
   0.2100500000E+01   0.0000000000E+00   0.9748752500E+00  -0.4500000000E-02   0.0000000000E+00   0.1122750000E-02   0.1050000000E+00   0.0000000000E+00  -0.2624750000E-01   0.1250000002E+00  -0.2121954830E-13  -0.1186541371E-13   0.1560979801E-14   0.4343865402E-14   0.2928779012E-14   0.5025000007E-01  -0.2512475004E-01  -0.2512475004E-01  -0.1131858891E-14  -0.1055054152E-16  -0.1493685214E-14   0.1250000002E+00
   0.2100500000E+01   0.9748752500E+00   0.9748752500E+00  -0.4500000000E-02   0.1122750000E-02   0.1122750000E-02   0.1050000000E+00  -0.2624750000E-01  -0.2624750000E-01   0.1250000002E+00   0.1260982341E-12   0.1340034772E-12   0.1925725621E-14   0.1317760492E-14  -0.3828434010E-14   0.5025000006E-01  -0.2512475003E-01  -0.2512475003E-01  -0.3574586506E-16  -0.1144249572E-14  -0.4144062191E-15   0.1250000002E+00
     1     2     3     4     5     6     7     8
     2     9    10     3     6    11    12     7
 VARIABLES = X,Y,Z,DU1,DU2,DU3,U1,U2,U3,S11,S22,S33,S12,S13,S23,E11,E22,E33,E12,E13,E23,SMISES
 ZONE, T="0.7600D+01" F=FEPOINT, I=   12 J=    2 ET=BRICK
   0.0000000000E+00   0.0000000000E+00   0.0000000000E+00   0.0000000000E+00   0.0000000000E+00   0.0000000000E+00   0.0000000000E+00   0.0000000000E+00   0.0000000000E+00  -0.1000000002E+01   0.8099770171E-13   0.7437819882E-13   0.1137083559E-15  -0.1502362144E-14   0.3468538213E-14   0.4800000008E-01  -0.2400200004E-01  -0.2400200004E-01   0.8406178161E-17   0.8372672818E-15  -0.2472852478E-15   0.1000000002E+01
   0.1048000000E+01   0.0000000000E+00   0.6335091518E-15  -0.2250000000E-02   0.0000000000E+00   0.1411195811E-17   0.5025000000E-01   0.0000000000E+00   0.6320979560E-15  -0.1000000002E+01  -0.1066019290E-12  -0.1155634629E-12   0.2952775361E-15  -0.6949978518E-15   0.3813548756E-14   0.4800000007E-01  -0.2400200004E-01  -0.2400200004E-01  -0.5482512778E-15   0.9620190116E-15  -0.1021604922E-14   0.1000000002E+01
   0.1048000000E+01   0.9759980000E+00   0.1279021902E-15  -0.2250000000E-02   0.1122750000E-02   0.8487468962E-18   0.5025000000E-01  -0.2512475000E-01   0.1270534433E-15  -0.1000000001E+01  -0.1148261262E-13  -0.1810876485E-13   0.7492625861E-15  -0.3079913809E-15  -0.3724361823E-14   0.4800000007E-01  -0.2400200003E-01  -0.2400200003E-01  -0.3698169126E-16   0.1588657401E-15   0.8973056086E-16   0.1000000001E+01
   0.0000000000E+00   0.9759980000E+00  -0.1284588473E-15   0.0000000000E+00   0.1122750000E-02   0.1404818130E-17   0.0000000000E+00  -0.2512475000E-01  -0.1298636655E-15  -0.1000000001E+01  -0.7439452586E-13  -0.7974307179E-13   0.1493801053E-14  -0.8109456960E-15  -0.1991687461E-14   0.4800000007E-01  -0.2400200003E-01  -0.2400200003E-01  -0.7628151443E-16   0.1529004785E-15   0.8298632069E-15   0.1000000001E+01
   0.0000000000E+00   0.0000000000E+00   0.9759980000E+00   0.0000000000E+00   0.0000000000E+00   0.1122750000E-02   0.0000000000E+00   0.0000000000E+00  -0.2512475000E-01  -0.1000000001E+01   0.5237421751E-13   0.5712399973E-13   0.1063728324E-15  -0.1925084001E-14   0.2498555764E-14   0.4800000007E-01  -0.2400200003E-01  -0.2400200003E-01  -0.6445378518E-17   0.9765225137E-15   0.2313877952E-15   0.1000000001E+01
   0.1048000000E+01   0.0000000000E+00   0.9759980000E+00  -0.2250000000E-02   0.0000000000E+00   0.1122750000E-02   0.5025000000E-01   0.0000000000E+00  -0.2512475000E-01  -0.1000000001E+01  -0.1826191283E-13  -0.7102511389E-14   0.1555651164E-14  -0.1169557453E-14   0.3167567609E-14   0.4800000007E-01  -0.2400200003E-01  -0.2400200003E-01  -0.4564188110E-15   0.4649880050E-15  -0.6056394287E-15   0.1000000001E+01
   0.1048000000E+01   0.9759980000E+00   0.9759980000E+00  -0.2250000000E-02   0.1122750000E-02   0.1122750000E-02   0.5025000000E-01  -0.2512475000E-01  -0.2512475000E-01  -0.1000000001E+01   0.1944943881E-13   0.2170423140E-13   0.1046136004E-14   0.5343108757E-15  -0.4476432647E-14   0.4800000006E-01  -0.2400200003E-01  -0.2400200003E-01   0.2606026824E-16  -0.2785844742E-15   0.4709029001E-15   0.1000000001E+01
   0.0000000000E+00   0.9759980000E+00   0.9759980000E+00   0.0000000000E+00   0.1122750000E-02   0.1122750000E-02   0.0000000000E+00  -0.2512475000E-01  -0.2512475000E-01  -0.1000000001E+01   0.3573600227E-14   0.9123907774E-14  -0.1680630097E-14  -0.9929215857E-15  -0.2256318384E-14   0.4800000006E-01  -0.2400200003E-01  -0.2400200003E-01  -0.9881330952E-16   0.1425415088E-15   0.1273709994E-14   0.1000000001E+01
   0.2096000000E+01   0.0000000000E+00   0.2121456027E-14  -0.4500000000E-02   0.0000000000E+00   0.8883281204E-18   0.1005000000E+00   0.0000000000E+00   0.2120567699E-14  -0.1000000002E+01  -0.5358852731E-13  -0.5933343633E-13   0.1682000451E-14   0.1016879983E-14   0.4454173988E-14   0.4800000007E-01  -0.2400200004E-01  -0.2400200004E-01  -0.1185547412E-14   0.8743992489E-15  -0.2003691865E-14   0.1000000002E+01
   0.2096000000E+01   0.9759980000E+00   0.1117943470E-14  -0.4500000000E-02   0.1122750000E-02   0.1379157169E-17   0.1005000000E+00  -0.2512475000E-01   0.1116564313E-14  -0.1000000001E+01   0.6714780696E-13   0.6130753419E-13   0.2638285222E-15   0.1898492879E-14  -0.2875539431E-14   0.4800000007E-01  -0.2400200003E-01  -0.2400200003E-01  -0.1288720884E-15   0.4498553427E-17  -0.9224701769E-15   0.1000000001E+01
   0.2096000000E+01   0.0000000000E+00   0.9759980000E+00  -0.4500000000E-02   0.0000000000E+00   0.1122750000E-02   0.1005000000E+00   0.0000000000E+00  -0.2512475000E-01  -0.1000000001E+01  -0.8564566361E-14   0.1075934318E-14   0.1286276075E-14   0.4294256390E-14   0.3011339117E-14   0.4800000007E-01  -0.2400200003E-01  -0.2400200003E-01  -0.1073035869E-14  -0.8957874777E-17  -0.1525357376E-14   0.1000000001E+01
   0.2096000000E+01   0.9759980000E+00   0.9759980000E+00  -0.4500000000E-02   0.1122750000E-02   0.1122750000E-02   0.1005000000E+00  -0.2512475000E-01  -0.2512475000E-01  -0.1000000001E+01  -0.5529668049E-13  -0.4728154495E-13   0.1839771010E-14   0.1238492671E-14  -0.3771291708E-14   0.4800000006E-01  -0.2400200003E-01  -0.2400200003E-01  -0.5330386156E-16  -0.1023524364E-14  -0.3750952144E-15   0.1000000001E+01
     1     2     3     4     5     6     7     8
     2     9    10     3     6    11    12     7
 VARIABLES = X,Y,Z,DU1,DU2,DU3,U1,U2,U3,S11,S22,S33,S12,S13,S23,E11,E22,E33,E12,E13,E23,SMISES
 ZONE, T="0.7650D+01" F=FEPOINT, I=   12 J=    2 ET=BRICK
   0.0000000000E+00   0.0000000000E+00   0.0000000000E+00   0.0000000000E+00   0.0000000000E+00   0.0000000000E+00   0.0000000000E+00   0.0000000000E+00   0.0000000000E+00  -0.2125000003E+01   0.3491343987E-13   0.2803751374E-13   0.1333250235E-15  -0.1682518098E-14   0.3436722133E-14   0.4575000007E-01  -0.2287925004E-01  -0.2287925004E-01  -0.9758843326E-17   0.8288560288E-15  -0.2628420343E-15   0.2125000003E+01
   0.1045750000E+01   0.0000000000E+00   0.6327553794E-15  -0.2250000000E-02   0.0000000000E+00  -0.7537724643E-18   0.4800000000E-01   0.0000000000E+00   0.6335091518E-15  -0.2125000003E+01  -0.1565622533E-13  -0.2477449813E-13   0.4808128828E-15  -0.6535170869E-15   0.3944513963E-14   0.4575000007E-01  -0.2287925004E-01  -0.2287925004E-01  -0.5048989675E-15   0.9679913723E-15  -0.1007529904E-14   0.2125000003E+01
   0.1045750000E+01   0.9771207500E+00   0.1278582936E-15  -0.2250000000E-02   0.1122750000E-02  -0.4389652625E-19   0.4800000000E-01  -0.2400200000E-01   0.1279021902E-15  -0.2125000003E+01   0.3119631385E-13   0.2456408562E-13   0.9327161961E-15  -0.4435606077E-15  -0.3797755307E-14   0.4575000007E-01  -0.2287925003E-01  -0.2287925003E-01  -0.3763354407E-16   0.1623018967E-15   0.6677287361E-16   0.2125000003E+01
   0.0000000000E+00   0.9771207500E+00  -0.1285226051E-15   0.0000000000E+00   0.1122750000E-02  -0.6375775578E-19   0.0000000000E+00  -0.2400200000E-01  -0.1284588473E-15  -0.2125000003E+01   0.3205607919E-13   0.2637577859E-13   0.1609728805E-14  -0.8359767498E-15  -0.2030518266E-14   0.4575000007E-01  -0.2287925003E-01  -0.2287925003E-01  -0.7046829367E-16   0.1453109206E-15   0.8361816112E-15   0.2125000003E+01
   0.0000000000E+00   0.0000000000E+00   0.9771207500E+00   0.0000000000E+00   0.0000000000E+00   0.1122750000E-02   0.0000000000E+00   0.0000000000E+00  -0.2400200000E-01  -0.2125000003E+01   0.3081339464E-13   0.3534045172E-13   0.9258392675E-16  -0.1876722941E-14   0.2528116401E-14   0.4575000007E-01  -0.2287925003E-01  -0.2287925003E-01   0.7171750506E-17   0.9555996733E-15   0.2220808239E-15   0.2125000003E+01
   0.1045750000E+01   0.0000000000E+00   0.9771207500E+00  -0.2250000000E-02   0.0000000000E+00   0.1122750000E-02   0.4800000000E-01   0.0000000000E+00  -0.2400200000E-01  -0.2125000003E+01  -0.1142799690E-14   0.1008091105E-13   0.1518467470E-14  -0.9867319181E-15   0.3163711428E-14   0.4575000007E-01  -0.2287925003E-01  -0.2287925003E-01  -0.4827949134E-15   0.5049037994E-15  -0.5947863962E-15   0.2125000003E+01
   0.1045750000E+01   0.9771207500E+00   0.9771207500E+00  -0.2250000000E-02   0.1122750000E-02   0.1122750000E-02   0.4800000000E-01  -0.2400200000E-01  -0.2400200000E-01  -0.2125000003E+01  -0.1203945856E-13  -0.9683438220E-14   0.9796780508E-15   0.3281496635E-15  -0.4541401229E-14   0.4575000006E-01  -0.2287925003E-01  -0.2287925003E-01   0.3306989987E-16  -0.3079022567E-15   0.4590188960E-15   0.2125000003E+01
   0.0000000000E+00   0.9771207500E+00   0.9771207500E+00   0.0000000000E+00   0.1122750000E-02   0.1122750000E-02   0.0000000000E+00  -0.2400200000E-01  -0.2400200000E-01  -0.2125000003E+01  -0.2845401946E-13  -0.2300067409E-13  -0.1673132418E-14  -0.8336381710E-15  -0.2311673890E-14   0.4575000006E-01  -0.2287925003E-01  -0.2287925003E-01  -0.9015040888E-16   0.1612204261E-15   0.1295643192E-14   0.2125000003E+01
   0.2091500000E+01   0.0000000000E+00   0.2122367967E-14  -0.4500000000E-02   0.0000000000E+00   0.9119400990E-18   0.9600000000E-01   0.0000000000E+00   0.2121456027E-14  -0.2125000003E+01  -0.3908969670E-13  -0.4480839357E-13   0.1589618154E-14   0.1261843229E-14   0.4263341962E-14   0.4575000007E-01  -0.2287925003E-01  -0.2287925003E-01  -0.1149187219E-14   0.9374564739E-15  -0.2001908359E-14   0.2125000003E+01
   0.2091500000E+01   0.9771207500E+00   0.1117675334E-14  -0.4500000000E-02   0.1122750000E-02  -0.2681361863E-18   0.9600000000E-01  -0.2400200000E-01   0.1117943470E-14  -0.2125000003E+01  -0.5401090208E-14  -0.1073291564E-13  -0.6766825142E-16   0.1767525870E-14  -0.2951048154E-14   0.4575000006E-01  -0.2287925003E-01  -0.2287925003E-01  -0.1002680663E-15  -0.1139795274E-15  -0.9143644082E-15   0.2125000003E+01
   0.2091500000E+01   0.0000000000E+00   0.9771207500E+00  -0.4500000000E-02   0.0000000000E+00   0.1122750000E-02   0.9600000000E-01   0.0000000000E+00  -0.2400200000E-01  -0.2125000003E+01  -0.5851156013E-13  -0.4899700476E-13   0.1208939966E-14   0.4310185135E-14   0.3114986222E-14   0.4575000006E-01  -0.2287925003E-01  -0.2287925003E-01  -0.1138812400E-14  -0.4960017320E-16  -0.1514098648E-14   0.2125000003E+01
   0.2091500000E+01   0.9771207500E+00   0.9771207500E+00  -0.4500000000E-02   0.1122750000E-02   0.1122750000E-02   0.9600000000E-01  -0.2400200000E-01  -0.2400200000E-01  -0.2125000003E+01  -0.2910687199E-13  -0.2087558549E-13   0.1943220971E-14   0.1373740014E-14  -0.3516777782E-14   0.4575000006E-01  -0.2287925003E-01  -0.2287925003E-01  -0.2558726691E-16  -0.1012885714E-14  -0.3796954013E-15   0.2125000003E+01
     1     2     3     4     5     6     7     8
     2     9    10     3     6    11    12     7
 VARIABLES = X,Y,Z,DU1,DU2,DU3,U1,U2,U3,S11,S22,S33,S12,S13,S23,E11,E22,E33,E12,E13,E23,SMISES
 ZONE, T="0.7700D+01" F=FEPOINT, I=   12 J=    2 ET=BRICK
   0.0000000000E+00   0.0000000000E+00   0.0000000000E+00   0.0000000000E+00   0.0000000000E+00   0.0000000000E+00   0.0000000000E+00   0.0000000000E+00   0.0000000000E+00  -0.3250000005E+01  -0.1819740032E-13  -0.2523886348E-13   0.1266196298E-15  -0.1786768372E-14   0.3254694885E-14   0.4350000007E-01  -0.2175650003E-01  -0.2175650003E-01   0.1024088978E-17   0.8350504904E-15  -0.2717010750E-15   0.3250000005E+01
   0.1043500000E+01   0.0000000000E+00   0.6323457584E-15  -0.2250000000E-02   0.0000000000E+00  -0.4096209420E-18   0.4575000000E-01   0.0000000000E+00   0.6327553794E-15  -0.3250000005E+01   0.4386899452E-13   0.3488006973E-13   0.2889811584E-15  -0.7536837500E-15   0.3939101104E-14   0.4350000007E-01  -0.2175650003E-01  -0.2175650003E-01  -0.5139542590E-15   0.9705860033E-15  -0.1004259472E-14   0.3250000005E+01
   0.1043500000E+01   0.9782435000E+00   0.1274792108E-15  -0.2250000000E-02   0.1122750000E-02  -0.3790828150E-18   0.4575000000E-01  -0.2287925000E-01   0.1278582936E-15  -0.3250000005E+01   0.3680334690E-13   0.3027470388E-13   0.8528376219E-15  -0.3150650691E-15  -0.3786465198E-14   0.4350000006E-01  -0.2175650003E-01  -0.2175650003E-01  -0.2009841073E-16   0.1347459042E-15   0.6115247406E-16   0.3250000005E+01
   0.0000000000E+00   0.9782435000E+00  -0.1295819842E-15   0.0000000000E+00   0.1122750000E-02  -0.1059379149E-17   0.0000000000E+00  -0.2287925000E-01  -0.1285226051E-15  -0.3250000005E+01   0.1270050884E-13   0.7450419612E-14   0.1679195625E-14  -0.7335804757E-15  -0.2126391815E-14   0.4350000006E-01  -0.2175650003E-01  -0.2175650003E-01  -0.6654142885E-16   0.1517150960E-15   0.8502715553E-15   0.3250000005E+01
   0.0000000000E+00   0.0000000000E+00   0.9782435000E+00   0.0000000000E+00   0.0000000000E+00   0.1122750000E-02   0.0000000000E+00   0.0000000000E+00  -0.2287925000E-01  -0.3250000005E+01  -0.3169858561E-13  -0.2707438403E-13   0.1139976473E-15  -0.1816897133E-14   0.2646325057E-14   0.4350000006E-01  -0.2175650003E-01  -0.2175650003E-01  -0.7643436175E-17   0.9710172286E-15   0.2144574421E-15   0.3250000005E+01
   0.1043500000E+01   0.0000000000E+00   0.9782435000E+00  -0.2250000000E-02   0.0000000000E+00   0.1122750000E-02   0.4575000000E-01   0.0000000000E+00  -0.2287925000E-01  -0.3250000005E+01   0.3727519908E-13   0.4860249503E-13   0.1371599897E-14  -0.1000721064E-14   0.3124119944E-14   0.4350000006E-01  -0.2175650003E-01  -0.2175650003E-01  -0.4747585177E-15   0.4949357167E-15  -0.6006971848E-15   0.3250000005E+01
   0.1043500000E+01   0.9782435000E+00   0.9782435000E+00  -0.2250000000E-02   0.1122750000E-02   0.1122750000E-02   0.4575000000E-01  -0.2287925000E-01  -0.2287925000E-01  -0.3250000004E+01  -0.2772251294E-13  -0.2533329271E-13   0.8772580664E-15   0.2560616365E-15  -0.4598463895E-14   0.4350000006E-01  -0.2175650003E-01  -0.2175650003E-01   0.5402411470E-17  -0.2975260411E-15   0.4720138547E-15   0.3250000004E+01
   0.0000000000E+00   0.9782435000E+00   0.9782435000E+00   0.0000000000E+00   0.1122750000E-02   0.1122750000E-02   0.0000000000E+00  -0.2287925000E-01  -0.2287925000E-01  -0.3250000004E+01  -0.5614838568E-13  -0.5087345874E-13  -0.1662531953E-14  -0.8794863599E-15  -0.2150283195E-14   0.4350000006E-01  -0.2175650003E-01  -0.2175650003E-01  -0.8925776087E-16   0.1468195895E-15   0.1309775168E-14   0.3250000004E+01
   0.2087000000E+01   0.0000000000E+00   0.2122400924E-14  -0.4500000000E-02   0.0000000000E+00   0.3295689382E-19   0.9150000000E-01   0.0000000000E+00   0.2122367967E-14  -0.3250000005E+01  -0.4859310671E-13  -0.5465675549E-13   0.1458137978E-14   0.9706200976E-15   0.4261125730E-14   0.4350000007E-01  -0.2175650003E-01  -0.2175650003E-01  -0.1126471918E-14   0.9836558683E-15  -0.2015179465E-14   0.3250000005E+01
   0.2087000000E+01   0.9782435000E+00   0.1117888012E-14  -0.4500000000E-02   0.1122750000E-02   0.2126783311E-18   0.9150000000E-01  -0.2287925000E-01   0.1117675334E-14  -0.3250000005E+01   0.5896544762E-13   0.5321828495E-13  -0.6828819734E-16   0.2141193050E-14  -0.2877704494E-14   0.4350000006E-01  -0.2175650003E-01  -0.2175650003E-01  -0.9428397086E-16  -0.1050859020E-15  -0.8955341929E-15   0.3250000005E+01
   0.2087000000E+01   0.0000000000E+00   0.9782435000E+00  -0.4500000000E-02   0.0000000000E+00   0.1122750000E-02   0.9150000000E-01   0.0000000000E+00  -0.2287925000E-01  -0.3250000005E+01  -0.4757024081E-13  -0.3813795580E-13   0.1398685545E-14   0.3961713009E-14   0.3084979930E-14   0.4350000006E-01  -0.2175650003E-01  -0.2175650003E-01  -0.1123163280E-14  -0.5747850778E-16  -0.1479876663E-14   0.3250000005E+01
   0.2087000000E+01   0.9782435000E+00   0.9782435000E+00  -0.4500000000E-02   0.1122750000E-02   0.1122750000E-02   0.9150000000E-01  -0.2287925000E-01  -0.2287925000E-01  -0.3250000004E+01   0.5600698427E-13   0.6371390400E-13   0.2151320190E-14   0.1787168707E-14  -0.3590523690E-14   0.4350000006E-01  -0.2175650003E-01  -0.2175650003E-01  -0.2699412697E-16  -0.1013387991E-14  -0.4303842913E-15   0.3250000004E+01
     1     2     3     4     5     6     7     8
     2     9    10     3     6    11    12     7
 VARIABLES = X,Y,Z,DU1,DU2,DU3,U1,U2,U3,S11,S22,S33,S12,S13,S23,E11,E22,E33,E12,E13,E23,SMISES
 ZONE, T="0.7750D+01" F=FEPOINT, I=   12 J=    2 ET=BRICK
   0.0000000000E+00   0.0000000000E+00   0.0000000000E+00   0.0000000000E+00   0.0000000000E+00   0.0000000000E+00   0.0000000000E+00   0.0000000000E+00   0.0000000000E+00  -0.4375000007E+01  -0.8755914757E-13  -0.9447942922E-13   0.1337358116E-15  -0.1714885109E-14   0.3330645125E-14   0.4125000006E-01  -0.2063375003E-01  -0.2063375003E-01  -0.3404228107E-17   0.8285130193E-15  -0.2524638315E-15   0.4375000007E+01
   0.1041250000E+01   0.0000000000E+00   0.6330295271E-15  -0.2250000000E-02   0.0000000000E+00   0.6837686379E-18   0.4350000000E-01   0.0000000000E+00   0.6323457584E-15  -0.4375000007E+01   0.7977481444E-14  -0.1253806380E-14   0.2002426274E-15  -0.5765647899E-15   0.3833275075E-14   0.4125000006E-01  -0.2063375003E-01  -0.2063375003E-01  -0.5266091876E-15   0.9649012705E-15  -0.1023608299E-14   0.4375000007E+01
   0.1041250000E+01   0.9793662500E+00   0.1274558268E-15  -0.2250000000E-02   0.1122750000E-02  -0.2338397601E-19   0.4350000000E-01  -0.2175650000E-01   0.1274792108E-15  -0.4375000006E+01  -0.9802523579E-14  -0.1568933686E-13   0.6915176960E-15  -0.3004926434E-15  -0.3745564348E-14   0.4125000006E-01  -0.2063375003E-01  -0.2063375003E-01  -0.5644687910E-16   0.1644660067E-15   0.8834059931E-16   0.4375000006E+01
   0.0000000000E+00   0.9793662500E+00  -0.1289467995E-15   0.0000000000E+00   0.1122750000E-02   0.6351847942E-18   0.0000000000E+00  -0.2175650000E-01  -0.1295819842E-15  -0.4375000006E+01   0.2579171020E-13   0.2022070614E-13   0.1517511860E-14  -0.8388765651E-15  -0.2042066300E-14   0.4125000006E-01  -0.2063375003E-01  -0.2063375003E-01  -0.6298793028E-16   0.1409032849E-15   0.8270914434E-15   0.4375000006E+01
   0.0000000000E+00   0.0000000000E+00   0.9793662500E+00   0.0000000000E+00   0.0000000000E+00   0.1122750000E-02   0.0000000000E+00   0.0000000000E+00  -0.2175650000E-01  -0.4375000006E+01   0.3165521021E-13   0.3616022304E-13   0.8749441339E-16  -0.2081936988E-14   0.2618333913E-14   0.4125000006E-01  -0.2063375003E-01  -0.2063375003E-01   0.2643621937E-17   0.9687741085E-15   0.2200099787E-15   0.4375000006E+01
   0.1041250000E+01   0.0000000000E+00   0.9793662500E+00  -0.2250000000E-02   0.0000000000E+00   0.1122750000E-02   0.4350000000E-01   0.0000000000E+00  -0.2175650000E-01  -0.4375000006E+01  -0.1591223848E-13  -0.4590386856E-14   0.1632723513E-14  -0.1069969806E-14   0.3216263763E-14   0.4125000006E-01  -0.2063375003E-01  -0.2063375003E-01  -0.4884077438E-15   0.4700903347E-15  -0.5892728662E-15   0.4375000006E+01
   0.1041250000E+01   0.9793662500E+00   0.9793662500E+00  -0.2250000000E-02   0.1122750000E-02   0.1122750000E-02   0.4350000000E-01  -0.2175650000E-01  -0.2175650000E-01  -0.4375000006E+01   0.1777619828E-13   0.2025612233E-13   0.1121280638E-14   0.4248850581E-15  -0.4291772320E-14   0.4125000005E-01  -0.2063375003E-01  -0.2063375003E-01   0.2503219101E-16  -0.2918943810E-15   0.4638325961E-15   0.4375000006E+01
   0.0000000000E+00   0.9793662500E+00   0.9793662500E+00   0.0000000000E+00   0.1122750000E-02   0.1122750000E-02   0.0000000000E+00  -0.2175650000E-01  -0.2175650000E-01  -0.4375000006E+01   0.3359317463E-13   0.3927772747E-13  -0.1518760210E-14  -0.7435039246E-15  -0.2353544439E-14   0.4125000006E-01  -0.2063375003E-01  -0.2063375003E-01  -0.9280592569E-16   0.1412920136E-15   0.1317446783E-14   0.4375000006E+01
   0.2082500000E+01   0.0000000000E+00   0.2123701101E-14  -0.4500000000E-02   0.0000000000E+00   0.1300177073E-17   0.8700000000E-01   0.0000000000E+00   0.2122400924E-14  -0.4375000007E+01   0.1413796864E-12   0.1355685599E-12   0.1043240183E-14   0.4803077066E-15   0.3878055502E-14   0.4125000006E-01  -0.2063375003E-01  -0.2063375003E-01  -0.1156407578E-14   0.9189058987E-15  -0.2010072647E-14   0.4375000007E+01
   0.2082500000E+01   0.9793662500E+00   0.1116993416E-14  -0.4500000000E-02   0.1122750000E-02  -0.8945966043E-18   0.8700000000E-01  -0.2175650000E-01   0.1117888012E-14  -0.4375000006E+01  -0.1224200230E-12  -0.1272802707E-12  -0.5627688359E-15   0.1891705597E-14  -0.2826479676E-14   0.4125000006E-01  -0.2063375003E-01  -0.2063375003E-01  -0.1062396277E-15  -0.5707709394E-16  -0.9061676039E-15   0.4375000006E+01
   0.2082500000E+01   0.0000000000E+00   0.9793662500E+00  -0.4500000000E-02   0.0000000000E+00   0.1122750000E-02   0.8700000000E-01   0.0000000000E+00  -0.2175650000E-01  -0.4375000006E+01  -0.7722024978E-13  -0.6773119029E-13   0.1460761117E-14   0.3653987618E-14   0.2813067428E-14   0.4125000006E-01  -0.2063375003E-01  -0.2063375003E-01  -0.1112229151E-14  -0.9750281872E-17  -0.1515208397E-14   0.4375000006E+01
   0.2082500000E+01   0.9793662500E+00   0.9793662500E+00  -0.4500000000E-02   0.1122750000E-02   0.1122750000E-02   0.8700000000E-01  -0.2175650000E-01  -0.2175650000E-01  -0.4375000006E+01  -0.7475020127E-13  -0.6774533730E-13   0.2105357914E-14   0.1737703642E-14  -0.3590408018E-14   0.4125000005E-01  -0.2063375003E-01  -0.2063375003E-01  -0.8934347631E-17  -0.1024517558E-14  -0.4063114772E-15   0.4375000006E+01
     1     2     3     4     5     6     7     8
     2     9    10     3     6    11    12     7
 VARIABLES = X,Y,Z,DU1,DU2,DU3,U1,U2,U3,S11,S22,S33,S12,S13,S23,E11,E22,E33,E12,E13,E23,SMISES
 ZONE, T="0.7800D+01" F=FEPOINT, I=   12 J=    2 ET=BRICK
   0.0000000000E+00   0.0000000000E+00   0.0000000000E+00   0.0000000000E+00   0.0000000000E+00   0.0000000000E+00   0.0000000000E+00   0.0000000000E+00   0.0000000000E+00  -0.5500000009E+01   0.2208789717E-13   0.1498820064E-13   0.1265157995E-15  -0.1663637474E-14   0.3676196251E-14   0.3900000006E-01  -0.1951100003E-01  -0.1951100003E-01   0.2000987719E-18   0.8304216700E-15  -0.2563506374E-15   0.5500000009E+01
   0.1039000000E+01   0.0000000000E+00   0.6323659359E-15  -0.2250000000E-02   0.0000000000E+00  -0.6635911382E-18   0.4125000000E-01   0.0000000000E+00   0.6330295271E-15  -0.5500000008E+01  -0.1203471435E-13  -0.2200942438E-13  -0.2023582799E-16  -0.9066861967E-15   0.4172953178E-14   0.3900000006E-01  -0.1951100003E-01  -0.1951100003E-01  -0.5439043005E-15   0.9583472300E-15  -0.1009726572E-14   0.5500000008E+01
   0.1039000000E+01   0.9804890000E+00   0.1288728333E-15  -0.2250000000E-02   0.1122750000E-02   0.1417006477E-17   0.4125000000E-01  -0.2063375000E-01   0.1274558268E-15  -0.5500000008E+01   0.2471900030E-13   0.1822953542E-13   0.6181006547E-15  -0.1983367536E-15  -0.3937169247E-14   0.3900000006E-01  -0.1951100003E-01  -0.1951100003E-01  -0.4503732866E-16   0.1591164016E-15   0.7588686826E-16   0.5500000008E+01
   0.0000000000E+00   0.9804890000E+00  -0.1268740665E-15   0.0000000000E+00   0.1122750000E-02   0.2072732981E-17   0.0000000000E+00  -0.2063375000E-01  -0.1289467995E-15  -0.5500000008E+01  -0.2011284949E-13  -0.2651054246E-13   0.1657085514E-14  -0.8212778185E-15  -0.2104231936E-14   0.3900000006E-01  -0.1951100003E-01  -0.1951100003E-01  -0.6572743713E-16   0.1463277157E-15   0.8310396046E-15   0.5500000008E+01
   0.0000000000E+00   0.0000000000E+00   0.9804890000E+00   0.0000000000E+00   0.0000000000E+00   0.1122750000E-02   0.0000000000E+00   0.0000000000E+00  -0.2063375000E-01  -0.5500000008E+01  -0.7375962387E-13  -0.6885713713E-13   0.9155450047E-16  -0.2122040881E-14   0.2849755898E-14   0.3900000006E-01  -0.1951100003E-01  -0.1951100003E-01   0.3641604512E-17   0.9537891860E-15   0.2071948009E-15   0.5500000008E+01
   0.1039000000E+01   0.0000000000E+00   0.9804890000E+00  -0.2250000000E-02   0.0000000000E+00   0.1122750000E-02   0.4125000000E-01   0.0000000000E+00  -0.2063375000E-01  -0.5500000008E+01   0.1879511260E-14   0.1361171820E-13   0.1885292672E-14  -0.1479709154E-14   0.3411432465E-14   0.3900000006E-01  -0.1951100003E-01  -0.1951100003E-01  -0.4754888951E-15   0.4933131684E-15  -0.5903880145E-15   0.5500000008E+01
   0.1039000000E+01   0.9804890000E+00   0.9804890000E+00  -0.2250000000E-02   0.1122750000E-02   0.1122750000E-02   0.4125000000E-01  -0.2063375000E-01  -0.2063375000E-01  -0.5500000007E+01  -0.1896577165E-13  -0.1626778853E-13   0.1151996960E-14   0.5732420652E-15  -0.4644997142E-14   0.3900000005E-01  -0.1951100003E-01  -0.1951100003E-01   0.1877107645E-16  -0.2687172787E-15   0.4713014852E-15   0.5500000007E+01
   0.0000000000E+00   0.9804890000E+00   0.9804890000E+00   0.0000000000E+00   0.1122750000E-02   0.1122750000E-02   0.0000000000E+00  -0.2063375000E-01  -0.2063375000E-01  -0.5500000007E+01  -0.1018101121E-13  -0.4002836356E-14  -0.1501763083E-14  -0.8106878404E-15  -0.2523466812E-14   0.3900000005E-01  -0.1951100003E-01  -0.1951100003E-01  -0.9286229414E-16   0.1453730342E-15   0.1331511070E-14   0.5500000007E+01
   0.2078000000E+01   0.0000000000E+00   0.2118706985E-14  -0.4500000000E-02   0.0000000000E+00  -0.4994116327E-17   0.8250000000E-01   0.0000000000E+00   0.2123701101E-14  -0.5500000008E+01  -0.7137972585E-14  -0.1387193605E-13   0.1490254828E-14   0.9493785673E-15   0.4300009767E-14   0.3900000006E-01  -0.1951100003E-01  -0.1951100003E-01  -0.1168723175E-14   0.9105820021E-15  -0.2013784245E-14   0.5500000008E+01
   0.2078000000E+01   0.9804890000E+00   0.1114265659E-14  -0.4500000000E-02   0.1122750000E-02  -0.2727756277E-17   0.8250000000E-01  -0.2063375000E-01   0.1116993416E-14  -0.5500000008E+01  -0.8626192886E-14  -0.1414659608E-13  -0.6164162791E-17   0.1980483693E-14  -0.3321910755E-14   0.3900000005E-01  -0.1951100003E-01  -0.1951100003E-01  -0.1260885881E-15  -0.9382410482E-16  -0.9231923638E-15   0.5500000008E+01
   0.2078000000E+01   0.0000000000E+00   0.9804890000E+00  -0.4500000000E-02   0.0000000000E+00   0.1122750000E-02   0.8250000000E-01   0.0000000000E+00  -0.2063375000E-01  -0.5500000008E+01   0.6262430642E-13   0.7358732886E-13   0.1584893522E-14   0.4200033118E-14   0.3104995845E-14   0.3900000005E-01  -0.1951100003E-01  -0.1951100003E-01  -0.1111980326E-14  -0.3497096425E-16  -0.1497467777E-14   0.5500000008E+01
   0.2078000000E+01   0.9804890000E+00   0.9804890000E+00  -0.4500000000E-02   0.1122750000E-02   0.1122750000E-02   0.8250000000E-01  -0.2063375000E-01  -0.2063375000E-01  -0.5500000007E+01  -0.1033061779E-12  -0.9597422534E-13   0.2058052214E-14   0.2136872724E-14  -0.3998167624E-14   0.3900000005E-01  -0.1951100002E-01  -0.1951100002E-01  -0.8125100895E-17  -0.1073536296E-14  -0.4129895670E-15   0.5500000007E+01
     1     2     3     4     5     6     7     8
     2     9    10     3     6    11    12     7
 VARIABLES = X,Y,Z,DU1,DU2,DU3,U1,U2,U3,S11,S22,S33,S12,S13,S23,E11,E22,E33,E12,E13,E23,SMISES
 ZONE, T="0.7850D+01" F=FEPOINT, I=   12 J=    2 ET=BRICK
   0.0000000000E+00   0.0000000000E+00   0.0000000000E+00   0.0000000000E+00   0.0000000000E+00   0.0000000000E+00   0.0000000000E+00   0.0000000000E+00   0.0000000000E+00  -0.6625000010E+01   0.4684240011E-13   0.4012729609E-13   0.1121930480E-15  -0.1626759960E-14   0.3705213984E-14   0.3675000006E-01  -0.1838825003E-01  -0.1838825003E-01  -0.4136685331E-17   0.8237039297E-15  -0.2506398367E-15   0.6625000010E+01
   0.1036750000E+01   0.0000000000E+00   0.6325131487E-15  -0.2250000000E-02   0.0000000000E+00   0.1472127846E-18   0.3900000000E-01   0.0000000000E+00   0.6323659359E-15  -0.6625000010E+01   0.6134244632E-13   0.5175232880E-13  -0.9778457250E-17  -0.9114467414E-15   0.4153010143E-14   0.3675000006E-01  -0.1838825003E-01  -0.1838825003E-01  -0.5459325271E-15   0.9602072803E-15  -0.1011038199E-14   0.6625000010E+01
   0.1036750000E+01   0.9816117500E+00   0.1289310610E-15  -0.2250000000E-02   0.1122750000E-02   0.5822770477E-19   0.3900000000E-01  -0.1951100000E-01   0.1288728333E-15  -0.6625000009E+01  -0.5294189874E-13  -0.5943136363E-13   0.6203195364E-15  -0.2068633122E-15  -0.3802577449E-14   0.3675000005E-01  -0.1838825003E-01  -0.1838825003E-01  -0.4968748834E-16   0.1465243289E-15   0.5701885213E-16   0.6625000009E+01
   0.0000000000E+00   0.9816117500E+00  -0.1267912530E-15   0.0000000000E+00   0.1122750000E-02   0.8281351632E-19   0.0000000000E+00  -0.1951100000E-01  -0.1268740665E-15  -0.6625000010E+01   0.2231488218E-13   0.1591718921E-13   0.1562626035E-14  -0.8127852715E-15  -0.2078805618E-14   0.3675000005E-01  -0.1838825003E-01  -0.1838825003E-01  -0.6560229452E-16   0.1562224549E-15   0.8315849275E-15   0.6625000010E+01
   0.0000000000E+00   0.0000000000E+00   0.9816117500E+00   0.0000000000E+00   0.0000000000E+00   0.1122750000E-02   0.0000000000E+00   0.0000000000E+00  -0.1951100000E-01  -0.6625000010E+01   0.4128146472E-13   0.4614875882E-13   0.8491816235E-16  -0.2107077142E-14   0.2784845398E-14   0.3675000005E-01  -0.1838825003E-01  -0.1838825003E-01   0.5931666500E-17   0.9565406948E-15   0.2176976685E-15   0.6625000010E+01
   0.1036750000E+01   0.0000000000E+00   0.9816117500E+00  -0.2250000000E-02   0.0000000000E+00   0.1122750000E-02   0.3900000000E-01   0.0000000000E+00  -0.1951100000E-01  -0.6625000009E+01  -0.1137288085E-13   0.4297113919E-15   0.1904743735E-14  -0.1477688773E-14   0.3278220590E-14   0.3675000005E-01  -0.1838825003E-01  -0.1838825003E-01  -0.4844646199E-15   0.4842736491E-15  -0.5915619730E-15   0.6625000009E+01
   0.1036750000E+01   0.9816117500E+00   0.9816117500E+00  -0.2250000000E-02   0.1122750000E-02   0.1122750000E-02   0.3900000000E-01  -0.1951100000E-01  -0.1951100000E-01  -0.6625000009E+01  -0.2050844082E-13  -0.1845773177E-13   0.1150019950E-14   0.5661090979E-15  -0.4685219446E-14   0.3675000005E-01  -0.1838825002E-01  -0.1838825002E-01   0.2144738975E-16  -0.2704944831E-15   0.4575572907E-15   0.6625000009E+01
   0.0000000000E+00   0.9816117500E+00   0.9816117500E+00   0.0000000000E+00   0.1122750000E-02   0.1122750000E-02   0.0000000000E+00  -0.1951100000E-01  -0.1951100000E-01  -0.6625000009E+01   0.4273550753E-13   0.4866043064E-13  -0.1449474953E-14  -0.9179577261E-15  -0.2510102170E-14   0.3675000005E-01  -0.1838825002E-01  -0.1838825002E-01  -0.8761202007E-16   0.1366751767E-15   0.1306291944E-14   0.6625000009E+01
   0.2073500000E+01   0.0000000000E+00   0.2119228971E-14  -0.4500000000E-02   0.0000000000E+00   0.5219862405E-18   0.7800000000E-01   0.0000000000E+00   0.2118706985E-14  -0.6625000010E+01   0.5790127702E-13   0.5141113546E-13   0.1692755049E-14   0.7177116079E-15   0.4212419554E-14   0.3675000006E-01  -0.1838825003E-01  -0.1838825003E-01  -0.1153974375E-14   0.8992098573E-15  -0.2009977878E-14   0.6625000010E+01
   0.2073500000E+01   0.9816117500E+00   0.1114163596E-14  -0.4500000000E-02   0.1122750000E-02  -0.1020636176E-18   0.7800000000E-01  -0.1951100000E-01   0.1114265659E-14  -0.6625000009E+01  -0.4775278928E-13  -0.5274782937E-13   0.1505090024E-15   0.2130677594E-14  -0.3201852739E-14   0.3675000005E-01  -0.1838825003E-01  -0.1838825003E-01  -0.1123583673E-15  -0.2894781069E-16  -0.9144785547E-15   0.6625000009E+01
   0.2073500000E+01   0.0000000000E+00   0.9816117500E+00  -0.4500000000E-02   0.0000000000E+00   0.1122750000E-02   0.7800000000E-01   0.0000000000E+00  -0.1951100000E-01  -0.6625000009E+01  -0.8216912601E-13  -0.7117091092E-13   0.1828909160E-14   0.4183477002E-14   0.2996814743E-14   0.3675000005E-01  -0.1838825003E-01  -0.1838825003E-01  -0.1118336082E-14  -0.1390535062E-16  -0.1515337718E-14   0.6625000009E+01
   0.2073500000E+01   0.9816117500E+00   0.9816117500E+00  -0.4500000000E-02   0.1122750000E-02   0.1122750000E-02   0.7800000000E-01  -0.1951100000E-01  -0.1951100000E-01  -0.6625000008E+01   0.5418168483E-13   0.6099770415E-13   0.2384382520E-14   0.2409035679E-14  -0.3810064021E-14   0.3675000005E-01  -0.1838825002E-01  -0.1838825002E-01  -0.2925162994E-16  -0.1051700109E-14  -0.4283800428E-15   0.6625000008E+01
     1     2     3     4     5     6     7     8
     2     9    10     3     6    11    12     7
 VARIABLES = X,Y,Z,DU1,DU2,DU3,U1,U2,U3,S11,S22,S33,S12,S13,S23,E11,E22,E33,E12,E13,E23,SMISES
 ZONE, T="0.7900D+01" F=FEPOINT, I=   12 J=    2 ET=BRICK
   0.0000000000E+00   0.0000000000E+00   0.0000000000E+00   0.0000000000E+00   0.0000000000E+00   0.0000000000E+00   0.0000000000E+00   0.0000000000E+00   0.0000000000E+00  -0.7750000012E+01   0.6063735799E-12   0.5089626066E-12   0.6268057008E-16  -0.1571576294E-13   0.6496539716E-13   0.2950000005E-01  -0.1476550002E-01  -0.1476550002E-01   0.2461076325E-17   0.5875314786E-15   0.6771053378E-15   0.7750000012E+01
   0.1029500000E+01   0.0000000000E+00   0.3248721995E-15  -0.7250000000E-02   0.0000000000E+00  -0.3076409492E-15   0.3675000000E-01   0.0000000000E+00   0.6325131487E-15  -0.7750000012E+01   0.7867911591E-13  -0.3055604481E-13   0.7495113624E-14   0.1153956015E-13   0.4867990036E-13   0.2950000005E-01  -0.1476550002E-01  -0.1476550002E-01  -0.4358199147E-15   0.1126070452E-14  -0.3004566295E-15   0.7750000012E+01
   0.1029500000E+01   0.9852345000E+00   0.1724668414E-15  -0.7250000000E-02   0.3622750000E-02   0.4353578038E-16   0.3675000000E-01  -0.1838825000E-01   0.1289310610E-15  -0.7750000011E+01  -0.2313191413E-12  -0.3534657643E-12   0.3293347282E-14  -0.1843622317E-15  -0.5708820292E-13   0.2950000004E-01  -0.1476550002E-01  -0.1476550002E-01  -0.1711798414E-16   0.1596089431E-15  -0.7644097059E-15   0.7750000011E+01
   0.0000000000E+00   0.9852345000E+00   0.3388926809E-15   0.0000000000E+00   0.3622750000E-02   0.4656839338E-15   0.0000000000E+00  -0.1838825000E-01  -0.1267912530E-15  -0.7750000011E+01  -0.5567607162E-12  -0.6729619928E-12   0.5542964578E-14  -0.3265405612E-13  -0.4287960871E-13   0.2950000004E-01  -0.1476550002E-01  -0.1476550002E-01   0.7309115903E-18  -0.3329406099E-15   0.2127261631E-15   0.7750000011E+01
   0.0000000000E+00   0.0000000000E+00   0.9852345000E+00   0.0000000000E+00   0.0000000000E+00   0.3622750000E-02   0.0000000000E+00   0.0000000000E+00  -0.1838825000E-01  -0.7750000011E+01  -0.6598047298E-12  -0.5416861172E-12   0.2887862672E-16  -0.2221237389E-13   0.5499398868E-13   0.2950000004E-01  -0.1476550002E-01  -0.1476550002E-01   0.7038962224E-18   0.6423664371E-15   0.9947449541E-15   0.7750000011E+01
   0.1029500000E+01   0.0000000000E+00   0.9852345000E+00  -0.7250000000E-02   0.0000000000E+00   0.3622750000E-02   0.3675000000E-01   0.0000000000E+00  -0.1838825000E-01  -0.7750000011E+01  -0.1044916142E-13   0.9795361845E-13   0.1160067415E-13   0.1396897249E-13   0.3953365255E-13   0.2950000004E-01  -0.1476550002E-01  -0.1476550002E-01  -0.3163837360E-15   0.6833226651E-15  -0.3454250171E-16   0.7750000011E+01
   0.1029500000E+01   0.9852345000E+00   0.9852345000E+00  -0.7250000000E-02   0.3622750000E-02   0.3622750000E-02   0.3675000000E-01  -0.1838825000E-01  -0.1838825000E-01  -0.7750000010E+01   0.1083116889E-12   0.1904628270E-12   0.9622579803E-14   0.3970463251E-14  -0.6640100821E-13   0.2950000004E-01  -0.1476550002E-01  -0.1476550002E-01   0.1658720498E-15  -0.2241714042E-15  -0.4584026298E-15   0.7750000010E+01
   0.0000000000E+00   0.9852345000E+00   0.9852345000E+00   0.0000000000E+00   0.3622750000E-02   0.3622750000E-02   0.0000000000E+00  -0.1838825000E-01  -0.1838825000E-01  -0.7750000010E+01   0.3241429246E-12   0.4240329617E-12   0.6651630169E-14  -0.3789568374E-13  -0.5185573167E-13   0.2950000004E-01  -0.1476550002E-01  -0.1476550002E-01   0.2495978334E-16  -0.4126511516E-15   0.5306856787E-15   0.7750000010E+01
   0.2059000000E+01   0.0000000000E+00   0.7475199854E-15  -0.1450000000E-01   0.0000000000E+00  -0.1371708986E-14   0.7350000000E-01   0.0000000000E+00   0.2119228971E-14  -0.7750000012E+01  -0.4985898849E-12  -0.5657032314E-12   0.1727143243E-13   0.3707211457E-13   0.3609787593E-13   0.2950000004E-01  -0.1476550002E-01  -0.1476550002E-01  -0.8791212948E-15   0.1393875369E-14  -0.1471386458E-14   0.7750000012E+01
   0.2059000000E+01   0.9852345000E+00   0.1140408177E-16  -0.1450000000E-01   0.3622750000E-02  -0.1102759514E-14   0.7350000000E-01  -0.1838825000E-01   0.1114163596E-14  -0.7750000011E+01  -0.7448591586E-13  -0.1579927658E-12   0.2388704685E-14   0.2853145023E-13  -0.6601423803E-13   0.2950000004E-01  -0.1476550002E-01  -0.1476550002E-01  -0.6440287753E-16   0.3243109066E-15  -0.1850987043E-14   0.7750000011E+01
   0.2059000000E+01   0.0000000000E+00   0.9852345000E+00  -0.1450000000E-01   0.0000000000E+00   0.3622750000E-02   0.7350000000E-01   0.0000000000E+00  -0.1838825000E-01  -0.7750000011E+01   0.2544707336E-12   0.3924137303E-12   0.1918077396E-13   0.5136229912E-13   0.2696474631E-13   0.2950000004E-01  -0.1476550002E-01  -0.1476550002E-01  -0.7897590013E-15   0.7379549372E-15  -0.1101500561E-14   0.7750000011E+01
   0.2059000000E+01   0.9852345000E+00   0.9852345000E+00  -0.1450000000E-01   0.3622750000E-02   0.3622750000E-02   0.7350000000E-01  -0.1838825000E-01  -0.1838825000E-01  -0.7750000010E+01  -0.5394548366E-12  -0.4197643283E-12   0.8906532133E-14   0.4069937868E-13  -0.7436419509E-13   0.2950000004E-01  -0.1476550002E-01  -0.1476550002E-01   0.9847604998E-16  -0.4537687658E-15  -0.1493627475E-14   0.7750000010E+01
     1     2     3     4     5     6     7     8
     2     9    10     3     6    11    12     7
 VARIABLES = X,Y,Z,DU1,DU2,DU3,U1,U2,U3,S11,S22,S33,S12,S13,S23,E11,E22,E33,E12,E13,E23,SMISES
 ZONE, T="0.7950D+01" F=FEPOINT, I=   12 J=    2 ET=BRICK
   0.0000000000E+00   0.0000000000E+00   0.0000000000E+00   0.0000000000E+00   0.0000000000E+00   0.0000000000E+00   0.0000000000E+00   0.0000000000E+00   0.0000000000E+00  -0.8875000014E+01  -0.4024341644E-11  -0.4447844943E-11  -0.4345716212E-16  -0.5209480278E-12  -0.2306560339E-12   0.4750000007E-02  -0.2392750004E-02  -0.2392750004E-02   0.4672165730E-17  -0.1185777868E-13  -0.5657493565E-14   0.8875000014E+01
   0.1004750000E+01   0.0000000000E+00  -0.5061851046E-14  -0.2475000000E-01   0.0000000000E+00  -0.5386723246E-14   0.2950000000E-01   0.0000000000E+00   0.3248721995E-15  -0.8875000014E+01   0.5942726476E-12   0.5699371427E-12   0.1368137385E-13  -0.1935346796E-12   0.1129761167E-12   0.4750000007E-02  -0.2392750004E-02  -0.2392750004E-02  -0.1513332778E-15  -0.3809359351E-14   0.1931244928E-14   0.8875000014E+01
   0.1004750000E+01   0.9976072500E+00  -0.4096066883E-14  -0.2475000000E-01   0.1237275000E-01  -0.4268533724E-14   0.2950000000E-01  -0.1476550000E-01   0.1724668414E-15  -0.8875000013E+01   0.4016232925E-12   0.3499439999E-12  -0.3757107747E-13  -0.3300767808E-13  -0.3718608447E-13   0.4750000007E-02  -0.2392750003E-02  -0.2392750003E-02  -0.9625781454E-15  -0.6378575202E-15  -0.9631479747E-15   0.8875000013E+01
   0.0000000000E+00   0.9976072500E+00  -0.2828828493E-14   0.0000000000E+00   0.1237275000E-01  -0.3167721174E-14   0.0000000000E+00  -0.1476550000E-01   0.3388926809E-15  -0.8875000013E+01  -0.1803204953E-12  -0.6206552661E-12  -0.1193536263E-12  -0.8737201869E-13  -0.3777461350E-12   0.4750000007E-02  -0.2392750003E-02  -0.2392750003E-02  -0.2939906794E-14  -0.2062424784E-14  -0.8452456813E-14   0.8875000013E+01
   0.0000000000E+00   0.0000000000E+00   0.9976072500E+00   0.0000000000E+00   0.0000000000E+00   0.1237275000E-01   0.0000000000E+00   0.0000000000E+00  -0.1476550000E-01  -0.8875000013E+01   0.1299278822E-11   0.1170213754E-11   0.2440848186E-16  -0.3936187358E-12  -0.2392289332E-12   0.4750000007E-02  -0.2392750003E-02  -0.2392750003E-02  -0.6258841703E-18  -0.8693184399E-14  -0.5462990179E-14   0.8875000013E+01
   0.1004750000E+01   0.0000000000E+00   0.9976072500E+00  -0.2475000000E-01   0.0000000000E+00   0.1237275000E-01   0.2950000000E-01   0.0000000000E+00  -0.1476550000E-01  -0.8875000013E+01   0.1706075424E-12   0.4502887158E-12   0.1053325869E-13  -0.1396163557E-12   0.9790109667E-13   0.4750000007E-02  -0.2392750003E-02  -0.2392750003E-02  -0.1485841832E-15  -0.2910309456E-14   0.1888765758E-14   0.8875000013E+01
   0.1004750000E+01   0.9976072500E+00   0.9976072500E+00  -0.2475000000E-01   0.1237275000E-01   0.1237275000E-01   0.2950000000E-01  -0.1476550000E-01  -0.1476550000E-01  -0.8875000012E+01  -0.1331356233E-11  -0.1087143116E-11  -0.4092349688E-13   0.1785412034E-13  -0.5248353574E-13   0.4750000006E-02  -0.2392750003E-02  -0.2392750003E-02  -0.9498555978E-15   0.1946336645E-15  -0.9595904819E-15   0.8875000012E+01
   0.0000000000E+00   0.9976072500E+00   0.9976072500E+00   0.0000000000E+00   0.1237275000E-01   0.1237275000E-01   0.0000000000E+00  -0.1476550000E-01  -0.1476550000E-01  -0.8875000012E+01   0.1654200691E-11   0.1508678637E-11  -0.1248247276E-12   0.3200213963E-13  -0.3856766747E-12   0.4750000006E-02  -0.2392750003E-02  -0.2392750003E-02  -0.3061323950E-14   0.8150566902E-15  -0.8291016679E-14   0.8875000012E+01
   0.2009500000E+01   0.0000000000E+00  -0.6654557923E-14  -0.4950000000E-01   0.0000000000E+00  -0.7402077909E-14   0.5900000000E-01   0.0000000000E+00   0.7475199854E-15  -0.8875000013E+01  -0.4132652560E-12  -0.4151275233E-12   0.2889742541E-13   0.1272560819E-12   0.9950957759E-13   0.4750000007E-02  -0.2392750004E-02  -0.2392750004E-02  -0.3020697825E-15   0.3988083663E-14   0.6814760004E-15   0.8875000013E+01
   0.2009500000E+01   0.9976072500E+00  -0.6311044483E-14  -0.4950000000E-01   0.1237275000E-01  -0.6322448565E-14   0.5900000000E-01  -0.1476550000E-01   0.1140408177E-16  -0.8875000012E+01  -0.3564513399E-15  -0.3367481230E-13   0.4545114823E-13   0.2332811065E-13  -0.4727430765E-13   0.4750000007E-02  -0.2392750003E-02  -0.2392750003E-02   0.9813663939E-15   0.5630257081E-15  -0.2081061693E-14   0.8875000012E+01
   0.2009500000E+01   0.0000000000E+00   0.9976072500E+00  -0.4950000000E-01   0.0000000000E+00   0.1237275000E-01   0.5900000000E-01   0.0000000000E+00  -0.1476550000E-01  -0.8875000012E+01  -0.8548570440E-12  -0.5607049902E-12   0.2875902326E-13   0.1104709968E-12   0.8201401844E-13   0.4750000007E-02  -0.2392750003E-02  -0.2392750003E-02  -0.2492619620E-15   0.2643677282E-14   0.7061552909E-15   0.8875000012E+01
   0.2009500000E+01   0.9976072500E+00   0.9976072500E+00  -0.4950000000E-01   0.1237275000E-01   0.1237275000E-01   0.5900000000E-01  -0.1476550000E-01  -0.1476550000E-01  -0.8875000011E+01   0.5139017211E-12   0.7738199881E-12   0.5040119906E-13   0.4665788734E-14  -0.6447614040E-13   0.4750000006E-02  -0.2392750003E-02  -0.2392750003E-02   0.1196155147E-14  -0.6487932649E-15  -0.2099129446E-14   0.8875000011E+01
     1     2     3     4     5     6     7     8
     2     9    10     3     6    11    12     7
 VARIABLES = X,Y,Z,DU1,DU2,DU3,U1,U2,U3,S11,S22,S33,S12,S13,S23,E11,E22,E33,E12,E13,E23,SMISES
 ZONE, T="0.8000D+01" F=FEPOINT, I=   12 J=    2 ET=BRICK
   0.0000000000E+00   0.0000000000E+00   0.0000000000E+00   0.0000000000E+00   0.0000000000E+00   0.0000000000E+00   0.0000000000E+00   0.0000000000E+00   0.0000000000E+00  -0.1000000002E+02  -0.8086824553E-12  -0.8038271180E-12   0.8120235638E-16   0.2711636304E-14  -0.2452142025E-14  -0.2000000003E-01   0.9980000016E-02   0.9980000016E-02   0.2437315892E-17  -0.4984366320E-14  -0.2654138688E-14   0.1000000002E+02
   0.9800000000E+00   0.0000000000E+00  -0.2005372756E-14  -0.2475000000E-01   0.0000000000E+00   0.3056478290E-14   0.4750000000E-02   0.0000000000E+00  -0.5061851046E-14  -0.1000000002E+02  -0.1149132791E-13  -0.4609299761E-14   0.8768995887E-15  -0.3562618864E-15  -0.3426819023E-14  -0.2000000003E-01   0.9980000015E-02   0.9980000015E-02  -0.2521706322E-15  -0.1334909158E-14   0.4348073546E-15   0.1000000002E+02
   0.9800000000E+00   0.1009980000E+01  -0.1785259558E-14  -0.2475000000E-01   0.1237275000E-01   0.2310807324E-14   0.4750000000E-02  -0.2392750000E-02  -0.4096066883E-14  -0.1000000001E+02   0.7667492450E-13   0.8417156067E-13   0.8899785261E-15  -0.1148878441E-14   0.4317117794E-14  -0.2000000003E-01   0.9980000014E-02   0.9980000014E-02  -0.4380814420E-15  -0.2612173317E-15  -0.3612526016E-15   0.1000000001E+02
   0.0000000000E+00   0.1009980000E+01  -0.1328978346E-14   0.0000000000E+00   0.1237275000E-01   0.1499850147E-14   0.0000000000E+00  -0.2392750000E-02  -0.2828828493E-14  -0.1000000001E+02   0.1325304419E-11   0.1329299477E-11  -0.9556452640E-15   0.2070810497E-14   0.3361424554E-14  -0.2000000003E-01   0.9980000015E-02   0.9980000015E-02  -0.1379428708E-14  -0.8616830477E-15  -0.3457091235E-14   0.1000000001E+02
   0.0000000000E+00   0.0000000000E+00   0.1009980000E+01   0.0000000000E+00   0.0000000000E+00   0.1237275000E-01   0.0000000000E+00   0.0000000000E+00  -0.2392750000E-02  -0.1000000001E+02  -0.2031553756E-12  -0.2090516186E-12   0.6982602303E-16   0.1153439033E-14  -0.3933825930E-14  -0.2000000003E-01   0.9980000015E-02   0.9980000015E-02   0.1373169820E-17  -0.3533646032E-14  -0.2429488050E-14   0.1000000001E+02
   0.9800000000E+00   0.0000000000E+00   0.1009980000E+01  -0.2475000000E-01   0.0000000000E+00   0.1237275000E-01   0.4750000000E-02   0.0000000000E+00  -0.2392750000E-02  -0.1000000001E+02  -0.2371637527E-12  -0.2431655737E-12   0.1197170048E-14  -0.1091081862E-15  -0.2940931105E-14  -0.2000000003E-01   0.9980000014E-02   0.9980000014E-02  -0.2156973038E-15  -0.1121258493E-14   0.5785922519E-15   0.1000000001E+02
   0.9800000000E+00   0.1009980000E+01   0.1009980000E+01  -0.2475000000E-01   0.1237275000E-01   0.1237275000E-01   0.4750000000E-02  -0.2392750000E-02  -0.2392750000E-02  -0.1000000001E+02   0.2762349435E-12   0.2666071064E-12   0.9686704659E-15  -0.2018398226E-15   0.3608419857E-14  -0.2000000003E-01   0.9980000013E-02   0.9980000013E-02  -0.3889963367E-15  -0.2731951516E-16  -0.2303058822E-15   0.1000000001E+02
   0.0000000000E+00   0.1009980000E+01   0.1009980000E+01   0.0000000000E+00   0.1237275000E-01   0.1237275000E-01   0.0000000000E+00  -0.2392750000E-02  -0.2392750000E-02  -0.1000000001E+02   0.1771085482E-12   0.1696293126E-12   0.3864428086E-15   0.2645157120E-14   0.2165609699E-14  -0.2000000003E-01   0.9980000013E-02   0.9980000013E-02  -0.1401036901E-14   0.4470619145E-15  -0.3242554546E-14   0.1000000001E+02
   0.1960000000E+01   0.0000000000E+00  -0.2069856788E-14  -0.4950000000E-01   0.0000000000E+00   0.4584701136E-14   0.9500000000E-02   0.0000000000E+00  -0.6654557923E-14  -0.1000000002E+02   0.5835062855E-12   0.5874705271E-12  -0.1097220811E-15  -0.2099827431E-14  -0.3283887206E-14  -0.2000000003E-01   0.9980000015E-02   0.9980000015E-02  -0.5919823850E-15   0.2104051515E-14  -0.5369371777E-15   0.1000000002E+02
   0.1960000000E+01   0.1009980000E+01  -0.2337894667E-14  -0.4950000000E-01   0.1237275000E-01   0.3973149817E-14   0.9500000000E-02  -0.2392750000E-02  -0.6311044483E-14  -0.1000000001E+02  -0.6289323235E-12  -0.6207016948E-12  -0.4407579763E-15   0.5856476866E-15   0.2811380709E-14  -0.2000000003E-01   0.9980000014E-02   0.9980000014E-02   0.3849947986E-15   0.2529565341E-15  -0.1294616347E-14   0.1000000001E+02
   0.1960000000E+01   0.0000000000E+00   0.1009980000E+01  -0.4950000000E-01   0.0000000000E+00   0.1237275000E-01   0.9500000000E-02   0.0000000000E+00  -0.2392750000E-02  -0.1000000001E+02  -0.8272705146E-12  -0.8321486973E-12   0.2128429437E-14  -0.2204106964E-14  -0.3713949579E-14  -0.2000000003E-01   0.9980000014E-02   0.9980000014E-02  -0.5123327905E-15   0.1168082747E-14  -0.3311825039E-15   0.1000000001E+02
   0.1960000000E+01   0.1009980000E+01   0.1009980000E+01  -0.4950000000E-01   0.1237275000E-01   0.1237275000E-01   0.9500000000E-02  -0.2392750000E-02  -0.2392750000E-02  -0.1000000001E+02   0.6567809025E-12   0.6507181262E-12   0.6013668203E-15   0.4076183997E-15   0.3012443545E-14  -0.2000000003E-01   0.9980000013E-02   0.9980000013E-02   0.5275947139E-15  -0.6877215727E-15  -0.1118367435E-14   0.1000000001E+02
     1     2     3     4     5     6     7     8
     2     9    10     3     6    11    12     7
 VARIABLES = X,Y,Z,DU1,DU2,DU3,U1,U2,U3,S11,S22,S33,S12,S13,S23,E11,E22,E33,E12,E13,E23,SMISES
 ZONE, T="0.8050D+01" F=FEPOINT, I=   12 J=    2 ET=BRICK
   0.0000000000E+00   0.0000000000E+00   0.0000000000E+00   0.0000000000E+00   0.0000000000E+00   0.0000000000E+00   0.0000000000E+00   0.0000000000E+00   0.0000000000E+00  -0.8875000014E+01   0.1754214626E-11   0.2140554160E-11   0.5842491920E-16   0.3864311798E-12   0.1050764553E-12  -0.1775000003E-01   0.8857250014E-02   0.8857250014E-02  -0.4646840057E-18  -0.3764109372E-15  -0.1365901334E-14   0.8875000014E+01
   0.9822500000E+00   0.0000000000E+00   0.3642380463E-15   0.2250000000E-02   0.0000000000E+00   0.2369610803E-14  -0.2000000000E-01   0.0000000000E+00  -0.2005372756E-14  -0.8875000014E+01   0.2455809658E-12   0.3433141437E-12   0.9178238289E-13   0.2505597565E-12  -0.1145122201E-12  -0.1775000003E-01   0.8857250014E-02   0.8857250014E-02   0.8395324850E-15   0.1658093360E-14  -0.8925189866E-15   0.8875000014E+01
   0.9822500000E+00   0.1008857250E+01  -0.8159904470E-16   0.2250000000E-02  -0.1122750000E-02   0.1703660514E-14  -0.2000000000E-01   0.9980000000E-02  -0.1785259558E-14  -0.8875000013E+01   0.7181824285E-13  -0.1354222634E-13   0.8308696134E-13   0.1537988450E-12   0.5844539756E-13  -0.1775000003E-01   0.8857250013E-02   0.8857250013E-02   0.5409487641E-15   0.1626713966E-14   0.2819777375E-15   0.8875000013E+01
   0.0000000000E+00   0.1008857250E+01  -0.6842865219E-15   0.0000000000E+00  -0.1122750000E-02   0.6446918243E-15   0.0000000000E+00   0.9980000000E-02  -0.1328978346E-14  -0.8875000013E+01   0.2991351275E-13   0.2177793995E-12   0.1040775904E-12   0.1082341110E-12   0.2735182780E-12  -0.1775000003E-01   0.8857250013E-02   0.8857250013E-02  -0.1180026279E-15   0.4005495601E-15  -0.2328287774E-15   0.8875000013E+01
   0.0000000000E+00   0.0000000000E+00   0.1008857250E+01   0.0000000000E+00   0.0000000000E+00  -0.1122750000E-02   0.0000000000E+00   0.0000000000E+00   0.9980000000E-02  -0.8875000013E+01   0.4165608940E-12   0.4668470674E-12   0.8741453277E-16   0.2683019310E-12   0.5301264308E-14  -0.1775000003E-01   0.8857250013E-02   0.8857250013E-02  -0.4330999205E-18  -0.3451672202E-15  -0.2320334432E-14   0.8875000013E+01
   0.9822500000E+00   0.0000000000E+00   0.1008857250E+01   0.2250000000E-02   0.0000000000E+00  -0.1122750000E-02  -0.2000000000E-01   0.0000000000E+00   0.9980000000E-02  -0.8875000013E+01  -0.6727055693E-12  -0.9180942415E-12   0.9663201986E-13   0.2496302210E-12  -0.2060148291E-12  -0.1775000003E-01   0.8857250013E-02   0.8857250013E-02   0.9310499065E-15   0.1887231583E-14  -0.1859159329E-14   0.8875000013E+01
   0.9822500000E+00   0.1008857250E+01   0.1008857250E+01   0.2250000000E-02  -0.1122750000E-02  -0.1122750000E-02  -0.2000000000E-01   0.9980000000E-02   0.9980000000E-02  -0.8875000012E+01   0.1191770852E-12  -0.3144558137E-12   0.9225173949E-13   0.1582821359E-12  -0.3431078520E-13  -0.1775000002E-01   0.8857250012E-02   0.8857250012E-02   0.7027233330E-15   0.1858639145E-14  -0.6897654363E-15   0.8875000012E+01
   0.0000000000E+00   0.1008857250E+01   0.1008857250E+01   0.0000000000E+00  -0.1122750000E-02  -0.1122750000E-02   0.0000000000E+00   0.9980000000E-02   0.9980000000E-02  -0.8875000012E+01   0.7760268481E-13  -0.6969874690E-13   0.1070670716E-12  -0.8090446565E-15   0.1740007555E-12  -0.1775000002E-01   0.8857250012E-02   0.8857250012E-02  -0.1194291500E-15   0.4163574858E-15  -0.1157298487E-14   0.8875000012E+01
   0.1964500000E+01   0.0000000000E+00   0.2944691492E-14   0.4500000000E-02   0.0000000000E+00   0.5014548280E-14  -0.4000000000E-01   0.0000000000E+00  -0.2069856788E-14  -0.8875000013E+01  -0.7251382607E-12  -0.3103812888E-12   0.1828058179E-12   0.1163907299E-12  -0.9706800285E-13  -0.1775000003E-01   0.8857250013E-02   0.8857250013E-02   0.1577202137E-14   0.3548009507E-14  -0.1654436092E-14   0.8875000013E+01
   0.1964500000E+01   0.1008857250E+01   0.2114211035E-14   0.4500000000E-02  -0.1122750000E-02   0.4452105702E-14  -0.4000000000E-01   0.9980000000E-02  -0.2337894667E-14  -0.8875000012E+01  -0.1232879572E-13   0.2297424398E-12   0.6003847865E-13   0.1971064617E-12   0.8060283906E-13  -0.1775000002E-01   0.8857250012E-02   0.8857250012E-02   0.1101929201E-14   0.2572663571E-14  -0.3867993744E-15   0.8875000012E+01
   0.1964500000E+01   0.0000000000E+00   0.1008857250E+01   0.4500000000E-02   0.0000000000E+00  -0.1122750000E-02  -0.4000000000E-01   0.0000000000E+00   0.9980000000E-02  -0.8875000012E+01   0.3754985655E-12   0.4390899106E-12   0.1872272930E-12   0.2298408071E-12  -0.1860276176E-12  -0.1775000002E-01   0.8857250012E-02   0.8857250012E-02   0.1723091231E-14   0.3885114700E-14  -0.2528510611E-14   0.8875000012E+01
   0.1964500000E+01   0.1008857250E+01   0.1008857250E+01   0.4500000000E-02  -0.1122750000E-02  -0.1122750000E-02  -0.4000000000E-01   0.9980000000E-02   0.9980000000E-02  -0.8875000011E+01   0.1731173179E-11   0.1615506695E-11   0.7074092017E-13   0.3140885630E-12  -0.7674415175E-14  -0.1775000002E-01   0.8857250011E-02   0.8857250011E-02   0.1377255760E-14   0.3140069624E-14  -0.1214847663E-14   0.8875000011E+01
     1     2     3     4     5     6     7     8
     2     9    10     3     6    11    12     7
 VARIABLES = X,Y,Z,DU1,DU2,DU3,U1,U2,U3,S11,S22,S33,S12,S13,S23,E11,E22,E33,E12,E13,E23,SMISES
 ZONE, T="0.8100D+01" F=FEPOINT, I=   12 J=    2 ET=BRICK
   0.0000000000E+00   0.0000000000E+00   0.0000000000E+00   0.0000000000E+00   0.0000000000E+00   0.0000000000E+00   0.0000000000E+00   0.0000000000E+00   0.0000000000E+00  -0.7750000012E+01  -0.7611189784E-13  -0.6609470090E-13   0.5642441035E-16   0.4162416506E-14  -0.1541380290E-14  -0.1550000002E-01   0.7734500012E-02   0.7734500012E-02   0.1778605083E-17  -0.4966937393E-14  -0.2646900697E-14   0.7750000012E+01
   0.9845000000E+00   0.0000000000E+00  -0.1997148938E-14   0.2250000000E-02   0.0000000000E+00  -0.2361386984E-14  -0.1775000000E-01   0.0000000000E+00   0.3642380463E-15  -0.7750000012E+01  -0.9483096092E-13  -0.8648094798E-13   0.8551213253E-16  -0.1289823871E-14  -0.3911742989E-14  -0.1550000002E-01   0.7734500012E-02   0.7734500012E-02  -0.2632885763E-15  -0.1344026711E-14   0.4348206091E-15   0.7750000012E+01
   0.9845000000E+00   0.1007734500E+01  -0.1779727283E-14   0.2250000000E-02  -0.1122750000E-02  -0.1698128239E-14  -0.1775000000E-01   0.8857250000E-02  -0.8159904470E-16  -0.7750000011E+01   0.1156382060E-13   0.2037386456E-13   0.3691494403E-15  -0.7181184545E-15   0.4620526046E-14  -0.1550000002E-01   0.7734500011E-02   0.7734500011E-02  -0.4521226341E-15  -0.2349233446E-15  -0.3655189208E-15   0.7750000011E+01
   0.0000000000E+00   0.1007734500E+01  -0.1323558693E-14   0.0000000000E+00  -0.1122750000E-02  -0.6392721708E-15   0.0000000000E+00   0.8857250000E-02  -0.6842865219E-15  -0.7750000011E+01   0.1349941967E-12   0.1373710693E-12  -0.6039009644E-15   0.1873431333E-14   0.6100618167E-14  -0.1550000002E-01   0.7734500011E-02   0.7734500011E-02  -0.1370948696E-14  -0.8719919779E-15  -0.3423314539E-14   0.7750000011E+01
   0.0000000000E+00   0.0000000000E+00   0.1007734500E+01   0.0000000000E+00   0.0000000000E+00  -0.1122750000E-02   0.0000000000E+00   0.0000000000E+00   0.8857250000E-02  -0.7750000011E+01   0.7251271367E-13   0.6808007900E-13   0.1025994369E-15   0.9330658966E-15  -0.5885311466E-14  -0.1550000002E-01   0.7734500011E-02   0.7734500011E-02  -0.4039619103E-18  -0.3546150537E-14  -0.2459847538E-14   0.7750000011E+01
   0.9845000000E+00   0.0000000000E+00   0.1007734500E+01   0.2250000000E-02   0.0000000000E+00  -0.1122750000E-02  -0.1775000000E-01   0.0000000000E+00   0.8857250000E-02  -0.7750000011E+01   0.1825818467E-13   0.1237827469E-13   0.2315917015E-14  -0.2017560887E-14  -0.3682196897E-14  -0.1550000002E-01   0.7734500011E-02   0.7734500011E-02  -0.2020160438E-15  -0.1132353173E-14   0.5665964143E-15   0.7750000011E+01
   0.9845000000E+00   0.1007734500E+01   0.1007734500E+01   0.2250000000E-02  -0.1122750000E-02  -0.1122750000E-02  -0.1775000000E-01   0.8857250000E-02   0.8857250000E-02  -0.7750000010E+01  -0.4545964205E-13  -0.5603010065E-13   0.1491539996E-14   0.7585669431E-15   0.3498838607E-14  -0.1550000002E-01   0.7734500010E-02   0.7734500010E-02  -0.3860120243E-15  -0.3363845917E-16  -0.2356351905E-15   0.7750000010E+01
   0.0000000000E+00   0.1007734500E+01   0.1007734500E+01   0.0000000000E+00  -0.1122750000E-02  -0.1122750000E-02   0.0000000000E+00   0.8857250000E-02   0.8857250000E-02  -0.7750000010E+01  -0.3691748126E-13  -0.4810439798E-13  -0.3871075928E-15   0.3664751543E-14   0.2043683188E-14  -0.1550000002E-01   0.7734500010E-02   0.7734500010E-02  -0.1407503653E-14   0.4713319789E-15  -0.3225148811E-14   0.7750000010E+01
   0.1969000000E+01   0.0000000000E+00  -0.2055392810E-14   0.4500000000E-02   0.0000000000E+00  -0.5000084303E-14  -0.3550000000E-01   0.0000000000E+00   0.2944691492E-14  -0.7750000012E+01  -0.1326901987E-13  -0.1058299339E-13   0.8874518329E-16  -0.1136780251E-14  -0.3890755383E-14  -0.1550000002E-01   0.7734500012E-02   0.7734500012E-02  -0.6149037946E-15   0.2123152572E-14  -0.5457352657E-15   0.7750000012E+01
   0.1969000000E+01   0.1007734500E+01  -0.2327232205E-14   0.4500000000E-02  -0.1122750000E-02  -0.4441443240E-14  -0.3550000000E-01   0.8857250000E-02   0.2114211035E-14  -0.7750000011E+01  -0.2540524697E-13  -0.1646638881E-13  -0.1673817888E-15  -0.4060085226E-15   0.2200026479E-14  -0.1550000002E-01   0.7734500011E-02   0.7734500011E-02   0.3793003801E-15   0.2315575432E-15  -0.1308122649E-14   0.7750000011E+01
   0.1969000000E+01   0.0000000000E+00   0.1007734500E+01   0.4500000000E-02   0.0000000000E+00  -0.1122750000E-02  -0.3550000000E-01   0.0000000000E+00   0.8857250000E-02  -0.7750000011E+01  -0.7476817443E-13  -0.8040611232E-13   0.4882909182E-15  -0.2461531512E-14  -0.3482466867E-14  -0.1550000002E-01   0.7734500011E-02   0.7734500011E-02  -0.5111973312E-15   0.1125818434E-14  -0.3316391294E-15   0.7750000011E+01
   0.1969000000E+01   0.1007734500E+01   0.1007734500E+01   0.4500000000E-02  -0.1122750000E-02  -0.1122750000E-02  -0.3550000000E-01   0.8857250000E-02   0.8857250000E-02  -0.7750000010E+01  -0.9676030839E-14  -0.1563322921E-13  -0.1314194700E-14  -0.1626394771E-15   0.3477039660E-14  -0.1550000002E-01   0.7734500010E-02   0.7734500010E-02   0.5091684587E-15  -0.6543738991E-15  -0.1098712188E-14   0.7750000010E+01
     1     2     3     4     5     6     7     8
     2     9    10     3     6    11    12     7
 VARIABLES = X,Y,Z,DU1,DU2,DU3,U1,U2,U3,S11,S22,S33,S12,S13,S23,E11,E22,E33,E12,E13,E23,SMISES
 ZONE, T="0.8150D+01" F=FEPOINT, I=   12 J=    2 ET=BRICK
   0.0000000000E+00   0.0000000000E+00   0.0000000000E+00   0.0000000000E+00   0.0000000000E+00   0.0000000000E+00   0.0000000000E+00   0.0000000000E+00   0.0000000000E+00  -0.6625000010E+01   0.1845160902E-13   0.2781064321E-13   0.6580889133E-16   0.3763107518E-14  -0.1178268162E-14  -0.1325000002E-01   0.6611750010E-02   0.6611750010E-02  -0.4863197574E-18  -0.4960395246E-14  -0.2644099554E-14   0.6625000010E+01
   0.9867500000E+00   0.0000000000E+00  -0.2000044141E-14   0.2250000000E-02   0.0000000000E+00  -0.2895203237E-17  -0.1550000000E-01   0.0000000000E+00  -0.1997148938E-14  -0.6625000010E+01   0.5822179109E-13   0.6558057446E-13  -0.6658968853E-15  -0.1627773303E-14  -0.3452779362E-14  -0.1325000002E-01   0.6611750010E-02   0.6611750010E-02  -0.2683748915E-15  -0.1363324773E-14   0.4391829589E-15   0.6625000010E+01
   0.9867500000E+00   0.1006611750E+01  -0.1779765531E-14   0.2250000000E-02  -0.1122750000E-02  -0.3824753295E-19  -0.1550000000E-01   0.7734500000E-02  -0.1779727283E-14  -0.6625000009E+01  -0.2819168968E-13  -0.2023210469E-13  -0.4625861925E-15  -0.3494628333E-15   0.4365324676E-14  -0.1325000002E-01   0.6611750009E-02   0.6611750009E-02  -0.4587872921E-15  -0.2272610551E-15  -0.3692507497E-15   0.6625000009E+01
   0.0000000000E+00   0.1006611750E+01  -0.1321379777E-14   0.0000000000E+00  -0.1122750000E-02   0.2178915776E-17   0.0000000000E+00   0.7734500000E-02  -0.1323558693E-14  -0.6625000010E+01  -0.7992962419E-13  -0.7828129964E-13  -0.4489791018E-15   0.1774609542E-14   0.5670242441E-14  -0.1325000002E-01   0.6611750010E-02   0.6611750010E-02  -0.1372594394E-14  -0.8716367124E-15  -0.3427185986E-14   0.6625000010E+01
   0.0000000000E+00   0.0000000000E+00   0.1006611750E+01   0.0000000000E+00   0.0000000000E+00  -0.1122750000E-02   0.0000000000E+00   0.0000000000E+00   0.7734500000E-02  -0.6625000010E+01  -0.3806298393E-14  -0.7429111065E-14   0.1166815776E-15   0.7572831011E-15  -0.5340739952E-14  -0.1325000002E-01   0.6611750010E-02   0.6611750010E-02   0.1829575496E-17  -0.3548040713E-14  -0.2450975627E-14   0.6625000010E+01
   0.9867500000E+00   0.0000000000E+00   0.1006611750E+01   0.2250000000E-02   0.0000000000E+00  -0.1122750000E-02  -0.1550000000E-01   0.0000000000E+00   0.7734500000E-02  -0.6625000009E+01   0.3951211272E-13   0.3432011380E-13   0.2445816672E-14  -0.2137888191E-14  -0.3231309519E-14  -0.1325000002E-01   0.6611750009E-02   0.6611750009E-02  -0.1997867718E-15  -0.1135521749E-14   0.5750413097E-15   0.6625000009E+01
   0.9867500000E+00   0.1006611750E+01   0.1006611750E+01   0.2250000000E-02  -0.1122750000E-02  -0.1122750000E-02  -0.1550000000E-01   0.7734500000E-02   0.7734500000E-02  -0.6625000009E+01   0.1456151175E-15  -0.9596161818E-14   0.1756219764E-14   0.1074326171E-14   0.3168927320E-14  -0.1325000002E-01   0.6611750009E-02   0.6611750009E-02  -0.3864631483E-15  -0.2202957011E-16  -0.2363066465E-15   0.6625000009E+01
   0.0000000000E+00   0.1006611750E+01   0.1006611750E+01   0.0000000000E+00  -0.1122750000E-02  -0.1122750000E-02   0.0000000000E+00   0.7734500000E-02   0.7734500000E-02  -0.6625000009E+01  -0.4169533781E-13  -0.5214281784E-13  -0.2242791266E-15   0.3485258249E-14   0.1714658611E-14  -0.1325000002E-01   0.6611750009E-02   0.6611750009E-02  -0.1408737728E-14   0.4651112337E-15  -0.3233470277E-14   0.6625000009E+01
   0.1973500000E+01   0.0000000000E+00  -0.2063858645E-14   0.4500000000E-02   0.0000000000E+00  -0.8465834627E-17  -0.3100000000E-01   0.0000000000E+00  -0.2055392810E-14  -0.6625000010E+01   0.4875871416E-13   0.5222189668E-13  -0.6432302966E-15  -0.1118068730E-14  -0.3786160508E-14  -0.1325000002E-01   0.6611750010E-02   0.6611750010E-02  -0.6180147768E-15   0.2129120888E-14  -0.5391701841E-15   0.6625000010E+01
   0.1973500000E+01   0.1006611750E+01  -0.2335147829E-14   0.4500000000E-02  -0.1122750000E-02  -0.7915623848E-17  -0.3100000000E-01   0.7734500000E-02  -0.2327232205E-14  -0.6625000009E+01   0.1511625488E-13   0.2385192816E-13  -0.1133065434E-14  -0.1524071355E-15   0.1798658014E-14  -0.1325000002E-01   0.6611750009E-02   0.6611750009E-02   0.3729401064E-15   0.2172479234E-15  -0.1319256974E-14   0.6625000009E+01
   0.1973500000E+01   0.0000000000E+00   0.1006611750E+01   0.4500000000E-02   0.0000000000E+00  -0.1122750000E-02  -0.3100000000E-01   0.0000000000E+00   0.7734500000E-02  -0.6625000009E+01  -0.4950033727E-13  -0.5380309000E-13   0.8719409261E-15  -0.2421281454E-14  -0.3568632687E-14  -0.1325000002E-01   0.6611750009E-02   0.6611750009E-02  -0.5091784100E-15   0.1133725882E-14  -0.3393228307E-15   0.6625000009E+01
   0.1973500000E+01   0.1006611750E+01   0.1006611750E+01   0.4500000000E-02  -0.1122750000E-02  -0.1122750000E-02  -0.3100000000E-01   0.7734500000E-02   0.7734500000E-02  -0.6625000008E+01   0.4737627376E-13   0.4177391962E-13  -0.9839779633E-15   0.1338601073E-15   0.2949175064E-14  -0.1325000002E-01   0.6611750008E-02   0.6611750008E-02   0.5192572333E-15  -0.6675444993E-15  -0.1109985177E-14   0.6625000008E+01
     1     2     3     4     5     6     7     8
     2     9    10     3     6    11    12     7
 VARIABLES = X,Y,Z,DU1,DU2,DU3,U1,U2,U3,S11,S22,S33,S12,S13,S23,E11,E22,E33,E12,E13,E23,SMISES
 ZONE, T="0.8200D+01" F=FEPOINT, I=   12 J=    2 ET=BRICK
   0.0000000000E+00   0.0000000000E+00   0.0000000000E+00   0.0000000000E+00   0.0000000000E+00   0.0000000000E+00   0.0000000000E+00   0.0000000000E+00   0.0000000000E+00  -0.5500000009E+01   0.4872421125E-13   0.5794500155E-13   0.6643196844E-16   0.3845254960E-14  -0.1202292325E-14  -0.1100000002E-01   0.5489000009E-02   0.5489000009E-02  -0.1050607079E-17  -0.4964335007E-14  -0.2643528450E-14   0.5500000009E+01
   0.9890000000E+00   0.0000000000E+00  -0.2000060740E-14   0.2250000000E-02   0.0000000000E+00  -0.1659845998E-19  -0.1325000000E-01   0.0000000000E+00  -0.2000044141E-14  -0.5500000008E+01  -0.1819366887E-13  -0.1136024861E-13  -0.7569167755E-15  -0.1753977289E-14  -0.3564279082E-14  -0.1100000002E-01   0.5489000008E-02   0.5489000008E-02  -0.2656479113E-15  -0.1363514742E-14   0.4396723604E-15   0.5500000008E+01
   0.9890000000E+00   0.1005489000E+01  -0.1780621396E-14   0.2250000000E-02  -0.1122750000E-02  -0.8558657336E-18  -0.1325000000E-01   0.6611750000E-02  -0.1779765531E-14  -0.5500000008E+01   0.2137710306E-14   0.1048188781E-13  -0.3551018856E-15  -0.3812030556E-15   0.3950897452E-14  -0.1100000002E-01   0.5489000008E-02   0.5489000008E-02  -0.4551371306E-15  -0.2380686369E-15  -0.3762029063E-15   0.5500000008E+01
   0.0000000000E+00   0.1005489000E+01  -0.1321447158E-14   0.0000000000E+00  -0.1122750000E-02  -0.6738144380E-19   0.0000000000E+00   0.6611750000E-02  -0.1321379777E-14  -0.5500000008E+01  -0.2717670195E-13  -0.2513435504E-13  -0.4709529083E-15   0.1636383688E-14   0.5604847303E-14  -0.1100000002E-01   0.5489000008E-02   0.5489000008E-02  -0.1370360065E-14  -0.8696815338E-15  -0.3426643616E-14   0.5500000008E+01
   0.0000000000E+00   0.0000000000E+00   0.1005489000E+01   0.0000000000E+00   0.0000000000E+00  -0.1122750000E-02   0.0000000000E+00   0.0000000000E+00   0.6611750000E-02  -0.5500000008E+01   0.8239512276E-14   0.4863048205E-14   0.1015835674E-15   0.8141116508E-15  -0.5104288565E-14  -0.1100000002E-01   0.5489000008E-02   0.5489000008E-02   0.7080735311E-18  -0.3550426069E-14  -0.2445514577E-14   0.5500000008E+01
   0.9890000000E+00   0.0000000000E+00   0.1005489000E+01   0.2250000000E-02   0.0000000000E+00  -0.1122750000E-02  -0.1325000000E-01   0.0000000000E+00   0.6611750000E-02  -0.5500000008E+01  -0.2168618032E-13  -0.2668588298E-13   0.2414835144E-14  -0.2261643646E-14  -0.3063069499E-14  -0.1100000002E-01   0.5489000008E-02   0.5489000008E-02  -0.1992955641E-15  -0.1134554011E-14   0.5754092622E-15   0.5500000008E+01
   0.9890000000E+00   0.1005489000E+01   0.1005489000E+01   0.2250000000E-02  -0.1122750000E-02  -0.1122750000E-02  -0.1325000000E-01   0.6611750000E-02   0.6611750000E-02  -0.5500000007E+01  -0.8719626742E-14  -0.1735915180E-13   0.1801938312E-14   0.1020899512E-14   0.3161278037E-14  -0.1100000001E-01   0.5489000007E-02   0.5489000007E-02  -0.3794489944E-15  -0.1944560992E-16  -0.2361576465E-15   0.5500000007E+01
   0.0000000000E+00   0.1005489000E+01   0.1005489000E+01   0.0000000000E+00  -0.1122750000E-02  -0.1122750000E-02   0.0000000000E+00   0.6611750000E-02   0.6611750000E-02  -0.5500000007E+01   0.2082474071E-13   0.1036783091E-13  -0.4580783880E-15   0.3468398914E-14   0.1775628974E-14  -0.1100000001E-01   0.5489000007E-02   0.5489000007E-02  -0.1409813753E-14   0.4638056433E-15  -0.3248162936E-14   0.5500000007E+01
   0.1978000000E+01   0.0000000000E+00  -0.2065415164E-14   0.4500000000E-02   0.0000000000E+00  -0.1556519027E-17  -0.2650000000E-01   0.0000000000E+00  -0.2063858645E-14  -0.5500000008E+01  -0.5981769201E-13  -0.5708850191E-13  -0.7675047402E-15  -0.6870511372E-15  -0.3734407453E-14  -0.1100000002E-01   0.5489000008E-02   0.5489000008E-02  -0.6193917572E-15   0.2135573238E-14  -0.5418013351E-15   0.5500000008E+01
   0.1978000000E+01   0.1005489000E+01  -0.2336313540E-14   0.4500000000E-02  -0.1122750000E-02  -0.1165711359E-17  -0.2650000000E-01   0.6611750000E-02  -0.2335147829E-14  -0.5500000008E+01  -0.6523119992E-13  -0.5727414151E-13  -0.8863771188E-15  -0.2321348060E-17   0.1716297177E-14  -0.1100000002E-01   0.5489000008E-02   0.5489000008E-02   0.3746458744E-15   0.2239182134E-15  -0.1317337072E-14   0.5500000008E+01
   0.1978000000E+01   0.0000000000E+00   0.1005489000E+01   0.4500000000E-02   0.0000000000E+00  -0.1122750000E-02  -0.2650000000E-01   0.0000000000E+00   0.6611750000E-02  -0.5500000008E+01  -0.1079644173E-14  -0.6397930518E-14   0.2103805190E-15  -0.2215727694E-14  -0.3225991785E-14  -0.1100000002E-01   0.5489000008E-02   0.5489000008E-02  -0.5156388884E-15   0.1131045006E-14  -0.3308384473E-15   0.5500000008E+01
   0.1978000000E+01   0.1005489000E+01   0.1005489000E+01   0.4500000000E-02  -0.1122750000E-02  -0.1122750000E-02  -0.2650000000E-01   0.6611750000E-02   0.6611750000E-02  -0.5500000007E+01  -0.1163786979E-13  -0.1751233536E-13  -0.1139968442E-14  -0.1467038139E-17   0.3017413235E-14  -0.1100000001E-01   0.5489000007E-02   0.5489000007E-02   0.5199732345E-15  -0.6650902494E-15  -0.1111110873E-14   0.5500000007E+01
     1     2     3     4     5     6     7     8
     2     9    10     3     6    11    12     7
 VARIABLES = X,Y,Z,DU1,DU2,DU3,U1,U2,U3,S11,S22,S33,S12,S13,S23,E11,E22,E33,E12,E13,E23,SMISES
 ZONE, T="0.8250D+01" F=FEPOINT, I=   12 J=    2 ET=BRICK
   0.0000000000E+00   0.0000000000E+00   0.0000000000E+00   0.0000000000E+00   0.0000000000E+00   0.0000000000E+00   0.0000000000E+00   0.0000000000E+00   0.0000000000E+00  -0.4375000007E+01   0.1683286784E-13   0.2635099841E-13   0.1986894571E-16   0.4021891903E-14  -0.1525487515E-14  -0.8750000014E-02   0.4366250007E-02   0.4366250007E-02  -0.1856651446E-18  -0.4965644695E-14  -0.2646028790E-14   0.4375000007E+01
   0.9912500000E+00   0.0000000000E+00  -0.1998817006E-14   0.2250000000E-02   0.0000000000E+00   0.1243733038E-17  -0.1100000000E-01   0.0000000000E+00  -0.2000060740E-14  -0.4375000007E+01   0.4034341255E-14   0.1152990974E-13  -0.4051850973E-15  -0.1938490200E-14  -0.3633423364E-14  -0.8750000013E-02   0.4366250007E-02   0.4366250007E-02  -0.2629485932E-15  -0.1353820397E-14   0.4385543497E-15   0.4375000007E+01
   0.9912500000E+00   0.1004366250E+01  -0.1779826127E-14   0.2250000000E-02  -0.1122750000E-02   0.7952693683E-18  -0.1100000000E-01   0.5489000000E-02  -0.1780621396E-14  -0.4375000006E+01  -0.1275016380E-13  -0.4391112137E-14  -0.8824000623E-16  -0.3893156417E-15   0.4382792171E-14  -0.8750000012E-02   0.4366250006E-02   0.4366250006E-02  -0.4528638027E-15  -0.2375001584E-15  -0.3715115077E-15   0.4375000006E+01
   0.0000000000E+00   0.1004366250E+01  -0.1323367409E-14   0.0000000000E+00  -0.1122750000E-02  -0.1920251107E-17   0.0000000000E+00   0.5489000000E-02  -0.1321447158E-14  -0.4375000006E+01   0.1134500527E-13   0.1388641854E-13  -0.3921852745E-15   0.2027275306E-14   0.5777042250E-14  -0.8750000013E-02   0.4366250006E-02   0.4366250006E-02  -0.1369471852E-14  -0.8640016779E-15  -0.3427001963E-14   0.4375000006E+01
   0.0000000000E+00   0.0000000000E+00   0.1004366250E+01   0.0000000000E+00   0.0000000000E+00  -0.1122750000E-02   0.0000000000E+00   0.0000000000E+00   0.5489000000E-02  -0.4375000006E+01   0.5353241735E-16  -0.3750153915E-14   0.1389222714E-15   0.9946839674E-15  -0.5396283351E-14  -0.8750000013E-02   0.4366250006E-02   0.4366250006E-02   0.7807121561E-18  -0.3545083227E-14  -0.2458007347E-14   0.4375000006E+01
   0.9912500000E+00   0.0000000000E+00   0.1004366250E+01   0.2250000000E-02   0.0000000000E+00  -0.1122750000E-02  -0.1100000000E-01   0.0000000000E+00   0.5489000000E-02  -0.4375000006E+01   0.2451930474E-13   0.1907949843E-13   0.2445275713E-14  -0.2062825271E-14  -0.3428761329E-14  -0.8750000012E-02   0.4366250006E-02   0.4366250006E-02  -0.1982643246E-15  -0.1137718473E-14   0.5718741750E-15   0.4375000006E+01
   0.9912500000E+00   0.1004366250E+01   0.1004366250E+01   0.2250000000E-02  -0.1122750000E-02  -0.1122750000E-02  -0.1100000000E-01   0.5489000000E-02   0.5489000000E-02  -0.4375000006E+01  -0.5391992376E-13  -0.6364682653E-13   0.1799868267E-14   0.9055077200E-15   0.3244346865E-14  -0.8750000011E-02   0.4366250006E-02   0.4366250006E-02  -0.3772793964E-15  -0.1047723044E-16  -0.2322367307E-15   0.4375000006E+01
   0.0000000000E+00   0.1004366250E+01   0.1004366250E+01   0.0000000000E+00  -0.1122750000E-02  -0.1122750000E-02   0.0000000000E+00   0.5489000000E-02   0.5489000000E-02  -0.4375000006E+01  -0.5267293198E-13  -0.6335533796E-13  -0.3878428778E-15   0.3443763356E-14   0.2094974158E-14  -0.8750000012E-02   0.4366250006E-02   0.4366250006E-02  -0.1408806305E-14   0.4597007645E-15  -0.3233494523E-14   0.4375000006E+01
   0.1982500000E+01   0.0000000000E+00  -0.2060978494E-14   0.4500000000E-02   0.0000000000E+00   0.4436670391E-17  -0.2200000000E-01   0.0000000000E+00  -0.2065415164E-14  -0.4375000007E+01   0.4742660251E-14   0.8461087230E-14  -0.7996744217E-16  -0.9826269236E-15  -0.3623698501E-14  -0.8750000013E-02   0.4366250007E-02   0.4366250007E-02  -0.6074837527E-15   0.2132468000E-14  -0.5412673496E-15   0.4375000007E+01
   0.1982500000E+01   0.1004366250E+01  -0.2331185175E-14   0.4500000000E-02  -0.1122750000E-02   0.5128364494E-17  -0.2200000000E-01   0.5489000000E-02  -0.2336313540E-14  -0.4375000006E+01   0.1788709366E-13   0.2600324846E-13  -0.2507336114E-15  -0.4467420888E-15   0.2165858828E-14  -0.8750000012E-02   0.4366250006E-02   0.4366250006E-02   0.3834490809E-15   0.1835063000E-15  -0.1306228582E-14   0.4375000006E+01
   0.1982500000E+01   0.0000000000E+00   0.1004366250E+01   0.4500000000E-02   0.0000000000E+00  -0.1122750000E-02  -0.2200000000E-01   0.0000000000E+00   0.5489000000E-02  -0.4375000006E+01  -0.2151563501E-13  -0.2599235825E-13   0.5903014854E-15  -0.2265944356E-14  -0.3550283429E-14  -0.8750000012E-02   0.4366250006E-02   0.4366250006E-02  -0.5145216050E-15   0.1130829644E-14  -0.3317332845E-15   0.4375000006E+01
   0.1982500000E+01   0.1004366250E+01   0.1004366250E+01   0.4500000000E-02  -0.1122750000E-02  -0.1122750000E-02  -0.2200000000E-01   0.5489000000E-02   0.5489000000E-02  -0.4375000006E+01   0.1362902846E-13   0.7765985498E-14  -0.1043492074E-14   0.6556233456E-16   0.3081594949E-14  -0.8750000011E-02   0.4366250006E-02   0.4366250006E-02   0.5234422448E-15  -0.6535165436E-15  -0.1112382799E-14   0.4375000006E+01
     1     2     3     4     5     6     7     8
     2     9    10     3     6    11    12     7
 VARIABLES = X,Y,Z,DU1,DU2,DU3,U1,U2,U3,S11,S22,S33,S12,S13,S23,E11,E22,E33,E12,E13,E23,SMISES
 ZONE, T="0.8300D+01" F=FEPOINT, I=   12 J=    2 ET=BRICK
   0.0000000000E+00   0.0000000000E+00   0.0000000000E+00   0.0000000000E+00   0.0000000000E+00   0.0000000000E+00   0.0000000000E+00   0.0000000000E+00   0.0000000000E+00  -0.3250000005E+01  -0.9584535082E-13  -0.8731844984E-13  -0.1574027017E-17   0.3743106665E-14  -0.1246509581E-14  -0.6500000010E-02   0.3243500005E-02   0.3243500005E-02   0.2522816566E-18  -0.4969041288E-14  -0.2642397854E-14   0.3250000005E+01
   0.9935000000E+00   0.0000000000E+00  -0.2001228007E-14   0.2250000000E-02   0.0000000000E+00  -0.2411000168E-17  -0.8750000000E-02   0.0000000000E+00  -0.1998817006E-14  -0.3250000005E+01  -0.4101510904E-13  -0.3424808857E-13  -0.3589229547E-15  -0.1775963463E-14  -0.3421848760E-14  -0.6500000010E-02   0.3243500005E-02   0.3243500005E-02  -0.2643749246E-15  -0.1357319577E-14   0.4414159311E-15   0.3250000005E+01
   0.9935000000E+00   0.1003243500E+01  -0.1780971158E-14   0.2250000000E-02  -0.1122750000E-02  -0.1145030911E-17  -0.8750000000E-02   0.4366250000E-02  -0.1779826127E-14  -0.3250000005E+01  -0.6750372759E-14   0.1790086477E-14  -0.3377405881E-16  -0.3392179403E-15   0.3926364829E-14  -0.6500000009E-02   0.3243500005E-02   0.3243500005E-02  -0.4540144592E-15  -0.2320588732E-15  -0.3758470720E-15   0.3250000005E+01
   0.0000000000E+00   0.1003243500E+01  -0.1321822349E-14   0.0000000000E+00  -0.1122750000E-02   0.1545060719E-17   0.0000000000E+00   0.4366250000E-02  -0.1323367409E-14  -0.3250000005E+01   0.5979834541E-13   0.6184812941E-13  -0.5266589297E-15   0.1731164228E-14   0.5260371482E-14  -0.6500000009E-02   0.3243500005E-02   0.3243500005E-02  -0.1369345219E-14  -0.8677452664E-15  -0.3435915593E-14   0.3250000005E+01
   0.0000000000E+00   0.0000000000E+00   0.1003243500E+01   0.0000000000E+00   0.0000000000E+00  -0.1122750000E-02   0.0000000000E+00   0.0000000000E+00   0.4366250000E-02  -0.3250000005E+01  -0.7512293808E-14  -0.1054825392E-13   0.1376551194E-15   0.7643288589E-15  -0.4925760431E-14  -0.6500000009E-02   0.3243500005E-02   0.3243500005E-02   0.9729965511E-18  -0.3546636572E-14  -0.2449662003E-14   0.3250000005E+01
   0.9935000000E+00   0.0000000000E+00   0.1003243500E+01   0.2250000000E-02   0.0000000000E+00  -0.1122750000E-02  -0.8750000000E-02   0.0000000000E+00   0.4366250000E-02  -0.3250000005E+01  -0.2922006828E-13  -0.3377966731E-13   0.2439768681E-14  -0.1981144315E-14  -0.2955059096E-14  -0.6500000009E-02   0.3243500005E-02   0.3243500005E-02  -0.1966220667E-15  -0.1141279398E-14   0.5759137595E-15   0.3250000005E+01
   0.9935000000E+00   0.1003243500E+01   0.1003243500E+01   0.2250000000E-02  -0.1122750000E-02  -0.1122750000E-02  -0.8750000000E-02   0.4366250000E-02   0.4366250000E-02  -0.3250000004E+01   0.5218089620E-13   0.4300113390E-13   0.1862721902E-14   0.7842726463E-15   0.3069573779E-14  -0.6500000008E-02   0.3243500004E-02   0.3243500004E-02  -0.3760691952E-15  -0.1726678330E-16  -0.2375223755E-15   0.3250000004E+01
   0.0000000000E+00   0.1003243500E+01   0.1003243500E+01   0.0000000000E+00  -0.1122750000E-02  -0.1122750000E-02   0.0000000000E+00   0.4366250000E-02   0.4366250000E-02  -0.3250000004E+01   0.4828457225E-13   0.3828064749E-13  -0.4208305610E-15   0.3321612607E-14   0.1875675225E-14  -0.6500000009E-02   0.3243500004E-02   0.3243500004E-02  -0.1407621694E-14   0.4589889296E-15  -0.3238976167E-14   0.3250000004E+01
   0.1987000000E+01   0.0000000000E+00  -0.2069659900E-14   0.4500000000E-02   0.0000000000E+00  -0.8681405963E-17  -0.1750000000E-01   0.0000000000E+00  -0.2060978494E-14  -0.3250000005E+01   0.8252183174E-13   0.8524902909E-13  -0.2797167402E-15  -0.1082355079E-14  -0.3504526928E-14  -0.6500000010E-02   0.3243500005E-02   0.3243500005E-02  -0.6130424295E-15   0.2133096429E-14  -0.5383792019E-15   0.3250000005E+01
   0.1987000000E+01   0.1003243500E+01  -0.2339001186E-14   0.4500000000E-02  -0.1122750000E-02  -0.7816010412E-17  -0.1750000000E-01   0.4366250000E-02  -0.2331185175E-14  -0.3250000005E+01  -0.7285656219E-13  -0.6556510354E-13  -0.4375020648E-15   0.3916017289E-16   0.1892207748E-14  -0.6500000009E-02   0.3243500005E-02   0.3243500005E-02   0.3803394955E-15   0.2098926428E-15  -0.1317496526E-14   0.3250000005E+01
   0.1987000000E+01   0.0000000000E+00   0.1003243500E+01   0.4500000000E-02   0.0000000000E+00  -0.1122750000E-02  -0.1750000000E-01   0.0000000000E+00   0.4366250000E-02  -0.3250000005E+01  -0.6713865693E-13  -0.7163569865E-13   0.4979089476E-15  -0.1750396348E-14  -0.3271823903E-14  -0.6500000009E-02   0.3243500005E-02   0.3243500005E-02  -0.5145504676E-15   0.1132467674E-14  -0.3291581183E-15   0.3250000005E+01
   0.1987000000E+01   0.1003243500E+01   0.1003243500E+01   0.4500000000E-02  -0.1122750000E-02  -0.1122750000E-02  -0.1750000000E-01   0.4366250000E-02   0.4366250000E-02  -0.3250000004E+01   0.7082708816E-13   0.6552061544E-13  -0.9018809028E-15  -0.2379120738E-15   0.2747743242E-14  -0.6500000008E-02   0.3243500004E-02   0.3243500004E-02   0.5252559991E-15  -0.6657314861E-15  -0.1106797070E-14   0.3250000004E+01
     1     2     3     4     5     6     7     8
     2     9    10     3     6    11    12     7
 VARIABLES = X,Y,Z,DU1,DU2,DU3,U1,U2,U3,S11,S22,S33,S12,S13,S23,E11,E22,E33,E12,E13,E23,SMISES
 ZONE, T="0.8350D+01" F=FEPOINT, I=   12 J=    2 ET=BRICK
   0.0000000000E+00   0.0000000000E+00   0.0000000000E+00   0.0000000000E+00   0.0000000000E+00   0.0000000000E+00   0.0000000000E+00   0.0000000000E+00   0.0000000000E+00  -0.2125000003E+01   0.1487881035E-12   0.1577161969E-12  -0.1844431652E-16   0.3917006623E-14  -0.1330836973E-14  -0.4250000007E-02   0.2120750003E-02   0.2120750003E-02   0.2106176891E-18  -0.4966952516E-14  -0.2643293516E-14   0.2125000003E+01
   0.9957500000E+00   0.0000000000E+00  -0.1999565298E-14   0.2250000000E-02   0.0000000000E+00   0.1662708449E-17  -0.6500000000E-02   0.0000000000E+00  -0.2001228007E-14  -0.2125000003E+01  -0.6626903996E-13  -0.5957984188E-13  -0.4271759386E-15  -0.1821236570E-14  -0.3619963621E-14  -0.4250000007E-02   0.2120750003E-02   0.2120750003E-02  -0.2645663141E-15  -0.1353706762E-14   0.4385935012E-15   0.2125000003E+01
   0.9957500000E+00   0.1002120750E+01  -0.1780453800E-14   0.2250000000E-02  -0.1122750000E-02   0.5173584248E-18  -0.6500000000E-02   0.3243500000E-02  -0.1780971158E-14  -0.2125000003E+01   0.9342932020E-13   0.1019271497E-12  -0.1667072425E-15  -0.3472436776E-15   0.3996101449E-14  -0.4250000006E-02   0.2120750003E-02   0.2120750003E-02  -0.4525598046E-15  -0.2356866992E-15  -0.3737224574E-15   0.2125000003E+01
   0.0000000000E+00   0.1002120750E+01  -0.1322262750E-14   0.0000000000E+00  -0.1122750000E-02  -0.4404014624E-18   0.0000000000E+00   0.3243500000E-02  -0.1321822349E-14  -0.2125000003E+01  -0.7314905983E-14  -0.5397459168E-14  -0.3381274131E-15   0.1749400576E-14   0.5547160483E-14  -0.4250000006E-02   0.2120750003E-02   0.2120750003E-02  -0.1368005091E-14  -0.8684185622E-15  -0.3433905366E-14   0.2125000003E+01
   0.0000000000E+00   0.0000000000E+00   0.1002120750E+01   0.0000000000E+00   0.0000000000E+00  -0.1122750000E-02   0.0000000000E+00   0.0000000000E+00   0.3243500000E-02  -0.2125000003E+01  -0.8167880451E-13  -0.8489989079E-13   0.1380990400E-15   0.8929634339E-15  -0.5157442353E-14  -0.4250000006E-02   0.2120750003E-02   0.2120750003E-02  -0.7760697277E-18  -0.3547041380E-14  -0.2449722431E-14   0.2125000003E+01
   0.9957500000E+00   0.0000000000E+00   0.1002120750E+01   0.2250000000E-02   0.0000000000E+00  -0.1122750000E-02  -0.6500000000E-02   0.0000000000E+00   0.3243500000E-02  -0.2125000003E+01   0.7310872939E-14   0.2359244314E-14   0.2455741478E-14  -0.2115035543E-14  -0.3163422501E-14  -0.4250000006E-02   0.2120750003E-02   0.2120750003E-02  -0.1939519588E-15  -0.1141461321E-14   0.5731294053E-15   0.2125000003E+01
   0.9957500000E+00   0.1002120750E+01   0.1002120750E+01   0.2250000000E-02  -0.1122750000E-02  -0.1122750000E-02  -0.6500000000E-02   0.3243500000E-02   0.3243500000E-02  -0.2125000003E+01  -0.5653231627E-13  -0.6606891552E-13   0.1837487087E-14   0.9200737086E-15   0.3170862032E-14  -0.4250000006E-02   0.2120750003E-02   0.2120750003E-02  -0.3770951693E-15  -0.9130612220E-17  -0.2339879356E-15   0.2125000003E+01
   0.0000000000E+00   0.1002120750E+01   0.1002120750E+01   0.0000000000E+00  -0.1122750000E-02  -0.1122750000E-02   0.0000000000E+00   0.3243500000E-02   0.3243500000E-02  -0.2125000003E+01  -0.3952564779E-13  -0.5024822833E-13  -0.4229909580E-15   0.3401492698E-14   0.1975127500E-14  -0.4250000006E-02   0.2120750003E-02   0.2120750003E-02  -0.1407071650E-14   0.4601847662E-15  -0.3235397056E-14   0.2125000003E+01
   0.1991500000E+01   0.0000000000E+00  -0.2064678726E-14   0.4500000000E-02   0.0000000000E+00   0.4981173776E-17  -0.1300000000E-01   0.0000000000E+00  -0.2069659900E-14  -0.2125000003E+01  -0.2556031115E-12  -0.2524524104E-12   0.4303043026E-16  -0.9995134205E-15  -0.3631801078E-14  -0.4250000006E-02   0.2120750003E-02   0.2120750003E-02  -0.6092784685E-15   0.2117347114E-14  -0.5397538652E-15   0.2125000003E+01
   0.1991500000E+01   0.1002120750E+01  -0.2334706433E-14   0.4500000000E-02  -0.1122750000E-02   0.4294753339E-17  -0.1300000000E-01   0.3243500000E-02  -0.2339001186E-14  -0.2125000003E+01   0.9722063923E-13   0.1052064496E-12  -0.1838850473E-15  -0.3594059119E-15   0.2155503725E-14  -0.4250000006E-02   0.2120750003E-02   0.2120750003E-02   0.3787645897E-15   0.2177371363E-15  -0.1310847110E-14   0.2125000003E+01
   0.1991500000E+01   0.0000000000E+00   0.1002120750E+01   0.4500000000E-02   0.0000000000E+00  -0.1122750000E-02  -0.1300000000E-01   0.0000000000E+00   0.3243500000E-02  -0.2125000003E+01   0.1455639939E-12   0.1407822263E-12  -0.4244728596E-16  -0.1597407607E-14  -0.3204486365E-14  -0.4250000006E-02   0.2120750003E-02   0.2120750003E-02  -0.5216641337E-15   0.1138316079E-14  -0.3289570062E-15   0.2125000003E+01
   0.1991500000E+01   0.1002120750E+01   0.1002120750E+01   0.4500000000E-02  -0.1122750000E-02  -0.1122750000E-02  -0.1300000000E-01   0.3243500000E-02   0.3243500000E-02  -0.2125000003E+01  -0.4714977914E-13  -0.5247012964E-13  -0.1679200809E-14  -0.3786823361E-15   0.3094208360E-14  -0.4250000005E-02   0.2120750003E-02   0.2120750003E-02   0.5233845043E-15  -0.6738992918E-15  -0.1102618232E-14   0.2125000003E+01
     1     2     3     4     5     6     7     8
     2     9    10     3     6    11    12     7
 VARIABLES = X,Y,Z,DU1,DU2,DU3,U1,U2,U3,S11,S22,S33,S12,S13,S23,E11,E22,E33,E12,E13,E23,SMISES
 ZONE, T="0.8400D+01" F=FEPOINT, I=   12 J=    2 ET=BRICK
   0.0000000000E+00   0.0000000000E+00   0.0000000000E+00   0.0000000000E+00   0.0000000000E+00   0.0000000000E+00   0.0000000000E+00   0.0000000000E+00   0.0000000000E+00  -0.1000000002E+01  -0.1588087736E-12  -0.1500778737E-12  -0.4910299666E-16   0.3608566477E-14  -0.1359462509E-14  -0.2000000003E-02   0.9980000016E-03   0.9980000016E-03  -0.3189880744E-18  -0.4970206559E-14  -0.2643622667E-14   0.1000000002E+01
   0.9980000000E+00   0.0000000000E+00  -0.2001083346E-14   0.2250000000E-02   0.0000000000E+00  -0.1518047520E-17  -0.4250000000E-02   0.0000000000E+00  -0.1999565298E-14  -0.1000000002E+01   0.1056061194E-14   0.8078690844E-14  -0.6711300743E-16  -0.1431282196E-14  -0.3522694461E-14  -0.2000000003E-02   0.9980000015E-03   0.9980000015E-03  -0.2591855278E-15  -0.1349018205E-14   0.4383416894E-15   0.1000000002E+01
   0.9980000000E+00   0.1000998000E+01  -0.1781440801E-14   0.2250000000E-02  -0.1122750000E-02  -0.9870013363E-18  -0.4250000000E-02   0.2120750000E-02  -0.1780453800E-14  -0.1000000001E+01   0.2139089190E-13   0.2996591212E-13   0.1044990074E-15  -0.3250210896E-15   0.4139384379E-14  -0.2000000003E-02   0.9980000014E-03   0.9980000014E-03  -0.4509548746E-15  -0.2381680717E-15  -0.3706104335E-15   0.1000000001E+01
   0.0000000000E+00   0.1000998000E+01  -0.1322365091E-14   0.0000000000E+00  -0.1122750000E-02  -0.1023408356E-18   0.0000000000E+00   0.2120750000E-02  -0.1322262750E-14  -0.1000000001E+01   0.3814318693E-13   0.4004434965E-13  -0.5552280172E-15   0.1655062144E-14   0.5407263965E-14  -0.2000000003E-02   0.9980000014E-03   0.9980000014E-03  -0.1370294670E-14  -0.8678268714E-15  -0.3436226317E-14   0.1000000001E+01
   0.0000000000E+00   0.0000000000E+00   0.1000998000E+01   0.0000000000E+00   0.0000000000E+00  -0.1122750000E-02   0.0000000000E+00   0.0000000000E+00   0.2120750000E-02  -0.1000000001E+01  -0.3480381175E-14  -0.6479738699E-14   0.1358280491E-15   0.8114947761E-15  -0.5151105636E-14  -0.2000000003E-02   0.9980000014E-03   0.9980000014E-03  -0.5189371149E-18  -0.3546643901E-14  -0.2450232829E-14   0.1000000001E+01
   0.9980000000E+00   0.0000000000E+00   0.1000998000E+01   0.2250000000E-02   0.0000000000E+00  -0.1122750000E-02  -0.4250000000E-02   0.0000000000E+00   0.2120750000E-02  -0.1000000001E+01   0.4203490093E-13   0.3726132607E-13   0.2379631563E-14  -0.1799273331E-14  -0.3186755661E-14  -0.2000000003E-02   0.9980000014E-03   0.9980000014E-03  -0.1945609554E-15  -0.1133713265E-14   0.5743222884E-15   0.1000000001E+01
   0.9980000000E+00   0.1000998000E+01   0.1000998000E+01   0.2250000000E-02  -0.1122750000E-02  -0.1122750000E-02  -0.4250000000E-02   0.2120750000E-02   0.2120750000E-02  -0.1000000001E+01  -0.5315257775E-13  -0.6273688635E-13   0.1860111454E-14   0.8732428298E-15   0.3221131402E-14  -0.2000000003E-02   0.9980000013E-03   0.9980000013E-03  -0.3764961952E-15  -0.9987750638E-17  -0.2370159248E-15   0.1000000001E+01
   0.0000000000E+00   0.1000998000E+01   0.1000998000E+01   0.0000000000E+00  -0.1122750000E-02  -0.1122750000E-02   0.0000000000E+00   0.2120750000E-02   0.2120750000E-02  -0.1000000001E+01   0.1272814577E-13   0.2392964526E-14  -0.3107333887E-15   0.3184452909E-14   0.1830764310E-14  -0.2000000003E-02   0.9980000013E-03   0.9980000013E-03  -0.1406087251E-14   0.4549270456E-15  -0.3234770663E-14   0.1000000001E+01
   0.1996000000E+01   0.0000000000E+00  -0.2066278867E-14   0.4500000000E-02   0.0000000000E+00  -0.1600141580E-17  -0.8500000000E-02   0.0000000000E+00  -0.2064678726E-14  -0.1000000002E+01   0.5894553888E-13   0.6186149631E-13  -0.5287293961E-15  -0.1172057506E-14  -0.3859616018E-14  -0.2000000003E-02   0.9980000015E-03   0.9980000015E-03  -0.6132366068E-15   0.2112967196E-14  -0.5426048945E-15   0.1000000002E+01
   0.1996000000E+01   0.1000998000E+01  -0.2337659197E-14   0.4500000000E-02  -0.1122750000E-02  -0.2952764750E-17  -0.8500000000E-02   0.2120750000E-02  -0.2334706433E-14  -0.1000000001E+01  -0.3974259355E-14   0.4143572360E-14  -0.6400818888E-15  -0.4507681127E-15   0.2097928562E-14  -0.2000000003E-02   0.9980000014E-03   0.9980000014E-03   0.3763738087E-15   0.2204704625E-15  -0.1313358268E-14   0.1000000001E+01
   0.1996000000E+01   0.0000000000E+00   0.1000998000E+01   0.4500000000E-02   0.0000000000E+00  -0.1122750000E-02  -0.8500000000E-02   0.0000000000E+00   0.2120750000E-02  -0.1000000001E+01  -0.4546314466E-13  -0.5064877798E-13   0.2457957923E-15  -0.2185341339E-14  -0.3361789844E-14  -0.2000000003E-02   0.9980000014E-03   0.9980000014E-03  -0.5202958790E-15   0.1125761177E-14  -0.3318038605E-15   0.1000000001E+01
   0.1996000000E+01   0.1000998000E+01   0.1000998000E+01   0.4500000000E-02  -0.1122750000E-02  -0.1122750000E-02  -0.8500000000E-02   0.2120750000E-02   0.2120750000E-02  -0.1000000001E+01  -0.5830549826E-13  -0.6387519960E-13  -0.1353772127E-14  -0.3199982781E-15   0.3037222639E-14  -0.2000000003E-02   0.9980000013E-03   0.9980000013E-03   0.5230261218E-15  -0.6717950723E-15  -0.1101663139E-14   0.1000000001E+01
     1     2     3     4     5     6     7     8
     2     9    10     3     6    11    12     7
 VARIABLES = X,Y,Z,DU1,DU2,DU3,U1,U2,U3,S11,S22,S33,S12,S13,S23,E11,E22,E33,E12,E13,E23,SMISES
 ZONE, T="0.8450D+01" F=FEPOINT, I=   12 J=    2 ET=BRICK
   0.0000000000E+00   0.0000000000E+00   0.0000000000E+00   0.0000000000E+00   0.0000000000E+00   0.0000000000E+00   0.0000000000E+00   0.0000000000E+00   0.0000000000E+00   0.1250000002E+00   0.4216620243E-13   0.5112997165E-13  -0.3671696486E-16   0.3678155304E-14  -0.1313263175E-14   0.2500000004E-03  -0.1247500002E-03  -0.1247500002E-03   0.1715514180E-18  -0.4968503740E-14  -0.2644304044E-14   0.1250000002E+00
   0.1000250000E+01   0.0000000000E+00  -0.2000538374E-14   0.2250000000E-02   0.0000000000E+00   0.5449718359E-18  -0.2000000000E-02   0.0000000000E+00  -0.2001083346E-14   0.1250000002E+00  -0.1976691017E-13  -0.1290955627E-13  -0.2620998047E-15  -0.1500582286E-14  -0.3462113854E-14   0.2500000004E-03  -0.1247500002E-03  -0.1247500002E-03  -0.2626668950E-15  -0.1351262109E-14   0.4398561459E-15   0.1250000002E+00
   0.1000250000E+01   0.9998752500E+00  -0.1780713711E-14   0.2250000000E-02  -0.1122750000E-02   0.7270898966E-18  -0.2000000000E-02   0.9980000000E-03  -0.1781440801E-14   0.1250000002E+00  -0.1085643594E-13  -0.2357315385E-14  -0.1181592869E-15  -0.3386693563E-15   0.4089931616E-14   0.2500000004E-03  -0.1247500002E-03  -0.1247500002E-03  -0.4529768879E-15  -0.2330508580E-15  -0.3720928041E-15   0.1250000002E+00
   0.0000000000E+00   0.9998752500E+00  -0.1321836809E-14   0.0000000000E+00  -0.1122750000E-02   0.5282824580E-18   0.0000000000E+00   0.9980000000E-03  -0.1322365091E-14   0.1250000002E+00   0.4267061434E-13   0.4447559719E-13  -0.5716443104E-15   0.1745061367E-14   0.5646243272E-14   0.2500000004E-03  -0.1247500002E-03  -0.1247500002E-03  -0.1370145499E-14  -0.8695430696E-15  -0.3431562813E-14   0.1250000002E+00
   0.0000000000E+00   0.0000000000E+00   0.9998752500E+00   0.0000000000E+00   0.0000000000E+00  -0.1122750000E-02   0.0000000000E+00   0.0000000000E+00   0.9980000000E-03   0.1250000002E+00   0.1314157147E-12   0.1284785020E-12   0.1036953470E-15   0.8353302947E-15  -0.5167191352E-14   0.2500000004E-03  -0.1247500002E-03  -0.1247500002E-03  -0.2955237103E-18  -0.3546822712E-14  -0.2447549178E-14   0.1250000002E+00
   0.1000250000E+01   0.0000000000E+00   0.9998752500E+00   0.2250000000E-02   0.0000000000E+00  -0.1122750000E-02  -0.2000000000E-02   0.0000000000E+00   0.9980000000E-03   0.1250000002E+00  -0.2880684798E-13  -0.3368861062E-13   0.2447145045E-14  -0.2051815884E-14  -0.3155797419E-14   0.2500000004E-03  -0.1247500002E-03  -0.1247500002E-03  -0.1942791790E-15  -0.1139011705E-14   0.5741894359E-15   0.1250000002E+00
   0.1000250000E+01   0.9998752500E+00   0.9998752500E+00   0.2250000000E-02  -0.1122750000E-02  -0.1122750000E-02  -0.2000000000E-02   0.9980000000E-03   0.9980000000E-03   0.1250000002E+00   0.2695113660E-13   0.1735182601E-13   0.1906036851E-14   0.1015038989E-14   0.3288181238E-14   0.2500000003E-03  -0.1247500002E-03  -0.1247500002E-03  -0.3758933013E-15  -0.9466318909E-17  -0.2372818400E-15   0.1250000002E+00
   0.0000000000E+00   0.9998752500E+00   0.9998752500E+00   0.0000000000E+00  -0.1122750000E-02  -0.1122750000E-02   0.0000000000E+00   0.9980000000E-03   0.9980000000E-03   0.1250000002E+00   0.3261167772E-13   0.2200768721E-13  -0.3219136802E-15   0.3246547194E-14   0.1780426026E-14   0.2500000003E-03  -0.1247500002E-03  -0.1247500002E-03  -0.1406171606E-14   0.4572722380E-15  -0.3239062202E-14   0.1250000002E+00
   0.2000500000E+01   0.0000000000E+00  -0.2066295798E-14   0.4500000000E-02   0.0000000000E+00  -0.1693012860E-19  -0.4000000000E-02   0.0000000000E+00  -0.2066278867E-14   0.1250000002E+00   0.1836427853E-13   0.2150411255E-13  -0.6646264332E-15  -0.1803844503E-14  -0.3764165930E-14   0.2500000004E-03  -0.1247500002E-03  -0.1247500002E-03  -0.6153567550E-15   0.2118471839E-14  -0.5411005005E-15   0.1250000002E+00
   0.2000500000E+01   0.9998752500E+00  -0.2337083624E-14   0.4500000000E-02  -0.1122750000E-02   0.5755737022E-18  -0.4000000000E-02   0.9980000000E-03  -0.2337659197E-14   0.1250000002E+00  -0.8765885555E-13  -0.7965521030E-13  -0.5987410202E-15   0.4736637633E-16   0.2020780409E-14   0.2500000004E-03  -0.1247500002E-03  -0.1247500002E-03   0.3737131417E-15   0.2177164083E-15  -0.1315594631E-14   0.1250000002E+00
   0.2000500000E+01   0.0000000000E+00   0.9998752500E+00   0.4500000000E-02   0.0000000000E+00  -0.1122750000E-02  -0.4000000000E-02   0.0000000000E+00   0.9980000000E-03   0.1250000002E+00  -0.1201077104E-12  -0.1247561305E-12   0.6429820852E-15  -0.1899301878E-14  -0.3416309895E-14   0.2500000004E-03  -0.1247500002E-03  -0.1247500002E-03  -0.5171221673E-15   0.1128122950E-14  -0.3321393306E-15   0.1250000002E+00
   0.2000500000E+01   0.9998752500E+00   0.9998752500E+00   0.4500000000E-02  -0.1122750000E-02  -0.1122750000E-02  -0.4000000000E-02   0.9980000000E-03   0.9980000000E-03   0.1250000002E+00   0.6764786593E-13   0.6225078343E-13  -0.1075249544E-14   0.8195431827E-16   0.2812684860E-14   0.2500000003E-03  -0.1247500002E-03  -0.1247500002E-03   0.5294054447E-15  -0.6637602705E-15  -0.1105367434E-14   0.1250000002E+00
     1     2     3     4     5     6     7     8
     2     9    10     3     6    11    12     7
 VARIABLES = X,Y,Z,DU1,DU2,DU3,U1,U2,U3,S11,S22,S33,S12,S13,S23,E11,E22,E33,E12,E13,E23,SMISES
 ZONE, T="0.8500D+01" F=FEPOINT, I=   12 J=    2 ET=BRICK
   0.0000000000E+00   0.0000000000E+00   0.0000000000E+00   0.0000000000E+00   0.0000000000E+00   0.0000000000E+00   0.0000000000E+00   0.0000000000E+00   0.0000000000E+00   0.1250000002E+01  -0.7253229574E-14   0.1491232296E-14  -0.4214443039E-16   0.3577896879E-14  -0.1408951066E-14   0.2500000004E-02  -0.1247500002E-02  -0.1247500002E-02  -0.4035307018E-19  -0.4969424413E-14  -0.2644419240E-14   0.1250000002E+01
   0.1002500000E+01   0.0000000000E+00  -0.2000566857E-14   0.2250000000E-02   0.0000000000E+00  -0.2848335643E-19   0.2500000000E-03   0.0000000000E+00  -0.2000538374E-14   0.1250000002E+01  -0.2838552609E-13  -0.2107109822E-13  -0.1821379595E-15  -0.1474757163E-14  -0.3460496041E-14   0.2500000004E-02  -0.1247500002E-02  -0.1247500002E-02  -0.2619274505E-15  -0.1352227297E-14   0.4395479624E-15   0.1250000002E+01
   0.1002500000E+01   0.9987525000E+00  -0.1780802895E-14   0.2250000000E-02  -0.1122750000E-02  -0.8918414314E-19   0.2500000000E-03  -0.1247500000E-03  -0.1780713711E-14   0.1250000002E+01   0.3061685757E-13   0.3924974640E-13  -0.1179168638E-16  -0.2746603930E-15   0.4135769778E-14   0.2500000004E-02  -0.1247500002E-02  -0.1247500002E-02  -0.4515188063E-15  -0.2322190117E-15  -0.3707391764E-15   0.1250000002E+01
   0.0000000000E+00   0.9987525000E+00  -0.1322288136E-14   0.0000000000E+00  -0.1122750000E-02  -0.4513276762E-18   0.0000000000E+00  -0.1247500000E-03  -0.1321836809E-14   0.1250000002E+01   0.1231403550E-12   0.1251832001E-12  -0.6381183279E-15   0.1737358761E-14   0.5607392983E-14   0.2500000004E-02  -0.1247500002E-02  -0.1247500002E-02  -0.1370749441E-14  -0.8691169334E-15  -0.3433613433E-14   0.1250000002E+01
   0.0000000000E+00   0.0000000000E+00   0.9987525000E+00   0.0000000000E+00   0.0000000000E+00  -0.1122750000E-02   0.0000000000E+00   0.0000000000E+00  -0.1247500000E-03   0.1250000002E+01  -0.1561284206E-13  -0.1865165784E-13   0.9606403204E-16   0.1097270551E-14  -0.5134820965E-14   0.2500000004E-02  -0.1247500002E-02  -0.1247500002E-02  -0.5318151375E-19  -0.3544608172E-14  -0.2448836308E-14   0.1250000002E+01
   0.1002500000E+01   0.0000000000E+00   0.9987525000E+00   0.2250000000E-02   0.0000000000E+00  -0.1122750000E-02   0.2500000000E-03   0.0000000000E+00  -0.1247500000E-03   0.1250000002E+01   0.7841869693E-13   0.7371587210E-13   0.2541042357E-14  -0.2167485186E-14  -0.3330046382E-14   0.2500000004E-02  -0.1247500002E-02  -0.1247500002E-02  -0.1932236223E-15  -0.1137880057E-14   0.5723471104E-15   0.1250000002E+01
   0.1002500000E+01   0.9987525000E+00   0.9987525000E+00   0.2250000000E-02  -0.1122750000E-02  -0.1122750000E-02   0.2500000000E-03  -0.1247500000E-03  -0.1247500000E-03   0.1250000002E+01  -0.8658361300E-13  -0.9630062346E-13   0.2049495198E-14   0.1006543800E-14   0.3289958746E-14   0.2500000003E-02  -0.1247500002E-02  -0.1247500002E-02  -0.3741476435E-15  -0.9647241971E-17  -0.2367066070E-15   0.1250000002E+01
   0.0000000000E+00   0.9987525000E+00   0.9987525000E+00   0.0000000000E+00  -0.1122750000E-02  -0.1122750000E-02   0.0000000000E+00  -0.1247500000E-03  -0.1247500000E-03   0.1250000002E+01  -0.1113046783E-13  -0.2158923694E-13  -0.2514870769E-15   0.3206404527E-14   0.1814475968E-14   0.2500000003E-02  -0.1247500002E-02  -0.1247500002E-02  -0.1405876286E-14   0.4565803325E-15  -0.3237236016E-14   0.1250000002E+01
   0.2005000000E+01   0.0000000000E+00  -0.2064992614E-14   0.4500000000E-02   0.0000000000E+00   0.1303183121E-17   0.5000000000E-03   0.0000000000E+00  -0.2066295798E-14   0.1250000002E+01  -0.3404684372E-13  -0.3107333351E-13  -0.3969185500E-15  -0.1509198310E-14  -0.3738743870E-14   0.2500000004E-02  -0.1247500002E-02  -0.1247500002E-02  -0.6125900901E-15   0.2119466197E-14  -0.5413066361E-15   0.1250000002E+01
   0.2005000000E+01   0.9987525000E+00  -0.2335699378E-14   0.4500000000E-02  -0.1122750000E-02   0.1384245983E-17   0.5000000000E-03  -0.1247500000E-03  -0.2337083624E-14   0.1250000002E+01   0.4595592890E-13   0.5392935609E-13  -0.3137840866E-15   0.2533364855E-16   0.2092826619E-14   0.2500000003E-02  -0.1247500002E-02  -0.1247500002E-02   0.3777573933E-15   0.2139903093E-15  -0.1313436491E-14   0.1250000002E+01
   0.2005000000E+01   0.0000000000E+00   0.9987525000E+00   0.4500000000E-02   0.0000000000E+00  -0.1122750000E-02   0.5000000000E-03   0.0000000000E+00  -0.1247500000E-03   0.1250000002E+01   0.4766560438E-13   0.4287553685E-13   0.2604521557E-15  -0.1519072245E-14  -0.3412649656E-14   0.2500000003E-02  -0.1247500002E-02  -0.1247500002E-02  -0.5197504603E-15   0.1130201153E-14  -0.3321066162E-15   0.1250000002E+01
   0.2005000000E+01   0.9987525000E+00   0.9987525000E+00   0.4500000000E-02  -0.1122750000E-02  -0.1122750000E-02   0.5000000000E-03  -0.1247500000E-03  -0.1247500000E-03   0.1250000002E+01  -0.9260894830E-13  -0.9800028004E-13  -0.1204450917E-14  -0.4375380915E-15   0.2864679597E-14   0.2500000003E-02  -0.1247500002E-02  -0.1247500002E-02   0.5262674681E-15  -0.6693543756E-15  -0.1105002440E-14   0.1250000002E+01
     1     2     3     4     5     6     7     8
     2     9    10     3     6    11    12     7
 VARIABLES = X,Y,Z,DU1,DU2,DU3,U1,U2,U3,S11,S22,S33,S12,S13,S23,E11,E22,E33,E12,E13,E23,SMISES
 ZONE, T="0.8550D+01" F=FEPOINT, I=   12 J=    2 ET=BRICK
   0.0000000000E+00   0.0000000000E+00   0.0000000000E+00   0.0000000000E+00   0.0000000000E+00   0.0000000000E+00   0.0000000000E+00   0.0000000000E+00   0.0000000000E+00   0.2375000004E+01  -0.2505291791E-13  -0.1612518920E-13  -0.4437345289E-16   0.3500796600E-14  -0.1321998343E-14   0.4750000007E-02  -0.2370250004E-02  -0.2370250004E-02   0.2007523170E-18  -0.4970922226E-14  -0.2643909846E-14   0.2375000004E+01
   0.1004750000E+01   0.0000000000E+00  -0.2001805543E-14   0.2250000000E-02   0.0000000000E+00  -0.1238685402E-17   0.2500000000E-02   0.0000000000E+00  -0.2000566857E-14   0.2375000004E+01  -0.8261134238E-14  -0.1754073172E-14  -0.4537233264E-15  -0.1818601358E-14  -0.3289877566E-14   0.4750000007E-02  -0.2370250004E-02  -0.2370250004E-02  -0.2655453789E-15  -0.1354813209E-14   0.4411627818E-15   0.2375000004E+01
   0.1004750000E+01   0.9976297500E+00  -0.1780977355E-14   0.2250000000E-02  -0.1122750000E-02  -0.1744594650E-18   0.2500000000E-02  -0.1247500000E-02  -0.1780802895E-14   0.2375000003E+01   0.6696124038E-14   0.1486759434E-13  -0.2016979543E-15  -0.8150309076E-16   0.3877633103E-14   0.4750000007E-02  -0.2370250003E-02  -0.2370250003E-02  -0.4532155055E-15  -0.2334468095E-15  -0.3719810229E-15   0.2375000003E+01
   0.0000000000E+00   0.9976297500E+00  -0.1321793663E-14   0.0000000000E+00  -0.1122750000E-02   0.4944729315E-18   0.0000000000E+00  -0.1247500000E-02  -0.1322288136E-14   0.2375000003E+01  -0.6191316811E-13  -0.6000724162E-13  -0.3605845814E-15   0.1746721662E-14   0.5570421973E-14   0.4750000007E-02  -0.2370250003E-02  -0.2370250003E-02  -0.1367682766E-14  -0.8675499298E-15  -0.3434351456E-14   0.2375000003E+01
   0.0000000000E+00   0.0000000000E+00   0.9976297500E+00   0.0000000000E+00   0.0000000000E+00  -0.1122750000E-02   0.0000000000E+00   0.0000000000E+00  -0.1247500000E-02   0.2375000003E+01   0.7841508598E-14   0.4652261148E-14   0.9967571540E-16   0.8400193062E-15  -0.5057491999E-14   0.4750000007E-02  -0.2370250003E-02  -0.2370250003E-02   0.1048985210E-18  -0.3547590256E-14  -0.2446896317E-14   0.2375000003E+01
   0.1004750000E+01   0.0000000000E+00   0.9976297500E+00   0.2250000000E-02   0.0000000000E+00  -0.1122750000E-02   0.2500000000E-02   0.0000000000E+00  -0.1247500000E-02   0.2375000003E+01  -0.1337397401E-13  -0.1803988042E-13   0.2608867053E-14  -0.2308257210E-14  -0.2992451344E-14   0.4750000007E-02  -0.2370250003E-02  -0.2370250003E-02  -0.1926859475E-15  -0.1140131187E-14   0.5763718873E-15   0.2375000003E+01
   0.1004750000E+01   0.9976297500E+00   0.9976297500E+00   0.2250000000E-02  -0.1122750000E-02  -0.1122750000E-02   0.2500000000E-02  -0.1247500000E-02  -0.1247500000E-02   0.2375000003E+01   0.4808166833E-13   0.3874752457E-13   0.2078014665E-14   0.1043112212E-14   0.3271597803E-14   0.4750000006E-02  -0.2370250003E-02  -0.2370250003E-02  -0.3751828566E-15  -0.8750482491E-17  -0.2370252975E-15   0.2375000003E+01
   0.0000000000E+00   0.9976297500E+00   0.9976297500E+00   0.0000000000E+00  -0.1122750000E-02  -0.1122750000E-02   0.0000000000E+00  -0.1247500000E-02  -0.1247500000E-02   0.2375000003E+01   0.3411188560E-13   0.2377353287E-13  -0.3454105596E-15   0.3312038344E-14   0.1876991599E-14   0.4750000006E-02  -0.2370250003E-02  -0.2370250003E-02  -0.1406335724E-14   0.4577754698E-15  -0.3236250194E-14   0.2375000003E+01
   0.2009500000E+01   0.0000000000E+00  -0.2070165868E-14   0.4500000000E-02   0.0000000000E+00  -0.5173253851E-17   0.5000000000E-02   0.0000000000E+00  -0.2064992614E-14   0.2375000004E+01   0.3497138060E-13   0.3766202423E-13  -0.9783549591E-15  -0.1786655022E-14  -0.3590037520E-14   0.4750000007E-02  -0.2370250004E-02  -0.2370250004E-02  -0.6201478208E-15   0.2115338273E-14  -0.5396495969E-15   0.2375000004E+01
   0.2009500000E+01   0.9976297500E+00  -0.2340072281E-14   0.4500000000E-02  -0.1122750000E-02  -0.4372903544E-17   0.5000000000E-02  -0.1247500000E-02  -0.2335699378E-14   0.2375000003E+01  -0.7703964060E-13  -0.6933619860E-13  -0.1060889364E-14   0.6602822686E-15   0.1847902910E-14   0.4750000007E-02  -0.2370250003E-02  -0.2370250003E-02   0.3695074013E-15   0.2189654040E-15  -0.1316357693E-14   0.2375000003E+01
   0.2009500000E+01   0.0000000000E+00   0.9976297500E+00   0.4500000000E-02   0.0000000000E+00  -0.1122750000E-02   0.5000000000E-02   0.0000000000E+00  -0.1247500000E-02   0.2375000003E+01   0.6852776665E-13   0.6431136751E-13   0.8988173279E-15  -0.1827221569E-14  -0.3421253508E-14   0.4750000007E-02  -0.2370250003E-02  -0.2370250003E-02  -0.5107229889E-15   0.1127758222E-14  -0.3315655538E-15   0.2375000003E+01
   0.2009500000E+01   0.9976297500E+00   0.9976297500E+00   0.4500000000E-02  -0.1122750000E-02  -0.1122750000E-02   0.5000000000E-02  -0.1247500000E-02  -0.1247500000E-02   0.2375000003E+01   0.8849218223E-13   0.8309636681E-13  -0.6199375922E-15   0.4936525138E-17   0.2451851763E-14   0.4750000006E-02  -0.2370250003E-02  -0.2370250003E-02   0.5314976639E-15  -0.6673396592E-15  -0.1109586459E-14   0.2375000003E+01
     1     2     3     4     5     6     7     8
     2     9    10     3     6    11    12     7
 VARIABLES = X,Y,Z,DU1,DU2,DU3,U1,U2,U3,S11,S22,S33,S12,S13,S23,E11,E22,E33,E12,E13,E23,SMISES
 ZONE, T="0.8600D+01" F=FEPOINT, I=   12 J=    2 ET=BRICK
   0.0000000000E+00   0.0000000000E+00   0.0000000000E+00   0.0000000000E+00   0.0000000000E+00   0.0000000000E+00   0.0000000000E+00   0.0000000000E+00   0.0000000000E+00   0.3500000005E+01  -0.3523747090E-13  -0.2613222239E-13  -0.5164353227E-16   0.3564133910E-14  -0.1379210845E-14   0.7000000011E-02  -0.3493000005E-02  -0.3493000005E-02   0.3205354680E-18  -0.4968928120E-14  -0.2644593222E-14   0.3500000005E+01
   0.1007000000E+01   0.0000000000E+00  -0.2000874018E-14   0.2250000000E-02   0.0000000000E+00   0.9315241681E-18   0.4750000000E-02   0.0000000000E+00  -0.2001805543E-14   0.3500000005E+01   0.2186034160E-14   0.9034328586E-14  -0.1497007881E-15  -0.1619532210E-14  -0.3336728730E-14   0.7000000011E-02  -0.3493000005E-02  -0.3493000005E-02  -0.2611976252E-15  -0.1355056870E-14   0.4403111332E-15   0.3500000005E+01
   0.1007000000E+01   0.9965070000E+00  -0.1780403706E-14   0.2250000000E-02  -0.1122750000E-02   0.5736485799E-18   0.4750000000E-02  -0.2370250000E-02  -0.1780977355E-14   0.3500000005E+01  -0.9988775091E-14  -0.2014315968E-14  -0.5547516494E-16  -0.3000450884E-15   0.4177641852E-14   0.7000000010E-02  -0.3493000005E-02  -0.3493000005E-02  -0.4498692564E-15  -0.2333625442E-15  -0.3686705052E-15   0.3500000005E+01
   0.0000000000E+00   0.9965070000E+00  -0.1322004059E-14   0.0000000000E+00  -0.1122750000E-02  -0.2103955064E-18   0.0000000000E+00  -0.2370250000E-02  -0.1321793663E-14   0.3500000005E+01   0.8408883048E-13   0.8593144403E-13  -0.5665257329E-15   0.1800853465E-14   0.5560921457E-14   0.7000000010E-02  -0.3493000005E-02  -0.3493000005E-02  -0.1369985366E-14  -0.8682352511E-15  -0.3435333706E-14   0.3500000005E+01
   0.0000000000E+00   0.0000000000E+00   0.9965070000E+00   0.0000000000E+00   0.0000000000E+00  -0.1122750000E-02   0.0000000000E+00   0.0000000000E+00  -0.2370250000E-02   0.3500000005E+01  -0.9588141659E-14  -0.1291108735E-13   0.1366645189E-15   0.1045191816E-14  -0.5150232106E-14   0.7000000010E-02  -0.3493000005E-02  -0.3493000005E-02  -0.2068799350E-18  -0.3545025482E-14  -0.2447552565E-14   0.3500000005E+01
   0.1007000000E+01   0.0000000000E+00   0.9965070000E+00   0.2250000000E-02   0.0000000000E+00  -0.1122750000E-02   0.4750000000E-02   0.0000000000E+00  -0.2370250000E-02   0.3500000005E+01   0.2233793070E-13   0.1761578372E-13   0.2577868543E-14  -0.2133772276E-14  -0.3355258959E-14   0.7000000010E-02  -0.3493000005E-02  -0.3493000005E-02  -0.1912666759E-15  -0.1136271485E-14   0.5725831591E-15   0.3500000005E+01
   0.1007000000E+01   0.9965070000E+00   0.9965070000E+00   0.2250000000E-02  -0.1122750000E-02  -0.1122750000E-02   0.4750000000E-02  -0.2370250000E-02  -0.2370250000E-02   0.3500000005E+01  -0.5131311191E-13  -0.6163576309E-13   0.2124992766E-14   0.9251493794E-15   0.3315165297E-14   0.7000000009E-02  -0.3493000005E-02  -0.3493000005E-02  -0.3748184395E-15  -0.1113567565E-16  -0.2373180827E-15   0.3500000005E+01
   0.0000000000E+00   0.9965070000E+00   0.9965070000E+00   0.0000000000E+00  -0.1122750000E-02  -0.1122750000E-02   0.0000000000E+00  -0.2370250000E-02  -0.2370250000E-02   0.3500000005E+01  -0.9846097727E-13  -0.1090051394E-12  -0.6703029995E-16   0.3202449432E-14   0.1796095496E-14   0.7000000009E-02  -0.3493000005E-02  -0.3493000005E-02  -0.1403884005E-14   0.4573971366E-15  -0.3236757138E-14   0.3500000005E+01
   0.2014000000E+01   0.0000000000E+00  -0.2066115782E-14   0.4500000000E-02   0.0000000000E+00   0.4050085881E-17   0.9500000000E-02   0.0000000000E+00  -0.2070165868E-14   0.3500000005E+01  -0.2989098715E-13  -0.2656658250E-13  -0.3304418086E-15  -0.2226613992E-14  -0.3673114773E-14   0.7000000011E-02  -0.3493000005E-02  -0.3493000005E-02  -0.6121770254E-15   0.2109722179E-14  -0.5404070450E-15   0.3500000005E+01
   0.2014000000E+01   0.9965070000E+00  -0.2336627140E-14   0.4500000000E-02  -0.1122750000E-02   0.3445141458E-17   0.9500000000E-02  -0.2370250000E-02  -0.2340072281E-14   0.3500000005E+01  -0.2806748621E-13  -0.1935558299E-13  -0.5652419428E-15   0.5284014043E-15   0.2123063256E-14   0.7000000010E-02  -0.3493000005E-02  -0.3493000005E-02   0.3777705426E-15   0.2151873004E-15  -0.1314418686E-14   0.3500000005E+01
   0.2014000000E+01   0.0000000000E+00   0.9965070000E+00   0.4500000000E-02   0.0000000000E+00  -0.1122750000E-02   0.9500000000E-02   0.0000000000E+00  -0.2370250000E-02   0.3500000005E+01  -0.1028839031E-12  -0.1070721819E-12   0.1216918023E-14  -0.1933777031E-14  -0.3624529105E-14   0.7000000010E-02  -0.3493000005E-02  -0.3493000005E-02  -0.5113946004E-15   0.1124540402E-14  -0.3361544831E-15   0.3500000005E+01
   0.2014000000E+01   0.9965070000E+00   0.9965070000E+00   0.4500000000E-02  -0.1122750000E-02  -0.1122750000E-02   0.9500000000E-02  -0.2370250000E-02  -0.2370250000E-02   0.3500000004E+01   0.8687245261E-13   0.8149958013E-13  -0.7045186823E-15  -0.4356364140E-15   0.2679602744E-14   0.7000000009E-02  -0.3493000004E-02  -0.3493000004E-02   0.5268117108E-15  -0.6625877903E-15  -0.1106569565E-14   0.3500000004E+01
     1     2     3     4     5     6     7     8
     2     9    10     3     6    11    12     7
 VARIABLES = X,Y,Z,DU1,DU2,DU3,U1,U2,U3,S11,S22,S33,S12,S13,S23,E11,E22,E33,E12,E13,E23,SMISES
 ZONE, T="0.8650D+01" F=FEPOINT, I=   12 J=    2 ET=BRICK
   0.0000000000E+00   0.0000000000E+00   0.0000000000E+00   0.0000000000E+00   0.0000000000E+00   0.0000000000E+00   0.0000000000E+00   0.0000000000E+00   0.0000000000E+00   0.4625000007E+01  -0.7160958734E-13  -0.6305220864E-13  -0.5939521595E-16   0.3450521319E-14  -0.1412143917E-14   0.9250000015E-02  -0.4615750007E-02  -0.4615750007E-02  -0.1195678058E-17  -0.4969478083E-14  -0.2644188882E-14   0.4625000007E+01
   0.1009250000E+01   0.0000000000E+00  -0.2001865182E-14   0.2250000000E-02   0.0000000000E+00  -0.9911638442E-18   0.7000000000E-02   0.0000000000E+00  -0.2000874018E-14   0.4625000007E+01  -0.1013975171E-13  -0.3574457367E-14  -0.6196295187E-15  -0.1629962985E-14  -0.3418286546E-14   0.9250000014E-02  -0.4615750007E-02  -0.4615750007E-02  -0.2641329224E-15  -0.1358149891E-14   0.4395316808E-15   0.4625000007E+01
   0.1009250000E+01   0.9953842500E+00  -0.1781840628E-14   0.2250000000E-02  -0.1122750000E-02  -0.1436921605E-17   0.7000000000E-02  -0.3493000000E-02  -0.1780403706E-14   0.4625000007E+01   0.5480593741E-13   0.6285622620E-13  -0.4645539753E-15   0.3903918420E-16   0.3797453292E-14   0.9250000013E-02  -0.4615750007E-02  -0.4615750007E-02  -0.4561296204E-15  -0.2316763137E-15  -0.3751713767E-15   0.4625000007E+01
   0.0000000000E+00   0.9953842500E+00  -0.1322303674E-14   0.0000000000E+00  -0.1122750000E-02  -0.2996152451E-18   0.0000000000E+00  -0.3493000000E-02  -0.1322004059E-14   0.4625000007E+01   0.1907587526E-13   0.2130035915E-13  -0.6808236251E-15   0.1608983202E-14   0.5245081398E-14   0.9250000013E-02  -0.4615750007E-02  -0.4615750007E-02  -0.1369018302E-14  -0.8707047091E-15  -0.3437535328E-14   0.4625000007E+01
   0.0000000000E+00   0.0000000000E+00   0.9953842500E+00   0.0000000000E+00   0.0000000000E+00  -0.1122750000E-02   0.0000000000E+00   0.0000000000E+00  -0.3493000000E-02   0.4625000007E+01   0.3396786891E-13   0.3058124558E-13   0.1567764937E-15   0.8196068771E-15  -0.4868553454E-14   0.9250000013E-02  -0.4615750007E-02  -0.4615750007E-02   0.1309739357E-17  -0.3551173564E-14  -0.2444692500E-14   0.4625000007E+01
   0.1009250000E+01   0.0000000000E+00   0.9953842500E+00   0.2250000000E-02   0.0000000000E+00  -0.1122750000E-02   0.7000000000E-02   0.0000000000E+00  -0.3493000000E-02   0.4625000007E+01   0.3715709369E-13   0.3224809482E-13   0.2323134213E-14  -0.2119665929E-14  -0.2928657254E-14   0.9250000013E-02  -0.4615750007E-02  -0.4615750007E-02  -0.1977608732E-15  -0.1134508213E-14   0.5779427013E-15   0.4625000007E+01
   0.1009250000E+01   0.9953842500E+00   0.9953842500E+00   0.2250000000E-02  -0.1122750000E-02  -0.1122750000E-02   0.7000000000E-02  -0.3493000000E-02  -0.3493000000E-02   0.4625000006E+01  -0.1436214799E-13  -0.2348095487E-13   0.2016207650E-14   0.1110377566E-14   0.3464388110E-14   0.9250000012E-02  -0.4615750006E-02  -0.4615750006E-02  -0.3754863574E-15  -0.1182358748E-16  -0.2377854480E-15   0.4625000006E+01
   0.0000000000E+00   0.9953842500E+00   0.9953842500E+00   0.0000000000E+00  -0.1122750000E-02  -0.1122750000E-02   0.0000000000E+00  -0.3493000000E-02  -0.3493000000E-02   0.4625000006E+01  -0.5626261386E-13  -0.6624549074E-13  -0.2218152237E-15   0.3185547476E-14   0.1936249632E-14   0.9250000012E-02  -0.4615750006E-02  -0.4615750006E-02  -0.1406902275E-14   0.4586947679E-15  -0.3234074351E-14   0.4625000006E+01
   0.2018500000E+01   0.0000000000E+00  -0.2068993838E-14   0.4500000000E-02   0.0000000000E+00  -0.2878055839E-17   0.1400000000E-01   0.0000000000E+00  -0.2066115782E-14   0.4625000007E+01   0.1451868948E-12   0.1474286366E-12  -0.1065743158E-14  -0.1919493909E-14  -0.3628955563E-14   0.9250000014E-02  -0.4615750007E-02  -0.4615750007E-02  -0.6258489741E-15   0.2121090449E-14  -0.5406966086E-15   0.4625000007E+01
   0.2018500000E+01   0.9953842500E+00  -0.2339206377E-14   0.4500000000E-02  -0.1122750000E-02  -0.2579237531E-17   0.1400000000E-01  -0.3493000000E-02  -0.2336627140E-14   0.4625000006E+01   0.4087512386E-14   0.1223613761E-13  -0.9806256203E-15   0.8796579242E-15   0.1920216883E-14   0.9250000013E-02  -0.4615750006E-02  -0.4615750006E-02   0.3674065530E-15   0.2092821562E-15  -0.1315096040E-14   0.4625000006E+01
   0.2018500000E+01   0.0000000000E+00   0.9953842500E+00   0.4500000000E-02   0.0000000000E+00  -0.1122750000E-02   0.1400000000E-01   0.0000000000E+00  -0.3493000000E-02   0.4625000006E+01   0.4449201665E-13   0.4032677838E-13   0.5548221649E-15  -0.1533688709E-14  -0.3521037831E-14   0.9250000013E-02  -0.4615750006E-02  -0.4615750006E-02  -0.5178969024E-15   0.1115962752E-14  -0.3351811804E-15   0.4625000006E+01
   0.2018500000E+01   0.9953842500E+00   0.9953842500E+00   0.4500000000E-02  -0.1122750000E-02  -0.1122750000E-02   0.1400000000E-01  -0.3493000000E-02  -0.3493000000E-02   0.4625000006E+01  -0.4247376537E-13  -0.4839703437E-13  -0.1113531689E-14  -0.8584363658E-15   0.2460704721E-14   0.9250000012E-02  -0.4615750006E-02  -0.4615750006E-02   0.5273894079E-15  -0.6566323571E-15  -0.1111088448E-14   0.4625000006E+01
     1     2     3     4     5     6     7     8
     2     9    10     3     6    11    12     7
 VARIABLES = X,Y,Z,DU1,DU2,DU3,U1,U2,U3,S11,S22,S33,S12,S13,S23,E11,E22,E33,E12,E13,E23,SMISES
 ZONE, T="0.8700D+01" F=FEPOINT, I=   12 J=    2 ET=BRICK
   0.0000000000E+00   0.0000000000E+00   0.0000000000E+00   0.0000000000E+00   0.0000000000E+00   0.0000000000E+00   0.0000000000E+00   0.0000000000E+00   0.0000000000E+00   0.5750000009E+01  -0.2382819611E-14   0.6730399932E-14  -0.6896174992E-16   0.3541677845E-14  -0.1252144445E-14   0.1150000002E-01  -0.5738500009E-02  -0.5738500009E-02   0.6052528381E-18  -0.4967020943E-14  -0.2643727703E-14   0.5750000009E+01
   0.1011500000E+01   0.0000000000E+00  -0.2001606426E-14   0.2250000000E-02   0.0000000000E+00   0.2587564119E-18   0.9250000000E-02   0.0000000000E+00  -0.2001865182E-14   0.5750000009E+01  -0.1306945329E-13  -0.6565114409E-14  -0.5933989292E-15  -0.1984290992E-14  -0.3300576041E-14   0.1150000002E-01  -0.5738500009E-02  -0.5738500009E-02  -0.2685911582E-15  -0.1362150858E-14   0.4414657041E-15   0.5750000009E+01
   0.1011500000E+01   0.9942615000E+00  -0.1780917113E-14   0.2250000000E-02  -0.1122750000E-02   0.9235145909E-18   0.9250000000E-02  -0.4615750000E-02  -0.1781840628E-14   0.5750000008E+01   0.2773606262E-13   0.3548847720E-13  -0.4611594288E-15   0.1396561322E-15   0.3775905284E-14   0.1150000002E-01  -0.5738500008E-02  -0.5738500008E-02  -0.4583863592E-15  -0.2228377226E-15  -0.3728900486E-15   0.5750000008E+01
   0.0000000000E+00   0.9942615000E+00  -0.1321429390E-14   0.0000000000E+00  -0.1122750000E-02   0.8742842225E-18   0.0000000000E+00  -0.4615750000E-02  -0.1322303674E-14   0.5750000008E+01   0.7620679262E-13   0.7831753207E-13  -0.5878819182E-15   0.1682909203E-14   0.5384912598E-14   0.1150000002E-01  -0.5738500008E-02  -0.5738500008E-02  -0.1367401249E-14  -0.8721404390E-15  -0.3436012018E-14   0.5750000008E+01
   0.0000000000E+00   0.0000000000E+00   0.9942615000E+00   0.0000000000E+00   0.0000000000E+00  -0.1122750000E-02   0.0000000000E+00   0.0000000000E+00  -0.4615750000E-02   0.5750000008E+01   0.6942105997E-14   0.3397115741E-14   0.1555994294E-15   0.8088969102E-15  -0.4997444895E-14   0.1150000002E-01  -0.5738500008E-02  -0.5738500008E-02  -0.3249102678E-18  -0.3549477383E-14  -0.2449092839E-14   0.5750000008E+01
   0.1011500000E+01   0.0000000000E+00   0.9942615000E+00   0.2250000000E-02   0.0000000000E+00  -0.1122750000E-02   0.9250000000E-02   0.0000000000E+00  -0.4615750000E-02   0.5750000008E+01  -0.6824774199E-13  -0.7312154821E-13   0.2839365755E-14  -0.2379486452E-14  -0.2999557850E-14   0.1150000002E-01  -0.5738500008E-02  -0.5738500008E-02  -0.1880462859E-15  -0.1142650257E-14   0.5775310481E-15   0.5750000008E+01
   0.1011500000E+01   0.9942615000E+00   0.9942615000E+00   0.2250000000E-02  -0.1122750000E-02  -0.1122750000E-02   0.9250000000E-02  -0.4615750000E-02  -0.4615750000E-02   0.5750000008E+01  -0.3599349489E-13  -0.4510287193E-13   0.2556956960E-14   0.1328162582E-14   0.3337247411E-14   0.1150000002E-01  -0.5738500008E-02  -0.5738500008E-02  -0.3697185501E-15  -0.2235304865E-17  -0.2405234087E-15   0.5750000008E+01
   0.0000000000E+00   0.9942615000E+00   0.9942615000E+00   0.0000000000E+00  -0.1122750000E-02  -0.1122750000E-02   0.0000000000E+00  -0.4615750000E-02  -0.4615750000E-02   0.5750000008E+01   0.1231827891E-13   0.2401072414E-14  -0.2886376351E-15   0.3184579458E-14   0.1874185177E-14   0.1150000002E-01  -0.5738500008E-02  -0.5738500008E-02  -0.1405955787E-14   0.4566744213E-15  -0.3237160190E-14   0.5750000008E+01
   0.2023000000E+01   0.0000000000E+00  -0.2069392049E-14   0.4500000000E-02   0.0000000000E+00  -0.3982105543E-18   0.1850000000E-01   0.0000000000E+00  -0.2068993838E-14   0.5750000009E+01  -0.2999114573E-13  -0.2732490381E-13  -0.8950712197E-15  -0.2212841927E-14  -0.3718883814E-14   0.1150000002E-01  -0.5738500009E-02  -0.5738500009E-02  -0.6217876620E-15   0.2109061859E-14  -0.5417602999E-15   0.5750000009E+01
   0.2023000000E+01   0.9942615000E+00  -0.2340029111E-14   0.4500000000E-02  -0.1122750000E-02  -0.8227333276E-18   0.1850000000E-01  -0.4615750000E-02  -0.2339206377E-14   0.5750000008E+01  -0.4540453120E-13  -0.3687947994E-13  -0.7566340188E-15   0.7235795398E-15   0.1814836607E-14   0.1150000002E-01  -0.5738500008E-02  -0.5738500008E-02   0.3727776331E-15   0.2158652526E-15  -0.1322240395E-14   0.5750000008E+01
   0.2023000000E+01   0.0000000000E+00   0.9942615000E+00   0.4500000000E-02   0.0000000000E+00  -0.1122750000E-02   0.1850000000E-01   0.0000000000E+00  -0.4615750000E-02   0.5750000008E+01  -0.7684713472E-13  -0.8125745818E-13   0.1260616950E-14  -0.1796509018E-14  -0.3438329590E-14   0.1150000002E-01  -0.5738500008E-02  -0.5738500008E-02  -0.5035460609E-15   0.1120418183E-14  -0.3335203859E-15   0.5750000008E+01
   0.2023000000E+01   0.9942615000E+00   0.9942615000E+00   0.4500000000E-02  -0.1122750000E-02  -0.1122750000E-02   0.1850000000E-01  -0.4615750000E-02  -0.4615750000E-02   0.5750000007E+01   0.6999789807E-13   0.6446393649E-13  -0.7081506782E-15  -0.5839368968E-15   0.2430867007E-14   0.1150000001E-01  -0.5738500007E-02  -0.5738500007E-02   0.5350305457E-15  -0.6579029568E-15  -0.1108502555E-14   0.5750000007E+01
     1     2     3     4     5     6     7     8
     2     9    10     3     6    11    12     7
 VARIABLES = X,Y,Z,DU1,DU2,DU3,U1,U2,U3,S11,S22,S33,S12,S13,S23,E11,E22,E33,E12,E13,E23,SMISES
 ZONE, T="0.8750D+01" F=FEPOINT, I=   12 J=    2 ET=BRICK
   0.0000000000E+00   0.0000000000E+00   0.0000000000E+00   0.0000000000E+00   0.0000000000E+00   0.0000000000E+00   0.0000000000E+00   0.0000000000E+00   0.0000000000E+00   0.6875000011E+01   0.1164858394E-13   0.2129606254E-13  -0.1008652463E-15   0.3608539565E-14  -0.1209642752E-14   0.1375000002E-01  -0.6861250011E-02  -0.6861250011E-02   0.9108748016E-18  -0.4964842489E-14  -0.2641001391E-14   0.6875000011E+01
   0.1013750000E+01   0.0000000000E+00  -0.2001055852E-14   0.2250000000E-02   0.0000000000E+00   0.5505742793E-18   0.1150000000E-01   0.0000000000E+00  -0.2001606426E-14   0.6875000011E+01  -0.2302303168E-13  -0.1599731515E-13  -0.5368216264E-15  -0.2152592445E-14  -0.3310226344E-14   0.1375000002E-01  -0.6861250011E-02  -0.6861250011E-02  -0.2681525571E-15  -0.1365785338E-14   0.4407000839E-15   0.6875000011E+01
   0.1013750000E+01   0.9931387500E+00  -0.1780468071E-14   0.2250000000E-02  -0.1122750000E-02   0.4490419473E-18   0.1150000000E-01  -0.5738500000E-02  -0.1780917113E-14   0.6875000010E+01   0.7837311756E-14   0.1627073424E-13  -0.5068492522E-15   0.4710684763E-15   0.4114853537E-14   0.1375000002E-01  -0.6861250010E-02  -0.6861250010E-02  -0.4542697772E-15  -0.2185952151E-15  -0.3686923742E-15   0.6875000010E+01
   0.0000000000E+00   0.9931387500E+00  -0.1321260583E-14   0.0000000000E+00  -0.1122750000E-02   0.1688067719E-18   0.0000000000E+00  -0.5738500000E-02  -0.1321429390E-14   0.6875000010E+01   0.4234217183E-14   0.6766734559E-14  -0.6496126982E-15   0.1609424029E-14   0.5548058388E-14   0.1375000002E-01  -0.6861250010E-02  -0.6861250010E-02  -0.1373374882E-14  -0.8763684701E-15  -0.3436979888E-14   0.6875000010E+01
   0.0000000000E+00   0.0000000000E+00   0.9931387500E+00   0.0000000000E+00   0.0000000000E+00  -0.1122750000E-02   0.0000000000E+00   0.0000000000E+00  -0.5738500000E-02   0.6875000010E+01  -0.7791842510E-13  -0.8083048153E-13   0.1659718003E-15   0.8819670326E-15  -0.5158475460E-14   0.1375000002E-01  -0.6861250010E-02  -0.6861250010E-02  -0.9164548937E-18  -0.3549277440E-14  -0.2451487574E-14   0.6875000010E+01
   0.1013750000E+01   0.0000000000E+00   0.9931387500E+00   0.2250000000E-02   0.0000000000E+00  -0.1122750000E-02   0.1150000000E-01   0.0000000000E+00  -0.5738500000E-02   0.6875000010E+01  -0.1724260853E-14  -0.6583192885E-14   0.3144431890E-14  -0.2314417973E-14  -0.3337578180E-14   0.1375000002E-01  -0.6861250010E-02  -0.6861250010E-02  -0.1872553194E-15  -0.1138297662E-14   0.5729420910E-15   0.6875000010E+01
   0.1013750000E+01   0.9931387500E+00   0.9931387500E+00   0.2250000000E-02  -0.1122750000E-02  -0.1122750000E-02   0.1150000000E-01  -0.5738500000E-02  -0.5738500000E-02   0.6875000009E+01   0.2058481376E-13   0.1065074060E-13   0.2768254123E-14   0.1375996386E-14   0.3411518223E-14   0.1375000002E-01  -0.6861250009E-02  -0.6861250009E-02  -0.3684609389E-15  -0.9816117124E-17  -0.2406603530E-15   0.6875000009E+01
   0.0000000000E+00   0.9931387500E+00   0.9931387500E+00   0.0000000000E+00  -0.1122750000E-02  -0.1122750000E-02   0.0000000000E+00  -0.5738500000E-02  -0.5738500000E-02   0.6875000009E+01   0.4112304140E-14  -0.6783250518E-14  -0.4290671594E-16   0.3159137417E-14   0.1774195586E-14   0.1375000002E-01  -0.6861250009E-02  -0.6861250009E-02  -0.1404404136E-14   0.4615904086E-15  -0.3241749814E-14   0.6875000009E+01
   0.2027500000E+01   0.0000000000E+00  -0.2067451205E-14   0.4500000000E-02   0.0000000000E+00   0.1940844056E-17   0.2300000000E-01   0.0000000000E+00  -0.2069392049E-14   0.6875000010E+01   0.3644370478E-13   0.4000303545E-13  -0.2652827893E-15  -0.2395783115E-14  -0.3566364145E-14   0.1375000002E-01  -0.6861250010E-02  -0.6861250010E-02  -0.6110997479E-15   0.2131203492E-14  -0.5388798776E-15   0.6875000010E+01
   0.2027500000E+01   0.9931387500E+00  -0.2337041048E-14   0.4500000000E-02  -0.1122750000E-02   0.2988062493E-17   0.2300000000E-01  -0.5738500000E-02  -0.2340029111E-14   0.6875000010E+01   0.3385325606E-13   0.4237087027E-13  -0.1652899545E-15   0.6296549891E-15   0.2133334680E-14   0.1375000002E-01  -0.6861250010E-02  -0.6861250010E-02   0.3828918294E-15   0.1927429301E-15  -0.1316072350E-14   0.6875000010E+01
   0.2027500000E+01   0.0000000000E+00   0.9931387500E+00   0.4500000000E-02   0.0000000000E+00  -0.1122750000E-02   0.2300000000E-01   0.0000000000E+00  -0.5738500000E-02   0.6875000010E+01  -0.3101492034E-13  -0.3431156932E-13   0.1540562613E-14  -0.1723787148E-14  -0.3760803149E-14   0.1375000002E-01  -0.6861250010E-02  -0.6861250010E-02  -0.4979841912E-15   0.1112928957E-14  -0.3423195898E-15   0.6875000010E+01
   0.2027500000E+01   0.9931387500E+00   0.9931387500E+00   0.4500000000E-02  -0.1122750000E-02  -0.1122750000E-02   0.2300000000E-01  -0.5738500000E-02  -0.5738500000E-02   0.6875000009E+01  -0.3400548609E-13  -0.3982589926E-13  -0.7500499441E-15  -0.4643082360E-15   0.2179499778E-14   0.1375000002E-01  -0.6861250009E-02  -0.6861250009E-02   0.5312297783E-15  -0.6385852661E-15  -0.1114775469E-14   0.6875000009E+01
     1     2     3     4     5     6     7     8
     2     9    10     3     6    11    12     7
 VARIABLES = X,Y,Z,DU1,DU2,DU3,U1,U2,U3,S11,S22,S33,S12,S13,S23,E11,E22,E33,E12,E13,E23,SMISES
 ZONE, T="0.8800D+01" F=FEPOINT, I=   12 J=    2 ET=BRICK
   0.0000000000E+00   0.0000000000E+00   0.0000000000E+00   0.0000000000E+00   0.0000000000E+00   0.0000000000E+00   0.0000000000E+00   0.0000000000E+00   0.0000000000E+00   0.8000000013E+01  -0.1858328538E-13  -0.1059064341E-13  -0.9745317185E-16   0.3320245732E-14  -0.7459666957E-15   0.1600000003E-01  -0.7984000013E-02  -0.7984000013E-02  -0.1482364279E-17  -0.4978826994E-14  -0.2633651351E-14   0.8000000013E+01
   0.1016000000E+01   0.0000000000E+00  -0.2004279411E-14   0.2250000000E-02   0.0000000000E+00  -0.3223559743E-17   0.1375000000E-01   0.0000000000E+00  -0.2001055852E-14   0.8000000012E+01  -0.1187881303E-13  -0.6299303938E-14  -0.6655053818E-15  -0.1990516341E-14  -0.2888693137E-14   0.1600000002E-01  -0.7984000012E-02  -0.7984000012E-02  -0.2647825717E-15  -0.1342825781E-14   0.4448019346E-15   0.8000000012E+01
   0.1016000000E+01   0.9920160000E+00  -0.1781214693E-14   0.2250000000E-02  -0.1122750000E-02  -0.7466216954E-18   0.1375000000E-01  -0.6861250000E-02  -0.1780468071E-14   0.8000000011E+01   0.3510481789E-13   0.4280969234E-13  -0.6218422576E-15   0.4834423388E-15   0.3503106900E-14   0.1600000002E-01  -0.7984000011E-02  -0.7984000011E-02  -0.4533916693E-15  -0.2394865814E-15  -0.3743675524E-15   0.8000000011E+01
   0.0000000000E+00   0.9920160000E+00  -0.1318525116E-14   0.0000000000E+00  -0.1122750000E-02   0.2735467105E-17   0.0000000000E+00  -0.6861250000E-02  -0.1321260583E-14   0.8000000012E+01  -0.4624696169E-13  -0.4424126630E-13  -0.6668739007E-15   0.1224327068E-14   0.5068321929E-14   0.1600000002E-01  -0.7984000012E-02  -0.7984000012E-02  -0.1373268914E-14  -0.8689694087E-15  -0.3439951643E-14   0.8000000012E+01
   0.0000000000E+00   0.0000000000E+00   0.9920160000E+00   0.0000000000E+00   0.0000000000E+00  -0.1122750000E-02   0.0000000000E+00   0.0000000000E+00  -0.6861250000E-02   0.8000000012E+01   0.3497514861E-13   0.3326693648E-13   0.1576688604E-15   0.6967643784E-15  -0.4538065508E-14   0.1600000002E-01  -0.7984000012E-02  -0.7984000012E-02   0.1115961696E-17  -0.3547753502E-14  -0.2445194625E-14   0.8000000012E+01
   0.1016000000E+01   0.0000000000E+00   0.9920160000E+00   0.2250000000E-02   0.0000000000E+00  -0.1122750000E-02   0.1375000000E-01   0.0000000000E+00  -0.6861250000E-02   0.8000000011E+01   0.2619584346E-13   0.2176214093E-13   0.2789834292E-14  -0.2220788435E-14  -0.2742744514E-14   0.1600000002E-01  -0.7984000011E-02  -0.7984000011E-02  -0.1937305157E-15  -0.1143158267E-14   0.5810961368E-15   0.8000000011E+01
   0.1016000000E+01   0.9920160000E+00   0.9920160000E+00   0.2250000000E-02  -0.1122750000E-02  -0.1122750000E-02   0.1375000000E-01  -0.6861250000E-02  -0.6861250000E-02   0.8000000010E+01  -0.4213167906E-13  -0.5067904150E-13   0.2480376144E-14   0.1154699684E-14   0.2954062908E-14   0.1600000002E-01  -0.7984000010E-02  -0.7984000010E-02  -0.3725504072E-15  -0.7309797948E-18  -0.2428027363E-15   0.8000000010E+01
   0.0000000000E+00   0.9920160000E+00   0.9920160000E+00   0.0000000000E+00  -0.1122750000E-02  -0.1122750000E-02   0.0000000000E+00  -0.6861250000E-02  -0.6861250000E-02   0.8000000011E+01  -0.1173398234E-13  -0.2199567823E-13  -0.1981983408E-15   0.2943693454E-14   0.1377363382E-14   0.1600000002E-01  -0.7984000011E-02  -0.7984000011E-02  -0.1407987219E-14   0.4507409233E-15  -0.3240594976E-14   0.8000000011E+01
   0.2032000000E+01   0.0000000000E+00  -0.2079188340E-14   0.4500000000E-02   0.0000000000E+00  -0.1173713500E-16   0.2750000000E-01   0.0000000000E+00  -0.2067451205E-14   0.8000000012E+01  -0.1187538428E-12  -0.1165351416E-12  -0.4433192185E-15  -0.1905077304E-14  -0.3264302923E-14   0.1600000002E-01  -0.7984000012E-02  -0.7984000012E-02  -0.6179950578E-15   0.2100667311E-14  -0.5353584114E-15   0.8000000012E+01
   0.2032000000E+01   0.9920160000E+00  -0.2346901776E-14   0.4500000000E-02  -0.1122750000E-02  -0.9860727821E-17   0.2750000000E-01  -0.6861250000E-02  -0.2337041048E-14   0.8000000011E+01  -0.1058562014E-13  -0.2613687576E-14  -0.5288340921E-15   0.7410196820E-15   0.1807660889E-14   0.1600000002E-01  -0.7984000011E-02  -0.7984000011E-02   0.3716781517E-15   0.2372175420E-15  -0.1321236302E-14   0.8000000011E+01
   0.2032000000E+01   0.0000000000E+00   0.9920160000E+00   0.4500000000E-02   0.0000000000E+00  -0.1122750000E-02   0.2750000000E-01   0.0000000000E+00  -0.6861250000E-02   0.8000000011E+01   0.3292693592E-13   0.2966149406E-13   0.7199075442E-15  -0.1219728945E-14  -0.3234589107E-14   0.1600000002E-01  -0.7984000011E-02  -0.7984000011E-02  -0.5077789624E-15   0.1126710227E-14  -0.3328982883E-15   0.8000000011E+01
   0.2032000000E+01   0.9920160000E+00   0.9920160000E+00   0.4500000000E-02  -0.1122750000E-02  -0.1122750000E-02   0.2750000000E-01  -0.6861250000E-02  -0.6861250000E-02   0.8000000010E+01   0.3105071349E-13   0.2593454435E-13  -0.1124555546E-14  -0.5074998114E-15   0.1972871462E-14   0.1600000002E-01  -0.7984000010E-02  -0.7984000010E-02   0.5425216017E-15  -0.6674792438E-15  -0.1114769233E-14   0.8000000010E+01
     1     2     3     4     5     6     7     8
     2     9    10     3     6    11    12     7
 VARIABLES = X,Y,Z,DU1,DU2,DU3,U1,U2,U3,S11,S22,S33,S12,S13,S23,E11,E22,E33,E12,E13,E23,SMISES
 ZONE, T="0.8850D+01" F=FEPOINT, I=   12 J=    2 ET=BRICK
   0.0000000000E+00   0.0000000000E+00   0.0000000000E+00   0.0000000000E+00   0.0000000000E+00   0.0000000000E+00   0.0000000000E+00   0.0000000000E+00   0.0000000000E+00   0.9125000014E+01   0.6427873037E-13   0.7305689033E-13  -0.1079619462E-15   0.3667384573E-14  -0.1407898714E-14   0.1825000003E-01  -0.9106750014E-02  -0.9106750014E-02  -0.7039226456E-18  -0.4974228233E-14  -0.2644981633E-14   0.9125000014E+01
   0.1018250000E+01   0.0000000000E+00  -0.2000142687E-14   0.2250000000E-02   0.0000000000E+00   0.4136724073E-17   0.1600000000E-01   0.0000000000E+00  -0.2004279411E-14   0.9125000014E+01  -0.3684728477E-14   0.3503535960E-14  -0.5786784069E-15  -0.2035427906E-14  -0.3597450959E-14   0.1825000003E-01  -0.9106750014E-02  -0.9106750014E-02  -0.2652345085E-15  -0.1352723575E-14   0.4363151814E-15   0.9125000014E+01
   0.1018250000E+01   0.9908932500E+00  -0.1781243212E-14   0.2250000000E-02  -0.1122750000E-02  -0.2851932611E-19   0.1600000000E-01  -0.7984000000E-02  -0.1781214693E-14   0.9125000013E+01   0.4310660623E-13   0.5261253224E-13  -0.5537994301E-15   0.4766785399E-15   0.4277940235E-14   0.1825000003E-01  -0.9106750013E-02  -0.9106750013E-02  -0.4518649020E-15  -0.2419946971E-15  -0.3602296235E-15   0.9125000013E+01
   0.0000000000E+00   0.9908932500E+00  -0.1322547655E-14   0.0000000000E+00  -0.1122750000E-02  -0.4022538765E-17   0.0000000000E+00  -0.7984000000E-02  -0.1318525116E-14   0.9125000013E+01   0.4980882393E-13   0.5250388921E-13  -0.9816286457E-15   0.1557980143E-14   0.5563938662E-14   0.1825000003E-01  -0.9106750013E-02  -0.9106750013E-02  -0.1378693016E-14  -0.8631183679E-15  -0.3433654989E-14   0.9125000013E+01
   0.0000000000E+00   0.0000000000E+00   0.9908932500E+00   0.0000000000E+00   0.0000000000E+00  -0.1122750000E-02   0.0000000000E+00   0.0000000000E+00  -0.7984000000E-02   0.9125000013E+01  -0.7076228116E-13  -0.7380713725E-13   0.1796445092E-15   0.1031978505E-14  -0.5175694030E-14   0.1825000003E-01  -0.9106750013E-02  -0.9106750013E-02   0.1891756566E-18  -0.3551354163E-14  -0.2451311747E-14   0.9125000013E+01
   0.1018250000E+01   0.0000000000E+00   0.9908932500E+00   0.2250000000E-02   0.0000000000E+00  -0.1122750000E-02   0.1600000000E-01   0.0000000000E+00  -0.7984000000E-02   0.9125000013E+01  -0.3733548877E-14  -0.9724481136E-14   0.2838483568E-14  -0.2160206365E-14  -0.3355804842E-14   0.1825000003E-01  -0.9106750013E-02  -0.9106750013E-02  -0.1832044899E-15  -0.1140011818E-14   0.5811901918E-15   0.9125000013E+01
   0.1018250000E+01   0.9908932500E+00   0.9908932500E+00   0.2250000000E-02  -0.1122750000E-02  -0.1122750000E-02   0.1600000000E-01  -0.7984000000E-02  -0.7984000000E-02   0.9125000012E+01  -0.1805271481E-13  -0.2820883258E-13   0.2550002308E-14   0.1119544432E-14   0.3829144563E-14   0.1825000002E-01  -0.9106750012E-02  -0.9106750012E-02  -0.3704182620E-15  -0.4899803424E-17  -0.2327652133E-15   0.9125000012E+01
   0.0000000000E+00   0.9908932500E+00   0.9908932500E+00   0.0000000000E+00  -0.1122750000E-02  -0.1122750000E-02   0.0000000000E+00  -0.7984000000E-02  -0.7984000000E-02   0.9125000012E+01   0.3049252320E-13   0.1891994615E-13  -0.1262993206E-15   0.3280227402E-14   0.1961377592E-14   0.1825000002E-01  -0.9106750012E-02  -0.9106750012E-02  -0.1406584361E-14   0.4597653017E-15  -0.3241960133E-14   0.9125000012E+01
   0.2036500000E+01   0.0000000000E+00  -0.2062906345E-14   0.4500000000E-02   0.0000000000E+00   0.1628199433E-16   0.3200000000E-01   0.0000000000E+00  -0.2079188340E-14   0.9125000014E+01  -0.3082258903E-14   0.9023011968E-15  -0.7681139347E-15  -0.2367765770E-14  -0.3889153658E-14   0.1825000003E-01  -0.9106750014E-02  -0.9106750014E-02  -0.6123942648E-15   0.2090729156E-14  -0.5451933656E-15   0.9125000014E+01
   0.2036500000E+01   0.9908932500E+00  -0.2334398335E-14   0.4500000000E-02  -0.1122750000E-02   0.1250344116E-16   0.3200000000E-01  -0.7984000000E-02  -0.2346901776E-14   0.9125000013E+01  -0.1458614947E-13  -0.6187528552E-14  -0.5826103319E-15   0.7839962535E-15   0.2294052762E-14   0.1825000003E-01  -0.9106750013E-02  -0.9106750013E-02   0.3875559469E-15   0.2013456440E-15  -0.1316004120E-14   0.9125000013E+01
   0.2036500000E+01   0.0000000000E+00   0.9908932500E+00   0.4500000000E-02   0.0000000000E+00  -0.1122750000E-02   0.3200000000E-01   0.0000000000E+00  -0.7984000000E-02   0.9125000013E+01   0.9890202846E-13   0.9403726111E-13   0.7782342218E-15  -0.1910965957E-14  -0.3916104353E-14   0.1825000003E-01  -0.9106750013E-02  -0.9106750013E-02  -0.5066976386E-15   0.1106069729E-14  -0.3409021724E-15   0.9125000013E+01
   0.2036500000E+01   0.9908932500E+00   0.9908932500E+00   0.4500000000E-02  -0.1122750000E-02  -0.1122750000E-02   0.3200000000E-01  -0.7984000000E-02  -0.7984000000E-02   0.9125000012E+01  -0.5132272168E-13  -0.5767938669E-13  -0.1298901471E-14  -0.1005123894E-14   0.2465081763E-14   0.1825000002E-01  -0.9106750012E-02  -0.9106750012E-02   0.5442500246E-15  -0.6631480276E-15  -0.1109841553E-14   0.9125000012E+01
     1     2     3     4     5     6     7     8
     2     9    10     3     6    11    12     7
 VARIABLES = X,Y,Z,DU1,DU2,DU3,U1,U2,U3,S11,S22,S33,S12,S13,S23,E11,E22,E33,E12,E13,E23,SMISES
 ZONE, T="0.8900D+01" F=FEPOINT, I=   12 J=    2 ET=BRICK
   0.0000000000E+00   0.0000000000E+00   0.0000000000E+00   0.0000000000E+00   0.0000000000E+00   0.0000000000E+00   0.0000000000E+00   0.0000000000E+00   0.0000000000E+00   0.1025000002E+02  -0.1319460839E-12  -0.1227093512E-12  -0.9597471172E-16  -0.4974094407E-13  -0.5474326184E-13   0.2550000004E-01  -0.1272950002E-01  -0.1272950002E-01   0.6525407452E-18  -0.5631975723E-14  -0.3384159433E-14   0.1025000002E+02
   0.1025500000E+01   0.0000000000E+00  -0.2238917119E-14   0.7250000000E-02   0.0000000000E+00  -0.2387744316E-15   0.1825000000E-01   0.0000000000E+00  -0.2000142687E-14   0.1025000002E+02   0.1534531059E-12   0.2143942949E-12  -0.1399751007E-15  -0.3672050962E-13  -0.1024263600E-13   0.2550000004E-01  -0.1272950002E-01  -0.1272950002E-01  -0.2534820520E-15  -0.1847525116E-14   0.3132945413E-15   0.1025000002E+02
   0.1025500000E+01   0.9872705000E+00  -0.2080417100E-14   0.7250000000E-02  -0.3622750000E-02  -0.2991738880E-15   0.1825000000E-01  -0.9106750000E-02  -0.1781243212E-14   0.1025000001E+02  -0.4535586734E-12  -0.3944512021E-12   0.7822538982E-15  -0.8898233442E-14   0.2028787934E-13   0.2550000004E-01  -0.1272950002E-01  -0.1272950002E-01  -0.4136348399E-15  -0.3580689491E-15  -0.1056579039E-15   0.1025000001E+02
   0.0000000000E+00   0.9872705000E+00  -0.1690441095E-14   0.0000000000E+00  -0.3622750000E-02  -0.3678934404E-15   0.0000000000E+00  -0.9106750000E-02  -0.1322547655E-14   0.1025000001E+02   0.1695926303E-12   0.1740012473E-12  -0.2032588168E-13   0.5033390203E-14  -0.2396612962E-13   0.2550000004E-01  -0.1272950002E-01  -0.1272950002E-01  -0.1639846885E-14  -0.7933718579E-15  -0.3767019969E-14   0.1025000001E+02
   0.0000000000E+00   0.0000000000E+00   0.9872705000E+00   0.0000000000E+00   0.0000000000E+00  -0.3622750000E-02   0.0000000000E+00   0.0000000000E+00  -0.9106750000E-02   0.1025000001E+02   0.4509041931E-13  -0.8574432556E-14   0.1211821237E-15  -0.3101051112E-13  -0.5731041040E-13   0.2550000004E-01  -0.1272950002E-01  -0.1272950002E-01  -0.4554585623E-17  -0.3935647068E-14  -0.3181443189E-14   0.1025000001E+02
   0.1025500000E+01   0.0000000000E+00   0.9872705000E+00   0.7250000000E-02   0.0000000000E+00  -0.3622750000E-02   0.1825000000E-01   0.0000000000E+00  -0.9106750000E-02   0.1025000001E+02   0.1240451320E-12   0.1262329119E-12   0.2582433811E-14  -0.3677570883E-13  -0.1148632464E-13   0.2550000004E-01  -0.1272950002E-01  -0.1272950002E-01  -0.1696363371E-15  -0.1629035554E-14   0.4344531305E-15   0.1025000001E+02
   0.1025500000E+01   0.9872705000E+00   0.9872705000E+00   0.7250000000E-02  -0.3622750000E-02  -0.3622750000E-02   0.1825000000E-01  -0.9106750000E-02  -0.9106750000E-02   0.1025000001E+02  -0.1175252530E-12  -0.1238978597E-12   0.2005686854E-14  -0.9179431883E-14   0.1841038109E-13   0.2550000003E-01  -0.1272950002E-01  -0.1272950002E-01  -0.3648512745E-15  -0.1382049377E-15   0.4039522814E-17   0.1025000001E+02
   0.0000000000E+00   0.9872705000E+00   0.9872705000E+00   0.0000000000E+00  -0.3622750000E-02  -0.3622750000E-02   0.0000000000E+00  -0.9106750000E-02  -0.9106750000E-02   0.1025000001E+02   0.2473886585E-12   0.1901474660E-12  -0.2059183094E-13   0.2501206603E-13  -0.2651843157E-13   0.2550000003E-01  -0.1272950002E-01  -0.1272950002E-01  -0.1677996475E-14   0.7783963007E-15  -0.3587732391E-14   0.1025000001E+02
   0.2051000000E+01   0.0000000000E+00  -0.2166866710E-14   0.1450000000E-01   0.0000000000E+00  -0.1039603644E-15   0.3650000000E-01   0.0000000000E+00  -0.2062906345E-14   0.1025000002E+02   0.2526436441E-12   0.2510451008E-12   0.3770760692E-15  -0.1761999462E-13  -0.4934845082E-14   0.2550000004E-01  -0.1272950002E-01  -0.1272950002E-01  -0.5937760087E-15   0.1784848466E-14  -0.5558867268E-15   0.1025000002E+02
   0.2051000000E+01   0.9872705000E+00  -0.2445688215E-14   0.1450000000E-01  -0.3622750000E-02  -0.1112898798E-15   0.3650000000E-01  -0.9106750000E-02  -0.2334398335E-14   0.1025000001E+02   0.1181106667E-12   0.1215389424E-12   0.2238106800E-13  -0.2042269990E-13   0.2269833037E-13   0.2550000004E-01  -0.1272950002E-01  -0.1272950002E-01   0.7021366262E-15  -0.9531456410E-16  -0.9774206912E-15   0.1025000001E+02
   0.2051000000E+01   0.0000000000E+00   0.9872705000E+00   0.1450000000E-01   0.0000000000E+00  -0.3622750000E-02   0.3650000000E-01   0.0000000000E+00  -0.9106750000E-02   0.1025000001E+02  -0.3487821148E-12  -0.4011197529E-12   0.2973749836E-14  -0.3992177528E-13  -0.6043862685E-14   0.2550000004E-01  -0.1272950002E-01  -0.1272950002E-01  -0.4581690919E-15   0.4926675323E-15  -0.3767409215E-15   0.1025000001E+02
   0.2051000000E+01   0.9872705000E+00   0.9872705000E+00   0.1450000000E-01  -0.3622750000E-02  -0.3622750000E-02   0.3650000000E-01  -0.9106750000E-02  -0.9106750000E-02   0.1025000001E+02   0.4691085707E-12   0.4140153029E-12   0.2097776018E-13  -0.4032257820E-13   0.2179901738E-13   0.2550000003E-01  -0.1272950002E-01  -0.1272950002E-01   0.8577435441E-15  -0.1221032037E-14  -0.8039655917E-15   0.1025000001E+02
     1     2     3     4     5     6     7     8
     2     9    10     3     6    11    12     7
 VARIABLES = X,Y,Z,DU1,DU2,DU3,U1,U2,U3,S11,S22,S33,S12,S13,S23,E11,E22,E33,E12,E13,E23,SMISES
 ZONE, T="0.8950D+01" F=FEPOINT, I=   12 J=    2 ET=BRICK
   0.0000000000E+00   0.0000000000E+00   0.0000000000E+00   0.0000000000E+00   0.0000000000E+00   0.0000000000E+00   0.0000000000E+00   0.0000000000E+00   0.0000000000E+00   0.1137500002E+02   0.8273364805E-13  -0.1136512591E-12  -0.1782150331E-15  -0.1098153839E-12   0.3150982260E-13   0.5025000008E-01  -0.2510225004E-01  -0.2510225004E-01  -0.2153569654E-17  -0.7179748722E-14  -0.1695739587E-14   0.1137500002E+02
   0.1050250000E+01   0.0000000000E+00  -0.3614737144E-14   0.2475000000E-01   0.0000000000E+00  -0.1375820025E-14   0.2550000000E-01   0.0000000000E+00  -0.2238917119E-14   0.1137500002E+02   0.2154149483E-12   0.7844458218E-13   0.1719089448E-13  -0.4855344816E-13   0.5852622295E-13   0.5025000008E-01  -0.2510225004E-01  -0.2510225004E-01   0.1809281028E-15  -0.2447507350E-14   0.1811890416E-14   0.1137500002E+02
   0.1050250000E+01   0.9748977500E+00  -0.2709256529E-14   0.2475000000E-01  -0.1237275000E-01  -0.6288394287E-15   0.2550000000E-01  -0.1272950000E-01  -0.2080417100E-14   0.1137500002E+02  -0.7793859145E-12  -0.9527002730E-12   0.8121293098E-15  -0.2135042594E-13  -0.1152004745E-12   0.5025000007E-01  -0.2510225004E-01  -0.2510225004E-01  -0.3782692758E-15  -0.7224715948E-15  -0.3094889230E-14   0.1137500002E+02
   0.0000000000E+00   0.9748977500E+00  -0.8439680689E-15   0.0000000000E+00  -0.1237275000E-01   0.8464730262E-15   0.0000000000E+00  -0.1272950000E-01  -0.1690441095E-14   0.1137500002E+02  -0.9185176678E-12  -0.1150844964E-11  -0.1561758641E-13  -0.8114095652E-13  -0.1473510293E-12   0.5025000007E-01  -0.2510225004E-01  -0.2510225004E-01  -0.1623559389E-14  -0.2721153043E-14  -0.6668933575E-14   0.1137500002E+02
   0.0000000000E+00   0.0000000000E+00   0.9748977500E+00   0.0000000000E+00   0.0000000000E+00  -0.1237275000E-01   0.0000000000E+00   0.0000000000E+00  -0.1272950000E-01   0.1137500002E+02  -0.2016016797E-12  -0.4122230530E-13   0.1342479722E-15  -0.9649770333E-13   0.1318463226E-13   0.5025000007E-01  -0.2510225004E-01  -0.2510225004E-01   0.5199417264E-17  -0.5531850537E-14  -0.1931512268E-14   0.1137500002E+02
   0.1050250000E+01   0.0000000000E+00   0.9748977500E+00   0.2475000000E-01   0.0000000000E+00  -0.1237275000E-01   0.2550000000E-01   0.0000000000E+00  -0.1272950000E-01   0.1137500002E+02   0.6403403094E-12   0.8537199124E-12   0.1987453087E-13  -0.3420932009E-13   0.3944623174E-13   0.5025000007E-01  -0.2510225004E-01  -0.2510225004E-01   0.2930100973E-15  -0.1873312876E-14   0.1453928250E-14   0.1137500002E+02
   0.1050250000E+01   0.9748977500E+00   0.9748977500E+00   0.2475000000E-01  -0.1237275000E-01  -0.1237275000E-01   0.2550000000E-01  -0.1272950000E-01  -0.1272950000E-01   0.1137500001E+02   0.4466322910E-12   0.6164535891E-12   0.7681638857E-14  -0.7098102625E-14  -0.1346229022E-12   0.5025000007E-01  -0.2510225003E-01  -0.2510225003E-01  -0.1413527449E-15  -0.2090840736E-15  -0.3458268029E-14   0.1137500001E+02
   0.0000000000E+00   0.9748977500E+00   0.9748977500E+00   0.0000000000E+00  -0.1237275000E-01  -0.1237275000E-01   0.0000000000E+00  -0.1272950000E-01  -0.1272950000E-01   0.1137500002E+02   0.2379806021E-11   0.2506160915E-11  -0.1068990691E-13  -0.6955028119E-13  -0.1652141464E-12   0.5025000007E-01  -0.2510225003E-01  -0.2510225003E-01  -0.1558379903E-14  -0.1247259035E-14  -0.6903043778E-14   0.1137500002E+02
   0.2100500000E+01   0.0000000000E+00  -0.7336069921E-14   0.4950000000E-01   0.0000000000E+00  -0.5169203212E-14   0.5100000000E-01   0.0000000000E+00  -0.2166866710E-14   0.1137500002E+02  -0.9451338743E-12  -0.1020223868E-11   0.3604721874E-13   0.8844752046E-14   0.8161930687E-13   0.5025000008E-01  -0.2510225004E-01  -0.2510225004E-01   0.3089990523E-15   0.2020412848E-14   0.1509991111E-14   0.1137500002E+02
   0.2100500000E+01   0.9748977500E+00  -0.6576638696E-14   0.4950000000E-01  -0.1237275000E-01  -0.4130950482E-14   0.5100000000E-01  -0.1272950000E-01  -0.2445688215E-14   0.1137500002E+02   0.1183489475E-11   0.1074544737E-11   0.1813600205E-13   0.3374437426E-13  -0.8760273535E-13   0.5025000007E-01  -0.2510225004E-01  -0.2510225004E-01   0.8056666927E-15   0.9421836994E-15  -0.3224764165E-14   0.1137500002E+02
   0.2100500000E+01   0.0000000000E+00   0.9748977500E+00   0.4950000000E-01   0.0000000000E+00  -0.1237275000E-01   0.5100000000E-01   0.0000000000E+00  -0.1272950000E-01   0.1137500002E+02   0.6907849658E-12   0.9571924106E-12   0.3961815802E-13   0.2294789715E-13   0.6188764920E-13   0.5025000007E-01  -0.2510225004E-01  -0.2510225004E-01   0.4934457849E-15   0.1352319407E-14   0.1233248744E-14   0.1137500002E+02
   0.2100500000E+01   0.9748977500E+00   0.9748977500E+00   0.4950000000E-01  -0.1237275000E-01  -0.1237275000E-01   0.5100000000E-01  -0.1272950000E-01  -0.1272950000E-01   0.1137500001E+02   0.9612353864E-12   0.1188979327E-11   0.2591311059E-13   0.4811808847E-13  -0.1071207949E-12   0.5025000006E-01  -0.2510225003E-01  -0.2510225003E-01   0.1150407399E-14   0.5270394836E-15  -0.3548931084E-14   0.1137500001E+02
     1     2     3     4     5     6     7     8
     2     9    10     3     6    11    12     7
 VARIABLES = X,Y,Z,DU1,DU2,DU3,U1,U2,U3,S11,S22,S33,S12,S13,S23,E11,E22,E33,E12,E13,E23,SMISES
 ZONE, T="0.9000D+01" F=FEPOINT, I=   12 J=    2 ET=BRICK
   0.0000000000E+00   0.0000000000E+00   0.0000000000E+00   0.0000000000E+00   0.0000000000E+00   0.0000000000E+00   0.0000000000E+00   0.0000000000E+00   0.0000000000E+00   0.1250000002E+02   0.2234306971E-13   0.3774057642E-13  -0.7500047768E-16   0.5568281046E-14  -0.7798520906E-14   0.7500000012E-01  -0.3747500006E-01  -0.3747500006E-01  -0.4748021312E-18  -0.5131874410E-14  -0.2049681127E-14   0.1250000002E+02
   0.1075000000E+01   0.0000000000E+00  -0.2339774829E-14   0.2475000000E-01   0.0000000000E+00   0.1274962315E-14   0.5025000000E-01   0.0000000000E+00  -0.3614737144E-14   0.1250000002E+02   0.1143582268E-12   0.1306141634E-12   0.1699488056E-14  -0.5040617462E-15  -0.8050367781E-14   0.7500000012E-01  -0.3747500006E-01  -0.3747500006E-01   0.2181141456E-16  -0.1684683840E-14   0.8104609790E-15   0.1250000002E+02
   0.1075000000E+01   0.9625250000E+00  -0.1938323292E-14   0.2475000000E-01  -0.1237275000E-01   0.7709332365E-15   0.5025000000E-01  -0.2510225000E-01  -0.2709256529E-14   0.1250000002E+02  -0.6321986400E-12  -0.6148165384E-12   0.2829235792E-14  -0.2635520334E-14   0.7828796694E-14   0.7500000011E-01  -0.3747500005E-01  -0.3747500005E-01  -0.2796984607E-15  -0.4388042091E-15  -0.1354503476E-14   0.1250000002E+02
   0.0000000000E+00   0.9625250000E+00  -0.1024256705E-14   0.0000000000E+00  -0.1237275000E-01  -0.1802886362E-15   0.0000000000E+00  -0.2510225000E-01  -0.8439680689E-15   0.1250000002E+02   0.1719927720E-12   0.1883379535E-12   0.1099206677E-14   0.4951710784E-14   0.9483357666E-14   0.7500000011E-01  -0.3747500005E-01  -0.3747500005E-01  -0.1271341289E-14  -0.1474740844E-14  -0.4192671718E-14   0.1250000002E+02
   0.0000000000E+00   0.0000000000E+00   0.9625250000E+00   0.0000000000E+00   0.0000000000E+00  -0.1237275000E-01   0.0000000000E+00   0.0000000000E+00  -0.2510225000E-01   0.1250000002E+02  -0.1572913273E-12  -0.1733549679E-12   0.1028182207E-15   0.3608776296E-14  -0.1019433121E-13   0.7500000011E-01  -0.3747500005E-01  -0.3747500005E-01   0.2159886138E-18  -0.3841043352E-14  -0.2100669040E-14   0.1250000002E+02
   0.1075000000E+01   0.0000000000E+00   0.9625250000E+00   0.2475000000E-01   0.0000000000E+00  -0.1237275000E-01   0.5025000000E-01   0.0000000000E+00  -0.2510225000E-01   0.1250000002E+02  -0.4643437720E-12  -0.4790613385E-12  -0.2467177837E-15  -0.3904612318E-15  -0.7335139852E-14   0.7500000011E-01  -0.3747500005E-01  -0.3747500005E-01   0.4239536870E-16  -0.1314044452E-14   0.6990282561E-15   0.1250000002E+02
   0.1075000000E+01   0.9625250000E+00   0.9625250000E+00   0.2475000000E-01  -0.1237275000E-01  -0.1237275000E-01   0.5025000000E-01  -0.2510225000E-01  -0.2510225000E-01   0.1250000002E+02   0.4486425704E-12   0.4320296539E-12  -0.1556043046E-14  -0.1578529652E-14   0.7942042859E-14   0.7500000010E-01  -0.3747500005E-01  -0.3747500005E-01  -0.2641756336E-15  -0.1438393453E-15  -0.1466382802E-14   0.1250000002E+02
   0.0000000000E+00   0.9625250000E+00   0.9625250000E+00   0.0000000000E+00  -0.1237275000E-01  -0.1237275000E-01   0.0000000000E+00  -0.2510225000E-01  -0.2510225000E-01   0.1250000002E+02  -0.7564668509E-12  -0.7772210400E-12  -0.1022014567E-14   0.7398746610E-14   0.8669897950E-14   0.7500000010E-01  -0.3747500005E-01  -0.3747500005E-01  -0.1306444854E-14  -0.1820299079E-15  -0.4226424787E-14   0.1250000002E+02
   0.2150000000E+01   0.0000000000E+00  -0.3755809752E-14   0.4950000000E-01   0.0000000000E+00   0.3580260169E-14   0.1005000000E+00   0.0000000000E+00  -0.7336069921E-14   0.1250000002E+02   0.2434411660E-12   0.2532758878E-12  -0.1162079679E-15  -0.1199095990E-14  -0.6514806989E-14   0.7500000011E-01  -0.3747500006E-01  -0.3747500006E-01  -0.1367764355E-15   0.1615944871E-14   0.3210279184E-15   0.1250000002E+02
   0.2150000000E+01   0.9625250000E+00  -0.3592295324E-14   0.4950000000E-01  -0.1237275000E-01   0.2984343373E-14   0.1005000000E+00  -0.2510225000E-01  -0.6576638696E-14   0.1250000002E+02  -0.1322974781E-11  -0.1307220294E-11   0.2112816714E-15  -0.2647858465E-14   0.6881039151E-14   0.7500000010E-01  -0.3747500005E-01  -0.3747500005E-01   0.5116434971E-15   0.3606093763E-15  -0.1799149401E-14   0.1250000002E+02
   0.2150000000E+01   0.0000000000E+00   0.9625250000E+00   0.4950000000E-01   0.0000000000E+00  -0.1237275000E-01   0.1005000000E+00   0.0000000000E+00  -0.2510225000E-01   0.1250000002E+02  -0.1110951872E-11  -0.1121658830E-11   0.6956152799E-15  -0.5631393115E-14  -0.7223483927E-14   0.7500000010E-01  -0.3747500005E-01  -0.3747500005E-01   0.6571865159E-17   0.8853584294E-15   0.2579767285E-15   0.1250000002E+02
   0.2150000000E+01   0.9625250000E+00   0.9625250000E+00   0.4950000000E-01  -0.1237275000E-01  -0.1237275000E-01   0.1005000000E+00  -0.2510225000E-01  -0.2510225000E-01   0.1250000002E+02   0.1533612217E-11   0.1519189998E-11  -0.6838255001E-15  -0.2104122000E-14   0.6947935346E-14   0.7500000010E-01  -0.3747500005E-01  -0.3747500005E-01   0.7448878343E-15  -0.2144804108E-15  -0.1833005743E-14   0.1250000002E+02
     1     2     3     4     5     6     7     8
     2     9    10     3     6    11    12     7
 VARIABLES = X,Y,Z,DU1,DU2,DU3,U1,U2,U3,S11,S22,S33,S12,S13,S23,E11,E22,E33,E12,E13,E23,SMISES
 ZONE, T="0.9050D+01" F=FEPOINT, I=   12 J=    2 ET=BRICK
   0.0000000000E+00   0.0000000000E+00   0.0000000000E+00   0.0000000000E+00   0.0000000000E+00   0.0000000000E+00   0.0000000000E+00   0.0000000000E+00   0.0000000000E+00   0.1137500002E+02  -0.2398485373E-11  -0.2757317113E-11  -0.8328799751E-16  -0.3768701020E-12  -0.1172060945E-12   0.7275000011E-01  -0.3635225006E-01  -0.3635225006E-01  -0.2584165001E-17  -0.9735456522E-14  -0.3349699971E-14   0.1137500002E+02
   0.1072750000E+01   0.0000000000E+00  -0.4704327589E-14  -0.2250000000E-02   0.0000000000E+00  -0.2364552759E-14   0.7500000000E-01   0.0000000000E+00  -0.2339774829E-14   0.1137500002E+02   0.3707231037E-12   0.2902400098E-12  -0.9028403988E-13  -0.2497520458E-12   0.1024279504E-12   0.7275000011E-01  -0.3635225006E-01  -0.3635225006E-01  -0.1074024848E-14  -0.4667503338E-14   0.2130304458E-14   0.1137500002E+02
   0.1072750000E+01   0.9636477500E+00  -0.3640293481E-14  -0.2250000000E-02   0.1122750000E-02  -0.1701970189E-14   0.7500000000E-01  -0.3747500000E-01  -0.1938323292E-14   0.1137500002E+02   0.4341105337E-13   0.1509798903E-12  -0.8100859762E-13  -0.1586656549E-12  -0.4853282278E-13   0.7275000010E-01  -0.3635225005E-01  -0.3635225005E-01  -0.1254936703E-14  -0.2335914639E-14  -0.2031224497E-14   0.1137500002E+02
   0.0000000000E+00   0.9636477500E+00  -0.1680403369E-14   0.0000000000E+00   0.1122750000E-02  -0.6561466638E-15   0.0000000000E+00  -0.3747500000E-01  -0.1024256705E-14   0.1137500002E+02   0.1421579419E-11   0.1262162098E-11  -0.9930566431E-13  -0.9795562815E-13  -0.2605515491E-12   0.7275000011E-01  -0.3635225005E-01  -0.3635225005E-01  -0.2474300070E-14  -0.2693597670E-14  -0.7436211823E-14   0.1137500002E+02
   0.0000000000E+00   0.0000000000E+00   0.9636477500E+00   0.0000000000E+00   0.0000000000E+00   0.1122750000E-02   0.0000000000E+00   0.0000000000E+00  -0.3747500000E-01   0.1137500002E+02   0.1283238282E-11   0.1215038417E-11   0.1290660209E-15  -0.2673319883E-12  -0.2032862517E-13   0.7275000011E-01  -0.3635225005E-01  -0.3635225005E-01  -0.1014096819E-16  -0.7080068048E-14  -0.2234810404E-14   0.1137500002E+02
   0.1072750000E+01   0.0000000000E+00   0.9636477500E+00  -0.2250000000E-02   0.0000000000E+00   0.1122750000E-02   0.7500000000E-01   0.0000000000E+00  -0.3747500000E-01   0.1137500002E+02   0.1598198607E-12   0.3816881114E-12  -0.9981791400E-13  -0.2494572688E-12   0.1966429968E-12   0.7275000010E-01  -0.3635225005E-01  -0.3635225005E-01  -0.1148951888E-14  -0.4317532572E-14   0.3155967359E-14   0.1137500002E+02
   0.1072750000E+01   0.9636477500E+00   0.9636477500E+00  -0.2250000000E-02   0.1122750000E-02   0.1122750000E-02   0.7500000000E-01  -0.3747500000E-01  -0.3747500000E-01   0.1137500001E+02  -0.4577223668E-12  -0.4991374493E-13  -0.9666333017E-13  -0.1618439100E-12   0.4496568913E-13   0.7275000010E-01  -0.3635225005E-01  -0.3635225005E-01  -0.1430924134E-14  -0.2116065115E-14  -0.1010267285E-14   0.1137500001E+02
   0.0000000000E+00   0.9636477500E+00   0.9636477500E+00   0.0000000000E+00   0.1122750000E-02   0.1122750000E-02   0.0000000000E+00  -0.3747500000E-01  -0.3747500000E-01   0.1137500002E+02  -0.3076961527E-13   0.9477405036E-13  -0.1091497259E-12   0.9407760633E-14  -0.1620451999E-12   0.7275000010E-01  -0.3635225005E-01  -0.3635225005E-01  -0.2598547316E-14  -0.1325037543E-15  -0.6271950993E-14   0.1137500002E+02
   0.2145500000E+01   0.0000000000E+00  -0.8770292789E-14  -0.4500000000E-02   0.0000000000E+00  -0.5014483037E-14   0.1500000000E+00   0.0000000000E+00  -0.3755809752E-14   0.1137500002E+02   0.1684567108E-11   0.1287955693E-11  -0.1852645923E-12  -0.1183132294E-12   0.8559159714E-13   0.7275000011E-01  -0.3635225005E-01  -0.3635225005E-01  -0.2337573473E-14   0.2189870703E-15   0.1427601440E-14   0.1137500002E+02
   0.2145500000E+01   0.9636477500E+00  -0.8054499033E-14  -0.4500000000E-02   0.1122750000E-02  -0.4462203709E-14   0.1500000000E+00  -0.3747500000E-01  -0.3592295324E-14   0.1137500002E+02  -0.1304235352E-11  -0.1513725502E-11  -0.6793284500E-13  -0.2055406125E-12  -0.6942786998E-13   0.7275000010E-01  -0.3635225005E-01  -0.3635225005E-01  -0.2958938152E-15  -0.2057444606E-14  -0.2715167071E-14   0.1137500002E+02
   0.2145500000E+01   0.0000000000E+00   0.9636477500E+00  -0.4500000000E-02   0.0000000000E+00   0.1122750000E-02   0.1500000000E+00   0.0000000000E+00  -0.3747500000E-01   0.1137500002E+02  -0.3495434645E-12  -0.4296458479E-12  -0.1925695458E-12  -0.2340189954E-12   0.1753569524E-12   0.7275000010E-01  -0.3635225005E-01  -0.3635225005E-01  -0.2330158683E-14  -0.1960609110E-14   0.2459020578E-14   0.1137500002E+02
   0.2145500000E+01   0.9636477500E+00   0.9636477500E+00  -0.4500000000E-02   0.1122750000E-02   0.1122750000E-02   0.1500000000E+00  -0.3747500000E-01  -0.3747500000E-01   0.1137500001E+02   0.1358334801E-11   0.1455263679E-11  -0.7726140717E-13  -0.3191033191E-12   0.2111932429E-13   0.7275000009E-01  -0.3635225005E-01  -0.3635225005E-01  -0.1834910316E-15  -0.3872155359E-14  -0.1656053609E-14   0.1137500001E+02
     1     2     3     4     5     6     7     8
     2     9    10     3     6    11    12     7
 VARIABLES = X,Y,Z,DU1,DU2,DU3,U1,U2,U3,S11,S22,S33,S12,S13,S23,E11,E22,E33,E12,E13,E23,SMISES
 ZONE, T="0.9100D+01" F=FEPOINT, I=   12 J=    2 ET=BRICK
   0.0000000000E+00   0.0000000000E+00   0.0000000000E+00   0.0000000000E+00   0.0000000000E+00   0.0000000000E+00   0.0000000000E+00   0.0000000000E+00   0.0000000000E+00   0.1025000002E+02  -0.3521688409E-13  -0.1753359959E-13  -0.9867158434E-16   0.6381677981E-14  -0.8359001125E-14   0.7050000011E-01  -0.3522950006E-01  -0.3522950006E-01   0.6991636923E-17  -0.5139306498E-14  -0.2052417324E-14   0.1025000002E+02
   0.1070500000E+01   0.0000000000E+00  -0.2333938835E-14  -0.2250000000E-02   0.0000000000E+00   0.2370388754E-14   0.7275000000E-01   0.0000000000E+00  -0.4704327589E-14   0.1025000002E+02   0.9345535305E-13   0.1108055705E-12   0.2539356902E-14   0.1358521954E-15  -0.9442592112E-14   0.7050000011E-01  -0.3522950005E-01  -0.3522950005E-01   0.2236741269E-16  -0.1687088617E-14   0.7846066720E-15   0.1025000002E+02
   0.1070500000E+01   0.9647705000E+00  -0.1940479004E-14  -0.2250000000E-02   0.1122750000E-02   0.1699814477E-14   0.7275000000E-01  -0.3635225000E-01  -0.3640293481E-14   0.1025000001E+02   0.8279621830E-13   0.1015541420E-12   0.3484220916E-14  -0.2224990505E-14   0.8001863585E-14   0.7050000010E-01  -0.3522950005E-01  -0.3522950005E-01  -0.2789801661E-15  -0.4509413978E-15  -0.1345657375E-14   0.1025000001E+02
   0.0000000000E+00   0.9647705000E+00  -0.1027784678E-14   0.0000000000E+00   0.1122750000E-02   0.6526186909E-15   0.0000000000E+00  -0.3635225000E-01  -0.1680403369E-14   0.1025000001E+02  -0.6560487934E-13  -0.4778082451E-13   0.1424046483E-14   0.4431757967E-14   0.1051895920E-13   0.7050000010E-01  -0.3522950005E-01  -0.3522950005E-01  -0.1275913135E-14  -0.1471949232E-14  -0.4157603211E-14   0.1025000001E+02
   0.0000000000E+00   0.0000000000E+00   0.9647705000E+00   0.0000000000E+00   0.0000000000E+00   0.1122750000E-02   0.0000000000E+00   0.0000000000E+00  -0.3635225000E-01   0.1025000001E+02   0.1426781816E-13  -0.1554918221E-14   0.1720519950E-15   0.3756278530E-14  -0.1124024728E-13   0.7050000010E-01  -0.3522950005E-01  -0.3522950005E-01  -0.6299038402E-17  -0.3867715131E-14  -0.2138760552E-14   0.1025000001E+02
   0.1070500000E+01   0.0000000000E+00   0.9647705000E+00  -0.2250000000E-02   0.0000000000E+00   0.1122750000E-02   0.7275000000E-01   0.0000000000E+00  -0.3635225000E-01   0.1025000001E+02  -0.8280196666E-14  -0.2522404426E-13  -0.2014532958E-15   0.2428169538E-15  -0.8568321826E-14   0.7050000010E-01  -0.3522950005E-01  -0.3522950005E-01   0.2487031947E-16  -0.1264727942E-14   0.7003812543E-15   0.1025000001E+02
   0.1070500000E+01   0.9647705000E+00   0.9647705000E+00  -0.2250000000E-02   0.1122750000E-02   0.1122750000E-02   0.7275000000E-01  -0.3635225000E-01  -0.3635225000E-01   0.1025000001E+02  -0.3714313094E-13  -0.5454700990E-13  -0.1294138517E-14  -0.1161951703E-14   0.8029916781E-14   0.7050000009E-01  -0.3522950005E-01  -0.3522950005E-01  -0.2832916649E-15  -0.1417924991E-15  -0.1410131434E-14   0.1025000001E+02
   0.0000000000E+00   0.9647705000E+00   0.9647705000E+00   0.0000000000E+00   0.1122750000E-02   0.1122750000E-02   0.0000000000E+00  -0.3635225000E-01  -0.3635225000E-01   0.1025000001E+02  -0.8836473705E-13  -0.1114155925E-12  -0.1364512023E-14   0.6956250090E-14   0.9279850155E-14   0.7050000009E-01  -0.3522950005E-01  -0.3522950005E-01  -0.1303129705E-14  -0.1740351573E-15  -0.4256722695E-14   0.1025000001E+02
   0.2141000000E+01   0.0000000000E+00  -0.3738490732E-14  -0.4500000000E-02   0.0000000000E+00   0.5031802057E-14   0.1455000000E+00   0.0000000000E+00  -0.8770292789E-14   0.1025000002E+02   0.1674567943E-12   0.1788081089E-12   0.2968897180E-14   0.4249036562E-15  -0.6577578188E-14   0.7050000011E-01  -0.3522950005E-01  -0.3522950005E-01  -0.7804525489E-16   0.1604594211E-14   0.3366391679E-15   0.1025000002E+02
   0.2141000000E+01   0.9647705000E+00  -0.3575415584E-14  -0.4500000000E-02   0.1122750000E-02   0.4479083449E-14   0.1455000000E+00  -0.3635225000E-01  -0.8054499033E-14   0.1025000001E+02   0.4019886357E-13   0.5848294968E-13   0.3012841596E-14  -0.6162125701E-14   0.8490338426E-14   0.7050000010E-01  -0.3522950005E-01  -0.3522950005E-01   0.6122187048E-15   0.4111583547E-15  -0.1784851725E-14   0.1025000001E+02
   0.2141000000E+01   0.0000000000E+00   0.9647705000E+00  -0.4500000000E-02   0.0000000000E+00   0.1122750000E-02   0.1455000000E+00   0.0000000000E+00  -0.3635225000E-01   0.1025000001E+02   0.2863961334E-13   0.1582828514E-13  -0.3369331719E-14  -0.3804025890E-14  -0.6968937235E-14   0.7050000010E-01  -0.3522950005E-01  -0.3522950005E-01   0.3243388192E-16   0.8412427692E-15   0.2417833773E-15   0.1025000001E+02
   0.2141000000E+01   0.9647705000E+00   0.9647705000E+00  -0.4500000000E-02   0.1122750000E-02   0.1122750000E-02   0.1455000000E+00  -0.3635225000E-01  -0.3635225000E-01   0.1025000001E+02   0.7797948071E-13   0.6188900983E-13  -0.4707894699E-14  -0.5804039729E-14   0.8937057807E-14   0.7050000009E-01  -0.3522950005E-01  -0.3522950005E-01   0.6527147865E-15  -0.2114973272E-15  -0.1831583380E-14   0.1025000001E+02
     1     2     3     4     5     6     7     8
     2     9    10     3     6    11    12     7
 VARIABLES = X,Y,Z,DU1,DU2,DU3,U1,U2,U3,S11,S22,S33,S12,S13,S23,E11,E22,E33,E12,E13,E23,SMISES
 ZONE, T="0.9150D+01" F=FEPOINT, I=   12 J=    2 ET=BRICK
   0.0000000000E+00   0.0000000000E+00   0.0000000000E+00   0.0000000000E+00   0.0000000000E+00   0.0000000000E+00   0.0000000000E+00   0.0000000000E+00   0.0000000000E+00   0.9125000014E+01   0.3603477780E-13   0.5144569989E-13  -0.9681682557E-16   0.5865880656E-14  -0.7912063378E-14   0.6825000011E-01  -0.3410675005E-01  -0.3410675005E-01  -0.3681751548E-17  -0.5109112535E-14  -0.2057762701E-14   0.9125000014E+01
   0.1068250000E+01   0.0000000000E+00  -0.2339549712E-14  -0.2250000000E-02   0.0000000000E+00  -0.5610876668E-17   0.7050000000E-01   0.0000000000E+00  -0.2333938835E-14   0.9125000014E+01  -0.3883217491E-13  -0.2371912720E-13   0.1884468462E-14  -0.3156978128E-16  -0.8856145922E-14   0.6825000011E-01  -0.3410675005E-01  -0.3410675005E-01   0.2250456912E-16  -0.1708307334E-14   0.7940368029E-15   0.9125000014E+01
   0.1068250000E+01   0.9658932500E+00  -0.1942736507E-14  -0.2250000000E-02   0.1122750000E-02  -0.2257502960E-17   0.7050000000E-01  -0.3522950000E-01  -0.1940479004E-14   0.9125000013E+01  -0.6533278497E-13  -0.4708136472E-13   0.2916053726E-14  -0.2189577233E-14   0.6988732969E-14   0.6825000010E-01  -0.3410675005E-01  -0.3410675005E-01  -0.2677829825E-15  -0.4525062347E-15  -0.1340453624E-14   0.9125000013E+01
   0.0000000000E+00   0.9658932500E+00  -0.1025067862E-14   0.0000000000E+00   0.1122750000E-02   0.2716816093E-17   0.0000000000E+00  -0.3522950000E-01  -0.1027784678E-14   0.9125000013E+01  -0.1556292834E-14   0.1510455470E-13   0.1149460599E-14   0.4103962056E-14   0.9259526041E-14   0.6825000010E-01  -0.3410675005E-01  -0.3410675005E-01  -0.1290115938E-14  -0.1478928016E-14  -0.4186719514E-14   0.9125000013E+01
   0.0000000000E+00   0.0000000000E+00   0.9658932500E+00   0.0000000000E+00   0.0000000000E+00   0.1122750000E-02   0.0000000000E+00   0.0000000000E+00  -0.3522950000E-01   0.9125000013E+01  -0.7967549755E-13  -0.9498230059E-13   0.1803310528E-15   0.3484504057E-14  -0.9996017705E-14   0.6825000010E-01  -0.3410675005E-01  -0.3410675005E-01  -0.2149264846E-16  -0.3837573341E-14  -0.2123728293E-14   0.9125000013E+01
   0.1068250000E+01   0.0000000000E+00   0.9658932500E+00  -0.2250000000E-02   0.0000000000E+00   0.1122750000E-02   0.7050000000E-01   0.0000000000E+00  -0.3522950000E-01   0.9125000013E+01  -0.1219224308E-13  -0.2838576534E-13  -0.5982272654E-15  -0.4690303402E-16  -0.7571482163E-14   0.6825000010E-01  -0.3410675005E-01  -0.3410675005E-01   0.6311700670E-16  -0.1325137850E-14   0.7177147569E-15   0.9125000013E+01
   0.1068250000E+01   0.9658932500E+00   0.9658932500E+00  -0.2250000000E-02   0.1122750000E-02   0.1122750000E-02   0.7050000000E-01  -0.3522950000E-01  -0.3522950000E-01   0.9125000012E+01   0.5259309854E-13   0.3742638934E-13  -0.1650705525E-14  -0.1142079262E-14   0.7641281135E-14   0.6825000009E-01  -0.3410675004E-01  -0.3410675004E-01  -0.3160259546E-15  -0.1080831618E-15  -0.1426838344E-14   0.9125000012E+01
   0.0000000000E+00   0.9658932500E+00   0.9658932500E+00   0.0000000000E+00   0.1122750000E-02   0.1122750000E-02   0.0000000000E+00  -0.3522950000E-01  -0.3522950000E-01   0.9125000012E+01   0.8148338105E-13   0.6175561425E-13  -0.1253003214E-14   0.6381314869E-14   0.8766384531E-14   0.6825000009E-01  -0.3410675005E-01  -0.3410675005E-01  -0.1284056568E-14  -0.1673638804E-15  -0.4228083079E-14   0.9125000012E+01
   0.2136500000E+01   0.0000000000E+00  -0.3760558256E-14  -0.4500000000E-02   0.0000000000E+00  -0.2206752444E-16   0.1410000000E+00   0.0000000000E+00  -0.3738490732E-14   0.9125000014E+01  -0.6084085394E-13  -0.5235765023E-13   0.2111569383E-14   0.5607912139E-15  -0.5919557012E-14   0.6825000010E-01  -0.3410675005E-01  -0.3410675005E-01  -0.5201553471E-16   0.1634385522E-14   0.3370864427E-15   0.9125000014E+01
   0.2136500000E+01   0.9658932500E+00  -0.3593317419E-14  -0.4500000000E-02   0.1122750000E-02  -0.1790183475E-16   0.1410000000E+00  -0.3522950000E-01  -0.3575415584E-14   0.9125000013E+01   0.6400842553E-14   0.2234908409E-13   0.2726496093E-14  -0.5343061530E-14   0.7245290369E-14   0.6825000010E-01  -0.3410675005E-01  -0.3410675005E-01   0.6102878192E-15   0.2650527672E-15  -0.1808019643E-14   0.9125000013E+01
   0.2136500000E+01   0.0000000000E+00   0.9658932500E+00  -0.4500000000E-02   0.0000000000E+00   0.1122750000E-02   0.1410000000E+00   0.0000000000E+00  -0.3522950000E-01   0.9125000013E+01  -0.2102113659E-12  -0.2218594868E-12  -0.3965851394E-14  -0.3348250650E-14  -0.5748411074E-14   0.6825000010E-01  -0.3410675005E-01  -0.3410675005E-01  -0.4955297061E-16   0.9221824134E-15   0.2548020515E-15   0.9125000013E+01
   0.2136500000E+01   0.9658932500E+00   0.9658932500E+00  -0.4500000000E-02   0.1122750000E-02   0.1122750000E-02   0.1410000000E+00  -0.3522950000E-01  -0.3522950000E-01   0.9125000012E+01  -0.2069443280E-13  -0.3496751915E-13  -0.5394102953E-14  -0.5123052404E-14   0.7958969009E-14   0.6825000009E-01  -0.3410675004E-01  -0.3410675004E-01   0.7169371970E-15  -0.2615762037E-15  -0.1806513116E-14   0.9125000012E+01
     1     2     3     4     5     6     7     8
     2     9    10     3     6    11    12     7
 VARIABLES = X,Y,Z,DU1,DU2,DU3,U1,U2,U3,S11,S22,S33,S12,S13,S23,E11,E22,E33,E12,E13,E23,SMISES
 ZONE, T="0.9200D+01" F=FEPOINT, I=   12 J=    2 ET=BRICK
   0.0000000000E+00   0.0000000000E+00   0.0000000000E+00   0.0000000000E+00   0.0000000000E+00   0.0000000000E+00   0.0000000000E+00   0.0000000000E+00   0.0000000000E+00   0.8000000013E+01  -0.6519003181E-14   0.8102415392E-14  -0.9811092361E-16   0.5961374559E-14  -0.7337879535E-14   0.6600000010E-01  -0.3298400005E-01  -0.3298400005E-01  -0.4173071133E-17  -0.5133244917E-14  -0.2054756600E-14   0.8000000013E+01
   0.1066000000E+01   0.0000000000E+00  -0.2340284253E-14  -0.2250000000E-02   0.0000000000E+00  -0.7345411828E-18   0.6825000000E-01   0.0000000000E+00  -0.2339549712E-14   0.8000000012E+01  -0.3562205919E-13  -0.2085296702E-13   0.2252213819E-14   0.3258951917E-16  -0.8513588042E-14   0.6600000010E-01  -0.3298400005E-01  -0.3298400005E-01   0.9112100659E-17  -0.1708274544E-14   0.8086042455E-15   0.8000000012E+01
   0.1066000000E+01   0.9670160000E+00  -0.1941461455E-14  -0.2250000000E-02   0.1122750000E-02   0.1275051358E-17   0.6825000000E-01  -0.3410675000E-01  -0.1942736507E-14   0.8000000011E+01   0.5680881910E-13   0.7413939509E-13   0.3106542193E-14  -0.2314877761E-14   0.6635592053E-14   0.6600000009E-01  -0.3298400005E-01  -0.3298400005E-01  -0.3267071307E-15  -0.4397970507E-15  -0.1357452066E-14   0.8000000011E+01
   0.0000000000E+00   0.9670160000E+00  -0.1021766894E-14   0.0000000000E+00   0.1122750000E-02   0.3300967753E-17   0.0000000000E+00  -0.3410675000E-01  -0.1025067862E-14   0.8000000012E+01   0.6048563956E-13   0.7573547230E-13   0.1235976467E-14   0.3866578323E-14   0.9153453261E-14   0.6600000010E-01  -0.3298400005E-01  -0.3298400005E-01  -0.1267834418E-14  -0.1474486372E-14  -0.4147683003E-14   0.8000000012E+01
   0.0000000000E+00   0.0000000000E+00   0.9670160000E+00   0.0000000000E+00   0.0000000000E+00   0.1122750000E-02   0.0000000000E+00   0.0000000000E+00  -0.3410675000E-01   0.8000000012E+01  -0.4718220660E-14  -0.1898771284E-13   0.1632373231E-15   0.3238875966E-14  -0.9899947897E-14   0.6600000010E-01  -0.3298400005E-01  -0.3298400005E-01   0.1187544642E-16  -0.3841901562E-14  -0.2132797460E-14   0.8000000012E+01
   0.1066000000E+01   0.0000000000E+00   0.9670160000E+00  -0.2250000000E-02   0.0000000000E+00   0.1122750000E-02   0.6825000000E-01   0.0000000000E+00  -0.3410675000E-01   0.8000000011E+01  -0.5898727485E-13  -0.7456327133E-13  -0.3305541068E-15   0.1234423651E-16  -0.7402828064E-14   0.6600000009E-01  -0.3298400005E-01  -0.3298400005E-01  -0.1337585104E-17  -0.1358552950E-14   0.7149760073E-15   0.8000000011E+01
   0.1066000000E+01   0.9670160000E+00   0.9670160000E+00  -0.2250000000E-02   0.1122750000E-02   0.1122750000E-02   0.6825000000E-01  -0.3410675000E-01  -0.3410675000E-01   0.8000000010E+01   0.1681589315E-13   0.2599776533E-14  -0.1331693357E-14  -0.1064655710E-14   0.7147541196E-14   0.6600000009E-01  -0.3298400004E-01  -0.3298400004E-01  -0.2660144532E-15  -0.1418237645E-15  -0.1410910009E-14   0.8000000010E+01
   0.0000000000E+00   0.9670160000E+00   0.9670160000E+00   0.0000000000E+00   0.1122750000E-02   0.1122750000E-02   0.0000000000E+00  -0.3410675000E-01  -0.3410675000E-01   0.8000000011E+01  -0.8747781348E-14  -0.2851472631E-13  -0.1460076471E-14   0.6271463712E-14   0.8261808465E-14   0.6600000009E-01  -0.3298400004E-01  -0.3298400004E-01  -0.1310413559E-14  -0.1766001649E-15  -0.4264361685E-14   0.8000000011E+01
   0.2132000000E+01   0.0000000000E+00  -0.3765474473E-14  -0.4500000000E-02   0.0000000000E+00  -0.4916216594E-17   0.1365000000E+00   0.0000000000E+00  -0.3760558256E-14   0.8000000012E+01   0.3861241425E-13   0.4709415918E-13   0.2526427918E-14   0.9755552011E-15  -0.5665614356E-14   0.6600000010E-01  -0.3298400005E-01  -0.3298400005E-01  -0.8518970959E-16   0.1460264431E-14   0.3299884693E-15   0.8000000012E+01
   0.2132000000E+01   0.9670160000E+00  -0.3596708850E-14  -0.4500000000E-02   0.1122750000E-02  -0.3391430630E-17   0.1365000000E+00  -0.3410675000E-01  -0.3593317419E-14   0.8000000011E+01  -0.8461961187E-13  -0.6871745164E-13   0.2829023410E-14  -0.5328734234E-14   0.7363270237E-14   0.6600000009E-01  -0.3298400005E-01  -0.3298400005E-01   0.5160911586E-15   0.3825561210E-15  -0.1760715065E-14   0.8000000011E+01
   0.2132000000E+01   0.0000000000E+00   0.9670160000E+00  -0.4500000000E-02   0.0000000000E+00   0.1122750000E-02   0.1365000000E+00   0.0000000000E+00  -0.3410675000E-01   0.8000000011E+01   0.5141676748E-13   0.4035097971E-13  -0.3803656515E-14  -0.2975230551E-14  -0.5665962837E-14   0.6600000009E-01  -0.3298400005E-01  -0.3298400005E-01  -0.3091394292E-16   0.8457810877E-15   0.2789938371E-15   0.8000000011E+01
   0.2132000000E+01   0.9670160000E+00   0.9670160000E+00  -0.4500000000E-02   0.1122750000E-02   0.1122750000E-02   0.1365000000E+00  -0.3410675000E-01  -0.3410675000E-01   0.8000000010E+01   0.1044168067E-12   0.9064876503E-13  -0.4991277292E-14  -0.5315563248E-14   0.7833793008E-14   0.6600000008E-01  -0.3298400004E-01  -0.3298400004E-01   0.7317027188E-15  -0.2081668241E-15  -0.1865121846E-14   0.8000000010E+01
     1     2     3     4     5     6     7     8
     2     9    10     3     6    11    12     7
 VARIABLES = X,Y,Z,DU1,DU2,DU3,U1,U2,U3,S11,S22,S33,S12,S13,S23,E11,E22,E33,E12,E13,E23,SMISES
 ZONE, T="0.9250D+01" F=FEPOINT, I=   12 J=    2 ET=BRICK
   0.0000000000E+00   0.0000000000E+00   0.0000000000E+00   0.0000000000E+00   0.0000000000E+00   0.0000000000E+00   0.0000000000E+00   0.0000000000E+00   0.0000000000E+00   0.6875000011E+01   0.9495732064E-13   0.1108762050E-12  -0.9278210556E-16   0.6175014893E-14  -0.7962473469E-14   0.6375000010E-01  -0.3186125005E-01  -0.3186125005E-01  -0.2938661068E-17  -0.5147978266E-14  -0.2055161268E-14   0.6875000011E+01
   0.1063750000E+01   0.0000000000E+00  -0.2336640828E-14  -0.2250000000E-02   0.0000000000E+00   0.3643425083E-17   0.6600000000E-01   0.0000000000E+00  -0.2340284253E-14   0.6875000011E+01   0.7075642172E-13   0.8698260999E-13   0.1862007734E-14  -0.1164043801E-15  -0.8936186498E-14   0.6375000010E-01  -0.3186125005E-01  -0.3186125005E-01  -0.2941962310E-17  -0.1680575466E-14   0.7927715332E-15   0.6875000011E+01
   0.1063750000E+01   0.9681387500E+00  -0.1940469550E-14  -0.2250000000E-02   0.1122750000E-02   0.9919057727E-18   0.6600000000E-01  -0.3298400000E-01  -0.1941461455E-14   0.6875000010E+01   0.1312574613E-13   0.3191341814E-13   0.2723134969E-14  -0.1976101556E-14   0.7617813568E-14   0.6375000009E-01  -0.3186125005E-01  -0.3186125005E-01  -0.2970719592E-15  -0.4792757991E-15  -0.1345495377E-14   0.6875000010E+01
   0.0000000000E+00   0.9681387500E+00  -0.1025526886E-14   0.0000000000E+00   0.1122750000E-02  -0.3759991990E-17   0.0000000000E+00  -0.3298400000E-01  -0.1021766894E-14   0.6875000010E+01  -0.9312857869E-13  -0.7640279015E-13   0.1357761463E-14   0.4390929378E-14   0.9770688871E-14   0.6375000009E-01  -0.3186125005E-01  -0.3186125005E-01  -0.1284942394E-14  -0.1447259627E-14  -0.4160044362E-14   0.6875000010E+01
   0.0000000000E+00   0.0000000000E+00   0.9681387500E+00   0.0000000000E+00   0.0000000000E+00   0.1122750000E-02   0.0000000000E+00   0.0000000000E+00  -0.3298400000E-01   0.6875000010E+01  -0.9814515851E-13  -0.1132462499E-12   0.1664741380E-15   0.3657225424E-14  -0.1041232044E-13   0.6375000009E-01  -0.3186125005E-01  -0.3186125005E-01   0.5077013232E-17  -0.3845716858E-14  -0.2158275003E-14   0.6875000010E+01
   0.1063750000E+01   0.0000000000E+00   0.9681387500E+00  -0.2250000000E-02   0.0000000000E+00   0.1122750000E-02   0.6600000000E-01   0.0000000000E+00  -0.3298400000E-01   0.6875000010E+01  -0.2434071105E-13  -0.4076716657E-13  -0.1360438103E-15  -0.1670882562E-15  -0.8211490545E-14   0.6375000009E-01  -0.3186125005E-01  -0.3186125005E-01   0.3376804064E-16  -0.1359746671E-14   0.7557984700E-15   0.6875000010E+01
   0.1063750000E+01   0.9681387500E+00   0.9681387500E+00  -0.2250000000E-02   0.1122750000E-02   0.1122750000E-02   0.6600000000E-01  -0.3298400000E-01  -0.3298400000E-01   0.6875000009E+01   0.1089065431E-13  -0.5995832500E-14  -0.9445474899E-15  -0.8003993732E-15   0.7831782260E-14   0.6375000008E-01  -0.3186125004E-01  -0.3186125004E-01  -0.3080115332E-15  -0.1294809740E-15  -0.1409166348E-14   0.6875000009E+01
   0.0000000000E+00   0.9681387500E+00   0.9681387500E+00   0.0000000000E+00   0.1122750000E-02   0.1122750000E-02   0.0000000000E+00  -0.3298400000E-01  -0.3298400000E-01   0.6875000009E+01   0.7644436231E-13   0.5608963989E-13  -0.1130926866E-14   0.6354849851E-14   0.8947394718E-14   0.6375000009E-01  -0.3186125004E-01  -0.3186125004E-01  -0.1283547223E-14  -0.1668962309E-15  -0.4249723687E-14   0.6875000009E+01
   0.2127500000E+01   0.0000000000E+00  -0.3748911618E-14  -0.4500000000E-02   0.0000000000E+00   0.1656285491E-16   0.1320000000E+00   0.0000000000E+00  -0.3765474473E-14   0.6875000010E+01   0.4335551312E-13   0.5366008690E-13   0.2628826809E-14   0.3933057326E-15  -0.6330401676E-14   0.6375000010E-01  -0.3186125005E-01  -0.3186125005E-01  -0.1242002581E-15   0.1422083976E-14   0.3259757629E-15   0.6875000010E+01
   0.2127500000E+01   0.9681387500E+00  -0.3583935887E-14  -0.4500000000E-02   0.1122750000E-02   0.1277296289E-16   0.1320000000E+00  -0.3298400000E-01  -0.3596708850E-14   0.6875000010E+01   0.3944745907E-13   0.5601867069E-13   0.2909281079E-14  -0.5580674732E-14   0.7992697213E-14   0.6375000009E-01  -0.3186125004E-01  -0.3186125004E-01   0.4992107978E-15   0.3198205875E-15  -0.1758273597E-14   0.6875000010E+01
   0.2127500000E+01   0.0000000000E+00   0.9681387500E+00  -0.4500000000E-02   0.0000000000E+00   0.1122750000E-02   0.1320000000E+00   0.0000000000E+00  -0.3298400000E-01   0.6875000010E+01   0.1732754553E-15  -0.1253101599E-13  -0.3474622310E-14  -0.3511743748E-14  -0.6525870851E-14   0.6375000009E-01  -0.3186125004E-01  -0.3186125004E-01   0.3480273470E-16   0.8202387300E-15   0.2506035215E-15   0.6875000010E+01
   0.2127500000E+01   0.9681387500E+00   0.9681387500E+00  -0.4500000000E-02   0.1122750000E-02   0.1122750000E-02   0.1320000000E+00  -0.3298400000E-01  -0.3298400000E-01   0.6875000009E+01  -0.4454038905E-13  -0.6019075635E-13  -0.4727584357E-14  -0.5651318591E-14   0.8135826062E-14   0.6375000008E-01  -0.3186125004E-01  -0.3186125004E-01   0.6999547971E-15  -0.2966995430E-15  -0.1835195815E-14   0.6875000009E+01
     1     2     3     4     5     6     7     8
     2     9    10     3     6    11    12     7
 VARIABLES = X,Y,Z,DU1,DU2,DU3,U1,U2,U3,S11,S22,S33,S12,S13,S23,E11,E22,E33,E12,E13,E23,SMISES
 ZONE, T="0.9300D+01" F=FEPOINT, I=   12 J=    2 ET=BRICK
   0.0000000000E+00   0.0000000000E+00   0.0000000000E+00   0.0000000000E+00   0.0000000000E+00   0.0000000000E+00   0.0000000000E+00   0.0000000000E+00   0.0000000000E+00   0.5750000009E+01  -0.1018506219E-14   0.1366406332E-13  -0.5927841189E-16   0.5954403729E-14  -0.7774460651E-14   0.6150000010E-01  -0.3073850005E-01  -0.3073850005E-01   0.6017613753E-17  -0.5113499784E-14  -0.2041183935E-14   0.5750000009E+01
   0.1061500000E+01   0.0000000000E+00  -0.2338614147E-14  -0.2250000000E-02   0.0000000000E+00  -0.1973319402E-17   0.6375000000E-01   0.0000000000E+00  -0.2336640828E-14   0.5750000009E+01   0.2312769265E-13   0.3892320708E-13   0.1813766527E-14   0.1185868242E-15  -0.8776731727E-14   0.6150000009E-01  -0.3073850005E-01  -0.3073850005E-01  -0.1603837639E-16  -0.1687496161E-14   0.7923941437E-15   0.5750000009E+01
   0.1061500000E+01   0.9692615000E+00  -0.1941580288E-14  -0.2250000000E-02   0.1122750000E-02  -0.1110738546E-17   0.6375000000E-01  -0.3186125000E-01  -0.1940469550E-14   0.5750000008E+01  -0.9950340314E-13  -0.8099873118E-13   0.2709427585E-14  -0.2189739859E-14   0.7133537303E-14   0.6150000009E-01  -0.3073850004E-01  -0.3073850004E-01  -0.3415673847E-15  -0.4304297399E-15  -0.1367881818E-14   0.5750000008E+01
   0.0000000000E+00   0.9692615000E+00  -0.1024315378E-14   0.0000000000E+00   0.1122750000E-02   0.1211507736E-17   0.0000000000E+00  -0.3186125000E-01  -0.1025526886E-14   0.5750000008E+01  -0.3860459264E-13  -0.2199055584E-13   0.1190732452E-14   0.4140934019E-14   0.9459654106E-14   0.6150000009E-01  -0.3073850004E-01  -0.3073850004E-01  -0.1261096870E-14  -0.1493660972E-14  -0.4173941675E-14   0.5750000008E+01
   0.0000000000E+00   0.0000000000E+00   0.9692615000E+00   0.0000000000E+00   0.0000000000E+00   0.1122750000E-02   0.0000000000E+00   0.0000000000E+00  -0.3186125000E-01   0.5750000008E+01  -0.5606642039E-13  -0.7102601182E-13   0.1563811851E-15   0.3607035571E-14  -0.1004487874E-13   0.6150000009E-01  -0.3073850004E-01  -0.3073850004E-01   0.2830321550E-17  -0.3841238515E-14  -0.2116815030E-14   0.5750000008E+01
   0.1061500000E+01   0.0000000000E+00   0.9692615000E+00  -0.2250000000E-02   0.0000000000E+00   0.1122750000E-02   0.6375000000E-01   0.0000000000E+00  -0.3186125000E-01   0.5750000008E+01  -0.2714071319E-15  -0.1633358863E-13  -0.4825051633E-15  -0.2149073500E-15  -0.7857287472E-14   0.6150000009E-01  -0.3073850004E-01  -0.3073850004E-01   0.2673515059E-16  -0.1359181014E-14   0.7279178182E-15   0.5750000008E+01
   0.1061500000E+01   0.9692615000E+00   0.9692615000E+00  -0.2250000000E-02   0.1122750000E-02   0.1122750000E-02   0.6375000000E-01  -0.3186125000E-01  -0.3186125000E-01   0.5750000008E+01   0.2346139124E-13   0.7541830026E-14  -0.1385165669E-14  -0.1022327931E-14   0.7662094672E-14   0.6150000008E-01  -0.3073850004E-01  -0.3073850004E-01  -0.2802159115E-15  -0.1314026737E-15  -0.1396172167E-14   0.5750000008E+01
   0.0000000000E+00   0.9692615000E+00   0.9692615000E+00   0.0000000000E+00   0.1122750000E-02   0.1122750000E-02   0.0000000000E+00  -0.3186125000E-01  -0.3186125000E-01   0.5750000008E+01   0.7997918532E-13   0.5987499248E-13  -0.1249334708E-14   0.6245534339E-14   0.8726056150E-14   0.6150000008E-01  -0.3073850004E-01  -0.3073850004E-01  -0.1319510746E-14  -0.1585052175E-15  -0.4263703211E-14   0.5750000008E+01
   0.2123000000E+01   0.0000000000E+00  -0.3756962857E-14  -0.4500000000E-02   0.0000000000E+00  -0.8051239372E-17   0.1275000000E+00   0.0000000000E+00  -0.3748911618E-14   0.5750000009E+01   0.1082810643E-13   0.1988003240E-13   0.2014153882E-14   0.4542953466E-15  -0.6195979690E-14   0.6150000009E-01  -0.3073850005E-01  -0.3073850005E-01  -0.1128264940E-15   0.1501723170E-14   0.3365898753E-15   0.5750000009E+01
   0.2123000000E+01   0.9692615000E+00  -0.3591214350E-14  -0.4500000000E-02   0.1122750000E-02  -0.7278463733E-17   0.1275000000E+00  -0.3186125000E-01  -0.3583935887E-14   0.5750000008E+01  -0.5866323249E-13  -0.4259779491E-13   0.2614801566E-14  -0.5289294631E-14   0.7368171251E-14   0.6150000009E-01  -0.3073850004E-01  -0.3073850004E-01   0.5664262877E-15   0.3343844951E-15  -0.1783060743E-14   0.5750000008E+01
   0.2123000000E+01   0.0000000000E+00   0.9692615000E+00  -0.4500000000E-02   0.0000000000E+00   0.1122750000E-02   0.1275000000E+00   0.0000000000E+00  -0.3186125000E-01   0.5750000008E+01  -0.8121328305E-13  -0.9404818585E-13  -0.3985235211E-14  -0.3152378694E-14  -0.5808339476E-14   0.6150000009E-01  -0.3073850004E-01  -0.3073850004E-01   0.8860462694E-18   0.8999199493E-15   0.2717214095E-15   0.5750000008E+01
   0.2123000000E+01   0.9692615000E+00   0.9692615000E+00  -0.4500000000E-02   0.1122750000E-02   0.1122750000E-02   0.1275000000E+00  -0.3186125000E-01  -0.3186125000E-01   0.5750000007E+01   0.1056909794E-12   0.9142858615E-13  -0.5314489843E-14  -0.5398876445E-14   0.8059698318E-14   0.6150000008E-01  -0.3073850004E-01  -0.3073850004E-01   0.6468198533E-15  -0.1909359948E-15  -0.1856283876E-14   0.5750000007E+01
     1     2     3     4     5     6     7     8
     2     9    10     3     6    11    12     7
 VARIABLES = X,Y,Z,DU1,DU2,DU3,U1,U2,U3,S11,S22,S33,S12,S13,S23,E11,E22,E33,E12,E13,E23,SMISES
 ZONE, T="0.9350D+01" F=FEPOINT, I=   12 J=    2 ET=BRICK
   0.0000000000E+00   0.0000000000E+00   0.0000000000E+00   0.0000000000E+00   0.0000000000E+00   0.0000000000E+00   0.0000000000E+00   0.0000000000E+00   0.0000000000E+00   0.4625000007E+01   0.7719874728E-13   0.9189419823E-13  -0.5336698677E-16   0.6142561111E-14  -0.7445438833E-14   0.5925000009E-01  -0.2961575005E-01  -0.2961575005E-01   0.2383177439E-18  -0.5154671136E-14  -0.2031956702E-14   0.4625000007E+01
   0.1059250000E+01   0.0000000000E+00  -0.2337942291E-14  -0.2250000000E-02   0.0000000000E+00   0.6718557878E-18   0.6150000000E-01   0.0000000000E+00  -0.2338614147E-14   0.4625000007E+01  -0.9696313226E-15   0.1480012029E-13   0.2262159003E-14   0.2250341712E-15  -0.8645119765E-14   0.5925000009E-01  -0.2961575005E-01  -0.2961575005E-01   0.1386639834E-16  -0.1650068260E-14   0.7885935387E-15   0.4625000007E+01
   0.1059250000E+01   0.9703842500E+00  -0.1940055975E-14  -0.2250000000E-02   0.1122750000E-02   0.1524313000E-17   0.6150000000E-01  -0.3073850000E-01  -0.1941580288E-14   0.4625000007E+01   0.1753678261E-13   0.3570148456E-13   0.3048979291E-14  -0.2260927310E-14   0.7014849099E-14   0.5925000008E-01  -0.2961575004E-01  -0.2961575004E-01  -0.3043243220E-15  -0.4333393706E-15  -0.1360180285E-14   0.4625000007E+01
   0.0000000000E+00   0.9703842500E+00  -0.1022429342E-14   0.0000000000E+00   0.1122750000E-02   0.1886036902E-17   0.0000000000E+00  -0.3073850000E-01  -0.1024315378E-14   0.4625000007E+01  -0.5020606790E-13  -0.3445391266E-13   0.1272892119E-14   0.4056570531E-14   0.9618109873E-14   0.5925000009E-01  -0.2961575004E-01  -0.2961575004E-01  -0.1287335584E-14  -0.1472519828E-14  -0.4174882640E-14   0.4625000007E+01
   0.0000000000E+00   0.0000000000E+00   0.9703842500E+00   0.0000000000E+00   0.0000000000E+00   0.1122750000E-02   0.0000000000E+00   0.0000000000E+00  -0.3073850000E-01   0.4625000007E+01   0.1308448424E-13  -0.9522701579E-15   0.1556645287E-15   0.3491019824E-14  -0.1034595485E-13   0.5925000009E-01  -0.2961575004E-01  -0.2961575004E-01  -0.5259945934E-17  -0.3867519006E-14  -0.2121156974E-14   0.4625000007E+01
   0.1059250000E+01   0.0000000000E+00   0.9703842500E+00  -0.2250000000E-02   0.0000000000E+00   0.1122750000E-02   0.6150000000E-01   0.0000000000E+00  -0.3073850000E-01   0.4625000007E+01  -0.3167589864E-13  -0.4752002105E-13  -0.2666967061E-15  -0.2905981170E-15  -0.7819924071E-14   0.5925000008E-01  -0.2961575004E-01  -0.2961575004E-01   0.3814376641E-16  -0.1293599208E-14   0.7227883230E-15   0.4625000007E+01
   0.1059250000E+01   0.9703842500E+00   0.9703842500E+00  -0.2250000000E-02   0.1122750000E-02   0.1122750000E-02   0.6150000000E-01  -0.3073850000E-01  -0.3073850000E-01   0.4625000006E+01  -0.2909839541E-13  -0.4511410474E-13  -0.1264859788E-14  -0.8956715346E-15   0.7415744750E-14   0.5925000008E-01  -0.2961575004E-01  -0.2961575004E-01  -0.3062021318E-15  -0.1311931337E-15  -0.1399379123E-14   0.4625000006E+01
   0.0000000000E+00   0.9703842500E+00   0.9703842500E+00   0.0000000000E+00   0.1122750000E-02   0.1122750000E-02   0.0000000000E+00  -0.3073850000E-01  -0.3073850000E-01   0.4625000006E+01  -0.2319997567E-13  -0.4325609446E-13  -0.1244849876E-14   0.6299348404E-14   0.8236727716E-14   0.5925000008E-01  -0.2961575004E-01  -0.2961575004E-01  -0.1292244995E-14  -0.1739051770E-15  -0.4282599895E-14   0.4625000006E+01
   0.2118500000E+01   0.0000000000E+00  -0.3757768258E-14  -0.4500000000E-02   0.0000000000E+00  -0.8054003885E-18   0.1230000000E+00   0.0000000000E+00  -0.3756962857E-14   0.4625000007E+01   0.7747641059E-13   0.8670775144E-13   0.2900613174E-14   0.4513091931E-15  -0.5765582596E-14   0.5925000009E-01  -0.2961575004E-01  -0.2961575004E-01  -0.8161960937E-16   0.1582716389E-14   0.3371343577E-15   0.4625000007E+01
   0.2118500000E+01   0.9703842500E+00  -0.3589563253E-14  -0.4500000000E-02   0.1122750000E-02   0.1651097722E-17   0.1230000000E+00  -0.3073850000E-01  -0.3591214350E-14   0.4625000006E+01   0.1101161748E-12   0.1259412421E-12   0.3298952997E-14  -0.5508993308E-14   0.7383626765E-14   0.5925000008E-01  -0.2961575004E-01  -0.2961575004E-01   0.5477489869E-15   0.3318976967E-15  -0.1768259039E-14   0.4625000006E+01
   0.2118500000E+01   0.0000000000E+00   0.9703842500E+00  -0.4500000000E-02   0.0000000000E+00   0.1122750000E-02   0.1230000000E+00   0.0000000000E+00  -0.3073850000E-01   0.4625000006E+01  -0.7358215245E-13  -0.8532768476E-13  -0.3858383409E-14  -0.2780428687E-14  -0.5681262755E-14   0.5925000008E-01  -0.2961575004E-01  -0.2961575004E-01  -0.2483329851E-16   0.8535047154E-15   0.2560709218E-15   0.4625000006E+01
   0.2118500000E+01   0.9703842500E+00   0.9703842500E+00  -0.4500000000E-02   0.1122750000E-02   0.1122750000E-02   0.1230000000E+00  -0.3073850000E-01  -0.3073850000E-01   0.4625000006E+01  -0.2892861445E-13  -0.4252142232E-13  -0.5356875737E-14  -0.5701173277E-14   0.7910602247E-14   0.5925000008E-01  -0.2961575004E-01  -0.2961575004E-01   0.7083931932E-15  -0.2066543392E-15  -0.1846816563E-14   0.4625000006E+01
     1     2     3     4     5     6     7     8
     2     9    10     3     6    11    12     7
 VARIABLES = X,Y,Z,DU1,DU2,DU3,U1,U2,U3,S11,S22,S33,S12,S13,S23,E11,E22,E33,E12,E13,E23,SMISES
 ZONE, T="0.9400D+01" F=FEPOINT, I=   12 J=    2 ET=BRICK
   0.0000000000E+00   0.0000000000E+00   0.0000000000E+00   0.0000000000E+00   0.0000000000E+00   0.0000000000E+00   0.0000000000E+00   0.0000000000E+00   0.0000000000E+00   0.3500000005E+01   0.1069299023E-12   0.1211418905E-12  -0.6516437834E-16   0.6013087546E-14  -0.7565902708E-14   0.5700000009E-01  -0.2849300004E-01  -0.2849300004E-01   0.3174339794E-17  -0.5114513801E-14  -0.2048675618E-14   0.3500000005E+01
   0.1057000000E+01   0.0000000000E+00  -0.2338355645E-14  -0.2250000000E-02   0.0000000000E+00  -0.4133538728E-18   0.5925000000E-01   0.0000000000E+00  -0.2337942291E-14   0.3500000005E+01   0.4740800633E-13   0.6318320227E-13   0.2152400621E-14   0.1626393061E-15  -0.8683292703E-14   0.5700000009E-01  -0.2849300004E-01  -0.2849300004E-01  -0.4535725396E-17  -0.1696242644E-14   0.7974764626E-15   0.3500000005E+01
   0.1057000000E+01   0.9715070000E+00  -0.1940614289E-14  -0.2250000000E-02   0.1122750000E-02  -0.5583140399E-18   0.5925000000E-01  -0.2961575000E-01  -0.1940055975E-14   0.3500000005E+01   0.7739388995E-14   0.2607606871E-13   0.2928688110E-14  -0.2178944565E-14   0.7011193200E-14   0.5700000008E-01  -0.2849300004E-01  -0.2849300004E-01  -0.3277317227E-15  -0.4307528298E-15  -0.1340624068E-14   0.3500000005E+01
   0.0000000000E+00   0.9715070000E+00  -0.1023225223E-14   0.0000000000E+00   0.1122750000E-02  -0.7958817171E-18   0.0000000000E+00  -0.2961575000E-01  -0.1022429342E-14   0.3500000005E+01   0.1113663736E-13   0.2689895183E-13   0.1300635898E-14   0.4066558304E-14   0.9552772025E-14   0.5700000008E-01  -0.2849300004E-01  -0.2849300004E-01  -0.1267151110E-14  -0.1483811219E-14  -0.4205688338E-14   0.3500000005E+01
   0.0000000000E+00   0.0000000000E+00   0.9715070000E+00   0.0000000000E+00   0.0000000000E+00   0.1122750000E-02   0.0000000000E+00   0.0000000000E+00  -0.2961575000E-01   0.3500000005E+01  -0.8120680241E-13  -0.9513724946E-13   0.1676532451E-15   0.3582454207E-14  -0.1019225355E-13   0.5700000008E-01  -0.2849300004E-01  -0.2849300004E-01   0.1818567947E-17  -0.3859528419E-14  -0.2096583406E-14   0.3500000005E+01
   0.1057000000E+01   0.0000000000E+00   0.9715070000E+00  -0.2250000000E-02   0.0000000000E+00   0.1122750000E-02   0.5925000000E-01   0.0000000000E+00  -0.2961575000E-01   0.3500000005E+01  -0.1172701978E-13  -0.2759146067E-13  -0.3058389756E-15  -0.2951030727E-15  -0.7755670997E-14   0.5700000008E-01  -0.2849300004E-01  -0.2849300004E-01   0.3270199107E-16  -0.1307727150E-14   0.7132416571E-15   0.3500000005E+01
   0.1057000000E+01   0.9715070000E+00   0.9715070000E+00  -0.2250000000E-02   0.1122750000E-02   0.1122750000E-02   0.5925000000E-01  -0.2961575000E-01  -0.2961575000E-01   0.3500000005E+01  -0.1406651641E-13  -0.2981409987E-13  -0.1253301298E-14  -0.9393167292E-15   0.7508063285E-14   0.5700000007E-01  -0.2849300004E-01  -0.2849300004E-01  -0.2719945219E-15  -0.1067149888E-15  -0.1414851167E-14   0.3500000005E+01
   0.0000000000E+00   0.9715070000E+00   0.9715070000E+00   0.0000000000E+00   0.1122750000E-02   0.1122750000E-02   0.0000000000E+00  -0.2961575000E-01  -0.2961575000E-01   0.3500000005E+01   0.4993865272E-13   0.2984461914E-13  -0.1279666393E-14   0.6366878501E-14   0.8416537399E-14   0.5700000008E-01  -0.2849300004E-01  -0.2849300004E-01  -0.1329392183E-14  -0.1860063171E-15  -0.4246624378E-14   0.3500000005E+01
   0.2114000000E+01   0.0000000000E+00  -0.3756976942E-14  -0.4500000000E-02   0.0000000000E+00   0.7913153635E-18   0.1185000000E+00   0.0000000000E+00  -0.3757768258E-14   0.3500000005E+01  -0.1507007749E-13  -0.5780503343E-14   0.2505102131E-14   0.8127706994E-15  -0.5941634290E-14   0.5700000009E-01  -0.2849300004E-01  -0.2849300004E-01  -0.1025050364E-15   0.1569493505E-14   0.3360469625E-15   0.3500000005E+01
   0.2114000000E+01   0.9715070000E+00  -0.3589757840E-14  -0.4500000000E-02   0.1122750000E-02  -0.1945868766E-18   0.1185000000E+00  -0.2961575000E-01  -0.3589563253E-14   0.3500000005E+01  -0.1311233915E-12  -0.1151568242E-12   0.2868619857E-14  -0.5410529053E-14   0.7434577374E-14   0.5700000008E-01  -0.2849300004E-01  -0.2849300004E-01   0.5220564266E-15   0.3865865638E-15  -0.1787398538E-14   0.3500000005E+01
   0.2114000000E+01   0.0000000000E+00   0.9715070000E+00  -0.4500000000E-02   0.0000000000E+00   0.1122750000E-02   0.1185000000E+00   0.0000000000E+00  -0.2961575000E-01   0.3500000005E+01   0.6284144479E-13   0.5075667186E-13  -0.4028738029E-14  -0.3004763754E-14  -0.5812914197E-14   0.5700000008E-01  -0.2849300004E-01  -0.2849300004E-01  -0.4133307209E-16   0.8572715731E-15   0.2600004151E-15   0.3500000005E+01
   0.2114000000E+01   0.9715070000E+00   0.9715070000E+00  -0.4500000000E-02   0.1122750000E-02   0.1122750000E-02   0.1185000000E+00  -0.2961575000E-01  -0.2961575000E-01   0.3500000004E+01  -0.6703906536E-13  -0.8115995852E-13  -0.5282793913E-14  -0.5593630549E-14   0.7986833614E-14   0.5700000007E-01  -0.2849300004E-01  -0.2849300004E-01   0.7081543171E-15  -0.1715018932E-15  -0.1840260798E-14   0.3500000004E+01
     1     2     3     4     5     6     7     8
     2     9    10     3     6    11    12     7
 VARIABLES = X,Y,Z,DU1,DU2,DU3,U1,U2,U3,S11,S22,S33,S12,S13,S23,E11,E22,E33,E12,E13,E23,SMISES
 ZONE, T="0.9450D+01" F=FEPOINT, I=   12 J=    2 ET=BRICK
   0.0000000000E+00   0.0000000000E+00   0.0000000000E+00   0.0000000000E+00   0.0000000000E+00   0.0000000000E+00   0.0000000000E+00   0.0000000000E+00   0.0000000000E+00   0.2375000004E+01   0.2283710532E-13   0.3733109718E-13  -0.3064511846E-16   0.6034164487E-14  -0.7769089218E-14   0.5475000009E-01  -0.2737025004E-01  -0.2737025004E-01   0.2807677584E-17  -0.5126063011E-14  -0.2063701745E-14   0.2375000004E+01
   0.1054750000E+01   0.0000000000E+00  -0.2338110165E-14  -0.2250000000E-02   0.0000000000E+00   0.2454799533E-18   0.5700000000E-01   0.0000000000E+00  -0.2338355645E-14   0.2375000004E+01   0.1251571912E-13   0.2847032990E-13   0.2113168993E-14   0.2690813173E-15  -0.8851350465E-14   0.5475000008E-01  -0.2737025004E-01  -0.2737025004E-01   0.1459298377E-17  -0.1683931103E-14   0.7930312410E-15   0.2375000004E+01
   0.1054750000E+01   0.9726297500E+00  -0.1941230339E-14  -0.2250000000E-02   0.1122750000E-02  -0.6160502732E-18   0.5700000000E-01  -0.2849300000E-01  -0.1940614289E-14   0.2375000003E+01   0.2965505646E-13   0.4839863993E-13   0.2899716666E-14  -0.2201881319E-14   0.7195675146E-14   0.5475000008E-01  -0.2737025004E-01  -0.2737025004E-01  -0.3415336475E-15  -0.4281378298E-15  -0.1351923111E-14   0.2375000003E+01
   0.0000000000E+00   0.9726297500E+00  -0.1024414472E-14   0.0000000000E+00   0.1122750000E-02  -0.1189249010E-17   0.0000000000E+00  -0.2849300000E-01  -0.1023225223E-14   0.2375000003E+01   0.1653389047E-13   0.3275290856E-13   0.1258335498E-14   0.4149321387E-14   0.9477435116E-14   0.5475000008E-01  -0.2737025004E-01  -0.2737025004E-01  -0.1269121313E-14  -0.1473007457E-14  -0.4172548953E-14   0.2375000003E+01
   0.0000000000E+00   0.0000000000E+00   0.9726297500E+00   0.0000000000E+00   0.0000000000E+00   0.1122750000E-02   0.0000000000E+00   0.0000000000E+00  -0.2849300000E-01   0.2375000003E+01   0.1401506429E-13   0.3481740506E-16   0.1289298425E-15   0.3525597093E-14  -0.1018401614E-13   0.5475000008E-01  -0.2737025004E-01  -0.2737025004E-01   0.1650704200E-17  -0.3856018489E-14  -0.2091675946E-14   0.2375000003E+01
   0.1054750000E+01   0.0000000000E+00   0.9726297500E+00  -0.2250000000E-02   0.0000000000E+00   0.1122750000E-02   0.5700000000E-01   0.0000000000E+00  -0.2849300000E-01   0.2375000003E+01  -0.3465288077E-13  -0.5094998823E-13  -0.3816754415E-15  -0.2276876884E-15  -0.7857144412E-14   0.5475000008E-01  -0.2737025004E-01  -0.2737025004E-01   0.2323779229E-16  -0.1311105964E-14   0.7168228563E-15   0.2375000003E+01
   0.1054750000E+01   0.9726297500E+00   0.9726297500E+00  -0.2250000000E-02   0.1122750000E-02   0.1122750000E-02   0.5700000000E-01  -0.2849300000E-01  -0.2849300000E-01   0.2375000003E+01   0.1992115524E-13   0.3801860702E-14  -0.1432172211E-14  -0.8732269259E-15   0.7665101009E-14   0.5475000007E-01  -0.2737025004E-01  -0.2737025004E-01  -0.2637650219E-15  -0.9088181253E-16  -0.1415030159E-14   0.2375000003E+01
   0.0000000000E+00   0.9726297500E+00   0.9726297500E+00   0.0000000000E+00   0.1122750000E-02   0.1122750000E-02   0.0000000000E+00  -0.2849300000E-01  -0.2849300000E-01   0.2375000003E+01   0.7251613392E-13   0.5263026714E-13  -0.1163243558E-14   0.6174634148E-14   0.8599515708E-14   0.5475000007E-01  -0.2737025004E-01  -0.2737025004E-01  -0.1314033359E-14  -0.2047792657E-15  -0.4253724965E-14   0.2375000003E+01
   0.2109500000E+01   0.0000000000E+00  -0.3755263917E-14  -0.4500000000E-02   0.0000000000E+00   0.1713025620E-17   0.1140000000E+00   0.0000000000E+00  -0.3756976942E-14   0.2375000004E+01   0.4229215744E-13   0.5171008325E-13   0.2572320329E-14   0.7945845973E-15  -0.6122581385E-14   0.5475000008E-01  -0.2737025004E-01  -0.2737025004E-01  -0.1193868614E-15   0.1499078741E-14   0.3302099702E-15   0.2375000004E+01
   0.2109500000E+01   0.9726297500E+00  -0.3589012035E-14  -0.4500000000E-02   0.1122750000E-02   0.7458041625E-18   0.1140000000E+00  -0.2849300000E-01  -0.3589757840E-14   0.2375000003E+01   0.3866555925E-14   0.2024175277E-13   0.2991428067E-14  -0.5576716331E-14   0.7523006913E-14   0.5475000008E-01  -0.2737025004E-01  -0.2737025004E-01   0.5296634146E-15   0.3312208309E-15  -0.1786064814E-14   0.2375000003E+01
   0.2109500000E+01   0.0000000000E+00   0.9726297500E+00  -0.4500000000E-02   0.0000000000E+00   0.1122750000E-02   0.1140000000E+00   0.0000000000E+00  -0.2849300000E-01   0.2375000003E+01  -0.1442129050E-12  -0.1563955518E-12  -0.4011765815E-14  -0.3438846246E-14  -0.5801371574E-14   0.5475000008E-01  -0.2737025004E-01  -0.2737025004E-01   0.1429249520E-16   0.8552710606E-15   0.2702218246E-15   0.2375000003E+01
   0.2109500000E+01   0.9726297500E+00   0.9726297500E+00  -0.4500000000E-02   0.1122750000E-02   0.1122750000E-02   0.1140000000E+00  -0.2849300000E-01  -0.2849300000E-01   0.2375000003E+01  -0.3354322244E-13  -0.4789804520E-13  -0.5134278655E-14  -0.5728406797E-14   0.8056351104E-14   0.5475000007E-01  -0.2737025004E-01  -0.2737025004E-01   0.6722503618E-15  -0.2302923896E-15  -0.1850238180E-14   0.2375000003E+01
     1     2     3     4     5     6     7     8
     2     9    10     3     6    11    12     7
 VARIABLES = X,Y,Z,DU1,DU2,DU3,U1,U2,U3,S11,S22,S33,S12,S13,S23,E11,E22,E33,E12,E13,E23,SMISES
 ZONE, T="0.9500D+01" F=FEPOINT, I=   12 J=    2 ET=BRICK
   0.0000000000E+00   0.0000000000E+00   0.0000000000E+00   0.0000000000E+00   0.0000000000E+00   0.0000000000E+00   0.0000000000E+00   0.0000000000E+00   0.0000000000E+00   0.1250000002E+01   0.1820261389E-14   0.1605578841E-13  -0.4636358023E-16   0.5999242510E-14  -0.7654100131E-14   0.5250000008E-01  -0.2624750004E-01  -0.2624750004E-01  -0.6910782143E-17  -0.5137130601E-14  -0.2052822957E-14   0.1250000002E+01
   0.1052500000E+01   0.0000000000E+00  -0.2338369087E-14  -0.2250000000E-02   0.0000000000E+00  -0.2589218086E-18   0.5475000000E-01   0.0000000000E+00  -0.2338110165E-14   0.1250000002E+01  -0.3220169387E-14   0.1258650066E-13   0.1983006367E-14   0.1168446349E-15  -0.8782842938E-14   0.5250000008E-01  -0.2624750004E-01  -0.2624750004E-01   0.5686454456E-17  -0.1671661283E-14   0.7946434073E-15   0.1250000002E+01
   0.1052500000E+01   0.9737525000E+00  -0.1940965653E-14  -0.2250000000E-02   0.1122750000E-02   0.2646866781E-18   0.5475000000E-01  -0.2737025000E-01  -0.1941230339E-14   0.1250000002E+01  -0.2295335683E-13  -0.4410503080E-14   0.2747708639E-14  -0.2122745065E-14   0.7182678213E-14   0.5250000007E-01  -0.2624750004E-01  -0.2624750004E-01  -0.3198181339E-15  -0.4010185643E-15  -0.1354054453E-14   0.1250000002E+01
   0.0000000000E+00   0.9737525000E+00  -0.1023893829E-14   0.0000000000E+00   0.1122750000E-02   0.5206433108E-18   0.0000000000E+00  -0.2737025000E-01  -0.1024414472E-14   0.1250000002E+01  -0.5739858442E-13  -0.4151422551E-13   0.1227149679E-14   0.4162579938E-14   0.9394989055E-14   0.5250000008E-01  -0.2624750004E-01  -0.2624750004E-01  -0.1280748314E-14  -0.1483604310E-14  -0.4176474162E-14   0.1250000002E+01
   0.0000000000E+00   0.0000000000E+00   0.9737525000E+00   0.0000000000E+00   0.0000000000E+00   0.1122750000E-02   0.0000000000E+00   0.0000000000E+00  -0.2737025000E-01   0.1250000002E+01  -0.1529431002E-12  -0.1669021657E-12   0.1281904393E-15   0.3548555653E-14  -0.1019603893E-13   0.5250000008E-01  -0.2624750004E-01  -0.2624750004E-01   0.9848561043E-17  -0.3872248944E-14  -0.2130643402E-14   0.1250000002E+01
   0.1052500000E+01   0.0000000000E+00   0.9737525000E+00  -0.2250000000E-02   0.0000000000E+00   0.1122750000E-02   0.5475000000E-01   0.0000000000E+00  -0.2737025000E-01   0.1250000002E+01  -0.3510765774E-13  -0.5110244304E-13  -0.2283184827E-15  -0.3946033992E-15  -0.7735889918E-14   0.5250000007E-01  -0.2624750004E-01  -0.2624750004E-01   0.2248516517E-16  -0.1292885652E-14   0.7297567660E-15   0.1250000002E+01
   0.1052500000E+01   0.9737525000E+00   0.9737525000E+00  -0.2250000000E-02   0.1122750000E-02   0.1122750000E-02   0.5475000000E-01  -0.2737025000E-01  -0.2737025000E-01   0.1250000002E+01  -0.1745893549E-13  -0.3347291904E-13  -0.1298067605E-14  -0.7122642398E-15   0.7546489891E-14   0.5250000007E-01  -0.2624750003E-01  -0.2624750003E-01  -0.3054389841E-15  -0.1359765554E-15  -0.1424392386E-14   0.1250000002E+01
   0.0000000000E+00   0.9737525000E+00   0.9737525000E+00   0.0000000000E+00   0.1122750000E-02   0.1122750000E-02   0.0000000000E+00  -0.2737025000E-01  -0.2737025000E-01   0.1250000002E+01   0.1484181280E-13  -0.5079744832E-14  -0.1265995423E-14   0.6211359133E-14   0.8571636890E-14   0.5250000007E-01  -0.2624750004E-01  -0.2624750004E-01  -0.1306849026E-14  -0.1825188045E-15  -0.4213919674E-14   0.1250000002E+01
   0.2105000000E+01   0.0000000000E+00  -0.3756322907E-14  -0.4500000000E-02   0.0000000000E+00  -0.1058990567E-17   0.1095000000E+00   0.0000000000E+00  -0.3755263917E-14   0.1250000002E+01   0.5205465794E-13   0.6107633741E-13   0.2315367526E-14   0.5438005624E-15  -0.6208295566E-14   0.5250000008E-01  -0.2624750004E-01  -0.2624750004E-01  -0.1389326461E-15   0.1530252454E-14   0.3253550938E-15   0.1250000002E+01
   0.2105000000E+01   0.9737525000E+00  -0.3590407607E-14  -0.4500000000E-02   0.1122750000E-02  -0.1395571398E-17   0.1095000000E+00  -0.2737025000E-01  -0.3589012035E-14   0.1250000002E+01   0.4665089084E-13   0.6281161367E-13   0.2774079042E-14  -0.5242600655E-14   0.7396853418E-14   0.5250000007E-01  -0.2624750004E-01  -0.2624750004E-01   0.4857840062E-15   0.3168864223E-15  -0.1768259694E-14   0.1250000002E+01
   0.2105000000E+01   0.0000000000E+00   0.9737525000E+00  -0.4500000000E-02   0.0000000000E+00   0.1122750000E-02   0.1095000000E+00   0.0000000000E+00  -0.2737025000E-01   0.1250000002E+01   0.4228062798E-13   0.2986763658E-13  -0.4095793488E-14  -0.3498611459E-14  -0.5706851702E-14   0.5250000007E-01  -0.2624750004E-01  -0.2624750004E-01  -0.5226647167E-17   0.8663399486E-15   0.2574276409E-15   0.1250000002E+01
   0.2105000000E+01   0.9737525000E+00   0.9737525000E+00  -0.4500000000E-02   0.1122750000E-02   0.1122750000E-02   0.1095000000E+00  -0.2737025000E-01  -0.2737025000E-01   0.1250000002E+01   0.2337864834E-13   0.9244375570E-14  -0.5087063107E-14  -0.5586661346E-14   0.7987924948E-14   0.5250000007E-01  -0.2624750003E-01  -0.2624750003E-01   0.7355373859E-15  -0.2418320765E-15  -0.1853380908E-14   0.1250000002E+01
     1     2     3     4     5     6     7     8
     2     9    10     3     6    11    12     7
 VARIABLES = X,Y,Z,DU1,DU2,DU3,U1,U2,U3,S11,S22,S33,S12,S13,S23,E11,E22,E33,E12,E13,E23,SMISES
 ZONE, T="0.9550D+01" F=FEPOINT, I=   12 J=    2 ET=BRICK
   0.0000000000E+00   0.0000000000E+00   0.0000000000E+00   0.0000000000E+00   0.0000000000E+00   0.0000000000E+00   0.0000000000E+00   0.0000000000E+00   0.0000000000E+00   0.1250000002E+00   0.3288243618E-13   0.4700159999E-13  -0.4024754790E-16   0.5787521919E-14  -0.7621394743E-14   0.5025000008E-01  -0.2512475004E-01  -0.2512475004E-01   0.8566664431E-17  -0.5132913526E-14  -0.2044380512E-14   0.1250000002E+00
   0.1050250000E+01   0.0000000000E+00  -0.2338891257E-14  -0.2250000000E-02   0.0000000000E+00  -0.5221696652E-18   0.5250000000E-01   0.0000000000E+00  -0.2338369087E-14   0.1250000002E+00   0.3925686904E-13   0.5524406592E-13   0.1898289867E-14   0.4186812348E-15  -0.8706448067E-14   0.5025000008E-01  -0.2512475004E-01  -0.2512475004E-01  -0.1516037229E-16  -0.1668881913E-14   0.7989913030E-15   0.1250000002E+00
   0.1050250000E+01   0.9748752500E+00  -0.1941037451E-14  -0.2250000000E-02   0.1122750000E-02  -0.7179871272E-19   0.5250000000E-01  -0.2624750000E-01  -0.1940965653E-14   0.1250000002E+00  -0.6985320053E-13  -0.5146767505E-13   0.2576752931E-14  -0.2217378297E-14   0.7286637697E-14   0.5025000007E-01  -0.2512475004E-01  -0.2512475004E-01  -0.3099481643E-15  -0.4376656234E-15  -0.1351541556E-14   0.1250000002E+00
   0.0000000000E+00   0.9748752500E+00  -0.1023646625E-14   0.0000000000E+00   0.1122750000E-02   0.2472039545E-18   0.0000000000E+00  -0.2624750000E-01  -0.1023893829E-14   0.1250000002E+00  -0.5834414048E-13  -0.4233602685E-13   0.1207594694E-14   0.4130050111E-14   0.9301019827E-14   0.5025000007E-01  -0.2512475004E-01  -0.2512475004E-01  -0.1291194716E-14  -0.1471621906E-14  -0.4196749369E-14   0.1250000002E+00
   0.0000000000E+00   0.0000000000E+00   0.9748752500E+00   0.0000000000E+00   0.0000000000E+00   0.1122750000E-02   0.0000000000E+00   0.0000000000E+00  -0.2624750000E-01   0.1250000002E+00  -0.7044592894E-13  -0.8434591045E-13   0.1298379003E-15   0.3498730415E-14  -0.1013103062E-13   0.5025000007E-01  -0.2512475004E-01  -0.2512475004E-01  -0.7955716705E-17  -0.3881317866E-14  -0.2112920287E-14   0.1250000002E+00
   0.1050250000E+01   0.0000000000E+00   0.9748752500E+00  -0.2250000000E-02   0.0000000000E+00   0.1122750000E-02   0.5250000000E-01   0.0000000000E+00  -0.2624750000E-01   0.1250000002E+00   0.1753486956E-13   0.1692922254E-14  -0.3639434910E-15  -0.2654011470E-15  -0.7741781891E-14   0.5025000007E-01  -0.2512475004E-01  -0.2512475004E-01   0.3840675770E-16  -0.1287800040E-14   0.7195286111E-15   0.1250000002E+00
   0.1050250000E+01   0.9748752500E+00   0.9748752500E+00  -0.2250000000E-02   0.1122750000E-02   0.1122750000E-02   0.5250000000E-01  -0.2624750000E-01  -0.2624750000E-01   0.1250000002E+00  -0.5456527489E-13  -0.7077468387E-13  -0.1336959749E-14  -0.7851873433E-15   0.7475800140E-14   0.5025000007E-01  -0.2512475003E-01  -0.2512475003E-01  -0.2919970478E-15  -0.1414698831E-15  -0.1418891524E-14   0.1250000002E+00
   0.0000000000E+00   0.9748752500E+00   0.9748752500E+00   0.0000000000E+00   0.1122750000E-02   0.1122750000E-02   0.0000000000E+00  -0.2624750000E-01  -0.2624750000E-01   0.1250000002E+00   0.6574677595E-13   0.4610499802E-13  -0.1206812705E-14   0.6019782281E-14   0.8568896094E-14   0.5025000007E-01  -0.2512475003E-01  -0.2512475003E-01  -0.1306991794E-14  -0.1654694376E-15  -0.4262532933E-14   0.1250000002E+00
   0.2100500000E+01   0.0000000000E+00  -0.3756370266E-14  -0.4500000000E-02   0.0000000000E+00  -0.4735887467E-19   0.1050000000E+00   0.0000000000E+00  -0.3756322907E-14   0.1250000002E+00   0.9402281423E-14   0.1888260272E-13   0.2424364280E-14   0.1770044475E-15  -0.6271368184E-14   0.5025000008E-01  -0.2512475004E-01  -0.2512475004E-01  -0.9139670200E-16   0.1612709290E-14   0.3321741234E-15   0.1250000002E+00
   0.2100500000E+01   0.9748752500E+00  -0.3590844958E-14  -0.4500000000E-02   0.1122750000E-02  -0.4373511008E-18   0.1050000000E+00  -0.2624750000E-01  -0.3590407607E-14   0.1250000002E+00  -0.3528639274E-13  -0.1920815598E-13   0.2573839553E-14  -0.5051486437E-14   0.7604322750E-14   0.5025000007E-01  -0.2512475004E-01  -0.2512475004E-01   0.5342471710E-15   0.3046059962E-15  -0.1781035142E-14   0.1250000002E+00
   0.2100500000E+01   0.0000000000E+00   0.9748752500E+00  -0.4500000000E-02   0.0000000000E+00   0.1122750000E-02   0.1050000000E+00   0.0000000000E+00  -0.2624750000E-01   0.1250000002E+00   0.2196607811E-13   0.9551920195E-14  -0.4038064945E-14  -0.3688393823E-14  -0.6113145429E-14   0.5025000007E-01  -0.2512475004E-01  -0.2512475004E-01  -0.2967637260E-16   0.8213162168E-15   0.2746569131E-15   0.1250000002E+00
   0.2100500000E+01   0.9748752500E+00   0.9748752500E+00  -0.4500000000E-02   0.1122750000E-02   0.1122750000E-02   0.1050000000E+00  -0.2624750000E-01  -0.2624750000E-01   0.1250000002E+00  -0.3582991220E-13  -0.5050787383E-13  -0.4832753213E-14  -0.5789127332E-14   0.7937327484E-14   0.5025000006E-01  -0.2512475003E-01  -0.2512475003E-01   0.7035836715E-15  -0.1476074610E-15  -0.1841871300E-14   0.1250000002E+00
     1     2     3     4     5     6     7     8
     2     9    10     3     6    11    12     7
 VARIABLES = X,Y,Z,DU1,DU2,DU3,U1,U2,U3,S11,S22,S33,S12,S13,S23,E11,E22,E33,E12,E13,E23,SMISES
 ZONE, T="0.9600D+01" F=FEPOINT, I=   12 J=    2 ET=BRICK
   0.0000000000E+00   0.0000000000E+00   0.0000000000E+00   0.0000000000E+00   0.0000000000E+00   0.0000000000E+00   0.0000000000E+00   0.0000000000E+00   0.0000000000E+00  -0.1000000002E+01   0.1653714348E-13   0.3085643540E-13  -0.4853892940E-16   0.6003019064E-14  -0.7538084427E-14   0.4800000008E-01  -0.2400200004E-01  -0.2400200004E-01   0.2752703486E-17  -0.5158736902E-14  -0.2044612932E-14   0.1000000002E+01
   0.1048000000E+01   0.0000000000E+00  -0.2337931172E-14  -0.2250000000E-02   0.0000000000E+00   0.9600849166E-18   0.5025000000E-01   0.0000000000E+00  -0.2338891257E-14  -0.1000000002E+01   0.2807800078E-13   0.4378752634E-13   0.2069601865E-14   0.4750377163E-15  -0.8818511527E-14   0.4800000007E-01  -0.2400200004E-01  -0.2400200004E-01  -0.4333406373E-17  -0.1630486350E-14   0.7910895823E-15   0.1000000002E+01
   0.1048000000E+01   0.9759980000E+00  -0.1940548007E-14  -0.2250000000E-02   0.1122750000E-02   0.4894444235E-18   0.5025000000E-01  -0.2512475000E-01  -0.1941037451E-14  -0.1000000001E+01   0.5698330158E-13   0.7557794793E-13   0.2719206046E-14  -0.2231468529E-14   0.7224916607E-14   0.4800000007E-01  -0.2400200003E-01  -0.2400200003E-01  -0.3112091890E-15  -0.4547514522E-15  -0.1353512403E-14   0.1000000001E+01
   0.0000000000E+00   0.9759980000E+00  -0.1023333922E-14   0.0000000000E+00   0.1122750000E-02   0.3127026230E-18   0.0000000000E+00  -0.2512475000E-01  -0.1023646625E-14  -0.1000000001E+01  -0.2268842497E-13  -0.6764291966E-14   0.1267825825E-14   0.4090577288E-14   0.9295091737E-14   0.4800000007E-01  -0.2400200003E-01  -0.2400200003E-01  -0.1278879284E-14  -0.1458035965E-14  -0.4174644715E-14   0.1000000001E+01
   0.0000000000E+00   0.0000000000E+00   0.9759980000E+00   0.0000000000E+00   0.0000000000E+00   0.1122750000E-02   0.0000000000E+00   0.0000000000E+00  -0.2512475000E-01  -0.1000000001E+01   0.1274859814E-14  -0.1258755937E-13   0.1515629953E-15   0.3333492686E-14  -0.1025222245E-13   0.4800000007E-01  -0.2400200003E-01  -0.2400200003E-01  -0.4250669220E-17  -0.3867581016E-14  -0.2097516799E-14   0.1000000001E+01
   0.1048000000E+01   0.0000000000E+00   0.9759980000E+00  -0.2250000000E-02   0.0000000000E+00   0.1122750000E-02   0.5025000000E-01   0.0000000000E+00  -0.2512475000E-01  -0.1000000001E+01  -0.4637977024E-13  -0.6243650739E-13  -0.4217427038E-15  -0.1675674310E-15  -0.7536095659E-14   0.4800000007E-01  -0.2400200003E-01  -0.2400200003E-01   0.3017670954E-16  -0.1291918624E-14   0.7185729566E-15   0.1000000001E+01
   0.1048000000E+01   0.9759980000E+00   0.9759980000E+00  -0.2250000000E-02   0.1122750000E-02   0.1122750000E-02   0.5025000000E-01  -0.2512475000E-01  -0.2512475000E-01  -0.1000000001E+01   0.1958851817E-13   0.3661519882E-14  -0.1391262787E-14  -0.7299903127E-15   0.7578794081E-14   0.4800000006E-01  -0.2400200003E-01  -0.2400200003E-01  -0.2844756518E-15  -0.1051128338E-15  -0.1415122848E-14   0.1000000001E+01
   0.0000000000E+00   0.9759980000E+00   0.9759980000E+00   0.0000000000E+00   0.1122750000E-02   0.1122750000E-02   0.0000000000E+00  -0.2512475000E-01  -0.2512475000E-01  -0.1000000001E+01   0.2668405326E-13   0.6815151125E-14  -0.1255271441E-14   0.6269808163E-14   0.8511914029E-14   0.4800000006E-01  -0.2400200003E-01  -0.2400200003E-01  -0.1305614368E-14  -0.1868216116E-15  -0.4258241927E-14   0.1000000001E+01
   0.2096000000E+01   0.0000000000E+00  -0.3754302956E-14  -0.4500000000E-02   0.0000000000E+00   0.2067310122E-17   0.1005000000E+00   0.0000000000E+00  -0.3756370266E-14  -0.1000000002E+01   0.8023261585E-13   0.8944064905E-13   0.2380838405E-14   0.2410348068E-15  -0.6299628851E-14   0.4800000007E-01  -0.2400200004E-01  -0.2400200004E-01  -0.1111798129E-15   0.1558008184E-14   0.3290859403E-15   0.1000000002E+01
   0.2096000000E+01   0.9759980000E+00  -0.3589082569E-14  -0.4500000000E-02   0.1122750000E-02   0.1762388979E-17   0.1005000000E+00  -0.2512475000E-01  -0.3590844958E-14  -0.1000000001E+01  -0.1122845639E-13   0.4960884902E-14   0.2474935222E-14  -0.4646044758E-14   0.7482562663E-14   0.4800000007E-01  -0.2400200003E-01  -0.2400200003E-01   0.5145089978E-15   0.3264438824E-15  -0.1793515188E-14   0.1000000001E+01
   0.2096000000E+01   0.0000000000E+00   0.9759980000E+00  -0.4500000000E-02   0.0000000000E+00   0.1122750000E-02   0.1005000000E+00   0.0000000000E+00  -0.2512475000E-01  -0.1000000001E+01  -0.4624110575E-13  -0.5874330639E-13  -0.3802268920E-14  -0.3535107354E-14  -0.6082122079E-14   0.4800000007E-01  -0.2400200003E-01  -0.2400200003E-01   0.1876668804E-16   0.8795086509E-15   0.2811405884E-15   0.1000000001E+01
   0.2096000000E+01   0.9759980000E+00   0.9759980000E+00  -0.4500000000E-02   0.1122750000E-02   0.1122750000E-02   0.1005000000E+00  -0.2512475000E-01  -0.2512475000E-01  -0.1000000001E+01   0.1197298390E-13  -0.2408233374E-14  -0.4848352318E-14  -0.5709406785E-14   0.8061353300E-14   0.4800000006E-01  -0.2400200003E-01  -0.2400200003E-01   0.6782108638E-15  -0.2484243958E-15  -0.1859657499E-14   0.1000000001E+01
     1     2     3     4     5     6     7     8
     2     9    10     3     6    11    12     7
 VARIABLES = X,Y,Z,DU1,DU2,DU3,U1,U2,U3,S11,S22,S33,S12,S13,S23,E11,E22,E33,E12,E13,E23,SMISES
 ZONE, T="0.9650D+01" F=FEPOINT, I=   12 J=    2 ET=BRICK
   0.0000000000E+00   0.0000000000E+00   0.0000000000E+00   0.0000000000E+00   0.0000000000E+00   0.0000000000E+00   0.0000000000E+00   0.0000000000E+00   0.0000000000E+00  -0.2125000003E+01   0.1132684271E-12   0.1270281597E-12  -0.2525780411E-16   0.5998050095E-14  -0.7410002852E-14   0.4575000007E-01  -0.2287925004E-01  -0.2287925004E-01   0.4097193325E-17  -0.5119688841E-14  -0.2032897949E-14   0.2125000003E+01
   0.1045750000E+01   0.0000000000E+00  -0.2338336644E-14  -0.2250000000E-02   0.0000000000E+00  -0.4054725019E-18   0.4800000000E-01   0.0000000000E+00  -0.2337931172E-14  -0.2125000003E+01   0.9765599758E-14   0.2572764763E-13   0.1891253086E-14   0.3769641695E-15  -0.8749169756E-14   0.4575000007E-01  -0.2287925004E-01  -0.2287925004E-01  -0.9203966623E-17  -0.1692527108E-14   0.7923008014E-15   0.2125000003E+01
   0.1045750000E+01   0.9771207500E+00  -0.1940463763E-14  -0.2250000000E-02   0.1122750000E-02   0.8424400011E-19   0.4800000000E-01  -0.2400200000E-01  -0.1940548007E-14  -0.2125000003E+01  -0.2535772877E-13  -0.6606708243E-14   0.2419784670E-14  -0.2234912914E-14   0.7325116491E-14   0.4575000007E-01  -0.2287925003E-01  -0.2287925003E-01  -0.3176300405E-15  -0.4318066126E-15  -0.1360516720E-14   0.2125000003E+01
   0.0000000000E+00   0.9771207500E+00  -0.1022541716E-14   0.0000000000E+00   0.1122750000E-02   0.7922065159E-18   0.0000000000E+00  -0.2400200000E-01  -0.1023333922E-14  -0.2125000003E+01  -0.3226889346E-13  -0.1667855674E-13   0.1130664742E-14   0.4040497172E-14   0.9065290787E-14   0.4575000007E-01  -0.2287925003E-01  -0.2287925003E-01  -0.1285044164E-14  -0.1467660070E-14  -0.4178389094E-14   0.2125000003E+01
   0.0000000000E+00   0.0000000000E+00   0.9771207500E+00   0.0000000000E+00   0.0000000000E+00   0.1122750000E-02   0.0000000000E+00   0.0000000000E+00  -0.2400200000E-01  -0.2125000003E+01  -0.5183104652E-13  -0.6534243781E-13   0.1548491270E-15   0.3423531048E-14  -0.1001971507E-13   0.4575000007E-01  -0.2287925003E-01  -0.2287925003E-01  -0.7239014490E-17  -0.3860066769E-14  -0.2141706805E-14   0.2125000003E+01
   0.1045750000E+01   0.0000000000E+00   0.9771207500E+00  -0.2250000000E-02   0.0000000000E+00   0.1122750000E-02   0.4800000000E-01   0.0000000000E+00  -0.2400200000E-01  -0.2125000003E+01  -0.3756010375E-13  -0.5340422616E-13  -0.3440010539E-15  -0.1756708420E-15  -0.7568437379E-14   0.4575000007E-01  -0.2287925003E-01  -0.2287925003E-01   0.4906220805E-16  -0.1315002919E-14   0.7365604915E-15   0.2125000003E+01
   0.1045750000E+01   0.9771207500E+00   0.9771207500E+00  -0.2250000000E-02   0.1122750000E-02   0.1122750000E-02   0.4800000000E-01  -0.2400200000E-01  -0.2400200000E-01  -0.2125000003E+01   0.1858618647E-13   0.2464899183E-14  -0.1199640467E-14  -0.6723863464E-15   0.7468991898E-14   0.4575000006E-01  -0.2287925003E-01  -0.2287925003E-01  -0.3028404847E-15  -0.1137668105E-15  -0.1415304572E-14   0.2125000003E+01
   0.0000000000E+00   0.9771207500E+00   0.9771207500E+00   0.0000000000E+00   0.1122750000E-02   0.1122750000E-02   0.0000000000E+00  -0.2400200000E-01  -0.2400200000E-01  -0.2125000003E+01   0.3176993790E-14  -0.1640655084E-13  -0.1099118387E-14   0.6070234094E-14   0.8453406944E-14   0.4575000006E-01  -0.2287925003E-01  -0.2287925003E-01  -0.1297686612E-14  -0.1887177742E-15  -0.4245881520E-14   0.2125000003E+01
   0.2091500000E+01   0.0000000000E+00  -0.3756104740E-14  -0.4500000000E-02   0.0000000000E+00  -0.1801783619E-17   0.9600000000E-01   0.0000000000E+00  -0.3754302956E-14  -0.2125000003E+01   0.4456984027E-13   0.5394885486E-13   0.2372172658E-14  -0.2545323437E-15  -0.6385556417E-14   0.4575000007E-01  -0.2287925003E-01  -0.2287925003E-01  -0.1251499038E-15   0.1573273247E-14   0.3263231585E-15   0.2125000003E+01
   0.2091500000E+01   0.9771207500E+00  -0.3591255566E-14  -0.4500000000E-02   0.1122750000E-02  -0.2172996565E-17   0.9600000000E-01  -0.2400200000E-01  -0.3589082569E-14  -0.2125000003E+01  -0.1467990751E-13   0.1306978295E-14   0.2361096558E-14  -0.4492752151E-14   0.7536331459E-14   0.4575000006E-01  -0.2287925003E-01  -0.2287925003E-01   0.4960049349E-15   0.3501797728E-15  -0.1786826573E-14   0.2125000003E+01
   0.2091500000E+01   0.0000000000E+00   0.9771207500E+00  -0.4500000000E-02   0.0000000000E+00   0.1122750000E-02   0.9600000000E-01   0.0000000000E+00  -0.2400200000E-01  -0.2125000003E+01  -0.9512868117E-13  -0.1075730132E-12  -0.3613575288E-14  -0.3558943889E-14  -0.6177120201E-14   0.4575000006E-01  -0.2287925003E-01  -0.2287925003E-01  -0.1052285670E-16   0.9355362837E-15   0.2708059609E-15   0.2125000003E+01
   0.2091500000E+01   0.9771207500E+00   0.9771207500E+00  -0.4500000000E-02   0.1122750000E-02   0.1122750000E-02   0.9600000000E-01  -0.2400200000E-01  -0.2400200000E-01  -0.2125000003E+01  -0.3220060378E-13  -0.4665057832E-13  -0.4561347312E-14  -0.5990070978E-14   0.8045603110E-14   0.4575000006E-01  -0.2287925003E-01  -0.2287925003E-01   0.7354028758E-15  -0.2178226115E-15  -0.1861333200E-14   0.2125000003E+01
     1     2     3     4     5     6     7     8
     2     9    10     3     6    11    12     7
 VARIABLES = X,Y,Z,DU1,DU2,DU3,U1,U2,U3,S11,S22,S33,S12,S13,S23,E11,E22,E33,E12,E13,E23,SMISES
 ZONE, T="0.9700D+01" F=FEPOINT, I=   12 J=    2 ET=BRICK
   0.0000000000E+00   0.0000000000E+00   0.0000000000E+00   0.0000000000E+00   0.0000000000E+00   0.0000000000E+00   0.0000000000E+00   0.0000000000E+00   0.0000000000E+00  -0.3250000005E+01  -0.2451868570E-13  -0.1066625659E-13  -0.1718075800E-16   0.5903648362E-14  -0.7600006059E-14   0.4350000007E-01  -0.2175650003E-01  -0.2175650003E-01  -0.3364097770E-17  -0.5150944424E-14  -0.2050897655E-14   0.3250000005E+01
   0.1043500000E+01   0.0000000000E+00  -0.2339149560E-14  -0.2250000000E-02   0.0000000000E+00  -0.8129160677E-18   0.4575000000E-01   0.0000000000E+00  -0.2338336644E-14  -0.3250000005E+01  -0.1109378988E-13   0.4701724543E-14   0.1882407722E-14   0.3292973482E-15  -0.8670442966E-14   0.4350000007E-01  -0.2175650003E-01  -0.2175650003E-01  -0.5347671756E-17  -0.1630424590E-14   0.7947871322E-15   0.3250000005E+01
   0.1043500000E+01   0.9782435000E+00  -0.1940779643E-14  -0.2250000000E-02   0.1122750000E-02  -0.3158796062E-18   0.4575000000E-01  -0.2287925000E-01  -0.1940463763E-14  -0.3250000005E+01  -0.7971076346E-14   0.1055245530E-13   0.2471458137E-14  -0.2204829925E-14   0.7170878682E-14   0.4350000006E-01  -0.2175650003E-01  -0.2175650003E-01  -0.3242358958E-15  -0.4541395040E-15  -0.1346164756E-14   0.3250000005E+01
   0.0000000000E+00   0.9782435000E+00  -0.1023527381E-14   0.0000000000E+00   0.1122750000E-02  -0.9856655754E-18   0.0000000000E+00  -0.2287925000E-01  -0.1022541716E-14  -0.3250000005E+01  -0.7043600017E-13  -0.5437308932E-13   0.1444355010E-14   0.4212774388E-14   0.9046488068E-14   0.4350000006E-01  -0.2175650003E-01  -0.2175650003E-01  -0.1276424646E-14  -0.1454847949E-14  -0.4183427214E-14   0.3250000005E+01
   0.0000000000E+00   0.0000000000E+00   0.9782435000E+00   0.0000000000E+00   0.0000000000E+00   0.1122750000E-02   0.0000000000E+00   0.0000000000E+00  -0.2287925000E-01  -0.3250000005E+01  -0.1223051385E-13  -0.2576421639E-13   0.1758706498E-15   0.3270780443E-14  -0.9996371890E-14   0.4350000006E-01  -0.2175650003E-01  -0.2175650003E-01   0.3499676653E-17  -0.3864551586E-14  -0.2111454017E-14   0.3250000005E+01
   0.1043500000E+01   0.0000000000E+00   0.9782435000E+00  -0.2250000000E-02   0.0000000000E+00   0.1122750000E-02   0.4575000000E-01   0.0000000000E+00  -0.2287925000E-01  -0.3250000005E+01   0.4619853492E-13   0.3032864971E-13  -0.4401229975E-15  -0.1740624476E-15  -0.7443896762E-14   0.4350000006E-01  -0.2175650003E-01  -0.2175650003E-01   0.2267410155E-16  -0.1304251471E-14   0.7273176139E-15   0.3250000005E+01
   0.1043500000E+01   0.9782435000E+00   0.9782435000E+00  -0.2250000000E-02   0.1122750000E-02   0.1122750000E-02   0.4575000000E-01  -0.2287925000E-01  -0.2287925000E-01  -0.3250000004E+01  -0.2147444879E-13  -0.3727209906E-13  -0.1339696870E-14  -0.6014266882E-15   0.7325319600E-14   0.4350000006E-01  -0.2175650003E-01  -0.2175650003E-01  -0.2947065359E-15  -0.8923906611E-16  -0.1433023997E-14   0.3250000004E+01
   0.0000000000E+00   0.9782435000E+00   0.9782435000E+00   0.0000000000E+00   0.1122750000E-02   0.1122750000E-02   0.0000000000E+00  -0.2287925000E-01  -0.2287925000E-01  -0.3250000004E+01   0.5998360716E-13   0.4026400686E-13  -0.1308299612E-14   0.5991696160E-14   0.8676182176E-14   0.4350000006E-01  -0.2175650003E-01  -0.2175650003E-01  -0.1313145487E-14  -0.1863999315E-15  -0.4229370016E-14   0.3250000004E+01
   0.2087000000E+01   0.0000000000E+00  -0.3757552733E-14  -0.4500000000E-02   0.0000000000E+00  -0.1447992957E-17   0.9150000000E-01   0.0000000000E+00  -0.3756104740E-14  -0.3250000005E+01  -0.2323762338E-13  -0.1426551253E-13   0.2327833646E-14   0.3940829045E-15  -0.6382857914E-14   0.4350000007E-01  -0.2175650003E-01  -0.2175650003E-01  -0.1032703254E-15   0.1547141052E-14   0.3217437521E-15   0.3250000005E+01
   0.2087000000E+01   0.9782435000E+00  -0.3592739783E-14  -0.4500000000E-02   0.1122750000E-02  -0.1484217102E-17   0.9150000000E-01  -0.2287925000E-01  -0.3591255566E-14  -0.3250000005E+01   0.4573257688E-14   0.2080522870E-13   0.2190474017E-14  -0.4642255337E-14   0.7450722892E-14   0.4350000006E-01  -0.2175650003E-01  -0.2175650003E-01   0.5416491046E-15   0.3676731597E-15  -0.1792860358E-14   0.3250000005E+01
   0.2087000000E+01   0.0000000000E+00   0.9782435000E+00  -0.4500000000E-02   0.0000000000E+00   0.1122750000E-02   0.9150000000E-01   0.0000000000E+00  -0.2287925000E-01  -0.3250000005E+01   0.8801367970E-13   0.7571356983E-13  -0.3809183939E-14  -0.3269153669E-14  -0.6063783055E-14   0.4350000006E-01  -0.2175650003E-01  -0.2175650003E-01  -0.2461432610E-16   0.8704497498E-15   0.2740282164E-15   0.3250000005E+01
   0.2087000000E+01   0.9782435000E+00   0.9782435000E+00  -0.4500000000E-02   0.1122750000E-02   0.1122750000E-02   0.9150000000E-01  -0.2287925000E-01  -0.2287925000E-01  -0.3250000004E+01  -0.6598764034E-14  -0.2124574972E-13  -0.4767871616E-14  -0.6064244262E-14   0.8112898256E-14   0.4350000006E-01  -0.2175650003E-01  -0.2175650003E-01   0.7021153830E-15  -0.2950253381E-15  -0.1843406635E-14   0.3250000004E+01
     1     2     3     4     5     6     7     8
     2     9    10     3     6    11    12     7
 VARIABLES = X,Y,Z,DU1,DU2,DU3,U1,U2,U3,S11,S22,S33,S12,S13,S23,E11,E22,E33,E12,E13,E23,SMISES
 ZONE, T="0.9750D+01" F=FEPOINT, I=   12 J=    2 ET=BRICK
   0.0000000000E+00   0.0000000000E+00   0.0000000000E+00   0.0000000000E+00   0.0000000000E+00   0.0000000000E+00   0.0000000000E+00   0.0000000000E+00   0.0000000000E+00  -0.4375000007E+01   0.9370367737E-13   0.1075256287E-12  -0.4611477738E-17   0.5935645436E-14  -0.7553771629E-14   0.4125000006E-01  -0.2063375003E-01  -0.2063375003E-01   0.3555383625E-17  -0.5141393642E-14  -0.2044429777E-14   0.4375000007E+01
   0.1041250000E+01   0.0000000000E+00  -0.2338854957E-14  -0.2250000000E-02   0.0000000000E+00   0.2946031508E-18   0.4350000000E-01   0.0000000000E+00  -0.2339149560E-14  -0.4375000007E+01   0.5524914029E-13   0.7110561017E-13   0.1646941910E-14   0.2076567699E-15  -0.8704270008E-14   0.4125000006E-01  -0.2063375003E-01  -0.2063375003E-01  -0.1889786409E-16  -0.1648248738E-14   0.7933138149E-15   0.4375000007E+01
   0.1041250000E+01   0.9793662500E+00  -0.1940645078E-14  -0.2250000000E-02   0.1122750000E-02   0.1345647101E-18   0.4350000000E-01  -0.2175650000E-01  -0.1940779643E-14  -0.4375000006E+01   0.5549002697E-13   0.7397836597E-13   0.2160650057E-14  -0.2047692967E-14   0.7145508293E-14   0.4125000006E-01  -0.2063375003E-01  -0.2063375003E-01  -0.3409592050E-15  -0.4284170420E-15  -0.1344591492E-14   0.4375000006E+01
   0.0000000000E+00   0.9793662500E+00  -0.1023330390E-14   0.0000000000E+00   0.1122750000E-02   0.1969918470E-18   0.0000000000E+00  -0.2175650000E-01  -0.1023527381E-14  -0.4375000006E+01   0.1480886419E-13   0.3088937136E-13   0.1324561253E-14   0.4134914573E-14   0.8742900800E-14   0.4125000006E-01  -0.2063375003E-01  -0.2063375003E-01  -0.1275702809E-14  -0.1473254826E-14  -0.4186719535E-14   0.4375000006E+01
   0.0000000000E+00   0.0000000000E+00   0.9793662500E+00   0.0000000000E+00   0.0000000000E+00   0.1122750000E-02   0.0000000000E+00   0.0000000000E+00  -0.2175650000E-01  -0.4375000006E+01  -0.5521341385E-13  -0.6863337195E-13   0.1660518179E-15   0.3245348304E-14  -0.9816683524E-14   0.4125000006E-01  -0.2063375003E-01  -0.2063375003E-01  -0.6672821505E-17  -0.3858452477E-14  -0.2110413045E-14   0.4375000006E+01
   0.1041250000E+01   0.0000000000E+00   0.9793662500E+00  -0.2250000000E-02   0.0000000000E+00   0.1122750000E-02   0.4350000000E-01   0.0000000000E+00  -0.2175650000E-01  -0.4375000006E+01  -0.8372271561E-13  -0.9982008972E-13  -0.3435804140E-15  -0.2296561046E-15  -0.7316480054E-14   0.4125000006E-01  -0.2063375003E-01  -0.2063375003E-01   0.3529509728E-16  -0.1313729921E-14   0.7199095907E-15   0.4375000006E+01
   0.1041250000E+01   0.9793662500E+00   0.9793662500E+00  -0.2250000000E-02   0.1122750000E-02   0.1122750000E-02   0.4350000000E-01  -0.2175650000E-01  -0.2175650000E-01  -0.4375000006E+01   0.7682211849E-14  -0.7984097661E-14  -0.1162401336E-14  -0.6619325061E-15   0.7364446265E-14   0.4125000005E-01  -0.2063375003E-01  -0.2063375003E-01  -0.2660580432E-15  -0.1062221273E-15  -0.1426875065E-14   0.4375000006E+01
   0.0000000000E+00   0.9793662500E+00   0.9793662500E+00   0.0000000000E+00   0.1122750000E-02   0.1122750000E-02   0.0000000000E+00  -0.2175650000E-01  -0.2175650000E-01  -0.4375000006E+01   0.6591303414E-13   0.4612776347E-13  -0.1198550759E-14   0.6003811356E-14   0.8641917639E-14   0.4125000006E-01  -0.2063375003E-01  -0.2063375003E-01  -0.1315129318E-14  -0.1744017729E-15  -0.4230625496E-14   0.4375000006E+01
   0.2082500000E+01   0.0000000000E+00  -0.3755859125E-14  -0.4500000000E-02   0.0000000000E+00   0.1693607190E-17   0.8700000000E-01   0.0000000000E+00  -0.3757552733E-14  -0.4375000007E+01  -0.5122548700E-13  -0.4215251311E-13   0.1951689627E-14  -0.1056619421E-15  -0.6569497334E-14   0.4125000006E-01  -0.2063375003E-01  -0.2063375003E-01  -0.1193996004E-15   0.1561381766E-14   0.3308012977E-15   0.4375000007E+01
   0.2082500000E+01   0.9793662500E+00  -0.3592041997E-14  -0.4500000000E-02   0.1122750000E-02   0.6977856044E-18   0.8700000000E-01  -0.2175650000E-01  -0.3592739783E-14  -0.4375000006E+01   0.3311595429E-14   0.1964788103E-13   0.1793385851E-14  -0.4454368725E-14   0.7383065574E-14   0.4125000006E-01  -0.2063375003E-01  -0.2063375003E-01   0.5227429786E-15   0.3140961374E-15  -0.1788480745E-14   0.4375000006E+01
   0.2082500000E+01   0.0000000000E+00   0.9793662500E+00  -0.4500000000E-02   0.0000000000E+00   0.1122750000E-02   0.8700000000E-01   0.0000000000E+00  -0.2175650000E-01  -0.4375000006E+01  -0.1178280949E-12  -0.1305046308E-12  -0.3442240337E-14  -0.4052431448E-14  -0.6096672860E-14   0.4125000006E-01  -0.2063375003E-01  -0.2063375003E-01   0.4270032692E-17   0.8751626605E-15   0.2648670209E-15   0.4375000006E+01
   0.2082500000E+01   0.9793662500E+00   0.9793662500E+00  -0.4500000000E-02   0.1122750000E-02   0.1122750000E-02   0.8700000000E-01  -0.2175650000E-01  -0.2175650000E-01  -0.4375000006E+01   0.5862286777E-13   0.4358657467E-13  -0.4220791220E-14  -0.5759069138E-14   0.8304100498E-14   0.4125000005E-01  -0.2063375003E-01  -0.2063375003E-01   0.6961827065E-15  -0.2863474208E-15  -0.1841576133E-14   0.4375000006E+01
     1     2     3     4     5     6     7     8
     2     9    10     3     6    11    12     7
 VARIABLES = X,Y,Z,DU1,DU2,DU3,U1,U2,U3,S11,S22,S33,S12,S13,S23,E11,E22,E33,E12,E13,E23,SMISES
 ZONE, T="0.9800D+01" F=FEPOINT, I=   12 J=    2 ET=BRICK
   0.0000000000E+00   0.0000000000E+00   0.0000000000E+00   0.0000000000E+00   0.0000000000E+00   0.0000000000E+00   0.0000000000E+00   0.0000000000E+00   0.0000000000E+00  -0.5500000009E+01   0.3495730213E-13   0.4876982367E-13   0.1018490277E-16   0.5998157690E-14  -0.7518454055E-14   0.3900000006E-01  -0.1951100003E-01  -0.1951100003E-01   0.4489534483E-17  -0.5138576151E-14  -0.2048562573E-14   0.5500000009E+01
   0.1039000000E+01   0.0000000000E+00  -0.2338090250E-14  -0.2250000000E-02   0.0000000000E+00   0.7647074019E-18   0.4125000000E-01   0.0000000000E+00  -0.2338854957E-14  -0.5500000008E+01   0.2001443337E-13   0.3632588106E-13   0.1760485713E-14   0.3792233695E-15  -0.8762082484E-14   0.3900000006E-01  -0.1951100003E-01  -0.1951100003E-01  -0.1668768003E-16  -0.1658846040E-14   0.7979505992E-15   0.5500000008E+01
   0.1039000000E+01   0.9804890000E+00  -0.1940198728E-14  -0.2250000000E-02   0.1122750000E-02   0.4463494740E-18   0.4125000000E-01  -0.2063375000E-01  -0.1940645078E-14  -0.5500000008E+01  -0.7511288381E-13  -0.5669493011E-13   0.2271542841E-14  -0.2058263312E-14   0.7416551202E-14   0.3900000006E-01  -0.1951100003E-01  -0.1951100003E-01  -0.3217449918E-15  -0.4147149124E-15  -0.1371813901E-14   0.5500000008E+01
   0.0000000000E+00   0.9804890000E+00  -0.1023339843E-14   0.0000000000E+00   0.1122750000E-02  -0.9452888519E-20   0.0000000000E+00  -0.2063375000E-01  -0.1023330390E-14  -0.5500000008E+01  -0.6172819909E-14   0.1003902803E-13   0.1141830012E-14   0.4175273822E-14   0.8845028246E-14   0.3900000006E-01  -0.1951100003E-01  -0.1951100003E-01  -0.1286625294E-14  -0.1477773248E-14  -0.4155763949E-14   0.5500000008E+01
   0.0000000000E+00   0.0000000000E+00   0.9804890000E+00   0.0000000000E+00   0.0000000000E+00   0.1122750000E-02   0.0000000000E+00   0.0000000000E+00  -0.2063375000E-01  -0.5500000008E+01  -0.9059985498E-13  -0.1043786428E-12   0.1656810696E-15   0.3253615121E-14  -0.1004126750E-13   0.3900000006E-01  -0.1951100003E-01  -0.1951100003E-01  -0.5682802444E-17  -0.3852366069E-14  -0.2123866321E-14   0.5500000008E+01
   0.1039000000E+01   0.0000000000E+00   0.9804890000E+00  -0.2250000000E-02   0.0000000000E+00   0.1122750000E-02   0.4125000000E-01   0.0000000000E+00  -0.2063375000E-01  -0.5500000008E+01  -0.5049724877E-13  -0.6659462288E-13  -0.2414349596E-15  -0.1065472834E-15  -0.7505658944E-14   0.3900000006E-01  -0.1951100003E-01  -0.1951100003E-01   0.3428437522E-16  -0.1313135547E-14   0.7346395623E-15   0.5500000008E+01
   0.1039000000E+01   0.9804890000E+00   0.9804890000E+00  -0.2250000000E-02   0.1122750000E-02   0.1122750000E-02   0.4125000000E-01  -0.2063375000E-01  -0.2063375000E-01  -0.5500000007E+01   0.7319449633E-16  -0.1578541127E-13  -0.1165908298E-14  -0.6557770863E-15   0.7504006365E-14   0.3900000005E-01  -0.1951100003E-01  -0.1951100003E-01  -0.2967473219E-15  -0.1043849879E-15  -0.1413762005E-14   0.5500000007E+01
   0.0000000000E+00   0.9804890000E+00   0.9804890000E+00   0.0000000000E+00   0.1122750000E-02   0.1122750000E-02   0.0000000000E+00  -0.2063375000E-01  -0.2063375000E-01  -0.5500000007E+01   0.4123558142E-13   0.2106571823E-13  -0.1133819930E-14   0.6041884564E-14   0.8589077164E-14   0.3900000005E-01  -0.1951100003E-01  -0.1951100003E-01  -0.1298801895E-14  -0.1777808556E-15  -0.4242406380E-14   0.5500000007E+01
   0.2078000000E+01   0.0000000000E+00  -0.3753425234E-14  -0.4500000000E-02   0.0000000000E+00   0.2433891486E-17   0.8250000000E-01   0.0000000000E+00  -0.3755859125E-14  -0.5500000008E+01  -0.9235516433E-14   0.2314798051E-15   0.2030358869E-14  -0.1861158011E-15  -0.6627440190E-14   0.3900000006E-01  -0.1951100003E-01  -0.1951100003E-01  -0.1079580943E-15   0.1532226430E-14   0.3284335747E-15   0.5500000008E+01
   0.2078000000E+01   0.9804890000E+00  -0.3590013824E-14  -0.4500000000E-02   0.1122750000E-02   0.2028173408E-17   0.8250000000E-01  -0.2063375000E-01  -0.3592041997E-14  -0.5500000008E+01  -0.1280889245E-12  -0.1118839797E-12   0.2027224668E-14  -0.4469689992E-14   0.7357541671E-14   0.3900000005E-01  -0.1951100003E-01  -0.1951100003E-01   0.5387330692E-15   0.3460116551E-15  -0.1778267389E-14   0.5500000008E+01
   0.2078000000E+01   0.0000000000E+00   0.9804890000E+00  -0.4500000000E-02   0.0000000000E+00   0.1122750000E-02   0.8250000000E-01   0.0000000000E+00  -0.2063375000E-01  -0.5500000008E+01  -0.1236605603E-12  -0.1365036296E-12  -0.3534244153E-14  -0.4157693717E-14  -0.6304526115E-14   0.3900000005E-01  -0.1951100003E-01  -0.1951100003E-01   0.1001899674E-16   0.8530190247E-15   0.2502779482E-15   0.5500000008E+01
   0.2078000000E+01   0.9804890000E+00   0.9804890000E+00  -0.4500000000E-02   0.1122750000E-02   0.1122750000E-02   0.8250000000E-01  -0.2063375000E-01  -0.2063375000E-01  -0.5500000007E+01   0.1321549927E-13  -0.1680023223E-14  -0.4338570634E-14  -0.5709115281E-14   0.8152777056E-14   0.3900000005E-01  -0.1951100002E-01  -0.1951100002E-01   0.6667643301E-15  -0.2447148480E-15  -0.1849470102E-14   0.5500000007E+01
     1     2     3     4     5     6     7     8
     2     9    10     3     6    11    12     7
 VARIABLES = X,Y,Z,DU1,DU2,DU3,U1,U2,U3,S11,S22,S33,S12,S13,S23,E11,E22,E33,E12,E13,E23,SMISES
 ZONE, T="0.9850D+01" F=FEPOINT, I=   12 J=    2 ET=BRICK
   0.0000000000E+00   0.0000000000E+00   0.0000000000E+00   0.0000000000E+00   0.0000000000E+00   0.0000000000E+00   0.0000000000E+00   0.0000000000E+00   0.0000000000E+00  -0.6625000010E+01  -0.2579210363E-13  -0.1148595999E-13  -0.8526108547E-17   0.6243527182E-14  -0.7636372345E-14   0.3675000006E-01  -0.1838825003E-01  -0.1838825003E-01  -0.1397239715E-18  -0.5141866093E-14  -0.2051038957E-14   0.6625000010E+01
   0.1036750000E+01   0.0000000000E+00  -0.2336094589E-14  -0.2250000000E-02   0.0000000000E+00   0.1995660783E-17   0.3900000000E-01   0.0000000000E+00  -0.2338090250E-14  -0.6625000010E+01   0.6902227087E-13   0.8641020762E-13   0.1857963555E-14   0.6214609419E-15  -0.9101851498E-14   0.3675000006E-01  -0.1838825003E-01  -0.1838825003E-01  -0.8163434773E-17  -0.1626000946E-14   0.7898208540E-15   0.6625000010E+01
   0.1036750000E+01   0.9816117500E+00  -0.1940123735E-14  -0.2250000000E-02   0.1122750000E-02   0.7499311107E-19   0.3900000000E-01  -0.1951100000E-01  -0.1940198728E-14  -0.6625000009E+01   0.3442644872E-13   0.5385050618E-13   0.2366157190E-14  -0.2012771833E-14   0.7563704329E-14   0.3675000005E-01  -0.1838825003E-01  -0.1838825003E-01  -0.3365459370E-15  -0.4669931202E-15  -0.1346888720E-14   0.6625000009E+01
   0.0000000000E+00   0.9816117500E+00  -0.1024104274E-14   0.0000000000E+00   0.1122750000E-02  -0.7644316694E-18   0.0000000000E+00  -0.1951100000E-01  -0.1023339843E-14  -0.6625000010E+01   0.3882521361E-13   0.5568778720E-13   0.1029999617E-14   0.4097893467E-14   0.9174716133E-14   0.3675000005E-01  -0.1838825003E-01  -0.1838825003E-01  -0.1275971717E-14  -0.1461876731E-14  -0.4175274297E-14   0.6625000010E+01
   0.0000000000E+00   0.0000000000E+00   0.9816117500E+00   0.0000000000E+00   0.0000000000E+00   0.1122750000E-02   0.0000000000E+00   0.0000000000E+00  -0.1951100000E-01  -0.6625000010E+01   0.4223700448E-13   0.2846419494E-13   0.1971957699E-15   0.3234187621E-14  -0.1034672467E-13   0.3675000005E-01  -0.1838825003E-01  -0.1838825003E-01   0.1086593278E-17  -0.3858394702E-14  -0.2112145495E-14   0.6625000010E+01
   0.1036750000E+01   0.0000000000E+00   0.9816117500E+00  -0.2250000000E-02   0.0000000000E+00   0.1122750000E-02   0.3900000000E-01   0.0000000000E+00  -0.1951100000E-01  -0.6625000009E+01   0.5423197029E-13   0.3739117400E-13  -0.4203056381E-15   0.6192192484E-16  -0.7652122420E-14   0.3675000005E-01  -0.1838825003E-01  -0.1838825003E-01   0.2200206279E-16  -0.1329316746E-14   0.7185970022E-15   0.6625000009E+01
   0.1036750000E+01   0.9816117500E+00   0.9816117500E+00  -0.2250000000E-02   0.1122750000E-02   0.1122750000E-02   0.3900000000E-01  -0.1951100000E-01  -0.1951100000E-01  -0.6625000009E+01   0.5315992570E-14  -0.1135642068E-13  -0.1367491877E-14  -0.6807036704E-15   0.7751848115E-14   0.3675000005E-01  -0.1838825002E-01  -0.1838825002E-01  -0.2880196304E-15  -0.9025968557E-16  -0.1414306977E-14   0.6625000009E+01
   0.0000000000E+00   0.9816117500E+00   0.9816117500E+00   0.0000000000E+00   0.1122750000E-02   0.1122750000E-02   0.0000000000E+00  -0.1951100000E-01  -0.1951100000E-01  -0.6625000009E+01   0.3351256357E-13   0.1292889350E-13  -0.1170329216E-14   0.6151665605E-14   0.8809554774E-14   0.3675000005E-01  -0.1838825002E-01  -0.1838825002E-01  -0.1309731033E-14  -0.1785446134E-15  -0.4245099300E-14   0.6625000009E+01
   0.2073500000E+01   0.0000000000E+00  -0.3747357141E-14  -0.4500000000E-02   0.0000000000E+00   0.6068092653E-17   0.7800000000E-01   0.0000000000E+00  -0.3753425234E-14  -0.6625000010E+01   0.2456424089E-12   0.2549111306E-12   0.2023370106E-14  -0.1765708222E-15  -0.6815341799E-14   0.3675000006E-01  -0.1838825003E-01  -0.1838825003E-01  -0.1120499096E-15   0.1570470831E-14   0.3172617089E-15   0.6625000010E+01
   0.2073500000E+01   0.9816117500E+00  -0.3584922908E-14  -0.4500000000E-02   0.1122750000E-02   0.5090915516E-17   0.7800000000E-01  -0.1951100000E-01  -0.3590013824E-14  -0.6625000009E+01   0.3656377604E-13   0.5293870592E-13   0.2028903565E-14  -0.5021390650E-14   0.7709555032E-14   0.3675000005E-01  -0.1838825003E-01  -0.1838825003E-01   0.5169418008E-15   0.4066353176E-15  -0.1769504498E-14   0.6625000009E+01
   0.2073500000E+01   0.0000000000E+00   0.9816117500E+00  -0.4500000000E-02   0.0000000000E+00   0.1122750000E-02   0.7800000000E-01   0.0000000000E+00  -0.1951100000E-01  -0.6625000009E+01  -0.1843947865E-14  -0.1537293548E-13  -0.4082192399E-14  -0.4200986526E-14  -0.6374719751E-14   0.3675000005E-01  -0.1838825003E-01  -0.1838825003E-01  -0.1602387951E-16   0.9105089356E-15   0.2714382361E-15   0.6625000009E+01
   0.2073500000E+01   0.9816117500E+00   0.9816117500E+00  -0.4500000000E-02   0.1122750000E-02   0.1122750000E-02   0.7800000000E-01  -0.1951100000E-01  -0.1951100000E-01  -0.6625000008E+01  -0.3699807001E-13  -0.5163436256E-13  -0.4842792884E-14  -0.6130446042E-14   0.8593731674E-14   0.3675000005E-01  -0.1838825002E-01  -0.1838825002E-01   0.6815765588E-15  -0.2826621164E-15  -0.1871954452E-14   0.6625000008E+01
     1     2     3     4     5     6     7     8
     2     9    10     3     6    11    12     7
 VARIABLES = X,Y,Z,DU1,DU2,DU3,U1,U2,U3,S11,S22,S33,S12,S13,S23,E11,E22,E33,E12,E13,E23,SMISES
 ZONE, T="0.9900D+01" F=FEPOINT, I=   12 J=    2 ET=BRICK
   0.0000000000E+00   0.0000000000E+00   0.0000000000E+00   0.0000000000E+00   0.0000000000E+00   0.0000000000E+00   0.0000000000E+00   0.0000000000E+00   0.0000000000E+00  -0.7750000012E+01  -0.8402651285E-12  -0.1065520992E-11  -0.7268794111E-16  -0.1490147829E-12   0.3944920670E-13   0.2950000005E-01  -0.1476550002E-01  -0.1476550002E-01   0.1672028757E-18  -0.7310873027E-14  -0.1311615626E-14   0.7750000012E+01
   0.1029500000E+01   0.0000000000E+00  -0.3614966163E-14  -0.7250000000E-02   0.0000000000E+00  -0.1278871574E-14   0.3675000000E-01   0.0000000000E+00  -0.2336094589E-14  -0.7750000012E+01  -0.8535432476E-13  -0.2516853231E-12   0.2151433041E-13  -0.3467199081E-13   0.1143796888E-12   0.2950000005E-01  -0.1476550002E-01  -0.1476550002E-01   0.2843219483E-15  -0.2136058304E-14   0.2586729941E-14   0.7750000012E+01
   0.1029500000E+01   0.9852345000E+00  -0.2321924414E-14  -0.7250000000E-02   0.3622750000E-02  -0.3818006791E-15   0.3675000000E-01  -0.1838825000E-01  -0.1940123735E-14  -0.7750000011E+01   0.1955404184E-12  -0.9840525783E-14   0.9336488699E-14  -0.8470197554E-14  -0.6427366194E-13   0.2950000004E-01  -0.1476550002E-01  -0.1476550002E-01  -0.2102388267E-15  -0.5397382233E-15  -0.2380082152E-14   0.7750000011E+01
   0.0000000000E+00   0.9852345000E+00  -0.6600358130E-15   0.0000000000E+00   0.3622750000E-02   0.3640684612E-15   0.0000000000E+00  -0.1838825000E-01  -0.1024104274E-14  -0.7750000011E+01   0.1296388350E-12  -0.1303610183E-12  -0.1388851486E-13  -0.5117133090E-13  -0.1408070163E-12   0.2950000004E-01  -0.1476550002E-01  -0.1476550002E-01  -0.1472973741E-14  -0.2238955585E-14  -0.6293991457E-14   0.7750000011E+01
   0.0000000000E+00   0.0000000000E+00   0.9852345000E+00   0.0000000000E+00   0.0000000000E+00   0.3622750000E-02   0.0000000000E+00   0.0000000000E+00  -0.1838825000E-01  -0.7750000011E+01  -0.8941006976E-14   0.1312326987E-12   0.2144970385E-15  -0.1369366700E-12   0.1878439589E-13   0.2950000004E-01  -0.1476550002E-01  -0.1476550002E-01   0.6530296264E-18  -0.5827457008E-14  -0.1671378405E-14   0.7750000011E+01
   0.1029500000E+01   0.0000000000E+00   0.9852345000E+00  -0.7250000000E-02   0.0000000000E+00   0.3622750000E-02   0.3675000000E-01   0.0000000000E+00  -0.1838825000E-01  -0.7750000011E+01   0.3587397499E-12   0.5486821857E-12   0.1902716179E-13  -0.2340303360E-13   0.9531812325E-13   0.2950000004E-01  -0.1476550002E-01  -0.1476550002E-01   0.3105880861E-15  -0.1676541042E-14   0.2221731236E-14   0.7750000011E+01
   0.1029500000E+01   0.9852345000E+00   0.9852345000E+00  -0.7250000000E-02   0.3622750000E-02   0.3622750000E-02   0.3675000000E-01  -0.1838825000E-01  -0.1838825000E-01  -0.7750000010E+01  -0.1348748959E-12   0.1366221269E-13   0.8346434061E-14   0.2508278423E-14  -0.8434822519E-13   0.2950000004E-01  -0.1476550002E-01  -0.1476550002E-01  -0.1320801742E-15  -0.1115040914E-16  -0.2746742342E-14   0.7750000010E+01
   0.0000000000E+00   0.9852345000E+00   0.9852345000E+00   0.0000000000E+00   0.3622750000E-02   0.3622750000E-02   0.0000000000E+00  -0.1838825000E-01  -0.1838825000E-01  -0.7750000010E+01   0.2996450332E-12   0.3975273694E-12  -0.1457050339E-13  -0.3642440837E-13  -0.1596879762E-12   0.2950000004E-01  -0.1476550002E-01  -0.1476550002E-01  -0.1483094497E-14  -0.8161704788E-15  -0.6620991556E-14   0.7750000010E+01
   0.2059000000E+01   0.0000000000E+00  -0.7073779325E-14  -0.1450000000E-01   0.0000000000E+00  -0.3326422184E-14   0.7350000000E-01   0.0000000000E+00  -0.3747357141E-14  -0.7750000012E+01  -0.3763514260E-12  -0.5116745355E-12   0.4264705238E-13   0.8098402982E-13   0.9782022541E-13   0.2950000004E-01  -0.1476550002E-01  -0.1476550002E-01   0.4991599237E-15   0.2666637874E-14   0.1854932166E-14   0.7750000012E+01
   0.2059000000E+01   0.9852345000E+00  -0.6146361151E-14  -0.1450000000E-01   0.3622750000E-02  -0.2561438243E-14   0.7350000000E-01  -0.1838825000E-01  -0.3584922908E-14  -0.7750000011E+01   0.2124783813E-12   0.4241128188E-13   0.3257897034E-13   0.3264452995E-13  -0.7942113048E-13   0.2950000004E-01  -0.1476550002E-01  -0.1476550002E-01   0.9859112934E-15   0.8831536568E-15  -0.3016860335E-14   0.7750000011E+01
   0.2059000000E+01   0.0000000000E+00   0.9852345000E+00  -0.1450000000E-01   0.0000000000E+00   0.3622750000E-02   0.7350000000E-01   0.0000000000E+00  -0.1838825000E-01  -0.7750000011E+01   0.2831057264E-12   0.5075086303E-12   0.3583876789E-13   0.8418024562E-13   0.7784405623E-13   0.2950000004E-01  -0.1476550002E-01  -0.1476550002E-01   0.5513362631E-15   0.2190243188E-14   0.1485870880E-14   0.7750000011E+01
   0.2059000000E+01   0.9852345000E+00   0.9852345000E+00  -0.1450000000E-01   0.3622750000E-02   0.3622750000E-02   0.7350000000E-01  -0.1838825000E-01  -0.1838825000E-01  -0.7750000010E+01   0.1273030709E-12   0.3105683827E-12   0.2864921734E-13   0.4045715971E-13  -0.9881958512E-13   0.2950000004E-01  -0.1476550002E-01  -0.1476550002E-01   0.1122620748E-14   0.3669447043E-15  -0.3392430458E-14   0.7750000010E+01
     1     2     3     4     5     6     7     8
     2     9    10     3     6    11    12     7
 VARIABLES = X,Y,Z,DU1,DU2,DU3,U1,U2,U3,S11,S22,S33,S12,S13,S23,E11,E22,E33,E12,E13,E23,SMISES
 ZONE, T="0.9950D+01" F=FEPOINT, I=   12 J=    2 ET=BRICK
   0.0000000000E+00   0.0000000000E+00   0.0000000000E+00   0.0000000000E+00   0.0000000000E+00   0.0000000000E+00   0.0000000000E+00   0.0000000000E+00   0.0000000000E+00  -0.8875000014E+01   0.3752599444E-11   0.3521578730E-11   0.4176547201E-16   0.1669635149E-12   0.3857061881E-12   0.4750000007E-02  -0.2392750004E-02  -0.2392750004E-02   0.5366879614E-17  -0.9356419538E-15   0.7688282922E-14   0.8875000014E+01
   0.1004750000E+01   0.0000000000E+00  -0.2118927309E-14  -0.2475000000E-01   0.0000000000E+00   0.1496038854E-14   0.2950000000E-01   0.0000000000E+00  -0.3614966163E-14  -0.8875000014E+01   0.1217495680E-11   0.7796898325E-12   0.1398727362E-12   0.4128950309E-13   0.2364641748E-12   0.4750000007E-02  -0.2392750004E-02  -0.2392750004E-02   0.3388247596E-14  -0.5577557761E-15   0.6799300770E-14   0.8875000014E+01
   0.1004750000E+01   0.9976072500E+00   0.1280134814E-14  -0.2475000000E-01   0.1237275000E-01   0.3602059228E-14   0.2950000000E-01  -0.1476550000E-01  -0.2321924414E-14  -0.8875000013E+01   0.2588962330E-12  -0.4556138179E-12   0.7744765888E-13  -0.2514909778E-13  -0.8933923201E-13   0.4750000007E-02  -0.2392750003E-02  -0.2392750003E-02   0.1571223574E-14  -0.9760500887E-15  -0.3602536825E-14   0.8875000013E+01
   0.0000000000E+00   0.9976072500E+00   0.3847067728E-14   0.0000000000E+00   0.1237275000E-01   0.4507103541E-14   0.0000000000E+00  -0.1476550000E-01  -0.6600358130E-15  -0.8875000013E+01  -0.1606065181E-11  -0.2126541434E-11   0.1039336405E-12  -0.2042848888E-13   0.5526881196E-13   0.4750000007E-02  -0.2392750003E-02  -0.2392750003E-02   0.1332332273E-14  -0.1957703569E-14  -0.2794753881E-14   0.8875000013E+01
   0.0000000000E+00   0.0000000000E+00   0.9976072500E+00   0.0000000000E+00   0.0000000000E+00   0.1237275000E-01   0.0000000000E+00   0.0000000000E+00  -0.1476550000E-01  -0.8875000013E+01  -0.7708257382E-12  -0.3377927565E-12   0.2768648881E-16   0.5316250963E-13   0.2384387192E-12   0.4750000007E-02  -0.2392750003E-02  -0.2392750003E-02   0.1482248887E-17  -0.2496125358E-14   0.4058036700E-14   0.8875000013E+01
   0.1004750000E+01   0.0000000000E+00   0.9976072500E+00  -0.2475000000E-01   0.0000000000E+00   0.1237275000E-01   0.2950000000E-01   0.0000000000E+00  -0.1476550000E-01  -0.8875000013E+01  -0.2792776201E-11  -0.2577866928E-11   0.1458133638E-12   0.9622000753E-13   0.9835541102E-13   0.4750000007E-02  -0.2392750003E-02  -0.2392750003E-02   0.3582989755E-14   0.1087540654E-14   0.3337987189E-14   0.8875000013E+01
   0.1004750000E+01   0.9976072500E+00   0.9976072500E+00  -0.2475000000E-01   0.1237275000E-01   0.1237275000E-01   0.2950000000E-01  -0.1476550000E-01  -0.1476550000E-01  -0.8875000012E+01   0.6761316416E-12   0.6117375077E-12   0.8906320594E-13   0.3550658337E-13  -0.2280843715E-12   0.4750000006E-02  -0.2392750003E-02  -0.2392750003E-02   0.1933855355E-14   0.7862064178E-15  -0.7047742297E-14   0.8875000012E+01
   0.0000000000E+00   0.9976072500E+00   0.9976072500E+00   0.0000000000E+00   0.1237275000E-01   0.1237275000E-01   0.0000000000E+00  -0.1476550000E-01  -0.1476550000E-01  -0.8875000012E+01  -0.2878324791E-12  -0.1501044156E-12   0.1065457652E-12  -0.1237593278E-12  -0.9187251244E-13   0.4750000006E-02  -0.2392750003E-02  -0.2392750003E-02   0.1383964635E-14  -0.3315572864E-14  -0.6448843260E-14   0.8875000012E+01
   0.2009500000E+01   0.0000000000E+00  -0.1084976901E-13  -0.4950000000E-01   0.0000000000E+00  -0.3775989680E-14   0.5900000000E-01   0.0000000000E+00  -0.7073779325E-14  -0.8875000013E+01  -0.6089042587E-12  -0.3732182114E-12   0.2754970618E-12  -0.8547766941E-13   0.2425492669E-12   0.4750000007E-02  -0.2392750004E-02  -0.2392750004E-02   0.6609992307E-14  -0.5351527875E-15   0.6465856273E-14   0.8875000013E+01
   0.2009500000E+01   0.9976072500E+00  -0.7617101828E-14  -0.4950000000E-01   0.1237275000E-01  -0.1470740677E-14   0.5900000000E-01  -0.1476550000E-01  -0.6146361151E-14  -0.8875000012E+01  -0.2237283148E-11  -0.2268083840E-11   0.4693496148E-13  -0.3423055571E-13  -0.7516014265E-13   0.4750000007E-02  -0.2392750003E-02  -0.2392750003E-02   0.1632988136E-14  -0.4321854845E-15  -0.3675548107E-14   0.8875000012E+01
   0.2009500000E+01   0.0000000000E+00   0.9976072500E+00  -0.4950000000E-01   0.0000000000E+00   0.1237275000E-01   0.5900000000E-01   0.0000000000E+00  -0.1476550000E-01  -0.8875000012E+01   0.4071321791E-12   0.1282993167E-11   0.2832768197E-12   0.1325206734E-12   0.1067220886E-12   0.4750000007E-02  -0.2392750003E-02  -0.2392750003E-02   0.6943135079E-14   0.4295867826E-14   0.3081008739E-14   0.8875000012E+01
   0.2009500000E+01   0.9976072500E+00   0.9976072500E+00  -0.4950000000E-01   0.1237275000E-01   0.1237275000E-01   0.5900000000E-01  -0.1476550000E-01  -0.1476550000E-01  -0.8875000011E+01   0.1939793485E-11   0.2542896042E-11   0.6371229246E-13   0.1877873930E-12  -0.2112548002E-12   0.4750000006E-02  -0.2392750003E-02  -0.2392750003E-02   0.2220478241E-14   0.4435774850E-14  -0.7079827556E-14   0.8875000011E+01
     1     2     3     4     5     6     7     8
     2     9    10     3     6    11    12     7
 VARIABLES = X,Y,Z,DU1,DU2,DU3,U1,U2,U3,S11,S22,S33,S12,S13,S23,E11,E22,E33,E12,E13,E23,SMISES
 ZONE, T="0.1000D+02" F=FEPOINT, I=   12 J=    2 ET=BRICK
   0.0000000000E+00   0.0000000000E+00   0.0000000000E+00   0.0000000000E+00   0.0000000000E+00   0.0000000000E+00   0.0000000000E+00   0.0000000000E+00   0.0000000000E+00  -0.1000000002E+02  -0.1162323240E-12  -0.7961476136E-13   0.6975497938E-16   0.9526718692E-14  -0.2309804264E-13  -0.2000000003E-01   0.9980000016E-02   0.9980000016E-02   0.2685795115E-17  -0.2414544910E-14   0.2203456105E-14   0.1000000002E+02
   0.9800000000E+00   0.0000000000E+00  -0.1762604240E-14  -0.2475000000E-01   0.0000000000E+00   0.3563230689E-15   0.4750000000E-02   0.0000000000E+00  -0.2118927309E-14  -0.1000000002E+02   0.3074271601E-12   0.3470561306E-12  -0.2747909527E-14  -0.1581036590E-14  -0.2106314737E-13  -0.2000000003E-01   0.9980000015E-02   0.9980000015E-02   0.1468732183E-14  -0.9683579658E-15   0.3052193329E-14   0.1000000002E+02
   0.9800000000E+00   0.1009980000E+01  -0.2355094800E-15  -0.2475000000E-01   0.1237275000E-01  -0.1515644294E-14   0.4750000000E-02  -0.2392750000E-02   0.1280134814E-14  -0.1000000001E+02  -0.3791317420E-12  -0.3344000177E-12   0.2666599087E-15  -0.5732034618E-15   0.1910004877E-13  -0.2000000003E-01   0.9980000014E-02   0.9980000014E-02   0.5743684751E-15  -0.6185028445E-15  -0.1804237948E-14   0.1000000001E+02
   0.0000000000E+00   0.1009980000E+01   0.1102129205E-14   0.0000000000E+00   0.1237275000E-01  -0.2744938524E-14   0.0000000000E+00  -0.2392750000E-02   0.3847067728E-14  -0.1000000001E+02  -0.5253368344E-12  -0.4768898487E-12   0.1266443357E-14   0.1155336015E-13   0.1857269351E-13  -0.2000000003E-01   0.9980000015E-02   0.9980000015E-02   0.1042089530E-15  -0.1271481434E-14  -0.2666522974E-14   0.1000000001E+02
   0.0000000000E+00   0.0000000000E+00   0.1009980000E+01   0.0000000000E+00   0.0000000000E+00   0.1237275000E-01   0.0000000000E+00   0.0000000000E+00  -0.2392750000E-02  -0.1000000001E+02  -0.2398378857E-12  -0.2849411779E-12  -0.5303500529E-16   0.1195923159E-13  -0.1827791216E-13  -0.2000000003E-01   0.9980000015E-02   0.9980000015E-02  -0.2063127614E-17  -0.2523137746E-14   0.6215338596E-15   0.1000000001E+02
   0.9800000000E+00   0.0000000000E+00   0.1009980000E+01  -0.2475000000E-01   0.0000000000E+00   0.1237275000E-01   0.4750000000E-02   0.0000000000E+00  -0.2392750000E-02  -0.1000000001E+02   0.2535575861E-12   0.2146919653E-12  -0.3605017803E-14  -0.2869607730E-15  -0.1879281357E-13  -0.2000000003E-01   0.9980000014E-02   0.9980000014E-02   0.1563068535E-14  -0.7249903364E-16   0.1484171945E-14   0.1000000001E+02
   0.9800000000E+00   0.1009980000E+01   0.1009980000E+01  -0.2475000000E-01   0.1237275000E-01   0.1237275000E-01   0.4750000000E-02  -0.2392750000E-02  -0.2392750000E-02  -0.1000000001E+02   0.9435839786E-13   0.5677721869E-13  -0.4212368749E-14  -0.1483483322E-14   0.2035809267E-13  -0.2000000003E-01   0.9980000013E-02   0.9980000013E-02   0.6753789865E-15   0.2930930656E-15  -0.3394666158E-14   0.1000000001E+02
   0.0000000000E+00   0.1009980000E+01   0.1009980000E+01   0.0000000000E+00   0.1237275000E-01   0.1237275000E-01   0.0000000000E+00  -0.2392750000E-02  -0.2392750000E-02  -0.1000000001E+02   0.6381067060E-12   0.6027451907E-12  -0.3032362221E-15   0.1104013727E-13   0.2360228192E-13  -0.2000000003E-01   0.9980000013E-02   0.9980000013E-02   0.9037150005E-16  -0.1370367349E-14  -0.4227226361E-14   0.1000000001E+02
   0.1960000000E+01   0.0000000000E+00  -0.5758901064E-14  -0.4950000000E-01   0.0000000000E+00   0.5090867942E-14   0.9500000000E-02   0.0000000000E+00  -0.1084976901E-13  -0.1000000002E+02   0.1227586544E-11   0.1255029111E-11  -0.2974856830E-14  -0.6299109596E-14  -0.1793963016E-13  -0.2000000003E-01   0.9980000015E-02   0.9980000015E-02   0.2873855127E-14   0.2014804623E-15   0.2765351094E-14   0.1000000002E+02
   0.1960000000E+01   0.1009980000E+01  -0.4377280214E-14  -0.4950000000E-01   0.1237275000E-01   0.3239821614E-14   0.9500000000E-02  -0.2392750000E-02  -0.7617101828E-14  -0.1000000001E+02   0.3990281495E-12   0.4305328510E-12   0.1997218342E-14  -0.8009915904E-14   0.1723398119E-13  -0.2000000003E-01   0.9980000014E-02   0.9980000014E-02   0.9935218732E-15  -0.2661152170E-15  -0.2100228314E-14   0.1000000001E+02
   0.1960000000E+01   0.0000000000E+00   0.1009980000E+01  -0.4950000000E-01   0.0000000000E+00   0.1237275000E-01   0.9500000000E-02   0.0000000000E+00  -0.2392750000E-02  -0.1000000001E+02   0.1119215293E-12   0.7111408609E-13  -0.7762173497E-14  -0.9765446267E-14  -0.1683961385E-13  -0.2000000003E-01   0.9980000014E-02   0.9980000014E-02   0.2968882292E-14   0.2179680546E-14   0.1220411487E-14   0.1000000001E+02
   0.1960000000E+01   0.1009980000E+01   0.1009980000E+01  -0.4950000000E-01   0.1237275000E-01   0.1237275000E-01   0.9500000000E-02  -0.2392750000E-02  -0.2392750000E-02  -0.1000000001E+02  -0.8082057019E-12  -0.8458848795E-12  -0.8284273802E-14  -0.1078827307E-13   0.1822141259E-13  -0.2000000003E-01   0.9980000013E-02   0.9980000013E-02   0.1102535370E-14   0.1720049388E-14  -0.3640356922E-14   0.1000000001E+02
     1     2     3     4     5     6     7     8
     2     9    10     3     6    11    12     7
