 VARIABLES = X,Y,Z,DU1,DU2,DU3,U1,U2,U3,S11,S22,S33,S12,S13,S23,E11,E22,E33,E12,E13,E23,SMISES
 ZONE, T="0.5000D-01" F=FEPOINT, I=   12 J=    2 ET=BRICK
   0.0000000000E+00   0.0000000000E+00   0.0000000000E+00   0.0000000000E+00   0.0000000000E+00   0.0000000000E+00   0.0000000000E+00   0.0000000000E+00   0.0000000000E+00   0.6250000010E+00   0.2756055314E-10   0.2757662483E-10  -0.2962324765E-17   0.6232952135E-13   0.3945563284E-13   0.1250000002E-02  -0.6237500010E-03  -0.6237500010E-03   0.3828441933E-19   0.7478400722E-15   0.4730988526E-15   0.6250000010E+00
   0.1001250000E+01   0.0000000000E+00   0.3302824189E-15   0.1250000000E-02   0.0000000000E+00   0.3302824189E-15   0.0000000000E+00   0.0000000000E+00   0.0000000000E+00   0.6250000010E+00   0.2216958344E-11   0.2178383508E-11   0.7747638455E-14   0.6323129296E-14   0.3060412334E-15   0.1250000002E-02  -0.6237500010E-03  -0.6237500010E-03   0.9276206311E-16   0.7437547517E-16   0.3699909316E-17   0.6250000010E+00
   0.1001250000E+01   0.9993762500E+00   0.3321177011E-15   0.1250000000E-02  -0.6237500000E-03   0.3321177011E-15   0.0000000000E+00   0.0000000000E+00   0.0000000000E+00   0.6250000009E+00   0.1246325188E-10   0.1246736419E-10   0.1508622616E-13  -0.1150527552E-13  -0.1643632081E-13   0.1250000002E-02  -0.6237500009E-03  -0.6237500009E-03   0.1814759200E-15  -0.1370038662E-15  -0.1972863651E-15   0.6250000009E+00
   0.0000000000E+00   0.9993762500E+00   0.2366257212E-15   0.0000000000E+00  -0.6237500000E-03   0.2366257212E-15   0.0000000000E+00   0.0000000000E+00   0.0000000000E+00   0.6250000009E+00   0.1973508699E-10   0.1969613645E-10  -0.1466237961E-13   0.1130758806E-14   0.1321287659E-13   0.1250000002E-02  -0.6237500009E-03  -0.6237500009E-03  -0.1761122043E-15   0.1340591731E-16   0.1585033718E-15   0.6250000009E+00
   0.0000000000E+00   0.0000000000E+00   0.9993762500E+00   0.0000000000E+00   0.0000000000E+00  -0.6237500000E-03   0.0000000000E+00   0.0000000000E+00   0.0000000000E+00   0.6250000009E+00  -0.5380534581E-11  -0.5311991243E-11   0.4786319936E-17   0.9693617219E-14   0.1193446443E-13   0.1250000002E-02  -0.6237500009E-03  -0.6237500009E-03   0.4600154433E-19   0.1168258885E-15   0.1432112662E-15   0.6250000009E+00
   0.1001250000E+01   0.0000000000E+00   0.9993762500E+00   0.1250000000E-02   0.0000000000E+00  -0.6237500000E-03   0.0000000000E+00   0.0000000000E+00   0.0000000000E+00   0.6250000009E+00  -0.1808557304E-10  -0.1809068344E-10  -0.1498166731E-13   0.7667885895E-14   0.2163745406E-13   0.1250000002E-02  -0.6237500009E-03  -0.6237500009E-03  -0.1796373623E-15   0.9108720311E-16   0.2592864554E-15   0.6250000009E+00
   0.1001250000E+01   0.9993762500E+00   0.9993762500E+00   0.1250000000E-02  -0.6237500000E-03  -0.6237500000E-03   0.0000000000E+00   0.0000000000E+00   0.0000000000E+00   0.6250000008E+00  -0.1309067662E-10  -0.1305315675E-10  -0.1327852961E-13  -0.1451040609E-13   0.4868873585E-14   0.1250000002E-02  -0.6237500008E-03  -0.6237500008E-03  -0.1593677317E-15  -0.1727734296E-15   0.5907627136E-16   0.6250000008E+00
   0.0000000000E+00   0.9993762500E+00   0.9993762500E+00   0.0000000000E+00  -0.6237500000E-03  -0.6237500000E-03   0.0000000000E+00   0.0000000000E+00   0.0000000000E+00   0.6250000008E+00  -0.2739000459E-10  -0.2737648144E-10   0.2432944126E-14   0.2397564979E-13  -0.1433258061E-13   0.1250000002E-02  -0.6237500008E-03  -0.6237500008E-03   0.2924166828E-16   0.2867951261E-15  -0.1720599250E-15   0.6250000008E+00
   0.2002500000E+01   0.0000000000E+00   0.4862041423E-15   0.2500000000E-02   0.0000000000E+00   0.4862041423E-15   0.0000000000E+00   0.0000000000E+00   0.0000000000E+00   0.6250000010E+00   0.2757251184E-10   0.2756468098E-10  -0.1617890012E-14  -0.2913663056E-13   0.4948735979E-13   0.1250000002E-02  -0.6237500009E-03  -0.6237500009E-03  -0.1943800440E-16  -0.3461040221E-15   0.5934832161E-15   0.6250000009E+00
   0.2002500000E+01   0.9993762500E+00   0.7829628457E-15   0.2500000000E-02  -0.6237500000E-03   0.7829628457E-15   0.0000000000E+00   0.0000000000E+00   0.0000000000E+00   0.6250000009E+00   0.2700256969E-11   0.2619546107E-11   0.2785417078E-13   0.2127284295E-13   0.1176305528E-13   0.1250000002E-02  -0.6237500009E-03  -0.6237500009E-03   0.3341383473E-15   0.2516187854E-15   0.1411302862E-15   0.6250000009E+00
   0.2002500000E+01   0.0000000000E+00   0.9993762500E+00   0.2500000000E-02   0.0000000000E+00  -0.6237500000E-03   0.0000000000E+00   0.0000000000E+00   0.0000000000E+00   0.6250000009E+00   0.4607581377E-11   0.4675211780E-11  -0.2270729710E-13   0.2649611234E-13   0.1302276523E-13   0.1250000002E-02  -0.6237500009E-03  -0.6237500009E-03  -0.2721624011E-15   0.3202658157E-15   0.1561076745E-15   0.6250000009E+00
   0.2002500000E+01   0.9993762500E+00   0.9993762500E+00   0.2500000000E-02  -0.6237500000E-03  -0.6237500000E-03   0.0000000000E+00   0.0000000000E+00   0.0000000000E+00   0.6250000008E+00  -0.1658331965E-10  -0.1658854082E-10  -0.2182562831E-13  -0.7870967749E-14  -0.2470620948E-13   0.1250000002E-02  -0.6237500008E-03  -0.6237500008E-03  -0.2621586560E-15  -0.9609555767E-16  -0.2965525195E-15   0.6250000008E+00
     1     2     3     4     5     6     7     8
     2     9    10     3     6    11    12     7
 VARIABLES = X,Y,Z,DU1,DU2,DU3,U1,U2,U3,S11,S22,S33,S12,S13,S23,E11,E22,E33,E12,E13,E23,SMISES
 ZONE, T="0.1000D+00" F=FEPOINT, I=   12 J=    2 ET=BRICK
   0.0000000000E+00   0.0000000000E+00   0.0000000000E+00   0.0000000000E+00   0.0000000000E+00   0.0000000000E+00   0.0000000000E+00   0.0000000000E+00   0.0000000000E+00   0.1250000002E+01   0.1905261446E-12   0.1905728576E-12  -0.4417299647E-17   0.1462831656E-15   0.1029353000E-15   0.2500000004E-02  -0.1247500002E-02  -0.1247500002E-02  -0.1474041999E-19   0.2293715425E-17   0.7526611200E-18   0.1250000002E+01
   0.1002500000E+01   0.0000000000E+00   0.1487433980E-17   0.1250000000E-02   0.0000000000E+00  -0.3287949849E-15   0.1250000000E-02   0.0000000000E+00   0.3302824189E-15   0.1250000002E+01   0.9507296215E-13   0.9498425110E-13  -0.1010272594E-15  -0.6665369719E-16   0.5220803353E-16   0.2500000004E-02  -0.1247500002E-02  -0.1247500002E-02  -0.1287982573E-17  -0.2114256948E-17   0.7075297860E-18   0.1250000002E+01
   0.1002500000E+01   0.9987525000E+00   0.1782477331E-17   0.1250000000E-02  -0.6237500000E-03  -0.3303352238E-15   0.1250000000E-02  -0.6237500000E-03   0.3321177011E-15   0.1250000002E+01   0.1475918689E-12   0.1475160392E-12  -0.6739807092E-16  -0.7052198365E-16  -0.9888399084E-16   0.2500000004E-02  -0.1247500002E-02  -0.1247500002E-02  -0.2680901737E-18   0.9213366339E-18  -0.1106653370E-17   0.1250000002E+01
   0.0000000000E+00   0.9987525000E+00   0.4911593116E-18   0.0000000000E+00  -0.6237500000E-03  -0.2361345619E-15   0.0000000000E+00  -0.6237500000E-03   0.2366257212E-15   0.1250000002E+01   0.7825799818E-13   0.7811241492E-13   0.7244045543E-16   0.1291331635E-15  -0.3366515425E-16   0.2500000004E-02  -0.1247500002E-02  -0.1247500002E-02   0.5986322067E-18   0.9942949571E-18  -0.3933502127E-18   0.1250000002E+01
   0.0000000000E+00   0.0000000000E+00   0.9987525000E+00   0.0000000000E+00   0.0000000000E+00  -0.6237500000E-03   0.0000000000E+00   0.0000000000E+00  -0.6237500000E-03   0.1250000002E+01  -0.1845534556E-12  -0.1845395778E-12  -0.1519134468E-16   0.1173642708E-15  -0.1281145783E-16   0.2500000004E-02  -0.1247500002E-02  -0.1247500002E-02  -0.1808509592E-18   0.2245492973E-17   0.6462427008E-18   0.1250000002E+01
   0.1002500000E+01   0.0000000000E+00   0.9987525000E+00   0.1250000000E-02   0.0000000000E+00  -0.6237500000E-03   0.1250000000E-02   0.0000000000E+00  -0.6237500000E-03   0.1250000002E+01  -0.1146866416E-12  -0.1145045046E-12   0.4320467312E-16  -0.8040127809E-16   0.6188604583E-16   0.2500000004E-02  -0.1247500002E-02  -0.1247500002E-02   0.5154631474E-18  -0.2235854629E-17   0.3778483598E-18   0.1250000002E+01
   0.1002500000E+01   0.9987525000E+00   0.9987525000E+00   0.1250000000E-02  -0.6237500000E-03  -0.6237500000E-03   0.1250000000E-02  -0.6237500000E-03  -0.6237500000E-03   0.1250000002E+01  -0.1161163994E-12  -0.1160656031E-12   0.2429816007E-16   0.4893704624E-17  -0.7881038313E-16   0.2500000003E-02  -0.1247500002E-02  -0.1247500002E-02   0.2107988568E-18   0.1985271421E-17  -0.3736476578E-18   0.1250000002E+01
   0.0000000000E+00   0.9987525000E+00   0.9987525000E+00   0.0000000000E+00  -0.6237500000E-03  -0.6237500000E-03   0.0000000000E+00  -0.6237500000E-03  -0.6237500000E-03   0.1250000002E+01  -0.1076214021E-12  -0.1073864762E-12  -0.1547676139E-16   0.2017590063E-15  -0.1021033327E-16   0.2500000003E-02  -0.1247500002E-02  -0.1247500002E-02  -0.1453049849E-18   0.1116058678E-17  -0.4023793118E-18   0.1250000002E+01
   0.2005000000E+01   0.0000000000E+00   0.4923265261E-17   0.2500000000E-02   0.0000000000E+00  -0.4812808770E-15   0.2500000000E-02   0.0000000000E+00   0.4862041423E-15   0.1250000002E+01  -0.6205905900E-15  -0.1046451756E-14   0.1152996095E-15  -0.1810581609E-15   0.9083612280E-16   0.2500000004E-02  -0.1247500002E-02  -0.1247500002E-02   0.1369198457E-17   0.2596300576E-17   0.1126217123E-17   0.1250000002E+01
   0.2005000000E+01   0.9987525000E+00   0.5558606177E-17   0.2500000000E-02  -0.6237500000E-03  -0.7774042396E-15   0.2500000000E-02  -0.6237500000E-03   0.7829628457E-15   0.1250000002E+01   0.2713246669E-12   0.2711614873E-12   0.2186526914E-15   0.1250442162E-15  -0.9461945840E-16   0.2500000003E-02  -0.1247500002E-02  -0.1247500002E-02   0.2638818535E-17  -0.5694872555E-17  -0.1060354475E-17   0.1250000002E+01
   0.2005000000E+01   0.0000000000E+00   0.9987525000E+00   0.2500000000E-02   0.0000000000E+00  -0.6237500000E-03   0.2500000000E-02   0.0000000000E+00  -0.6237500000E-03   0.1250000002E+01  -0.9883416243E-13  -0.9880740325E-13  -0.1592497208E-15   0.1723000330E-16   0.1427685732E-15   0.2500000003E-02  -0.1247500002E-02  -0.1247500002E-02  -0.1763749179E-17   0.3734413436E-17   0.1736543412E-17   0.1250000002E+01
   0.2005000000E+01   0.9987525000E+00   0.9987525000E+00   0.2500000000E-02  -0.6237500000E-03  -0.6237500000E-03   0.2500000000E-02  -0.6237500000E-03  -0.6237500000E-03   0.1250000002E+01  -0.1248517669E-12  -0.1246872262E-12  -0.8084856233E-16  -0.2106196058E-15  -0.6708563674E-16   0.2500000003E-02  -0.1247500002E-02  -0.1247500002E-02  -0.1438680131E-17  -0.5489414589E-17  -0.1168461491E-17   0.1250000002E+01
     1     2     3     4     5     6     7     8
     2     9    10     3     6    11    12     7
 VARIABLES = X,Y,Z,DU1,DU2,DU3,U1,U2,U3,S11,S22,S33,S12,S13,S23,E11,E22,E33,E12,E13,E23,SMISES
 ZONE, T="0.1500D+00" F=FEPOINT, I=   12 J=    2 ET=BRICK
   0.0000000000E+00   0.0000000000E+00   0.0000000000E+00   0.0000000000E+00   0.0000000000E+00   0.0000000000E+00   0.0000000000E+00   0.0000000000E+00   0.0000000000E+00   0.1875000003E+01  -0.2387109511E-13  -0.2376478773E-13  -0.9957988524E-19  -0.2519019569E-16  -0.8985843359E-17   0.3750000006E-02  -0.1871250003E-02  -0.1871250003E-02   0.1426747635E-18  -0.6548769156E-19   0.5392007587E-18   0.1875000003E+01
   0.1003750000E+01   0.0000000000E+00   0.4911529692E-19   0.1250000000E-02   0.0000000000E+00  -0.1438318684E-17   0.2500000000E-02   0.0000000000E+00   0.1487433980E-17   0.1875000003E+01   0.4330922639E-13   0.4351639680E-13   0.1145110860E-15   0.2566638914E-15   0.6913680722E-16   0.3750000006E-02  -0.1871250003E-02  -0.1871250003E-02   0.1562742926E-17   0.2954621914E-17   0.5906445705E-18   0.1875000003E+01
   0.1003750000E+01   0.9981287500E+00   0.4333408632E-18   0.1250000000E-02  -0.6237500000E-03  -0.1349136467E-17   0.2500000000E-02  -0.1247500000E-02   0.1782477331E-17   0.1875000003E+01  -0.1134206129E-12  -0.1133447833E-12   0.1373173700E-15  -0.1783937743E-15   0.1539057554E-15   0.3750000005E-02  -0.1871250003E-02  -0.1871250003E-02   0.2273908179E-17  -0.2378336677E-17   0.1916737102E-17   0.1875000003E+01
   0.0000000000E+00   0.9981287500E+00  -0.9189783069E-19   0.0000000000E+00  -0.6237500000E-03  -0.5830571423E-18   0.0000000000E+00  -0.1247500000E-02   0.4911593116E-18   0.1875000003E+01   0.1995437818E-13   0.1992117829E-13  -0.9140951776E-16   0.1617230720E-15  -0.6044162222E-16   0.3750000005E-02  -0.1871250003E-02  -0.1871250003E-02  -0.1000711577E-17   0.1023960147E-17  -0.6872918577E-18   0.1875000003E+01
   0.0000000000E+00   0.0000000000E+00   0.9981287500E+00   0.0000000000E+00   0.0000000000E+00  -0.6237500000E-03   0.0000000000E+00   0.0000000000E+00  -0.1247500000E-02   0.1875000003E+01   0.1135260865E-12   0.1137203755E-12  -0.2975635804E-16  -0.1366843481E-15  -0.8646435865E-16   0.3750000005E-02  -0.1871250003E-02  -0.1871250003E-02  -0.2225007123E-18  -0.2071258824E-17  -0.1885174583E-17   0.1875000003E+01
   0.1003750000E+01   0.0000000000E+00   0.9981287500E+00   0.1250000000E-02   0.0000000000E+00  -0.6237500000E-03   0.2500000000E-02   0.0000000000E+00  -0.1247500000E-02   0.1875000003E+01  -0.4647570845E-13  -0.4639987882E-13  -0.1984142983E-15   0.2680919790E-15   0.3113940079E-16   0.3750000005E-02  -0.1871250003E-02  -0.1871250003E-02  -0.2490551615E-17   0.4465332359E-17   0.5050204256E-18   0.1875000003E+01
   0.1003750000E+01   0.9981287500E+00   0.9981287500E+00   0.1250000000E-02  -0.6237500000E-03  -0.6237500000E-03   0.2500000000E-02  -0.1247500000E-02  -0.1247500000E-02   0.1875000002E+01   0.6769971872E-13   0.6764420758E-13  -0.2578397709E-15  -0.2474577759E-15   0.1087891744E-15   0.3750000005E-02  -0.1871250002E-02  -0.1871250002E-02  -0.3308801820E-17  -0.2051206119E-17   0.1203090788E-17   0.1875000002E+01
   0.0000000000E+00   0.9981287500E+00   0.9981287500E+00   0.0000000000E+00  -0.6237500000E-03  -0.6237500000E-03   0.0000000000E+00  -0.1247500000E-02  -0.1247500000E-02   0.1875000003E+01  -0.5943033535E-13  -0.5948113157E-13   0.3993849244E-16   0.1656361093E-15  -0.3280991222E-16   0.3750000005E-02  -0.1871250003E-02  -0.1871250003E-02   0.5498692439E-18   0.1590225077E-17   0.6797065404E-18   0.1875000003E+01
   0.2007500000E+01   0.0000000000E+00   0.4992818952E-18   0.2500000000E-02   0.0000000000E+00  -0.4423983366E-17   0.5000000000E-02   0.0000000000E+00   0.4923265261E-17   0.1875000003E+01   0.1902302296E-12   0.1900128999E-12  -0.5857411308E-15  -0.6319475215E-15  -0.1012325863E-15   0.3750000006E-02  -0.1871250003E-02  -0.1871250003E-02  -0.6683805711E-17  -0.5832923583E-17  -0.8141748849E-18   0.1875000003E+01
   0.2007500000E+01   0.9981287500E+00   0.6613023190E-19   0.2500000000E-02  -0.6237500000E-03  -0.5492475946E-17   0.5000000000E-02  -0.1247500000E-02   0.5558606177E-17   0.1875000003E+01  -0.1125212026E-12  -0.1125286397E-12  -0.4015316583E-15   0.7869978447E-15  -0.1566449151E-15   0.3750000005E-02  -0.1871250003E-02  -0.1871250003E-02  -0.5470969207E-17   0.6768232003E-17  -0.2826505142E-17   0.1875000003E+01
   0.2007500000E+01   0.0000000000E+00   0.9981287500E+00   0.2500000000E-02   0.0000000000E+00  -0.6237500000E-03   0.5000000000E-02   0.0000000000E+00  -0.1247500000E-02   0.1875000003E+01  -0.2617181442E-12  -0.2619530702E-12   0.3689838749E-15  -0.4067504385E-15  -0.2359389804E-16   0.3750000005E-02  -0.1871250003E-02  -0.1871250003E-02   0.4875948661E-17  -0.4340307704E-17  -0.2373461815E-18   0.1875000003E+01
   0.2007500000E+01   0.9981287500E+00   0.9981287500E+00   0.2500000000E-02  -0.6237500000E-03  -0.6237500000E-03   0.5000000000E-02  -0.1247500000E-02  -0.1247500000E-02   0.1875000002E+01   0.1929690742E-12   0.1930496188E-12   0.3569335092E-15   0.2336849382E-15  -0.1631122192E-15   0.3750000005E-02  -0.1871250002E-02  -0.1871250002E-02   0.3860616214E-17   0.6772280117E-17  -0.1064837688E-17   0.1875000002E+01
     1     2     3     4     5     6     7     8
     2     9    10     3     6    11    12     7
 VARIABLES = X,Y,Z,DU1,DU2,DU3,U1,U2,U3,S11,S22,S33,S12,S13,S23,E11,E22,E33,E12,E13,E23,SMISES
 ZONE, T="0.2000D+00" F=FEPOINT, I=   12 J=    2 ET=BRICK
   0.0000000000E+00   0.0000000000E+00   0.0000000000E+00   0.0000000000E+00   0.0000000000E+00   0.0000000000E+00   0.0000000000E+00   0.0000000000E+00   0.0000000000E+00   0.2500000004E+01  -0.3648897844E-12  -0.3648982178E-12  -0.1377288512E-16  -0.3187608601E-15  -0.2002247711E-15   0.5000000008E-02  -0.2495000004E-02  -0.2495000004E-02  -0.1539311136E-18  -0.3599474925E-17  -0.3292915052E-17   0.2500000004E+01
   0.1005000000E+01   0.0000000000E+00  -0.2351201679E-17   0.1250000000E-02   0.0000000000E+00  -0.2400316976E-17   0.3750000000E-02   0.0000000000E+00   0.4911529692E-19   0.2500000004E+01  -0.1562497369E-12  -0.1561813444E-12   0.5078583498E-15   0.4373501868E-15  -0.5584283909E-16   0.5000000008E-02  -0.2495000004E-02  -0.2495000004E-02   0.6019745982E-17   0.5216789028E-17  -0.3181384964E-18   0.2500000004E+01
   0.1005000000E+01   0.9975050000E+00  -0.2645493969E-17   0.1250000000E-02  -0.6237500000E-03  -0.3078834832E-17   0.3750000000E-02  -0.1871250000E-02   0.4333408632E-18   0.2500000004E+01  -0.1431059584E-12  -0.1430375659E-12   0.4362908288E-15  -0.3811831873E-15   0.1314651409E-15   0.5000000007E-02  -0.2495000004E-02  -0.2495000004E-02   0.5763338729E-17  -0.1912630420E-17   0.8278880490E-18   0.2500000004E+01
   0.0000000000E+00   0.9975050000E+00  -0.1214297427E-17   0.0000000000E+00  -0.6237500000E-03  -0.1122399597E-17   0.0000000000E+00  -0.1871250000E-02  -0.9189783069E-19   0.2500000004E+01  -0.3063095877E-13  -0.3053381429E-13   0.4039891143E-16  -0.6451841194E-16  -0.1277500413E-15   0.5000000007E-02  -0.2495000004E-02  -0.2495000004E-02   0.9596606482E-18  -0.1751937894E-17  -0.2221239754E-18   0.2500000004E+01
   0.0000000000E+00   0.0000000000E+00   0.9975050000E+00   0.0000000000E+00   0.0000000000E+00  -0.6237500000E-03   0.0000000000E+00   0.0000000000E+00  -0.1871250000E-02   0.2500000004E+01   0.2657807895E-12   0.2657114005E-12  -0.2325769394E-16  -0.2423902274E-15  -0.1584964413E-15   0.5000000007E-02  -0.2495000004E-02  -0.2495000004E-02  -0.8387017752E-18  -0.3457463089E-17  -0.5070700295E-18   0.2500000004E+01
   0.1005000000E+01   0.0000000000E+00   0.9975050000E+00   0.1250000000E-02   0.0000000000E+00  -0.6237500000E-03   0.3750000000E-02   0.0000000000E+00  -0.1871250000E-02   0.2500000004E+01   0.1478017735E-12   0.1477482551E-12  -0.3275775098E-15   0.5350745709E-15  -0.7970371990E-16   0.5000000007E-02  -0.2495000004E-02  -0.2495000004E-02  -0.2548849774E-17   0.7527571722E-17  -0.1601915876E-17   0.2500000004E+01
   0.1005000000E+01   0.9975050000E+00   0.9975050000E+00   0.1250000000E-02  -0.6237500000E-03  -0.6237500000E-03   0.3750000000E-02  -0.1871250000E-02  -0.1871250000E-02   0.2500000003E+01   0.2155238941E-12   0.2153038423E-12  -0.2954118201E-15  -0.3059298073E-15   0.6334926470E-16   0.5000000007E-02  -0.2495000003E-02  -0.2495000003E-02  -0.2569959088E-17  -0.4337307541E-17   0.1532096303E-17   0.2500000003E+01
   0.0000000000E+00   0.9975050000E+00   0.9975050000E+00   0.0000000000E+00  -0.6237500000E-03  -0.6237500000E-03   0.0000000000E+00  -0.1871250000E-02  -0.1871250000E-02   0.2500000003E+01   0.8613977251E-13   0.8575962795E-13   0.9701549298E-16  -0.1004207552E-15   0.6542944586E-16   0.5000000007E-02  -0.2495000003E-02  -0.2495000003E-02   0.9833463650E-18  -0.4510229788E-18  -0.1170279398E-17   0.2500000003E+01
   0.2010000000E+01   0.0000000000E+00  -0.7088086404E-17   0.2500000000E-02   0.0000000000E+00  -0.7587368300E-17   0.7500000000E-02   0.0000000000E+00   0.4992818952E-18   0.2500000004E+01  -0.3362846929E-13  -0.3329095445E-13  -0.2743775808E-16  -0.3706801131E-15  -0.7791676596E-16   0.5000000008E-02  -0.2495000004E-02  -0.2495000004E-02  -0.1453951298E-17  -0.5308954772E-17  -0.2795204692E-18   0.2500000004E+01
   0.2010000000E+01   0.9975050000E+00  -0.7430865497E-17   0.2500000000E-02  -0.6237500000E-03  -0.7496995729E-17   0.7500000000E-02  -0.1871250000E-02   0.6613023190E-19   0.2500000003E+01  -0.2054646380E-12  -0.2048996343E-12  -0.1915298903E-16   0.4872487844E-15   0.9731597154E-16   0.5000000007E-02  -0.2495000003E-02  -0.2495000003E-02  -0.1080943547E-17   0.2382515530E-17   0.1936552569E-18   0.2500000003E+01
   0.2010000000E+01   0.0000000000E+00   0.9975050000E+00   0.2500000000E-02   0.0000000000E+00  -0.6237500000E-03   0.7500000000E-02   0.0000000000E+00  -0.1871250000E-02   0.2500000003E+01  -0.8259754910E-13  -0.8277596755E-13   0.1833231749E-15  -0.3686035558E-16   0.4021458792E-16   0.5000000007E-02  -0.2495000003E-02  -0.2495000003E-02   0.1121265929E-18  -0.7280791117E-17  -0.4236526519E-18   0.2500000003E+01
   0.2010000000E+01   0.9975050000E+00   0.9975050000E+00   0.2500000000E-02  -0.6237500000E-03  -0.6237500000E-03   0.7500000000E-02  -0.1871250000E-02  -0.1871250000E-02   0.2500000003E+01   0.3674690316E-12   0.3676013688E-12   0.9811991853E-16   0.1690046790E-15   0.2338457575E-15   0.5000000006E-02  -0.2495000003E-02  -0.2495000003E-02  -0.2287881478E-17   0.7033996840E-17   0.3182131014E-17   0.2500000003E+01
     1     2     3     4     5     6     7     8
     2     9    10     3     6    11    12     7
 VARIABLES = X,Y,Z,DU1,DU2,DU3,U1,U2,U3,S11,S22,S33,S12,S13,S23,E11,E22,E33,E12,E13,E23,SMISES
 ZONE, T="0.2500D+00" F=FEPOINT, I=   12 J=    2 ET=BRICK
   0.0000000000E+00   0.0000000000E+00   0.0000000000E+00   0.0000000000E+00   0.0000000000E+00   0.0000000000E+00   0.0000000000E+00   0.0000000000E+00   0.0000000000E+00   0.3125000005E+01  -0.1999514532E-12  -0.1996020534E-12  -0.1483598604E-16  -0.1771731936E-15  -0.8008395848E-16   0.6250000010E-02  -0.3118750005E-02  -0.3118750005E-02  -0.5161606018E-18  -0.1984847012E-17  -0.1089845480E-17   0.3125000005E+01
   0.1006250000E+01   0.0000000000E+00  -0.2050428404E-17   0.1250000000E-02   0.0000000000E+00   0.3007732756E-18   0.5000000000E-02   0.0000000000E+00  -0.2351201679E-17   0.3125000005E+01  -0.2442228608E-12  -0.2440305645E-12   0.1398798036E-15   0.1687631069E-15  -0.7659093514E-16   0.6250000010E-02  -0.3118750005E-02  -0.3118750005E-02   0.1912666092E-17   0.1928220651E-17  -0.7782365513E-18   0.3125000005E+01
   0.1006250000E+01   0.9968812500E+00  -0.2493001800E-17   0.1250000000E-02  -0.6237500000E-03   0.1524921683E-18   0.5000000000E-02  -0.2495000000E-02  -0.2645493969E-17   0.3125000004E+01  -0.2376740498E-12  -0.2374817535E-12   0.5172296758E-16  -0.9009234135E-16   0.1556309149E-15   0.6250000009E-02  -0.3118750004E-02  -0.3118750004E-02   0.3770538760E-18  -0.2083199932E-17   0.1285060979E-17   0.3125000004E+01
   0.0000000000E+00   0.9968812500E+00  -0.4824925310E-18   0.0000000000E+00  -0.6237500000E-03   0.7318048962E-18   0.0000000000E+00  -0.2495000000E-02  -0.1214297427E-17   0.3125000005E+01  -0.1946130879E-12  -0.1940971546E-12  -0.4049525647E-16  -0.1111381809E-15  -0.2020129241E-17   0.6250000009E-02  -0.3118750005E-02  -0.3118750005E-02  -0.6702744319E-18  -0.1838385353E-17  -0.1196638894E-17   0.3125000005E+01
   0.0000000000E+00   0.0000000000E+00   0.9968812500E+00   0.0000000000E+00   0.0000000000E+00  -0.6237500000E-03   0.0000000000E+00   0.0000000000E+00  -0.2495000000E-02   0.3125000005E+01   0.2125118757E-12   0.2121624759E-12  -0.2744308343E-16  -0.2128468961E-15  -0.8156472455E-16   0.6250000009E-02  -0.3118750005E-02  -0.3118750005E-02   0.3831654280E-18  -0.2592814151E-17  -0.1007611634E-17   0.3125000005E+01
   0.1006250000E+01   0.0000000000E+00   0.9968812500E+00   0.1250000000E-02   0.0000000000E+00  -0.6237500000E-03   0.5000000000E-02   0.0000000000E+00  -0.2495000000E-02   0.3125000004E+01   0.2173585354E-12   0.2169739429E-12  -0.6421802788E-16   0.2162364758E-15  -0.9375113943E-16   0.6250000009E-02  -0.3118750004E-02  -0.3118750004E-02  -0.2928337610E-17   0.2754886316E-17  -0.9919602787E-18   0.3125000004E+01
   0.1006250000E+01   0.9968812500E+00   0.9968812500E+00   0.1250000000E-02  -0.6237500000E-03  -0.6237500000E-03   0.5000000000E-02  -0.2495000000E-02  -0.2495000000E-02   0.3125000004E+01   0.2778641773E-12   0.2774795848E-12  -0.6211100594E-16  -0.2003632489E-15   0.1153060754E-15   0.6250000008E-02  -0.3118750004E-02  -0.3118750004E-02  -0.3429606738E-17  -0.2473711815E-17   0.1122211689E-17   0.3125000004E+01
   0.0000000000E+00   0.9968812500E+00   0.9968812500E+00   0.0000000000E+00  -0.6237500000E-03  -0.6237500000E-03   0.0000000000E+00  -0.2495000000E-02  -0.2495000000E-02   0.3125000004E+01   0.1910829826E-12   0.1906889602E-12   0.1102485819E-15  -0.1033589850E-15   0.2004902970E-15   0.6250000008E-02  -0.3118750004E-02  -0.3118750004E-02   0.1974381903E-17  -0.1013118351E-17   0.3681037749E-17   0.3125000004E+01
   0.2012500000E+01   0.0000000000E+00  -0.8683963315E-17   0.2500000000E-02   0.0000000000E+00  -0.1595876910E-17   0.1000000000E-01   0.0000000000E+00  -0.7088086404E-17   0.3125000005E+01  -0.2769510788E-12  -0.2765312937E-12  -0.1220821593E-15  -0.3312781631E-15  -0.1217139977E-15   0.6250000009E-02  -0.3118750005E-02  -0.3118750005E-02  -0.2133495910E-17  -0.1414037760E-16  -0.1886334884E-17   0.3125000005E+01
   0.2012500000E+01   0.9968812500E+00  -0.9362620836E-17   0.2500000000E-02  -0.6237500000E-03  -0.1931755339E-17   0.1000000000E-01  -0.2495000000E-02  -0.7430865497E-17   0.3125000004E+01  -0.2152349911E-12  -0.2149817394E-12  -0.2348471440E-16   0.5313876122E-15  -0.3136420722E-17   0.6250000009E-02  -0.3118750004E-02  -0.3118750004E-02  -0.2551482081E-17   0.1235978393E-16   0.2126358185E-18   0.3125000004E+01
   0.2012500000E+01   0.0000000000E+00   0.9968812500E+00   0.2500000000E-02   0.0000000000E+00  -0.6237500000E-03   0.1000000000E-01   0.0000000000E+00  -0.2495000000E-02   0.3125000004E+01   0.1251685888E-12   0.1251333962E-12   0.1528968681E-15   0.7853883115E-16  -0.6980156614E-16   0.6250000009E-02  -0.3118750004E-02  -0.3118750004E-02   0.5071543452E-17   0.6771300501E-17  -0.1142524354E-17   0.3125000004E+01
   0.2012500000E+01   0.9968812500E+00   0.9968812500E+00   0.2500000000E-02  -0.6237500000E-03  -0.6237500000E-03   0.1000000000E-01  -0.2495000000E-02  -0.2495000000E-02   0.3125000004E+01   0.3215655969E-12   0.3215750267E-12  -0.4311965159E-17   0.2797750796E-15   0.9788989739E-16   0.6250000008E-02  -0.3118750004E-02  -0.3118750004E-02   0.3251599111E-17  -0.5172828921E-17   0.2063273681E-18   0.3125000004E+01
     1     2     3     4     5     6     7     8
     2     9    10     3     6    11    12     7
 VARIABLES = X,Y,Z,DU1,DU2,DU3,U1,U2,U3,S11,S22,S33,S12,S13,S23,E11,E22,E33,E12,E13,E23,SMISES
 ZONE, T="0.3000D+00" F=FEPOINT, I=   12 J=    2 ET=BRICK
   0.0000000000E+00   0.0000000000E+00   0.0000000000E+00   0.0000000000E+00   0.0000000000E+00   0.0000000000E+00   0.0000000000E+00   0.0000000000E+00   0.0000000000E+00   0.3750000006E+01   0.4248940722E-12   0.4250450020E-12  -0.2816087835E-16   0.3718908636E-15   0.2439113595E-15   0.7500000012E-02  -0.3742500006E-02  -0.3742500006E-02  -0.2857482324E-18   0.4958681621E-17   0.2894490913E-17   0.3750000006E+01
   0.1007500000E+01   0.0000000000E+00   0.2910076471E-17   0.1250000000E-02   0.0000000000E+00   0.4960504874E-17   0.6250000000E-02   0.0000000000E+00  -0.2050428404E-17   0.3750000006E+01  -0.6887171414E-14  -0.7432853010E-14  -0.1197051673E-15  -0.1537120793E-15  -0.8843055236E-16   0.7500000012E-02  -0.3742500006E-02  -0.3742500006E-02  -0.3478802476E-17  -0.1880100813E-17  -0.3242180818E-18   0.3750000006E+01
   0.1007500000E+01   0.9962575000E+00   0.2394206052E-17   0.1250000000E-02  -0.6237500000E-03   0.4887207852E-17   0.6250000000E-02  -0.3118750000E-02  -0.2493001800E-17   0.3750000005E+01   0.4607492553E-12   0.4607546997E-12  -0.4926095353E-15   0.7340829860E-16  -0.2788232150E-15   0.7500000011E-02  -0.3742500005E-02  -0.3742500005E-02  -0.6814750334E-17  -0.4020973512E-17  -0.3240538447E-17   0.3750000005E+01
   0.0000000000E+00   0.9962575000E+00   0.1602245640E-17   0.0000000000E+00  -0.6237500000E-03   0.2084738171E-17   0.0000000000E+00  -0.3118750000E-02  -0.4824925310E-18   0.3750000005E+01   0.3808096375E-13   0.3762326378E-13   0.1381824655E-15  -0.3141241451E-16  -0.1171582450E-15   0.7500000011E-02  -0.3742500005E-02  -0.3742500005E-02   0.1202906582E-17   0.3858455933E-18  -0.3272832205E-17   0.3750000005E+01
   0.0000000000E+00   0.0000000000E+00   0.9962575000E+00   0.0000000000E+00   0.0000000000E+00  -0.6237500000E-03   0.0000000000E+00   0.0000000000E+00  -0.3118750000E-02   0.3750000005E+01  -0.4409594624E-12  -0.4409012291E-12  -0.1046972624E-16   0.2932735184E-15   0.2006820853E-15   0.7500000011E-02  -0.3742500005E-02  -0.3742500005E-02   0.1147905165E-18   0.2034366416E-17   0.3717833387E-17   0.3750000005E+01
   0.1007500000E+01   0.0000000000E+00   0.9962575000E+00   0.1250000000E-02   0.0000000000E+00  -0.6237500000E-03   0.6250000000E-02   0.0000000000E+00  -0.3118750000E-02   0.3750000005E+01  -0.8338823451E-13  -0.8350470114E-13   0.2262203785E-15  -0.2562453357E-15   0.2676914095E-16   0.7500000011E-02  -0.3742500005E-02  -0.3742500005E-02  -0.1061642824E-17  -0.2859913879E-17   0.3356614273E-18   0.3750000005E+01
   0.1007500000E+01   0.9962575000E+00   0.9962575000E+00   0.1250000000E-02  -0.6237500000E-03  -0.6237500000E-03   0.6250000000E-02  -0.3118750000E-02  -0.3118750000E-02   0.3750000005E+01  -0.7605020550E-13  -0.7573745712E-13   0.3064142589E-15  -0.5511597271E-16  -0.2013697103E-15   0.7500000010E-02  -0.3742500005E-02  -0.3742500005E-02  -0.3137586567E-18  -0.3416064920E-17  -0.1396852864E-17   0.3750000005E+01
   0.0000000000E+00   0.9962575000E+00   0.9962575000E+00   0.0000000000E+00  -0.6237500000E-03  -0.6237500000E-03   0.0000000000E+00  -0.3118750000E-02  -0.3118750000E-02   0.3750000005E+01  -0.2718839992E-12  -0.2717965515E-12   0.2022721508E-15   0.2596717585E-15  -0.8712336401E-16   0.7500000010E-02  -0.3742500005E-02  -0.3742500005E-02   0.2697857907E-17   0.5405492002E-17  -0.2317850998E-17   0.3750000005E+01
   0.2015000000E+01   0.0000000000E+00   0.7814317567E-17   0.2500000000E-02   0.0000000000E+00   0.1649828088E-16   0.1250000000E-01   0.0000000000E+00  -0.8683963315E-17   0.3750000006E+01  -0.7965968058E-12  -0.7959299427E-12   0.1453948818E-14   0.6085106809E-15  -0.7905999965E-16   0.7500000011E-02  -0.3742500006E-02  -0.3742500006E-02   0.1361396041E-16   0.2654570663E-17  -0.1716900660E-17   0.3750000006E+01
   0.2015000000E+01   0.9962575000E+00   0.7442562767E-17   0.2500000000E-02  -0.6237500000E-03   0.1680518360E-16   0.1250000000E-01  -0.3118750000E-02  -0.9362620836E-17   0.3750000005E+01   0.4981776737E-12   0.4989793292E-12   0.8600466970E-15  -0.4776317059E-15   0.1862738871E-15   0.7500000010E-02  -0.3742500005E-02  -0.3742500005E-02   0.8528007846E-17   0.9951088399E-18   0.3302875674E-17   0.3750000005E+01
   0.2015000000E+01   0.0000000000E+00   0.9962575000E+00   0.2500000000E-02   0.0000000000E+00  -0.6237500000E-03   0.1250000000E-01   0.0000000000E+00  -0.3118750000E-02   0.3750000005E+01   0.7945736292E-13   0.7883312953E-13  -0.2490290512E-15   0.7184101012E-15   0.1721587571E-15   0.7500000010E-02  -0.3742500005E-02  -0.3742500005E-02   0.2663799683E-17   0.1378466476E-16   0.2278929317E-17   0.3750000005E+01
   0.2015000000E+01   0.9962575000E+00   0.9962575000E+00   0.2500000000E-02  -0.6237500000E-03  -0.6237500000E-03   0.1250000000E-01  -0.3118750000E-02  -0.3118750000E-02   0.3750000005E+01  -0.1022535246E-12  -0.1024708542E-12  -0.4382273127E-15  -0.8570737913E-15   0.5176766948E-15   0.7500000010E-02  -0.3742500005E-02  -0.3742500005E-02  -0.2783700801E-18  -0.2285991624E-16   0.4006632049E-17   0.3750000005E+01
     1     2     3     4     5     6     7     8
     2     9    10     3     6    11    12     7
 VARIABLES = X,Y,Z,DU1,DU2,DU3,U1,U2,U3,S11,S22,S33,S12,S13,S23,E11,E22,E33,E12,E13,E23,SMISES
 ZONE, T="0.3500D+00" F=FEPOINT, I=   12 J=    2 ET=BRICK
   0.0000000000E+00   0.0000000000E+00   0.0000000000E+00   0.0000000000E+00   0.0000000000E+00   0.0000000000E+00   0.0000000000E+00   0.0000000000E+00   0.0000000000E+00   0.4375000007E+01   0.5372986528E-12   0.5375132603E-12  -0.2988060498E-16   0.3494916763E-15   0.1954270094E-15   0.8750000014E-02  -0.4366250007E-02  -0.4366250007E-02   0.3677040994E-18   0.3518796070E-17   0.2318671890E-17   0.4375000007E+01
   0.1008750000E+01   0.0000000000E+00   0.4250804052E-17   0.1250000000E-02   0.0000000000E+00   0.1340727581E-17   0.7500000000E-02   0.0000000000E+00   0.2910076471E-17   0.4375000007E+01   0.3590184608E-12   0.3584158092E-12  -0.1159298251E-15  -0.2912259564E-16   0.2149236500E-15   0.8750000013E-02  -0.4366250007E-02  -0.4366250007E-02  -0.4438546010E-17   0.4548936222E-18   0.2742410452E-17   0.4375000007E+01
   0.1008750000E+01   0.9956337500E+00   0.5589551703E-17   0.1250000000E-02  -0.6237500000E-03   0.3195345652E-17   0.7500000000E-02  -0.3742500000E-02   0.2394206052E-17   0.4375000006E+01   0.5368476482E-12   0.5367515001E-12  -0.2547794375E-15   0.4038161452E-16  -0.1419345962E-15   0.8750000012E-02  -0.4366250006E-02  -0.4366250006E-02  -0.5355363156E-17   0.4442867995E-18  -0.1892193764E-17   0.4375000006E+01
   0.0000000000E+00   0.9956337500E+00   0.1280396983E-17   0.0000000000E+00  -0.6237500000E-03  -0.3218486566E-18   0.0000000000E+00  -0.3742500000E-02   0.1602245640E-17   0.4375000006E+01   0.3370810342E-12   0.3365427897E-12   0.1277042456E-15   0.4543055207E-15  -0.2454712736E-15   0.8750000013E-02  -0.4366250006E-02  -0.4366250006E-02   0.3341302591E-17   0.5991453205E-17  -0.4461755956E-17   0.4375000006E+01
   0.0000000000E+00   0.0000000000E+00   0.9956337500E+00   0.0000000000E+00   0.0000000000E+00  -0.6237500000E-03   0.0000000000E+00   0.0000000000E+00  -0.3742500000E-02   0.4375000006E+01  -0.4245150531E-12  -0.4245279345E-12  -0.7930622242E-17   0.2632066782E-15   0.2444152179E-15   0.8750000013E-02  -0.4366250006E-02  -0.4366250006E-02  -0.3616596012E-18   0.2158851688E-17   0.3750318783E-17   0.4375000006E+01
   0.1008750000E+01   0.0000000000E+00   0.9956337500E+00   0.1250000000E-02   0.0000000000E+00  -0.6237500000E-03   0.7500000000E-02   0.0000000000E+00  -0.3742500000E-02   0.4375000006E+01  -0.4745655893E-12  -0.4748025081E-12  -0.8158763473E-16  -0.1104075171E-15   0.2971619930E-15   0.8750000012E-02  -0.4366250006E-02  -0.4366250006E-02  -0.3708060868E-18   0.1517543242E-17   0.4358598517E-17   0.4375000006E+01
   0.1008750000E+01   0.9956337500E+00   0.9956337500E+00   0.1250000000E-02  -0.6237500000E-03  -0.6237500000E-03   0.7500000000E-02  -0.3742500000E-02  -0.3742500000E-02   0.4375000006E+01  -0.2161342222E-12  -0.2157753925E-12  -0.1096671139E-15  -0.1839168142E-15  -0.3921020131E-16   0.8750000011E-02  -0.4366250006E-02  -0.4366250006E-02   0.1770414044E-18  -0.5497268131E-17   0.1118047358E-17   0.4375000006E+01
   0.0000000000E+00   0.9956337500E+00   0.9956337500E+00   0.0000000000E+00  -0.6237500000E-03  -0.6237500000E-03   0.0000000000E+00  -0.3742500000E-02  -0.3742500000E-02   0.4375000006E+01  -0.5833104697E-12  -0.5827558922E-12   0.2494658497E-15   0.5810571875E-15  -0.1362446484E-15   0.8750000012E-02  -0.4366250006E-02  -0.4366250006E-02   0.1172466360E-17   0.8436741939E-17  -0.1892984620E-17   0.4375000006E+01
   0.2017500000E+01   0.0000000000E+00   0.1645504286E-16   0.2500000000E-02   0.0000000000E+00   0.8640725292E-17   0.1500000000E-01   0.0000000000E+00   0.7814317567E-17   0.4375000007E+01   0.3152720370E-13   0.3126107055E-13   0.2083232204E-15  -0.6892190870E-15   0.2541302784E-16   0.8750000013E-02  -0.4366250007E-02  -0.4366250007E-02   0.2045568796E-17  -0.2674165524E-18   0.6121768326E-18   0.4375000007E+01
   0.2017500000E+01   0.9956337500E+00   0.1667000751E-16   0.2500000000E-02  -0.6237500000E-03   0.9227444743E-17   0.1500000000E-01  -0.3742500000E-02   0.7442562767E-17   0.4375000006E+01   0.6686715104E-12   0.6683513250E-12   0.1417336616E-15  -0.7171656053E-16  -0.6143941912E-15   0.8750000012E-02  -0.4366250006E-02  -0.4366250006E-02   0.3604709410E-17  -0.4176995133E-17  -0.5492065771E-17   0.4375000006E+01
   0.2017500000E+01   0.0000000000E+00   0.9956337500E+00   0.2500000000E-02   0.0000000000E+00  -0.6237500000E-03   0.1500000000E-01   0.0000000000E+00  -0.3742500000E-02   0.4375000006E+01  -0.8643414334E-12  -0.8641362557E-12   0.7516202225E-15  -0.5406106938E-15   0.4157692394E-15   0.8750000012E-02  -0.4366250006E-02  -0.4366250006E-02   0.1475601606E-16  -0.1657510483E-16   0.1772286187E-17   0.4375000006E+01
   0.2017500000E+01   0.9956337500E+00   0.9956337500E+00   0.2500000000E-02  -0.6237500000E-03  -0.6237500000E-03   0.1500000000E-01  -0.3742500000E-02  -0.3742500000E-02   0.4375000006E+01  -0.1074149693E-12  -0.1060981099E-12   0.1931294996E-15  -0.2432151467E-17  -0.1964632853E-15   0.8750000011E-02  -0.4366250006E-02  -0.4366250006E-02   0.7548208324E-18   0.1803845925E-16  -0.3561237009E-17   0.4375000006E+01
     1     2     3     4     5     6     7     8
     2     9    10     3     6    11    12     7
 VARIABLES = X,Y,Z,DU1,DU2,DU3,U1,U2,U3,S11,S22,S33,S12,S13,S23,E11,E22,E33,E12,E13,E23,SMISES
 ZONE, T="0.4000D+00" F=FEPOINT, I=   12 J=    2 ET=BRICK
   0.0000000000E+00   0.0000000000E+00   0.0000000000E+00   0.0000000000E+00   0.0000000000E+00   0.0000000000E+00   0.0000000000E+00   0.0000000000E+00   0.0000000000E+00   0.5000000008E+01  -0.1500672565E-12  -0.1493441528E-12  -0.3097621233E-16  -0.1015784330E-15  -0.7327642515E-16   0.1000000002E-01  -0.4990000008E-02  -0.4990000008E-02  -0.1494711288E-18  -0.1290703503E-17  -0.1272084388E-17   0.5000000008E+01
   0.1010000000E+01   0.0000000000E+00  -0.3386105946E-18   0.1250000000E-02   0.0000000000E+00  -0.4589414647E-17   0.8750000000E-02   0.0000000000E+00   0.4250804052E-17   0.5000000008E+01   0.9976471350E-13   0.1003307136E-12   0.5250845554E-15   0.6460282689E-15   0.1193774383E-15   0.1000000002E-01  -0.4990000008E-02  -0.4990000008E-02   0.5097254010E-17   0.1138579947E-16   0.2655661282E-17   0.5000000008E+01
   0.1010000000E+01   0.9950100000E+00   0.4599794236E-18   0.1250000000E-02  -0.6237500000E-03  -0.5129572280E-17   0.8750000000E-02  -0.4366250000E-02   0.5589551703E-17   0.5000000007E+01  -0.1933111565E-12  -0.1928155417E-12   0.5277101831E-15  -0.3067454732E-15   0.1571016596E-15   0.1000000001E-01  -0.4990000007E-02  -0.4990000007E-02   0.4138789045E-17  -0.6220759671E-17  -0.7596958105E-18   0.5000000007E+01
   0.0000000000E+00   0.9950100000E+00  -0.3147426863E-18   0.0000000000E+00  -0.6237500000E-03  -0.1595139669E-17   0.0000000000E+00  -0.4366250000E-02   0.1280396983E-17   0.5000000007E+01   0.2424049466E-12   0.2421313764E-12  -0.2534360706E-15   0.1105379719E-15  -0.1187283589E-15   0.1000000001E-01  -0.4990000007E-02  -0.4990000007E-02  -0.2571272318E-17   0.4376371624E-18   0.1457766959E-17   0.5000000007E+01
   0.0000000000E+00   0.0000000000E+00   0.9950100000E+00   0.0000000000E+00   0.0000000000E+00  -0.6237500000E-03   0.0000000000E+00   0.0000000000E+00  -0.4366250000E-02   0.5000000007E+01   0.3596358625E-12   0.3595382556E-12  -0.1364442341E-16  -0.9502483639E-16  -0.1392481314E-15   0.1000000001E-01  -0.4990000007E-02  -0.4990000007E-02  -0.6145865953E-18  -0.3949029942E-17  -0.5103202303E-17   0.5000000007E+01
   0.1010000000E+01   0.0000000000E+00   0.9950100000E+00   0.1250000000E-02   0.0000000000E+00  -0.6237500000E-03   0.8750000000E-02   0.0000000000E+00  -0.4366250000E-02   0.5000000007E+01   0.6308887264E-13   0.6298873900E-13  -0.7471500399E-15   0.6821374026E-15  -0.1632015056E-15   0.1000000001E-01  -0.4990000007E-02  -0.4990000007E-02  -0.1015075702E-16   0.1060464707E-16  -0.9008653438E-18   0.5000000007E+01
   0.1010000000E+01   0.9950100000E+00   0.9950100000E+00   0.1250000000E-02  -0.6237500000E-03  -0.6237500000E-03   0.8750000000E-02  -0.4366250000E-02  -0.4366250000E-02   0.5000000007E+01  -0.2307750419E-12  -0.2308563158E-12  -0.5552396719E-15  -0.7132166031E-15  -0.1639201896E-15   0.1000000001E-01  -0.4990000007E-02  -0.4990000007E-02  -0.9741159561E-17  -0.7532103183E-17   0.4296353228E-17   0.5000000007E+01
   0.0000000000E+00   0.9950100000E+00   0.9950100000E+00   0.0000000000E+00  -0.6237500000E-03  -0.6237500000E-03   0.0000000000E+00  -0.4366250000E-02  -0.4366250000E-02   0.5000000007E+01  -0.2211415692E-12  -0.2211266951E-12  -0.1849045952E-15   0.6060715499E-16  -0.1421290859E-15   0.1000000001E-01  -0.4990000007E-02  -0.4990000007E-02  -0.1633184541E-17   0.2995618646E-17  -0.4520017412E-17   0.5000000007E+01
   0.2020000000E+01   0.0000000000E+00  -0.1032160245E-18   0.2500000000E-02   0.0000000000E+00  -0.1655825888E-16   0.1750000000E-01   0.0000000000E+00   0.1645504286E-16   0.5000000008E+01   0.5959631976E-12   0.5958467310E-12  -0.7884968061E-15  -0.5719281392E-15   0.2366855734E-15   0.1000000002E-01  -0.4990000008E-02  -0.4990000008E-02  -0.2764830715E-17  -0.8948634001E-17   0.3846920220E-17   0.5000000008E+01
   0.2020000000E+01   0.9950100000E+00   0.1426893227E-17   0.2500000000E-02  -0.6237500000E-03  -0.1524311428E-16   0.1750000000E-01  -0.4366250000E-02   0.1667000751E-16   0.5000000007E+01  -0.1937225918E-12  -0.1948030664E-12  -0.1272382318E-15  -0.3009388269E-15   0.1157479886E-15   0.1000000001E-01  -0.4990000007E-02  -0.4990000007E-02   0.7145973144E-17  -0.3024769169E-17   0.3867881834E-17   0.5000000007E+01
   0.2020000000E+01   0.0000000000E+00   0.9950100000E+00   0.2500000000E-02   0.0000000000E+00  -0.6237500000E-03   0.1750000000E-01   0.0000000000E+00  -0.4366250000E-02   0.5000000007E+01  -0.1518704527E-12  -0.1523199862E-12  -0.7567398163E-15  -0.2572916702E-15   0.1691375485E-15   0.1000000001E-01  -0.4990000007E-02  -0.4990000007E-02  -0.4118113952E-17  -0.1003588218E-16  -0.6079526863E-18   0.5000000007E+01
   0.2020000000E+01   0.9950100000E+00   0.9950100000E+00   0.2500000000E-02  -0.6237500000E-03  -0.6237500000E-03   0.1750000000E-01  -0.4366250000E-02  -0.4366250000E-02   0.5000000006E+01   0.3127108076E-13   0.3123442924E-13  -0.4639882851E-15   0.2448337216E-15   0.5194167458E-16   0.1000000001E-01  -0.4990000006E-02  -0.4990000006E-02  -0.4388218899E-17   0.6195433553E-17  -0.3468203311E-17   0.5000000006E+01
     1     2     3     4     5     6     7     8
     2     9    10     3     6    11    12     7
 VARIABLES = X,Y,Z,DU1,DU2,DU3,U1,U2,U3,S11,S22,S33,S12,S13,S23,E11,E22,E33,E12,E13,E23,SMISES
 ZONE, T="0.4500D+00" F=FEPOINT, I=   12 J=    2 ET=BRICK
   0.0000000000E+00   0.0000000000E+00   0.0000000000E+00   0.0000000000E+00   0.0000000000E+00   0.0000000000E+00   0.0000000000E+00   0.0000000000E+00   0.0000000000E+00   0.5625000009E+01   0.1368769674E-12   0.1372385192E-12  -0.4388782019E-16   0.3952532543E-15   0.1425508221E-15   0.1125000002E-01  -0.5613750009E-02  -0.5613750009E-02  -0.9254385063E-19   0.4734822867E-17   0.9196496447E-18   0.5625000009E+01
   0.1011250000E+01   0.0000000000E+00   0.2186543850E-17   0.1250000000E-02   0.0000000000E+00   0.2525154445E-17   0.1000000000E-01   0.0000000000E+00  -0.3386105946E-18   0.5625000009E+01   0.6923509071E-13   0.6980653515E-13   0.5345278616E-15  -0.5139750474E-16   0.1299964144E-15   0.1125000002E-01  -0.5613750009E-02  -0.5613750009E-02   0.3860480915E-17  -0.3508045552E-17   0.1050855198E-17   0.5625000009E+01
   0.1011250000E+01   0.9943862500E+00   0.2982311113E-17   0.1250000000E-02  -0.6237500000E-03   0.2522331689E-17   0.1000000000E-01  -0.4990000000E-02   0.4599794236E-18   0.5625000008E+01  -0.2833293537E-12  -0.2828540574E-12   0.3799498677E-15  -0.2435783521E-15   0.8537794664E-16   0.1125000002E-01  -0.5613750008E-02  -0.5613750008E-02   0.2831228300E-17  -0.5567690070E-17   0.4646075881E-17   0.5625000008E+01
   0.0000000000E+00   0.9943862500E+00   0.1047525273E-17   0.0000000000E+00  -0.6237500000E-03   0.1362267959E-17   0.0000000000E+00  -0.4990000000E-02  -0.3147426863E-18   0.5625000008E+01   0.5481591899E-12   0.5475369493E-12  -0.5330586522E-15   0.3376699323E-15  -0.1028992942E-15   0.1125000002E-01  -0.5613750008E-02  -0.5613750008E-02  -0.7457268598E-17   0.4213249999E-17  -0.1891202958E-19   0.5625000008E+01
   0.0000000000E+00   0.0000000000E+00   0.9943862500E+00   0.0000000000E+00   0.0000000000E+00  -0.6237500000E-03   0.0000000000E+00   0.0000000000E+00  -0.4990000000E-02   0.5625000008E+01  -0.1936967362E-12  -0.1936528431E-12  -0.1611289290E-17   0.2433750329E-15   0.7804436739E-17   0.1125000002E-01  -0.5613750008E-02  -0.5613750008E-02   0.5785782228E-18   0.4646978541E-17  -0.2346151158E-17   0.5625000008E+01
   0.1011250000E+01   0.0000000000E+00   0.9943862500E+00   0.1250000000E-02   0.0000000000E+00  -0.6237500000E-03   0.1000000000E-01   0.0000000000E+00  -0.4990000000E-02   0.5625000008E+01   0.9557006723E-13   0.9537922981E-13   0.1128537839E-15   0.2939286505E-17  -0.7117814989E-16   0.1125000002E-01  -0.5613750008E-02  -0.5613750008E-02  -0.2302641536E-17  -0.1812851165E-17   0.1508370174E-18   0.5625000008E+01
   0.1011250000E+01   0.9943862500E+00   0.9943862500E+00   0.1250000000E-02  -0.6237500000E-03  -0.6237500000E-03   0.1000000000E-01  -0.4990000000E-02  -0.4990000000E-02   0.5625000007E+01  -0.1767579302E-12  -0.1765006930E-12   0.3292781384E-15  -0.6462446786E-15  -0.1409141499E-15   0.1125000001E-01  -0.5613750007E-02  -0.5613750007E-02   0.1991608674E-17  -0.3306485661E-17  -0.7129228415E-17   0.5625000007E+01
   0.0000000000E+00   0.9943862500E+00   0.9943862500E+00   0.0000000000E+00  -0.6237500000E-03  -0.6237500000E-03   0.0000000000E+00  -0.4990000000E-02  -0.4990000000E-02   0.5625000008E+01  -0.1451199394E-12  -0.1451781727E-12  -0.3345700491E-15   0.3742202061E-15  -0.1749311036E-15   0.1125000002E-01  -0.5613750008E-02  -0.5613750008E-02  -0.1799284564E-17   0.4960355443E-17   0.3627110810E-17   0.5625000008E+01
   0.2022500000E+01   0.0000000000E+00   0.3194862355E-17   0.2500000000E-02   0.0000000000E+00   0.3298078379E-17   0.2000000000E-01   0.0000000000E+00  -0.1032160245E-18   0.5625000009E+01   0.4028232742E-12   0.4031684931E-12  -0.9904722092E-15   0.2088006552E-16   0.1782736101E-15   0.1125000002E-01  -0.5613750008E-02  -0.5613750008E-02  -0.1104986845E-16   0.4415262984E-17   0.2266056781E-17   0.5625000009E+01
   0.2022500000E+01   0.9943862500E+00   0.4407357386E-17   0.2500000000E-02  -0.6237500000E-03   0.2980464159E-17   0.2000000000E-01  -0.4990000000E-02   0.1426893227E-17   0.5625000008E+01  -0.7156515699E-12  -0.7167570779E-12  -0.3745993962E-15   0.1898874742E-15   0.2571434930E-15   0.1125000002E-01  -0.5613750008E-02  -0.5613750008E-02  -0.9507484983E-18  -0.1303836790E-16   0.1837870819E-17   0.5625000008E+01
   0.2022500000E+01   0.0000000000E+00   0.9943862500E+00   0.2500000000E-02   0.0000000000E+00  -0.6237500000E-03   0.2000000000E-01   0.0000000000E+00  -0.4990000000E-02   0.5625000008E+01   0.6740911347E-12   0.6736517605E-12  -0.9933429407E-15   0.5065889162E-15  -0.5370352514E-16   0.1125000002E-01  -0.5613750008E-02  -0.5613750008E-02  -0.7544953265E-17   0.1599890401E-17  -0.1890538019E-17   0.5625000008E+01
   0.2022500000E+01   0.9943862500E+00   0.9943862500E+00   0.2500000000E-02  -0.6237500000E-03  -0.6237500000E-03   0.2000000000E-01  -0.4990000000E-02  -0.4990000000E-02   0.5625000007E+01   0.8225594217E-13   0.8172639804E-13  -0.4904503623E-15   0.5772095916E-15  -0.5854779618E-16   0.1125000001E-01  -0.5613750007E-02  -0.5613750007E-02  -0.4461466222E-17   0.1056951378E-16   0.1623794392E-17   0.5625000007E+01
     1     2     3     4     5     6     7     8
     2     9    10     3     6    11    12     7
 VARIABLES = X,Y,Z,DU1,DU2,DU3,U1,U2,U3,S11,S22,S33,S12,S13,S23,E11,E22,E33,E12,E13,E23,SMISES
 ZONE, T="0.5000D+00" F=FEPOINT, I=   12 J=    2 ET=BRICK
   0.0000000000E+00   0.0000000000E+00   0.0000000000E+00   0.0000000000E+00   0.0000000000E+00   0.0000000000E+00   0.0000000000E+00   0.0000000000E+00   0.0000000000E+00   0.6250000010E+01  -0.3676251611E-12  -0.3673976723E-12  -0.3933180607E-16  -0.9570546412E-16  -0.1907919988E-15   0.1250000002E-01  -0.6237500010E-02  -0.6237500010E-02   0.1703458149E-18   0.2070192848E-17  -0.2394957547E-17   0.6250000010E+01
   0.1012500000E+01   0.0000000000E+00   0.7578913012E-18   0.1250000000E-02   0.0000000000E+00  -0.1428652549E-17   0.1125000000E-01   0.0000000000E+00   0.2186543850E-17   0.6250000010E+01   0.2596792319E-12   0.2598903878E-12   0.9581095056E-15   0.1000399806E-14   0.7628237684E-16   0.1250000002E-01  -0.6237500010E-02  -0.6237500010E-02   0.8994997381E-17   0.1016024704E-16   0.2093035991E-17   0.6250000010E+01
   0.1012500000E+01   0.9937625000E+00   0.1115123809E-17   0.1250000000E-02  -0.6237500000E-03  -0.1867187304E-17   0.1125000000E-01  -0.5613750000E-02   0.2982311113E-17   0.6250000009E+01   0.9139663776E-13   0.9190314119E-13   0.8272662613E-15   0.5606376953E-16  -0.1697553463E-16   0.1250000002E-01  -0.6237500009E-02  -0.6237500009E-02   0.7820448607E-17  -0.1864079210E-17   0.1789927558E-17   0.6250000009E+01
   0.0000000000E+00   0.9937625000E+00  -0.8895089746E-18   0.0000000000E+00  -0.6237500000E-03  -0.1937034247E-17   0.0000000000E+00  -0.5613750000E-02   0.1047525273E-17   0.6250000009E+01   0.5080383682E-12   0.5076958716E-12  -0.4258131868E-15   0.1004751030E-15  -0.4327870713E-15   0.1250000002E-01  -0.6237500009E-02  -0.6237500009E-02  -0.5654090598E-17  -0.4607449493E-18  -0.9096002661E-18   0.6250000009E+01
   0.0000000000E+00   0.0000000000E+00   0.9937625000E+00   0.0000000000E+00   0.0000000000E+00  -0.6237500000E-03   0.0000000000E+00   0.0000000000E+00  -0.5613750000E-02   0.6250000009E+01   0.1661503329E-12   0.1651278962E-12  -0.1097960402E-16  -0.2422880813E-15   0.1176980588E-15   0.1250000002E-01  -0.6237500009E-02  -0.6237500009E-02   0.1204647298E-17  -0.3196930282E-17   0.2563207715E-17   0.6250000009E+01
   0.1012500000E+01   0.0000000000E+00   0.9937625000E+00   0.1250000000E-02   0.0000000000E+00  -0.6237500000E-03   0.1125000000E-01   0.0000000000E+00  -0.5613750000E-02   0.6250000009E+01  -0.2616753480E-12  -0.2626041633E-12  -0.4547789057E-15   0.9956389465E-15   0.4955868783E-16   0.1250000002E-01  -0.6237500009E-02  -0.6237500009E-02  -0.1061403318E-16   0.7974965932E-17  -0.1729755754E-17   0.6250000009E+01
   0.1012500000E+01   0.9937625000E+00   0.9937625000E+00   0.1250000000E-02  -0.6237500000E-03  -0.6237500000E-03   0.1125000000E-01  -0.5613750000E-02  -0.5613750000E-02   0.6250000008E+01  -0.2419297441E-12  -0.2414747662E-12  -0.5194945443E-15  -0.6126784484E-15  -0.3113165444E-16   0.1250000002E-01  -0.6237500008E-02  -0.6237500008E-02  -0.7690867810E-17   0.2268561684E-17  -0.3612530686E-18   0.6250000008E+01
   0.0000000000E+00   0.9937625000E+00   0.9937625000E+00   0.0000000000E+00  -0.6237500000E-03  -0.6237500000E-03   0.0000000000E+00  -0.5613750000E-02  -0.5613750000E-02   0.6250000008E+01  -0.1062022464E-12  -0.1051867129E-12  -0.1214698662E-15  -0.8989505512E-16  -0.5579267781E-16   0.1250000002E-01  -0.6237500008E-02  -0.6237500008E-02  -0.5372246363E-18  -0.1211933582E-17  -0.1017978582E-16   0.6250000008E+01
   0.2025000000E+01   0.0000000000E+00   0.6446021401E-17   0.2500000000E-02   0.0000000000E+00   0.3251159046E-17   0.2250000000E-01   0.0000000000E+00   0.3194862355E-17   0.6250000009E+01   0.1057542010E-11   0.1057070699E-11  -0.6381834749E-15  -0.1037814129E-14   0.2214155093E-15   0.1250000002E-01  -0.6237500009E-02  -0.6237500009E-02   0.8284677788E-18  -0.1178093962E-16   0.1267623105E-17   0.6250000009E+01
   0.2025000000E+01   0.9937625000E+00   0.7978476679E-17   0.2500000000E-02  -0.6237500000E-03   0.3571119293E-17   0.2250000000E-01  -0.5613750000E-02   0.4407357386E-17   0.6250000009E+01   0.3085544598E-13   0.2972490460E-13  -0.2047477547E-15  -0.4018348260E-15  -0.1285349301E-15   0.1250000002E-01  -0.6237500009E-02  -0.6237500009E-02   0.6197846746E-17  -0.5373104803E-18  -0.7130060527E-18   0.6250000009E+01
   0.2025000000E+01   0.0000000000E+00   0.9937625000E+00   0.2500000000E-02   0.0000000000E+00  -0.6237500000E-03   0.2250000000E-01   0.0000000000E+00  -0.5613750000E-02   0.6250000009E+01  -0.7663874056E-12  -0.7670441095E-12  -0.1191947553E-15  -0.8375843274E-15   0.2993418648E-15   0.1250000002E-01  -0.6237500009E-02  -0.6237500009E-02   0.1420102549E-17   0.7402868281E-17   0.9176171765E-18   0.6250000009E+01
   0.2025000000E+01   0.9937625000E+00   0.9937625000E+00   0.2500000000E-02  -0.6237500000E-03  -0.6237500000E-03   0.2250000000E-01  -0.5613750000E-02  -0.5613750000E-02   0.6250000008E+01  -0.2643863558E-12  -0.2638258001E-12  -0.2551929884E-15   0.1965333790E-15  -0.1646235074E-15   0.1250000002E-01  -0.6237500008E-02  -0.6237500008E-02  -0.9026792330E-17  -0.2590848692E-16  -0.2293840882E-17   0.6250000008E+01
     1     2     3     4     5     6     7     8
     2     9    10     3     6    11    12     7
 VARIABLES = X,Y,Z,DU1,DU2,DU3,U1,U2,U3,S11,S22,S33,S12,S13,S23,E11,E22,E33,E12,E13,E23,SMISES
 ZONE, T="0.5500D+00" F=FEPOINT, I=   12 J=    2 ET=BRICK
   0.0000000000E+00   0.0000000000E+00   0.0000000000E+00   0.0000000000E+00   0.0000000000E+00   0.0000000000E+00   0.0000000000E+00   0.0000000000E+00   0.0000000000E+00   0.6875000011E+01   0.4707130950E-12   0.4700211984E-12  -0.4137166114E-16   0.1292307778E-15   0.1053554526E-15   0.1375000002E-01  -0.6861250011E-02  -0.6861250011E-02   0.6418864538E-18  -0.3422413787E-17   0.2035207661E-17   0.6875000011E+01
   0.1013750000E+01   0.0000000000E+00   0.3255814091E-17   0.1250000000E-02   0.0000000000E+00   0.2497922790E-17   0.1250000000E-01   0.0000000000E+00   0.7578913012E-18   0.6875000011E+01   0.7183720323E-12   0.7184612773E-12   0.1194219435E-15  -0.2125798050E-15   0.6758914556E-15   0.1375000002E-01  -0.6861250011E-02  -0.6861250011E-02  -0.4937366413E-17   0.3121029635E-17   0.6328370784E-17   0.6875000011E+01
   0.1013750000E+01   0.9931387500E+00   0.7241181331E-17   0.1250000000E-02  -0.6237500000E-03   0.6126057522E-17   0.1250000000E-01  -0.6237500000E-02   0.1115123809E-17   0.6875000010E+01  -0.2803503794E-13  -0.2745814922E-13  -0.1905830709E-16   0.2593592481E-16   0.3024457973E-15   0.1375000002E-01  -0.6861250010E-02  -0.6861250010E-02  -0.1336243299E-17  -0.6230183237E-17   0.1056005320E-16   0.6875000010E+01
   0.0000000000E+00   0.9931387500E+00   0.8168447781E-18   0.0000000000E+00  -0.6237500000E-03   0.1706353753E-17   0.0000000000E+00  -0.6237500000E-02  -0.8895089746E-18   0.6875000010E+01   0.7377340763E-12   0.7373752467E-12  -0.2465923094E-15   0.9029166998E-15  -0.5600019151E-15   0.1375000002E-01  -0.6861250010E-02  -0.6861250010E-02  -0.5581069208E-17   0.1341614411E-16  -0.5752547129E-17   0.6875000010E+01
   0.0000000000E+00   0.0000000000E+00   0.9931387500E+00   0.0000000000E+00   0.0000000000E+00  -0.6237500000E-03   0.0000000000E+00   0.0000000000E+00  -0.6237500000E-02   0.6875000010E+01  -0.5394964667E-12  -0.5407463922E-12  -0.2529406118E-16   0.3432392980E-15   0.2897606791E-15   0.1375000002E-01  -0.6861250010E-02  -0.6861250010E-02   0.1681341912E-17   0.2375563646E-17   0.1533126849E-17   0.6875000010E+01
   0.1013750000E+01   0.0000000000E+00   0.9931387500E+00   0.1250000000E-02   0.0000000000E+00  -0.6237500000E-03   0.1250000000E-01   0.0000000000E+00  -0.6237500000E-02   0.6875000010E+01  -0.4672449173E-12  -0.4671933916E-12   0.1598385911E-15   0.1647315167E-16   0.1965727057E-15   0.1375000002E-01  -0.6861250010E-02  -0.6861250010E-02  -0.3366004722E-17  -0.5411887579E-17   0.1209454139E-17   0.6875000010E+01
   0.1013750000E+01   0.9931387500E+00   0.9931387500E+00   0.1250000000E-02  -0.6237500000E-03  -0.6237500000E-03   0.1250000000E-01  -0.6237500000E-02  -0.6237500000E-02   0.6875000009E+01  -0.2668974869E-12  -0.2668459612E-12   0.1187418581E-15  -0.6083242960E-15  -0.1709273178E-15   0.1375000002E-01  -0.6861250009E-02  -0.6861250009E-02  -0.4956569676E-17  -0.2013834337E-17   0.1346340619E-17   0.6875000009E+01
   0.0000000000E+00   0.9931387500E+00   0.9931387500E+00   0.0000000000E+00  -0.6237500000E-03  -0.6237500000E-03   0.0000000000E+00  -0.6237500000E-02  -0.6237500000E-02   0.6875000009E+01  -0.5808300460E-12  -0.5787732161E-12   0.7987766983E-16   0.6887848706E-15  -0.2225684111E-15   0.1375000002E-01  -0.6861250009E-02  -0.6861250009E-02   0.2565259771E-17   0.6507968431E-17  -0.6984976218E-17   0.6875000009E+01
   0.2027500000E+01   0.0000000000E+00   0.1678897678E-16   0.2500000000E-02   0.0000000000E+00   0.1034295538E-16   0.2500000000E-01   0.0000000000E+00   0.6446021401E-17   0.6875000010E+01   0.7953848732E-12   0.7946414510E-12  -0.1812133588E-14  -0.1222937577E-14  -0.1307904798E-15   0.1375000002E-01  -0.6861250010E-02  -0.6861250010E-02  -0.1801713539E-16  -0.2548966881E-16   0.1842170741E-17   0.6875000010E+01
   0.2027500000E+01   0.9931387500E+00   0.1613102722E-16   0.2500000000E-02  -0.6237500000E-03   0.8152550537E-17   0.2500000000E-01  -0.6237500000E-02   0.7978476679E-17   0.6875000010E+01  -0.4538348420E-12  -0.4549113311E-12  -0.1656827329E-14   0.5868733640E-15  -0.6174364202E-15   0.1375000002E-01  -0.6861250010E-02  -0.6861250010E-02  -0.1494758586E-16   0.3370975611E-17  -0.1569024525E-16   0.6875000010E+01
   0.2027500000E+01   0.0000000000E+00   0.9931387500E+00   0.2500000000E-02   0.0000000000E+00  -0.6237500000E-03   0.2500000000E-01   0.0000000000E+00  -0.6237500000E-02   0.6875000010E+01  -0.7065028319E-12  -0.7064066838E-12   0.1343178352E-14  -0.1505371397E-14  -0.2550271008E-15   0.1375000002E-01  -0.6861250010E-02  -0.6861250010E-02   0.1137939503E-16  -0.1013533119E-16  -0.6712446194E-17   0.6875000010E+01
   0.2027500000E+01   0.9931387500E+00   0.9931387500E+00   0.2500000000E-02  -0.6237500000E-03  -0.6237500000E-03   0.2500000000E-01  -0.6237500000E-02  -0.6237500000E-02   0.6875000009E+01   0.2507561240E-12   0.2511853389E-12   0.1327181092E-14   0.1633723712E-14  -0.7303187149E-15   0.1375000002E-01  -0.6861250009E-02  -0.6861250009E-02   0.5655686076E-17  -0.3385571732E-17  -0.1103554782E-16   0.6875000009E+01
     1     2     3     4     5     6     7     8
     2     9    10     3     6    11    12     7
 VARIABLES = X,Y,Z,DU1,DU2,DU3,U1,U2,U3,S11,S22,S33,S12,S13,S23,E11,E22,E33,E12,E13,E23,SMISES
 ZONE, T="0.6000D+00" F=FEPOINT, I=   12 J=    2 ET=BRICK
   0.0000000000E+00   0.0000000000E+00   0.0000000000E+00   0.0000000000E+00   0.0000000000E+00   0.0000000000E+00   0.0000000000E+00   0.0000000000E+00   0.0000000000E+00   0.7500000012E+01   0.1386631037E-12   0.1391939110E-12  -0.4308774232E-16   0.5043856197E-16   0.4740595451E-15   0.1500000002E-01  -0.7485000012E-02  -0.7485000012E-02   0.8627100725E-19  -0.4977497605E-18   0.7109646015E-17   0.7500000012E+01
   0.1015000000E+01   0.0000000000E+00  -0.6967445364E-18   0.1250000000E-02   0.0000000000E+00  -0.3952558627E-17   0.1375000000E-01   0.0000000000E+00   0.3255814091E-17   0.7500000012E+01  -0.1438670170E-12  -0.1444032688E-12   0.5780840017E-16   0.2163121570E-16   0.1866454929E-16   0.1500000002E-01  -0.7485000012E-02  -0.7485000012E-02  -0.3419814885E-17   0.5917718825E-17  -0.1218296368E-17   0.7500000012E+01
   0.1015000000E+01   0.9925150000E+00  -0.7315715152E-18   0.1250000000E-02  -0.6237500000E-03  -0.7972752846E-17   0.1375000000E-01  -0.6861250000E-02   0.7241181331E-17   0.7500000011E+01   0.4026624898E-12   0.4036130824E-12  -0.2395271587E-15   0.4947181994E-15  -0.4248890942E-15   0.1500000002E-01  -0.7485000011E-02  -0.7485000011E-02  -0.3877106684E-17   0.2507500488E-17  -0.3665730291E-17   0.7500000011E+01
   0.0000000000E+00   0.9925150000E+00   0.3074877838E-17   0.0000000000E+00  -0.6237500000E-03   0.2258033060E-17   0.0000000000E+00  -0.6861250000E-02   0.8168447781E-18   0.7500000011E+01  -0.6572048323E-12  -0.6584166476E-12   0.5218047754E-15  -0.7718187805E-15   0.3437229453E-15   0.1500000002E-01  -0.7485000011E-02  -0.7485000011E-02   0.3283213954E-17  -0.8120888115E-17   0.1255778928E-16   0.7500000011E+01
   0.0000000000E+00   0.0000000000E+00   0.9925150000E+00   0.0000000000E+00   0.0000000000E+00  -0.6237500000E-03   0.0000000000E+00   0.0000000000E+00  -0.6861250000E-02   0.7500000011E+01   0.2862957818E-12   0.2855062783E-12  -0.2611597284E-16  -0.6050341469E-15  -0.2398896661E-15   0.1500000002E-01  -0.7485000011E-02  -0.7485000011E-02   0.9224964350E-19  -0.6619675161E-17  -0.8652949882E-17   0.7500000011E+01
   0.1015000000E+01   0.0000000000E+00   0.9925150000E+00   0.1250000000E-02   0.0000000000E+00  -0.6237500000E-03   0.1375000000E-01   0.0000000000E+00  -0.6861250000E-02   0.7500000011E+01  -0.1318524398E-13  -0.1405456264E-13   0.2213071552E-15   0.2041373628E-15   0.3047442573E-17   0.1500000002E-01  -0.7485000011E-02  -0.7485000011E-02  -0.2157438629E-18  -0.5772589337E-17   0.3942264535E-17   0.7500000011E+01
   0.1015000000E+01   0.9925150000E+00   0.9925150000E+00   0.1250000000E-02  -0.6237500000E-03  -0.6237500000E-03   0.1375000000E-01  -0.6861250000E-02  -0.6861250000E-02   0.7500000010E+01   0.4615669461E-13   0.4653039848E-13   0.3688182647E-16   0.1548675323E-15  -0.3661497039E-15   0.1500000002E-01  -0.7485000010E-02  -0.7485000010E-02  -0.5618089255E-17   0.1302853249E-16  -0.4742086292E-17   0.7500000010E+01
   0.0000000000E+00   0.9925150000E+00   0.9925150000E+00   0.0000000000E+00  -0.6237500000E-03  -0.6237500000E-03   0.0000000000E+00  -0.6861250000E-02  -0.6861250000E-02   0.7500000010E+01   0.6133709129E-13   0.6165674273E-13   0.5851242129E-16   0.6561918341E-16  -0.3369032425E-15   0.1500000002E-01  -0.7485000010E-02  -0.7485000010E-02   0.6526047139E-17   0.3870255370E-18  -0.9561523746E-17   0.7500000010E+01
   0.2030000000E+01   0.0000000000E+00  -0.4482063087E-17   0.2500000000E-02   0.0000000000E+00  -0.2127103987E-16   0.2750000000E-01   0.0000000000E+00   0.1678897678E-16   0.7500000011E+01  -0.7805368142E-12  -0.7807048064E-12   0.2316036921E-14   0.7347826520E-15   0.1486274008E-15   0.1500000002E-01  -0.7485000011E-02  -0.7485000011E-02   0.2009268776E-16   0.5565143310E-17   0.4132463487E-17   0.7500000011E+01
   0.2030000000E+01   0.9925150000E+00  -0.3325555646E-17   0.2500000000E-02  -0.6237500000E-03  -0.1945658286E-16   0.2750000000E-01  -0.6861250000E-02   0.1613102722E-16   0.7500000010E+01   0.7535193547E-12   0.7549154954E-12   0.1427520211E-14  -0.1823581613E-14   0.1790906897E-15   0.1500000002E-01  -0.7485000010E-02  -0.7485000010E-02   0.7423552462E-17  -0.1899320014E-16   0.2050982036E-17   0.7500000010E+01
   0.2030000000E+01   0.0000000000E+00   0.9925150000E+00   0.2500000000E-02   0.0000000000E+00  -0.6237500000E-03   0.2750000000E-01   0.0000000000E+00  -0.6861250000E-02   0.7500000010E+01  -0.2636165580E-12  -0.2636180168E-12  -0.3125118452E-15   0.7126490170E-15   0.4025184158E-15   0.1500000002E-01  -0.7485000010E-02  -0.7485000010E-02  -0.6050727094E-17   0.1287290990E-16  -0.2457082547E-17   0.7500000010E+01
   0.2030000000E+01   0.9925150000E+00   0.9925150000E+00   0.2500000000E-02  -0.6237500000E-03  -0.6237500000E-03   0.2750000000E-01  -0.6861250000E-02  -0.6861250000E-02   0.7500000010E+01  -0.2725372161E-12  -0.2720064086E-12  -0.7267805759E-15  -0.8776904505E-15   0.2780638534E-15   0.1500000002E-01  -0.7485000010E-02  -0.7485000010E-02  -0.1501620965E-16  -0.3551816938E-16  -0.1747426565E-17   0.7500000010E+01
     1     2     3     4     5     6     7     8
     2     9    10     3     6    11    12     7
 VARIABLES = X,Y,Z,DU1,DU2,DU3,U1,U2,U3,S11,S22,S33,S12,S13,S23,E11,E22,E33,E12,E13,E23,SMISES
 ZONE, T="0.6500D+00" F=FEPOINT, I=   12 J=    2 ET=BRICK
   0.0000000000E+00   0.0000000000E+00   0.0000000000E+00   0.0000000000E+00   0.0000000000E+00   0.0000000000E+00   0.0000000000E+00   0.0000000000E+00   0.0000000000E+00   0.8125000013E+01  -0.4259357012E-12  -0.4246654572E-12  -0.4954047661E-16   0.2667250016E-16   0.5330115453E-15   0.1625000003E-01  -0.8108750013E-02  -0.8108750013E-02   0.2248297325E-17   0.2172823795E-17   0.9087111770E-17   0.8125000013E+01
   0.1016250000E+01   0.0000000000E+00  -0.2021291379E-17   0.1250000000E-02   0.0000000000E+00  -0.1324546843E-17   0.1500000000E-01   0.0000000000E+00  -0.6967445364E-18   0.8125000013E+01  -0.1681615856E-12  -0.1686383407E-12   0.8642236374E-15   0.1767278874E-14   0.2449251929E-15   0.1625000003E-01  -0.8108750012E-02  -0.8108750012E-02  -0.1045925571E-17   0.1363115763E-16   0.2840825511E-17   0.8125000013E+01
   0.1016250000E+01   0.9918912500E+00  -0.7741652955E-18   0.1250000000E-02  -0.6237500000E-03  -0.4259378029E-19   0.1500000000E-01  -0.7485000000E-02  -0.7315715152E-18   0.8125000012E+01  -0.1009663621E-12  -0.1000970435E-12   0.8106264515E-15  -0.2882935869E-15   0.8849732811E-16   0.1625000002E-01  -0.8108750012E-02  -0.8108750012E-02   0.4575281939E-17  -0.4354327395E-17   0.7624719745E-17   0.8125000012E+01
   0.0000000000E+00   0.9918912500E+00   0.3454028712E-17   0.0000000000E+00  -0.6237500000E-03   0.3791508740E-18   0.0000000000E+00  -0.7485000000E-02   0.3074877838E-17   0.8125000012E+01  -0.5981559943E-12  -0.5997117651E-12   0.1100528003E-15  -0.6371055606E-15   0.2428902327E-15   0.1625000002E-01  -0.8108750012E-02  -0.8108750012E-02  -0.5886007151E-18  -0.4523803713E-17   0.1634808886E-17   0.8125000012E+01
   0.0000000000E+00   0.0000000000E+00   0.9918912500E+00   0.0000000000E+00   0.0000000000E+00  -0.6237500000E-03   0.0000000000E+00   0.0000000000E+00  -0.7485000000E-02   0.8125000012E+01   0.1475770277E-11   0.1475424863E-11  -0.2575011477E-16  -0.1169850460E-14  -0.3889646035E-15   0.1625000002E-01  -0.8108750012E-02  -0.8108750012E-02  -0.2128147009E-17  -0.1140981551E-16  -0.1295397293E-16   0.8125000012E+01
   0.1016250000E+01   0.0000000000E+00   0.9918912500E+00   0.1250000000E-02   0.0000000000E+00  -0.6237500000E-03   0.1500000000E-01   0.0000000000E+00  -0.7485000000E-02   0.8125000012E+01   0.3084852429E-13   0.3014175352E-13  -0.1620430608E-14   0.1786502277E-14  -0.9160919093E-16   0.1625000002E-01  -0.8108750012E-02  -0.8108750012E-02  -0.2199650900E-16   0.1035902239E-16  -0.2044461701E-17   0.8125000012E+01
   0.1016250000E+01   0.9918912500E+00   0.9918912500E+00   0.1250000000E-02  -0.6237500000E-03  -0.6237500000E-03   0.1500000000E-01  -0.7485000000E-02  -0.7485000000E-02   0.8125000011E+01   0.2867380795E-12   0.2859797832E-12  -0.1888031044E-14  -0.7556613352E-15  -0.5611135909E-16   0.1625000002E-01  -0.8108750011E-02  -0.8108750011E-02  -0.2577057765E-16   0.7528916977E-17  -0.1517926921E-17   0.8125000011E+01
   0.0000000000E+00   0.9918912500E+00   0.9918912500E+00   0.0000000000E+00  -0.6237500000E-03  -0.6237500000E-03   0.0000000000E+00  -0.7485000000E-02  -0.7485000000E-02   0.8125000011E+01  -0.4139211986E-12  -0.4125101839E-12   0.5421361617E-15  -0.4038091159E-15  -0.6284812723E-15   0.1625000002E-01  -0.8108750011E-02  -0.8108750011E-02   0.1149162597E-16  -0.9082182159E-17  -0.3239625634E-17   0.8125000011E+01
   0.2032500000E+01   0.0000000000E+00  -0.1152901904E-16   0.2500000000E-02   0.0000000000E+00  -0.7046955955E-17   0.3000000000E-01   0.0000000000E+00  -0.4482063087E-17   0.8125000012E+01   0.3440662246E-12   0.3432023502E-12   0.7925700754E-15  -0.8780835260E-15   0.4398193795E-15   0.1625000002E-01  -0.8108750012E-02  -0.8108750012E-02   0.4692818939E-17  -0.2062098058E-16   0.6582895365E-17   0.8125000012E+01
   0.2032500000E+01   0.9918912500E+00  -0.8628068108E-17   0.2500000000E-02  -0.6237500000E-03  -0.5302512463E-17   0.3000000000E-01  -0.7485000000E-02  -0.3325555646E-17   0.8125000011E+01   0.3752545864E-12   0.3757814084E-12   0.7012217498E-15  -0.6922891327E-15  -0.2433141737E-15   0.1625000002E-01  -0.8108750011E-02  -0.8108750011E-02   0.2316412406E-17  -0.2510916012E-16  -0.8472797155E-17   0.8125000011E+01
   0.2032500000E+01   0.0000000000E+00   0.9918912500E+00   0.2500000000E-02   0.0000000000E+00  -0.6237500000E-03   0.3000000000E-01   0.0000000000E+00  -0.7485000000E-02   0.8125000011E+01  -0.1492329412E-11  -0.1492168323E-11   0.1017667687E-14  -0.7747306487E-15   0.5481501378E-15   0.1625000002E-01  -0.8108750011E-02  -0.8108750011E-02   0.1202400058E-16  -0.2229829090E-16   0.1807296047E-17   0.8125000011E+01
   0.2032500000E+01   0.9918912500E+00   0.9918912500E+00   0.2500000000E-02  -0.6237500000E-03  -0.6237500000E-03   0.3000000000E-01  -0.7485000000E-02  -0.7485000000E-02   0.8125000010E+01   0.6383339054E-12   0.6394307129E-12   0.1378279435E-16   0.6781593145E-15  -0.2541297273E-15   0.1625000002E-01  -0.8108750010E-02  -0.8108750010E-02  -0.2466337012E-17   0.5344859007E-17   0.4003523882E-18   0.8125000010E+01
     1     2     3     4     5     6     7     8
     2     9    10     3     6    11    12     7
 VARIABLES = X,Y,Z,DU1,DU2,DU3,U1,U2,U3,S11,S22,S33,S12,S13,S23,E11,E22,E33,E12,E13,E23,SMISES
 ZONE, T="0.7000D+00" F=FEPOINT, I=   12 J=    2 ET=BRICK
   0.0000000000E+00   0.0000000000E+00   0.0000000000E+00   0.0000000000E+00   0.0000000000E+00   0.0000000000E+00   0.0000000000E+00   0.0000000000E+00   0.0000000000E+00   0.8750000014E+01   0.1507650798E-11   0.1508172175E-11  -0.6249825904E-16   0.8502836402E-15   0.8286156550E-15   0.1750000003E-01  -0.8732500014E-02  -0.8732500014E-02   0.1793601636E-17   0.8695099249E-17   0.9915747687E-17   0.8750000014E+01
   0.1017500000E+01   0.0000000000E+00   0.7976134580E-17   0.1250000000E-02   0.0000000000E+00   0.9997425959E-17   0.1625000000E-01   0.0000000000E+00  -0.2021291379E-17   0.8750000013E+01   0.7192667097E-12   0.7179801326E-12  -0.1679070944E-14  -0.1405809568E-14   0.5331673814E-15   0.1750000003E-01  -0.8732500013E-02  -0.8732500013E-02  -0.3266959561E-16  -0.1759034577E-16   0.6293485520E-17   0.8750000013E+01
   0.1017500000E+01   0.9912675000E+00   0.1111125649E-16   0.1250000000E-02  -0.6237500000E-03   0.1188542178E-16   0.1625000000E-01  -0.8108750000E-02  -0.7741652955E-18   0.8750000012E+01   0.7982758355E-12   0.7987714502E-12  -0.1628747602E-14   0.2060951312E-14  -0.2581420333E-15   0.1750000002E-01  -0.8732500012E-02  -0.8732500012E-02  -0.2447074965E-16   0.2463415459E-16   0.1188880520E-17   0.8750000012E+01
   0.0000000000E+00   0.9912675000E+00   0.4995515464E-17   0.0000000000E+00  -0.6237500000E-03   0.1541486751E-17   0.0000000000E+00  -0.8108750000E-02   0.3454028712E-17   0.8750000013E+01  -0.3679508954E-12  -0.3693198143E-12   0.3169142906E-15   0.3522981888E-15   0.2017723982E-15   0.1750000003E-01  -0.8732500013E-02  -0.8732500013E-02  -0.1876996670E-17   0.5687691768E-17   0.7704730651E-17   0.8750000013E+01
   0.0000000000E+00   0.0000000000E+00   0.9912675000E+00   0.0000000000E+00   0.0000000000E+00  -0.6237500000E-03   0.0000000000E+00   0.0000000000E+00  -0.8108750000E-02   0.8750000013E+01  -0.8230634428E-12  -0.8236769829E-12  -0.1790067442E-16  -0.2004275325E-15   0.2028070856E-15   0.1750000003E-01  -0.8732500013E-02  -0.8732500013E-02  -0.3504450778E-17  -0.2442969530E-17   0.3635941464E-17   0.8750000013E+01
   0.1017500000E+01   0.0000000000E+00   0.9912675000E+00   0.1250000000E-02   0.0000000000E+00  -0.6237500000E-03   0.1625000000E-01   0.0000000000E+00  -0.8108750000E-02   0.8750000012E+01  -0.9658110207E-12  -0.9659815397E-12   0.1466067716E-14  -0.1136420222E-14   0.4371222228E-15   0.1750000002E-01  -0.8732500012E-02  -0.8732500012E-02   0.1913705008E-16  -0.2002831873E-16   0.8080536794E-17   0.8750000012E+01
   0.1017500000E+01   0.9912675000E+00   0.9912675000E+00   0.1250000000E-02  -0.6237500000E-03  -0.6237500000E-03   0.1625000000E-01  -0.8108750000E-02  -0.8108750000E-02   0.8750000011E+01  -0.5890401237E-12  -0.5890698720E-12   0.1194125843E-14   0.1470122502E-14  -0.2963302632E-15   0.1750000002E-01  -0.8732500011E-02  -0.8732500011E-02   0.7021395790E-17   0.2373960359E-16   0.7498389162E-18   0.8750000011E+01
   0.0000000000E+00   0.9912675000E+00   0.9912675000E+00   0.0000000000E+00  -0.6237500000E-03  -0.6237500000E-03   0.0000000000E+00  -0.8108750000E-02  -0.8108750000E-02   0.8750000012E+01  -0.1676901135E-12  -0.1654895954E-12   0.1286678723E-15   0.6413845333E-15  -0.2261639552E-15   0.1750000002E-01  -0.8732500012E-02  -0.8732500012E-02   0.7571387836E-17   0.7024572179E-17  -0.1168202584E-17   0.8750000012E+01
   0.2035000000E+01   0.0000000000E+00   0.2875366829E-16   0.2500000000E-02   0.0000000000E+00   0.4028268733E-16   0.3250000000E-01   0.0000000000E+00  -0.1152901904E-16   0.8750000013E+01   0.1917901076E-12   0.1904400482E-12   0.3013922692E-15  -0.1290370900E-14   0.2641406003E-15   0.1750000003E-01  -0.8732500013E-02  -0.8732500013E-02   0.2733873023E-17   0.9688304066E-17   0.4806319242E-17   0.8750000013E+01
   0.2035000000E+01   0.9912675000E+00   0.3058571803E-16   0.2500000000E-02  -0.6237500000E-03   0.3921378614E-16   0.3250000000E-01  -0.8108750000E-02  -0.8628068108E-17   0.8750000012E+01   0.1843049299E-11   0.1842538810E-11   0.2708325873E-15  -0.9965282065E-15  -0.9714761765E-15   0.1750000002E-01  -0.8732500012E-02  -0.8732500012E-02   0.8485125615E-17  -0.4784521951E-16  -0.1540965639E-16   0.8750000012E+01
   0.2035000000E+01   0.0000000000E+00   0.9912675000E+00   0.2500000000E-02   0.0000000000E+00  -0.6237500000E-03   0.3250000000E-01   0.0000000000E+00  -0.8108750000E-02   0.8750000012E+01  -0.8809577988E-12  -0.8808913989E-12   0.1036420026E-14  -0.7203522392E-15   0.2055089655E-15   0.1750000002E-01  -0.8732500012E-02  -0.8732500012E-02   0.4303646594E-17  -0.2292323296E-16  -0.2495762619E-17   0.8750000012E+01
   0.2035000000E+01   0.9912675000E+00   0.9912675000E+00   0.2500000000E-02  -0.6237500000E-03  -0.6237500000E-03   0.3250000000E-01  -0.8108750000E-02  -0.8108750000E-02   0.8750000011E+01  -0.1165150087E-11  -0.1163001094E-11   0.4944704714E-15  -0.1042725267E-16  -0.1130081007E-14   0.1750000002E-01  -0.8732500011E-02  -0.8732500011E-02  -0.9124153947E-17  -0.1921261773E-16  -0.1773996182E-16   0.8750000011E+01
     1     2     3     4     5     6     7     8
     2     9    10     3     6    11    12     7
 VARIABLES = X,Y,Z,DU1,DU2,DU3,U1,U2,U3,S11,S22,S33,S12,S13,S23,E11,E22,E33,E12,E13,E23,SMISES
 ZONE, T="0.7500D+00" F=FEPOINT, I=   12 J=    2 ET=BRICK
   0.0000000000E+00   0.0000000000E+00   0.0000000000E+00   0.0000000000E+00   0.0000000000E+00   0.0000000000E+00   0.0000000000E+00   0.0000000000E+00   0.0000000000E+00   0.9375000015E+01  -0.4872021319E-12  -0.4877166065E-12  -0.6986561048E-16   0.1409155039E-15  -0.5238938075E-16   0.1875000003E-01  -0.9356250015E-02  -0.9356250015E-02  -0.2188575569E-17   0.4100558359E-17   0.2045146428E-18   0.9375000015E+01
   0.1018750000E+01   0.0000000000E+00   0.1150956652E-17   0.1250000000E-02   0.0000000000E+00  -0.6825177928E-17   0.1750000000E-01   0.0000000000E+00   0.7976134580E-17   0.9375000014E+01   0.1610811840E-12   0.1612001774E-12   0.2454671850E-14   0.8986454846E-15   0.2780206003E-15   0.1875000003E-01  -0.9356250014E-02  -0.9356250014E-02   0.1607075434E-16  -0.1729883884E-17   0.4947780517E-17   0.9375000014E+01
   0.1018750000E+01   0.9906437500E+00   0.2788386452E-17   0.1250000000E-02  -0.6237500000E-03  -0.8322870033E-17   0.1750000000E-01  -0.8732500000E-02   0.1111125649E-16   0.9375000013E+01   0.1573735026E-12   0.1587493246E-12   0.2082668664E-14  -0.5686713823E-15   0.9984236471E-17   0.1875000003E-01  -0.9356250013E-02  -0.9356250013E-02   0.1171640884E-16  -0.2599696004E-17  -0.1441170363E-17   0.9375000013E+01
   0.0000000000E+00   0.9906437500E+00  -0.2018007459E-18   0.0000000000E+00  -0.6237500000E-03  -0.5197316210E-17   0.0000000000E+00  -0.8732500000E-02   0.4995515464E-17   0.9375000014E+01   0.9826360633E-12   0.9814039295E-12  -0.5245932316E-15   0.1822197343E-15  -0.5264946844E-15   0.1875000003E-01  -0.9356250014E-02  -0.9356250014E-02  -0.4914819803E-17   0.8661283725E-18   0.1445160265E-17   0.9375000014E+01
   0.0000000000E+00   0.0000000000E+00   0.9906437500E+00   0.0000000000E+00   0.0000000000E+00  -0.6237500000E-03   0.0000000000E+00   0.0000000000E+00  -0.8732500000E-02   0.9375000014E+01  -0.4005875754E-13  -0.4228503852E-13  -0.1409293585E-16  -0.2673318975E-15  -0.3363422319E-16   0.1875000003E-01  -0.9356250014E-02  -0.9356250014E-02   0.7341377583E-18  -0.5346858143E-17  -0.9953692877E-17   0.9375000014E+01
   0.1018750000E+01   0.0000000000E+00   0.9906437500E+00   0.1250000000E-02   0.0000000000E+00  -0.6237500000E-03   0.1750000000E-01   0.0000000000E+00  -0.8732500000E-02   0.9375000013E+01  -0.1748794130E-12  -0.1747981391E-12  -0.1581986764E-15   0.1623604930E-14  -0.1457766736E-15   0.1875000003E-01  -0.9356250013E-02  -0.9356250013E-02  -0.5867998065E-17   0.1204273711E-16   0.3235067250E-17   0.9375000013E+01
   0.1018750000E+01   0.9906437500E+00   0.9906437500E+00   0.1250000000E-02  -0.6237500000E-03  -0.6237500000E-03   0.1750000000E-01  -0.8732500000E-02  -0.8732500000E-02   0.9375000012E+01  -0.4763488654E-12  -0.4766521838E-12  -0.4896344332E-15  -0.1422036194E-14  -0.4087687904E-15   0.1875000002E-01  -0.9356250012E-02  -0.9356250012E-02  -0.9981730116E-17  -0.1444452639E-16  -0.2758481471E-18   0.9375000012E+01
   0.0000000000E+00   0.9906437500E+00   0.9906437500E+00   0.0000000000E+00  -0.6237500000E-03  -0.6237500000E-03   0.0000000000E+00  -0.8732500000E-02  -0.8732500000E-02   0.9375000013E+01  -0.4404139228E-13  -0.4228097787E-13  -0.3256742888E-15   0.1916833508E-16  -0.3701251870E-15   0.1875000003E-01  -0.9356250013E-02  -0.9356250013E-02  -0.6114636860E-17   0.3425000723E-17  -0.7368833385E-17   0.9375000013E+01
   0.2037500000E+01   0.0000000000E+00   0.4687421765E-17   0.2500000000E-02   0.0000000000E+00  -0.2406624652E-16   0.3500000000E-01   0.0000000000E+00   0.2875366829E-16   0.9375000014E+01   0.1192098115E-11   0.1192775137E-11   0.6282394411E-15  -0.3024506022E-15   0.1097093691E-14   0.1875000003E-01  -0.9356250014E-02  -0.9356250014E-02   0.1297434898E-16  -0.1125990136E-16   0.1703073420E-16   0.9375000014E+01
   0.2037500000E+01   0.9906437500E+00   0.1144560157E-16   0.2500000000E-02  -0.6237500000E-03  -0.1914011646E-16   0.3500000000E-01  -0.8732500000E-02   0.3058571803E-16   0.9375000013E+01  -0.3970659073E-12  -0.3964404104E-12   0.6109838633E-15  -0.9492171813E-15   0.6530534018E-15   0.1875000003E-01  -0.9356250013E-02  -0.9356250013E-02   0.1498585694E-16  -0.2347563703E-16   0.6450775979E-17   0.9375000013E+01
   0.2037500000E+01   0.0000000000E+00   0.9906437500E+00   0.2500000000E-02   0.0000000000E+00  -0.6237500000E-03   0.3500000000E-01   0.0000000000E+00  -0.8732500000E-02   0.9375000013E+01   0.1174924467E-13   0.1211205999E-13  -0.9451819867E-15   0.4826755091E-15   0.2509556457E-15   0.1875000003E-01  -0.9356250013E-02  -0.9356250013E-02  -0.1892012661E-16  -0.1147786290E-16  -0.4836918747E-17   0.9375000013E+01
   0.2037500000E+01   0.9906437500E+00   0.9906437500E+00   0.2500000000E-02  -0.6237500000E-03  -0.6237500000E-03   0.3500000000E-01  -0.8732500000E-02  -0.8732500000E-02   0.9375000012E+01  -0.6991174896E-12  -0.6975631775E-12  -0.1188725113E-14  -0.2452534114E-15  -0.1915970054E-15   0.1875000002E-01  -0.9356250012E-02  -0.9356250012E-02  -0.2512147993E-16  -0.6760503199E-17  -0.6498077075E-17   0.9375000012E+01
     1     2     3     4     5     6     7     8
     2     9    10     3     6    11    12     7
 VARIABLES = X,Y,Z,DU1,DU2,DU3,U1,U2,U3,S11,S22,S33,S12,S13,S23,E11,E22,E33,E12,E13,E23,SMISES
 ZONE, T="0.8000D+00" F=FEPOINT, I=   12 J=    2 ET=BRICK
   0.0000000000E+00   0.0000000000E+00   0.0000000000E+00   0.0000000000E+00   0.0000000000E+00   0.0000000000E+00   0.0000000000E+00   0.0000000000E+00   0.0000000000E+00   0.1000000002E+02  -0.8374182752E-13  -0.8371460599E-13  -0.8585662024E-16   0.1478542196E-15   0.4686568141E-15   0.2000000003E-01  -0.9980000016E-02  -0.9980000016E-02  -0.8630853418E-18  -0.5493900543E-18   0.9462118777E-17   0.1000000002E+02
   0.1020000000E+01   0.0000000000E+00   0.2223413213E-17   0.1250000000E-02   0.0000000000E+00   0.1072456562E-17   0.1875000000E-01   0.0000000000E+00   0.1150956652E-17   0.1000000002E+02   0.8201904191E-12   0.8193290716E-12   0.1609896887E-14   0.2363877402E-14   0.9199042656E-15   0.2000000003E-01  -0.9980000015E-02  -0.9980000015E-02   0.6193271972E-17   0.3629372074E-16   0.1083964567E-16   0.1000000002E+02
   0.1020000000E+01   0.9900200000E+00   0.7674298879E-17   0.1250000000E-02  -0.6237500000E-03   0.4885912427E-17   0.1875000000E-01  -0.9356250000E-02   0.2788386452E-17   0.1000000001E+02  -0.2711881906E-12  -0.2704596427E-12   0.1400538249E-14  -0.1503959195E-14   0.4717788151E-15   0.2000000003E-01  -0.9980000014E-02  -0.9980000014E-02  -0.3850525119E-18  -0.1514026444E-16   0.7121355284E-17   0.1000000001E+02
   0.0000000000E+00   0.9900200000E+00   0.2892587247E-17   0.0000000000E+00  -0.6237500000E-03   0.3094387993E-17   0.0000000000E+00  -0.9356250000E-02  -0.2018007459E-18   0.1000000001E+02   0.9668851056E-12   0.9652966689E-12  -0.6719671669E-15   0.6515840148E-15  -0.1018330468E-14   0.2000000003E-01  -0.9980000015E-02  -0.9980000015E-02  -0.2559519350E-17   0.1104445069E-16  -0.1649359521E-16   0.1000000001E+02
   0.0000000000E+00   0.0000000000E+00   0.9900200000E+00   0.0000000000E+00   0.0000000000E+00  -0.6237500000E-03   0.0000000000E+00   0.0000000000E+00  -0.9356250000E-02   0.1000000001E+02   0.1022029181E-11   0.1022087219E-11   0.3291655410E-17  -0.6874276103E-15   0.5090469002E-16   0.2000000003E-01  -0.9980000015E-02  -0.9980000015E-02   0.1512511341E-17  -0.1167037251E-16  -0.5249944835E-17   0.1000000001E+02
   0.1020000000E+01   0.0000000000E+00   0.9900200000E+00   0.1250000000E-02   0.0000000000E+00  -0.6237500000E-03   0.1875000000E-01   0.0000000000E+00  -0.9356250000E-02   0.1000000001E+02  -0.6272412646E-12  -0.6266534873E-12  -0.2798554987E-14   0.2511568502E-14   0.2779452556E-15   0.2000000003E-01  -0.9980000014E-02  -0.9980000014E-02  -0.4339286934E-16   0.2231752347E-16   0.4525763533E-17   0.1000000001E+02
   0.1020000000E+01   0.9900200000E+00   0.9900200000E+00   0.1250000000E-02  -0.6237500000E-03  -0.6237500000E-03   0.1875000000E-01  -0.9356250000E-02  -0.9356250000E-02   0.1000000001E+02  -0.2276341278E-12  -0.2286739653E-12  -0.2517749982E-14  -0.2425841922E-14  -0.1594270086E-15   0.2000000003E-01  -0.9980000013E-02  -0.9980000013E-02  -0.3249456469E-16  -0.1324003347E-16  -0.3780784796E-17   0.1000000001E+02
   0.0000000000E+00   0.9900200000E+00   0.9900200000E+00   0.0000000000E+00  -0.6237500000E-03  -0.6237500000E-03   0.0000000000E+00  -0.9356250000E-02  -0.9356250000E-02   0.1000000001E+02  -0.1509412539E-11  -0.1506322384E-11   0.5641329448E-15   0.2517728787E-15  -0.1290653821E-14   0.2000000003E-01  -0.9980000013E-02  -0.9980000013E-02   0.8725001858E-17   0.2766474995E-17  -0.1215810932E-16   0.1000000001E+02
   0.2040000000E+01   0.0000000000E+00   0.1130210503E-16   0.2500000000E-02   0.0000000000E+00   0.6614683265E-17   0.3750000000E-01   0.0000000000E+00   0.4687421765E-17   0.1000000002E+02   0.2259855518E-11   0.2258133214E-11  -0.3389640571E-14  -0.3117328551E-14   0.3480224702E-15   0.2000000003E-01  -0.9980000015E-02  -0.9980000015E-02  -0.3867393763E-16  -0.1730255331E-16   0.3492184301E-17   0.1000000002E+02
   0.2040000000E+01   0.9900200000E+00   0.1359699849E-16   0.2500000000E-02  -0.6237500000E-03   0.2151396921E-17   0.3750000000E-01  -0.9356250000E-02   0.1144560157E-16   0.1000000001E+02  -0.9545199098E-12  -0.9552172507E-12  -0.2811096069E-14   0.1605216947E-14  -0.3518146499E-15   0.2000000003E-01  -0.9980000014E-02  -0.9980000014E-02  -0.3511931572E-16  -0.1811014748E-16  -0.4078749758E-17   0.1000000001E+02
   0.2040000000E+01   0.0000000000E+00   0.9900200000E+00   0.2500000000E-02   0.0000000000E+00  -0.6237500000E-03   0.3750000000E-01   0.0000000000E+00  -0.9356250000E-02   0.1000000001E+02  -0.2192060537E-11  -0.2193353626E-11   0.2265337223E-14  -0.3011902178E-14  -0.5479851189E-16   0.2000000003E-01  -0.9980000014E-02  -0.9980000014E-02   0.2612051570E-16  -0.3838671722E-16  -0.4467772087E-18   0.1000000001E+02
   0.2040000000E+01   0.9900200000E+00   0.9900200000E+00   0.2500000000E-02  -0.6237500000E-03  -0.6237500000E-03   0.3750000000E-01  -0.9356250000E-02  -0.9356250000E-02   0.1000000001E+02   0.1162219291E-11   0.1162406142E-11   0.2207608406E-14   0.2439084417E-14  -0.7554283450E-15   0.2000000003E-01  -0.9980000013E-02  -0.9980000013E-02   0.2276245217E-16   0.1541919641E-16  -0.1821400548E-16   0.1000000001E+02
     1     2     3     4     5     6     7     8
     2     9    10     3     6    11    12     7
 VARIABLES = X,Y,Z,DU1,DU2,DU3,U1,U2,U3,S11,S22,S33,S12,S13,S23,E11,E22,E33,E12,E13,E23,SMISES
 ZONE, T="0.8500D+00" F=FEPOINT, I=   12 J=    2 ET=BRICK
   0.0000000000E+00   0.0000000000E+00   0.0000000000E+00   0.0000000000E+00   0.0000000000E+00   0.0000000000E+00   0.0000000000E+00   0.0000000000E+00   0.0000000000E+00   0.1062498878E+02   0.5620789775E-05   0.5620789782E-05  -0.1158714614E-15   0.4689352812E-14   0.6802689310E-15   0.3423661530E-01  -0.1709705765E-01  -0.1709705765E-01  -0.2363852120E-17   0.8641436972E-16   0.9185372451E-17   0.1062498315E+02
   0.1034236615E+01   0.0000000000E+00   0.3558868325E-16   0.1423661525E-01   0.0000000000E+00   0.3336527004E-16   0.2000000000E-01   0.0000000000E+00   0.2223413213E-17   0.1062498877E+02   0.5620789308E-05   0.5620789321E-05   0.4692600198E-14   0.8918944557E-14  -0.3567569853E-14   0.3423661530E-01  -0.1709705765E-01  -0.1709705765E-01   0.7943521076E-16   0.1773696586E-15  -0.6890289290E-16   0.1062498315E+02
   0.1034236615E+01   0.9829029424E+00   0.1148043763E-17   0.1423661525E-01  -0.7117057623E-02  -0.6526255116E-17   0.2000000000E-01  -0.9980000000E-02   0.7674298879E-17   0.1062498877E+02   0.5620785762E-05   0.5620785768E-05   0.5425902735E-14  -0.9673226930E-14   0.2890635081E-14   0.3423661530E-01  -0.1709705765E-01  -0.1709705765E-01   0.9528138944E-16  -0.1925293022E-15   0.6339947887E-16   0.1062498315E+02
   0.0000000000E+00   0.9829029424E+00   0.5399197241E-17   0.0000000000E+00  -0.7117057623E-02   0.2506609994E-17   0.0000000000E+00  -0.9980000000E-02   0.2892587247E-17   0.1062498877E+02   0.5620792462E-05   0.5620792461E-05  -0.3482163076E-14   0.1458313083E-15   0.8235286811E-15   0.3423661530E-01  -0.1709705765E-01  -0.1709705765E-01  -0.6914905512E-16   0.5467901858E-17   0.1038771834E-16   0.1062498315E+02
   0.0000000000E+00   0.0000000000E+00   0.9829029424E+00   0.0000000000E+00   0.0000000000E+00  -0.7117057623E-02   0.0000000000E+00   0.0000000000E+00  -0.9980000000E-02   0.1062498877E+02   0.5620798936E-05   0.5620798940E-05   0.8785892643E-16   0.6586132338E-14  -0.2840171805E-14   0.3423661530E-01  -0.1709705765E-01  -0.1709705765E-01   0.2173517554E-17   0.1186524226E-15  -0.4266849583E-16   0.1062498315E+02
   0.1034236615E+01   0.0000000000E+00   0.9829029424E+00   0.1423661525E-01   0.0000000000E+00  -0.7117057623E-02   0.2000000000E-01   0.0000000000E+00  -0.9980000000E-02   0.1062498877E+02   0.5620795428E-05   0.5620795427E-05  -0.1120198696E-13   0.8532416682E-14  -0.7762151223E-14   0.3423661530E-01  -0.1709705765E-01  -0.1709705765E-01  -0.2235448529E-15   0.1789713572E-15  -0.1477752179E-15   0.1062498315E+02
   0.1034236615E+01   0.9829029424E+00   0.9829029424E+00   0.1423661525E-01  -0.7117057623E-02  -0.7117057623E-02   0.2000000000E-01  -0.9980000000E-02  -0.9980000000E-02   0.1062498877E+02   0.5620789900E-05   0.5620789892E-05  -0.7418970739E-14  -0.6121266471E-14  -0.1367778815E-14   0.3423661529E-01  -0.1709705765E-01  -0.1709705765E-01  -0.1524092429E-15  -0.1025687604E-15  -0.2613638753E-16   0.1062498315E+02
   0.0000000000E+00   0.9829029424E+00   0.9829029424E+00   0.0000000000E+00  -0.7117057623E-02  -0.7117057623E-02   0.0000000000E+00  -0.9980000000E-02  -0.9980000000E-02   0.1062498877E+02   0.5620784161E-05   0.5620784161E-05   0.4134681386E-14  -0.1488386007E-14  -0.2200272198E-14   0.3423661529E-01  -0.1709705765E-01  -0.1709705765E-01   0.8130071808E-16  -0.3884117476E-16  -0.5556911953E-16   0.1062498315E+02
   0.2068473230E+01   0.0000000000E+00   0.2505166027E-16   0.2847323049E-01   0.0000000000E+00   0.1374955524E-16   0.4000000000E-01   0.0000000000E+00   0.1130210503E-16   0.1062498877E+02   0.5620791145E-05   0.5620791144E-05   0.1044709697E-15  -0.6714879911E-15  -0.5209465884E-14   0.3423661530E-01  -0.1709705765E-01  -0.1709705765E-01   0.1047360563E-16  -0.1237327724E-16  -0.1015458482E-15   0.1062498315E+02
   0.2068473230E+01   0.9829029424E+00  -0.2563541755E-16   0.2847323049E-01  -0.7117057623E-02  -0.3923241604E-16   0.4000000000E-01  -0.9980000000E-02   0.1359699849E-16   0.1062498877E+02   0.5620790261E-05   0.5620790277E-05   0.5159764696E-14  -0.7122524853E-14   0.9667913377E-15   0.3423661529E-01  -0.1709705765E-01  -0.1709705765E-01   0.1098420839E-15  -0.1369041338E-15   0.1302731002E-16   0.1062498315E+02
   0.2068473230E+01   0.0000000000E+00   0.9829029424E+00   0.2847323049E-01   0.0000000000E+00  -0.7117057623E-02   0.4000000000E-01   0.0000000000E+00  -0.9980000000E-02   0.1062498877E+02   0.5620788993E-05   0.5620788983E-05  -0.5939757595E-14  -0.1497744358E-14   0.8172308628E-15   0.3423661529E-01  -0.1709705765E-01  -0.1709705765E-01  -0.1125431105E-15  -0.3010638625E-16   0.5750294147E-17   0.1062498315E+02
   0.2068473230E+01   0.9829029424E+00   0.9829029424E+00   0.2847323049E-01  -0.7117057623E-02  -0.7117057623E-02   0.4000000000E-01  -0.9980000000E-02  -0.9980000000E-02   0.1062498877E+02   0.5620801622E-05   0.5620801623E-05  -0.3130963823E-14   0.3730044620E-14   0.6795061940E-14   0.3423661529E-01  -0.1709705765E-01  -0.1709705765E-01  -0.7273299072E-16   0.5130467382E-16   0.1401409958E-15   0.1062498315E+02
     1     2     3     4     5     6     7     8
     2     9    10     3     6    11    12     7
 VARIABLES = X,Y,Z,DU1,DU2,DU3,U1,U2,U3,S11,S22,S33,S12,S13,S23,E11,E22,E33,E12,E13,E23,SMISES
 ZONE, T="0.9000D+00" F=FEPOINT, I=   12 J=    2 ET=BRICK
   0.0000000000E+00   0.0000000000E+00   0.0000000000E+00   0.0000000000E+00   0.0000000000E+00   0.0000000000E+00   0.0000000000E+00   0.0000000000E+00   0.0000000000E+00   0.1124997665E+02   0.1168142231E-04   0.1168142231E-04  -0.4201627580E-16   0.8835637426E-15   0.5783603994E-15   0.4899966866E-01  -0.2447733433E-01  -0.2447733433E-01   0.3288249957E-17   0.4527113948E-16   0.1777120037E-16   0.1124996497E+02
   0.1048999669E+01   0.0000000000E+00   0.8934808755E-17   0.1476305333E-01   0.0000000000E+00  -0.2665387450E-16   0.3423661525E-01   0.0000000000E+00   0.3558868325E-16   0.1124997665E+02   0.1168142203E-04   0.1168142203E-04   0.2740796299E-14   0.2853648845E-14  -0.7148723624E-15   0.4899966866E-01  -0.2447733433E-01  -0.2447733433E-01   0.5396739531E-16   0.1387100741E-15  -0.4114880692E-16   0.1124996497E+02
   0.1048999669E+01   0.9755226657E+00  -0.9884034963E-17   0.1476305333E-01  -0.7380276667E-02  -0.1103207873E-16   0.3423661525E-01  -0.1709705762E-01   0.1148043763E-17   0.1124997665E+02   0.1168142226E-04   0.1168142226E-04   0.2408745351E-15   0.7719271791E-15  -0.5845566031E-15   0.4899966865E-01  -0.2447733432E-01  -0.2447733432E-01   0.1690145018E-16  -0.5056416405E-16   0.1991684287E-16   0.1124996497E+02
   0.0000000000E+00   0.9755226657E+00   0.7012169484E-17   0.0000000000E+00  -0.7380276667E-02   0.1612972243E-17   0.0000000000E+00  -0.1709705762E-01   0.5399197241E-17   0.1124997665E+02   0.1168142473E-04   0.1168142473E-04  -0.1506772509E-14  -0.1166510408E-14   0.4685901766E-15   0.4899966865E-01  -0.2447733433E-01  -0.2447733433E-01  -0.5150981707E-16  -0.1746594481E-16   0.9174278904E-17   0.1124996497E+02
   0.0000000000E+00   0.0000000000E+00   0.9755226657E+00   0.0000000000E+00   0.0000000000E+00  -0.7380276667E-02   0.0000000000E+00   0.0000000000E+00  -0.1709705762E-01   0.1124997665E+02   0.1168143070E-04   0.1168143071E-04   0.7369146340E-17  -0.2854457786E-14  -0.7438981367E-15   0.4899966865E-01  -0.2447733433E-01  -0.2447733433E-01  -0.8180667191E-19  -0.2246725642E-16  -0.4204830432E-16   0.1124996497E+02
   0.1048999669E+01   0.0000000000E+00   0.9755226657E+00   0.1476305333E-01   0.0000000000E+00  -0.7380276667E-02   0.3423661525E-01   0.0000000000E+00  -0.1709705762E-01   0.1124997665E+02   0.1168142789E-04   0.1168142788E-04  -0.3532868377E-16   0.8702842301E-15   0.9403851860E-16   0.4899966865E-01  -0.2447733432E-01  -0.2447733432E-01  -0.8460347507E-16   0.8111007013E-16  -0.4079886412E-16   0.1124996497E+02
   0.1048999669E+01   0.9755226657E+00   0.9755226657E+00   0.1476305333E-01  -0.7380276667E-02  -0.7380276667E-02   0.3423661525E-01  -0.1709705762E-01  -0.1709705762E-01   0.1124997665E+02   0.1168142635E-04   0.1168142635E-04  -0.1590427440E-14  -0.2858239141E-14  -0.2228854790E-17   0.4899966864E-01  -0.2447733432E-01  -0.2447733432E-01  -0.8537942742E-16  -0.5562421485E-16  -0.1207359679E-16   0.1124996497E+02
   0.0000000000E+00   0.9755226657E+00   0.9755226657E+00   0.0000000000E+00  -0.7380276667E-02  -0.7380276667E-02   0.0000000000E+00  -0.1709705762E-01  -0.1709705762E-01   0.1124997665E+02   0.1168142533E-04   0.1168142533E-04  -0.1729655119E-14  -0.1835980290E-14  -0.3413533698E-15   0.4899966865E-01  -0.2447733432E-01  -0.2447733432E-01  -0.1136314898E-17  -0.5421201940E-16  -0.1234533171E-16   0.1124996497E+02
   0.2097999337E+01   0.0000000000E+00  -0.4505844149E-16   0.2952610667E-01   0.0000000000E+00  -0.7011010176E-16   0.6847323049E-01   0.0000000000E+00   0.2505166027E-16   0.1124997665E+02   0.1168142264E-04   0.1168142264E-04   0.2668129107E-14   0.2016480936E-14   0.3807976187E-15   0.4899966865E-01  -0.2447733433E-01  -0.2447733433E-01   0.8050552373E-16  -0.1220118628E-16  -0.2978077110E-16   0.1124996497E+02
   0.2097999337E+01   0.9755226657E+00  -0.6032015278E-16   0.2952610667E-01  -0.7380276667E-02  -0.3468473523E-16   0.6847323049E-01  -0.1709705762E-01  -0.2563541755E-16   0.1124997665E+02   0.1168142178E-04   0.1168142179E-04  -0.1352602135E-14   0.4035757677E-15   0.1905989575E-14   0.4899966865E-01  -0.2447733432E-01  -0.2447733432E-01   0.4530398941E-16  -0.1279796378E-16   0.5187919401E-16   0.1124996497E+02
   0.2097999337E+01   0.0000000000E+00   0.9755226657E+00   0.2952610667E-01   0.0000000000E+00  -0.7380276667E-02   0.6847323049E-01   0.0000000000E+00  -0.1709705762E-01   0.1124997665E+02   0.1168142508E-04   0.1168142508E-04  -0.8662196585E-15   0.8754500728E-15  -0.4339194434E-15   0.4899966865E-01  -0.2447733432E-01  -0.2447733432E-01  -0.6601920594E-16   0.3307356339E-16  -0.8792735402E-17   0.1124996497E+02
   0.2097999337E+01   0.9755226657E+00   0.9755226657E+00   0.2952610667E-01  -0.7380276667E-02  -0.7380276667E-02   0.6847323049E-01  -0.1709705762E-01  -0.1709705762E-01   0.1124997665E+02   0.1168142851E-04   0.1168142851E-04  -0.1764438864E-14  -0.1008202365E-14   0.1372661129E-14   0.4899966864E-01  -0.2447733432E-01  -0.2447733432E-01  -0.6886348513E-16  -0.2751717713E-16   0.6509573716E-16   0.1124996497E+02
     1     2     3     4     5     6     7     8
     2     9    10     3     6    11    12     7
 VARIABLES = X,Y,Z,DU1,DU2,DU3,U1,U2,U3,S11,S22,S33,S12,S13,S23,E11,E22,E33,E12,E13,E23,SMISES
 ZONE, T="0.9500D+00" F=FEPOINT, I=   12 J=    2 ET=BRICK
   0.0000000000E+00   0.0000000000E+00   0.0000000000E+00   0.0000000000E+00   0.0000000000E+00   0.0000000000E+00   0.0000000000E+00   0.0000000000E+00   0.0000000000E+00   0.1187490730E+02   0.4636164687E-04   0.4636164687E-04   0.2004904679E-16  -0.3173852983E-14   0.3584832184E-15   0.6433149079E-01  -0.3214199540E-01  -0.3214199540E-01  -0.8666650135E-17  -0.3678069993E-16   0.1511532769E-16   0.1187486093E+02
   0.1064331491E+01   0.0000000000E+00  -0.3736157036E-16   0.1533182211E-01   0.0000000000E+00  -0.4629637912E-16   0.4899966858E-01   0.0000000000E+00   0.8934808755E-17   0.1187490729E+02   0.4636164667E-04   0.4636164667E-04  -0.2410443681E-14   0.4350473886E-15  -0.1124861361E-15   0.6433149079E-01  -0.3214199539E-01  -0.3214199539E-01  -0.1506877448E-17   0.1133925038E-15  -0.2505655540E-16   0.1187486093E+02
   0.1064331491E+01   0.9678580047E+00  -0.5345245658E-16   0.1533182211E-01  -0.7664661055E-02  -0.4356842162E-16   0.4899966858E-01  -0.2447733429E-01  -0.9884034963E-17   0.1187490729E+02   0.4636164883E-04   0.4636164883E-04  -0.2227114574E-14   0.4515407435E-14  -0.1187302595E-14   0.6433149078E-01  -0.3214199539E-01  -0.3214199539E-01  -0.2895000037E-16   0.6124904881E-16  -0.9092654215E-17   0.1187486093E+02
   0.0000000000E+00   0.9678580047E+00   0.7561538833E-17   0.0000000000E+00  -0.7664661055E-02   0.5493693493E-18   0.0000000000E+00  -0.2447733429E-01   0.7012169484E-17   0.1187490729E+02   0.4636164266E-04   0.4636164266E-04   0.2295832492E-14  -0.4515294034E-14   0.1183666085E-14   0.6433149078E-01  -0.3214199539E-01  -0.3214199539E-01   0.1265843612E-17  -0.1024492147E-15   0.2402731998E-16   0.1187486093E+02
   0.0000000000E+00   0.0000000000E+00   0.9678580047E+00   0.0000000000E+00   0.0000000000E+00  -0.7664661055E-02   0.0000000000E+00   0.0000000000E+00  -0.2447733429E-01   0.1187490729E+02   0.4636165942E-04   0.4636165942E-04  -0.2803047088E-16  -0.2575558148E-14  -0.3935514284E-15   0.6433149078E-01  -0.3214199539E-01  -0.3214199539E-01   0.1166431292E-16  -0.5097978736E-16  -0.3255306901E-16   0.1187486093E+02
   0.1064331491E+01   0.0000000000E+00   0.9678580047E+00   0.1533182211E-01   0.0000000000E+00  -0.7664661055E-02   0.4899966858E-01   0.0000000000E+00  -0.2447733429E-01   0.1187490729E+02   0.4636165628E-04   0.4636165628E-04   0.3587027515E-15   0.4595187093E-15  -0.6634195283E-15   0.6433149078E-01  -0.3214199539E-01  -0.3214199539E-01  -0.9917068931E-16   0.9761760821E-16  -0.7469016226E-16   0.1187486093E+02
   0.1064331491E+01   0.9678580047E+00   0.9678580047E+00   0.1533182211E-01  -0.7664661055E-02  -0.7664661055E-02   0.4899966858E-01  -0.2447733429E-01  -0.2447733429E-01   0.1187490729E+02   0.4636165342E-04   0.4636165342E-04   0.4478348127E-15   0.3422906091E-14  -0.1565638397E-14   0.6433149077E-01  -0.3214199539E-01  -0.3214199539E-01  -0.6376417859E-16   0.3417679959E-16   0.6651730693E-17   0.1187486093E+02
   0.0000000000E+00   0.9678580047E+00   0.9678580047E+00   0.0000000000E+00  -0.7664661055E-02  -0.7664661055E-02   0.0000000000E+00  -0.2447733429E-01  -0.2447733429E-01   0.1187490729E+02   0.4636165554E-04   0.4636165554E-04   0.1271198476E-15  -0.3896108106E-14   0.9551223076E-15   0.6433149078E-01  -0.3214199539E-01  -0.3214199539E-01   0.3278153780E-16  -0.9917545936E-16  -0.4281611265E-16   0.1187486093E+02
   0.2128662981E+01   0.0000000000E+00  -0.1718753285E-15   0.3066364422E-01   0.0000000000E+00  -0.1268168870E-15   0.9799933716E-01   0.0000000000E+00  -0.4505844149E-16   0.1187490729E+02   0.4636164410E-04   0.4636164410E-04   0.8179445745E-14   0.4112351328E-14   0.1218856872E-14   0.6433149079E-01  -0.3214199539E-01  -0.3214199539E-01   0.1925829292E-15   0.8407292083E-16  -0.1063777408E-16   0.1187486093E+02
   0.2128662981E+01   0.9678580047E+00  -0.1755009829E-15   0.3066364422E-01  -0.7664661055E-02  -0.1151808301E-15   0.9799933716E-01  -0.2447733429E-01  -0.6032015278E-16   0.1187490729E+02   0.4636165502E-04   0.4636165502E-04   0.6157497857E-14  -0.5665653294E-14   0.1991249645E-14   0.6433149078E-01  -0.3214199539E-01  -0.3214199539E-01   0.1727789748E-15  -0.2152620718E-15   0.6377043228E-16   0.1187486093E+02
   0.2128662981E+01   0.0000000000E+00   0.9678580047E+00   0.3066364422E-01   0.0000000000E+00  -0.7664661055E-02   0.9799933716E-01   0.0000000000E+00  -0.2447733429E-01   0.1187490729E+02   0.4636165162E-04   0.4636165162E-04  -0.2476011380E-14   0.3244586152E-14   0.6352129214E-15   0.6433149078E-01  -0.3214199539E-01  -0.3214199539E-01  -0.4571507786E-16   0.1442766472E-15   0.1593517135E-16   0.1187486093E+02
   0.2128662981E+01   0.9678580047E+00   0.9678580047E+00   0.3066364422E-01  -0.7664661055E-02  -0.7664661055E-02   0.9799933716E-01  -0.2447733429E-01  -0.2447733429E-01   0.1187490729E+02   0.4636165219E-04   0.4636165219E-04  -0.2634446991E-14  -0.3669701110E-14   0.8861538647E-15   0.6433149077E-01  -0.3214199539E-01  -0.3214199539E-01  -0.1301554719E-15  -0.1911823206E-15   0.6788383546E-16   0.1187486093E+02
     1     2     3     4     5     6     7     8
     2     9    10     3     6    11    12     7
 VARIABLES = X,Y,Z,DU1,DU2,DU3,U1,U2,U3,S11,S22,S33,S12,S13,S23,E11,E22,E33,E12,E13,E23,SMISES
 ZONE, T="0.1000D+01" F=FEPOINT, I=   12 J=    2 ET=BRICK
   0.0000000000E+00   0.0000000000E+00   0.0000000000E+00   0.0000000000E+00   0.0000000000E+00   0.0000000000E+00   0.0000000000E+00   0.0000000000E+00   0.0000000000E+00   0.1249997596E+02   0.1203069272E-04   0.1203069272E-04  -0.4537897718E-16   0.2486955293E-14   0.8131552803E-15   0.8028996490E-01  -0.4011998245E-01  -0.4011998245E-01  -0.1815417998E-17   0.6071035335E-16   0.3036210502E-16   0.1249996393E+02
   0.1080289965E+01   0.0000000000E+00   0.2080597725E-16   0.1595847409E-01   0.0000000000E+00   0.5816754762E-16   0.6433149069E-01   0.0000000000E+00  -0.3736157036E-16   0.1249997596E+02   0.1203068903E-04   0.1203068903E-04   0.1297829593E-15  -0.8875553102E-15  -0.1416988472E-15   0.8028996490E-01  -0.4011998245E-01  -0.4011998245E-01   0.2351402644E-16   0.1206960140E-15  -0.3174370385E-16   0.1249996393E+02
   0.1080289965E+01   0.9598800176E+00   0.4998640490E-17   0.1595847409E-01  -0.7977987043E-02   0.5845109707E-16   0.6433149069E-01  -0.3214199534E-01  -0.5345245658E-16   0.1249997596E+02   0.1203069090E-04   0.1203069091E-04  -0.7546040413E-15   0.3926134967E-15  -0.4527018361E-15   0.8028996489E-01  -0.4011998244E-01  -0.4011998244E-01   0.1170528928E-16  -0.5989480636E-16   0.1220031542E-16   0.1249996393E+02
   0.0000000000E+00   0.9598800176E+00   0.1377597083E-16   0.0000000000E+00  -0.7977987043E-02   0.6214431993E-17   0.0000000000E+00  -0.3214199534E-01   0.7561538833E-17   0.1249997596E+02   0.1203068987E-04   0.1203068986E-04  -0.1331670108E-14   0.6299474837E-15  -0.7946727246E-15   0.8028996489E-01  -0.4011998245E-01  -0.4011998245E-01  -0.5550221616E-16  -0.1154359902E-16  -0.2954321217E-16   0.1249996393E+02
   0.0000000000E+00   0.0000000000E+00   0.9598800176E+00   0.0000000000E+00   0.0000000000E+00  -0.7977987043E-02   0.0000000000E+00   0.0000000000E+00  -0.3214199534E-01   0.1249997596E+02   0.1203069297E-04   0.1203069297E-04  -0.1215112993E-16   0.1331671119E-14   0.5253868517E-15   0.8028996489E-01  -0.4011998245E-01  -0.4011998245E-01  -0.4164355577E-17   0.2004606957E-16  -0.1710962549E-16   0.1249996393E+02
   0.1080289965E+01   0.0000000000E+00   0.9598800176E+00   0.1595847409E-01   0.0000000000E+00  -0.7977987043E-02   0.6433149069E-01   0.0000000000E+00  -0.3214199534E-01   0.1249997596E+02   0.1203069312E-04   0.1203069312E-04   0.3836315222E-15  -0.7208063670E-15   0.5316147397E-16   0.8028996489E-01  -0.4011998244E-01  -0.4011998244E-01  -0.6142926234E-16   0.6750266070E-16  -0.3900833872E-16   0.1249996393E+02
   0.1080289965E+01   0.9598800176E+00   0.9598800176E+00   0.1595847409E-01  -0.7977987043E-02  -0.7977987043E-02   0.6433149069E-01  -0.3214199534E-01  -0.3214199534E-01   0.1249997595E+02   0.1203068998E-04   0.1203068998E-04   0.4201119268E-15  -0.1031181224E-14  -0.2976618307E-15   0.8028996488E-01  -0.4011998244E-01  -0.4011998244E-01  -0.9115496884E-16   0.5093048460E-19  -0.1081526639E-16   0.1249996392E+02
   0.0000000000E+00   0.9598800176E+00   0.9598800176E+00   0.0000000000E+00  -0.7977987043E-02  -0.7977987043E-02   0.0000000000E+00  -0.3214199534E-01  -0.3214199534E-01   0.1249997596E+02   0.1203069044E-04   0.1203069044E-04   0.5534695230E-16   0.3843420181E-15  -0.8508770297E-15   0.8028996488E-01  -0.4011998244E-01  -0.4011998244E-01   0.4153490521E-16  -0.3807742527E-16  -0.2789914146E-16   0.1249996392E+02
   0.2160579930E+01   0.0000000000E+00   0.7757090456E-17   0.3191694817E-01   0.0000000000E+00   0.1796324190E-15   0.1286629814E+00   0.0000000000E+00  -0.1718753285E-15   0.1249997596E+02   0.1203068636E-04   0.1203068636E-04   0.3176963780E-14   0.1347648470E-14   0.7333900004E-15   0.8028996490E-01  -0.4011998245E-01  -0.4011998245E-01   0.1763246028E-15   0.6652551222E-16  -0.9056833524E-17   0.1249996393E+02
   0.2160579930E+01   0.9598800176E+00   0.4867281526E-17   0.3191694817E-01  -0.7977987043E-02   0.1803682644E-15   0.1286629814E+00  -0.3214199534E-01  -0.1755009829E-15   0.1249997596E+02   0.1203069450E-04   0.1203069450E-04   0.2661017502E-14  -0.2659543668E-14   0.1467609736E-14   0.8028996489E-01  -0.4011998244E-01  -0.4011998244E-01   0.1426860435E-15  -0.2102507697E-15   0.7145596193E-16   0.1249996393E+02
   0.2160579930E+01   0.0000000000E+00   0.9598800176E+00   0.3191694817E-01   0.0000000000E+00  -0.7977987043E-02   0.1286629814E+00   0.0000000000E+00  -0.3214199534E-01   0.1249997596E+02   0.1203069297E-04   0.1203069297E-04  -0.3161542089E-14   0.1961544830E-14   0.1439102846E-15   0.8028996489E-01  -0.4011998244E-01  -0.4011998244E-01  -0.1056615744E-15  -0.4819449765E-16   0.1515245208E-16   0.1249996393E+02
   0.2160579930E+01   0.9598800176E+00   0.9598800176E+00   0.3191694817E-01  -0.7977987043E-02  -0.7977987043E-02   0.1286629814E+00  -0.3214199534E-01  -0.3214199534E-01   0.1249997595E+02   0.1203069077E-04   0.1203069077E-04  -0.3201224310E-14  -0.2451737996E-14   0.5009906046E-15   0.8028996488E-01  -0.4011998244E-01  -0.4011998244E-01  -0.7001760214E-16  -0.9028834280E-16   0.8715863707E-16   0.1249996392E+02
     1     2     3     4     5     6     7     8
     2     9    10     3     6    11    12     7
 VARIABLES = X,Y,Z,DU1,DU2,DU3,U1,U2,U3,S11,S22,S33,S12,S13,S23,E11,E22,E33,E12,E13,E23,SMISES
 ZONE, T="0.1050D+01" F=FEPOINT, I=   12 J=    2 ET=BRICK
   0.0000000000E+00   0.0000000000E+00   0.0000000000E+00   0.0000000000E+00   0.0000000000E+00   0.0000000000E+00   0.0000000000E+00   0.0000000000E+00   0.0000000000E+00   0.1137500002E+02   0.4935684868E-09   0.4938563095E-09  -0.4383977785E-16   0.1114798886E-11   0.7059695640E-12   0.7804003703E-01  -0.3899726852E-01  -0.3899726852E-01  -0.1131558599E-16   0.1336584196E-13   0.8468372157E-14   0.1137500002E+02
   0.1078040037E+01   0.0000000000E+00   0.5908226316E-14  -0.2249927864E-02   0.0000000000E+00   0.5887420339E-14   0.8028996478E-01   0.0000000000E+00   0.2080597725E-16   0.1137500002E+02   0.3642379188E-10   0.3574514646E-10   0.1349171780E-12   0.1103124413E-12   0.6487661900E-14   0.7804003703E-01  -0.3899726852E-01  -0.3899726852E-01   0.1632513932E-14   0.1474819000E-14   0.4477878802E-16   0.1137500002E+02
   0.1078040037E+01   0.9610027315E+00   0.5932222121E-14  -0.2249927864E-02   0.1122713932E-02   0.5927223481E-14   0.8028996478E-01  -0.4011998239E-01   0.4998640490E-17   0.1137500002E+02   0.2183396628E-09   0.2184179994E-09   0.2654920284E-12  -0.2019564959E-12  -0.2886005493E-12   0.7804003702E-01  -0.3899726851E-01  -0.3899726851E-01   0.3170333364E-14  -0.2477868322E-14  -0.3458828478E-14   0.1137500002E+02
   0.0000000000E+00   0.9610027315E+00   0.4241890603E-14   0.0000000000E+00   0.1122713932E-02   0.4228114632E-14   0.0000000000E+00  -0.4011998239E-01   0.1377597083E-16   0.1137500002E+02   0.3499206305E-09   0.3492214879E-09  -0.2692617063E-12   0.2114423716E-13   0.2360218604E-12   0.7804003702E-01  -0.3899726851E-01  -0.3899726851E-01  -0.3255814403E-14   0.2474754583E-15   0.2835854059E-14   0.1137500002E+02
   0.0000000000E+00   0.0000000000E+00   0.9610027315E+00   0.0000000000E+00   0.0000000000E+00   0.1122713932E-02   0.0000000000E+00   0.0000000000E+00  -0.4011998239E-01   0.1137500002E+02  -0.9160445296E-10  -0.9037770602E-10  -0.1905404389E-16   0.1746048508E-12   0.2128477271E-12   0.7804003702E-01  -0.3899726851E-01  -0.3899726851E-01   0.1739602188E-16   0.2073455343E-14   0.2575812732E-14   0.1137500002E+02
   0.1078040037E+01   0.0000000000E+00   0.9610027315E+00  -0.2249927864E-02   0.0000000000E+00   0.1122713932E-02   0.8028996478E-01   0.0000000000E+00  -0.4011998239E-01   0.1137500002E+02  -0.3188505603E-09  -0.3189397927E-09  -0.2663097570E-12   0.1347343795E-12   0.3848606814E-12   0.7804003702E-01  -0.3899726851E-01  -0.3899726851E-01  -0.3302901746E-14   0.1718091812E-14   0.4554425838E-14   0.1137500002E+02
   0.1078040037E+01   0.9610027315E+00   0.9610027315E+00  -0.2249927864E-02   0.1122713932E-02   0.1122713932E-02   0.8028996478E-01  -0.4011998239E-01  -0.4011998239E-01   0.1137500001E+02  -0.2337104171E-09  -0.2330433336E-09  -0.2368237357E-12  -0.2577264005E-12   0.8968664741E-13   0.7804003701E-01  -0.3899726851E-01  -0.3899726851E-01  -0.2911123993E-14  -0.3055086560E-14   0.1090468341E-14   0.1137500001E+02
   0.0000000000E+00   0.9610027315E+00   0.9610027315E+00   0.0000000000E+00   0.1122713932E-02   0.1122713932E-02   0.0000000000E+00  -0.4011998239E-01  -0.4011998239E-01   0.1137500001E+02  -0.4893465508E-09  -0.4891052822E-09   0.4343022606E-13   0.4276012558E-12  -0.2568839484E-12   0.7804003702E-01  -0.3899726851E-01  -0.3899726851E-01   0.5396206767E-15   0.5048148543E-14  -0.3138584060E-14   0.1137500002E+02
   0.2156080074E+01   0.0000000000E+00   0.8654977747E-14  -0.4499855728E-02   0.0000000000E+00   0.8647220656E-14   0.1605799296E+00   0.0000000000E+00   0.7757090456E-17   0.1137500002E+02   0.4881706368E-09   0.4880301285E-09  -0.3155068480E-13  -0.5169678979E-12   0.8818792184E-12   0.7804003703E-01  -0.3899726851E-01  -0.3899726851E-01  -0.2205789561E-15  -0.6195143835E-14   0.1056931370E-13   0.1137500002E+02
   0.2156080074E+01   0.9610027315E+00   0.1393537676E-13  -0.4499855728E-02   0.1122713932E-02   0.1393050948E-13   0.1605799296E+00  -0.4011998239E-01   0.4867281526E-17   0.1137500002E+02   0.4934503168E-10   0.4790582599E-10   0.4988538813E-12   0.3785476115E-12   0.2102507608E-12   0.7804003702E-01  -0.3899726851E-01  -0.3899726851E-01   0.6158945668E-14   0.4452236799E-14   0.2527686630E-14   0.1137500002E+02
   0.2156080074E+01   0.0000000000E+00   0.9610027315E+00  -0.4499855728E-02   0.0000000000E+00   0.1122713932E-02   0.1605799296E+00   0.0000000000E+00  -0.4011998239E-01   0.1137500002E+02   0.8535320095E-10   0.8655837647E-10  -0.4059602295E-12   0.4711524906E-12   0.2309823425E-12   0.7804003702E-01  -0.3899726851E-01  -0.3899726851E-01  -0.4836073901E-14   0.5627795831E-14   0.2772676246E-14   0.1137500002E+02
   0.2156080074E+01   0.9610027315E+00   0.9610027315E+00  -0.4499855728E-02   0.1122713932E-02   0.1122713932E-02   0.1605799296E+00  -0.4011998239E-01  -0.4011998239E-01   0.1137500001E+02  -0.2929250029E-09  -0.2930213439E-09  -0.3903123432E-12  -0.1368171850E-12  -0.4410174646E-12   0.7804003701E-01  -0.3899726851E-01  -0.3899726851E-01  -0.4746548189E-14  -0.1719634228E-14  -0.5181925885E-14   0.1137500001E+02
     1     2     3     4     5     6     7     8
     2     9    10     3     6    11    12     7
 VARIABLES = X,Y,Z,DU1,DU2,DU3,U1,U2,U3,S11,S22,S33,S12,S13,S23,E11,E22,E33,E12,E13,E23,SMISES
 ZONE, T="0.1100D+01" F=FEPOINT, I=   12 J=    2 ET=BRICK
   0.0000000000E+00   0.0000000000E+00   0.0000000000E+00   0.0000000000E+00   0.0000000000E+00   0.0000000000E+00   0.0000000000E+00   0.0000000000E+00   0.0000000000E+00   0.1025000002E+02   0.1519055526E-11   0.1519794962E-11  -0.2129938716E-16   0.2050525167E-14   0.4181549174E-15   0.7579003703E-01  -0.3787451852E-01  -0.3787451852E-01  -0.1258500413E-16   0.4072955795E-16   0.3021622372E-16   0.1025000002E+02
   0.1075790037E+01   0.0000000000E+00   0.2021977969E-16  -0.2250000000E-02   0.0000000000E+00  -0.5888006536E-14   0.7804003691E-01   0.0000000000E+00   0.5908226316E-14   0.1025000002E+02  -0.1509462131E-11  -0.1509684175E-11   0.2758666695E-15  -0.6003293558E-15   0.2848109867E-15   0.7579003703E-01  -0.3787451851E-01  -0.3787451851E-01   0.1667866792E-16   0.7309660411E-16  -0.3453504881E-16   0.1025000002E+02
   0.1075790037E+01   0.9621254815E+00   0.6999339861E-17  -0.2250000000E-02   0.1122750000E-02  -0.5925222781E-14   0.7804003691E-01  -0.3899726846E-01   0.5932222121E-14   0.1025000001E+02  -0.4877023460E-12  -0.4881682124E-12  -0.2021782859E-15  -0.2651506504E-16  -0.2817388211E-17   0.7579003702E-01  -0.3787451851E-01  -0.3787451851E-01  -0.1137992842E-16  -0.2204851904E-16   0.6095721851E-16   0.1025000001E+02
   0.0000000000E+00   0.9621254815E+00   0.1129230113E-16   0.0000000000E+00   0.1122750000E-02  -0.4230598302E-14   0.0000000000E+00  -0.3899726846E-01   0.4241890603E-14   0.1025000001E+02  -0.1019788390E-11  -0.1020080820E-11  -0.6047765433E-15   0.1476825396E-14  -0.2246084469E-15   0.7579003702E-01  -0.3787451851E-01  -0.3787451851E-01  -0.6181863627E-16   0.1790412278E-16  -0.2068045464E-16   0.1025000001E+02
   0.0000000000E+00   0.0000000000E+00   0.9621254815E+00   0.0000000000E+00   0.0000000000E+00   0.1122750000E-02   0.0000000000E+00   0.0000000000E+00  -0.3899726846E-01   0.1025000001E+02   0.2388720084E-11   0.2389074928E-11  -0.2727973421E-16   0.1264998168E-14  -0.2450535553E-15   0.7579003702E-01  -0.3787451851E-01  -0.3787451851E-01   0.1120939609E-16  -0.6212417367E-17   0.1474604381E-16   0.1025000001E+02
   0.1075790037E+01   0.0000000000E+00   0.9621254815E+00  -0.2250000000E-02   0.0000000000E+00   0.1122750000E-02   0.7804003691E-01   0.0000000000E+00  -0.3899726846E-01   0.1025000001E+02   0.1745143401E-11   0.1745202898E-11  -0.5957802969E-16  -0.6126308528E-15   0.3072756932E-15   0.7579003702E-01  -0.3787451851E-01  -0.3787451851E-01  -0.9263334950E-16   0.8131037403E-16  -0.5658652726E-16   0.1025000001E+02
   0.1075790037E+01   0.9621254815E+00   0.9621254815E+00  -0.2250000000E-02   0.1122750000E-02   0.1122750000E-02   0.7804003691E-01  -0.3899726846E-01  -0.3899726846E-01   0.1025000001E+02  -0.6225158244E-12  -0.6228786396E-12  -0.3950771593E-15  -0.1408174313E-14  -0.9554965999E-16   0.7579003701E-01  -0.3787451851E-01  -0.3787451851E-01  -0.7866661640E-16  -0.5398561852E-17  -0.2412751544E-16   0.1025000001E+02
   0.0000000000E+00   0.9621254815E+00   0.9621254815E+00   0.0000000000E+00   0.1122750000E-02   0.1122750000E-02   0.0000000000E+00  -0.3899726846E-01  -0.3899726846E-01   0.1025000001E+02  -0.9579480696E-12  -0.9573820695E-12  -0.4226233780E-15   0.1591224346E-14  -0.5480996523E-15   0.7579003701E-01  -0.3787451851E-01  -0.3787451851E-01   0.3980702470E-16  -0.6425613591E-16  -0.1666400352E-16   0.1025000001E+02
   0.2151580074E+01   0.0000000000E+00   0.1551619760E-16  -0.4500000000E-02   0.0000000000E+00  -0.8639461549E-14   0.1560800738E+00   0.0000000000E+00   0.8654977747E-14   0.1025000002E+02  -0.3958631508E-11  -0.3960865760E-11   0.1557630553E-15   0.6462633922E-16  -0.6131501136E-16   0.7579003703E-01  -0.3787451851E-01  -0.3787451851E-01   0.1865790521E-15   0.8183961589E-16  -0.2237500105E-16   0.1025000002E+02
   0.2151580074E+01   0.9621254815E+00   0.7852295850E-17  -0.4500000000E-02   0.1122750000E-02  -0.1392752446E-13   0.1560800738E+00  -0.3899726846E-01   0.1393537676E-13   0.1025000001E+02   0.2264824125E-11   0.2266773919E-11  -0.1375559410E-15   0.5030891932E-16   0.2390046539E-15   0.7579003702E-01  -0.3787451851E-01  -0.3787451851E-01   0.1577429574E-15  -0.1531406956E-15   0.5127779521E-16   0.1025000001E+02
   0.2151580074E+01   0.0000000000E+00   0.9621254815E+00  -0.4500000000E-02   0.0000000000E+00   0.1122750000E-02   0.1560800738E+00   0.0000000000E+00  -0.3899726846E-01   0.1025000001E+02   0.5748717018E-12   0.5758926796E-12  -0.7923811721E-16  -0.5041972124E-15  -0.3391209543E-15   0.7579003702E-01  -0.3787451851E-01  -0.3787451851E-01  -0.2770178415E-16  -0.6786048943E-16   0.3137854944E-16   0.1025000001E+02
   0.2151580074E+01   0.9621254815E+00   0.9621254815E+00  -0.4500000000E-02   0.1122750000E-02   0.1122750000E-02   0.1560800738E+00  -0.3899726846E-01  -0.3899726846E-01   0.1025000001E+02   0.8411588812E-12   0.8401487920E-12  -0.3469004107E-16   0.1558471019E-15  -0.4751019343E-15   0.7579003701E-01  -0.3787451850E-01  -0.3787451850E-01  -0.3609344251E-16  -0.2494825654E-15   0.5215221479E-16   0.1025000001E+02
     1     2     3     4     5     6     7     8
     2     9    10     3     6    11    12     7
 VARIABLES = X,Y,Z,DU1,DU2,DU3,U1,U2,U3,S11,S22,S33,S12,S13,S23,E11,E22,E33,E12,E13,E23,SMISES
 ZONE, T="0.1150D+01" F=FEPOINT, I=   12 J=    2 ET=BRICK
   0.0000000000E+00   0.0000000000E+00   0.0000000000E+00   0.0000000000E+00   0.0000000000E+00   0.0000000000E+00   0.0000000000E+00   0.0000000000E+00   0.0000000000E+00   0.9125000014E+01  -0.7083676173E-13  -0.6909122131E-13  -0.1133017458E-16   0.5004017787E-15  -0.1893129831E-15   0.7354003703E-01  -0.3675176851E-01  -0.3675176851E-01   0.6276072539E-17   0.6702028529E-17   0.1573591339E-16   0.9125000014E+01
   0.1073540037E+01   0.0000000000E+00   0.5244969879E-17  -0.2250000000E-02   0.0000000000E+00  -0.1497480981E-16   0.7579003691E-01   0.0000000000E+00   0.2021977969E-16   0.9125000014E+01  -0.2771061939E-11  -0.2770463273E-11   0.2693784502E-15  -0.6738398275E-15  -0.2890289982E-15   0.7354003702E-01  -0.3675176851E-01  -0.3675176851E-01   0.6893774914E-18   0.9734577415E-16  -0.3897112705E-16   0.9125000014E+01
   0.1073540037E+01   0.9632482315E+00  -0.1140696236E-16  -0.2250000000E-02   0.1122750000E-02  -0.1840630222E-16   0.7579003691E-01  -0.3787451846E-01   0.6999339861E-17   0.9125000013E+01  -0.1509337725E-11  -0.1509085932E-11   0.6420223973E-16   0.1029483622E-14   0.2934185093E-15   0.7354003702E-01  -0.3675176851E-01  -0.3675176851E-01  -0.1970861529E-16   0.5195223746E-17   0.4476747856E-16   0.9125000013E+01
   0.0000000000E+00   0.9632482315E+00   0.7609343936E-17   0.0000000000E+00   0.1122750000E-02  -0.3682957196E-17   0.0000000000E+00  -0.3787451846E-01   0.1129230113E-16   0.9125000013E+01  -0.2784571182E-11  -0.2783895227E-11  -0.3358679248E-15  -0.9288912480E-16   0.5569219921E-15   0.7354003702E-01  -0.3675176851E-01  -0.3675176851E-01  -0.3790406121E-16  -0.3250422940E-16  -0.3347954576E-17   0.9125000013E+01
   0.0000000000E+00   0.0000000000E+00   0.9632482315E+00   0.0000000000E+00   0.0000000000E+00   0.1122750000E-02   0.0000000000E+00   0.0000000000E+00  -0.3787451846E-01   0.9125000013E+01   0.3654767550E-11   0.3653731698E-11  -0.3105136365E-16  -0.5910653211E-15  -0.7948679283E-15   0.7354003702E-01  -0.3675176851E-01  -0.3675176851E-01  -0.1313782540E-16   0.1364356103E-16   0.2603324999E-17   0.9125000013E+01
   0.1073540037E+01   0.0000000000E+00   0.9632482315E+00  -0.2250000000E-02   0.0000000000E+00   0.1122750000E-02   0.7579003691E-01   0.0000000000E+00  -0.3787451846E-01   0.9125000013E+01   0.2781608543E-11   0.2780181196E-11   0.8769727598E-15  -0.3265549929E-15  -0.1428226462E-15   0.7354003702E-01  -0.3675176851E-01  -0.3675176851E-01  -0.5696238843E-16   0.5772282860E-16  -0.7284947991E-16   0.9125000013E+01
   0.1073540037E+01   0.9632482315E+00   0.9632482315E+00  -0.2250000000E-02   0.1122750000E-02   0.1122750000E-02   0.7579003691E-01  -0.3787451846E-01  -0.3787451846E-01   0.9125000012E+01   0.3288404930E-12   0.3280415596E-12   0.2805831787E-15  -0.2572901924E-15   0.3548688663E-15   0.7354003701E-01  -0.3675176850E-01  -0.3675176850E-01  -0.5241397796E-16  -0.4085461047E-16  -0.1876181822E-16   0.9125000012E+01
   0.0000000000E+00   0.9632482315E+00   0.9632482315E+00   0.0000000000E+00   0.1122750000E-02   0.1122750000E-02   0.0000000000E+00  -0.3787451846E-01  -0.3787451846E-01   0.9125000012E+01   0.1268966856E-11   0.1267949864E-11  -0.8123304764E-15  -0.1048431695E-15   0.4493831596E-15   0.7354003701E-01  -0.3675176850E-01  -0.3675176850E-01   0.2006506859E-16  -0.8304590072E-16  -0.1398371298E-17   0.9125000012E+01
   0.2147080074E+01   0.0000000000E+00  -0.3779065383E-16  -0.4500000000E-02   0.0000000000E+00  -0.5330685143E-16   0.1515800738E+00   0.0000000000E+00   0.1551619760E-16   0.9125000014E+01  -0.4470403790E-11  -0.4471439642E-11   0.6688157318E-15   0.2691171015E-15  -0.1026363613E-15   0.7354003702E-01  -0.3675176851E-01  -0.3675176851E-01   0.2604097620E-15  -0.1884996878E-16   0.6005256378E-17   0.9125000014E+01
   0.2147080074E+01   0.9632482315E+00  -0.4575653319E-16  -0.4500000000E-02   0.1122750000E-02  -0.5360882904E-16   0.1515800738E+00  -0.3787451846E-01   0.7852295850E-17   0.9125000013E+01   0.1973552024E-11   0.1976174854E-11   0.4621339393E-15  -0.4190316693E-15   0.8266772676E-15   0.7354003701E-01  -0.3675176851E-01  -0.3675176851E-01   0.2306392315E-15  -0.2183214283E-15   0.2428369975E-17   0.9125000013E+01
   0.2147080074E+01   0.0000000000E+00   0.9632482315E+00  -0.4500000000E-02   0.0000000000E+00   0.1122750000E-02   0.1515800738E+00   0.0000000000E+00  -0.3787451846E-01   0.9125000013E+01   0.2019116890E-11   0.2021425513E-11  -0.7455526085E-15   0.2993502087E-15  -0.9434708984E-15   0.7354003701E-01  -0.3675176851E-01  -0.3675176851E-01  -0.4346212494E-16   0.1703986836E-16   0.1185374868E-16   0.9125000013E+01
   0.2147080074E+01   0.9632482315E+00   0.9632482315E+00  -0.4500000000E-02   0.1122750000E-02   0.1122750000E-02   0.1515800738E+00  -0.3787451846E-01  -0.3787451846E-01   0.9125000012E+01   0.7199997779E-12   0.7175989926E-12  -0.4908956276E-15   0.1166909966E-15  -0.4186835341E-15   0.7354003701E-01  -0.3675176850E-01  -0.3675176850E-01  -0.4156925257E-16  -0.1519567819E-15   0.8734012057E-16   0.9125000012E+01
     1     2     3     4     5     6     7     8
     2     9    10     3     6    11    12     7
 VARIABLES = X,Y,Z,DU1,DU2,DU3,U1,U2,U3,S11,S22,S33,S12,S13,S23,E11,E22,E33,E12,E13,E23,SMISES
 ZONE, T="0.1200D+01" F=FEPOINT, I=   12 J=    2 ET=BRICK
   0.0000000000E+00   0.0000000000E+00   0.0000000000E+00   0.0000000000E+00   0.0000000000E+00   0.0000000000E+00   0.0000000000E+00   0.0000000000E+00   0.0000000000E+00   0.8000000013E+01  -0.5126973431E-12  -0.5108923060E-12   0.1457664348E-16   0.3370326437E-15  -0.3847968122E-15   0.7129003702E-01  -0.3562901851E-01  -0.3562901851E-01  -0.7901089925E-18   0.4267279302E-16   0.3803326882E-17   0.8000000013E+01
   0.1071290037E+01   0.0000000000E+00   0.5964133749E-17  -0.2250000000E-02   0.0000000000E+00   0.7191638703E-18   0.7354003691E-01   0.0000000000E+00   0.5244969879E-17   0.8000000012E+01  -0.2327844999E-11  -0.2327712199E-11   0.1516135659E-14   0.9903470545E-15  -0.3794814366E-16   0.7129003702E-01  -0.3562901851E-01  -0.3562901851E-01   0.1462205866E-16   0.7382033118E-16  -0.3275420455E-16   0.8000000012E+01
   0.1071290037E+01   0.9643709815E+00  -0.9006060417E-17  -0.2250000000E-02   0.1122750000E-02   0.2400901944E-17   0.7354003691E-01  -0.3675176846E-01  -0.1140696236E-16   0.8000000011E+01  -0.1470574852E-11  -0.1470404333E-11   0.1209481202E-14  -0.1741453986E-15   0.5236783144E-15   0.7129003701E-01  -0.3562901851E-01  -0.3562901851E-01  -0.1107442585E-16   0.2646599341E-16   0.3018747399E-16   0.8000000011E+01
   0.0000000000E+00   0.9643709815E+00   0.6339984982E-17   0.0000000000E+00   0.1122750000E-02  -0.1269358954E-17   0.0000000000E+00  -0.3675176846E-01   0.7609343936E-17   0.8000000012E+01  -0.2024441366E-11  -0.2023987456E-11  -0.5349601282E-15   0.5059725265E-15  -0.1011883034E-15   0.7129003702E-01  -0.3562901851E-01  -0.3562901851E-01  -0.1773923786E-16  -0.4513213371E-16   0.4021326839E-16   0.8000000012E+01
   0.0000000000E+00   0.0000000000E+00   0.9643709815E+00   0.0000000000E+00   0.0000000000E+00   0.1122750000E-02   0.0000000000E+00   0.0000000000E+00  -0.3675176846E-01   0.8000000012E+01   0.4102361625E-11   0.4101751002E-11  -0.5270819700E-16  -0.7487612658E-15  -0.8290320266E-15   0.7129003702E-01  -0.3562901851E-01  -0.3562901851E-01   0.7422745070E-17   0.9717059795E-17  -0.1179022890E-16   0.8000000012E+01
   0.1071290037E+01   0.0000000000E+00   0.9643709815E+00  -0.2250000000E-02   0.0000000000E+00   0.1122750000E-02   0.7354003691E-01   0.0000000000E+00  -0.3675176846E-01   0.8000000011E+01   0.2396534408E-11   0.2395551149E-11  -0.6520546818E-15   0.1090849796E-14   0.2443100035E-15   0.7129003701E-01  -0.3562901851E-01  -0.3562901851E-01  -0.7741027295E-16   0.8104553358E-16  -0.6601031423E-16   0.8000000011E+01
   0.1071290037E+01   0.9643709815E+00   0.9643709815E+00  -0.2250000000E-02   0.1122750000E-02   0.1122750000E-02   0.7354003691E-01  -0.3675176846E-01  -0.3675176846E-01   0.8000000010E+01   0.4596652640E-12   0.4590288785E-12  -0.1462831460E-14  -0.1672798900E-14   0.5927339640E-15   0.7129003700E-01  -0.3562901850E-01  -0.3562901850E-01  -0.7676560037E-16  -0.5284542041E-17  -0.2192864705E-16   0.8000000010E+01
   0.0000000000E+00   0.9643709815E+00   0.9643709815E+00   0.0000000000E+00   0.1122750000E-02   0.1122750000E-02   0.0000000000E+00  -0.3675176846E-01  -0.3675176846E-01   0.8000000011E+01   0.3456425661E-12   0.3455246406E-12  -0.5748930701E-15   0.3678080855E-15  -0.8943788065E-17   0.7129003701E-01  -0.3562901850E-01  -0.3562901850E-01   0.8935637962E-17  -0.7131666754E-16  -0.5835372301E-16   0.8000000011E+01
   0.2142580074E+01   0.0000000000E+00  -0.3054905305E-16  -0.4500000000E-02   0.0000000000E+00   0.7241600784E-17   0.1470800738E+00   0.0000000000E+00  -0.3779065383E-16   0.8000000012E+01  -0.3328073614E-11  -0.3330382236E-11  -0.1012409779E-14  -0.1727767398E-14  -0.2076959342E-15   0.7129003702E-01  -0.3562901851E-01  -0.3562901851E-01   0.1692469440E-15  -0.1623282101E-16  -0.1811557449E-16   0.8000000012E+01
   0.2142580074E+01   0.9643709815E+00  -0.3922144738E-16  -0.4500000000E-02   0.1122750000E-02   0.6535085817E-17   0.1470800738E+00  -0.3675176846E-01  -0.4575653319E-16   0.8000000011E+01   0.1318991081E-11   0.1322724133E-11  -0.1287749578E-14   0.1395056534E-14   0.4042469701E-15   0.7129003701E-01  -0.3562901851E-01  -0.3562901851E-01   0.1775948870E-15  -0.2799022659E-15   0.4254182737E-16   0.8000000011E+01
   0.2142580074E+01   0.0000000000E+00   0.9643709815E+00  -0.4500000000E-02   0.0000000000E+00   0.1122750000E-02   0.1470800738E+00   0.0000000000E+00  -0.3675176846E-01   0.8000000011E+01   0.3964307578E-12   0.3989207881E-12   0.1359146383E-14  -0.1431305856E-14  -0.8443035714E-15   0.7129003701E-01  -0.3562901851E-01  -0.3562901851E-01   0.7440499132E-16   0.2030463716E-16  -0.1604258439E-16   0.8000000011E+01
   0.2142580074E+01   0.9643709815E+00   0.9643709815E+00  -0.4500000000E-02   0.1122750000E-02   0.1122750000E-02   0.1470800738E+00  -0.3675176846E-01  -0.3675176846E-01   0.8000000010E+01   0.1716344791E-11   0.1714420760E-11   0.1328670482E-14   0.1359477135E-14  -0.6150803878E-15   0.7129003700E-01  -0.3562901850E-01  -0.3562901850E-01  -0.4492460873E-16  -0.1658375424E-15   0.3691165257E-16   0.8000000010E+01
     1     2     3     4     5     6     7     8
     2     9    10     3     6    11    12     7
 VARIABLES = X,Y,Z,DU1,DU2,DU3,U1,U2,U3,S11,S22,S33,S12,S13,S23,E11,E22,E33,E12,E13,E23,SMISES
 ZONE, T="0.1250D+01" F=FEPOINT, I=   12 J=    2 ET=BRICK
   0.0000000000E+00   0.0000000000E+00   0.0000000000E+00   0.0000000000E+00   0.0000000000E+00   0.0000000000E+00   0.0000000000E+00   0.0000000000E+00   0.0000000000E+00   0.6875000011E+01  -0.5385266535E-12  -0.5366348981E-12   0.6791844198E-17   0.7670972382E-16  -0.6154421655E-16   0.6904003702E-01  -0.3450626851E-01  -0.3450626851E-01   0.3695394470E-17   0.2144065966E-16   0.2007714321E-16   0.6875000011E+01
   0.1069040037E+01   0.0000000000E+00   0.1280363917E-17  -0.2250000000E-02   0.0000000000E+00  -0.4683769833E-17   0.7129003691E-01   0.0000000000E+00   0.5964133749E-17   0.6875000011E+01  -0.3007466405E-11  -0.3007544762E-11   0.3647838142E-15   0.3020658533E-15  -0.3710507813E-15   0.6904003702E-01  -0.3450626851E-01  -0.3450626851E-01  -0.2191683756E-16   0.9980589271E-16  -0.2562509875E-16   0.6875000011E+01
   0.1069040037E+01   0.9654937315E+00  -0.1575077171E-16  -0.2250000000E-02   0.1122750000E-02  -0.6744711297E-17   0.7129003691E-01  -0.3562901846E-01  -0.9006060417E-17   0.6875000010E+01  -0.1684126266E-11  -0.1684218429E-11   0.5158447452E-18   0.9654992066E-15   0.3943149622E-15   0.6904003701E-01  -0.3450626850E-01  -0.3450626850E-01  -0.7684535285E-16  -0.1535668345E-16   0.4242715495E-17   0.6875000010E+01
   0.0000000000E+00   0.9654937315E+00   0.8116898725E-17   0.0000000000E+00   0.1122750000E-02   0.1776913744E-17   0.0000000000E+00  -0.3562901846E-01   0.6339984982E-17   0.6875000010E+01  -0.3413819477E-11  -0.3413163841E-11  -0.3243451494E-15  -0.6080463058E-15   0.5296523397E-15   0.6904003701E-01  -0.3450626851E-01  -0.3450626851E-01  -0.9346609971E-17  -0.4015094972E-16  -0.1468776494E-16   0.6875000010E+01
   0.0000000000E+00   0.0000000000E+00   0.9654937315E+00   0.0000000000E+00   0.0000000000E+00   0.1122750000E-02   0.0000000000E+00   0.0000000000E+00  -0.3562901846E-01   0.6875000010E+01   0.4474765511E-11   0.4474337755E-11  -0.1919452301E-16  -0.1240897776E-14  -0.9623476567E-15   0.6904003701E-01  -0.3450626851E-01  -0.3450626851E-01  -0.2274471481E-17   0.4944920749E-17  -0.1204605917E-16   0.6875000010E+01
   0.1069040037E+01   0.0000000000E+00   0.9654937315E+00  -0.2250000000E-02   0.0000000000E+00   0.1122750000E-02   0.7129003691E-01   0.0000000000E+00  -0.3562901846E-01   0.6875000010E+01   0.3007844230E-11   0.3007123653E-11   0.2491353456E-15   0.3433728662E-15  -0.2695560490E-15   0.6904003701E-01  -0.3450626850E-01  -0.3450626850E-01  -0.7666763162E-16   0.2963485087E-16  -0.1056748974E-15   0.6875000010E+01
   0.1069040037E+01   0.9654937315E+00   0.9654937315E+00  -0.2250000000E-02   0.1122750000E-02   0.1122750000E-02   0.7129003691E-01  -0.3562901846E-01  -0.3562901846E-01   0.6875000009E+01   0.6697389802E-12   0.6684037951E-12  -0.4693270163E-15  -0.2843789199E-15   0.3770493818E-15   0.6904003700E-01  -0.3450626850E-01  -0.3450626850E-01  -0.4750556234E-16   0.1938589173E-16  -0.1063718719E-16   0.6875000009E+01
   0.0000000000E+00   0.9654937315E+00   0.9654937315E+00   0.0000000000E+00   0.1122750000E-02   0.1122750000E-02   0.0000000000E+00  -0.3562901846E-01  -0.3562901846E-01   0.6875000009E+01   0.1412428480E-11   0.1411487317E-11  -0.6954670381E-15  -0.6643242806E-15   0.2530278802E-15   0.6904003700E-01  -0.3450626850E-01  -0.3450626850E-01   0.1060011221E-16  -0.9370909449E-16  -0.4351160852E-16   0.6875000009E+01
   0.2138080074E+01   0.0000000000E+00  -0.5273402176E-16  -0.4500000000E-02   0.0000000000E+00  -0.2218496871E-16   0.1425800738E+00   0.0000000000E+00  -0.3054905305E-16   0.6875000010E+01  -0.4695835143E-11  -0.4696166751E-11   0.1112365622E-14  -0.3634493738E-15  -0.1176664289E-15   0.6904003702E-01  -0.3450626851E-01  -0.3450626851E-01   0.2581079971E-15   0.8791230792E-16  -0.2471011642E-16   0.6875000010E+01
   0.2138080074E+01   0.9654937315E+00  -0.6080965896E-16  -0.4500000000E-02   0.1122750000E-02  -0.2158821158E-16   0.1425800738E+00  -0.3562901846E-01  -0.3922144738E-16   0.6875000010E+01   0.2085713978E-11   0.2089386075E-11   0.5043590855E-15   0.1254516281E-15   0.1158285601E-14   0.6904003701E-01  -0.3450626850E-01  -0.3450626850E-01   0.2298059651E-15  -0.2365931132E-15   0.6429325259E-16   0.6875000010E+01
   0.2138080074E+01   0.0000000000E+00   0.9654937315E+00  -0.4500000000E-02   0.0000000000E+00   0.1122750000E-02   0.1425800738E+00   0.0000000000E+00  -0.3562901846E-01   0.6875000010E+01   0.1536039475E-11   0.1538205868E-11   0.3571698762E-15   0.2436780513E-15  -0.1026372514E-14   0.6904003701E-01  -0.3450626850E-01  -0.3450626850E-01   0.3346233725E-16  -0.2923824364E-16   0.6429989855E-17   0.6875000010E+01
   0.2138080074E+01   0.9654937315E+00   0.9654937315E+00  -0.4500000000E-02   0.1122750000E-02   0.1122750000E-02   0.1425800738E+00  -0.3562901846E-01  -0.3562901846E-01   0.6875000009E+01   0.1197894909E-11   0.1195218027E-11   0.6136342414E-15  -0.1663819195E-15  -0.2198983187E-15   0.6904003700E-01  -0.3450626850E-01  -0.3450626850E-01   0.7146291907E-17  -0.1887536259E-15   0.5705490741E-16   0.6875000009E+01
     1     2     3     4     5     6     7     8
     2     9    10     3     6    11    12     7
 VARIABLES = X,Y,Z,DU1,DU2,DU3,U1,U2,U3,S11,S22,S33,S12,S13,S23,E11,E22,E33,E12,E13,E23,SMISES
 ZONE, T="0.1300D+01" F=FEPOINT, I=   12 J=    2 ET=BRICK
   0.0000000000E+00   0.0000000000E+00   0.0000000000E+00   0.0000000000E+00   0.0000000000E+00   0.0000000000E+00   0.0000000000E+00   0.0000000000E+00   0.0000000000E+00   0.5750000009E+01   0.4883169397E-12   0.4900719100E-12  -0.2436809605E-17   0.1215103745E-14   0.3630140498E-15   0.6679003702E-01  -0.3338351851E-01  -0.3338351851E-01  -0.3407392489E-17   0.2335933550E-16   0.2898950538E-16   0.5750000009E+01
   0.1066790037E+01   0.0000000000E+00   0.9279047619E-17  -0.2250000000E-02   0.0000000000E+00   0.7998683703E-17   0.6904003691E-01   0.0000000000E+00   0.1280363917E-17   0.5750000009E+01  -0.2668197250E-11  -0.2668053562E-11   0.3614125268E-15  -0.2185818781E-15  -0.3125928333E-15   0.6679003701E-01  -0.3338351851E-01  -0.3338351851E-01  -0.1593579328E-16   0.8442736173E-16  -0.3447685430E-16   0.5750000009E+01
   0.1066790037E+01   0.9666164815E+00  -0.7402989465E-17  -0.2250000000E-02   0.1122750000E-02   0.8347782248E-17   0.6904003691E-01  -0.3450626846E-01  -0.1575077171E-16   0.5750000008E+01  -0.1606577728E-11  -0.1606377461E-11  -0.4036659538E-16   0.2528977134E-15   0.3606551070E-15   0.6679003701E-01  -0.3338351850E-01  -0.3338351850E-01  -0.3364126583E-16   0.7213956367E-17   0.2083710610E-16   0.5750000008E+01
   0.0000000000E+00   0.9666164815E+00   0.1065690361E-16   0.0000000000E+00   0.1122750000E-02   0.2540004888E-17   0.0000000000E+00  -0.3450626846E-01   0.8116898725E-17   0.5750000008E+01  -0.2544122716E-11  -0.2544549013E-11  -0.8068632445E-15   0.4446808190E-16   0.4478486714E-15   0.6679003701E-01  -0.3338351850E-01  -0.3338351850E-01  -0.4968067504E-16  -0.2478102205E-16  -0.5343866487E-17   0.5750000008E+01
   0.0000000000E+00   0.0000000000E+00   0.9666164815E+00   0.0000000000E+00   0.0000000000E+00   0.1122750000E-02   0.0000000000E+00   0.0000000000E+00  -0.3450626846E-01   0.5750000008E+01   0.3836055410E-11   0.3836865232E-11   0.1886275049E-16  -0.4159808438E-15  -0.8442617326E-15   0.6679003701E-01  -0.3338351850E-01  -0.3338351850E-01   0.7668371308E-17   0.4534444937E-16  -0.2652951161E-16   0.5750000008E+01
   0.1066790037E+01   0.0000000000E+00   0.9666164815E+00  -0.2250000000E-02   0.0000000000E+00   0.1122750000E-02   0.6904003691E-01   0.0000000000E+00  -0.3450626846E-01   0.5750000008E+01   0.2743517009E-11   0.2742999617E-11   0.4347473673E-16  -0.1548974389E-15  -0.1928115033E-15   0.6679003701E-01  -0.3338351850E-01  -0.3338351850E-01  -0.8146807943E-16   0.2100171026E-16  -0.9866024892E-16   0.5750000008E+01
   0.1066790037E+01   0.9666164815E+00   0.9666164815E+00  -0.2250000000E-02   0.1122750000E-02   0.1122750000E-02   0.6904003691E-01  -0.3450626846E-01  -0.3450626846E-01   0.5750000008E+01   0.2519378713E-12   0.2508762563E-12  -0.4113907225E-15  -0.1122783342E-14   0.4174810941E-15   0.6679003700E-01  -0.3338351850E-01  -0.3338351850E-01  -0.6690880988E-16   0.5040394267E-16  -0.7796470671E-16   0.5750000008E+01
   0.0000000000E+00   0.9666164815E+00   0.9666164815E+00   0.0000000000E+00   0.1122750000E-02   0.1122750000E-02   0.0000000000E+00  -0.3450626846E-01  -0.3450626846E-01   0.5750000008E+01   0.5616601406E-12   0.5610114078E-12  -0.6529093550E-15   0.2185234934E-15  -0.1801895695E-15   0.6679003700E-01  -0.3338351850E-01  -0.3338351850E-01   0.3216154398E-16  -0.1058014601E-15  -0.1562902737E-16   0.5750000008E+01
   0.2133580074E+01   0.0000000000E+00  -0.3153712514E-16  -0.4500000000E-02   0.0000000000E+00   0.2119689662E-16   0.1380800738E+00   0.0000000000E+00  -0.5273402176E-16   0.5750000009E+01  -0.4649932925E-11  -0.4651118977E-11   0.9143715158E-16  -0.2081245283E-15  -0.1077750764E-15   0.6679003701E-01  -0.3338351851E-01  -0.3338351851E-01   0.2801970147E-15   0.2536507506E-16  -0.1920763539E-16   0.5750000009E+01
   0.2133580074E+01   0.9666164815E+00  -0.3968436516E-16  -0.4500000000E-02   0.1122750000E-02   0.2112529379E-16   0.1380800738E+00  -0.3450626846E-01  -0.6080965896E-16   0.5750000008E+01   0.1658074267E-11   0.1661311705E-11  -0.1212710298E-15   0.8390349303E-15   0.9984500140E-15   0.6679003700E-01  -0.3338351850E-01  -0.3338351850E-01   0.2677690292E-15  -0.1771069373E-15   0.5220711788E-16   0.5750000008E+01
   0.2133580074E+01   0.0000000000E+00   0.9666164815E+00  -0.4500000000E-02   0.0000000000E+00   0.1122750000E-02   0.1380800738E+00   0.0000000000E+00  -0.3450626846E-01   0.5750000008E+01   0.1767187811E-11   0.1769086079E-11  -0.2500557418E-15   0.2093958071E-15  -0.8669278147E-15   0.6679003700E-01  -0.3338351850E-01  -0.3338351850E-01   0.4711215014E-16  -0.3734833266E-16   0.1167093831E-16   0.5750000008E+01
   0.2133580074E+01   0.9666164815E+00   0.9666164815E+00  -0.4500000000E-02   0.1122750000E-02   0.1122750000E-02   0.1380800738E+00  -0.3450626846E-01  -0.3450626846E-01   0.5750000007E+01   0.1226906180E-11   0.1224380957E-11   0.4439206191E-15   0.2808030659E-15  -0.1205619428E-15   0.6679003700E-01  -0.3338351850E-01  -0.3338351850E-01   0.5323537901E-16  -0.2472383466E-15   0.6826068732E-16   0.5750000007E+01
     1     2     3     4     5     6     7     8
     2     9    10     3     6    11    12     7
 VARIABLES = X,Y,Z,DU1,DU2,DU3,U1,U2,U3,S11,S22,S33,S12,S13,S23,E11,E22,E33,E12,E13,E23,SMISES
 ZONE, T="0.1350D+01" F=FEPOINT, I=   12 J=    2 ET=BRICK
   0.0000000000E+00   0.0000000000E+00   0.0000000000E+00   0.0000000000E+00   0.0000000000E+00   0.0000000000E+00   0.0000000000E+00   0.0000000000E+00   0.0000000000E+00   0.4625000007E+01   0.2705795241E-12   0.2715261312E-12   0.2531023009E-16   0.6628485113E-15  -0.8552367070E-16   0.6454003701E-01  -0.3226076851E-01  -0.3226076851E-01  -0.2560180458E-17   0.1311522349E-16   0.1724484409E-16   0.4625000007E+01
   0.1064540037E+01   0.0000000000E+00   0.9256623265E-17  -0.2250000000E-02   0.0000000000E+00  -0.2242435396E-19   0.6679003691E-01   0.0000000000E+00   0.9279047619E-17   0.4625000007E+01  -0.2111701288E-11  -0.2111831170E-11   0.6786260973E-15   0.1611214665E-15   0.1415836940E-15   0.6454003701E-01  -0.3226076851E-01  -0.3226076851E-01  -0.2325908541E-16   0.9729508836E-16  -0.2917371540E-16   0.4625000007E+01
   0.1064540037E+01   0.9677392315E+00  -0.4714006518E-17  -0.2250000000E-02   0.1122750000E-02   0.2688982947E-17   0.6679003691E-01  -0.3338351846E-01  -0.7402989465E-17   0.4625000007E+01  -0.1447673762E-11  -0.1447887836E-11   0.5048060999E-15   0.6329195023E-15   0.5746401701E-15   0.6454003700E-01  -0.3226076850E-01  -0.3226076850E-01  -0.6064525292E-16  -0.3762201409E-16   0.1556828024E-16   0.4625000007E+01
   0.0000000000E+00   0.9677392315E+00   0.7924352884E-17   0.0000000000E+00   0.1122750000E-02  -0.2732550729E-17   0.0000000000E+00  -0.3338351846E-01   0.1065690361E-16   0.4625000007E+01  -0.1961429757E-11  -0.1961639455E-11  -0.9905706085E-15   0.7794586593E-15  -0.6311879141E-16   0.6454003701E-01  -0.3226076850E-01  -0.3226076850E-01  -0.2412739718E-16   0.5284459191E-17   0.1402178910E-16   0.4625000007E+01
   0.0000000000E+00   0.0000000000E+00   0.9677392315E+00   0.0000000000E+00   0.0000000000E+00   0.1122750000E-02   0.0000000000E+00   0.0000000000E+00  -0.3338351846E-01   0.4625000007E+01   0.3457651328E-11   0.3457950661E-11   0.2148770556E-16  -0.3496137712E-15  -0.5888611685E-15   0.6454003701E-01  -0.3226076850E-01  -0.3226076850E-01   0.8930460620E-17   0.2783723130E-16  -0.8109617617E-17   0.4625000007E+01
   0.1064540037E+01   0.0000000000E+00   0.9677392315E+00  -0.2250000000E-02   0.0000000000E+00   0.1122750000E-02   0.6679003691E-01   0.0000000000E+00  -0.3338351846E-01   0.4625000007E+01   0.2356857821E-11   0.2356957955E-11   0.1031436431E-15   0.2979381189E-15  -0.5330471136E-16   0.6454003700E-01  -0.3226076850E-01  -0.3226076850E-01  -0.7403081511E-16   0.3966683629E-16  -0.9077591683E-16   0.4625000007E+01
   0.1064540037E+01   0.9677392315E+00   0.9677392315E+00  -0.2250000000E-02   0.1122750000E-02   0.1122750000E-02   0.6679003691E-01  -0.3338351846E-01  -0.3338351846E-01   0.4625000006E+01  -0.2068743273E-12  -0.2080360759E-12  -0.4398887054E-15  -0.1130402464E-14   0.3788403211E-15   0.6454003700E-01  -0.3226076850E-01  -0.3226076850E-01  -0.4402401559E-16   0.6921606166E-17  -0.5801929172E-16   0.4625000006E+01
   0.0000000000E+00   0.9677392315E+00   0.9677392315E+00   0.0000000000E+00   0.1122750000E-02   0.1122750000E-02   0.0000000000E+00  -0.3338351846E-01  -0.3338351846E-01   0.4625000006E+01   0.6583084105E-12   0.6582514406E-12  -0.9085435701E-15   0.1671975865E-15  -0.1180809709E-16   0.6454003700E-01  -0.3226076850E-01  -0.3226076850E-01   0.1529111554E-16  -0.1016974586E-15  -0.5277664622E-17   0.4625000006E+01
   0.2129080074E+01   0.0000000000E+00  -0.2001405868E-16  -0.4500000000E-02   0.0000000000E+00   0.1152306646E-16   0.1335800738E+00   0.0000000000E+00  -0.3153712514E-16   0.4625000007E+01  -0.3348592786E-11  -0.3350324520E-11  -0.1196451244E-14  -0.1691834473E-14   0.4624118014E-16   0.6454003701E-01  -0.3226076850E-01  -0.3226076850E-01   0.2558185964E-15   0.1229953804E-15  -0.1008345023E-16   0.4625000007E+01
   0.2129080074E+01   0.9677392315E+00  -0.2730350588E-16  -0.4500000000E-02   0.1122750000E-02   0.1238085928E-16   0.1335800738E+00  -0.3338351846E-01  -0.3968436516E-16   0.4625000006E+01   0.1961387313E-11   0.1962951054E-11  -0.8287618629E-15   0.9568491643E-15   0.3568229339E-15   0.6454003700E-01  -0.3226076850E-01  -0.3226076850E-01   0.2238867768E-15  -0.2549811325E-15   0.5605077011E-16   0.4625000006E+01
   0.2129080074E+01   0.0000000000E+00   0.9677392315E+00  -0.4500000000E-02   0.0000000000E+00   0.1122750000E-02   0.1335800738E+00   0.0000000000E+00  -0.3338351846E-01   0.4625000006E+01   0.1181745289E-11   0.1184094548E-11   0.1006814297E-15  -0.7622305266E-15  -0.7874725498E-15   0.6454003700E-01  -0.3226076850E-01  -0.3226076850E-01   0.9168731036E-16  -0.4977256813E-16   0.7583472354E-17   0.4625000006E+01
   0.2129080074E+01   0.9677392315E+00   0.9677392315E+00  -0.4500000000E-02   0.1122750000E-02   0.1122750000E-02   0.1335800738E+00  -0.3338351846E-01  -0.3338351846E-01   0.4625000006E+01   0.6162312266E-12   0.6141054702E-12   0.6076002698E-15   0.4898463917E-15  -0.7938321530E-15   0.6454003699E-01  -0.3226076850E-01  -0.3226076850E-01   0.4189799573E-16  -0.8353279767E-16   0.4995941097E-16   0.4625000006E+01
     1     2     3     4     5     6     7     8
     2     9    10     3     6    11    12     7
 VARIABLES = X,Y,Z,DU1,DU2,DU3,U1,U2,U3,S11,S22,S33,S12,S13,S23,E11,E22,E33,E12,E13,E23,SMISES
 ZONE, T="0.1400D+01" F=FEPOINT, I=   12 J=    2 ET=BRICK
   0.0000000000E+00   0.0000000000E+00   0.0000000000E+00   0.0000000000E+00   0.0000000000E+00   0.0000000000E+00   0.0000000000E+00   0.0000000000E+00   0.0000000000E+00   0.3500000005E+01   0.1456149280E-11   0.1457496617E-11   0.5081814856E-17   0.1669976983E-14   0.6113928109E-15   0.6229003701E-01  -0.3113801850E-01  -0.3113801850E-01   0.7567809722E-17   0.2827429237E-16   0.2757599494E-16   0.3500000005E+01
   0.1062290037E+01   0.0000000000E+00   0.1570414576E-16  -0.2250000000E-02   0.0000000000E+00   0.6447522494E-17   0.6454003691E-01   0.0000000000E+00   0.9256623265E-17   0.3500000005E+01  -0.1958501932E-11  -0.1959203258E-11  -0.5780294832E-15  -0.7935171812E-15   0.1516668989E-15   0.6229003701E-01  -0.3113801850E-01  -0.3113801850E-01  -0.5511499960E-16   0.1121588647E-15  -0.3070806081E-16   0.3500000005E+01
   0.1062290037E+01   0.9688619815E+00   0.1629489359E-17  -0.2250000000E-02   0.1122750000E-02   0.6343495877E-17   0.6454003691E-01  -0.3226076846E-01  -0.4714006518E-17   0.3500000005E+01  -0.8576459424E-12  -0.8584572232E-12  -0.8045068762E-15   0.7798919994E-15   0.1246242611E-15   0.6229003700E-01  -0.3113801850E-01  -0.3113801850E-01  -0.4874438350E-16  -0.2502898601E-19   0.6509319046E-17   0.3500000005E+01
   0.0000000000E+00   0.9688619815E+00   0.1210895556E-16   0.0000000000E+00   0.1122750000E-02   0.4184602671E-17   0.0000000000E+00  -0.3226076846E-01   0.7924352884E-17   0.3500000005E+01  -0.2205932685E-11  -0.2206638727E-11  -0.5689348219E-15   0.8826935378E-15   0.2773026700E-15   0.6229003700E-01  -0.3113801850E-01  -0.3113801850E-01  -0.5218068072E-16  -0.1661587952E-16  -0.2613535326E-17   0.3500000005E+01
   0.0000000000E+00   0.0000000000E+00   0.9688619815E+00   0.0000000000E+00   0.0000000000E+00   0.1122750000E-02   0.0000000000E+00   0.0000000000E+00  -0.3226076846E-01   0.3500000005E+01   0.2872902012E-11   0.2874794496E-11   0.1250984746E-16   0.3713378440E-15  -0.3493712346E-15   0.6229003700E-01  -0.3113801850E-01  -0.3113801850E-01  -0.1162639628E-16   0.2256780064E-16  -0.1905589415E-16   0.3500000005E+01
   0.1062290037E+01   0.0000000000E+00   0.9688619815E+00  -0.2250000000E-02   0.0000000000E+00   0.1122750000E-02   0.6454003691E-01   0.0000000000E+00  -0.3226076846E-01   0.3500000005E+01   0.2118470579E-11   0.2119075757E-11   0.2368054380E-15  -0.7281308477E-15  -0.2577621974E-17   0.6229003700E-01  -0.3113801850E-01  -0.3113801850E-01  -0.2753359852E-16   0.2201897755E-16  -0.7211786882E-16   0.3500000005E+01
   0.1062290037E+01   0.9688619815E+00   0.9688619815E+00  -0.2250000000E-02   0.1122750000E-02   0.1122750000E-02   0.6454003691E-01  -0.3226076846E-01  -0.3226076846E-01   0.3500000005E+01  -0.4409650424E-12  -0.4415255982E-12  -0.1599704408E-15  -0.6780092812E-15   0.1353081341E-15   0.6229003699E-01  -0.3113801850E-01  -0.3113801850E-01  -0.6489644258E-16   0.2945198279E-16  -0.4861948247E-16   0.3500000005E+01
   0.0000000000E+00   0.9688619815E+00   0.9688619815E+00   0.0000000000E+00   0.1122750000E-02   0.1122750000E-02   0.0000000000E+00  -0.3226076846E-01  -0.3226076846E-01   0.3500000005E+01  -0.3945436690E-14  -0.3944173294E-14  -0.4783364395E-15   0.6881063791E-15  -0.2929638394E-15   0.6229003699E-01  -0.3113801850E-01  -0.3113801850E-01   0.3331862227E-16  -0.7127872793E-16  -0.3091229701E-16   0.3500000005E+01
   0.2124580074E+01   0.0000000000E+00  -0.4119103492E-17  -0.4500000000E-02   0.0000000000E+00   0.1589495519E-16   0.1290800738E+00   0.0000000000E+00  -0.2001405868E-16   0.3500000005E+01  -0.4533717999E-11  -0.4535609559E-11   0.2105848837E-15  -0.6049722731E-15  -0.9352186208E-16   0.6229003701E-01  -0.3113801850E-01  -0.3113801850E-01   0.2741239833E-15  -0.3292826681E-16  -0.1533124968E-16   0.3500000005E+01
   0.2124580074E+01   0.9688619815E+00  -0.1238060156E-16  -0.4500000000E-02   0.1122750000E-02   0.1492290433E-16   0.1290800738E+00  -0.3226076846E-01  -0.2730350588E-16   0.3500000005E+01   0.2917698906E-11   0.2920192193E-11   0.8932595605E-16  -0.8964326726E-16   0.2765901665E-15   0.6229003700E-01  -0.3113801850E-01  -0.3113801850E-01   0.2619903144E-15  -0.1426046288E-15   0.4534807765E-16   0.3500000005E+01
   0.2124580074E+01   0.0000000000E+00   0.9688619815E+00  -0.4500000000E-02   0.0000000000E+00   0.1122750000E-02   0.1290800738E+00   0.0000000000E+00  -0.3226076846E-01   0.3500000005E+01   0.1256458464E-11   0.1258520008E-11  -0.8328616830E-17  -0.1305468453E-15  -0.5428197950E-15   0.6229003700E-01  -0.3113801850E-01  -0.3113801850E-01   0.6089498337E-16  -0.3264112100E-16  -0.1035457104E-16   0.3500000005E+01
   0.2124580074E+01   0.9688619815E+00   0.9688619815E+00  -0.4500000000E-02   0.1122750000E-02   0.1122750000E-02   0.1290800738E+00  -0.3226076846E-01  -0.3226076846E-01   0.3500000004E+01   0.6135954039E-12   0.6119991916E-12   0.4394875698E-15   0.8924256278E-16  -0.4401732178E-15   0.6229003699E-01  -0.3113801850E-01  -0.3113801850E-01   0.5772320726E-16  -0.6553111367E-16   0.7532672788E-16   0.3500000004E+01
     1     2     3     4     5     6     7     8
     2     9    10     3     6    11    12     7
 VARIABLES = X,Y,Z,DU1,DU2,DU3,U1,U2,U3,S11,S22,S33,S12,S13,S23,E11,E22,E33,E12,E13,E23,SMISES
 ZONE, T="0.1450D+01" F=FEPOINT, I=   12 J=    2 ET=BRICK
   0.0000000000E+00   0.0000000000E+00   0.0000000000E+00   0.0000000000E+00   0.0000000000E+00   0.0000000000E+00   0.0000000000E+00   0.0000000000E+00   0.0000000000E+00   0.2375000004E+01   0.5188114531E-12   0.5195491639E-12   0.3020507466E-16   0.9681135912E-15   0.5510610360E-16   0.6004003701E-01  -0.3001526850E-01  -0.3001526850E-01  -0.1010469717E-16   0.3791262632E-16   0.2603562776E-16   0.2375000004E+01
   0.1060040037E+01   0.0000000000E+00   0.1083183003E-16  -0.2250000000E-02   0.0000000000E+00  -0.4872315727E-17   0.6229003691E-01   0.0000000000E+00   0.1570414576E-16   0.2375000004E+01  -0.2164417735E-11  -0.2164995158E-11   0.3971197130E-15  -0.1903693354E-15  -0.2762717138E-16   0.6004003700E-01  -0.3001526850E-01  -0.3001526850E-01  -0.1449850488E-16   0.5982063547E-16  -0.2507909506E-16   0.2375000004E+01
   0.1060040037E+01   0.9699847315E+00  -0.4224824287E-17  -0.2250000000E-02   0.1122750000E-02  -0.5854313645E-17   0.6229003691E-01  -0.3113801846E-01   0.1629489359E-17   0.2375000003E+01  -0.9398787527E-12  -0.9403128781E-12   0.1340528672E-15   0.4713198116E-15   0.3247017298E-15   0.6004003700E-01  -0.3001526850E-01  -0.3001526850E-01  -0.3464250886E-16   0.5932851416E-17  -0.1568700519E-17   0.2375000003E+01
   0.0000000000E+00   0.9699847315E+00   0.8775922574E-17   0.0000000000E+00   0.1122750000E-02  -0.3333032982E-17   0.0000000000E+00  -0.3113801846E-01   0.1210895556E-16   0.2375000003E+01  -0.2194845497E-11  -0.2195316879E-11  -0.4616968466E-15   0.5836149177E-15  -0.1193141916E-16   0.6004003700E-01  -0.3001526850E-01  -0.3001526850E-01  -0.4788368492E-16  -0.8846656912E-17   0.2600289983E-17   0.2375000003E+01
   0.0000000000E+00   0.0000000000E+00   0.9699847315E+00   0.0000000000E+00   0.0000000000E+00   0.1122750000E-02   0.0000000000E+00   0.0000000000E+00  -0.3113801846E-01   0.2375000003E+01   0.3212584107E-11   0.3213211525E-11   0.1747676946E-16   0.1368475198E-16  -0.4508333123E-15   0.6004003700E-01  -0.3001526850E-01  -0.3001526850E-01   0.8469046822E-17   0.1444131011E-16  -0.3380891422E-16   0.2375000003E+01
   0.1060040037E+01   0.0000000000E+00   0.9699847315E+00  -0.2250000000E-02   0.0000000000E+00   0.1122750000E-02   0.6229003691E-01   0.0000000000E+00  -0.3113801846E-01   0.2375000003E+01   0.2304008995E-11   0.2304318292E-11  -0.7324888269E-16   0.2282408795E-15  -0.7526540449E-16   0.6004003700E-01  -0.3001526850E-01  -0.3001526850E-01  -0.4759369264E-16   0.6383664126E-16  -0.7179158290E-16   0.2375000003E+01
   0.1060040037E+01   0.9699847315E+00   0.9699847315E+00  -0.2250000000E-02   0.1122750000E-02   0.1122750000E-02   0.6229003691E-01  -0.3113801846E-01  -0.3113801846E-01   0.2375000003E+01  -0.7790871400E-13  -0.7880034392E-13  -0.6294140262E-15  -0.1041760564E-14   0.2729826307E-15   0.6004003699E-01  -0.3001526849E-01  -0.3001526849E-01  -0.7563035928E-16   0.2358225840E-16  -0.4964360826E-16   0.2375000003E+01
   0.0000000000E+00   0.9699847315E+00   0.9699847315E+00   0.0000000000E+00   0.1122750000E-02   0.1122750000E-02   0.0000000000E+00  -0.3113801846E-01  -0.3113801846E-01   0.2375000003E+01   0.2829180909E-12   0.2826427948E-12  -0.4020819251E-15   0.4261061392E-15  -0.2383566721E-16   0.6004003699E-01  -0.3001526850E-01  -0.3001526850E-01   0.2759767103E-16  -0.7444254977E-16  -0.9905221162E-17   0.2375000003E+01
   0.2120080074E+01   0.0000000000E+00  -0.1601672482E-16  -0.4500000000E-02   0.0000000000E+00  -0.1189762132E-16   0.1245800738E+00   0.0000000000E+00  -0.4119103492E-17   0.2375000004E+01  -0.4247108698E-11  -0.4248283595E-11   0.6384038496E-15  -0.6701818447E-15  -0.4738902687E-17   0.6004003700E-01  -0.3001526850E-01  -0.3001526850E-01   0.3147943346E-15   0.9194661444E-16  -0.2812241369E-16   0.2375000004E+01
   0.2120080074E+01   0.9699847315E+00  -0.2376785185E-16  -0.4500000000E-02   0.1122750000E-02  -0.1138725030E-16   0.1245800738E+00  -0.3113801846E-01  -0.1238060156E-16   0.2375000003E+01   0.2556962187E-11   0.2559590533E-11   0.2659569983E-15   0.2557582533E-15   0.3631466516E-15   0.6004003700E-01  -0.3001526850E-01  -0.3001526850E-01   0.2735695532E-15  -0.2062424982E-15   0.5115562477E-16   0.2375000003E+01
   0.2120080074E+01   0.0000000000E+00   0.9699847315E+00  -0.4500000000E-02   0.0000000000E+00   0.1122750000E-02   0.1245800738E+00   0.0000000000E+00  -0.3113801846E-01   0.2375000003E+01   0.9397995961E-12   0.9421498523E-12   0.6580520524E-15  -0.5695398889E-15  -0.5521920785E-15   0.6004003700E-01  -0.3001526850E-01  -0.3001526850E-01   0.6462544890E-16  -0.9476862083E-17   0.6862214799E-17   0.2375000003E+01
   0.2120080074E+01   0.9699847315E+00   0.9699847315E+00  -0.4500000000E-02   0.1122750000E-02   0.1122750000E-02   0.1245800738E+00  -0.3113801846E-01  -0.3113801846E-01   0.2375000003E+01   0.7596577160E-12   0.7582012780E-12   0.4319129698E-15   0.2264930562E-15  -0.3529762791E-15   0.6004003699E-01  -0.3001526849E-01  -0.3001526849E-01   0.8908495809E-16  -0.1748957127E-15   0.3396375320E-16   0.2375000003E+01
     1     2     3     4     5     6     7     8
     2     9    10     3     6    11    12     7
 VARIABLES = X,Y,Z,DU1,DU2,DU3,U1,U2,U3,S11,S22,S33,S12,S13,S23,E11,E22,E33,E12,E13,E23,SMISES
 ZONE, T="0.1500D+01" F=FEPOINT, I=   12 J=    2 ET=BRICK
   0.0000000000E+00   0.0000000000E+00   0.0000000000E+00   0.0000000000E+00   0.0000000000E+00   0.0000000000E+00   0.0000000000E+00   0.0000000000E+00   0.0000000000E+00   0.1250000002E+01   0.4965004828E-12   0.4976763892E-12   0.1886147132E-17   0.1175889293E-14   0.8894145453E-16   0.5779003700E-01  -0.2889251850E-01  -0.2889251850E-01   0.3117710783E-17   0.4268165861E-16   0.1242316733E-16   0.1250000002E+01
   0.1057790037E+01   0.0000000000E+00   0.1036383665E-16  -0.2250000000E-02   0.0000000000E+00  -0.4679933853E-18   0.6004003691E-01   0.0000000000E+00   0.1083183003E-16   0.1250000002E+01  -0.2480336612E-11  -0.2480893351E-11   0.3124895072E-15  -0.4764957703E-15  -0.1767001221E-15   0.5779003700E-01  -0.2889251850E-01  -0.2889251850E-01  -0.3328168071E-16   0.6616519371E-16  -0.3122809045E-16   0.1250000002E+01
   0.1057790037E+01   0.9711074815E+00  -0.5567748188E-17  -0.2250000000E-02   0.1122750000E-02  -0.1342923901E-17   0.6004003691E-01  -0.3001526846E-01  -0.4224824287E-17   0.1250000002E+01  -0.1258451742E-11  -0.1258854028E-11  -0.1901985494E-16   0.4552446094E-15   0.3209010177E-15   0.5779003699E-01  -0.2889251850E-01  -0.2889251850E-01  -0.5037157103E-16   0.1965779962E-16  -0.1554461712E-16   0.1250000002E+01
   0.0000000000E+00   0.9711074815E+00   0.8825181321E-17   0.0000000000E+00   0.1122750000E-02   0.4925874709E-19   0.0000000000E+00  -0.3001526846E-01   0.8775922574E-17   0.1250000002E+01  -0.2252910103E-11  -0.2253062612E-11  -0.5297700608E-15   0.5108499973E-15   0.1428561703E-15   0.5779003700E-01  -0.2889251850E-01  -0.2889251850E-01  -0.4400423308E-16  -0.2296222283E-16   0.1843356492E-16   0.1250000002E+01
   0.0000000000E+00   0.0000000000E+00   0.9711074815E+00   0.0000000000E+00   0.0000000000E+00   0.1122750000E-02   0.0000000000E+00   0.0000000000E+00  -0.3001526846E-01   0.1250000002E+01   0.3380938589E-11   0.3381720705E-11   0.1844855806E-16  -0.2200643243E-15  -0.6013052832E-15   0.5779003700E-01  -0.2889251850E-01  -0.2889251850E-01  -0.1607270960E-17   0.1591164012E-16  -0.1210981289E-16   0.1250000002E+01
   0.1057790037E+01   0.0000000000E+00   0.9711074815E+00  -0.2250000000E-02   0.0000000000E+00   0.1122750000E-02   0.6004003691E-01   0.0000000000E+00  -0.3001526846E-01   0.1250000002E+01   0.2525485757E-11   0.2525639311E-11   0.5480015927E-17  -0.7331100606E-16  -0.1258916518E-15   0.5779003699E-01  -0.2889251850E-01  -0.2889251850E-01  -0.4161169764E-16   0.1040911007E-16  -0.6651782045E-16   0.1250000002E+01
   0.1057790037E+01   0.9711074815E+00   0.9711074815E+00  -0.2250000000E-02   0.1122750000E-02   0.1122750000E-02   0.6004003691E-01  -0.3001526846E-01  -0.3001526846E-01   0.1250000002E+01   0.3252298421E-13   0.3151724512E-13  -0.3712005615E-15  -0.1123375784E-14   0.2937633242E-15   0.5779003699E-01  -0.2889251849E-01  -0.2889251849E-01  -0.3479000394E-16   0.6973007526E-17  -0.3028125591E-16   0.1250000002E+01
   0.0000000000E+00   0.9711074815E+00   0.9711074815E+00   0.0000000000E+00   0.1122750000E-02   0.1122750000E-02   0.0000000000E+00  -0.3001526846E-01  -0.3001526846E-01   0.1250000002E+01   0.4697144112E-12   0.4694592513E-12  -0.5313971096E-15   0.2995050647E-15   0.4563108037E-16   0.5779003699E-01  -0.2889251849E-01  -0.2889251849E-01   0.1652684118E-16  -0.7035827736E-16  -0.3892356331E-16   0.1250000002E+01
   0.2115580074E+01   0.0000000000E+00  -0.2312797386E-16  -0.4500000000E-02   0.0000000000E+00  -0.7111249040E-17   0.1200800738E+00   0.0000000000E+00  -0.1601672482E-16   0.1250000002E+01  -0.4660433744E-11  -0.4661457796E-11   0.5865537888E-15  -0.1281915730E-15  -0.1162965094E-15   0.5779003700E-01  -0.2889251850E-01  -0.2889251850E-01   0.2915732315E-15   0.2546092031E-16  -0.1407354361E-16   0.1250000002E+01
   0.2115580074E+01   0.9711074815E+00  -0.3154053134E-16  -0.4500000000E-02   0.1122750000E-02  -0.7772679487E-17   0.1200800738E+00  -0.3001526846E-01  -0.2376785185E-16   0.1250000002E+01   0.2119670742E-11   0.2122485989E-11   0.3975173166E-15   0.1032136881E-15   0.6283160846E-15   0.5779003699E-01  -0.2889251850E-01  -0.2889251850E-01   0.2548236907E-15  -0.2040192900E-15   0.4751027882E-16   0.1250000002E+01
   0.2115580074E+01   0.0000000000E+00   0.9711074815E+00  -0.4500000000E-02   0.0000000000E+00   0.1122750000E-02   0.1200800738E+00   0.0000000000E+00  -0.3001526846E-01   0.1250000002E+01   0.1573348156E-11   0.1575174726E-11   0.1042911704E-15   0.3817826485E-15  -0.7489896013E-15   0.5779003699E-01  -0.2889251850E-01  -0.2889251850E-01   0.4129532538E-16   0.1719517485E-16  -0.1832131223E-16   0.1250000002E+01
   0.2115580074E+01   0.9711074815E+00   0.9711074815E+00  -0.4500000000E-02   0.1122750000E-02   0.1122750000E-02   0.1200800738E+00  -0.3001526846E-01  -0.3001526846E-01   0.1250000002E+01   0.1098839391E-11   0.1096683072E-11   0.1547080082E-15   0.5473161382E-15  -0.1378575910E-15   0.5779003699E-01  -0.2889251849E-01  -0.2889251849E-01   0.4929462300E-16  -0.1105163059E-15   0.7332056940E-16   0.1250000002E+01
     1     2     3     4     5     6     7     8
     2     9    10     3     6    11    12     7
 VARIABLES = X,Y,Z,DU1,DU2,DU3,U1,U2,U3,S11,S22,S33,S12,S13,S23,E11,E22,E33,E12,E13,E23,SMISES
 ZONE, T="0.1550D+01" F=FEPOINT, I=   12 J=    2 ET=BRICK
   0.0000000000E+00   0.0000000000E+00   0.0000000000E+00   0.0000000000E+00   0.0000000000E+00   0.0000000000E+00   0.0000000000E+00   0.0000000000E+00   0.0000000000E+00   0.1250000002E+00   0.3982874238E-12   0.3994488842E-12   0.1003506383E-16   0.1068654501E-14   0.6988623211E-16   0.5554003700E-01  -0.2776976850E-01  -0.2776976850E-01  -0.6644747208E-18   0.3710275753E-16   0.1714793592E-16   0.1250000002E+00
   0.1055540037E+01   0.0000000000E+00   0.1036987785E-16  -0.2250000000E-02   0.0000000000E+00   0.6041207098E-20   0.5779003691E-01   0.0000000000E+00   0.1036383665E-16   0.1250000002E+00  -0.2276266718E-11  -0.2276760078E-11   0.3146918070E-15  -0.3131236533E-15  -0.1665177286E-15   0.5554003700E-01  -0.2776976850E-01  -0.2776976850E-01  -0.1956593270E-16   0.5164691944E-16  -0.3657753961E-16   0.1250000002E+00
   0.1055540037E+01   0.9722302315E+00  -0.5437198689E-17  -0.2250000000E-02   0.1122750000E-02   0.1305494991E-18   0.5779003691E-01  -0.2889251846E-01  -0.5567748188E-17   0.1250000002E+00  -0.1124163355E-11  -0.1124430151E-11   0.6826381195E-16   0.6787740951E-15   0.3823120713E-15   0.5554003699E-01  -0.2776976850E-01  -0.2776976850E-01  -0.3990965877E-16   0.1618280250E-16   0.1309492882E-16   0.1250000002E+00
   0.0000000000E+00   0.9722302315E+00   0.8549039111E-17   0.0000000000E+00   0.1122750000E-02  -0.2761422098E-18   0.0000000000E+00  -0.2889251846E-01   0.8825181321E-17   0.1250000002E+00  -0.2279151344E-11  -0.2279217378E-11  -0.5518203982E-15   0.4590719130E-15   0.5835823506E-16   0.5554003699E-01  -0.2776976850E-01  -0.2776976850E-01  -0.5109857639E-16  -0.1639778432E-16   0.1898019838E-16   0.1250000002E+00
   0.0000000000E+00   0.0000000000E+00   0.9722302315E+00   0.0000000000E+00   0.0000000000E+00   0.1122750000E-02   0.0000000000E+00   0.0000000000E+00  -0.2889251846E-01   0.1250000002E+00   0.3391873910E-11   0.3392481724E-11   0.6831844896E-17  -0.2605521759E-15  -0.5893508580E-15   0.5554003699E-01  -0.2776976850E-01  -0.2776976850E-01   0.1216399217E-17   0.1300980306E-16  -0.1044882899E-16   0.1250000002E+00
   0.1055540037E+01   0.0000000000E+00   0.9722302315E+00  -0.2250000000E-02   0.0000000000E+00   0.1122750000E-02   0.5779003691E-01   0.0000000000E+00  -0.2889251846E-01   0.1250000002E+00   0.2378392250E-11   0.2378689504E-11   0.1499002845E-16   0.1560912158E-15  -0.5284141965E-16   0.5554003699E-01  -0.2776976850E-01  -0.2776976850E-01  -0.5229425815E-16   0.4480474436E-16  -0.6792317869E-16   0.1250000002E+00
   0.1055540037E+01   0.9722302315E+00   0.9722302315E+00  -0.2250000000E-02   0.1122750000E-02   0.1122750000E-02   0.5779003691E-01  -0.2889251846E-01  -0.2889251846E-01   0.1250000002E+00  -0.7610502694E-13  -0.7691298313E-13  -0.4764313382E-15  -0.9824518701E-15   0.3573818615E-15   0.5554003698E-01  -0.2776976849E-01  -0.2776976849E-01  -0.3867292065E-16  -0.2807622993E-16  -0.2846529172E-16   0.1250000002E+00
   0.0000000000E+00   0.9722302315E+00   0.9722302315E+00   0.0000000000E+00   0.1122750000E-02   0.1122750000E-02   0.0000000000E+00  -0.2889251846E-01  -0.2889251846E-01   0.1250000002E+00   0.4982271602E-12   0.4979322596E-12  -0.5258273620E-15   0.3627286343E-15   0.1422212192E-15   0.5554003699E-01  -0.2776976849E-01  -0.2776976849E-01   0.2274251566E-16  -0.8183268870E-16  -0.4278713623E-16   0.1250000002E+00
   0.2111080074E+01   0.0000000000E+00  -0.2057072761E-16  -0.4500000000E-02   0.0000000000E+00   0.2557246242E-17   0.1155800738E+00   0.0000000000E+00  -0.2312797386E-16   0.1250000002E+00  -0.4216799839E-11  -0.4217906638E-11   0.3531668884E-15  -0.1016527293E-14  -0.5838834708E-16   0.5554003700E-01  -0.2776976850E-01  -0.2776976850E-01   0.3215772490E-15   0.7180816841E-16  -0.1137079078E-16   0.1250000002E+00
   0.2111080074E+01   0.9722302315E+00  -0.2872474592E-16  -0.4500000000E-02   0.1122750000E-02   0.2815785419E-17   0.1155800738E+00  -0.2889251846E-01  -0.3154053134E-16   0.1250000002E+00   0.2352061797E-11   0.2354801542E-11   0.1394830550E-15  -0.3315801455E-16   0.4910097181E-15   0.5554003699E-01  -0.2776976849E-01  -0.2776976849E-01   0.2717376747E-15  -0.2190090740E-15   0.4367631478E-16   0.1250000002E+00
   0.2111080074E+01   0.0000000000E+00   0.9722302315E+00  -0.4500000000E-02   0.0000000000E+00   0.1122750000E-02   0.1155800738E+00   0.0000000000E+00  -0.2889251846E-01   0.1250000002E+00   0.1205840495E-11   0.1207847941E-11   0.1328800036E-15  -0.1931762762E-15  -0.7379754265E-15   0.5554003699E-01  -0.2776976849E-01  -0.2776976849E-01   0.2616850770E-16   0.6090419003E-16  -0.3401230778E-17   0.1250000002E+00
   0.2111080074E+01   0.9722302315E+00   0.9722302315E+00  -0.4500000000E-02   0.1122750000E-02   0.1122750000E-02   0.1155800738E+00  -0.2889251846E-01  -0.2889251846E-01   0.1250000002E+00   0.7905806622E-12   0.7886148806E-12   0.3753189034E-15   0.4082715084E-15  -0.2762767113E-15   0.5554003698E-01  -0.2776976849E-01  -0.2776976849E-01   0.1300216949E-16  -0.1825615309E-15   0.1757143541E-16   0.1250000002E+00
     1     2     3     4     5     6     7     8
     2     9    10     3     6    11    12     7
 VARIABLES = X,Y,Z,DU1,DU2,DU3,U1,U2,U3,S11,S22,S33,S12,S13,S23,E11,E22,E33,E12,E13,E23,SMISES
 ZONE, T="0.1600D+01" F=FEPOINT, I=   12 J=    2 ET=BRICK
   0.0000000000E+00   0.0000000000E+00   0.0000000000E+00   0.0000000000E+00   0.0000000000E+00   0.0000000000E+00   0.0000000000E+00   0.0000000000E+00   0.0000000000E+00  -0.1000000002E+01   0.5734091567E-12   0.5745518632E-12   0.5906421310E-17   0.1186518073E-14   0.1268772217E-15   0.5329003700E-01  -0.2664701850E-01  -0.2664701850E-01   0.5199392623E-17   0.3732694481E-16   0.1203789718E-16   0.1000000002E+01
   0.1053290037E+01   0.0000000000E+00   0.1107866735E-16  -0.2250000000E-02   0.0000000000E+00   0.7087895005E-18   0.5554003691E-01   0.0000000000E+00   0.1036987785E-16  -0.1000000002E+01  -0.2255417648E-11  -0.2255946632E-11   0.3116243270E-15  -0.5741350473E-15  -0.9102478804E-16   0.5329003699E-01  -0.2664701850E-01  -0.2664701850E-01  -0.3631204751E-16   0.5129692596E-16  -0.3361889010E-16   0.1000000002E+01
   0.1053290037E+01   0.9733529815E+00  -0.4201136478E-17  -0.2250000000E-02   0.1122750000E-02   0.1236062211E-17   0.5554003691E-01  -0.2776976846E-01  -0.5437198689E-17  -0.1000000001E+01  -0.1066313266E-11  -0.1066801542E-11   0.1568472292E-16   0.5670452514E-15   0.3823592082E-15   0.5329003699E-01  -0.2664701849E-01  -0.2664701849E-01  -0.8398052937E-16  -0.2849529362E-16   0.6090272058E-17   0.1000000001E+01
   0.0000000000E+00   0.9733529815E+00   0.8997454525E-17   0.0000000000E+00   0.1122750000E-02   0.4484154143E-18   0.0000000000E+00  -0.2776976846E-01   0.8549039111E-17  -0.1000000001E+01  -0.2203787650E-11  -0.2204091187E-11  -0.5209979988E-15   0.6019114890E-15   0.5735908511E-17   0.5329003699E-01  -0.2664701849E-01  -0.2664701849E-01  -0.3046948694E-16   0.3357807112E-17   0.4215152005E-16   0.1000000001E+01
   0.0000000000E+00   0.0000000000E+00   0.9733529815E+00   0.0000000000E+00   0.0000000000E+00   0.1122750000E-02   0.0000000000E+00   0.0000000000E+00  -0.2776976846E-01  -0.1000000001E+01   0.3177803898E-11   0.3178773229E-11   0.1097873380E-16  -0.1715871327E-15  -0.4807711812E-15   0.5329003699E-01  -0.2664701849E-01  -0.2664701849E-01  -0.9714526323E-17   0.2169258974E-16  -0.1636696901E-16   0.1000000001E+01
   0.1053290037E+01   0.0000000000E+00   0.9733529815E+00  -0.2250000000E-02   0.0000000000E+00   0.1122750000E-02   0.5554003691E-01   0.0000000000E+00  -0.2776976846E-01  -0.1000000001E+01   0.2357868418E-11   0.2358307694E-11   0.8029238162E-16   0.5186019982E-16   0.1798873792E-16   0.5329003699E-01  -0.2664701849E-01  -0.2664701849E-01  -0.3699299580E-16   0.2253341142E-16  -0.7091302947E-16   0.1000000001E+01
   0.1053290037E+01   0.9733529815E+00   0.9733529815E+00  -0.2250000000E-02   0.1122750000E-02   0.1122750000E-02   0.5554003691E-01  -0.2776976846E-01  -0.2776976846E-01  -0.1000000001E+01  -0.1138347448E-12  -0.1146685062E-12  -0.3323937754E-15  -0.1045479685E-14   0.2534295457E-15   0.5329003698E-01  -0.2664701849E-01  -0.2664701849E-01  -0.2832303325E-16   0.3009943299E-16  -0.2287660061E-16   0.1000000001E+01
   0.0000000000E+00   0.9733529815E+00   0.9733529815E+00   0.0000000000E+00   0.1122750000E-02   0.1122750000E-02   0.0000000000E+00  -0.2776976846E-01  -0.2776976846E-01  -0.1000000001E+01   0.3739465299E-12   0.3737607590E-12  -0.4804098557E-15   0.4081843301E-15   0.7307142699E-16   0.5329003698E-01  -0.2664701849E-01  -0.2664701849E-01   0.2094407925E-16  -0.9067625938E-16  -0.2619037954E-16   0.1000000001E+01
   0.2106580074E+01   0.0000000000E+00  -0.1802808083E-16  -0.4500000000E-02   0.0000000000E+00   0.2542646779E-17   0.1110800738E+00   0.0000000000E+00  -0.2057072761E-16  -0.1000000002E+01  -0.4404325864E-11  -0.4405549649E-11   0.4992648933E-15  -0.3715100021E-15  -0.4647965271E-16   0.5329003699E-01  -0.2664701850E-01  -0.2664701850E-01   0.2951805344E-15  -0.6655222551E-17  -0.1559076720E-16   0.1000000002E+01
   0.2106580074E+01   0.9733529815E+00  -0.2614823490E-16  -0.4500000000E-02   0.1122750000E-02   0.2576511018E-17   0.1110800738E+00  -0.2776976846E-01  -0.2872474592E-16  -0.1000000001E+01   0.2392293766E-11   0.2394966151E-11   0.3001525555E-15  -0.1172761974E-15   0.5319599174E-15   0.5329003699E-01  -0.2664701849E-01  -0.2664701849E-01   0.2830725791E-15  -0.1122312810E-15   0.4150511620E-16   0.1000000001E+01
   0.2106580074E+01   0.0000000000E+00   0.9733529815E+00  -0.4500000000E-02   0.0000000000E+00   0.1122750000E-02   0.1110800738E+00   0.0000000000E+00  -0.2776976846E-01  -0.1000000001E+01   0.1378883228E-11   0.1380639048E-11   0.1361355833E-15   0.6225081677E-16  -0.8025731812E-15   0.5329003699E-01  -0.2664701849E-01  -0.2664701849E-01   0.7125427848E-17  -0.3647753832E-16  -0.1244010763E-16   0.1000000001E+01
   0.2106580074E+01   0.9733529815E+00   0.9733529815E+00  -0.4500000000E-02   0.1122750000E-02   0.1122750000E-02   0.1110800738E+00  -0.2776976846E-01  -0.2776976846E-01  -0.1000000001E+01   0.8938167702E-12   0.8916465736E-12   0.4377426138E-15   0.2508497277E-15  -0.3366767385E-15   0.5329003698E-01  -0.2664701849E-01  -0.2664701849E-01  -0.5533497106E-17  -0.1292137905E-15   0.5322023346E-16   0.1000000001E+01
     1     2     3     4     5     6     7     8
     2     9    10     3     6    11    12     7
 VARIABLES = X,Y,Z,DU1,DU2,DU3,U1,U2,U3,S11,S22,S33,S12,S13,S23,E11,E22,E33,E12,E13,E23,SMISES
 ZONE, T="0.1650D+01" F=FEPOINT, I=   12 J=    2 ET=BRICK
   0.0000000000E+00   0.0000000000E+00   0.0000000000E+00   0.0000000000E+00   0.0000000000E+00   0.0000000000E+00   0.0000000000E+00   0.0000000000E+00   0.0000000000E+00  -0.2125000003E+01   0.4154883772E-12   0.4161526159E-12   0.3624164244E-16   0.1146344053E-14   0.5111261404E-16   0.5104003699E-01  -0.2552426850E-01  -0.2552426850E-01   0.2870730100E-17   0.5771592646E-16   0.9849105569E-17   0.2125000003E+01
   0.1051040037E+01   0.0000000000E+00   0.1052096507E-16  -0.2250000000E-02   0.0000000000E+00  -0.5577022805E-18   0.5329003691E-01   0.0000000000E+00   0.1107866735E-16  -0.2125000003E+01  -0.2346459032E-11  -0.2346985659E-11   0.4242369957E-15  -0.5307285008E-15  -0.2160684075E-15   0.5104003699E-01  -0.2552426850E-01  -0.2552426850E-01  -0.2559813997E-16   0.2762417031E-16  -0.2877293205E-16   0.2125000003E+01
   0.1051040037E+01   0.9744757315E+00  -0.5578300979E-17  -0.2250000000E-02   0.1122750000E-02  -0.1377164501E-17   0.5329003691E-01  -0.2664701846E-01  -0.4201136478E-17  -0.2125000003E+01  -0.1265601379E-11  -0.1265673953E-11   0.6835150790E-16   0.4547009999E-15   0.3785543561E-15   0.5104003698E-01  -0.2552426849E-01  -0.2552426849E-01  -0.4081976523E-16  -0.1423625695E-17  -0.2488268177E-17   0.2125000003E+01
   0.0000000000E+00   0.9744757315E+00   0.8536584562E-17   0.0000000000E+00   0.1122750000E-02  -0.4608699628E-18   0.0000000000E+00  -0.2664701846E-01   0.8997454525E-17  -0.2125000003E+01  -0.2120107378E-11  -0.2120413588E-11  -0.7680291030E-15   0.5276899422E-15  -0.5973632276E-16   0.5104003699E-01  -0.2552426849E-01  -0.2552426849E-01  -0.4579947370E-16  -0.1728647748E-16   0.4412866142E-16   0.2125000003E+01
   0.0000000000E+00   0.0000000000E+00   0.9744757315E+00   0.0000000000E+00   0.0000000000E+00   0.1122750000E-02   0.0000000000E+00   0.0000000000E+00  -0.2664701846E-01  -0.2125000003E+01   0.3202528362E-11   0.3203058270E-11  -0.1156061940E-16  -0.1788926085E-15  -0.4661120325E-15   0.5104003699E-01  -0.2552426849E-01  -0.2552426849E-01   0.1072279527E-16   0.2813735266E-16  -0.1372504780E-16   0.2125000003E+01
   0.1051040037E+01   0.0000000000E+00   0.9744757315E+00  -0.2250000000E-02   0.0000000000E+00   0.1122750000E-02   0.5329003691E-01   0.0000000000E+00  -0.2664701846E-01  -0.2125000003E+01   0.2390562815E-11   0.2390849071E-11   0.1908130188E-15   0.5812881218E-16  -0.5179278774E-16   0.5104003698E-01  -0.2552426849E-01  -0.2552426849E-01  -0.5295367778E-16   0.1371850687E-16  -0.8074823289E-16   0.2125000003E+01
   0.1051040037E+01   0.9744757315E+00   0.9744757315E+00  -0.2250000000E-02   0.1122750000E-02   0.1122750000E-02   0.5329003691E-01  -0.2664701846E-01  -0.2664701846E-01  -0.2125000003E+01   0.2727291483E-13   0.2610844411E-13  -0.3142974818E-15  -0.1018713256E-14   0.4688023699E-15   0.5104003698E-01  -0.2552426849E-01  -0.2552426849E-01  -0.4262215817E-16  -0.6755484536E-17   0.4892174882E-18   0.2125000003E+01
   0.0000000000E+00   0.9744757315E+00   0.9744757315E+00   0.0000000000E+00   0.1122750000E-02   0.1122750000E-02   0.0000000000E+00  -0.2664701846E-01  -0.2664701846E-01  -0.2125000003E+01   0.5321390662E-12   0.5317855831E-12  -0.4271403237E-15   0.2139114106E-15   0.6980176719E-16   0.5104003698E-01  -0.2552426849E-01  -0.2552426849E-01   0.1531586991E-16  -0.6767828596E-16  -0.4670937717E-16   0.2125000003E+01
   0.2102080074E+01   0.0000000000E+00  -0.2161487783E-16  -0.4500000000E-02   0.0000000000E+00  -0.3586796992E-17   0.1065800738E+00   0.0000000000E+00  -0.1802808083E-16  -0.2125000003E+01  -0.4183119051E-11  -0.4184285416E-11  -0.9278023433E-16  -0.9465845342E-15  -0.2512006353E-16   0.5104003699E-01  -0.2552426849E-01  -0.2552426849E-01   0.3076376079E-15   0.4858076184E-16  -0.1920440447E-16   0.2125000003E+01
   0.2102080074E+01   0.9744757315E+00  -0.2949751244E-16  -0.4500000000E-02   0.1122750000E-02  -0.3349277537E-17   0.1065800738E+00  -0.2664701846E-01  -0.2614823490E-16  -0.2125000003E+01   0.2155073003E-11   0.2157970835E-11  -0.1264931039E-15   0.7230906820E-15   0.5573116162E-15   0.5104003698E-01  -0.2552426849E-01  -0.2552426849E-01   0.2771147736E-15  -0.1622438057E-15   0.4027963795E-16   0.2125000003E+01
   0.2102080074E+01   0.0000000000E+00   0.9744757315E+00  -0.4500000000E-02   0.0000000000E+00   0.1122750000E-02   0.1065800738E+00   0.0000000000E+00  -0.2664701846E-01  -0.2125000003E+01   0.1393633406E-11   0.1395746645E-11   0.4421454359E-15  -0.2160041585E-15  -0.8491810620E-15   0.5104003698E-01  -0.2552426849E-01  -0.2552426849E-01   0.2946598994E-16   0.1018528574E-15  -0.2925162737E-17   0.2125000003E+01
   0.2102080074E+01   0.9744757315E+00   0.9744757315E+00  -0.4500000000E-02   0.1122750000E-02   0.1122750000E-02   0.1065800738E+00  -0.2664701846E-01  -0.2664701846E-01  -0.2125000003E+01   0.9915923329E-12   0.9898349337E-12   0.5496857572E-15   0.8482244510E-15  -0.3873188839E-15   0.5104003698E-01  -0.2552426849E-01  -0.2552426849E-01   0.4480579550E-18  -0.1373474305E-15   0.2147950090E-16   0.2125000003E+01
     1     2     3     4     5     6     7     8
     2     9    10     3     6    11    12     7
 VARIABLES = X,Y,Z,DU1,DU2,DU3,U1,U2,U3,S11,S22,S33,S12,S13,S23,E11,E22,E33,E12,E13,E23,SMISES
 ZONE, T="0.1700D+01" F=FEPOINT, I=   12 J=    2 ET=BRICK
   0.0000000000E+00   0.0000000000E+00   0.0000000000E+00   0.0000000000E+00   0.0000000000E+00   0.0000000000E+00   0.0000000000E+00   0.0000000000E+00   0.0000000000E+00  -0.3250000005E+01   0.3766132583E-12   0.3776505692E-12   0.4387793799E-16   0.9995631709E-15   0.4033746224E-16   0.4879003699E-01  -0.2440151849E-01  -0.2440151849E-01   0.1318392299E-16   0.5005729536E-16   0.8788230194E-17   0.3250000005E+01
   0.1048790037E+01   0.0000000000E+00   0.9526117430E-17  -0.2250000000E-02   0.0000000000E+00  -0.9948476444E-18   0.5104003691E-01   0.0000000000E+00   0.1052096507E-16  -0.3250000005E+01  -0.2410022442E-11  -0.2410718324E-11   0.2517088505E-15  -0.3517057040E-15  -0.1908801638E-15   0.4879003699E-01  -0.2440151849E-01  -0.2440151849E-01  -0.4957787144E-16   0.2883933748E-16  -0.2693518202E-16   0.3250000005E+01
   0.1048790037E+01   0.9755984815E+00  -0.6446393574E-17  -0.2250000000E-02   0.1122750000E-02  -0.8680925958E-18   0.5104003691E-01  -0.2552426846E-01  -0.5578300979E-17  -0.3250000005E+01  -0.1018677107E-11  -0.1019002203E-11   0.3021199854E-16   0.7905799860E-15   0.2101951040E-15   0.4879003698E-01  -0.2440151849E-01  -0.2440151849E-01  -0.7985426748E-16   0.4139292025E-16   0.3506270741E-17   0.3250000005E+01
   0.0000000000E+00   0.9755984815E+00   0.8442001692E-17   0.0000000000E+00   0.1122750000E-02  -0.9458287047E-19   0.0000000000E+00  -0.2552426846E-01   0.8536584562E-17  -0.3250000005E+01  -0.2491984612E-11  -0.2491543050E-11  -0.3314489908E-15   0.3896293987E-15   0.2493693175E-15   0.4879003698E-01  -0.2440151849E-01  -0.2440151849E-01  -0.3728637571E-16  -0.3408062799E-16   0.1998120995E-16   0.3250000005E+01
   0.0000000000E+00   0.0000000000E+00   0.9755984815E+00   0.0000000000E+00   0.0000000000E+00   0.1122750000E-02   0.0000000000E+00   0.0000000000E+00  -0.2552426846E-01  -0.3250000005E+01   0.3500270826E-11   0.3500747581E-11  -0.2044944870E-17  -0.4621522095E-15  -0.6744450809E-15   0.4879003698E-01  -0.2440151849E-01  -0.2440151849E-01  -0.1137515136E-16   0.3235736271E-16  -0.8428209297E-19   0.3250000005E+01
   0.1048790037E+01   0.0000000000E+00   0.9755984815E+00  -0.2250000000E-02   0.0000000000E+00   0.1122750000E-02   0.5104003691E-01   0.0000000000E+00  -0.2552426846E-01  -0.3250000005E+01   0.2399715385E-11   0.2399986038E-11   0.4640026879E-16   0.1418477287E-15  -0.2949473488E-16   0.4879003698E-01  -0.2440151849E-01  -0.2440151849E-01  -0.1699944038E-16   0.1281235219E-16  -0.8473134965E-16   0.3250000005E+01
   0.1048790037E+01   0.9755984815E+00   0.9755984815E+00  -0.2250000000E-02   0.1122750000E-02   0.1122750000E-02   0.5104003691E-01  -0.2552426846E-01  -0.2552426846E-01  -0.3250000004E+01  -0.8663430429E-13  -0.8783668983E-13  -0.5233261984E-15  -0.6906210804E-15   0.3171012808E-15   0.4879003698E-01  -0.2440151849E-01  -0.2440151849E-01  -0.3781107968E-16   0.1023447831E-16  -0.1129203062E-16   0.3250000004E+01
   0.0000000000E+00   0.9755984815E+00   0.9755984815E+00   0.0000000000E+00   0.1122750000E-02   0.1122750000E-02   0.0000000000E+00  -0.2552426846E-01  -0.2552426846E-01  -0.3250000004E+01   0.7132591183E-12   0.7126971037E-12  -0.6104769270E-15   0.6641180488E-16   0.1673994777E-15   0.4879003698E-01  -0.2440151849E-01  -0.2440151849E-01   0.1084533675E-16  -0.8247535593E-16  -0.2393406342E-16   0.3250000004E+01
   0.2097580074E+01   0.0000000000E+00  -0.2386380835E-16  -0.4500000000E-02   0.0000000000E+00  -0.2248930525E-17   0.1020800738E+00   0.0000000000E+00  -0.2161487783E-16  -0.3250000005E+01  -0.4528106781E-11  -0.4529625900E-11   0.1020005988E-14  -0.4840768531E-15   0.2125385949E-16   0.4879003699E-01  -0.2440151849E-01  -0.2440151849E-01   0.3055948328E-15   0.9825858668E-16  -0.1582545545E-16   0.3250000005E+01
   0.2097580074E+01   0.9755984815E+00  -0.3144327222E-16  -0.4500000000E-02   0.1122750000E-02  -0.1945759780E-17   0.1020800738E+00  -0.2552426846E-01  -0.2949751244E-16  -0.3250000005E+01   0.2763607774E-11   0.2766399664E-11   0.7146220086E-15  -0.1380339628E-15   0.5822322892E-15   0.4879003698E-01  -0.2440151849E-01  -0.2440151849E-01   0.3150177491E-15  -0.1903478713E-15   0.3114537325E-16   0.3250000005E+01
   0.2097580074E+01   0.0000000000E+00   0.9755984815E+00  -0.4500000000E-02   0.0000000000E+00   0.1122750000E-02   0.1020800738E+00   0.0000000000E+00  -0.2552426846E-01  -0.3250000005E+01   0.1182744463E-11   0.1184694256E-11  -0.9289785457E-16   0.2492912188E-15  -0.6262321560E-15   0.4879003698E-01  -0.2440151849E-01  -0.2440151849E-01   0.6077001211E-16   0.5473589597E-16  -0.5902707256E-17   0.3250000005E+01
   0.2097580074E+01   0.9755984815E+00   0.9755984815E+00  -0.4500000000E-02   0.1122750000E-02   0.1122750000E-02   0.1020800738E+00  -0.2552426846E-01  -0.2552426846E-01  -0.3250000004E+01   0.6513281342E-12   0.6497291998E-12   0.1254029114E-15  -0.1031342204E-15  -0.2855717603E-15   0.4879003697E-01  -0.2440151849E-01  -0.2440151849E-01  -0.4046849756E-16  -0.2102701771E-15   0.6203840092E-16   0.3250000004E+01
     1     2     3     4     5     6     7     8
     2     9    10     3     6    11    12     7
 VARIABLES = X,Y,Z,DU1,DU2,DU3,U1,U2,U3,S11,S22,S33,S12,S13,S23,E11,E22,E33,E12,E13,E23,SMISES
 ZONE, T="0.1750D+01" F=FEPOINT, I=   12 J=    2 ET=BRICK
   0.0000000000E+00   0.0000000000E+00   0.0000000000E+00   0.0000000000E+00   0.0000000000E+00   0.0000000000E+00   0.0000000000E+00   0.0000000000E+00   0.0000000000E+00  -0.4375000007E+01   0.6916233682E-12   0.6926721017E-12   0.3689014596E-16   0.1408027324E-14   0.2151590202E-15   0.4654003698E-01  -0.2327876849E-01  -0.2327876849E-01   0.5743532631E-17   0.3839041373E-16   0.1937374463E-16   0.4375000007E+01
   0.1046540037E+01   0.0000000000E+00   0.1199352786E-16  -0.2250000000E-02   0.0000000000E+00   0.2467410434E-17   0.4879003691E-01   0.0000000000E+00   0.9526117430E-17  -0.4375000007E+01  -0.2306530000E-11  -0.2307018712E-11   0.2605725105E-15  -0.5819870563E-15  -0.1550858583E-15   0.4654003698E-01  -0.2327876849E-01  -0.2327876849E-01  -0.3105240953E-16   0.5840997952E-16  -0.3099798979E-16   0.4375000007E+01
   0.1046540037E+01   0.9767212315E+00  -0.3677614295E-17  -0.2250000000E-02   0.1122750000E-02   0.2768779279E-17   0.4879003691E-01  -0.2440151846E-01  -0.6446393574E-17  -0.4375000006E+01  -0.1233699317E-11  -0.1233624947E-11  -0.5094503657E-16   0.4397328082E-15   0.2544041178E-15   0.4654003698E-01  -0.2327876849E-01  -0.2327876849E-01  -0.5907220817E-16   0.1975088570E-16  -0.7697674803E-19   0.4375000006E+01
   0.0000000000E+00   0.9767212315E+00   0.9489094608E-17   0.0000000000E+00   0.1122750000E-02   0.1047092916E-17   0.0000000000E+00  -0.2440151846E-01   0.8442001692E-17  -0.4375000006E+01  -0.2088944176E-11  -0.2089253472E-11  -0.8315839268E-15   0.7182466411E-15   0.8628355284E-16   0.4654003698E-01  -0.2327876849E-01  -0.2327876849E-01  -0.4759920668E-16  -0.2180766413E-16   0.2521691511E-16   0.4375000006E+01
   0.0000000000E+00   0.0000000000E+00   0.9767212315E+00   0.0000000000E+00   0.0000000000E+00   0.1122750000E-02   0.0000000000E+00   0.0000000000E+00  -0.2440151846E-01  -0.4375000006E+01   0.3247250637E-11   0.3247921681E-11   0.7250331775E-17  -0.2125136435E-15  -0.4924800764E-15   0.4654003698E-01  -0.2327876849E-01  -0.2327876849E-01  -0.1655970148E-17   0.2670221925E-16  -0.1302775488E-16   0.4375000006E+01
   0.1046540037E+01   0.0000000000E+00   0.9767212315E+00  -0.2250000000E-02   0.0000000000E+00   0.1122750000E-02   0.4879003691E-01   0.0000000000E+00  -0.2440151846E-01  -0.4375000006E+01   0.2241488249E-11   0.2242087983E-11   0.7653045727E-16  -0.6593372488E-16   0.5424286667E-16   0.4654003698E-01  -0.2327876849E-01  -0.2327876849E-01  -0.3685874197E-16   0.1968085035E-16  -0.6160716371E-16   0.4375000006E+01
   0.1046540037E+01   0.9767212315E+00   0.9767212315E+00  -0.2250000000E-02   0.1122750000E-02   0.1122750000E-02   0.4879003691E-01  -0.2440151846E-01  -0.2440151846E-01  -0.4375000006E+01  -0.1848009862E-12  -0.1857258160E-12  -0.2485135385E-15  -0.9264859216E-15   0.3281267273E-15   0.4654003697E-01  -0.2327876849E-01  -0.2327876849E-01  -0.2921549397E-16  -0.6650659875E-17  -0.1913218738E-16   0.4375000006E+01
   0.0000000000E+00   0.9767212315E+00   0.9767212315E+00   0.0000000000E+00   0.1122750000E-02   0.1122750000E-02   0.0000000000E+00  -0.2440151846E-01  -0.2440151846E-01  -0.4375000006E+01   0.5216402468E-12   0.5216313509E-12  -0.6567052682E-15   0.1598920372E-15  -0.7851030436E-16   0.4654003697E-01  -0.2327876849E-01  -0.2327876849E-01   0.2183014406E-16  -0.9095351508E-16  -0.1430362865E-16   0.4375000006E+01
   0.2093080074E+01   0.0000000000E+00  -0.1813694461E-16  -0.4500000000E-02   0.0000000000E+00   0.5726863738E-17   0.9758007382E-01   0.0000000000E+00  -0.2386380835E-16  -0.4375000007E+01  -0.4193923623E-11  -0.4194899054E-11  -0.3905199764E-15  -0.8418224798E-15  -0.2343743542E-15   0.4654003698E-01  -0.2327876849E-01  -0.2327876849E-01   0.3121452401E-15   0.2079909308E-16  -0.1949112003E-16   0.4375000007E+01
   0.2093080074E+01   0.9767212315E+00  -0.2728028766E-16  -0.4500000000E-02   0.1122750000E-02   0.4162984559E-17   0.9758007382E-01  -0.2440151846E-01  -0.3144327222E-16  -0.4375000006E+01   0.2263907684E-11   0.2266570226E-11  -0.3073560206E-15   0.4184842266E-15   0.6660062623E-15   0.4654003698E-01  -0.2327876849E-01  -0.2327876849E-01   0.2857410853E-15  -0.1569948706E-15   0.6051012881E-16   0.4375000006E+01
   0.2093080074E+01   0.0000000000E+00   0.9767212315E+00  -0.4500000000E-02   0.0000000000E+00   0.1122750000E-02   0.9758007382E-01   0.0000000000E+00  -0.2440151846E-01  -0.4375000006E+01   0.1506651974E-11   0.1508052634E-11  -0.1785593060E-16  -0.6373922624E-16  -0.1034495538E-14   0.4654003698E-01  -0.2327876849E-01  -0.2327876849E-01   0.1978791056E-16   0.7538033670E-16  -0.1430226309E-16   0.4375000006E+01
   0.2093080074E+01   0.9767212315E+00   0.9767212315E+00  -0.4500000000E-02   0.1122750000E-02   0.1122750000E-02   0.9758007382E-01  -0.2440151846E-01  -0.2440151846E-01  -0.4375000006E+01   0.9262853982E-12   0.9241630934E-12   0.6562700520E-15   0.5657261932E-15  -0.3327848775E-15   0.4654003697E-01  -0.2327876849E-01  -0.2327876849E-01   0.1752822864E-16  -0.1095946074E-15   0.1043488554E-16   0.4375000006E+01
     1     2     3     4     5     6     7     8
     2     9    10     3     6    11    12     7
 VARIABLES = X,Y,Z,DU1,DU2,DU3,U1,U2,U3,S11,S22,S33,S12,S13,S23,E11,E22,E33,E12,E13,E23,SMISES
 ZONE, T="0.1800D+01" F=FEPOINT, I=   12 J=    2 ET=BRICK
   0.0000000000E+00   0.0000000000E+00   0.0000000000E+00   0.0000000000E+00   0.0000000000E+00   0.0000000000E+00   0.0000000000E+00   0.0000000000E+00   0.0000000000E+00  -0.5500000009E+01   0.2899218617E-12   0.2913579098E-12   0.4116428208E-16   0.1225824181E-14   0.9306502380E-16   0.4429003698E-01  -0.2215601849E-01  -0.2215601849E-01   0.2109558752E-17   0.6265576925E-16   0.1974719823E-16   0.5500000009E+01
   0.1044290037E+01   0.0000000000E+00   0.1038388809E-16  -0.2250000000E-02   0.0000000000E+00  -0.1609639772E-17   0.4654003691E-01   0.0000000000E+00   0.1199352786E-16  -0.5500000008E+01  -0.2462301500E-11  -0.2462936427E-11   0.4579176527E-15  -0.2809990909E-15  -0.1456366651E-15   0.4429003698E-01  -0.2215601849E-01  -0.2215601849E-01  -0.2796240822E-16   0.2185226137E-16  -0.2517014894E-16   0.5500000008E+01
   0.1044290037E+01   0.9778439815E+00  -0.5179136995E-17  -0.2250000000E-02   0.1122750000E-02  -0.1501522700E-17   0.4654003691E-01  -0.2327876846E-01  -0.3677614295E-17  -0.5500000008E+01  -0.1492305819E-11  -0.1491756152E-11   0.2284079419E-15   0.5999946759E-15   0.4074944367E-15   0.4429003697E-01  -0.2215601849E-01  -0.2215601849E-01  -0.5448574487E-16   0.2670656085E-16   0.2430717773E-17   0.5500000008E+01
   0.0000000000E+00   0.9778439815E+00   0.8788553363E-17   0.0000000000E+00   0.1122750000E-02  -0.7005412451E-18   0.0000000000E+00  -0.2327876846E-01   0.9489094608E-17  -0.5500000008E+01  -0.2015540930E-11  -0.2015562512E-11  -0.1025711696E-14   0.7444660812E-15   0.7787053237E-16   0.4429003698E-01  -0.2215601849E-01  -0.2215601849E-01  -0.4672935231E-16  -0.1596723560E-16   0.1613971917E-16   0.5500000008E+01
   0.0000000000E+00   0.0000000000E+00   0.9778439815E+00   0.0000000000E+00   0.0000000000E+00   0.1122750000E-02   0.0000000000E+00   0.0000000000E+00  -0.2327876846E-01  -0.5500000008E+01   0.3477793720E-11   0.3478306931E-11   0.1469037858E-16  -0.4514231472E-15  -0.4258636368E-15   0.4429003698E-01  -0.2215601849E-01  -0.2215601849E-01  -0.1608685596E-17   0.7301884111E-17  -0.1003419016E-16   0.5500000008E+01
   0.1044290037E+01   0.0000000000E+00   0.9778439815E+00  -0.2250000000E-02   0.0000000000E+00   0.1122750000E-02   0.4654003691E-01   0.0000000000E+00  -0.2327876846E-01  -0.5500000008E+01   0.2459454220E-11   0.2460266568E-11   0.1949086496E-15   0.1786452880E-15  -0.6004877728E-16   0.4429003697E-01  -0.2215601849E-01  -0.2215601849E-01  -0.3556130139E-16   0.2880196270E-16  -0.8370796138E-16   0.5500000008E+01
   0.1044290037E+01   0.9778439815E+00   0.9778439815E+00  -0.2250000000E-02   0.1122750000E-02   0.1122750000E-02   0.4654003691E-01  -0.2327876846E-01  -0.2327876846E-01  -0.5500000007E+01  -0.2309636211E-12  -0.2324192583E-12  -0.8736099703E-16  -0.7137014490E-15   0.2740468897E-15   0.4429003697E-01  -0.2215601848E-01  -0.2215601848E-01  -0.2458650076E-16   0.1277110133E-16  -0.2314342643E-16   0.5500000007E+01
   0.0000000000E+00   0.9778439815E+00   0.9778439815E+00   0.0000000000E+00   0.1122750000E-02   0.1122750000E-02   0.0000000000E+00  -0.2327876846E-01  -0.2327876846E-01  -0.5500000007E+01   0.9834058537E-12   0.9833996800E-12  -0.8081286219E-15  -0.3048334931E-15   0.1306041866E-15   0.4429003697E-01  -0.2215601849E-01  -0.2215601849E-01   0.8982611340E-17  -0.9088354327E-16  -0.1332365276E-16   0.5500000007E+01
   0.2088580074E+01   0.0000000000E+00  -0.2440834636E-16  -0.4500000000E-02   0.0000000000E+00  -0.6271401744E-17   0.9308007382E-01   0.0000000000E+00  -0.1813694461E-16  -0.5500000008E+01  -0.3822243400E-11  -0.3823321686E-11  -0.6503420542E-15  -0.7613749683E-15  -0.1114731355E-15   0.4429003698E-01  -0.2215601849E-01  -0.2215601849E-01   0.2929077404E-15   0.7562108581E-16  -0.1677676450E-16   0.5500000008E+01
   0.2088580074E+01   0.9778439815E+00  -0.3283222928E-16  -0.4500000000E-02   0.1122750000E-02  -0.5551941615E-17   0.9308007382E-01  -0.2327876846E-01  -0.2728028766E-16  -0.5500000008E+01   0.2064546725E-11   0.2066385300E-11  -0.1742747463E-15   0.4267348424E-16   0.7074701392E-15   0.4429003697E-01  -0.2215601849E-01  -0.2215601849E-01   0.2931115254E-15  -0.1410133349E-15   0.3473549109E-16   0.5500000008E+01
   0.2088580074E+01   0.0000000000E+00   0.9778439815E+00  -0.4500000000E-02   0.0000000000E+00   0.1122750000E-02   0.9308007382E-01   0.0000000000E+00  -0.2327876846E-01  -0.5500000008E+01   0.1886136532E-11   0.1887299544E-11  -0.8778877609E-15   0.1518797162E-15  -0.1037728887E-14   0.4429003697E-01  -0.2215601849E-01  -0.2215601849E-01   0.6766147866E-17   0.2579478393E-16   0.1339764607E-17   0.5500000008E+01
   0.2088580074E+01   0.9778439815E+00   0.9778439815E+00  -0.4500000000E-02   0.1122750000E-02   0.1122750000E-02   0.9308007382E-01  -0.2327876846E-01  -0.2327876846E-01  -0.5500000007E+01   0.6537162381E-12   0.6511064850E-12  -0.1051484978E-15   0.1843323041E-15  -0.2725934907E-15   0.4429003697E-01  -0.2215601848E-01  -0.2215601848E-01  -0.2450521595E-16  -0.1480489704E-15   0.2254796396E-16   0.5500000007E+01
     1     2     3     4     5     6     7     8
     2     9    10     3     6    11    12     7
 VARIABLES = X,Y,Z,DU1,DU2,DU3,U1,U2,U3,S11,S22,S33,S12,S13,S23,E11,E22,E33,E12,E13,E23,SMISES
 ZONE, T="0.1850D+01" F=FEPOINT, I=   12 J=    2 ET=BRICK
   0.0000000000E+00   0.0000000000E+00   0.0000000000E+00   0.0000000000E+00   0.0000000000E+00   0.0000000000E+00   0.0000000000E+00   0.0000000000E+00   0.0000000000E+00  -0.6625000010E+01   0.4025964965E-12   0.4038707261E-12   0.5286439102E-16   0.1482793428E-14   0.1412275070E-15   0.4204003698E-01  -0.2103326849E-01  -0.2103326849E-01  -0.4429147655E-17   0.4933596341E-16   0.7683951376E-17   0.6625000010E+01
   0.1042040037E+01   0.0000000000E+00   0.1327055931E-16  -0.2250000000E-02   0.0000000000E+00   0.2886671222E-17   0.4429003691E-01   0.0000000000E+00   0.1038388809E-16  -0.6625000010E+01  -0.2208750454E-11  -0.2209901314E-11   0.1316869828E-14   0.3613287788E-15  -0.1932564746E-16   0.4204003698E-01  -0.2103326849E-01  -0.2103326849E-01   0.1959612050E-17   0.6875117771E-16  -0.2386655129E-16   0.6625000010E+01
   0.1042040037E+01   0.9789667315E+00  -0.1590388658E-17  -0.2250000000E-02   0.1122750000E-02   0.3588748336E-17   0.4429003691E-01  -0.2215601846E-01  -0.5179136995E-17  -0.6625000009E+01  -0.1347693398E-11  -0.1346653560E-11   0.9124188472E-15  -0.4723513666E-15   0.4172619002E-15   0.4204003697E-01  -0.2103326849E-01  -0.2103326849E-01  -0.3276935297E-16  -0.5891729052E-17   0.1735941546E-16   0.6625000009E+01
   0.0000000000E+00   0.9789667315E+00   0.9265459956E-17   0.0000000000E+00   0.1122750000E-02   0.4769065932E-18   0.0000000000E+00  -0.2215601846E-01   0.8788553363E-17  -0.6625000010E+01  -0.1461849624E-11  -0.1463401409E-11  -0.1168393764E-14   0.1109093801E-14  -0.1847392814E-15   0.4204003697E-01  -0.2103326849E-01  -0.2103326849E-01  -0.5173242601E-16  -0.2236570688E-16   0.1770763988E-16   0.6625000010E+01
   0.0000000000E+00   0.0000000000E+00   0.9789667315E+00   0.0000000000E+00   0.0000000000E+00   0.1122750000E-02   0.0000000000E+00   0.0000000000E+00  -0.2215601846E-01  -0.6625000010E+01   0.3294452922E-11   0.3295509092E-11   0.1718062927E-16  -0.1328221589E-15  -0.5370214562E-15   0.4204003697E-01  -0.2103326849E-01  -0.2103326849E-01   0.1908299224E-17   0.4007873829E-17  -0.6430661603E-17   0.6625000010E+01
   0.1042040037E+01   0.0000000000E+00   0.9789667315E+00  -0.2250000000E-02   0.0000000000E+00   0.1122750000E-02   0.4429003691E-01   0.0000000000E+00  -0.2215601846E-01  -0.6625000009E+01   0.2180519116E-11   0.2181802775E-11  -0.6042513609E-15   0.7213595809E-15   0.9993324539E-16   0.4204003697E-01  -0.2103326849E-01  -0.2103326849E-01  -0.5380796851E-16   0.4459389832E-16  -0.7578901138E-16   0.6625000009E+01
   0.1042040037E+01   0.9789667315E+00   0.9789667315E+00  -0.2250000000E-02   0.1122750000E-02   0.1122750000E-02   0.4429003691E-01  -0.2215601846E-01  -0.2215601846E-01  -0.6625000009E+01  -0.2396853551E-12  -0.2409392662E-12  -0.8693103482E-15  -0.1797383618E-14   0.3397291861E-15   0.4204003697E-01  -0.2103326848E-01  -0.2103326848E-01  -0.5696950833E-16  -0.3588935672E-16  -0.2817495920E-16   0.6625000009E+01
   0.0000000000E+00   0.9789667315E+00   0.9789667315E+00   0.0000000000E+00   0.1122750000E-02   0.1122750000E-02   0.0000000000E+00  -0.2215601846E-01  -0.2215601846E-01  -0.6625000009E+01   0.7691945932E-13   0.7709143703E-13  -0.6356758454E-15   0.4328440406E-15  -0.3580220744E-15   0.4204003697E-01  -0.2103326848E-01  -0.2103326848E-01   0.2401202049E-16  -0.6724686460E-16  -0.7337078911E-17   0.6625000009E+01
   0.2084080074E+01   0.0000000000E+00  -0.1435953521E-16  -0.4500000000E-02   0.0000000000E+00   0.1004881115E-16   0.8858007382E-01   0.0000000000E+00  -0.2440834636E-16  -0.6625000010E+01  -0.3357589188E-11  -0.3357909907E-11  -0.1340325699E-14  -0.1179563028E-14   0.8078955416E-16   0.4204003697E-01  -0.2103326849E-01  -0.2103326849E-01   0.2780081740E-15   0.6704000227E-16  -0.1927272115E-16   0.6625000010E+01
   0.2084080074E+01   0.9789667315E+00  -0.2165234907E-16  -0.4500000000E-02   0.1122750000E-02   0.1117988020E-16   0.8858007382E-01  -0.2215601846E-01  -0.3283222928E-16  -0.6625000009E+01   0.1548142118E-11   0.1549569075E-11  -0.9721141558E-15   0.1065912788E-14   0.7303584876E-15   0.4204003697E-01  -0.2103326849E-01  -0.2103326849E-01   0.2983106008E-15  -0.1936158542E-15   0.3673955553E-16   0.6625000009E+01
   0.2084080074E+01   0.0000000000E+00   0.9789667315E+00  -0.4500000000E-02   0.0000000000E+00   0.1122750000E-02   0.8858007382E-01   0.0000000000E+00  -0.2215601846E-01  -0.6625000009E+01   0.1420873339E-11   0.1421512251E-11   0.1587837099E-15  -0.7795779873E-15  -0.9969695909E-15   0.4204003697E-01  -0.2103326849E-01  -0.2103326849E-01   0.5069594265E-16  -0.5120134431E-16  -0.6644480992E-17   0.6625000009E+01
   0.2084080074E+01   0.9789667315E+00   0.9789667315E+00  -0.4500000000E-02   0.1122750000E-02   0.1122750000E-02   0.8858007382E-01  -0.2215601846E-01  -0.2215601846E-01  -0.6625000008E+01   0.1128706707E-11   0.1126617602E-11   0.7897264304E-15   0.9997832521E-15  -0.3722258857E-15   0.4204003697E-01  -0.2103326848E-01  -0.2103326848E-01  -0.1892027853E-17  -0.6814540489E-16   0.5532798512E-16   0.6625000008E+01
     1     2     3     4     5     6     7     8
     2     9    10     3     6    11    12     7
 VARIABLES = X,Y,Z,DU1,DU2,DU3,U1,U2,U3,S11,S22,S33,S12,S13,S23,E11,E22,E33,E12,E13,E23,SMISES
 ZONE, T="0.1900D+01" F=FEPOINT, I=   12 J=    2 ET=BRICK
   0.0000000000E+00   0.0000000000E+00   0.0000000000E+00   0.0000000000E+00   0.0000000000E+00   0.0000000000E+00   0.0000000000E+00   0.0000000000E+00   0.0000000000E+00  -0.7749966911E+01  -0.1655048665E-04  -0.1655048664E-04   0.5743989860E-16  -0.7093701918E-15  -0.2201098033E-15   0.3538637234E-01  -0.1770868617E-01  -0.1770868617E-01  -0.1330602385E-17   0.1850588642E-16   0.1408477478E-16   0.7749950361E+01
   0.1035386372E+01   0.0000000000E+00  -0.7814877000E-17  -0.6653664632E-02   0.0000000000E+00  -0.2108543631E-16   0.4204003691E-01   0.0000000000E+00   0.1327055931E-16  -0.7749966911E+01  -0.1655048845E-04  -0.1655048845E-04   0.9942266171E-15  -0.3048391747E-15   0.3079757839E-15   0.3538637233E-01  -0.1770868617E-01  -0.1770868617E-01  -0.3675592658E-19   0.5852136832E-16  -0.1619494139E-16   0.7749950360E+01
   0.1035386372E+01   0.9822913139E+00  -0.2043471174E-16  -0.6653664632E-02   0.3324582316E-02  -0.1884432308E-16   0.4204003691E-01  -0.2103326846E-01  -0.1590388658E-17  -0.7749966910E+01  -0.1655048804E-04  -0.1655048804E-04   0.4503929877E-15   0.1501488621E-14   0.1648934526E-15   0.3538637233E-01  -0.1770868617E-01  -0.1770868617E-01  -0.2556455256E-16   0.3839289638E-16   0.1817299418E-16   0.7749950360E+01
   0.0000000000E+00   0.9822913139E+00   0.7039082715E-17   0.0000000000E+00   0.3324582316E-02  -0.2226377241E-17   0.0000000000E+00  -0.2103326846E-01   0.9265459956E-17  -0.7749966910E+01  -0.1655048848E-04  -0.1655048848E-04  -0.9506593870E-15  -0.2349089034E-15   0.3806760268E-15   0.3538637233E-01  -0.1770868617E-01  -0.1770868617E-01  -0.5090145869E-16  -0.4036251807E-16   0.3697912716E-17   0.7749950360E+01
   0.0000000000E+00   0.0000000000E+00   0.9822913139E+00   0.0000000000E+00   0.0000000000E+00   0.3324582316E-02   0.0000000000E+00   0.0000000000E+00  -0.2103326846E-01  -0.7749966910E+01  -0.1655048093E-04  -0.1655048094E-04   0.5195733198E-17  -0.2364448403E-14  -0.4615165080E-15   0.3538637233E-01  -0.1770868617E-01  -0.1770868617E-01  -0.5645732869E-17  -0.2964090301E-16  -0.1653920550E-17   0.7749950360E+01
   0.1035386372E+01   0.0000000000E+00   0.9822913139E+00  -0.6653664632E-02   0.0000000000E+00   0.3324582316E-02   0.4204003691E-01   0.0000000000E+00  -0.2103326846E-01  -0.7749966910E+01  -0.1655048188E-04  -0.1655048188E-04   0.1722457796E-14  -0.1342281950E-15   0.3258260807E-15   0.3538637233E-01  -0.1770868617E-01  -0.1770868617E-01  -0.1132376041E-16   0.4892777990E-16  -0.7975728056E-16   0.7749950360E+01
   0.1035386372E+01   0.9822913139E+00   0.9822913139E+00  -0.6653664632E-02   0.3324582316E-02   0.3324582316E-02   0.4204003691E-01  -0.2103326846E-01  -0.2103326846E-01  -0.7749966909E+01  -0.1655048454E-04  -0.1655048454E-04   0.1102350188E-14   0.3202592429E-15   0.1764161726E-15   0.3538637233E-01  -0.1770868616E-01  -0.1770868616E-01  -0.2333199613E-16  -0.2170956406E-17  -0.1703226019E-16   0.7749950359E+01
   0.0000000000E+00   0.9822913139E+00   0.9822913139E+00   0.0000000000E+00   0.3324582316E-02   0.3324582316E-02   0.0000000000E+00  -0.2103326846E-01  -0.2103326846E-01  -0.7749966909E+01  -0.1655048162E-04  -0.1655048162E-04  -0.1942677327E-14  -0.1411473764E-14   0.2461443069E-15   0.3538637233E-01  -0.1770868616E-01  -0.1770868616E-01   0.7214395352E-17  -0.1001481886E-15  -0.4648206146E-16   0.7749950359E+01
   0.2070772745E+01   0.0000000000E+00  -0.8182557074E-16  -0.1330732926E-01   0.0000000000E+00  -0.6746603553E-16   0.8408007382E-01   0.0000000000E+00  -0.1435953521E-16  -0.7749966911E+01  -0.1655048897E-04  -0.1655048897E-04  -0.2937927214E-14  -0.1938116180E-15  -0.6094372749E-15   0.3538637233E-01  -0.1770868617E-01  -0.1770868617E-01   0.2601750601E-15   0.9924715325E-16  -0.2848528331E-16   0.7749950360E+01
   0.2070772745E+01   0.9822913139E+00  -0.9385183936E-16  -0.1330732926E-01   0.3324582316E-02  -0.7219949029E-16   0.8408007382E-01  -0.2103326846E-01  -0.2165234907E-16  -0.7749966910E+01  -0.1655048469E-04  -0.1655048469E-04  -0.2680047030E-14   0.9239487395E-15   0.7055715752E-16   0.3538637233E-01  -0.1770868616E-01  -0.1770868616E-01   0.2439299633E-15  -0.2460927380E-15   0.1579075959E-16   0.7749950359E+01
   0.2070772745E+01   0.0000000000E+00   0.9822913139E+00  -0.1330732926E-01   0.0000000000E+00   0.3324582316E-02   0.8408007382E-01   0.0000000000E+00  -0.2103326846E-01  -0.7749966910E+01  -0.1655048179E-04  -0.1655048179E-04  -0.4134252494E-15  -0.5404674937E-15  -0.1017399516E-14   0.3538637233E-01  -0.1770868616E-01  -0.1770868616E-01   0.2484372647E-16   0.3422171490E-16   0.2767447940E-17   0.7749950359E+01
   0.2070772745E+01   0.9822913139E+00   0.9822913139E+00  -0.1330732926E-01   0.3324582316E-02   0.3324582316E-02   0.8408007382E-01  -0.2103326846E-01  -0.2103326846E-01  -0.7749966909E+01  -0.1655048476E-04  -0.1655048476E-04  -0.1476167064E-16   0.6847517282E-15  -0.5786673682E-15   0.3538637233E-01  -0.1770868616E-01  -0.1770868616E-01   0.1996629852E-16  -0.1152280740E-15   0.1989169104E-16   0.7749950358E+01
     1     2     3     4     5     6     7     8
     2     9    10     3     6    11    12     7
 VARIABLES = X,Y,Z,DU1,DU2,DU3,U1,U2,U3,S11,S22,S33,S12,S13,S23,E11,E22,E33,E12,E13,E23,SMISES
 ZONE, T="0.1950D+01" F=FEPOINT, I=   12 J=    2 ET=BRICK
   0.0000000000E+00   0.0000000000E+00   0.0000000000E+00   0.0000000000E+00   0.0000000000E+00   0.0000000000E+00   0.0000000000E+00   0.0000000000E+00   0.0000000000E+00  -0.8875012697E+01   0.6341756165E-05   0.6341756167E-05  -0.9045588792E-16  -0.5741734229E-15   0.4410569127E-15   0.1205764244E-01  -0.6046571219E-02  -0.6046571219E-02  -0.3085538254E-17   0.9538076649E-17   0.2854923074E-16   0.8875019039E+01
   0.1012057642E+01   0.0000000000E+00  -0.1304420561E-16  -0.2332872986E-01   0.0000000000E+00  -0.5229328611E-17   0.3538637228E-01   0.0000000000E+00  -0.7814877000E-17  -0.8875012697E+01   0.6341756011E-05   0.6341756011E-05   0.7590198689E-15   0.6589857949E-15  -0.1119555761E-16   0.1205764244E-01  -0.6046571219E-02  -0.6046571219E-02   0.3041371732E-17   0.8105726861E-16  -0.2993281230E-16   0.8875019039E+01
   0.1012057642E+01   0.9939534288E+00  -0.2674951140E-16  -0.2332872986E-01   0.1166211493E-01  -0.6314799657E-17   0.3538637228E-01  -0.1770868614E-01  -0.2043471174E-16  -0.8875012696E+01   0.6341754510E-05   0.6341754512E-05   0.1238735621E-14   0.6101461721E-15   0.9531813694E-16   0.1205764244E-01  -0.6046571218E-02  -0.6046571218E-02  -0.9880844275E-17   0.1011121053E-16   0.3241671853E-16   0.8875019038E+01
   0.0000000000E+00   0.9939534288E+00   0.1314015568E-16   0.0000000000E+00   0.1166211493E-01   0.6101072962E-17   0.0000000000E+00  -0.1770868614E-01   0.7039082715E-17  -0.8875012696E+01   0.6341754751E-05   0.6341754748E-05  -0.1257445964E-14  -0.1192303362E-14   0.6753953456E-15   0.1205764244E-01  -0.6046571218E-02  -0.6046571218E-02  -0.6045151598E-16  -0.5081040245E-16   0.1451903045E-16   0.8875019038E+01
   0.0000000000E+00   0.0000000000E+00   0.9939534288E+00   0.0000000000E+00   0.0000000000E+00   0.1166211493E-01   0.0000000000E+00   0.0000000000E+00  -0.1770868614E-01  -0.8875012696E+01   0.6341764082E-05   0.6341764082E-05   0.6188236515E-16  -0.1778436941E-14  -0.5689040819E-15   0.1205764244E-01  -0.6046571218E-02  -0.6046571218E-02  -0.6486841022E-18  -0.4048331261E-16  -0.2193091747E-16   0.8875019038E+01
   0.1012057642E+01   0.0000000000E+00   0.9939534288E+00  -0.2332872986E-01   0.0000000000E+00   0.1166211493E-01   0.3538637228E-01   0.0000000000E+00  -0.1770868614E-01  -0.8875012696E+01   0.6341761292E-05   0.6341761291E-05   0.3200976060E-15   0.1142395764E-14   0.6039088474E-15   0.1205764244E-01  -0.6046571218E-02  -0.6046571218E-02  -0.1792714484E-16   0.2853165881E-16  -0.4907138921E-16   0.8875019038E+01
   0.1012057642E+01   0.9939534288E+00   0.9939534288E+00  -0.2332872986E-01   0.1166211493E-01   0.1166211493E-01   0.3538637228E-01  -0.1770868614E-01  -0.1770868614E-01  -0.8875012695E+01   0.6341759762E-05   0.6341759764E-05   0.7925480074E-15   0.8211797321E-15   0.7730613752E-15   0.1205764243E-01  -0.6046571217E-02  -0.6046571217E-02  -0.8082534998E-17   0.2462367819E-16  -0.1033431290E-16   0.8875019037E+01
   0.0000000000E+00   0.9939534288E+00   0.9939534288E+00   0.0000000000E+00   0.1166211493E-01   0.1166211493E-01   0.0000000000E+00  -0.1770868614E-01  -0.1770868614E-01  -0.8875012695E+01   0.6341760993E-05   0.6341760992E-05  -0.3853482463E-15  -0.4019048439E-15  -0.1005947211E-14   0.1205764243E-01  -0.6046571217E-02  -0.6046571217E-02   0.2518575757E-16  -0.8848505049E-16  -0.4132135450E-16   0.8875019037E+01
   0.2024115285E+01   0.0000000000E+00  -0.1011171713E-15  -0.4665745972E-01   0.0000000000E+00  -0.1929160059E-16   0.7077274456E-01   0.0000000000E+00  -0.8182557074E-16  -0.8875012697E+01   0.6341760579E-05   0.6341760578E-05  -0.5407392380E-14  -0.5192999681E-14  -0.6579880032E-16   0.1205764244E-01  -0.6046571219E-02  -0.6046571219E-02   0.1843260951E-15   0.9800715953E-17  -0.1189289958E-16   0.8875019039E+01
   0.2024115285E+01   0.9939534288E+00  -0.1092468122E-15  -0.4665745972E-01   0.1166211493E-01  -0.1539497284E-16   0.7077274456E-01  -0.1770868614E-01  -0.9385183936E-16  -0.8875012696E+01   0.6341757168E-05   0.6341757167E-05  -0.3100732297E-14   0.3742582582E-14  -0.2915752429E-15   0.1205764244E-01  -0.6046571218E-02  -0.6046571218E-02   0.2146400097E-15  -0.1043282030E-15  -0.8859430818E-17   0.8875019038E+01
   0.2024115285E+01   0.0000000000E+00   0.9939534288E+00  -0.4665745972E-01   0.0000000000E+00   0.1166211493E-01   0.7077274456E-01   0.0000000000E+00  -0.1770868614E-01  -0.8875012696E+01   0.6341760804E-05   0.6341760806E-05  -0.4971962058E-16  -0.3252590783E-14  -0.8044846719E-15   0.1205764244E-01  -0.6046571218E-02  -0.6046571218E-02   0.2295180189E-16  -0.5309459043E-16  -0.1699052106E-16   0.8875019038E+01
   0.2024115285E+01   0.9939534288E+00   0.9939534288E+00  -0.4665745972E-01   0.1166211493E-01   0.1166211493E-01   0.7077274456E-01  -0.1770868614E-01  -0.1770868614E-01  -0.8875012695E+01   0.6341759033E-05   0.6341759031E-05   0.1379007643E-14   0.1776835687E-14  -0.1710305327E-14   0.1205764243E-01  -0.6046571217E-02  -0.6046571217E-02   0.3362671997E-16  -0.8831005220E-16   0.1065568158E-16   0.8875019037E+01
     1     2     3     4     5     6     7     8
     2     9    10     3     6    11    12     7
 VARIABLES = X,Y,Z,DU1,DU2,DU3,U1,U2,U3,S11,S22,S33,S12,S13,S23,E11,E22,E33,E12,E13,E23,SMISES
 ZONE, T="0.2000D+01" F=FEPOINT, I=   12 J=    2 ET=BRICK
   0.0000000000E+00   0.0000000000E+00   0.0000000000E+00   0.0000000000E+00   0.0000000000E+00   0.0000000000E+00   0.0000000000E+00   0.0000000000E+00   0.0000000000E+00  -0.1000000668E+02   0.3330846459E-05   0.3330846461E-05   0.9339539226E-17  -0.1748121320E-14  -0.5169667173E-15  -0.1269217240E-01   0.6326086202E-02   0.6326086202E-02   0.1078082067E-17  -0.3765084842E-16   0.7424897585E-17   0.1000001001E+02
   0.9873078276E+00   0.0000000000E+00  -0.3811973424E-16  -0.2474981480E-01   0.0000000000E+00  -0.2507552863E-16   0.1205764242E-01   0.0000000000E+00  -0.1304420561E-16  -0.1000000668E+02   0.3330846204E-05   0.3330846203E-05   0.1483424294E-15   0.5977099258E-16   0.3870252483E-15  -0.1269217240E-01   0.6326086202E-02   0.6326086202E-02  -0.7345508901E-17   0.7983613879E-16  -0.1844628601E-16   0.1000001001E+02
   0.9873078276E+00   0.1006326086E+01  -0.4732839510E-16  -0.2474981480E-01   0.1237265740E-01  -0.2057888371E-16   0.1205764242E-01  -0.6046571209E-02  -0.2674951140E-16  -0.1000000668E+02   0.3330846583E-05   0.3330846582E-05  -0.9224885298E-16   0.1967544426E-14   0.2695123139E-15  -0.1269217240E-01   0.6326086201E-02   0.6326086201E-02  -0.3203382813E-16   0.4695011141E-16   0.2985859406E-16   0.1000001001E+02
   0.0000000000E+00   0.1006326086E+01   0.4415326569E-17   0.0000000000E+00   0.1237265740E-01  -0.8724829108E-17   0.0000000000E+00  -0.6046571209E-02   0.1314015568E-16  -0.1000000668E+02   0.3330843967E-05   0.3330843966E-05   0.5278215068E-15  -0.1450055885E-14  -0.2462311102E-15  -0.1269217240E-01   0.6326086201E-02   0.6326086201E-02  -0.3027190893E-16  -0.6761488840E-16  -0.1337300980E-17   0.1000001001E+02
   0.0000000000E+00   0.0000000000E+00   0.1006326086E+01   0.0000000000E+00   0.0000000000E+00   0.1237265740E-01   0.0000000000E+00   0.0000000000E+00  -0.6046571209E-02  -0.1000000668E+02   0.3330856691E-05   0.3330856690E-05  -0.6876602050E-16  -0.1921403864E-14   0.8236265912E-16  -0.1269217240E-01   0.6326086201E-02   0.6326086201E-02  -0.5301709160E-18  -0.5985763090E-16  -0.9537288296E-17   0.1000001001E+02
   0.9873078276E+00   0.0000000000E+00   0.1006326086E+01  -0.2474981480E-01   0.0000000000E+00   0.1237265740E-01   0.1205764242E-01   0.0000000000E+00  -0.6046571209E-02  -0.1000000668E+02   0.3330853659E-05   0.3330853659E-05   0.5207206894E-15   0.1051918746E-14  -0.3981131948E-16  -0.1269217240E-01   0.6326086201E-02   0.6326086201E-02  -0.1194856729E-16   0.2886770159E-16  -0.5779799760E-16   0.1000001001E+02
   0.9873078276E+00   0.1006326086E+01   0.1006326086E+01  -0.2474981480E-01   0.1237265740E-01   0.1237265740E-01   0.1205764242E-01  -0.6046571209E-02  -0.6046571209E-02  -0.1000000667E+02   0.3330853142E-05   0.3330853142E-05  -0.7586672822E-16   0.2417412610E-16   0.4565831890E-15  -0.1269217240E-01   0.6326086200E-02   0.6326086200E-02  -0.2134274816E-16   0.3701777025E-16   0.7423868062E-17   0.1000001001E+02
   0.0000000000E+00   0.1006326086E+01   0.1006326086E+01   0.0000000000E+00   0.1237265740E-01   0.1237265740E-01   0.0000000000E+00  -0.6046571209E-02  -0.6046571209E-02  -0.1000000668E+02   0.3330854257E-05   0.3330854257E-05   0.4607515317E-15  -0.1264267270E-14  -0.2290816072E-15  -0.1269217240E-01   0.6326086201E-02   0.6326086201E-02   0.4361467174E-16  -0.1252386848E-15  -0.3538165897E-16   0.1000001001E+02
   0.1974615655E+01   0.0000000000E+00  -0.1596521289E-15  -0.4949962961E-01   0.0000000000E+00  -0.5853495759E-16   0.2411528484E-01   0.0000000000E+00  -0.1011171713E-15  -0.1000000668E+02   0.3330846775E-05   0.3330846775E-05   0.1261248865E-14  -0.1636201649E-15  -0.4556992716E-15  -0.1269217240E-01   0.6326086202E-02   0.6326086202E-02   0.2676757318E-15  -0.5968244082E-16  -0.2557929640E-16   0.1000001001E+02
   0.1974615655E+01   0.1006326086E+01  -0.1722199043E-15  -0.4949962961E-01   0.1237265740E-01  -0.6297309215E-16   0.2411528484E-01  -0.6046571209E-02  -0.1092468122E-15  -0.1000000668E+02   0.3330849932E-05   0.3330849933E-05   0.2160252935E-15   0.4196832797E-15   0.7831545975E-16  -0.1269217240E-01   0.6326086201E-02   0.6326086201E-02   0.2343509990E-15  -0.7708659729E-16   0.9543240369E-17   0.1000001001E+02
   0.1974615655E+01   0.0000000000E+00   0.1006326086E+01  -0.4949962961E-01   0.0000000000E+00   0.1237265740E-01   0.2411528484E-01   0.0000000000E+00  -0.6046571209E-02  -0.1000000668E+02   0.3330850337E-05   0.3330850338E-05   0.2827835307E-14  -0.1835688639E-14  -0.1833383489E-15  -0.1269217240E-01   0.6326086201E-02   0.6326086201E-02   0.1328901351E-15   0.5723413628E-16  -0.1380461008E-16   0.1000001001E+02
   0.1974615655E+01   0.1006326086E+01   0.1006326086E+01  -0.4949962961E-01   0.1237265740E-01   0.1237265740E-01   0.2411528484E-01  -0.6046571209E-02  -0.6046571209E-02  -0.1000000667E+02   0.3330851661E-05   0.3330851661E-05   0.2513635517E-14   0.2380429720E-14  -0.5686099269E-15  -0.1269217240E-01   0.6326086200E-02   0.6326086200E-02   0.8395397355E-16  -0.1514063953E-15   0.2939824595E-17   0.1000001001E+02
     1     2     3     4     5     6     7     8
     2     9    10     3     6    11    12     7
 VARIABLES = X,Y,Z,DU1,DU2,DU3,U1,U2,U3,S11,S22,S33,S12,S13,S23,E11,E22,E33,E12,E13,E23,SMISES
 ZONE, T="0.2050D+01" F=FEPOINT, I=   12 J=    2 ET=BRICK
   0.0000000000E+00   0.0000000000E+00   0.0000000000E+00   0.0000000000E+00   0.0000000000E+00   0.0000000000E+00   0.0000000000E+00   0.0000000000E+00   0.0000000000E+00  -0.8875000015E+01  -0.6020489501E-09  -0.6023933252E-09   0.4433027683E-16  -0.1358422791E-11  -0.8593249149E-12  -0.1044215243E-01   0.5203326214E-02   0.5203326214E-02   0.3144241030E-17  -0.1630642740E-13  -0.1028917284E-13   0.8875000014E+01
   0.9895578476E+00   0.0000000000E+00  -0.7216360127E-14   0.2250019972E-02   0.0000000000E+00  -0.7178240393E-14  -0.1269217238E-01   0.0000000000E+00  -0.3811973424E-16  -0.8875000014E+01  -0.4951843681E-10  -0.4868610049E-10  -0.1705747030E-12  -0.1363240619E-12  -0.6324106042E-14  -0.1044215243E-01   0.5203326214E-02   0.5203326214E-02  -0.2059627824E-14  -0.1565273159E-14  -0.1016777864E-15   0.8875000014E+01
   0.9895578476E+00   0.1005203326E+01  -0.7265790400E-14   0.2250019972E-02  -0.1122759986E-02  -0.7218462005E-14  -0.1269217238E-01   0.6326086192E-02  -0.4732839510E-16  -0.8875000013E+01  -0.2714063005E-09  -0.2714984114E-09  -0.3308805166E-12   0.2543202515E-12   0.3543610792E-12  -0.1044215243E-01   0.5203326214E-02   0.5203326214E-02  -0.4004585744E-14   0.3066631637E-14   0.4276266401E-14   0.8875000013E+01
   0.0000000000E+00   0.1005203326E+01  -0.5144824346E-14   0.0000000000E+00  -0.1122759986E-02  -0.5149239672E-14   0.0000000000E+00   0.6326086192E-02   0.4415326569E-17  -0.8875000013E+01  -0.4379218571E-09  -0.4370719443E-09   0.3244432701E-12  -0.2611982760E-13  -0.2864368240E-12  -0.1044215243E-01   0.5203326214E-02   0.5203326214E-02   0.3851123176E-14  -0.3594417680E-15  -0.3431369454E-14   0.8875000013E+01
   0.0000000000E+00   0.0000000000E+00   0.1005203326E+01   0.0000000000E+00   0.0000000000E+00  -0.1122759986E-02   0.0000000000E+00   0.0000000000E+00   0.6326086192E-02  -0.8875000013E+01   0.1215055882E-09   0.1200137668E-09  -0.8659178943E-16  -0.2137913763E-12  -0.2599283956E-12  -0.1044215243E-01   0.5203326214E-02   0.5203326214E-02  -0.3304691832E-17  -0.2607419256E-14  -0.3133180983E-14   0.8875000013E+01
   0.9895578476E+00   0.0000000000E+00   0.1005203326E+01   0.2250019972E-02   0.0000000000E+00  -0.1122759986E-02  -0.1269217238E-01   0.0000000000E+00   0.6326086192E-02  -0.8875000012E+01   0.3962408196E-09   0.3963523602E-09   0.3262794359E-12  -0.1665588637E-12  -0.4696063080E-12  -0.1044215243E-01   0.5203326214E-02   0.5203326214E-02   0.3895647341E-14  -0.1971707637E-14  -0.5679808506E-14   0.8875000013E+01
   0.9895578476E+00   0.1005203326E+01   0.1005203326E+01   0.2250019972E-02  -0.1122759986E-02  -0.1122759986E-02  -0.1269217238E-01   0.6326086192E-02   0.6326086192E-02  -0.8875000011E+01   0.2869298456E-09   0.2861166950E-09   0.2890774254E-12   0.3176916495E-12  -0.1083367496E-12  -0.1044215243E-01   0.5203326213E-02   0.5203326213E-02   0.3448521209E-14   0.3838276407E-14  -0.1307455946E-14   0.8875000012E+01
   0.0000000000E+00   0.1005203326E+01   0.1005203326E+01   0.0000000000E+00  -0.1122759986E-02  -0.1122759986E-02   0.0000000000E+00   0.6326086192E-02   0.6326086192E-02  -0.8875000011E+01   0.6005574346E-09   0.6002627529E-09  -0.5498505864E-13  -0.5217521025E-12   0.3121591092E-12  -0.1044215243E-01   0.5203326213E-02   0.5203326213E-02  -0.6195228787E-15  -0.6365004954E-14   0.3718955606E-14   0.8875000012E+01
   0.1979115695E+01   0.0000000000E+00  -0.1069200189E-13   0.4500039944E-02   0.0000000000E+00  -0.1053234976E-13  -0.2538434477E-01   0.0000000000E+00  -0.1596521289E-15  -0.8875000014E+01  -0.6018029280E-09  -0.6016314789E-09   0.3596391528E-13   0.6322124545E-12  -0.1074320972E-11  -0.1044215243E-01   0.5203326214E-02   0.5203326214E-02   0.6829825734E-15   0.7601997885E-14  -0.1290231709E-13   0.8875000013E+01
   0.1979115695E+01   0.1005203326E+01  -0.1714354907E-13   0.4500039944E-02  -0.1122759986E-02  -0.1697132917E-13  -0.2538434477E-01   0.6326086192E-02  -0.1722199043E-15  -0.8875000012E+01  -0.5438816099E-10  -0.5263474962E-10  -0.6092658761E-12  -0.4594860521E-12  -0.2542362717E-12  -0.1044215243E-01   0.5203326214E-02   0.5203326214E-02  -0.7069012063E-14  -0.5624316109E-14  -0.3039984703E-14   0.8875000012E+01
   0.1979115695E+01   0.0000000000E+00   0.1005203326E+01   0.4500039944E-02   0.0000000000E+00  -0.1122759986E-02  -0.2538434477E-01   0.0000000000E+00   0.6326086192E-02  -0.8875000012E+01  -0.9887835996E-10  -0.1003471338E-09   0.4924328981E-12  -0.5761482160E-12  -0.2828176859E-12  -0.1044215243E-01   0.5203326214E-02   0.5203326214E-02   0.6006185227E-14  -0.6888282409E-14  -0.3407337571E-14   0.8875000012E+01
   0.1979115695E+01   0.1005203326E+01   0.1005203326E+01   0.4500039944E-02  -0.1122759986E-02  -0.1122759986E-02  -0.2538434477E-01   0.6326086192E-02   0.6326086192E-02  -0.8875000011E+01   0.3587815856E-09   0.3588937421E-09   0.4742620696E-12   0.1685117016E-12   0.5364014433E-12  -0.1044215243E-01   0.5203326213E-02   0.5203326213E-02   0.5740177474E-14   0.1919162187E-14   0.6453914879E-14   0.8875000011E+01
     1     2     3     4     5     6     7     8
     2     9    10     3     6    11    12     7
 VARIABLES = X,Y,Z,DU1,DU2,DU3,U1,U2,U3,S11,S22,S33,S12,S13,S23,E11,E22,E33,E12,E13,E23,SMISES
 ZONE, T="0.2100D+01" F=FEPOINT, I=   12 J=    2 ET=BRICK
   0.0000000000E+00   0.0000000000E+00   0.0000000000E+00   0.0000000000E+00   0.0000000000E+00   0.0000000000E+00   0.0000000000E+00   0.0000000000E+00   0.0000000000E+00  -0.7750000012E+01  -0.2775111244E-11  -0.2774365296E-11   0.4392468441E-16  -0.8949050938E-15  -0.1038394242E-15  -0.8192152425E-02   0.4080576213E-02   0.4080576213E-02   0.7845411181E-18  -0.2424166085E-16   0.1303072390E-16   0.7750000012E+01
   0.9918078476E+00   0.0000000000E+00  -0.2775073096E-16   0.2250000000E-02   0.0000000000E+00   0.7188609396E-14  -0.1044215241E-01   0.0000000000E+00  -0.7216360127E-14  -0.7750000012E+01  -0.2514311126E-11  -0.2515483763E-11   0.1206836529E-14   0.7755547418E-15   0.9381338050E-15  -0.8192152425E-02   0.4080576213E-02   0.4080576213E-02   0.5058405124E-17   0.7945032221E-16  -0.1231986061E-16   0.7750000012E+01
   0.9918078476E+00   0.1004080576E+01  -0.3356731700E-16   0.2250000000E-02  -0.1122750000E-02   0.7232223083E-14  -0.1044215241E-01   0.5203326206E-02  -0.7265790400E-14  -0.7750000011E+01  -0.2493849308E-11  -0.2495073470E-11   0.1156795932E-14   0.3876566116E-15  -0.2210641876E-16  -0.8192152424E-02   0.4080576212E-02   0.4080576212E-02  -0.1657498806E-16   0.3138053369E-16   0.2637690391E-16   0.7750000011E+01
   0.0000000000E+00   0.1004080576E+01   0.7068123009E-17   0.0000000000E+00  -0.1122750000E-02   0.5151892469E-14   0.0000000000E+00   0.5203326206E-02  -0.5144824346E-14  -0.7750000011E+01  -0.4351308003E-11  -0.4354265358E-11   0.2054759613E-16  -0.4336094295E-15  -0.9345950468E-15  -0.8192152425E-02   0.4080576212E-02   0.4080576212E-02  -0.3938162007E-16  -0.5616598501E-16  -0.9439484980E-17   0.7750000011E+01
   0.0000000000E+00   0.0000000000E+00   0.1004080576E+01   0.0000000000E+00   0.0000000000E+00  -0.1122750000E-02   0.0000000000E+00   0.0000000000E+00   0.5203326206E-02  -0.7750000011E+01   0.5642909585E-11   0.5643169740E-11  -0.9937651635E-16  -0.1328049483E-15   0.6372008880E-15  -0.8192152425E-02   0.4080576212E-02   0.4080576212E-02  -0.1643492160E-17  -0.4470795129E-16  -0.8733860119E-17   0.7750000011E+01
   0.9918078476E+00   0.0000000000E+00   0.1004080576E+01   0.2250000000E-02   0.0000000000E+00  -0.1122750000E-02  -0.1044215241E-01   0.0000000000E+00   0.5203326206E-02  -0.7750000011E+01   0.3049204740E-11   0.3050288132E-11  -0.7731415373E-15   0.1894335307E-14  -0.2005039481E-16  -0.8192152424E-02   0.4080576212E-02   0.4080576212E-02  -0.2670827468E-16   0.5042599171E-16  -0.5210734671E-16   0.7750000011E+01
   0.9918078476E+00   0.1004080576E+01   0.1004080576E+01   0.2250000000E-02  -0.1122750000E-02  -0.1122750000E-02  -0.1044215241E-01   0.5203326206E-02   0.5203326206E-02  -0.7750000010E+01   0.1578484816E-11   0.1579938994E-11  -0.1170914059E-14  -0.1154217389E-14  -0.4678657189E-15  -0.8192152423E-02   0.4080576212E-02   0.4080576212E-02  -0.3581007602E-16   0.1433642327E-16  -0.1274012332E-16   0.7750000010E+01
   0.0000000000E+00   0.1004080576E+01   0.1004080576E+01   0.0000000000E+00  -0.1122750000E-02  -0.1122750000E-02   0.0000000000E+00   0.5203326206E-02   0.5203326206E-02  -0.7750000010E+01   0.2474370351E-11   0.2475444313E-11   0.3245927212E-15  -0.4176668836E-15  -0.9582896466E-15  -0.8192152424E-02   0.4080576212E-02   0.4080576212E-02   0.4424080131E-16  -0.1118847875E-15  -0.3414166947E-16   0.7750000010E+01
   0.1983615695E+01   0.0000000000E+00  -0.1181635268E-15   0.4500000000E-02   0.0000000000E+00   0.1057383836E-13  -0.2088430483E-01   0.0000000000E+00  -0.1069200189E-13  -0.7750000012E+01  -0.1487862401E-11  -0.1486853770E-11   0.7144604852E-15   0.3304928390E-15   0.5008462527E-15  -0.8192152425E-02   0.4080576212E-02   0.4080576212E-02   0.2575680261E-15   0.3463269399E-16  -0.1472316294E-16   0.7750000012E+01
   0.1983615695E+01   0.1004080576E+01  -0.1250106199E-15   0.4500000000E-02  -0.1122750000E-02   0.1701853845E-13  -0.2088430483E-01   0.5203326206E-02  -0.1714354907E-13  -0.7750000011E+01   0.4722340207E-12   0.4723584583E-12   0.4856999070E-15  -0.1180633999E-14   0.8748491693E-16  -0.8192152424E-02   0.4080576212E-02   0.4080576212E-02   0.2433068488E-15  -0.1492898702E-15   0.7931056977E-17   0.7750000011E+01
   0.1983615695E+01   0.0000000000E+00   0.1004080576E+01   0.4500000000E-02   0.0000000000E+00  -0.1122750000E-02  -0.2088430483E-01   0.0000000000E+00   0.5203326206E-02  -0.7750000011E+01   0.1052916900E-12   0.1068137271E-12   0.2847989520E-15  -0.2194672251E-14   0.6926444308E-15  -0.8192152424E-02   0.4080576212E-02   0.4080576212E-02   0.1065890816E-15  -0.1660043413E-17  -0.6737114951E-17   0.7750000011E+01
   0.1983615695E+01   0.1004080576E+01   0.1004080576E+01   0.4500000000E-02  -0.1122750000E-02  -0.1122750000E-02  -0.2088430483E-01   0.5203326206E-02   0.5203326206E-02  -0.7750000010E+01   0.6915199864E-12   0.6907928973E-12   0.2615778950E-15   0.8187292315E-15  -0.5663527580E-15  -0.8192152423E-02   0.4080576212E-02   0.4080576212E-02   0.5683302844E-16  -0.9130000683E-16   0.1808299375E-16   0.7750000010E+01
     1     2     3     4     5     6     7     8
     2     9    10     3     6    11    12     7
 VARIABLES = X,Y,Z,DU1,DU2,DU3,U1,U2,U3,S11,S22,S33,S12,S13,S23,E11,E22,E33,E12,E13,E23,SMISES
 ZONE, T="0.2150D+01" F=FEPOINT, I=   12 J=    2 ET=BRICK
   0.0000000000E+00   0.0000000000E+00   0.0000000000E+00   0.0000000000E+00   0.0000000000E+00   0.0000000000E+00   0.0000000000E+00   0.0000000000E+00   0.0000000000E+00  -0.6625000010E+01  -0.3333662610E-11  -0.3332278817E-11   0.4825793674E-16  -0.1280105509E-14  -0.4112898342E-15  -0.5942152422E-02   0.2957826211E-02   0.2957826211E-02  -0.3033774144E-18  -0.3139343006E-16   0.9166471909E-17   0.6625000010E+01
   0.9940578476E+00   0.0000000000E+00  -0.3468702050E-16   0.2250000000E-02   0.0000000000E+00  -0.6936289542E-17  -0.8192152413E-02   0.0000000000E+00  -0.2775073096E-16  -0.6625000010E+01  -0.3497031885E-11  -0.3497838789E-11   0.4149039222E-15   0.3085333662E-15   0.4753567978E-15  -0.5942152422E-02   0.2957826211E-02   0.2957826211E-02  -0.9113829573E-18   0.7396793119E-16  -0.1698162603E-16   0.6625000010E+01
   0.9940578476E+00   0.1002957826E+01  -0.4326529157E-16   0.2250000000E-02  -0.1122750000E-02  -0.9697974572E-17  -0.8192152413E-02   0.4080576206E-02  -0.3356731700E-16  -0.6625000009E+01  -0.3675602104E-11  -0.3675461334E-11   0.6859923922E-15   0.8460167100E-15   0.4808453396E-15  -0.5942152421E-02   0.2957826211E-02   0.2957826211E-02  -0.2711311668E-16   0.3182389426E-16   0.2996549232E-16   0.6625000009E+01
   0.0000000000E+00   0.1002957826E+01   0.5203373243E-17   0.0000000000E+00  -0.1122750000E-02  -0.1864749766E-17   0.0000000000E+00   0.4080576206E-02   0.7068123009E-17  -0.6625000010E+01  -0.5459373616E-11  -0.5460616638E-11  -0.1654621334E-15  -0.9830656847E-15  -0.3521637690E-15  -0.5942152421E-02   0.2957826211E-02   0.2957826211E-02  -0.3954592009E-16  -0.5953276019E-16  -0.2048104022E-17   0.6625000010E+01
   0.0000000000E+00   0.0000000000E+00   0.1002957826E+01   0.0000000000E+00   0.0000000000E+00  -0.1122750000E-02   0.0000000000E+00   0.0000000000E+00   0.4080576206E-02  -0.6625000010E+01   0.6642337919E-11   0.6642145623E-11  -0.1029965238E-15  -0.1180215041E-14   0.2622669192E-15  -0.5942152421E-02   0.2957826211E-02   0.2957826211E-02   0.3747187133E-18  -0.5951384699E-16  -0.1225431663E-16   0.6625000010E+01
   0.9940578476E+00   0.0000000000E+00   0.1002957826E+01   0.2250000000E-02   0.0000000000E+00  -0.1122750000E-02  -0.8192152413E-02   0.0000000000E+00   0.4080576206E-02  -0.6625000009E+01   0.3768763428E-11   0.3768622657E-11  -0.4996669227E-15   0.1477959379E-14  -0.2597689428E-15  -0.5942152421E-02   0.2957826211E-02   0.2957826211E-02  -0.2556169589E-16   0.4986398328E-16  -0.5588080475E-16   0.6625000009E+01
   0.9940578476E+00   0.1002957826E+01   0.1002957826E+01   0.2250000000E-02  -0.1122750000E-02  -0.1122750000E-02  -0.8192152413E-02   0.4080576206E-02   0.4080576206E-02  -0.6625000009E+01   0.2369884067E-11   0.2370690971E-11  -0.6591797773E-15  -0.6709699589E-15   0.2127257756E-15  -0.5942152420E-02   0.2957826210E-02   0.2957826210E-02  -0.2461873314E-16   0.1540256473E-16  -0.6588186929E-17   0.6625000009E+01
   0.0000000000E+00   0.1002957826E+01   0.1002957826E+01   0.0000000000E+00  -0.1122750000E-02  -0.1122750000E-02   0.0000000000E+00   0.4080576206E-02   0.4080576206E-02  -0.6625000009E+01   0.3602197399E-11   0.3602108154E-11   0.2127959611E-15  -0.1214412377E-14  -0.3757855812E-15  -0.5942152421E-02   0.2957826210E-02   0.2957826210E-02   0.3901926477E-16  -0.1209590956E-15  -0.2475578302E-16   0.6625000009E+01
   0.1988115695E+01   0.0000000000E+00  -0.1508192582E-15   0.4500000000E-02   0.0000000000E+00  -0.3265573135E-16  -0.1638430483E-01   0.0000000000E+00  -0.1181635268E-15  -0.6625000010E+01  -0.1910590791E-11  -0.1909591591E-11  -0.5930266505E-15  -0.5246148404E-16  -0.2399076562E-16  -0.5942152422E-02   0.2957826211E-02   0.2957826211E-02   0.2416770228E-15   0.1685345771E-16  -0.1904266429E-16   0.6625000010E+01
   0.1988115695E+01   0.1002957826E+01  -0.1607198093E-15   0.4500000000E-02  -0.1122750000E-02  -0.3570918936E-16  -0.1638430483E-01   0.4080576206E-02  -0.1250106199E-15  -0.6625000009E+01  -0.2338510237E-12  -0.2336587275E-12   0.8295542158E-16   0.2470814314E-16   0.2353874331E-15  -0.5942152421E-02   0.2957826210E-02   0.2957826210E-02   0.2351776824E-15  -0.1151698771E-15   0.5579526740E-17   0.6625000009E+01
   0.1988115695E+01   0.0000000000E+00   0.1002957826E+01   0.4500000000E-02   0.0000000000E+00  -0.1122750000E-02  -0.1638430483E-01   0.0000000000E+00   0.4080576206E-02  -0.6625000009E+01   0.1310162992E-11   0.1311406014E-11   0.3558931723E-15  -0.1137249387E-14  -0.1982518270E-15  -0.5942152421E-02   0.2957826210E-02   0.2957826210E-02   0.1085879586E-15  -0.4136043122E-17  -0.2032799542E-16   0.6625000009E+01
   0.1988115695E+01   0.1002957826E+01   0.1002957826E+01   0.4500000000E-02  -0.1122750000E-02  -0.1122750000E-02  -0.1638430483E-01   0.4080576206E-02   0.4080576206E-02  -0.6625000008E+01   0.1479174429E-11   0.1476880680E-11   0.7603741739E-15   0.1864640735E-14  -0.8019329463E-15  -0.5942152420E-02   0.2957826210E-02   0.2957826210E-02   0.6158988697E-16  -0.7129139705E-16   0.1520155369E-16   0.6625000008E+01
     1     2     3     4     5     6     7     8
     2     9    10     3     6    11    12     7
 VARIABLES = X,Y,Z,DU1,DU2,DU3,U1,U2,U3,S11,S22,S33,S12,S13,S23,E11,E22,E33,E12,E13,E23,SMISES
 ZONE, T="0.2200D+01" F=FEPOINT, I=   12 J=    2 ET=BRICK
   0.0000000000E+00   0.0000000000E+00   0.0000000000E+00   0.0000000000E+00   0.0000000000E+00   0.0000000000E+00   0.0000000000E+00   0.0000000000E+00   0.0000000000E+00  -0.5500000009E+01  -0.1990386318E-11  -0.1990024962E-11   0.6924443215E-16   0.1437236203E-15   0.5429641735E-15  -0.3692152418E-02   0.1835076209E-02   0.1835076209E-02   0.2130318770E-17  -0.1170454407E-16   0.2358329541E-16   0.5500000009E+01
   0.9963078476E+00   0.0000000000E+00  -0.2177612445E-16   0.2250000000E-02   0.0000000000E+00   0.1291089606E-16  -0.5942152413E-02   0.0000000000E+00  -0.3468702050E-16  -0.5500000008E+01  -0.2333085774E-11  -0.2334854160E-11   0.5947522152E-15   0.6166146943E-15   0.9534699075E-15  -0.3692152418E-02   0.1835076209E-02   0.1835076209E-02  -0.3540466742E-17   0.7661738032E-16  -0.1162830817E-16   0.5500000008E+01
   0.9963078476E+00   0.1001835076E+01  -0.2738288509E-16   0.2250000000E-02  -0.1122750000E-02   0.1588240648E-16  -0.5942152413E-02   0.2957826206E-02  -0.4326529157E-16  -0.5500000008E+01  -0.2627272334E-11  -0.2628214956E-11   0.6864813133E-15   0.1364717841E-16  -0.6271925730E-16  -0.3692152418E-02   0.1835076209E-02   0.1835076209E-02  -0.2486226660E-16   0.2239604819E-16   0.2504511654E-16   0.5500000008E+01
   0.0000000000E+00   0.1001835076E+01   0.1078817933E-16   0.0000000000E+00  -0.1122750000E-02   0.5584806085E-17   0.0000000000E+00   0.2957826206E-02   0.5203373243E-17  -0.5500000008E+01  -0.4224168772E-11  -0.4226661720E-11  -0.2081094645E-16  -0.5022518556E-16  -0.7734418994E-15  -0.3692152418E-02   0.1835076209E-02   0.1835076209E-02  -0.3904843266E-16  -0.5238351689E-16  -0.9755594077E-17   0.5500000008E+01
   0.0000000000E+00   0.0000000000E+00   0.1001835076E+01   0.0000000000E+00   0.0000000000E+00  -0.1122750000E-02   0.0000000000E+00   0.0000000000E+00   0.2957826206E-02  -0.5500000008E+01   0.5629383072E-11   0.5631840827E-11  -0.1405303597E-15   0.1414414172E-16   0.6346358833E-15  -0.3692152418E-02   0.1835076209E-02   0.1835076209E-02  -0.8511087808E-18  -0.4648464386E-16  -0.9345134198E-17   0.5500000008E+01
   0.9963078476E+00   0.0000000000E+00   0.1001835076E+01   0.2250000000E-02   0.0000000000E+00  -0.1122750000E-02  -0.5942152413E-02   0.0000000000E+00   0.2957826206E-02  -0.5500000008E+01   0.2682490893E-11   0.2683119307E-11  -0.1003652042E-14   0.1486002435E-14   0.3338210756E-15  -0.3692152418E-02   0.1835076209E-02   0.1835076209E-02  -0.2874424445E-16   0.4650320360E-16  -0.4785375744E-16   0.5500000008E+01
   0.9963078476E+00   0.1001835076E+01   0.1001835076E+01   0.2250000000E-02  -0.1122750000E-02  -0.1122750000E-02  -0.5942152413E-02   0.2957826206E-02   0.2957826206E-02  -0.5500000007E+01   0.1601315174E-11   0.1603346241E-11  -0.1173594528E-14  -0.1223363281E-14  -0.1716174018E-15  -0.3692152417E-02   0.1835076209E-02   0.1835076209E-02  -0.3251990249E-16   0.1299632500E-16  -0.1182957563E-16   0.5500000007E+01
   0.0000000000E+00   0.1001835076E+01   0.1001835076E+01   0.0000000000E+00  -0.1122750000E-02  -0.1122750000E-02   0.0000000000E+00   0.2957826206E-02   0.2957826206E-02  -0.5500000007E+01   0.1777689293E-11   0.1778369233E-11   0.6967576063E-15   0.2030322254E-15  -0.1297927106E-14  -0.3692152418E-02   0.1835076209E-02   0.1835076209E-02   0.4558934071E-16  -0.1051175042E-15  -0.3621106491E-16   0.5500000007E+01
   0.1992615695E+01   0.0000000000E+00  -0.1070410610E-15   0.4500000000E-02   0.0000000000E+00   0.4377819714E-16  -0.1188430483E-01   0.0000000000E+00  -0.1508192582E-15  -0.5500000008E+01  -0.1224678532E-11  -0.1224439087E-11  -0.1015382588E-14  -0.8930459132E-15   0.2594418898E-15  -0.3692152418E-02   0.1835076209E-02   0.1835076209E-02   0.2398704762E-15   0.7523025770E-17  -0.1567232925E-16   0.5500000008E+01
   0.1992615695E+01   0.1001835076E+01  -0.1153975129E-15   0.4500000000E-02  -0.1122750000E-02   0.4532229640E-16  -0.1188430483E-01   0.2957826206E-02  -0.1607198093E-15  -0.5500000008E+01   0.1124065437E-12   0.1123103956E-12  -0.8913111375E-15   0.5907325697E-15  -0.3124362492E-15  -0.3692152418E-02   0.1835076209E-02   0.1835076209E-02   0.2231391567E-15  -0.1013300203E-15   0.5935184923E-18   0.5500000008E+01
   0.1992615695E+01   0.0000000000E+00   0.1001835076E+01   0.4500000000E-02   0.0000000000E+00  -0.1122750000E-02  -0.1188430483E-01   0.0000000000E+00   0.2957826206E-02  -0.5500000008E+01  -0.1487970348E-12  -0.1473711460E-12   0.1411294921E-14  -0.2482991408E-14   0.2825918099E-15  -0.3692152418E-02   0.1835076209E-02   0.1835076209E-02   0.1126136474E-15  -0.1835700713E-16  -0.1258256652E-16   0.5500000008E+01
   0.1992615695E+01   0.1001835076E+01   0.1001835076E+01   0.4500000000E-02  -0.1122750000E-02  -0.1122750000E-02  -0.1188430483E-01   0.2957826206E-02   0.2957826206E-02  -0.5500000007E+01   0.1250681486E-11   0.1249541515E-11   0.1773521469E-14   0.1836988698E-14  -0.1110615621E-14  -0.3692152417E-02   0.1835076209E-02   0.1835076209E-02   0.7384769541E-16  -0.7367220012E-16   0.1013687483E-16   0.5500000007E+01
     1     2     3     4     5     6     7     8
     2     9    10     3     6    11    12     7
 VARIABLES = X,Y,Z,DU1,DU2,DU3,U1,U2,U3,S11,S22,S33,S12,S13,S23,E11,E22,E33,E12,E13,E23,SMISES
 ZONE, T="0.2250D+01" F=FEPOINT, I=   12 J=    2 ET=BRICK
   0.0000000000E+00   0.0000000000E+00   0.0000000000E+00   0.0000000000E+00   0.0000000000E+00   0.0000000000E+00   0.0000000000E+00   0.0000000000E+00   0.0000000000E+00  -0.4375000007E+01  -0.3217524143E-11  -0.3216426802E-11   0.5723031999E-16  -0.9536658234E-15  -0.2505533050E-15  -0.1442152415E-02   0.7123262074E-03   0.7123262074E-03  -0.2707754846E-18  -0.2503717941E-16   0.1158900419E-16   0.4375000007E+01
   0.9985578476E+00   0.0000000000E+00  -0.3471865093E-16   0.2250000000E-02   0.0000000000E+00  -0.1294252648E-16  -0.3692152413E-02   0.0000000000E+00  -0.2177612445E-16  -0.4375000007E+01  -0.3818927979E-11  -0.3819738869E-11   0.3236119720E-16   0.7822505978E-16   0.1689684334E-15  -0.1442152415E-02   0.7123262074E-03   0.7123262074E-03  -0.5864820655E-17   0.6766526742E-16  -0.2040121926E-16   0.4375000007E+01
   0.9985578476E+00   0.1000712326E+01  -0.4490971926E-16   0.2250000000E-02  -0.1122750000E-02  -0.1752683417E-16  -0.3692152413E-02   0.1835076206E-02  -0.2738288509E-16  -0.4375000006E+01  -0.3579991132E-11  -0.3579905872E-11   0.7119879848E-16   0.1145672217E-14   0.6861619338E-16  -0.1442152415E-02   0.7123262073E-03   0.7123262073E-03  -0.3125604384E-16   0.3879529550E-16   0.2483221700E-16   0.4375000006E+01
   0.0000000000E+00   0.1000712326E+01   0.5930910855E-17   0.0000000000E+00  -0.1122750000E-02  -0.4857268473E-17   0.0000000000E+00   0.1835076206E-02   0.1078817933E-16  -0.4375000006E+01  -0.5907429708E-11  -0.5907568486E-11   0.1108779587E-15  -0.1269724207E-14   0.3945866580E-16  -0.1442152415E-02   0.7123262073E-03   0.7123262073E-03  -0.3730426071E-16  -0.6655897661E-16   0.3263470752E-17   0.4375000006E+01
   0.0000000000E+00   0.0000000000E+00   0.1000712326E+01   0.0000000000E+00   0.0000000000E+00  -0.1122750000E-02   0.0000000000E+00   0.0000000000E+00   0.1835076206E-02  -0.4375000006E+01   0.6830969538E-11   0.6831548419E-11  -0.1269285845E-15  -0.1278380754E-14   0.1876184180E-15  -0.1442152415E-02   0.7123262073E-03   0.7123262073E-03  -0.1707831213E-19  -0.6096117452E-16  -0.1424107211E-16   0.4375000006E+01
   0.9985578476E+00   0.0000000000E+00   0.1000712326E+01   0.2250000000E-02   0.0000000000E+00  -0.1122750000E-02  -0.3692152413E-02   0.0000000000E+00   0.1835076206E-02  -0.4375000006E+01   0.4122311176E-11   0.4121871072E-11  -0.2101459293E-15   0.9079707284E-15  -0.3492357210E-15  -0.1442152415E-02   0.7123262073E-03   0.7123262073E-03  -0.2139016541E-16   0.3906699963E-16  -0.5583441839E-16   0.4375000006E+01
   0.9985578476E+00   0.1000712326E+01   0.1000712326E+01   0.2250000000E-02  -0.1122750000E-02  -0.1122750000E-02  -0.3692152413E-02   0.1835076206E-02   0.1835076206E-02  -0.4375000006E+01   0.2383422936E-11   0.2384699692E-11  -0.6837303107E-15  -0.3633853585E-15  -0.8837176965E-16  -0.1442152415E-02   0.7123262072E-03   0.7123262072E-03  -0.2656089605E-16   0.2144834277E-16  -0.1179959836E-16   0.4375000006E+01
   0.0000000000E+00   0.1000712326E+01   0.1000712326E+01   0.0000000000E+00  -0.1122750000E-02  -0.1122750000E-02   0.0000000000E+00   0.1835076206E-02   0.1835076206E-02  -0.4375000006E+01   0.4094367222E-11   0.4093299628E-11  -0.2905248751E-15  -0.1528578680E-14  -0.1918245251E-17  -0.1442152415E-02   0.7123262073E-03   0.7123262073E-03   0.3405707721E-16  -0.1252536410E-15  -0.2256106779E-16   0.4375000006E+01
   0.1997115695E+01   0.0000000000E+00  -0.1573593270E-15   0.4500000000E-02   0.0000000000E+00  -0.5031826594E-16  -0.7384304825E-02   0.0000000000E+00  -0.1070410610E-15  -0.4375000007E+01  -0.3000938118E-11  -0.2999481946E-11   0.8687630838E-15   0.1864085996E-14   0.6373308130E-16  -0.1442152415E-02   0.7123262074E-03   0.7123262074E-03   0.2575021102E-15   0.4154981042E-16  -0.1880824862E-16   0.4375000007E+01
   0.1997115695E+01   0.1000712326E+01  -0.1669547272E-15   0.4500000000E-02  -0.1122750000E-02  -0.5155721428E-16  -0.7384304825E-02   0.1835076206E-02  -0.1153975129E-15  -0.4375000006E+01  -0.1430592045E-12  -0.1422622640E-12   0.6526744486E-15  -0.8462008806E-15   0.8013215075E-15  -0.1442152415E-02   0.7123262073E-03   0.7123262073E-03   0.2428283466E-15  -0.1156534301E-15   0.1517754658E-16   0.4375000006E+01
   0.1997115695E+01   0.0000000000E+00   0.1000712326E+01   0.4500000000E-02   0.0000000000E+00  -0.1122750000E-02  -0.7384304825E-02   0.0000000000E+00   0.1835076206E-02  -0.4375000006E+01   0.2094822186E-11   0.2095183008E-11  -0.1346958338E-14   0.2285605130E-15  -0.1478504264E-15  -0.1442152415E-02   0.7123262073E-03   0.7123262073E-03   0.8524823130E-16   0.1134798113E-16  -0.1670737658E-16   0.4375000006E+01
   0.1997115695E+01   0.1000712326E+01   0.1000712326E+01   0.4500000000E-02  -0.1122750000E-02  -0.1122750000E-02  -0.7384304825E-02   0.1835076206E-02   0.1835076206E-02  -0.4375000006E+01   0.1063361891E-11   0.1060500149E-11  -0.4292722698E-15   0.3768703584E-15  -0.1505264677E-15  -0.1442152414E-02   0.7123262072E-03   0.7123262072E-03   0.4582317445E-16  -0.9565249121E-16   0.1910090726E-16   0.4375000006E+01
     1     2     3     4     5     6     7     8
     2     9    10     3     6    11    12     7
 VARIABLES = X,Y,Z,DU1,DU2,DU3,U1,U2,U3,S11,S22,S33,S12,S13,S23,E11,E22,E33,E12,E13,E23,SMISES
 ZONE, T="0.2300D+01" F=FEPOINT, I=   12 J=    2 ET=BRICK
   0.0000000000E+00   0.0000000000E+00   0.0000000000E+00   0.0000000000E+00   0.0000000000E+00   0.0000000000E+00   0.0000000000E+00   0.0000000000E+00   0.0000000000E+00  -0.3250000005E+01  -0.2803791908E-11  -0.2803182744E-11   0.5665122716E-16  -0.9686682358E-15  -0.4812586262E-17   0.8078475887E-03  -0.4104237943E-03  -0.4104237943E-03  -0.5113558435E-19  -0.2549891799E-16   0.1498390891E-16   0.3250000005E+01
   0.1000807848E+01   0.0000000000E+00  -0.3182227128E-16   0.2250000000E-02   0.0000000000E+00   0.2896379655E-17  -0.1442152413E-02   0.0000000000E+00  -0.3471865093E-16  -0.3250000005E+01  -0.3188659801E-11  -0.3189648113E-11  -0.2029523658E-15   0.9409335118E-16   0.5343919197E-15   0.8078475886E-03  -0.4104237943E-03  -0.4104237943E-03  -0.8746352660E-17   0.6845714062E-16  -0.1567405874E-16   0.3250000005E+01
   0.1000807848E+01   0.9995895762E+00  -0.3983137607E-16   0.2250000000E-02  -0.1122750000E-02   0.5078343191E-17  -0.1442152413E-02   0.7123262063E-03  -0.4490971926E-16  -0.3250000005E+01  -0.3141357540E-11  -0.3142167362E-11   0.3052917670E-16   0.1275120452E-14   0.1522590046E-15   0.8078475885E-03  -0.4104237943E-03  -0.4104237943E-03  -0.3282692170E-16   0.4074201069E-16   0.2540851843E-16   0.3250000005E+01
   0.0000000000E+00   0.9995895762E+00   0.7416039987E-17   0.0000000000E+00  -0.1122750000E-02   0.1485129132E-17   0.0000000000E+00   0.7123262063E-03   0.5930910855E-17  -0.3250000005E+01  -0.5727989547E-11  -0.5728257673E-11   0.1796579506E-15  -0.1012602609E-14  -0.2671242779E-15   0.8078475886E-03  -0.4104237943E-03  -0.4104237943E-03  -0.3615285880E-16  -0.6342381778E-16  -0.7597637125E-18   0.3250000005E+01
   0.0000000000E+00   0.0000000000E+00   0.9995895762E+00   0.0000000000E+00   0.0000000000E+00  -0.1122750000E-02   0.0000000000E+00   0.0000000000E+00   0.7123262063E-03  -0.3250000005E+01   0.6365198820E-11   0.6366276767E-11  -0.9738150149E-16  -0.1041621046E-14   0.4560296142E-15   0.8078475886E-03  -0.4104237943E-03  -0.4104237943E-03   0.2753373083E-18  -0.5726478470E-16  -0.1077725316E-16   0.3250000005E+01
   0.1000807848E+01   0.0000000000E+00   0.9995895762E+00   0.2250000000E-02   0.0000000000E+00  -0.1122750000E-02  -0.1442152413E-02   0.0000000000E+00   0.7123262063E-03  -0.3250000005E+01   0.3484589628E-11   0.3484548992E-11  -0.1805910262E-15   0.1059260905E-14  -0.4488174670E-16   0.8078475885E-03  -0.4104237943E-03  -0.4104237943E-03  -0.2124677183E-16   0.3970042336E-16  -0.5362230192E-16   0.3250000005E+01
   0.1000807848E+01   0.9995895762E+00   0.9995895762E+00   0.2250000000E-02  -0.1122750000E-02  -0.1122750000E-02  -0.1442152413E-02   0.7123262063E-03   0.7123262063E-03  -0.3250000004E+01   0.2094268579E-11   0.2095804031E-11  -0.5323650219E-15  -0.4410853321E-16  -0.4853241260E-16   0.8078475884E-03  -0.4104237942E-03  -0.4104237942E-03  -0.2422420019E-16   0.2529360986E-16  -0.1002425906E-16   0.3250000004E+01
   0.0000000000E+00   0.9995895762E+00   0.9995895762E+00   0.0000000000E+00  -0.1122750000E-02  -0.1122750000E-02   0.0000000000E+00   0.7123262063E-03   0.7123262063E-03  -0.3250000004E+01   0.3448732578E-11   0.3447657547E-11   0.1958598648E-15  -0.1088461036E-14  -0.3672062116E-15   0.8078475885E-03  -0.4104237942E-03  -0.4104237942E-03   0.3928990931E-16  -0.1201235389E-15  -0.2559696278E-16   0.3250000004E+01
   0.2001615695E+01   0.0000000000E+00  -0.1396443838E-15   0.4500000000E-02   0.0000000000E+00   0.1771494322E-16  -0.2884304825E-02   0.0000000000E+00  -0.1573593270E-15  -0.3250000005E+01  -0.2146358134E-11  -0.2145819356E-11  -0.1088172926E-16   0.2855943321E-15   0.2423777671E-16   0.8078475886E-03  -0.4104237943E-03  -0.4104237943E-03   0.2461276898E-15   0.2260809939E-16  -0.1977016700E-16   0.3250000005E+01
   0.2001615695E+01   0.9995895762E+00  -0.1495844942E-15   0.4500000000E-02  -0.1122750000E-02   0.1737023297E-16  -0.2884304825E-02   0.7123262063E-03  -0.1669547272E-15  -0.3250000005E+01   0.5598138121E-12   0.5603852565E-12   0.1455781661E-16  -0.3955551189E-15  -0.4439296035E-16   0.8078475885E-03  -0.4104237943E-03  -0.4104237943E-03   0.2335601601E-15  -0.1218408955E-15   0.5066388919E-17   0.3250000005E+01
   0.2001615695E+01   0.0000000000E+00   0.9995895762E+00   0.4500000000E-02   0.0000000000E+00  -0.1122750000E-02  -0.2884304825E-02   0.0000000000E+00   0.7123262063E-03  -0.3250000005E+01   0.9651225507E-12   0.9658862913E-12   0.4742948211E-16  -0.1462184410E-14  -0.1533336179E-17   0.8078475885E-03  -0.4104237943E-03  -0.4104237943E-03   0.1009216223E-15   0.1837684767E-18  -0.1394461378E-16   0.3250000005E+01
   0.2001615695E+01   0.9995895762E+00   0.9995895762E+00   0.4500000000E-02  -0.1122750000E-02  -0.1122750000E-02  -0.2884304825E-02   0.7123262063E-03   0.7123262063E-03  -0.3250000004E+01   0.8113920277E-12   0.8093366567E-12   0.7557106672E-15   0.9046099464E-15  -0.7296746189E-15   0.8078475884E-03  -0.4104237942E-03  -0.4104237942E-03   0.5938765373E-16  -0.8496843117E-16   0.1197080832E-16   0.3250000004E+01
     1     2     3     4     5     6     7     8
     2     9    10     3     6    11    12     7
 VARIABLES = X,Y,Z,DU1,DU2,DU3,U1,U2,U3,S11,S22,S33,S12,S13,S23,E11,E22,E33,E12,E13,E23,SMISES
 ZONE, T="0.2350D+01" F=FEPOINT, I=   12 J=    2 ET=BRICK
   0.0000000000E+00   0.0000000000E+00   0.0000000000E+00   0.0000000000E+00   0.0000000000E+00   0.0000000000E+00   0.0000000000E+00   0.0000000000E+00   0.0000000000E+00  -0.2125000003E+01  -0.2516428164E-11  -0.2516133110E-11   0.6275962865E-16  -0.7008007812E-15  -0.8515128961E-16   0.3057847592E-02  -0.1533173796E-02  -0.1533173796E-02  -0.2758034784E-18  -0.2230372325E-16   0.1374381195E-16   0.2125000003E+01
   0.1003057848E+01   0.0000000000E+00  -0.2976750148E-16   0.2250000000E-02   0.0000000000E+00   0.2054769799E-17   0.8078475874E-03   0.0000000000E+00  -0.3182227128E-16  -0.2125000003E+01  -0.3133234503E-11  -0.3133998048E-11  -0.3790402970E-15  -0.3195894913E-15   0.5103075536E-15   0.3057847592E-02  -0.1533173796E-02  -0.1533173796E-02  -0.1024298021E-16   0.6515173984E-16  -0.1658894413E-16   0.2125000003E+01
   0.1003057848E+01   0.9984668262E+00  -0.3798104101E-16   0.2250000000E-02  -0.1122750000E-02   0.1850335058E-17   0.8078475874E-03  -0.4104237937E-03  -0.3983137607E-16  -0.2125000003E+01  -0.3011998348E-11  -0.3012631477E-11  -0.1119441116E-15   0.1219002009E-14   0.1959361254E-15   0.3057847592E-02  -0.1533173796E-02  -0.1533173796E-02  -0.3429583496E-16   0.3619412125E-16   0.2726212914E-16   0.2125000003E+01
   0.0000000000E+00   0.9984668262E+00   0.7121217296E-17   0.0000000000E+00  -0.1122750000E-02  -0.2948226917E-18   0.0000000000E+00  -0.4104237937E-03   0.7416039987E-17  -0.2125000003E+01  -0.5534173213E-11  -0.5534398345E-11   0.1581579697E-15  -0.8387130479E-15  -0.3124059118E-15   0.3057847592E-02  -0.1533173796E-02  -0.1533173796E-02  -0.3650433749E-16  -0.6031581241E-16  -0.1200979473E-17   0.2125000003E+01
   0.0000000000E+00   0.0000000000E+00   0.9984668262E+00   0.0000000000E+00   0.0000000000E+00  -0.1122750000E-02   0.0000000000E+00   0.0000000000E+00  -0.4104237937E-03  -0.2125000003E+01   0.6043040202E-11   0.6044213933E-11  -0.1210969221E-15  -0.6514389172E-15   0.4915535677E-15   0.3057847592E-02  -0.1533173796E-02  -0.1533173796E-02  -0.2663981225E-18  -0.5316767998E-16  -0.1019197303E-16   0.2125000003E+01
   0.1003057848E+01   0.0000000000E+00   0.9984668262E+00   0.2250000000E-02   0.0000000000E+00  -0.1122750000E-02   0.8078475874E-03   0.0000000000E+00  -0.4104237937E-03  -0.2125000003E+01   0.3486547228E-11   0.3486455794E-11  -0.1935628005E-15   0.9572879274E-15  -0.1216848874E-15   0.3057847592E-02  -0.1533173796E-02  -0.1533173796E-02  -0.2100592995E-16   0.3786783428E-16  -0.5378121747E-16   0.2125000003E+01
   0.1003057848E+01   0.9984668262E+00   0.9984668262E+00   0.2250000000E-02  -0.1122750000E-02  -0.1122750000E-02   0.8078475874E-03  -0.4104237937E-03  -0.4104237937E-03  -0.2125000003E+01   0.2061913344E-11   0.2063244348E-11  -0.6145852182E-15  -0.3036142663E-15   0.5250191990E-16   0.3057847591E-02  -0.1533173796E-02  -0.1533173796E-02  -0.2500146842E-16   0.2383887798E-16  -0.1080301808E-16   0.2125000003E+01
   0.0000000000E+00   0.9984668262E+00   0.9984668262E+00   0.0000000000E+00  -0.1122750000E-02  -0.1122750000E-02   0.0000000000E+00  -0.4104237937E-03  -0.4104237937E-03  -0.2125000003E+01   0.3086755890E-11   0.3085686936E-11   0.4489311083E-15  -0.7287615468E-15  -0.4799798821E-15   0.3057847591E-02  -0.1533173796E-02  -0.1533173796E-02   0.4228365477E-16  -0.1156913376E-15  -0.2579348871E-16   0.2125000003E+01
   0.2006115695E+01   0.0000000000E+00  -0.1327854074E-15   0.4500000000E-02   0.0000000000E+00   0.6858976323E-17   0.1615695175E-02   0.0000000000E+00  -0.1396443838E-15  -0.2125000003E+01  -0.2436512955E-11  -0.2435972815E-11   0.1717370171E-15   0.4310214720E-15  -0.1031295997E-15   0.3057847592E-02  -0.1533173796E-02  -0.1533173796E-02   0.2481809688E-15   0.2840387232E-16  -0.2144512358E-16   0.2125000003E+01
   0.2006115695E+01   0.9984668262E+00  -0.1433415862E-15   0.4500000000E-02  -0.1122750000E-02   0.6242908003E-17   0.1615695175E-02  -0.4104237937E-03  -0.1495844942E-15  -0.2125000003E+01   0.6193209190E-12   0.6202285171E-12   0.5182463888E-16  -0.3750546237E-15  -0.1615917340E-16   0.3057847592E-02  -0.1533173796E-02  -0.1533173796E-02   0.2359543212E-15  -0.1167129316E-15   0.5886183858E-17   0.2125000003E+01
   0.2006115695E+01   0.0000000000E+00   0.9984668262E+00   0.4500000000E-02   0.0000000000E+00  -0.1122750000E-02   0.1615695175E-02   0.0000000000E+00  -0.4104237937E-03  -0.2125000003E+01   0.1014685001E-11   0.1015610195E-11   0.1238573695E-15  -0.1541202958E-14   0.1234087698E-16   0.3057847592E-02  -0.1533173796E-02  -0.1533173796E-02   0.1031850535E-15   0.2272239847E-17  -0.1368323865E-16   0.2125000003E+01
   0.2006115695E+01   0.9984668262E+00   0.9984668262E+00   0.4500000000E-02  -0.1122750000E-02  -0.1122750000E-02   0.1615695175E-02  -0.4104237937E-03  -0.4104237937E-03  -0.2125000003E+01   0.9403936075E-12   0.9384932496E-12   0.6875581625E-15   0.1163165571E-14  -0.6851334579E-15   0.3057847591E-02  -0.1533173796E-02  -0.1533173796E-02   0.5644928953E-16  -0.8622219966E-16   0.1206609843E-16   0.2125000003E+01
     1     2     3     4     5     6     7     8
     2     9    10     3     6    11    12     7
 VARIABLES = X,Y,Z,DU1,DU2,DU3,U1,U2,U3,S11,S22,S33,S12,S13,S23,E11,E22,E33,E12,E13,E23,SMISES
 ZONE, T="0.2400D+01" F=FEPOINT, I=   12 J=    2 ET=BRICK
   0.0000000000E+00   0.0000000000E+00   0.0000000000E+00   0.0000000000E+00   0.0000000000E+00   0.0000000000E+00   0.0000000000E+00   0.0000000000E+00   0.0000000000E+00  -0.1000000002E+01  -0.2476526858E-11  -0.2476505507E-11   0.8152422774E-16  -0.6483201832E-15  -0.2866877550E-16   0.5307847596E-02  -0.2655923798E-02  -0.2655923798E-02   0.2485741212E-18  -0.2256113285E-16   0.1459446335E-16   0.1000000002E+01
   0.1005307848E+01   0.0000000000E+00  -0.2893488714E-16   0.2250000000E-02   0.0000000000E+00   0.8326143388E-18   0.3057847587E-02   0.0000000000E+00  -0.2976750148E-16  -0.1000000002E+01  -0.2951473831E-11  -0.2952564732E-11   0.8809943314E-16   0.1704936101E-15   0.6165492869E-15   0.5307847596E-02  -0.2655923798E-02  -0.2655923798E-02  -0.4812763120E-17   0.7169015580E-16  -0.1492750769E-16   0.1000000002E+01
   0.1005307848E+01   0.9973440762E+00  -0.3642084791E-16   0.2250000000E-02  -0.1122750000E-02   0.1560193101E-17   0.3057847587E-02  -0.1533173794E-02  -0.3798104101E-16  -0.1000000001E+01  -0.2880137663E-11  -0.2881098148E-11   0.2566313815E-15   0.8033785856E-15   0.1125547392E-15   0.5307847595E-02  -0.2655923797E-02  -0.2655923797E-02  -0.3041614198E-16   0.3436716724E-16   0.2597022133E-16   0.1000000001E+01
   0.0000000000E+00   0.9973440762E+00   0.7399916131E-17   0.0000000000E+00  -0.1122750000E-02   0.2786988355E-18   0.0000000000E+00  -0.1533173794E-02   0.7121217296E-17  -0.1000000001E+01  -0.5188655608E-11  -0.5189132132E-11   0.1503913660E-15  -0.6434682384E-15  -0.5335292518E-15   0.5307847595E-02  -0.2655923798E-02  -0.2655923798E-02  -0.3556644532E-16  -0.5854541582E-16  -0.4194845687E-17   0.1000000001E+01
   0.0000000000E+00   0.0000000000E+00   0.9973440762E+00   0.0000000000E+00   0.0000000000E+00  -0.1122750000E-02   0.0000000000E+00   0.0000000000E+00  -0.1533173794E-02  -0.1000000001E+01   0.6083226547E-11   0.6084727500E-11  -0.1291735228E-15  -0.6440565881E-15   0.5111647201E-15   0.5307847595E-02  -0.2655923798E-02  -0.2655923798E-02  -0.1369649074E-18  -0.5204813504E-16  -0.8677527524E-17   0.1000000001E+01
   0.1005307848E+01   0.0000000000E+00   0.9973440762E+00   0.2250000000E-02   0.0000000000E+00  -0.1122750000E-02   0.3057847587E-02   0.0000000000E+00  -0.1533173794E-02  -0.1000000001E+01   0.3309417610E-11   0.3309633214E-11  -0.4646121206E-15   0.1408100655E-14  -0.1509985461E-17   0.5307847595E-02  -0.2655923797E-02  -0.2655923797E-02  -0.2487723856E-16   0.4068348852E-16  -0.5340692993E-16   0.1000000001E+01
   0.1005307848E+01   0.9973440762E+00   0.9973440762E+00   0.2250000000E-02  -0.1122750000E-02  -0.1122750000E-02   0.3057847587E-02  -0.1533173794E-02  -0.1533173794E-02  -0.1000000001E+01   0.1943099991E-11   0.1944654765E-11  -0.8880775229E-15  -0.5705544649E-15  -0.9524909842E-16   0.5307847594E-02  -0.2655923797E-02  -0.2655923797E-02  -0.2758316169E-16   0.1934593389E-16  -0.1183753052E-16   0.1000000001E+01
   0.0000000000E+00   0.9973440762E+00   0.9973440762E+00   0.0000000000E+00  -0.1122750000E-02  -0.1122750000E-02   0.0000000000E+00  -0.1533173794E-02  -0.1533173794E-02  -0.1000000001E+01   0.2891340137E-11   0.2890412549E-11   0.3844620309E-15  -0.6265897508E-15  -0.7116862839E-15   0.5307847594E-02  -0.2655923797E-02  -0.2655923797E-02   0.4081404155E-16  -0.1147232650E-15  -0.3034060312E-16   0.1000000001E+01
   0.2010615695E+01   0.0000000000E+00  -0.1286597643E-15   0.4500000000E-02   0.0000000000E+00   0.4125643113E-17   0.6115695175E-02   0.0000000000E+00  -0.1327854074E-15  -0.1000000002E+01  -0.2307094019E-11  -0.2306505672E-11   0.2636506431E-16   0.2682424854E-15  -0.1635869506E-15   0.5307847595E-02  -0.2655923798E-02  -0.2655923798E-02   0.2464199372E-15   0.2138752163E-16  -0.2148711526E-16   0.1000000002E+01
   0.2010615695E+01   0.9973440762E+00  -0.1394236785E-15   0.4500000000E-02  -0.1122750000E-02   0.3917907655E-17   0.6115695175E-02  -0.1533173794E-02  -0.1433415862E-15  -0.1000000001E+01   0.4516758897E-12   0.4527759175E-12  -0.3730128854E-15  -0.9540051311E-16   0.1999626391E-16   0.5307847595E-02  -0.2655923797E-02  -0.2655923797E-02   0.2317103342E-15  -0.1162439645E-15   0.5874999246E-17   0.1000000001E+01
   0.2010615695E+01   0.0000000000E+00   0.9973440762E+00   0.4500000000E-02   0.0000000000E+00  -0.1122750000E-02   0.6115695175E-02   0.0000000000E+00  -0.1533173794E-02  -0.1000000001E+01   0.6433034893E-12   0.6441120836E-12   0.5441340329E-15  -0.2129397870E-14   0.7923224891E-16   0.5307847595E-02  -0.2655923797E-02  -0.2655923797E-02   0.1096178493E-15   0.1618414569E-17  -0.1254616232E-16   0.1000000001E+01
   0.2010615695E+01   0.9973440762E+00   0.9973440762E+00   0.4500000000E-02  -0.1122750000E-02  -0.1122750000E-02   0.6115695175E-02  -0.1533173794E-02  -0.1533173794E-02  -0.1000000001E+01   0.1029887473E-11   0.1028056371E-11   0.1308947307E-14   0.1370840677E-14  -0.6692777500E-15   0.5307847594E-02  -0.2655923797E-02  -0.2655923797E-02   0.6513428852E-16  -0.8404134984E-16   0.1248390830E-16   0.1000000001E+01
     1     2     3     4     5     6     7     8
     2     9    10     3     6    11    12     7
 VARIABLES = X,Y,Z,DU1,DU2,DU3,U1,U2,U3,S11,S22,S33,S12,S13,S23,E11,E22,E33,E12,E13,E23,SMISES
 ZONE, T="0.2450D+01" F=FEPOINT, I=   12 J=    2 ET=BRICK
   0.0000000000E+00   0.0000000000E+00   0.0000000000E+00   0.0000000000E+00   0.0000000000E+00   0.0000000000E+00   0.0000000000E+00   0.0000000000E+00   0.0000000000E+00   0.1250000002E+00  -0.2634586169E-11  -0.2634550418E-11   0.4526484802E-16  -0.6656158289E-15  -0.5712484473E-16   0.7557847599E-02  -0.3778673800E-02  -0.3778673800E-02  -0.5548425590E-18  -0.2293286073E-16   0.1312691004E-16   0.1250000002E+00
   0.1007557848E+01   0.0000000000E+00  -0.2989135705E-16   0.2250000000E-02   0.0000000000E+00  -0.9564699155E-18   0.5307847587E-02   0.0000000000E+00  -0.2893488714E-16   0.1250000002E+00  -0.3079316621E-11  -0.3080291827E-11   0.2307960405E-15   0.2674834644E-16   0.5441006135E-15   0.7557847599E-02  -0.3778673800E-02  -0.3778673800E-02  -0.3115403849E-17   0.7064562151E-16  -0.1622978467E-16   0.1250000002E+00
   0.1007557848E+01   0.9962213262E+00  -0.3779648290E-16   0.2250000000E-02  -0.1122750000E-02  -0.1375634990E-17   0.5307847587E-02  -0.2655923794E-02  -0.3642084791E-16   0.1250000002E+00  -0.2976645020E-11  -0.2977317425E-11   0.3815651943E-15   0.8652838564E-15   0.1656123694E-15   0.7557847598E-02  -0.3778673799E-02  -0.3778673799E-02  -0.2839547080E-16   0.3550829746E-16   0.2623129771E-16   0.1250000002E+00
   0.0000000000E+00   0.9962213262E+00   0.7220929813E-17   0.0000000000E+00  -0.1122750000E-02  -0.1789863186E-18   0.0000000000E+00  -0.2655923794E-02   0.7399916131E-17   0.1250000002E+00  -0.5258766589E-11  -0.5259278202E-11   0.8866941466E-16  -0.8430851877E-15  -0.5159352508E-15   0.7557847598E-02  -0.3778673799E-02  -0.3778673799E-02  -0.3562125624E-16  -0.5961509531E-16   0.1807104615E-18   0.1250000002E+00
   0.0000000000E+00   0.0000000000E+00   0.9962213262E+00   0.0000000000E+00   0.0000000000E+00  -0.1122750000E-02   0.0000000000E+00   0.0000000000E+00  -0.2655923794E-02   0.1250000002E+00   0.6072100623E-11   0.6073558126E-11  -0.1481387730E-15  -0.7818988135E-15   0.4562354865E-15   0.7557847598E-02  -0.3778673799E-02  -0.3778673799E-02  -0.8995216649E-18  -0.5404586695E-16  -0.9291412245E-17   0.1250000002E+00
   0.1007557848E+01   0.0000000000E+00   0.9962213262E+00   0.2250000000E-02   0.0000000000E+00  -0.1122750000E-02   0.5307847587E-02   0.0000000000E+00  -0.2655923794E-02   0.1250000002E+00   0.3396643152E-11   0.3396559180E-11  -0.3646514981E-15   0.1385811107E-14   0.2712131034E-16   0.7557847598E-02  -0.3778673799E-02  -0.3778673799E-02  -0.2221065059E-16   0.4079268079E-16  -0.5281630594E-16   0.1250000002E+00
   0.1007557848E+01   0.9962213262E+00   0.9962213262E+00   0.2250000000E-02  -0.1122750000E-02  -0.1122750000E-02   0.5307847587E-02  -0.2655923794E-02  -0.2655923794E-02   0.1250000002E+00   0.2115731268E-11   0.2117169260E-11  -0.8688844936E-15  -0.4758136948E-15   0.5053241475E-16   0.7557847597E-02  -0.3778673799E-02  -0.3778673799E-02  -0.2594834721E-16   0.2225222266E-16  -0.9412334134E-17   0.1250000002E+00
   0.0000000000E+00   0.9962213262E+00   0.9962213262E+00   0.0000000000E+00  -0.1122750000E-02  -0.1122750000E-02   0.0000000000E+00  -0.2655923794E-02  -0.2655923794E-02   0.1250000002E+00   0.2941138823E-11   0.2940119690E-11   0.5288180108E-15  -0.7149231197E-15  -0.6457494516E-15   0.7557847597E-02  -0.3778673799E-02  -0.3778673799E-02   0.4263859141E-16  -0.1166047487E-15  -0.3063863833E-16   0.1250000002E+00
   0.2015115695E+01   0.0000000000E+00  -0.1323330427E-15   0.4500000000E-02   0.0000000000E+00  -0.3673278409E-17   0.1061569517E-01   0.0000000000E+00  -0.1286597643E-15   0.1250000002E+00  -0.2272956987E-11  -0.2272496420E-11   0.1457440084E-15   0.3734782387E-15  -0.1690224877E-15   0.7557847599E-02  -0.3778673799E-02  -0.3778673799E-02   0.2461524639E-15   0.2269880721E-16  -0.2193577335E-16   0.1250000002E+00
   0.2015115695E+01   0.9962213262E+00  -0.1430277062E-15   0.4500000000E-02  -0.1122750000E-02  -0.3604027680E-17   0.1061569517E-01  -0.2655923794E-02  -0.1394236785E-15   0.1250000002E+00   0.3520577041E-12   0.3529662441E-12  -0.2038359545E-15  -0.5291566775E-16   0.9656668283E-16   0.7557847598E-02  -0.3778673799E-02  -0.3778673799E-02   0.2323918515E-15  -0.1161413209E-15   0.8049970386E-17   0.1250000002E+00
   0.2015115695E+01   0.0000000000E+00   0.9962213262E+00   0.4500000000E-02   0.0000000000E+00  -0.1122750000E-02   0.1061569517E-01   0.0000000000E+00  -0.2655923794E-02   0.1250000002E+00   0.7430866476E-12   0.7438898887E-12   0.5477409513E-15  -0.1878021681E-14  -0.3749195992E-16   0.7557847598E-02  -0.3778673799E-02  -0.3778673799E-02   0.1101847521E-15   0.5464143695E-17  -0.1414149462E-16   0.1250000002E+00
   0.2015115695E+01   0.9962213262E+00   0.9962213262E+00   0.4500000000E-02  -0.1122750000E-02  -0.1122750000E-02   0.1061569517E-01  -0.2655923794E-02  -0.2655923794E-02   0.1250000002E+00   0.1131187906E-11   0.1129307164E-11   0.1229555165E-14   0.1168012356E-14  -0.7485283270E-15   0.7557847597E-02  -0.3778673799E-02  -0.3778673799E-02   0.6386203485E-16  -0.9303758645E-16   0.9511702937E-17   0.1250000002E+00
     1     2     3     4     5     6     7     8
     2     9    10     3     6    11    12     7
 VARIABLES = X,Y,Z,DU1,DU2,DU3,U1,U2,U3,S11,S22,S33,S12,S13,S23,E11,E22,E33,E12,E13,E23,SMISES
 ZONE, T="0.2500D+01" F=FEPOINT, I=   12 J=    2 ET=BRICK
   0.0000000000E+00   0.0000000000E+00   0.0000000000E+00   0.0000000000E+00   0.0000000000E+00   0.0000000000E+00   0.0000000000E+00   0.0000000000E+00   0.0000000000E+00   0.1250000002E+01  -0.2797641309E-11  -0.2797617236E-11   0.4037897743E-16  -0.7995233139E-15  -0.1500852470E-15   0.9807847603E-02  -0.4901423801E-02  -0.4901423801E-02   0.1490257342E-17  -0.2416002349E-16   0.1424687743E-16   0.1250000002E+01
   0.1009807848E+01   0.0000000000E+00  -0.3111430210E-16   0.2250000000E-02   0.0000000000E+00  -0.1222945041E-17   0.7557847587E-02   0.0000000000E+00  -0.2989135705E-16   0.1250000002E+01  -0.3086897978E-11  -0.3087789145E-11   0.2264345100E-15   0.1046892466E-15   0.5148619122E-15   0.9807847603E-02  -0.4901423801E-02  -0.4901423801E-02  -0.5479093057E-17   0.7065653302E-16  -0.1615681846E-16   0.1250000002E+01
   0.1009807848E+01   0.9950985762E+00  -0.3910891927E-16   0.2250000000E-02  -0.1122750000E-02  -0.1312436365E-17   0.7557847587E-02  -0.3778673794E-02  -0.3779648290E-16   0.1250000002E+01  -0.3011447462E-11  -0.3012160139E-11   0.4029830761E-15   0.9415882425E-15   0.2257554553E-15   0.9807847601E-02  -0.4901423801E-02  -0.4901423801E-02  -0.3056510096E-16   0.3691247126E-16   0.2854505099E-16   0.1250000002E+01
   0.0000000000E+00   0.9950985762E+00   0.6673403073E-17   0.0000000000E+00  -0.1122750000E-02  -0.5475267395E-18   0.0000000000E+00  -0.3778673794E-02   0.7220929813E-17   0.1250000002E+01  -0.5302376764E-11  -0.5302783170E-11   0.1988626820E-15  -0.9819608957E-15  -0.5422361676E-15   0.9807847602E-02  -0.4901423801E-02  -0.4901423801E-02  -0.3441237695E-16  -0.6232809526E-16  -0.4799486354E-17   0.1250000002E+01
   0.0000000000E+00   0.0000000000E+00   0.9950985762E+00   0.0000000000E+00   0.0000000000E+00  -0.1122750000E-02   0.0000000000E+00   0.0000000000E+00  -0.3778673794E-02   0.1250000002E+01   0.6251635432E-11   0.6252877058E-11  -0.1631282365E-15  -0.7883222405E-15   0.4837079622E-15   0.9807847602E-02  -0.4901423801E-02  -0.4901423801E-02  -0.1138034339E-17  -0.5556939873E-16  -0.1075482129E-16   0.1250000002E+01
   0.1009807848E+01   0.0000000000E+00   0.9950985762E+00   0.2250000000E-02   0.0000000000E+00  -0.1122750000E-02   0.7557847587E-02   0.0000000000E+00  -0.3778673794E-02   0.1250000002E+01   0.3498505248E-11   0.3498351863E-11  -0.6371128016E-15   0.1575700241E-14  -0.8126266409E-16   0.9807847601E-02  -0.4901423801E-02  -0.4901423801E-02  -0.2337440507E-16   0.4404317776E-16  -0.5274648514E-16   0.1250000002E+01
   0.1009807848E+01   0.9950985762E+00   0.9950985762E+00   0.2250000000E-02  -0.1122750000E-02  -0.1122750000E-02   0.7557847587E-02  -0.3778673794E-02  -0.3778673794E-02   0.1250000002E+01   0.2190600041E-11   0.2191917167E-11  -0.1158215224E-14  -0.6252554623E-15  -0.3182806865E-16   0.9807847600E-02  -0.4901423800E-02  -0.4901423800E-02  -0.2726382927E-16   0.2318789662E-16  -0.1235090352E-16   0.1250000002E+01
   0.0000000000E+00   0.9950985762E+00   0.9950985762E+00   0.0000000000E+00  -0.1122750000E-02  -0.1122750000E-02   0.0000000000E+00  -0.3778673794E-02  -0.3778673794E-02   0.1250000002E+01   0.2914806293E-11   0.2913894941E-11   0.5805235355E-15  -0.8430614658E-15  -0.5842510177E-15   0.9807847601E-02  -0.4901423800E-02  -0.4901423800E-02   0.4303967840E-16  -0.1191546061E-15  -0.2546819609E-16   0.1250000002E+01
   0.2019615695E+01   0.0000000000E+00  -0.1356198166E-15   0.4500000000E-02   0.0000000000E+00  -0.3286773882E-17   0.1511569517E-01   0.0000000000E+00  -0.1323330427E-15   0.1250000002E+01  -0.2273673298E-11  -0.2272889932E-11   0.4524137447E-15   0.5559894890E-15  -0.1904954938E-15   0.9807847602E-02  -0.4901423801E-02  -0.4901423801E-02   0.2511731667E-15   0.2957271333E-16  -0.2198995992E-16   0.1250000002E+01
   0.2019615695E+01   0.9950985762E+00  -0.1464390114E-15   0.4500000000E-02  -0.1122750000E-02  -0.3411305199E-17   0.1511569517E-01  -0.3778673794E-02  -0.1430277062E-15   0.1250000002E+01   0.2864479449E-12   0.2876052096E-12  -0.1403043062E-15  -0.5452717223E-15   0.2277493187E-15   0.9807847601E-02  -0.4901423801E-02  -0.4901423801E-02   0.2388200334E-15  -0.1234762583E-15   0.8892319150E-17   0.1250000002E+01
   0.2019615695E+01   0.0000000000E+00   0.9950985762E+00   0.4500000000E-02   0.0000000000E+00  -0.1122750000E-02   0.1511569517E-01   0.0000000000E+00  -0.3778673794E-02   0.1250000002E+01   0.6194142514E-12   0.6202086032E-12   0.4509185813E-15  -0.1723582935E-14  -0.3946707948E-16   0.9807847601E-02  -0.4901423801E-02  -0.4901423801E-02   0.1096637380E-15  -0.9288063847E-17  -0.1364645645E-16   0.1250000002E+01
   0.2019615695E+01   0.9950985762E+00   0.9950985762E+00   0.4500000000E-02  -0.1122750000E-02  -0.1122750000E-02   0.1511569517E-01  -0.3778673794E-02  -0.3778673794E-02   0.1250000002E+01   0.1267416390E-11   0.1265391630E-11   0.1028908425E-14   0.1175265417E-14  -0.4452586025E-15   0.9807847600E-02  -0.4901423800E-02  -0.4901423800E-02   0.5575027103E-16  -0.8128384265E-16   0.1541677299E-16   0.1250000002E+01
     1     2     3     4     5     6     7     8
     2     9    10     3     6    11    12     7
 VARIABLES = X,Y,Z,DU1,DU2,DU3,U1,U2,U3,S11,S22,S33,S12,S13,S23,E11,E22,E33,E12,E13,E23,SMISES
 ZONE, T="0.2550D+01" F=FEPOINT, I=   12 J=    2 ET=BRICK
   0.0000000000E+00   0.0000000000E+00   0.0000000000E+00   0.0000000000E+00   0.0000000000E+00   0.0000000000E+00   0.0000000000E+00   0.0000000000E+00   0.0000000000E+00   0.2375000004E+01  -0.2423251210E-11  -0.2423167774E-11   0.2959350045E-16  -0.5077806617E-15   0.6914341659E-16   0.1205784761E-01  -0.6024173803E-02  -0.6024173803E-02   0.2973613095E-18  -0.2152667476E-16   0.1555575061E-16   0.2375000004E+01
   0.1012057848E+01   0.0000000000E+00  -0.2767151837E-16   0.2250000000E-02   0.0000000000E+00   0.3442783721E-17   0.9807847587E-02   0.0000000000E+00  -0.3111430210E-16   0.2375000004E+01  -0.2794380363E-11  -0.2795480427E-11   0.2066906790E-15   0.1721244531E-15   0.7212289204E-15   0.1205784761E-01  -0.6024173803E-02  -0.6024173803E-02  -0.5202948560E-17   0.6953088220E-16  -0.1318822895E-16   0.2375000004E+01
   0.1012057848E+01   0.9939758262E+00  -0.3458652608E-16   0.2250000000E-02  -0.1122750000E-02   0.4522393193E-17   0.9807847587E-02  -0.4901423794E-02  -0.3910891927E-16   0.2375000003E+01  -0.2740482616E-11  -0.2741417071E-11   0.3497787856E-15   0.7486875744E-15   0.4692056227E-16   0.1205784760E-01  -0.6024173802E-02  -0.6024173802E-02  -0.2840029020E-16   0.2884034721E-16   0.2298625411E-16   0.2375000003E+01
   0.0000000000E+00   0.9939758262E+00   0.8254408375E-17   0.0000000000E+00  -0.1122750000E-02   0.1581005302E-17   0.0000000000E+00  -0.4901423794E-02   0.6673403073E-17   0.2375000003E+01  -0.5000863585E-11  -0.5001628687E-11   0.1333355469E-15  -0.6672638175E-15  -0.5978601142E-15   0.1205784760E-01  -0.6024173802E-02  -0.6024173802E-02  -0.3775627541E-16  -0.5844975936E-16  -0.3592969407E-17   0.2375000003E+01
   0.0000000000E+00   0.0000000000E+00   0.9939758262E+00   0.0000000000E+00   0.0000000000E+00  -0.1122750000E-02   0.0000000000E+00   0.0000000000E+00  -0.4901423794E-02   0.2375000003E+01   0.5900792739E-11   0.5902716333E-11  -0.1726067824E-15  -0.5602439376E-15   0.6133097262E-15   0.1205784760E-01  -0.6024173802E-02  -0.6024173802E-02  -0.2072587628E-18  -0.5037995245E-16  -0.1092995815E-16   0.2375000003E+01
   0.1012057848E+01   0.0000000000E+00   0.9939758262E+00   0.2250000000E-02   0.0000000000E+00  -0.1122750000E-02   0.9807847587E-02   0.0000000000E+00  -0.4901423794E-02   0.2375000003E+01   0.3196530825E-11   0.3196775910E-11  -0.6502205062E-15   0.1401539619E-14   0.9486625094E-16   0.1205784760E-01  -0.6024173802E-02  -0.6024173802E-02  -0.2745334655E-16   0.4029637645E-16  -0.4954679637E-16   0.2375000003E+01
   0.1012057848E+01   0.9939758262E+00   0.9939758262E+00   0.2250000000E-02  -0.1122750000E-02  -0.1122750000E-02   0.9807847587E-02  -0.4901423794E-02  -0.4901423794E-02   0.2375000003E+01   0.1921401391E-11   0.1923104106E-11  -0.1124497380E-14  -0.6707935781E-15  -0.1663611168E-15   0.1205784760E-01  -0.6024173802E-02  -0.6024173802E-02  -0.3106250167E-16   0.1036050483E-16  -0.9836811832E-17   0.2375000003E+01
   0.0000000000E+00   0.9939758262E+00   0.9939758262E+00   0.0000000000E+00  -0.1122750000E-02  -0.1122750000E-02   0.0000000000E+00  -0.4901423794E-02  -0.4901423794E-02   0.2375000003E+01   0.2463581178E-11   0.2463039313E-11   0.6315224873E-15  -0.4873684454E-15  -0.9293071992E-15   0.1205784760E-01  -0.6024173802E-02  -0.6024173802E-02   0.4464513183E-16  -0.1108888165E-15  -0.3476729699E-16   0.2375000003E+01
   0.2024115695E+01   0.0000000000E+00  -0.1236687012E-15   0.4500000000E-02   0.0000000000E+00   0.1195111537E-16   0.1961569517E-01   0.0000000000E+00  -0.1356198166E-15   0.2375000004E+01  -0.1997589102E-11  -0.1997247699E-11   0.2200006589E-15   0.4253845366E-15  -0.9317051642E-16   0.1205784761E-01  -0.6024173803E-02  -0.6024173803E-02   0.2485019808E-15   0.1299714975E-16  -0.1902288374E-16   0.2375000004E+01
   0.2024115695E+01   0.9939758262E+00  -0.1338509054E-15   0.4500000000E-02  -0.1122750000E-02   0.1258810596E-16   0.1961569517E-01  -0.4901423794E-02  -0.1464390114E-15   0.2375000003E+01   0.5390901127E-12   0.5398646442E-12  -0.1943458295E-15  -0.6562832951E-15  -0.2369480496E-16   0.1205784760E-01  -0.6024173802E-02  -0.6024173802E-02   0.2314122100E-15  -0.1093205886E-15   0.7581896822E-17   0.2375000003E+01
   0.2024115695E+01   0.0000000000E+00   0.9939758262E+00   0.4500000000E-02   0.0000000000E+00  -0.1122750000E-02   0.1961569517E-01   0.0000000000E+00  -0.4901423794E-02   0.2375000003E+01   0.3234111896E-12   0.3245222395E-12   0.8227962826E-15  -0.2261473998E-14   0.3940604640E-16   0.1205784760E-01  -0.6024173802E-02  -0.6024173802E-02   0.1037083299E-15   0.3262474285E-17  -0.1629284207E-16   0.2375000003E+01
   0.2024115695E+01   0.9939758262E+00   0.9939758262E+00   0.4500000000E-02  -0.1122750000E-02  -0.1122750000E-02   0.1961569517E-01  -0.4901423794E-02  -0.4901423794E-02   0.2375000003E+01   0.1082980110E-11   0.1081225700E-11   0.1348511039E-14   0.1400646286E-14  -0.7186091647E-15   0.1205784760E-01  -0.6024173801E-02  -0.6024173801E-02   0.6697288044E-16  -0.7896004751E-16   0.1650830277E-16   0.2375000003E+01
     1     2     3     4     5     6     7     8
     2     9    10     3     6    11    12     7
 VARIABLES = X,Y,Z,DU1,DU2,DU3,U1,U2,U3,S11,S22,S33,S12,S13,S23,E11,E22,E33,E12,E13,E23,SMISES
 ZONE, T="0.2600D+01" F=FEPOINT, I=   12 J=    2 ET=BRICK
   0.0000000000E+00   0.0000000000E+00   0.0000000000E+00   0.0000000000E+00   0.0000000000E+00   0.0000000000E+00   0.0000000000E+00   0.0000000000E+00   0.0000000000E+00   0.3500000005E+01  -0.2457884946E-11  -0.2457874982E-11   0.1868055984E-16  -0.5035608737E-15   0.2792120955E-16   0.1430784761E-01  -0.7146923805E-02  -0.7146923805E-02   0.1922200502E-17  -0.2026127964E-16   0.1421088459E-16   0.3500000005E+01
   0.1014307848E+01   0.0000000000E+00  -0.2821682416E-16   0.2250000000E-02   0.0000000000E+00  -0.5453057846E-18   0.1205784759E-01   0.0000000000E+00  -0.2767151837E-16   0.3500000005E+01  -0.3008506230E-11  -0.3010116053E-11  -0.4181874145E-18  -0.3008846522E-15   0.5260025221E-15   0.1430784761E-01  -0.7146923805E-02  -0.7146923805E-02  -0.9782717889E-17   0.6722524015E-16  -0.1285045468E-16   0.3500000005E+01
   0.1014307848E+01   0.9928530762E+00  -0.3628121837E-16   0.2250000000E-02  -0.1122750000E-02  -0.1694692293E-17   0.1205784759E-01  -0.6024173794E-02  -0.3458652608E-16   0.3500000005E+01  -0.2602805576E-11  -0.2603641161E-11   0.6727445653E-16   0.1080484681E-14  -0.1657109336E-15   0.1430784761E-01  -0.7146923804E-02  -0.7146923804E-02  -0.3115274805E-16   0.3477441782E-16   0.2057319539E-16   0.3500000005E+01
   0.0000000000E+00   0.9928530762E+00   0.7955293035E-17   0.0000000000E+00  -0.1122750000E-02  -0.2991153401E-18   0.0000000000E+00  -0.6024173794E-02   0.8254408375E-17   0.3500000005E+01  -0.5282028319E-11  -0.5283071608E-11   0.4491001702E-15  -0.8681140514E-15  -0.3280972872E-15   0.1430784761E-01  -0.7146923804E-02  -0.7146923804E-02  -0.3172260438E-16  -0.5855234757E-16  -0.9390165303E-18   0.3500000005E+01
   0.0000000000E+00   0.0000000000E+00   0.9928530762E+00   0.0000000000E+00   0.0000000000E+00  -0.1122750000E-02   0.0000000000E+00   0.0000000000E+00  -0.6024173794E-02   0.3500000005E+01   0.5744936922E-11   0.5746220047E-11  -0.1454388525E-15  -0.4298467800E-15   0.6061192477E-15   0.1430784761E-01  -0.7146923804E-02  -0.7146923804E-02  -0.1995054129E-17  -0.5699374490E-16  -0.1205305467E-16   0.3500000005E+01
   0.1014307848E+01   0.0000000000E+00   0.9928530762E+00   0.2250000000E-02   0.0000000000E+00  -0.1122750000E-02   0.1205784759E-01   0.0000000000E+00  -0.6024173794E-02   0.3500000005E+01   0.3266908101E-11   0.3266700931E-11  -0.3784320790E-16   0.7789467648E-15   0.3088300492E-16   0.1430784761E-01  -0.7146923804E-02  -0.7146923804E-02  -0.1376879814E-16   0.4748905843E-16  -0.5326181842E-16   0.3500000005E+01
   0.1014307848E+01   0.9928530762E+00   0.9928530762E+00   0.2250000000E-02  -0.1122750000E-02  -0.1122750000E-02   0.1205784759E-01  -0.6024173794E-02  -0.6024173794E-02   0.3500000005E+01   0.2072570729E-11   0.2074202330E-11  -0.5515603458E-15  -0.1726435739E-15  -0.1728345085E-15   0.1430784761E-01  -0.7146923803E-02  -0.7146923803E-02  -0.2150866769E-16   0.1909235025E-16  -0.9419430923E-17   0.3500000005E+01
   0.0000000000E+00   0.9928530762E+00   0.9928530762E+00   0.0000000000E+00  -0.1122750000E-02  -0.1122750000E-02   0.0000000000E+00  -0.6024173794E-02  -0.6024173794E-02   0.3500000005E+01   0.2846074565E-11   0.2845195282E-11   0.5359689077E-15  -0.6160854187E-15  -0.5301720619E-15   0.1430784761E-01  -0.7146923803E-02  -0.7146923803E-02   0.3970285819E-16  -0.1149273990E-15  -0.1584980961E-16   0.3500000005E+01
   0.2028615695E+01   0.0000000000E+00  -0.1274814898E-15   0.4500000000E-02   0.0000000000E+00  -0.3812788594E-17   0.2411569517E-01   0.0000000000E+00  -0.1236687012E-15   0.3500000005E+01  -0.2567774270E-11  -0.2566828588E-11   0.1268992563E-14   0.1211633087E-14  -0.2430872154E-16   0.1430784761E-01  -0.7146923805E-02  -0.7146923805E-02   0.2691753249E-15   0.5580018121E-16  -0.1972526692E-16   0.3500000005E+01
   0.2028615695E+01   0.9928530762E+00  -0.1373018226E-15   0.4500000000E-02  -0.1122750000E-02  -0.3450917135E-17   0.2411569517E-01  -0.6024173794E-02  -0.1338509054E-15   0.3500000005E+01   0.6474703560E-12   0.6484838967E-12   0.4248354265E-15  -0.1193627516E-14   0.2063284256E-15   0.1430784761E-01  -0.7146923804E-02  -0.7146923804E-02   0.2456703264E-15  -0.1447493795E-15   0.1041366431E-16   0.3500000005E+01
   0.2028615695E+01   0.0000000000E+00   0.9928530762E+00   0.4500000000E-02   0.0000000000E+00  -0.1122750000E-02   0.2411569517E-01   0.0000000000E+00  -0.6024173794E-02   0.3500000005E+01   0.6604920696E-12   0.6617682919E-12   0.5271647427E-15  -0.1408305664E-14   0.2093303031E-16   0.1430784761E-01  -0.7146923804E-02  -0.7146923804E-02   0.9507347724E-16  -0.3947514011E-17  -0.1478211939E-16   0.3500000005E+01
   0.2028615695E+01   0.9928530762E+00   0.9928530762E+00   0.4500000000E-02  -0.1122750000E-02  -0.1122750000E-02   0.2411569517E-01  -0.6024173794E-02  -0.6024173794E-02   0.3500000004E+01   0.7723013991E-12   0.7699610353E-12   0.7744674120E-15   0.9231240255E-15  -0.5566539336E-15   0.1430784761E-01  -0.7146923803E-02  -0.7146923803E-02   0.5454173545E-16  -0.9745223555E-16   0.1512304509E-16   0.3500000004E+01
     1     2     3     4     5     6     7     8
     2     9    10     3     6    11    12     7
 VARIABLES = X,Y,Z,DU1,DU2,DU3,U1,U2,U3,S11,S22,S33,S12,S13,S23,E11,E22,E33,E12,E13,E23,SMISES
 ZONE, T="0.2650D+01" F=FEPOINT, I=   12 J=    2 ET=BRICK
   0.0000000000E+00   0.0000000000E+00   0.0000000000E+00   0.0000000000E+00   0.0000000000E+00   0.0000000000E+00   0.0000000000E+00   0.0000000000E+00   0.0000000000E+00   0.4625000007E+01  -0.3728636794E-11  -0.3728699209E-11  -0.2066515041E-16  -0.1948149203E-14  -0.8500985207E-15   0.1655784761E-01  -0.8269673807E-02  -0.8269673807E-02  -0.7994060598E-18  -0.3875265525E-16   0.7324739083E-17   0.4625000007E+01
   0.1016557848E+01   0.0000000000E+00  -0.3792198049E-16   0.2250000000E-02   0.0000000000E+00  -0.9705156329E-17   0.1430784759E-01   0.0000000000E+00  -0.2821682416E-16   0.4625000007E+01  -0.3320187221E-11  -0.3320953488E-11   0.6490376963E-15   0.4300207046E-15   0.4187943280E-15   0.1655784761E-01  -0.8269673806E-02  -0.8269673806E-02   0.3162307222E-17   0.8318084496E-16  -0.1954691930E-16   0.4625000007E+01
   0.1016557848E+01   0.9917303262E+00  -0.4658957855E-16   0.2250000000E-02  -0.1122750000E-02  -0.1030836018E-16   0.1430784759E-01  -0.7146923794E-02  -0.3628121837E-16   0.4625000007E+01  -0.3250988002E-11  -0.3251069276E-11   0.7535066391E-15   0.1097288797E-14   0.3447635277E-15   0.1655784761E-01  -0.8269673805E-02  -0.8269673805E-02  -0.2316195769E-16   0.4139173054E-16   0.3172479989E-16   0.4625000007E+01
   0.0000000000E+00   0.9917303262E+00   0.2587284957E-17   0.0000000000E+00  -0.1122750000E-02  -0.5368008078E-17   0.0000000000E+00  -0.7146923794E-02   0.7955293035E-17   0.4625000007E+01  -0.5704228085E-11  -0.5704555708E-11   0.3468415046E-15  -0.1181225588E-14  -0.5704615856E-15   0.1655784761E-01  -0.8269673806E-02  -0.8269673806E-02  -0.3185679444E-16  -0.6718017229E-16  -0.5160589177E-17   0.4625000007E+01
   0.0000000000E+00   0.0000000000E+00   0.9917303262E+00   0.0000000000E+00   0.0000000000E+00  -0.1122750000E-02   0.0000000000E+00   0.0000000000E+00  -0.7146923794E-02   0.4625000007E+01   0.6501117454E-11   0.6500885979E-11  -0.1291036008E-15  -0.1113687058E-14   0.3482949454E-15   0.1655784761E-01  -0.8269673806E-02  -0.8269673806E-02  -0.1448497012E-17  -0.5958752756E-16  -0.1405921890E-16   0.4625000007E+01
   0.1016557848E+01   0.0000000000E+00   0.9917303262E+00   0.2250000000E-02   0.0000000000E+00  -0.1122750000E-02   0.1430784759E-01   0.0000000000E+00  -0.7146923794E-02   0.4625000007E+01   0.3780114110E-11   0.3779840539E-11  -0.3058055957E-15   0.1538277573E-14  -0.2141031896E-15   0.1655784761E-01  -0.8269673805E-02  -0.8269673805E-02  -0.2345069151E-16   0.4631254194E-16  -0.5191339600E-16   0.4625000007E+01
   0.1016557848E+01   0.9917303262E+00   0.9917303262E+00   0.2250000000E-02  -0.1122750000E-02  -0.1122750000E-02   0.1430784759E-01  -0.7146923794E-02  -0.7146923794E-02   0.4625000006E+01   0.2628760365E-11   0.2629659432E-11  -0.9671031883E-15  -0.4413757460E-16   0.1919849930E-15   0.1655784761E-01  -0.8269673805E-02  -0.8269673805E-02  -0.3073738405E-16   0.1834536029E-16  -0.6804581090E-17   0.4625000006E+01
   0.0000000000E+00   0.9917303262E+00   0.9917303262E+00   0.0000000000E+00  -0.1122750000E-02  -0.1122750000E-02   0.0000000000E+00  -0.7146923794E-02  -0.7146923794E-02   0.4625000006E+01   0.3773454782E-11   0.3772925434E-11   0.4198216633E-15  -0.1424157161E-14   0.5614613235E-17   0.1655784761E-01  -0.8269673805E-02  -0.8269673805E-02   0.4378316895E-16  -0.1221058764E-15  -0.1456976068E-16   0.4625000006E+01
   0.2033115695E+01   0.0000000000E+00  -0.1521521611E-15   0.4500000000E-02   0.0000000000E+00  -0.2467067124E-16   0.2861569517E-01   0.0000000000E+00  -0.1274814898E-15   0.4625000007E+01  -0.2187024049E-11  -0.2186317278E-11   0.5985252180E-15   0.7102061705E-15  -0.1697768364E-15   0.1655784761E-01  -0.8269673806E-02  -0.8269673806E-02   0.2436557498E-15   0.1087904015E-16  -0.2264921043E-16   0.4625000007E+01
   0.2033115695E+01   0.9917303262E+00  -0.1629025390E-15   0.4500000000E-02  -0.1122750000E-02  -0.2560071647E-16   0.2861569517E-01  -0.7146923794E-02  -0.1373018226E-15   0.4625000006E+01   0.1563898198E-12   0.1577086718E-12   0.8768809496E-16  -0.6762930884E-15   0.9674092187E-17   0.1655784761E-01  -0.8269673805E-02  -0.8269673805E-02   0.2254430983E-15  -0.1153060843E-15   0.7479975497E-17   0.4625000006E+01
   0.2033115695E+01   0.0000000000E+00   0.9917303262E+00   0.4500000000E-02   0.0000000000E+00  -0.1122750000E-02   0.2861569517E-01   0.0000000000E+00  -0.7146923794E-02   0.4625000006E+01   0.3918790402E-12   0.3927171516E-12   0.7391756932E-15  -0.2275820705E-14  -0.3021323629E-16   0.1655784761E-01  -0.8269673805E-02  -0.8269673805E-02   0.1056611885E-15  -0.7672670642E-17  -0.1294869775E-16   0.4625000006E+01
   0.2033115695E+01   0.9917303262E+00   0.9917303262E+00   0.4500000000E-02  -0.1122750000E-02  -0.1122750000E-02   0.2861569517E-01  -0.7146923794E-02  -0.7146923794E-02   0.4625000006E+01   0.1067026355E-11   0.1064869392E-11   0.6506517425E-15   0.1363363519E-14  -0.5977281329E-15   0.1655784761E-01  -0.8269673804E-02  -0.8269673804E-02   0.5979777455E-16  -0.6536268351E-16   0.1907649811E-16   0.4625000006E+01
     1     2     3     4     5     6     7     8
     2     9    10     3     6    11    12     7
 VARIABLES = X,Y,Z,DU1,DU2,DU3,U1,U2,U3,S11,S22,S33,S12,S13,S23,E11,E22,E33,E12,E13,E23,SMISES
 ZONE, T="0.2700D+01" F=FEPOINT, I=   12 J=    2 ET=BRICK
   0.0000000000E+00   0.0000000000E+00   0.0000000000E+00   0.0000000000E+00   0.0000000000E+00   0.0000000000E+00   0.0000000000E+00   0.0000000000E+00   0.0000000000E+00   0.5750000009E+01  -0.2968990676E-11  -0.2969627986E-11   0.1296445392E-18  -0.1077626641E-14  -0.3771703629E-15   0.1880784762E-01  -0.9392423808E-02  -0.9392423808E-02  -0.2651838904E-17  -0.2840783920E-16   0.1042026562E-16   0.5750000009E+01
   0.1018807848E+01   0.0000000000E+00  -0.3040442663E-16   0.2250000000E-02   0.0000000000E+00   0.7517553858E-17   0.1655784759E-01   0.0000000000E+00  -0.3792198049E-16   0.5750000009E+01  -0.2825112228E-11  -0.2827036258E-11   0.1069011358E-14   0.5912504169E-15   0.5870916977E-15   0.1880784762E-01  -0.9392423808E-02  -0.9392423808E-02   0.1660685941E-16   0.8162182475E-16  -0.1711409834E-16   0.5750000009E+01
   0.1018807848E+01   0.9906075762E+00  -0.3814909123E-16   0.2250000000E-02  -0.1122750000E-02   0.8440487324E-17   0.1655784759E-01  -0.8269673794E-02  -0.4658957855E-16   0.5750000008E+01  -0.2501370746E-11  -0.2502084420E-11   0.1168549702E-14  -0.1171980295E-16  -0.1925786259E-15   0.1880784761E-01  -0.9392423807E-02  -0.9392423807E-02  -0.1072762958E-16   0.1302555211E-16   0.2840790364E-16   0.5750000008E+01
   0.0000000000E+00   0.9906075762E+00   0.5490911626E-17   0.0000000000E+00  -0.1122750000E-02   0.2903626669E-17   0.0000000000E+00  -0.8269673794E-02   0.2587284957E-17   0.5750000008E+01  -0.4850687502E-11  -0.4852185769E-11   0.6330244683E-15  -0.7037024960E-15  -0.8230296204E-15   0.1880784761E-01  -0.9392423807E-02  -0.9392423807E-02  -0.3107044694E-16  -0.5765722973E-16  -0.7185148941E-17   0.5750000008E+01
   0.0000000000E+00   0.0000000000E+00   0.9906075762E+00   0.0000000000E+00   0.0000000000E+00  -0.1122750000E-02   0.0000000000E+00   0.0000000000E+00  -0.8269673794E-02   0.5750000008E+01   0.5824161505E-11   0.5824884075E-11  -0.1481692156E-15  -0.1887702119E-15   0.5013911898E-15   0.1880784761E-01  -0.9392423807E-02  -0.9392423807E-02  -0.7001304127E-18  -0.5448303092E-16  -0.3138825176E-17   0.5750000008E+01
   0.1018807848E+01   0.0000000000E+00   0.9906075762E+00   0.2250000000E-02   0.0000000000E+00  -0.1122750000E-02   0.1655784759E-01   0.0000000000E+00  -0.8269673794E-02   0.5750000008E+01   0.3174053420E-11   0.3174179316E-11  -0.9507629995E-15   0.1794515922E-14   0.3412269593E-16   0.1880784761E-01  -0.9392423807E-02  -0.9392423807E-02  -0.2570816721E-16   0.6076192986E-16  -0.4643216162E-16   0.5750000008E+01
   0.1018807848E+01   0.9906075762E+00   0.9906075762E+00   0.2250000000E-02  -0.1122750000E-02  -0.1122750000E-02   0.1655784759E-01  -0.8269673794E-02  -0.8269673794E-02   0.5750000008E+01   0.2114583400E-11   0.2116407297E-11  -0.1382229321E-14  -0.6951409963E-15  -0.1695361276E-15   0.1880784761E-01  -0.9392423806E-02  -0.9392423806E-02  -0.3649260739E-16   0.1635944707E-16  -0.7195103429E-17   0.5750000008E+01
   0.0000000000E+00   0.9906075762E+00   0.9906075762E+00   0.0000000000E+00  -0.1122750000E-02  -0.1122750000E-02   0.0000000000E+00  -0.8269673794E-02  -0.8269673794E-02   0.5750000008E+01   0.2459372509E-11   0.2459201456E-11   0.7340699855E-15  -0.4173953194E-15  -0.6808829433E-15   0.1880784761E-01  -0.9392423806E-02  -0.9392423806E-02   0.5046079542E-16  -0.1088871132E-15  -0.3731435768E-16   0.5750000008E+01
   0.2037615695E+01   0.0000000000E+00  -0.1282689323E-15   0.4500000000E-02   0.0000000000E+00   0.2388322878E-16   0.3311569517E-01   0.0000000000E+00  -0.1521521611E-15   0.5750000009E+01  -0.2222628329E-11  -0.2221419966E-11   0.1451530292E-14   0.8179389927E-15   0.4637267585E-17   0.1880784762E-01  -0.9392423808E-02  -0.9392423808E-02   0.2468094627E-15   0.1821781737E-16  -0.1738288056E-16   0.5750000009E+01
   0.2037615695E+01   0.9906075762E+00  -0.1378397330E-15   0.4500000000E-02  -0.1122750000E-02   0.2506280607E-16   0.3311569517E-01  -0.8269673794E-02  -0.1629025390E-15   0.5750000008E+01   0.3738612863E-12   0.3759959387E-12   0.3726757469E-15  -0.1039673551E-14   0.3161606093E-15   0.1880784761E-01  -0.9392423807E-02  -0.9392423807E-02   0.2334983136E-15  -0.1234883344E-15   0.7098660043E-17   0.5750000008E+01
   0.2037615695E+01   0.0000000000E+00   0.9906075762E+00   0.4500000000E-02   0.0000000000E+00  -0.1122750000E-02   0.3311569517E-01   0.0000000000E+00  -0.8269673794E-02   0.5750000008E+01  -0.2927600906E-13  -0.2834918653E-13   0.5695009934E-15  -0.1566974069E-14   0.4200916424E-15   0.1880784761E-01  -0.9392423807E-02  -0.9392423807E-02   0.9900750428E-16   0.1288303409E-16  -0.1188739812E-16   0.5750000008E+01
   0.2037615695E+01   0.9906075762E+00   0.9906075762E+00   0.4500000000E-02  -0.1122750000E-02  -0.1122750000E-02   0.3311569517E-01  -0.8269673794E-02  -0.8269673794E-02   0.5750000007E+01   0.1305804545E-11   0.1304050499E-11   0.9779932459E-15   0.1141659153E-14  -0.1675672840E-15   0.1880784761E-01  -0.9392423806E-02  -0.9392423806E-02   0.3724513151E-16  -0.1017586937E-15   0.2412941784E-16   0.5750000007E+01
     1     2     3     4     5     6     7     8
     2     9    10     3     6    11    12     7
 VARIABLES = X,Y,Z,DU1,DU2,DU3,U1,U2,U3,S11,S22,S33,S12,S13,S23,E11,E22,E33,E12,E13,E23,SMISES
 ZONE, T="0.2750D+01" F=FEPOINT, I=   12 J=    2 ET=BRICK
   0.0000000000E+00   0.0000000000E+00   0.0000000000E+00   0.0000000000E+00   0.0000000000E+00   0.0000000000E+00   0.0000000000E+00   0.0000000000E+00   0.0000000000E+00   0.6875000011E+01  -0.3616181937E-11  -0.3617176084E-11  -0.5164870928E-17  -0.1662674650E-14  -0.3260904296E-15   0.2105784762E-01  -0.1051517381E-01  -0.1051517381E-01   0.7835078802E-18  -0.3350379031E-16   0.1063193484E-16   0.6875000011E+01
   0.1021057848E+01   0.0000000000E+00  -0.3521809030E-16   0.2250000000E-02   0.0000000000E+00  -0.4813663674E-17   0.1880784759E-01   0.0000000000E+00  -0.3040442663E-16   0.6875000011E+01  -0.2874902606E-11  -0.2875324918E-11   0.7836088364E-15   0.7723355889E-15   0.6968117244E-15   0.2105784762E-01  -0.1051517381E-01  -0.1051517381E-01   0.1088729504E-16   0.8116651472E-16  -0.1385167526E-16   0.6875000011E+01
   0.1021057848E+01   0.9894848262E+00  -0.4221459236E-16   0.2250000000E-02  -0.1122750000E-02  -0.4065501129E-17   0.1880784759E-01  -0.9392423794E-02  -0.3814909123E-16   0.6875000010E+01  -0.3098765497E-11  -0.3099534682E-11   0.1126299607E-14   0.9001569429E-15   0.5282183507E-16   0.2105784762E-01  -0.1051517381E-01  -0.1051517381E-01  -0.1055948828E-16   0.3874633728E-16   0.3235408717E-16   0.6875000010E+01
   0.0000000000E+00   0.9894848262E+00   0.5654450567E-17   0.0000000000E+00  -0.1122750000E-02   0.1635389409E-18   0.0000000000E+00  -0.9392423794E-02   0.5490911626E-17   0.6875000010E+01  -0.5322160082E-11  -0.5322736971E-11   0.1957437629E-15  -0.1127811708E-14  -0.4704389159E-15   0.2105784762E-01  -0.1051517381E-01  -0.1051517381E-01  -0.3621654248E-16  -0.6697918657E-16  -0.8183295868E-17   0.6875000010E+01
   0.0000000000E+00   0.0000000000E+00   0.9894848262E+00   0.0000000000E+00   0.0000000000E+00  -0.1122750000E-02   0.0000000000E+00   0.0000000000E+00  -0.9392423794E-02   0.6875000010E+01   0.6456825545E-11   0.6457908937E-11  -0.1585698327E-15  -0.9286851431E-15   0.5481980879E-15   0.2105784762E-01  -0.1051517381E-01  -0.1051517381E-01  -0.1024154043E-18  -0.5452190867E-16  -0.3253141196E-17   0.6875000010E+01
   0.1021057848E+01   0.0000000000E+00   0.9894848262E+00   0.2250000000E-02   0.0000000000E+00  -0.1122750000E-02   0.1880784759E-01   0.0000000000E+00  -0.9392423794E-02   0.6875000010E+01   0.3483476279E-11   0.3484001643E-11  -0.4733955750E-15   0.2030130494E-14  -0.3181182349E-16   0.2105784762E-01  -0.1051517381E-01  -0.1051517381E-01  -0.2214197348E-16   0.6264743998E-16  -0.5273038568E-16   0.6875000010E+01
   0.1021057848E+01   0.9894848262E+00   0.9894848262E+00   0.2250000000E-02  -0.1122750000E-02  -0.1122750000E-02   0.1880784759E-01  -0.9392423794E-02  -0.9392423794E-02   0.6875000009E+01   0.1983283684E-11   0.1985103595E-11  -0.8841423490E-15   0.7037860700E-16  -0.1220626707E-15   0.2105784761E-01  -0.1051517381E-01  -0.1051517381E-01  -0.2248760909E-16   0.1100504526E-16  -0.3673212674E-17   0.6875000009E+01
   0.0000000000E+00   0.9894848262E+00   0.9894848262E+00   0.0000000000E+00  -0.1122750000E-02  -0.1122750000E-02   0.0000000000E+00  -0.9392423794E-02  -0.9392423794E-02   0.6875000009E+01   0.3538266471E-11   0.3537792634E-11   0.6990299162E-16  -0.1342900533E-14  -0.2635646380E-15   0.2105784762E-01  -0.1051517381E-01  -0.1051517381E-01   0.4442046795E-16  -0.1175066132E-15  -0.2335052572E-16   0.6875000009E+01
   0.2042115695E+01   0.0000000000E+00  -0.1432592193E-15   0.4500000000E-02   0.0000000000E+00  -0.1499028702E-16   0.3761569517E-01   0.0000000000E+00  -0.1282689323E-15   0.6875000010E+01  -0.1054044672E-11  -0.1054025812E-11  -0.4180434446E-15  -0.8678812796E-16   0.2281427074E-15   0.2105784762E-01  -0.1051517381E-01  -0.1051517381E-01   0.2330740264E-15   0.2571103568E-16  -0.1744141089E-16   0.6875000010E+01
   0.2042115695E+01   0.9894848262E+00  -0.1514535778E-15   0.4500000000E-02  -0.1122750000E-02  -0.1361384483E-16   0.3761569517E-01  -0.9392423794E-02  -0.1378397330E-15   0.6875000010E+01   0.2148308213E-12   0.2156892511E-12  -0.5425536092E-15  -0.1061393723E-14   0.3361793938E-15   0.2105784762E-01  -0.1051517381E-01  -0.1051517381E-01   0.2242514476E-15  -0.1391975382E-15   0.8374539270E-17   0.6875000010E+01
   0.2042115695E+01   0.0000000000E+00   0.9894848262E+00   0.4500000000E-02   0.0000000000E+00  -0.1122750000E-02   0.3761569517E-01   0.0000000000E+00  -0.9392423794E-02   0.6875000010E+01   0.5198598598E-12   0.5203148375E-12  -0.8053198643E-15  -0.2516324372E-14  -0.1240463300E-16   0.2105784762E-01  -0.1051517381E-01  -0.1051517381E-01   0.7731461748E-16  -0.1814644165E-16  -0.1059927290E-16   0.6875000010E+01
   0.2042115695E+01   0.9894848262E+00   0.9894848262E+00   0.4500000000E-02  -0.1122750000E-02  -0.1122750000E-02   0.3761569517E-01  -0.9392423794E-02  -0.9392423794E-02   0.6875000009E+01   0.4740399725E-12   0.4713616313E-12   0.3403035288E-15   0.6031134253E-15  -0.8348430038E-15   0.2105784761E-01  -0.1051517381E-01  -0.1051517381E-01   0.4649496172E-16  -0.9297780101E-16   0.3680934217E-17   0.6875000009E+01
     1     2     3     4     5     6     7     8
     2     9    10     3     6    11    12     7
 VARIABLES = X,Y,Z,DU1,DU2,DU3,U1,U2,U3,S11,S22,S33,S12,S13,S23,E11,E22,E33,E12,E13,E23,SMISES
 ZONE, T="0.2800D+01" F=FEPOINT, I=   12 J=    2 ET=BRICK
   0.0000000000E+00   0.0000000000E+00   0.0000000000E+00   0.0000000000E+00   0.0000000000E+00   0.0000000000E+00   0.0000000000E+00   0.0000000000E+00   0.0000000000E+00   0.8000000013E+01  -0.3431099702E-11  -0.3430950961E-11  -0.1282703408E-16  -0.1036425602E-14  -0.1523507086E-15   0.2330784762E-01  -0.1163792381E-01  -0.1163792381E-01   0.1039953725E-17  -0.3051939370E-16   0.1388169833E-16   0.8000000013E+01
   0.1023307848E+01   0.0000000000E+00  -0.3409067415E-16   0.2250000000E-02   0.0000000000E+00   0.1127416159E-17   0.2105784759E-01   0.0000000000E+00  -0.3521809030E-16   0.8000000012E+01  -0.3638227120E-11  -0.3638346113E-11   0.8295483831E-15   0.9152795944E-15   0.1877327514E-15   0.2330784762E-01  -0.1163792381E-01  -0.1163792381E-01   0.6544603501E-17   0.9315529860E-16  -0.2324459033E-16   0.8000000012E+01
   0.1023307848E+01   0.9883620762E+00  -0.4410187726E-16   0.2250000000E-02  -0.1122750000E-02  -0.1887284908E-17   0.2105784759E-01  -0.1051517379E-01  -0.4221459236E-16   0.8000000011E+01  -0.3259720144E-11  -0.3260570603E-11   0.8493814405E-15   0.3524265020E-15  -0.4199655709E-16   0.2330784762E-01  -0.1163792381E-01  -0.1163792381E-01  -0.1676070637E-16   0.3551808995E-16   0.3686657709E-16   0.8000000011E+01
   0.0000000000E+00   0.9883620762E+00   0.6888888586E-17   0.0000000000E+00  -0.1122750000E-02   0.1234438018E-17   0.0000000000E+00  -0.1051517379E-01   0.5654450567E-17   0.8000000012E+01  -0.5627609520E-11  -0.5629337269E-11   0.2037112433E-15  -0.1442202766E-14  -0.8020855697E-16   0.2330784762E-01  -0.1163792381E-01  -0.1163792381E-01  -0.3860794079E-16  -0.7069393290E-16  -0.5527129812E-17   0.8000000012E+01
   0.0000000000E+00   0.0000000000E+00   0.9883620762E+00   0.0000000000E+00   0.0000000000E+00  -0.1122750000E-02   0.0000000000E+00   0.0000000000E+00  -0.1051517379E-01   0.8000000012E+01   0.6874059542E-11   0.6875375867E-11  -0.1718699722E-15  -0.1093960451E-14   0.2329588731E-15   0.2330784762E-01  -0.1163792381E-01  -0.1163792381E-01   0.9801232546E-18  -0.6734135223E-16  -0.5696818691E-17   0.8000000012E+01
   0.1023307848E+01   0.0000000000E+00   0.9883620762E+00   0.2250000000E-02   0.0000000000E+00  -0.1122750000E-02   0.2105784759E-01   0.0000000000E+00  -0.1051517379E-01   0.8000000011E+01   0.3841604933E-11   0.3840613703E-11  -0.6959033928E-15   0.1629848415E-14  -0.2906204618E-15   0.2330784762E-01  -0.1163792381E-01  -0.1163792381E-01  -0.2835206992E-16   0.5371307653E-16  -0.5332566555E-16   0.8000000011E+01
   0.1023307848E+01   0.9883620762E+00   0.9883620762E+00   0.2250000000E-02  -0.1122750000E-02  -0.1122750000E-02   0.2105784759E-01  -0.1051517379E-01  -0.1051517379E-01   0.8000000010E+01   0.2402215492E-11   0.2403954129E-11  -0.1172138245E-14  -0.2387453676E-15   0.1810894019E-16   0.2330784762E-01  -0.1163792381E-01  -0.1163792381E-01  -0.2535751109E-16   0.9927098196E-17  -0.3454445252E-17   0.8000000010E+01
   0.0000000000E+00   0.9883620762E+00   0.9883620762E+00   0.0000000000E+00  -0.1122750000E-02  -0.1122750000E-02   0.0000000000E+00  -0.1051517379E-01  -0.1051517379E-01   0.8000000011E+01   0.3408858980E-11   0.3408566550E-11   0.2784297135E-15  -0.1563881944E-14  -0.4638306105E-15   0.2330784762E-01  -0.1163792381E-01  -0.1163792381E-01   0.4528266016E-16  -0.1205946266E-15  -0.2568399144E-16   0.8000000011E+01
   0.2046615695E+01   0.0000000000E+00  -0.1520898943E-15   0.4500000000E-02   0.0000000000E+00  -0.8830675000E-17   0.4211569517E-01   0.0000000000E+00  -0.1432592193E-15   0.8000000012E+01  -0.2558827265E-11  -0.2559344657E-11   0.1471448771E-14   0.1324080832E-14   0.3286406036E-16   0.2330784762E-01  -0.1163792381E-01  -0.1163792381E-01   0.2422657195E-15  -0.8447121818E-17  -0.1732684889E-16   0.8000000012E+01
   0.2046615695E+01   0.9883620762E+00  -0.1614024709E-15   0.4500000000E-02  -0.1122750000E-02  -0.9948893128E-17   0.4211569517E-01  -0.1051517379E-01  -0.1514535778E-15   0.8000000011E+01   0.7891411323E-13   0.8173614254E-13   0.9026024602E-15  -0.1315605951E-14   0.7607773865E-15   0.2330784762E-01  -0.1163792381E-01  -0.1163792381E-01   0.2348794762E-15  -0.9511336470E-16   0.3839663046E-17   0.8000000011E+01
   0.2046615695E+01   0.0000000000E+00   0.9883620762E+00   0.4500000000E-02   0.0000000000E+00  -0.1122750000E-02   0.4211569517E-01   0.0000000000E+00  -0.1051517379E-01   0.8000000011E+01   0.9698766061E-12   0.9707052875E-12  -0.1102154336E-14  -0.8475944876E-15   0.2201231486E-15   0.2330784762E-01  -0.1163792381E-01  -0.1163792381E-01   0.7875889189E-16   0.2964751795E-16  -0.1127833821E-16   0.8000000011E+01
   0.2046615695E+01   0.9883620762E+00   0.9883620762E+00   0.4500000000E-02  -0.1122750000E-02  -0.1122750000E-02   0.4211569517E-01  -0.1051517379E-01  -0.1051517379E-01   0.8000000010E+01   0.1265898997E-11   0.1262876701E-11  -0.3330905655E-15   0.7393435940E-15  -0.8767468839E-16   0.2330784762E-01  -0.1163792381E-01  -0.1163792381E-01   0.3086722709E-16  -0.9848923502E-16   0.1378891573E-16   0.8000000010E+01
     1     2     3     4     5     6     7     8
     2     9    10     3     6    11    12     7
 VARIABLES = X,Y,Z,DU1,DU2,DU3,U1,U2,U3,S11,S22,S33,S12,S13,S23,E11,E22,E33,E12,E13,E23,SMISES
 ZONE, T="0.2850D+01" F=FEPOINT, I=   12 J=    2 ET=BRICK
   0.0000000000E+00   0.0000000000E+00   0.0000000000E+00   0.0000000000E+00   0.0000000000E+00   0.0000000000E+00   0.0000000000E+00   0.0000000000E+00   0.0000000000E+00   0.9125000014E+01  -0.3504087832E-11  -0.3504166579E-11  -0.1556763253E-16  -0.1217526423E-14  -0.6136253873E-15   0.2555784763E-01  -0.1276067381E-01  -0.1276067381E-01   0.3174585945E-18  -0.2711077621E-16   0.5429922282E-17   0.9125000014E+01
   0.1025557848E+01   0.0000000000E+00  -0.3325833055E-16   0.2250000000E-02   0.0000000000E+00   0.8323435901E-18   0.2330784759E-01   0.0000000000E+00  -0.3409067415E-16   0.9125000014E+01  -0.3320093281E-11  -0.3320282660E-11   0.1116588725E-14   0.1003821752E-14   0.3128414563E-15   0.2555784763E-01  -0.1276067381E-01  -0.1276067381E-01   0.1625576530E-16   0.9855438589E-16  -0.1626180532E-16   0.9125000014E+01
   0.1025557848E+01   0.9872393262E+00  -0.4237252235E-16   0.2250000000E-02  -0.1122750000E-02   0.1729354918E-17   0.2330784759E-01  -0.1163792379E-01  -0.4410187726E-16   0.9125000013E+01  -0.3020988776E-11  -0.3022101917E-11   0.1001796824E-14  -0.2286648640E-15   0.2467822481E-15   0.2555784762E-01  -0.1276067381E-01  -0.1276067381E-01  -0.1353491957E-16   0.2419428351E-16   0.2432249781E-16   0.9125000013E+01
   0.0000000000E+00   0.9872393262E+00   0.4182181410E-17   0.0000000000E+00  -0.1122750000E-02  -0.2706707175E-17   0.0000000000E+00  -0.1163792379E-01   0.6888888586E-17   0.9125000013E+01  -0.5118471008E-11  -0.5119087075E-11   0.4506441929E-15  -0.7503050033E-15  -0.6119792829E-15   0.2555784762E-01  -0.1276067381E-01  -0.1276067381E-01  -0.3369846238E-16  -0.6534584520E-16  -0.3968819563E-17   0.9125000013E+01
   0.0000000000E+00   0.0000000000E+00   0.9872393262E+00   0.0000000000E+00   0.0000000000E+00  -0.1122750000E-02   0.0000000000E+00   0.0000000000E+00  -0.1163792379E-01   0.9125000013E+01   0.6682535383E-11   0.6683912663E-11  -0.1768453114E-15  -0.7738306900E-15   0.2868612965E-15   0.2555784762E-01  -0.1276067381E-01  -0.1276067381E-01  -0.1976498882E-17  -0.6594281005E-16  -0.9317129733E-17   0.9125000013E+01
   0.1025557848E+01   0.0000000000E+00   0.9872393262E+00   0.2250000000E-02   0.0000000000E+00  -0.1122750000E-02   0.2330784759E-01   0.0000000000E+00  -0.1163792379E-01   0.9125000013E+01   0.3630482359E-11   0.3629509989E-11  -0.1166898078E-14   0.1887319560E-14  -0.2293553621E-15   0.2555784762E-01  -0.1276067381E-01  -0.1276067381E-01  -0.2768873481E-16   0.6182572812E-16  -0.4924886003E-16   0.9125000013E+01
   0.1025557848E+01   0.9872393262E+00   0.9872393262E+00   0.2250000000E-02  -0.1122750000E-02  -0.1122750000E-02   0.2330784759E-01  -0.1163792379E-01  -0.1163792379E-01   0.9125000012E+01   0.2545099675E-11   0.2546908697E-11  -0.1629593239E-14  -0.9333813003E-15   0.1011484302E-15   0.2555784762E-01  -0.1276067381E-01  -0.1276067381E-01  -0.2253263195E-16   0.9325728134E-17   0.7251729557E-17   0.9125000012E+01
   0.0000000000E+00   0.9872393262E+00   0.9872393262E+00   0.0000000000E+00  -0.1122750000E-02  -0.1122750000E-02   0.0000000000E+00  -0.1163792379E-01  -0.1163792379E-01   0.9125000012E+01   0.2774558182E-11   0.2773967878E-11   0.6048232306E-15  -0.1122321171E-14  -0.5722465094E-15   0.2555784762E-01  -0.1276067381E-01  -0.1276067381E-01   0.4585557292E-16  -0.1180135618E-15  -0.3966379516E-16   0.9125000012E+01
   0.2051115695E+01   0.0000000000E+00  -0.1425366043E-15   0.4500000000E-02   0.0000000000E+00   0.9553290060E-17   0.4661569517E-01   0.0000000000E+00  -0.1520898943E-15   0.9125000014E+01  -0.2388136508E-11  -0.2387901048E-11   0.1123386350E-14   0.9246360012E-15  -0.2369834525E-15   0.2555784763E-01  -0.1276067381E-01  -0.1276067381E-01   0.2558085132E-15   0.4494921345E-16  -0.2601774208E-16   0.9125000014E+01
   0.2051115695E+01   0.9872393262E+00  -0.1534656544E-15   0.4500000000E-02  -0.1122750000E-02   0.7936816526E-17   0.4661569517E-01  -0.1163792379E-01  -0.1614024709E-15   0.9125000013E+01  -0.1667411032E-12  -0.1630700737E-12   0.1630090187E-15  -0.7232937004E-15   0.6366006977E-15   0.2555784762E-01  -0.1276067381E-01  -0.1276067381E-01   0.2486906522E-15  -0.1235545304E-15   0.2596325829E-16   0.9125000013E+01
   0.2051115695E+01   0.0000000000E+00   0.9872393262E+00   0.4500000000E-02   0.0000000000E+00  -0.1122750000E-02   0.4661569517E-01   0.0000000000E+00  -0.1163792379E-01   0.9125000013E+01   0.2001029245E-12   0.2007298800E-12   0.6796531836E-15  -0.1980411511E-14  -0.4065189521E-16   0.2555784762E-01  -0.1276067381E-01  -0.1276067381E-01   0.9157076811E-16  -0.3061849467E-16  -0.1557045956E-16   0.9125000013E+01
   0.2051115695E+01   0.9872393262E+00   0.9872393262E+00   0.4500000000E-02  -0.1122750000E-02  -0.1122750000E-02   0.4661569517E-01  -0.1163792379E-01  -0.1163792379E-01   0.9125000012E+01   0.1973808632E-11   0.1970558846E-11   0.9899251451E-15   0.1524863571E-14  -0.2069023101E-15   0.2555784762E-01  -0.1276067381E-01  -0.1276067381E-01   0.4292167777E-16  -0.6903274048E-16   0.2432388608E-17   0.9125000012E+01
     1     2     3     4     5     6     7     8
     2     9    10     3     6    11    12     7
 VARIABLES = X,Y,Z,DU1,DU2,DU3,U1,U2,U3,S11,S22,S33,S12,S13,S23,E11,E22,E33,E12,E13,E23,SMISES
 ZONE, T="0.2900D+01" F=FEPOINT, I=   12 J=    2 ET=BRICK
   0.0000000000E+00   0.0000000000E+00   0.0000000000E+00   0.0000000000E+00   0.0000000000E+00   0.0000000000E+00   0.0000000000E+00   0.0000000000E+00   0.0000000000E+00   0.1024999973E+02   0.1434297300E-06   0.1434297312E-06  -0.2810104380E-16  -0.2742661940E-14  -0.4409584815E-16   0.3288418295E-01  -0.1642159147E-01  -0.1642159147E-01   0.6711979036E-18  -0.5461872415E-16   0.1870399187E-16   0.1024999959E+02
   0.1032884183E+01   0.0000000000E+00  -0.5179520848E-16   0.7326335306E-02   0.0000000000E+00  -0.1853687793E-16   0.2555784759E-01   0.0000000000E+00  -0.3325833055E-16   0.1024999973E+02   0.1434284410E-06   0.1434284438E-06  -0.2365864488E-14  -0.2447774467E-14   0.8185024366E-15   0.3288418294E-01  -0.1642159147E-01  -0.1642159147E-01  -0.3409632968E-16   0.2963517190E-16  -0.1198696680E-16   0.1024999959E+02
   0.1032884183E+01   0.9835784086E+00  -0.5678025350E-16   0.7326335306E-02  -0.3660917653E-02  -0.1440773115E-16   0.2555784759E-01  -0.1276067379E-01  -0.4237252235E-16   0.1024999973E+02   0.1434285245E-06   0.1434285235E-06  -0.1095167317E-14   0.3375419595E-14   0.1185973874E-14   0.3288418294E-01  -0.1642159147E-01  -0.1642159147E-01  -0.4528995372E-16   0.7267822190E-16   0.4605138557E-16   0.1024999958E+02
   0.0000000000E+00   0.9835784086E+00   0.6787558646E-17   0.0000000000E+00  -0.3660917653E-02   0.2605377235E-17   0.0000000000E+00  -0.1276067379E-01   0.4182181410E-17   0.1024999973E+02   0.1434244860E-06   0.1434244863E-06  -0.4253306525E-15  -0.2386006680E-14   0.6873347158E-15   0.3288418294E-01  -0.1642159147E-01  -0.1642159147E-01  -0.4833872599E-16  -0.9078516955E-16  -0.1697660976E-17   0.1024999958E+02
   0.0000000000E+00   0.0000000000E+00   0.9835784086E+00   0.0000000000E+00   0.0000000000E+00  -0.3660917653E-02   0.0000000000E+00   0.0000000000E+00  -0.1276067379E-01   0.1024999973E+02   0.1434400929E-06   0.1434400926E-06  -0.1267649191E-15  -0.2341352322E-14   0.1743286926E-15   0.3288418294E-01  -0.1642159147E-01  -0.1642159147E-01   0.1810668847E-17  -0.7831947556E-16  -0.1863324089E-16   0.1024999958E+02
   0.1032884183E+01   0.0000000000E+00   0.9835784086E+00   0.7326335306E-02   0.0000000000E+00  -0.3660917653E-02   0.2555784759E-01   0.0000000000E+00  -0.1276067379E-01   0.1024999973E+02   0.1434378137E-06   0.1434378142E-06   0.1887802513E-14  -0.4775042407E-15  -0.4309970892E-15   0.3288418294E-01  -0.1642159147E-01  -0.1642159147E-01   0.1033489679E-16  -0.1409199467E-17  -0.5702697213E-16   0.1024999958E+02
   0.1032884183E+01   0.9835784086E+00   0.9835784086E+00   0.7326335306E-02  -0.3660917653E-02  -0.3660917653E-02   0.2555784759E-01  -0.1276067379E-01  -0.1276067379E-01   0.1024999973E+02   0.1434349952E-06   0.1434349960E-06   0.1270590390E-14   0.3296447881E-14   0.3264037428E-15   0.3288418294E-01  -0.1642159147E-01  -0.1642159147E-01   0.2070283717E-16   0.8235619938E-16   0.7141659372E-18   0.1024999958E+02
   0.0000000000E+00   0.9835784086E+00   0.9835784086E+00   0.0000000000E+00  -0.3660917653E-02  -0.3660917653E-02   0.0000000000E+00  -0.1276067379E-01  -0.1276067379E-01   0.1024999973E+02   0.1434391677E-06   0.1434391655E-06  -0.9364697051E-16  -0.2908748612E-14   0.6304611923E-15   0.3288418294E-01  -0.1642159147E-01  -0.1642159147E-01   0.4132032947E-16  -0.1518950586E-15  -0.3007400980E-18   0.1024999958E+02
   0.2065768366E+01   0.0000000000E+00  -0.2001995653E-15   0.1465267061E-01   0.0000000000E+00  -0.5766296107E-16   0.5111569517E-01   0.0000000000E+00  -0.1425366043E-15   0.1024999973E+02   0.1434302161E-06   0.1434302145E-06   0.1646467465E-14   0.1901571156E-14   0.6661492986E-15   0.3288418294E-01  -0.1642159147E-01  -0.1642159147E-01   0.2655226390E-15   0.2711891188E-16  -0.9886592028E-17   0.1024999959E+02
   0.2065768366E+01   0.9835784086E+00  -0.2049613985E-15   0.1465267061E-01  -0.3660917653E-02  -0.5149574405E-16   0.5111569517E-01  -0.1276067379E-01  -0.1534656544E-15   0.1024999973E+02   0.1434362834E-06   0.1434362831E-06   0.4838260358E-14  -0.4104573787E-14  -0.1493146609E-14   0.3288418294E-01  -0.1642159147E-01  -0.1642159147E-01   0.3058108391E-15  -0.1635770175E-15  -0.2280938915E-16   0.1024999958E+02
   0.2065768366E+01   0.0000000000E+00   0.9835784086E+00   0.1465267061E-01   0.0000000000E+00  -0.3660917653E-02   0.5111569517E-01   0.0000000000E+00  -0.1276067379E-01   0.1024999973E+02   0.1434359522E-06   0.1434359555E-06  -0.3013733295E-14   0.2496460319E-15   0.5462334277E-15   0.3288418294E-01  -0.1642159147E-01  -0.1642159147E-01   0.3774741453E-16   0.9081497585E-16  -0.1694354988E-17   0.1024999958E+02
   0.2065768366E+01   0.9835784086E+00   0.9835784086E+00   0.1465267061E-01  -0.3660917653E-02  -0.3660917653E-02   0.5111569517E-01  -0.1276067379E-01  -0.1276067379E-01   0.1024999973E+02   0.1434319177E-06   0.1434319196E-06  -0.3041683977E-14  -0.5998355413E-16  -0.1916337749E-14   0.3288418294E-01  -0.1642159147E-01  -0.1642159147E-01  -0.1355700463E-16  -0.1393334836E-15  -0.1958029558E-16   0.1024999958E+02
     1     2     3     4     5     6     7     8
     2     9    10     3     6    11    12     7
 VARIABLES = X,Y,Z,DU1,DU2,DU3,U1,U2,U3,S11,S22,S33,S12,S13,S23,E11,E22,E33,E12,E13,E23,SMISES
 ZONE, T="0.2950D+01" F=FEPOINT, I=   12 J=    2 ET=BRICK
   0.0000000000E+00   0.0000000000E+00   0.0000000000E+00   0.0000000000E+00   0.0000000000E+00   0.0000000000E+00   0.0000000000E+00   0.0000000000E+00   0.0000000000E+00   0.1137499401E+02   0.3005156050E-05   0.3005156051E-05  -0.3205132297E-16  -0.5227555355E-15  -0.3502149137E-15   0.5965712499E-01  -0.2980581250E-01  -0.2980581250E-01  -0.3258628553E-17  -0.1467848388E-16   0.7142812308E-17   0.1137499100E+02
   0.1059657125E+01   0.0000000000E+00  -0.1937783843E-16   0.2677294200E-01   0.0000000000E+00   0.3241737005E-16   0.3288418289E-01   0.0000000000E+00  -0.5179520848E-16   0.1137499401E+02   0.3005156707E-05   0.3005156709E-05  -0.7806305634E-15   0.1324824365E-15   0.3563615620E-15   0.5965712499E-01  -0.2980581249E-01  -0.2980581249E-01  -0.3136899266E-16   0.3760363963E-16  -0.5974370710E-17   0.1137499100E+02
   0.1059657125E+01   0.9701941876E+00  -0.2493393159E-16   0.2677294200E-01  -0.1338422100E-01   0.3184632191E-16   0.3288418289E-01  -0.1642159145E-01  -0.5678025350E-16   0.1137499401E+02   0.3005157150E-05   0.3005157150E-05  -0.1640571738E-14   0.2759423315E-14   0.4019958540E-15   0.5965712498E-01  -0.2980581249E-01  -0.2980581249E-01  -0.8287608892E-16   0.1090057734E-15   0.3599557167E-16   0.1137499100E+02
   0.0000000000E+00   0.9701941876E+00   0.2752705464E-17   0.0000000000E+00  -0.1338422100E-01  -0.4034853182E-17   0.0000000000E+00  -0.1642159145E-01   0.6787558646E-17   0.1137499401E+02   0.3005151144E-05   0.3005151144E-05   0.9907914038E-16   0.4376324950E-15   0.2574866113E-15   0.5965712498E-01  -0.2980581249E-01  -0.2980581249E-01  -0.4743350373E-16  -0.4299494979E-16  -0.5548540851E-18   0.1137499100E+02
   0.0000000000E+00   0.0000000000E+00   0.9701941876E+00   0.0000000000E+00   0.0000000000E+00  -0.1338422100E-01   0.0000000000E+00   0.0000000000E+00  -0.1642159145E-01   0.1137499401E+02   0.3005161356E-05   0.3005161355E-05  -0.6682898937E-16  -0.1921594928E-15   0.5319736653E-15   0.5965712498E-01  -0.2980581249E-01  -0.2980581249E-01   0.1015163419E-16  -0.6987605086E-16  -0.4640124227E-17   0.1137499100E+02
   0.1059657125E+01   0.0000000000E+00   0.9701941876E+00   0.2677294200E-01   0.0000000000E+00  -0.1338422100E-01   0.3288418289E-01   0.0000000000E+00  -0.1642159145E-01   0.1137499401E+02   0.3005160545E-05   0.3005160544E-05   0.2882252204E-14  -0.1685930510E-14  -0.5088653987E-15   0.5965712498E-01  -0.2980581249E-01  -0.2980581249E-01   0.4667297999E-16   0.1078471417E-17  -0.6387803423E-16   0.1137499100E+02
   0.1059657125E+01   0.9701941876E+00   0.9701941876E+00   0.2677294200E-01  -0.1338422100E-01  -0.1338422100E-01   0.3288418289E-01  -0.1642159145E-01  -0.1642159145E-01   0.1137499400E+02   0.3005158091E-05   0.3005158090E-05   0.1355986730E-14   0.2413990488E-14  -0.6194852723E-15   0.5965712497E-01  -0.2980581249E-01  -0.2980581249E-01   0.4519295383E-16   0.9029416440E-16  -0.1644017264E-16   0.1137499100E+02
   0.0000000000E+00   0.9701941876E+00   0.9701941876E+00   0.0000000000E+00  -0.1338422100E-01  -0.1338422100E-01   0.0000000000E+00  -0.1642159145E-01  -0.1642159145E-01   0.1137499400E+02   0.3005164671E-05   0.3005164669E-05  -0.9950614598E-15  -0.1314525823E-14   0.9122913917E-15   0.5965712498E-01  -0.2980581249E-01  -0.2980581249E-01   0.1176499294E-16  -0.1407677575E-15  -0.1320108236E-16   0.1137499100E+02
   0.2119314250E+01   0.0000000000E+00  -0.6212094066E-16   0.5354588401E-01   0.0000000000E+00   0.1380786247E-15   0.6576836579E-01   0.0000000000E+00  -0.2001995653E-15   0.1137499401E+02   0.3005156345E-05   0.3005156345E-05   0.2247634021E-14   0.1744730551E-14  -0.3422698915E-15   0.5965712499E-01  -0.2980581249E-01  -0.2980581249E-01   0.3015568348E-15   0.3347257114E-16  -0.3334819973E-16   0.1137499100E+02
   0.2119314250E+01   0.9701941876E+00  -0.7506878480E-16   0.5354588401E-01  -0.1338422100E-01   0.1298926137E-15   0.6576836579E-01  -0.1642159145E-01  -0.2049613985E-15   0.1137499401E+02   0.3005164098E-05   0.3005164101E-05   0.2047434325E-15  -0.2237052700E-14   0.1328461627E-15   0.5965712498E-01  -0.2980581249E-01  -0.2980581249E-01   0.2942033250E-15  -0.1533414132E-15   0.1393088725E-16   0.1137499100E+02
   0.2119314250E+01   0.0000000000E+00   0.9701941876E+00   0.5354588401E-01   0.0000000000E+00  -0.1338422100E-01   0.6576836579E-01   0.0000000000E+00  -0.1642159145E-01   0.1137499401E+02   0.3005158673E-05   0.3005158673E-05  -0.2477210922E-15  -0.1816055071E-14  -0.4133820698E-15   0.5965712498E-01  -0.2980581249E-01  -0.2980581249E-01   0.8718900696E-16   0.3762366039E-17  -0.1520302526E-16   0.1137499100E+02
   0.2119314250E+01   0.9701941876E+00   0.9701941876E+00   0.5354588401E-01  -0.1338422100E-01  -0.1338422100E-01   0.6576836579E-01  -0.1642159145E-01  -0.1642159145E-01   0.1137499400E+02   0.3005152429E-05   0.3005152429E-05  -0.1759030646E-14  -0.2099039371E-14   0.4974250562E-15   0.5965712497E-01  -0.2980581249E-01  -0.2980581249E-01  -0.2026138706E-16  -0.2118891504E-15   0.4439442453E-17   0.1137499100E+02
     1     2     3     4     5     6     7     8
     2     9    10     3     6    11    12     7
 VARIABLES = X,Y,Z,DU1,DU2,DU3,U1,U2,U3,S11,S22,S33,S12,S13,S23,E11,E22,E33,E12,E13,E23,SMISES
 ZONE, T="0.3000D+01" F=FEPOINT, I=   12 J=    2 ET=BRICK
   0.0000000000E+00   0.0000000000E+00   0.0000000000E+00   0.0000000000E+00   0.0000000000E+00   0.0000000000E+00   0.0000000000E+00   0.0000000000E+00   0.0000000000E+00   0.1249998613E+02   0.6944759253E-05   0.6944759254E-05   0.2793643306E-16   0.1839257258E-14  -0.3779852176E-15   0.8837737263E-01  -0.4416368631E-01  -0.4416368631E-01   0.5769942811E-18   0.4770936483E-16   0.6989040292E-17   0.1249997919E+02
   0.1088377372E+01   0.0000000000E+00   0.9916914463E-17   0.2872024759E-01   0.0000000000E+00   0.2929475290E-16   0.5965712490E-01   0.0000000000E+00  -0.1937783843E-16   0.1249998613E+02   0.6944757303E-05   0.6944757304E-05   0.2692451182E-15  -0.1972858450E-14   0.4730612961E-15   0.8837737263E-01  -0.4416368631E-01  -0.4416368631E-01  -0.2440738616E-16  -0.8228004156E-16  -0.6088296375E-17   0.1249997918E+02
   0.1088377372E+01   0.9558363138E+00   0.7915598683E-17   0.2872024759E-01  -0.1435787380E-01   0.3284953027E-16   0.5965712490E-01  -0.2980581245E-01  -0.2493393159E-16   0.1249998613E+02   0.6944753289E-05   0.6944753292E-05   0.2043906196E-14  -0.3806650127E-14   0.2552552222E-15   0.8837737262E-01  -0.4416368631E-01  -0.4416368631E-01  -0.1067107506E-16   0.1948890024E-16   0.3412496842E-16   0.1249997918E+02
   0.0000000000E+00   0.9558363138E+00   0.1117075379E-17   0.0000000000E+00  -0.1435787380E-01  -0.1635630084E-17   0.0000000000E+00  -0.2980581245E-01   0.2752705464E-17   0.1249998613E+02   0.6944757850E-05   0.6944757849E-05  -0.9865197376E-15   0.2933827721E-14  -0.4503420582E-15   0.8837737262E-01  -0.4416368631E-01  -0.4416368631E-01  -0.8439449880E-16   0.1821502222E-16  -0.2194717097E-16   0.1249997918E+02
   0.0000000000E+00   0.0000000000E+00   0.9558363138E+00   0.0000000000E+00   0.0000000000E+00  -0.1435787380E-01   0.0000000000E+00   0.0000000000E+00  -0.2980581245E-01   0.1249998613E+02   0.6944757918E-05   0.6944757918E-05  -0.8207793267E-17   0.1935796884E-14   0.3918053516E-15   0.8837737262E-01  -0.4416368631E-01  -0.4416368631E-01  -0.1166030523E-17  -0.2669720078E-16  -0.4852959641E-17   0.1249997918E+02
   0.1088377372E+01   0.0000000000E+00   0.9558363138E+00   0.2872024759E-01   0.0000000000E+00  -0.1435787380E-01   0.5965712490E-01   0.0000000000E+00  -0.2980581245E-01   0.1249998613E+02   0.6944758201E-05   0.6944758201E-05  -0.7793740882E-15  -0.3589504641E-15   0.3265923943E-15   0.8837737262E-01  -0.4416368631E-01  -0.4416368631E-01   0.9816729925E-17   0.2247378976E-16  -0.4677189217E-16   0.1249997918E+02
   0.1088377372E+01   0.9558363138E+00   0.9558363138E+00   0.2872024759E-01  -0.1435787380E-01  -0.1435787380E-01   0.5965712490E-01  -0.2980581245E-01  -0.2980581245E-01   0.1249998613E+02   0.6944755627E-05   0.6944755627E-05   0.8466144179E-15  -0.1148120262E-14   0.7032532045E-15   0.8837737261E-01  -0.4416368630E-01  -0.4416368630E-01   0.5077067700E-16  -0.3606355713E-16   0.4481835304E-16   0.1249997918E+02
   0.0000000000E+00   0.9558363138E+00   0.9558363138E+00   0.0000000000E+00  -0.1435787380E-01  -0.1435787380E-01   0.0000000000E+00  -0.2980581245E-01  -0.2980581245E-01   0.1249998613E+02   0.6944758668E-05   0.6944758669E-05  -0.2004216323E-15   0.2514144323E-14  -0.1097431146E-14   0.8837737261E-01  -0.4416368630E-01  -0.4416368630E-01   0.2336677136E-16  -0.2951735633E-16  -0.4940312906E-16   0.1249997918E+02
   0.2176754745E+01   0.0000000000E+00   0.1905154355E-17   0.5744049519E-01   0.0000000000E+00   0.6402609501E-16   0.1193142498E+00   0.0000000000E+00  -0.6212094066E-16   0.1249998613E+02   0.6944761492E-05   0.6944761489E-05  -0.7237425750E-14  -0.1151450400E-14  -0.5411306221E-16   0.8837737262E-01  -0.4416368631E-01  -0.4416368631E-01   0.9783117525E-16  -0.7649438378E-17  -0.2572179723E-16   0.1249997918E+02
   0.2176754745E+01   0.9558363138E+00  -0.9197549560E-17   0.5744049519E-01  -0.1435787380E-01   0.6587123524E-16   0.1193142498E+00  -0.2980581245E-01  -0.7506878480E-16   0.1249998613E+02   0.6944755961E-05   0.6944755960E-05  -0.2801002915E-14   0.1317224184E-14  -0.3805646108E-15   0.8837737261E-01  -0.4416368631E-01  -0.4416368631E-01   0.1813971553E-15  -0.8443869729E-16   0.1270574221E-16   0.1249997918E+02
   0.2176754745E+01   0.0000000000E+00   0.9558363138E+00   0.5744049519E-01   0.0000000000E+00  -0.1435787380E-01   0.1193142498E+00   0.0000000000E+00  -0.2980581245E-01   0.1249998613E+02   0.6944762405E-05   0.6944762406E-05  -0.2737475206E-14  -0.3674317586E-15  -0.6845705683E-15   0.8837737261E-01  -0.4416368631E-01  -0.4416368631E-01   0.3766298871E-16  -0.4933762144E-17  -0.1547186383E-16   0.1249997918E+02
   0.2176754745E+01   0.9558363138E+00   0.9558363138E+00   0.5744049519E-01  -0.1435787380E-01  -0.1435787380E-01   0.1193142498E+00  -0.2980581245E-01  -0.2980581245E-01   0.1249998613E+02   0.6944757619E-05   0.6944757617E-05   0.9617843590E-15   0.4627877538E-14  -0.8754615019E-15   0.8837737260E-01  -0.4416368630E-01  -0.4416368630E-01   0.7968077412E-16   0.3971226469E-16  -0.5247494535E-16   0.1249997918E+02
     1     2     3     4     5     6     7     8
     2     9    10     3     6    11    12     7
 VARIABLES = X,Y,Z,DU1,DU2,DU3,U1,U2,U3,S11,S22,S33,S12,S13,S23,E11,E22,E33,E12,E13,E23,SMISES
 ZONE, T="0.3050D+01" F=FEPOINT, I=   12 J=    2 ET=BRICK
   0.0000000000E+00   0.0000000000E+00   0.0000000000E+00   0.0000000000E+00   0.0000000000E+00   0.0000000000E+00   0.0000000000E+00   0.0000000000E+00   0.0000000000E+00   0.1137500002E+02   0.5580847258E-09   0.5584082242E-09   0.1412784761E-16   0.1266348505E-11   0.8000145217E-12   0.8612741427E-01  -0.4304095713E-01  -0.4304095713E-01   0.1677837496E-16   0.1519539184E-13   0.9608671944E-14   0.1137500002E+02
   0.1086127414E+01   0.0000000000E+00   0.6700895828E-14  -0.2249958359E-02   0.0000000000E+00   0.6690978914E-14   0.8837737249E-01   0.0000000000E+00   0.9916914463E-17   0.1137500002E+02   0.4330186313E-10   0.4252168087E-10   0.1623173108E-12   0.1258221234E-12   0.7115431168E-14   0.8612741426E-01  -0.4304095713E-01  -0.4304095713E-01   0.1875222171E-14   0.1549927968E-14   0.7166944636E-16   0.1137500002E+02
   0.1086127414E+01   0.9569590429E+00   0.6738517223E-14  -0.2249958359E-02   0.1122729180E-02   0.6730601624E-14   0.8837737249E-01  -0.4416368625E-01   0.7915598683E-17   0.1137500002E+02   0.2477443890E-09   0.2478310584E-09   0.3144543837E-12  -0.2400566406E-12  -0.3319517698E-12   0.8612741425E-01  -0.4304095713E-01  -0.4304095713E-01   0.3713998686E-14  -0.2835966202E-14  -0.3930578316E-14   0.1137500002E+02
   0.0000000000E+00   0.9569590429E+00   0.4800352594E-14   0.0000000000E+00   0.1122729180E-02   0.4799235518E-14   0.0000000000E+00  -0.4416368625E-01   0.1117075379E-17   0.1137500002E+02   0.4033702553E-09   0.4025758379E-09  -0.2996614048E-12   0.2560938675E-13   0.2667180480E-12   0.8612741426E-01  -0.4304095713E-01  -0.4304095713E-01  -0.3670189789E-14   0.3021862844E-15   0.3166010803E-14   0.1137500002E+02
   0.0000000000E+00   0.0000000000E+00   0.9569590429E+00   0.0000000000E+00   0.0000000000E+00   0.1122729180E-02   0.0000000000E+00   0.0000000000E+00  -0.4416368625E-01   0.1137500002E+02  -0.1075922870E-09  -0.1062042379E-09  -0.6897854275E-17   0.2010852336E-12   0.2434469395E-12   0.8612741426E-01  -0.4304095713E-01  -0.4304095713E-01  -0.1349648140E-16   0.2392675516E-14   0.2903935991E-14   0.1137500002E+02
   0.1086127414E+01   0.0000000000E+00   0.9569590429E+00  -0.2249958359E-02   0.0000000000E+00   0.1122729180E-02   0.8837737249E-01   0.0000000000E+00  -0.4416368625E-01   0.1137500002E+02  -0.3655150603E-09  -0.3656170143E-09  -0.3051144974E-12   0.1577746180E-12   0.4391930302E-12   0.8612741425E-01  -0.4304095713E-01  -0.4304095713E-01  -0.3625515961E-14   0.1854627628E-14   0.5231442872E-14   0.1137500002E+02
   0.1086127414E+01   0.9569590429E+00   0.9569590429E+00  -0.2249958359E-02   0.1122729180E-02   0.1122729180E-02   0.8837737249E-01  -0.4416368625E-01  -0.4416368625E-01   0.1137500001E+02  -0.2669873251E-09  -0.2662255796E-09  -0.2694944299E-12  -0.2985955337E-12   0.1008457955E-12   0.8612741424E-01  -0.4304095712E-01  -0.4304095712E-01  -0.3220509718E-14  -0.3521243893E-14   0.1219053744E-14   0.1137500001E+02
   0.0000000000E+00   0.9569590429E+00   0.9569590429E+00   0.0000000000E+00   0.1122729180E-02   0.1122729180E-02   0.0000000000E+00  -0.4416368625E-01  -0.4416368625E-01   0.1137500001E+02  -0.5555014867E-09  -0.5552278921E-09   0.5092708645E-13   0.4899709447E-12  -0.2912928382E-12   0.8612741425E-01  -0.4304095712E-01  -0.4304095712E-01   0.6529491617E-15   0.5776625718E-14  -0.3522030082E-14   0.1137500002E+02
   0.2172254828E+01   0.0000000000E+00   0.9821521207E-14  -0.4499916718E-02   0.0000000000E+00   0.9819616052E-14   0.1767547450E+00   0.0000000000E+00   0.1905154355E-17   0.1137500002E+02   0.5635417642E-09   0.5633787608E-09  -0.3621332362E-13  -0.5892653392E-12   0.1004579914E-11   0.8612741426E-01  -0.4304095713E-01  -0.4304095713E-01  -0.2227678167E-15  -0.7071149290E-14   0.1201873279E-13   0.1137500002E+02
   0.2172254828E+01   0.9569590429E+00   0.1583446270E-13  -0.4499916718E-02   0.1122729180E-02   0.1584366025E-13   0.1767547450E+00  -0.4416368625E-01  -0.9197549560E-17   0.1137500002E+02   0.4943113287E-10   0.4779023642E-10   0.5678256750E-12   0.4283771182E-12   0.2382749015E-12   0.8612741425E-01  -0.4304095713E-01  -0.4304095713E-01   0.7078290432E-14   0.5144519134E-14   0.2826127419E-14   0.1137500002E+02
   0.2172254828E+01   0.0000000000E+00   0.9569590429E+00  -0.4499916718E-02   0.0000000000E+00   0.1122729180E-02   0.1767547450E+00   0.0000000000E+00  -0.4416368625E-01   0.1137500002E+02   0.9791149704E-10   0.9928509434E-10  -0.4621164949E-12   0.5368646218E-12   0.2640530373E-12   0.8612741425E-01  -0.4304095713E-01  -0.4304095713E-01  -0.5489748518E-14   0.6604108095E-14   0.3167697158E-14   0.1137500002E+02
   0.2172254828E+01   0.9569590429E+00   0.9569590429E+00  -0.4499916718E-02   0.1122729180E-02   0.1122729180E-02   0.1767547450E+00  -0.4416368625E-01  -0.4416368625E-01   0.1137500001E+02  -0.3348132182E-09  -0.3349226646E-09  -0.4415617138E-12  -0.1552516666E-12  -0.5023206601E-12   0.8612741424E-01  -0.4304095712E-01  -0.4304095712E-01  -0.5195142311E-14  -0.1897182945E-14  -0.6036323197E-14   0.1137500001E+02
     1     2     3     4     5     6     7     8
     2     9    10     3     6    11    12     7
 VARIABLES = X,Y,Z,DU1,DU2,DU3,U1,U2,U3,S11,S22,S33,S12,S13,S23,E11,E22,E33,E12,E13,E23,SMISES
 ZONE, T="0.3100D+01" F=FEPOINT, I=   12 J=    2 ET=BRICK
   0.0000000000E+00   0.0000000000E+00   0.0000000000E+00   0.0000000000E+00   0.0000000000E+00   0.0000000000E+00   0.0000000000E+00   0.0000000000E+00   0.0000000000E+00   0.1025000002E+02   0.8189354878E-12   0.8188676292E-12   0.4185780965E-16   0.1281290628E-14  -0.4047213732E-15   0.8387741426E-01  -0.4191820713E-01  -0.4191820713E-01  -0.2742598005E-18   0.5221609848E-16  -0.4946508240E-18   0.1025000002E+02
   0.1083877414E+01   0.0000000000E+00   0.7533521419E-17  -0.2250000000E-02   0.0000000000E+00  -0.6693362307E-14   0.8612741413E-01   0.0000000000E+00   0.6700895828E-14   0.1025000002E+02   0.1059068397E-12   0.1056956838E-12   0.1279107976E-14  -0.4327614737E-15   0.6136942512E-15   0.8387741426E-01  -0.4191820713E-01  -0.4191820713E-01  -0.1409811912E-16  -0.4247852091E-16   0.5342648066E-17   0.1025000002E+02
   0.1083877414E+01   0.9580817929E+00   0.6262067931E-17  -0.2250000000E-02   0.1122750000E-02  -0.6732255155E-14   0.8612741413E-01  -0.4304095707E-01   0.6738517223E-14   0.1025000001E+02  -0.3738820707E-11  -0.3736841165E-11   0.2786450387E-14  -0.3206471008E-14  -0.2163388006E-15   0.8387741425E-01  -0.4191820713E-01  -0.4191820713E-01   0.1654397112E-16   0.5092058781E-16   0.2195211477E-16   0.1025000001E+02
   0.0000000000E+00   0.9580817929E+00   0.1045288644E-17   0.0000000000E+00   0.1122750000E-02  -0.4799307305E-14   0.0000000000E+00  -0.4304095707E-01   0.4800352594E-14   0.1025000001E+02   0.2698302335E-12   0.2687562712E-12  -0.7527055858E-15   0.2538060760E-14  -0.5393495742E-15   0.8387741425E-01  -0.4191820713E-01  -0.4191820713E-01  -0.8611541161E-16   0.2338712137E-16   0.1045493991E-16   0.1025000001E+02
   0.0000000000E+00   0.0000000000E+00   0.9580817929E+00   0.0000000000E+00   0.0000000000E+00   0.1122750000E-02   0.0000000000E+00   0.0000000000E+00  -0.4304095707E-01   0.1025000001E+02   0.8800884560E-12   0.8803982868E-12  -0.4022720918E-16   0.1513079743E-14   0.8464928388E-15   0.8387741425E-01  -0.4191820713E-01  -0.4191820713E-01  -0.5648028585E-18   0.1302843447E-17   0.9724348899E-17   0.1025000001E+02
   0.1083877414E+01   0.0000000000E+00   0.9580817929E+00  -0.2250000000E-02   0.0000000000E+00   0.1122750000E-02   0.8612741413E-01   0.0000000000E+00  -0.4304095707E-01   0.1025000001E+02   0.2343810410E-12   0.2354129077E-12  -0.7650840551E-15   0.1278498716E-14   0.4836590456E-15   0.8387741425E-01  -0.4191820713E-01  -0.4191820713E-01  -0.1738341523E-16   0.4734725946E-16  -0.6336901884E-16   0.1025000001E+02
   0.1083877414E+01   0.9580817929E+00   0.9580817929E+00  -0.2250000000E-02   0.1122750000E-02   0.1122750000E-02   0.8612741413E-01  -0.4304095707E-01  -0.4304095707E-01   0.1025000001E+02  -0.2278096578E-11  -0.2277294727E-11   0.5881911509E-15  -0.4722905079E-15   0.2324024044E-15   0.8387741424E-01  -0.4191820712E-01  -0.4191820712E-01  -0.2097078015E-16  -0.1716130009E-16   0.3354106717E-16   0.1025000001E+02
   0.0000000000E+00   0.9580817929E+00   0.9580817929E+00   0.0000000000E+00   0.1122750000E-02   0.1122750000E-02   0.0000000000E+00  -0.4304095707E-01  -0.4304095707E-01   0.1025000001E+02   0.1729711772E-11   0.1728958920E-11  -0.8556138646E-15   0.1498721445E-14  -0.6993505404E-15   0.8387741424E-01  -0.4191820712E-01  -0.4191820712E-01   0.3315195446E-16  -0.6091426865E-16  -0.1098229375E-16   0.1025000001E+02
   0.2167754828E+01   0.0000000000E+00   0.2511813461E-17  -0.4500000000E-02   0.0000000000E+00  -0.9819009393E-14   0.1722548283E+00   0.0000000000E+00   0.9821521207E-14   0.1025000002E+02   0.5117708778E-11   0.5112842266E-11  -0.6397212765E-14  -0.1780735710E-14  -0.1942825613E-15   0.8387741426E-01  -0.4191820713E-01  -0.4191820713E-01   0.1241110444E-15   0.1921466171E-15  -0.3625843083E-16   0.1025000002E+02
   0.2167754828E+01   0.9580817929E+00  -0.9255628610E-17  -0.4500000000E-02   0.1122750000E-02  -0.1584371833E-13   0.1722548283E+00  -0.4304095707E-01   0.1583446270E-13   0.1025000001E+02  -0.3906484668E-12  -0.3909721040E-12  -0.2637926016E-14  -0.6074324692E-15  -0.5977728483E-15   0.8387741425E-01  -0.4191820712E-01  -0.4191820712E-01   0.2045846638E-15  -0.5138941569E-16  -0.2113260473E-17   0.1025000001E+02
   0.2167754828E+01   0.0000000000E+00   0.9580817929E+00  -0.4500000000E-02   0.0000000000E+00   0.1122750000E-02   0.1722548283E+00   0.0000000000E+00  -0.4304095707E-01   0.1025000001E+02   0.3633479970E-11   0.3635206260E-11  -0.2530877825E-14  -0.1533338843E-14   0.1526441013E-16   0.8387741425E-01  -0.4191820712E-01  -0.4191820712E-01   0.8435586397E-16  -0.9060768494E-16  -0.1699791918E-16   0.1025000001E+02
   0.2167754828E+01   0.9580817929E+00   0.9580817929E+00  -0.4500000000E-02   0.1122750000E-02   0.1122750000E-02   0.1722548283E+00  -0.4304095707E-01  -0.4304095707E-01   0.1025000001E+02  -0.5837228895E-12  -0.5845461268E-12   0.1294171799E-14   0.3564980475E-14  -0.3015241646E-15   0.8387741424E-01  -0.4191820712E-01  -0.4191820712E-01   0.1075140048E-15   0.1274971670E-15  -0.2918156078E-16   0.1025000001E+02
     1     2     3     4     5     6     7     8
     2     9    10     3     6    11    12     7
 VARIABLES = X,Y,Z,DU1,DU2,DU3,U1,U2,U3,S11,S22,S33,S12,S13,S23,E11,E22,E33,E12,E13,E23,SMISES
 ZONE, T="0.3150D+01" F=FEPOINT, I=   12 J=    2 ET=BRICK
   0.0000000000E+00   0.0000000000E+00   0.0000000000E+00   0.0000000000E+00   0.0000000000E+00   0.0000000000E+00   0.0000000000E+00   0.0000000000E+00   0.0000000000E+00   0.9125000014E+01  -0.9245966428E-12  -0.9243067397E-12   0.4073980525E-16  -0.6171808855E-15  -0.1664725455E-14   0.8162741426E-01  -0.4079545713E-01  -0.4079545713E-01  -0.1230046771E-17  -0.4573506461E-17  -0.2802068171E-16   0.9125000014E+01
   0.1081627414E+01   0.0000000000E+00  -0.9292093253E-17  -0.2250000000E-02   0.0000000000E+00  -0.1682561467E-16   0.8387741413E-01   0.0000000000E+00   0.7533521419E-17   0.9125000014E+01  -0.1429661983E-11  -0.1429407273E-11   0.2721793819E-15  -0.1743058284E-14  -0.5057813790E-15   0.8162741426E-01  -0.4079545713E-01  -0.4079545713E-01  -0.3055100931E-16   0.1678753462E-16  -0.1280077355E-16   0.9125000014E+01
   0.1081627414E+01   0.9592045429E+00  -0.1734275851E-16  -0.2250000000E-02   0.1122750000E-02  -0.2360482644E-16   0.8387741413E-01  -0.4191820707E-01   0.6262067931E-17   0.9125000013E+01  -0.4376571492E-11  -0.4373113077E-11   0.1708133455E-14  -0.9711654624E-15   0.1441628763E-15   0.8162741425E-01  -0.4079545712E-01  -0.4079545712E-01  -0.3868750390E-16   0.6467349483E-16   0.5990959129E-16   0.9125000013E+01
   0.0000000000E+00   0.9592045429E+00  -0.6444024166E-17   0.0000000000E+00   0.1122750000E-02  -0.7489312810E-17   0.0000000000E+00  -0.4191820707E-01   0.1045288644E-17   0.9125000013E+01  -0.2158078238E-11  -0.2156814897E-11  -0.3904544198E-16   0.6835472927E-15   0.2379862510E-15   0.8162741425E-01  -0.4079545713E-01  -0.4079545713E-01  -0.4662845382E-16   0.1557987226E-16  -0.3544492810E-16   0.9125000013E+01
   0.0000000000E+00   0.0000000000E+00   0.9592045429E+00   0.0000000000E+00   0.0000000000E+00   0.1122750000E-02   0.0000000000E+00   0.0000000000E+00  -0.4191820707E-01   0.9125000013E+01   0.1514518039E-11   0.1511236655E-11  -0.5789465917E-16   0.4027706969E-15   0.6031187776E-15   0.8162741425E-01  -0.4079545713E-01  -0.4079545713E-01   0.5618050004E-17  -0.5055009219E-17   0.2940368632E-16   0.9125000013E+01
   0.1081627414E+01   0.0000000000E+00   0.9592045429E+00  -0.2250000000E-02   0.0000000000E+00   0.1122750000E-02   0.8387741413E-01   0.0000000000E+00  -0.4191820707E-01   0.9125000013E+01   0.1714827732E-11   0.1714017910E-11   0.1501703229E-14   0.2682983672E-16  -0.3085471287E-15   0.8162741425E-01  -0.4079545712E-01  -0.4079545712E-01   0.1320766678E-16   0.1672033550E-16  -0.4775392067E-16   0.9125000013E+01
   0.1081627414E+01   0.9592045429E+00   0.9592045429E+00  -0.2250000000E-02   0.1122750000E-02   0.1122750000E-02   0.8387741413E-01  -0.4191820707E-01  -0.4191820707E-01   0.9125000012E+01  -0.5497345357E-12  -0.5509151439E-12   0.1989326764E-14   0.1561570531E-14   0.9587879756E-15   0.8162741424E-01  -0.4079545712E-01  -0.4079545712E-01   0.4226242162E-16   0.6961480610E-16  -0.5008882574E-16   0.9125000012E+01
   0.0000000000E+00   0.9592045429E+00   0.9592045429E+00   0.0000000000E+00   0.1122750000E-02   0.1122750000E-02   0.0000000000E+00  -0.4191820707E-01  -0.4191820707E-01   0.9125000012E+01   0.4439613530E-11   0.4436981270E-11  -0.5675502305E-15  -0.3163185541E-15   0.9854660892E-15   0.8162741424E-01  -0.4079545712E-01  -0.4079545712E-01   0.3450242721E-16  -0.1086379868E-15   0.2984660792E-16   0.9125000012E+01
   0.2163254828E+01   0.0000000000E+00  -0.5314026541E-16  -0.4500000000E-02   0.0000000000E+00  -0.5565207888E-16   0.1677548283E+00   0.0000000000E+00   0.2511813461E-17   0.9125000014E+01   0.2682649913E-11   0.2679614201E-11  -0.3633661545E-14  -0.2612833594E-15  -0.6582854001E-15   0.8162741426E-01  -0.4079545713E-01  -0.4079545713E-01   0.1689838248E-15   0.1102841216E-15  -0.1869090931E-16   0.9125000014E+01
   0.2163254828E+01   0.9592045429E+00  -0.6768873889E-16  -0.4500000000E-02   0.1122750000E-02  -0.5843311028E-16   0.1677548283E+00  -0.4191820707E-01  -0.9255628610E-17   0.9125000013E+01  -0.2919165763E-12  -0.2913382288E-12  -0.9546300982E-15  -0.2423086716E-15  -0.3263694002E-15   0.8162741425E-01  -0.4079545712E-01  -0.4079545712E-01   0.1929942106E-15  -0.6814670234E-16  -0.5643141821E-16   0.9125000013E+01
   0.2163254828E+01   0.0000000000E+00   0.9592045429E+00  -0.4500000000E-02   0.0000000000E+00   0.1122750000E-02   0.1677548283E+00   0.0000000000E+00  -0.4191820707E-01   0.9125000013E+01   0.4852978062E-11   0.4853561463E-11  -0.2285708474E-14  -0.2030458153E-15  -0.4691302545E-15   0.8162741425E-01  -0.4079545712E-01  -0.4079545712E-01   0.8174511609E-16   0.2783156822E-16  -0.5585442793E-16   0.9125000013E+01
   0.2163254828E+01   0.9592045429E+00   0.9592045429E+00  -0.4500000000E-02   0.1122750000E-02   0.1122750000E-02   0.1677548283E+00  -0.4191820707E-01  -0.4191820707E-01   0.9125000012E+01  -0.8923954818E-12  -0.8927151333E-12  -0.1799558854E-15   0.2395750519E-14  -0.5070368231E-17   0.8162741424E-01  -0.4079545712E-01  -0.4079545712E-01   0.1269815108E-15   0.7329297716E-16   0.5484904405E-16   0.9125000012E+01
     1     2     3     4     5     6     7     8
     2     9    10     3     6    11    12     7
 VARIABLES = X,Y,Z,DU1,DU2,DU3,U1,U2,U3,S11,S22,S33,S12,S13,S23,E11,E22,E33,E12,E13,E23,SMISES
 ZONE, T="0.3200D+01" F=FEPOINT, I=   12 J=    2 ET=BRICK
   0.0000000000E+00   0.0000000000E+00   0.0000000000E+00   0.0000000000E+00   0.0000000000E+00   0.0000000000E+00   0.0000000000E+00   0.0000000000E+00   0.0000000000E+00   0.8000000013E+01   0.6004862979E-12   0.6004456609E-12   0.3507396397E-16   0.1157144482E-14  -0.4791092431E-15   0.7937741426E-01  -0.3967270713E-01  -0.3967270713E-01   0.8528661812E-17   0.2296807607E-16   0.1137994341E-16   0.8000000013E+01
   0.1079377414E+01   0.0000000000E+00   0.4890473123E-17  -0.2250000000E-02   0.0000000000E+00   0.1418256638E-16   0.8162741413E-01   0.0000000000E+00  -0.9292093253E-17   0.8000000012E+01  -0.5915236113E-12  -0.5924930635E-12   0.4288214440E-15  -0.1499553207E-14  -0.3794838708E-16   0.7937741425E-01  -0.3967270713E-01  -0.3967270713E-01  -0.4205919146E-16   0.3432068382E-17  -0.9776907220E-17   0.8000000012E+01
   0.1079377414E+01   0.9603272929E+00  -0.4359703816E-18  -0.2250000000E-02   0.1122750000E-02   0.1690678813E-16   0.8162741413E-01  -0.4079545707E-01  -0.1734275851E-16   0.8000000011E+01  -0.3080160917E-11  -0.3078362783E-11   0.1572288196E-14  -0.1552664465E-14  -0.6473874421E-15   0.7937741425E-01  -0.3967270712E-01  -0.3967270712E-01  -0.2440702605E-16   0.3205486322E-16   0.4912812020E-16   0.8000000011E+01
   0.0000000000E+00   0.9603272929E+00   0.6818316624E-18   0.0000000000E+00   0.1122750000E-02   0.7125855828E-17   0.0000000000E+00  -0.4079545707E-01  -0.6444024166E-17   0.8000000012E+01  -0.1092553380E-11  -0.1092223231E-11   0.3034182439E-15   0.1496359011E-14   0.2122710060E-15   0.7937741425E-01  -0.3967270712E-01  -0.3967270712E-01  -0.3897065304E-16   0.4711718018E-17  -0.4788478751E-16   0.8000000012E+01
   0.0000000000E+00   0.0000000000E+00   0.9603272929E+00   0.0000000000E+00   0.0000000000E+00   0.1122750000E-02   0.0000000000E+00   0.0000000000E+00  -0.4079545707E-01   0.8000000012E+01   0.6336827426E-12   0.6335579141E-12  -0.5610945551E-16   0.1269094030E-14   0.8564401794E-15   0.7937741425E-01  -0.3967270712E-01  -0.3967270712E-01  -0.6644499536E-17   0.2411453391E-16  -0.9089771025E-18   0.8000000012E+01
   0.1079377414E+01   0.0000000000E+00   0.9603272929E+00  -0.2250000000E-02   0.0000000000E+00   0.1122750000E-02   0.8162741413E-01   0.0000000000E+00  -0.4079545707E-01   0.8000000011E+01   0.6238177733E-12   0.6247059516E-12   0.1153907862E-14  -0.4608606585E-17   0.1872708191E-15   0.7937741425E-01  -0.3967270712E-01  -0.3967270712E-01   0.2985862116E-16  -0.6358273073E-17  -0.3632841470E-16   0.8000000011E+01
   0.1079377414E+01   0.9603272929E+00   0.9603272929E+00  -0.2250000000E-02   0.1122750000E-02   0.1122750000E-02   0.8162741413E-01  -0.4079545707E-01  -0.4079545707E-01   0.8000000010E+01  -0.1452922579E-11  -0.1452597483E-11   0.1706743426E-14   0.9810107460E-15   0.2291342436E-15   0.7937741424E-01  -0.3967270712E-01  -0.3967270712E-01   0.2072779493E-16   0.2704827117E-16  -0.2603639667E-16   0.8000000010E+01
   0.0000000000E+00   0.9603272929E+00   0.9603272929E+00   0.0000000000E+00   0.1122750000E-02   0.1122750000E-02   0.0000000000E+00  -0.4079545707E-01  -0.4079545707E-01   0.8000000011E+01   0.2748833817E-11   0.2747057461E-11  -0.4021382144E-15   0.8658373934E-15   0.9613397617E-16   0.7937741424E-01  -0.3967270712E-01  -0.3967270712E-01   0.4401402860E-16  -0.5781079858E-16   0.2658143967E-16   0.8000000011E+01
   0.2158754828E+01   0.0000000000E+00  -0.1092760864E-16  -0.4500000000E-02   0.0000000000E+00   0.4221265677E-16   0.1632548283E+00   0.0000000000E+00  -0.5314026541E-16   0.8000000012E+01   0.2792524656E-11   0.2790138745E-11  -0.1604908668E-14  -0.2737861230E-15  -0.6817412140E-16   0.7937741425E-01  -0.3967270713E-01  -0.3967270713E-01   0.2104274239E-15   0.8029556743E-16  -0.2015433255E-16   0.8000000012E+01
   0.2158754828E+01   0.9603272929E+00  -0.2192318866E-16  -0.4500000000E-02   0.1122750000E-02   0.4576555023E-16   0.1632548283E+00  -0.4079545707E-01  -0.6768873889E-16   0.8000000011E+01   0.6518278130E-12   0.6532740204E-12   0.1370103248E-15  -0.1320588872E-14  -0.6271242726E-16   0.7937741424E-01  -0.3967270712E-01  -0.3967270712E-01   0.2386496197E-15  -0.1142805891E-15  -0.5886234736E-17   0.8000000011E+01
   0.2158754828E+01   0.0000000000E+00   0.9603272929E+00  -0.4500000000E-02   0.0000000000E+00   0.1122750000E-02   0.1632548283E+00   0.0000000000E+00  -0.4079545707E-01   0.8000000011E+01   0.3946125832E-11   0.3947539373E-11  -0.1936720940E-14   0.4111795660E-15   0.5599829730E-16   0.7937741424E-01  -0.3967270712E-01  -0.3967270712E-01   0.1247399379E-15  -0.9666846631E-16  -0.1676843943E-16   0.8000000011E+01
   0.2158754828E+01   0.9603272929E+00   0.9603272929E+00  -0.4500000000E-02   0.1122750000E-02   0.1122750000E-02   0.1632548283E+00  -0.4079545707E-01  -0.4079545707E-01   0.8000000010E+01  -0.1155892310E-11  -0.1155285673E-11   0.3432474266E-15   0.1118765127E-14   0.1926918493E-15   0.7937741423E-01  -0.3967270712E-01  -0.3967270712E-01   0.9271516182E-16   0.1095902545E-15  -0.7682637081E-17   0.8000000010E+01
     1     2     3     4     5     6     7     8
     2     9    10     3     6    11    12     7
 VARIABLES = X,Y,Z,DU1,DU2,DU3,U1,U2,U3,S11,S22,S33,S12,S13,S23,E11,E22,E33,E12,E13,E23,SMISES
 ZONE, T="0.3250D+01" F=FEPOINT, I=   12 J=    2 ET=BRICK
   0.0000000000E+00   0.0000000000E+00   0.0000000000E+00   0.0000000000E+00   0.0000000000E+00   0.0000000000E+00   0.0000000000E+00   0.0000000000E+00   0.0000000000E+00   0.6875000011E+01   0.1283134766E-11   0.1282901833E-11   0.4643784109E-16   0.1684446579E-14  -0.1871961963E-15   0.7712741425E-01  -0.3854995713E-01  -0.3854995713E-01   0.4294200848E-17   0.1550318254E-16   0.1080345555E-16   0.6875000011E+01
   0.1077127414E+01   0.0000000000E+00   0.8503304137E-17  -0.2250000000E-02   0.0000000000E+00   0.3612831013E-17   0.7937741413E-01   0.0000000000E+00   0.4890473123E-17   0.6875000011E+01  -0.5695114511E-12  -0.5704809033E-12   0.1903701184E-15  -0.9975484288E-15   0.1002199180E-15   0.7712741425E-01  -0.3854995713E-01  -0.3854995713E-01  -0.5034434273E-16   0.2717333112E-16  -0.3496164005E-17   0.6875000011E+01
   0.1077127414E+01   0.9614500429E+00   0.3774019989E-17  -0.2250000000E-02   0.1122750000E-02   0.4209990371E-17   0.7937741413E-01  -0.3967270707E-01  -0.4359703816E-18   0.6875000010E+01  -0.3497981996E-11  -0.3496183862E-11   0.1586377422E-14  -0.2911826544E-14  -0.5517270506E-15   0.7712741424E-01  -0.3854995712E-01  -0.3854995712E-01  -0.3923024405E-16   0.6175512220E-16   0.1731489304E-16   0.6875000010E+01
   0.0000000000E+00   0.9614500429E+00   0.2549632271E-17   0.0000000000E+00   0.1122750000E-02   0.1867800608E-17   0.0000000000E+00  -0.3967270707E-01   0.6818316624E-18   0.6875000010E+01  -0.4605618550E-12  -0.4613339576E-12  -0.4150874369E-15   0.2031878576E-14  -0.2926182602E-15   0.7712741424E-01  -0.3854995712E-01  -0.3854995712E-01  -0.4326997333E-16   0.1944459394E-16  -0.1668237283E-16   0.6875000010E+01
   0.0000000000E+00   0.0000000000E+00   0.9614500429E+00   0.0000000000E+00   0.0000000000E+00   0.1122750000E-02   0.0000000000E+00   0.0000000000E+00  -0.3967270707E-01   0.6875000010E+01   0.8080009767E-12   0.8096445338E-12  -0.6557550896E-16   0.1432342666E-14   0.9089874492E-15   0.7712741424E-01  -0.3854995712E-01  -0.3854995712E-01  -0.5499945528E-17  -0.1730632867E-16  -0.3612816576E-16   0.6875000010E+01
   0.1077127414E+01   0.0000000000E+00   0.9614500429E+00  -0.2250000000E-02   0.0000000000E+00   0.1122750000E-02   0.7937741413E-01   0.0000000000E+00  -0.3967270707E-01   0.6875000010E+01   0.4862455189E-12   0.4868521559E-12  -0.3656770006E-15   0.2430604688E-15   0.3331224771E-15   0.7712741424E-01  -0.3854995712E-01  -0.3854995712E-01   0.2629758462E-16   0.3143443413E-17  -0.2360823651E-16   0.6875000010E+01
   0.1077127414E+01   0.9614500429E+00   0.9614500429E+00  -0.2250000000E-02   0.1122750000E-02   0.1122750000E-02   0.7937741413E-01  -0.3967270707E-01  -0.3967270707E-01   0.6875000009E+01  -0.1597341158E-11  -0.1597297603E-11   0.8222769331E-15   0.6814128483E-16   0.5400834763E-15   0.7712741423E-01  -0.3854995712E-01  -0.3854995712E-01   0.1712044561E-16   0.2867307417E-16  -0.2070265356E-16   0.6875000009E+01
   0.0000000000E+00   0.9614500429E+00   0.9614500429E+00   0.0000000000E+00   0.1122750000E-02   0.1122750000E-02   0.0000000000E+00  -0.3967270707E-01  -0.3967270707E-01   0.6875000009E+01   0.1682780315E-11   0.1681862388E-11   0.1230739654E-15   0.1148222218E-14  -0.7731741518E-15   0.7712741424E-01  -0.3854995712E-01  -0.3854995712E-01   0.3931137949E-16  -0.4135252646E-16   0.1551558755E-16   0.6875000009E+01
   0.2154254828E+01   0.0000000000E+00  -0.4080768370E-17  -0.4500000000E-02   0.0000000000E+00   0.6846840270E-17   0.1587548283E+00   0.0000000000E+00  -0.1092760864E-16   0.6875000010E+01   0.3136345411E-11   0.3132050343E-11  -0.3456944702E-14  -0.5529949079E-15  -0.3649481695E-15   0.7712741425E-01  -0.3854995712E-01  -0.3854995712E-01   0.2024367072E-15  -0.7059478561E-16  -0.3060647226E-16   0.6875000010E+01
   0.2154254828E+01   0.9614500429E+00  -0.1664324786E-16  -0.4500000000E-02   0.1122750000E-02   0.5279940797E-17   0.1587548283E+00  -0.3967270707E-01  -0.2192318866E-16   0.6875000010E+01   0.6005763629E-13   0.6050464295E-13  -0.6061089922E-15  -0.1510587096E-15  -0.1953502797E-15   0.7712741424E-01  -0.3854995712E-01  -0.3854995712E-01   0.2854619271E-15  -0.4843862215E-16   0.1712396131E-16   0.6875000010E+01
   0.2154254828E+01   0.0000000000E+00   0.9614500429E+00  -0.4500000000E-02   0.0000000000E+00   0.1122750000E-02   0.1587548283E+00   0.0000000000E+00  -0.3967270707E-01   0.6875000010E+01   0.3936875147E-11   0.3936520302E-11  -0.2075232972E-14   0.5008417411E-15   0.5851249073E-16   0.7712741424E-01  -0.3854995712E-01  -0.3854995712E-01   0.1775738734E-15   0.2591299014E-16  -0.1031245906E-16   0.6875000010E+01
   0.2154254828E+01   0.9614500429E+00   0.9614500429E+00  -0.4500000000E-02   0.1122750000E-02   0.1122750000E-02   0.1587548283E+00  -0.3967270707E-01  -0.3967270707E-01   0.6875000009E+01  -0.4504530263E-13  -0.4529709554E-13   0.1025583550E-14   0.2608544118E-14   0.2183185326E-15   0.7712741423E-01  -0.3854995712E-01  -0.3854995712E-01   0.1646825548E-15   0.1051344995E-15  -0.2196040130E-16   0.6875000009E+01
     1     2     3     4     5     6     7     8
     2     9    10     3     6    11    12     7
 VARIABLES = X,Y,Z,DU1,DU2,DU3,U1,U2,U3,S11,S22,S33,S12,S13,S23,E11,E22,E33,E12,E13,E23,SMISES
 ZONE, T="0.3300D+01" F=FEPOINT, I=   12 J=    2 ET=BRICK
   0.0000000000E+00   0.0000000000E+00   0.0000000000E+00   0.0000000000E+00   0.0000000000E+00   0.0000000000E+00   0.0000000000E+00   0.0000000000E+00   0.0000000000E+00   0.5750000009E+01  -0.5314018933E-12  -0.5303653118E-12   0.5179498052E-16  -0.4722459140E-15  -0.1420293534E-14   0.7487741425E-01  -0.3742720712E-01  -0.3742720712E-01   0.2751219516E-17  -0.6392442493E-17   0.1084347727E-18   0.5750000009E+01
   0.1074877414E+01   0.0000000000E+00  -0.8159150692E-17  -0.2250000000E-02   0.0000000000E+00  -0.1666245483E-16   0.7712741413E-01   0.0000000000E+00   0.8503304137E-17   0.5750000009E+01  -0.1462067348E-11  -0.1461973726E-11  -0.2301138784E-15  -0.1034330160E-14  -0.2981345442E-15   0.7487741425E-01  -0.3742720712E-01  -0.3742720712E-01  -0.3264765633E-16   0.5074598552E-16  -0.2298005709E-16   0.5750000009E+01
   0.1074877414E+01   0.9625727929E+00  -0.1524255071E-16  -0.2250000000E-02   0.1122750000E-02  -0.1901657070E-16   0.7712741413E-01  -0.3854995707E-01   0.3774019989E-17   0.5750000008E+01  -0.4389726883E-11  -0.4387224505E-11   0.1312978941E-14  -0.1780640990E-14  -0.8259297316E-16   0.7487741424E-01  -0.3742720712E-01  -0.3742720712E-01  -0.1954431531E-16   0.5869524763E-16   0.5541518069E-16   0.5750000008E+01
   0.0000000000E+00   0.9625727929E+00  -0.4694349016E-17   0.0000000000E+00   0.1122750000E-02  -0.7243981287E-17   0.0000000000E+00  -0.3854995707E-01   0.2549632271E-17   0.5750000008E+01  -0.2260548491E-11  -0.2258839798E-11   0.2507741075E-15   0.8700173250E-15   0.4754058752E-15   0.7487741424E-01  -0.3742720712E-01  -0.3742720712E-01  -0.3959049091E-16  -0.2107042866E-17  -0.3513273610E-16   0.5750000008E+01
   0.0000000000E+00   0.0000000000E+00   0.9625727929E+00   0.0000000000E+00   0.0000000000E+00   0.1122750000E-02   0.0000000000E+00   0.0000000000E+00  -0.3854995707E-01   0.5750000008E+01   0.2282960353E-11   0.2282073047E-11  -0.5965801802E-16  -0.1260319177E-15   0.3011696289E-15   0.7487741424E-01  -0.3742720712E-01  -0.3742720712E-01  -0.1454522788E-17  -0.2807567905E-16   0.1024513128E-17   0.5750000008E+01
   0.1074877414E+01   0.0000000000E+00   0.9625727929E+00  -0.2250000000E-02   0.0000000000E+00   0.1122750000E-02   0.7712741413E-01   0.0000000000E+00  -0.3854995707E-01   0.5750000008E+01   0.1434894992E-11   0.1434756748E-11  -0.1045236602E-15   0.5467702494E-15  -0.1178110330E-15   0.7487741424E-01  -0.3742720712E-01  -0.3742720712E-01  -0.2271532077E-17   0.5529370755E-17  -0.4743290296E-16   0.5750000008E+01
   0.1074877414E+01   0.9625727929E+00   0.9625727929E+00  -0.2250000000E-02   0.1122750000E-02   0.1122750000E-02   0.7712741413E-01  -0.3854995707E-01  -0.3854995707E-01   0.5750000008E+01  -0.5934688658E-12  -0.5940740440E-12   0.5893557667E-15   0.1061175377E-14   0.9456545950E-15   0.7487741423E-01  -0.3742720711E-01  -0.3742720711E-01   0.9340277270E-17   0.9054575199E-16  -0.1508308476E-16   0.5750000008E+01
   0.0000000000E+00   0.9625727929E+00   0.9625727929E+00   0.0000000000E+00   0.1122750000E-02   0.1122750000E-02   0.0000000000E+00  -0.3854995707E-01  -0.3854995707E-01   0.5750000008E+01   0.3632693684E-11   0.3629651798E-11  -0.4523053927E-15  -0.2100718355E-15   0.5935501140E-15   0.7487741423E-01  -0.3742720712E-01  -0.3742720712E-01   0.5370085966E-16  -0.1147100727E-15  -0.5134176062E-17   0.5750000008E+01
   0.2149754828E+01   0.0000000000E+00  -0.5159316017E-16  -0.4500000000E-02   0.0000000000E+00  -0.4751239180E-16   0.1542548283E+00   0.0000000000E+00  -0.4080768370E-17   0.5750000009E+01   0.2577541088E-11   0.2574717261E-11  -0.3263778441E-14  -0.6965712547E-15  -0.6990217015E-15   0.7487741425E-01  -0.3742720712E-01  -0.3742720712E-01   0.1691785026E-15   0.5340514272E-16  -0.2646878225E-16   0.5750000009E+01
   0.2149754828E+01   0.9625727929E+00  -0.6611716753E-16  -0.4500000000E-02   0.1122750000E-02  -0.4947391966E-16   0.1542548283E+00  -0.3854995707E-01  -0.1664324786E-16   0.5750000008E+01  -0.1856914802E-12  -0.1847922179E-12  -0.6562341562E-15  -0.1865485529E-15   0.7976552957E-16   0.7487741424E-01  -0.3742720712E-01  -0.3742720712E-01   0.2416391421E-15  -0.3207109681E-17  -0.2386221058E-16   0.5750000008E+01
   0.2149754828E+01   0.0000000000E+00   0.9625727929E+00  -0.4500000000E-02   0.0000000000E+00   0.1122750000E-02   0.1542548283E+00   0.0000000000E+00  -0.3854995707E-01   0.5750000008E+01   0.4152257836E-11   0.4151804121E-11  -0.1679573640E-14   0.1960502439E-17  -0.4742334253E-15   0.7487741424E-01  -0.3742720712E-01  -0.3742720712E-01   0.1074566082E-15   0.9613625617E-16  -0.3691043618E-16   0.5750000008E+01
   0.2149754828E+01   0.9625727929E+00   0.9625727929E+00  -0.4500000000E-02   0.1122750000E-02   0.1122750000E-02   0.1542548283E+00  -0.3854995707E-01  -0.3854995707E-01   0.5750000007E+01   0.1306584628E-12   0.1298493703E-12   0.1084627574E-14   0.2266663904E-14   0.1466929438E-15   0.7487741423E-01  -0.3742720711E-01  -0.3742720711E-01   0.6746552466E-16  -0.7576612492E-16   0.9026226462E-17   0.5750000007E+01
     1     2     3     4     5     6     7     8
     2     9    10     3     6    11    12     7
 VARIABLES = X,Y,Z,DU1,DU2,DU3,U1,U2,U3,S11,S22,S33,S12,S13,S23,E11,E22,E33,E12,E13,E23,SMISES
 ZONE, T="0.3350D+01" F=FEPOINT, I=   12 J=    2 ET=BRICK
   0.0000000000E+00   0.0000000000E+00   0.0000000000E+00   0.0000000000E+00   0.0000000000E+00   0.0000000000E+00   0.0000000000E+00   0.0000000000E+00   0.0000000000E+00   0.4625000007E+01  -0.1045042768E-11  -0.1045001402E-11   0.4813170868E-16  -0.4084731213E-15  -0.1515454306E-14   0.7262741425E-01  -0.3630445712E-01  -0.3630445712E-01   0.6484228219E-17  -0.5568671860E-17  -0.1476104064E-16   0.4625000007E+01
   0.1072627414E+01   0.0000000000E+00  -0.7860118772E-17  -0.2250000000E-02   0.0000000000E+00   0.2990319198E-18   0.7487741413E-01   0.0000000000E+00  -0.8159150692E-17   0.4625000007E+01  -0.1535860576E-11  -0.1536192184E-11   0.1335943047E-14  -0.2410711766E-15  -0.4719952443E-15   0.7262741424E-01  -0.3630445712E-01  -0.3630445712E-01  -0.2799012738E-16  -0.6310786981E-17  -0.3849845069E-17   0.4625000007E+01
   0.1072627414E+01   0.9636955429E+00  -0.1598868885E-16  -0.2250000000E-02   0.1122750000E-02  -0.7461381430E-18   0.7487741413E-01  -0.3742720707E-01  -0.1524255071E-16   0.4625000007E+01  -0.4133864683E-11  -0.4131210646E-11   0.2550726075E-14  -0.2481388927E-14  -0.2519315378E-15   0.7262741424E-01  -0.3630445712E-01  -0.3630445712E-01  -0.3667319801E-16   0.5785603997E-16   0.2157878221E-16   0.4625000007E+01
   0.0000000000E+00   0.9636955429E+00  -0.5416064984E-17   0.0000000000E+00   0.1122750000E-02  -0.7217159684E-18   0.0000000000E+00  -0.3742720707E-01  -0.4694349016E-17   0.4625000007E+01  -0.1600811622E-11  -0.1599643166E-11   0.6440848508E-16   0.7701346289E-15   0.1378055919E-17   0.7262741424E-01  -0.3630445712E-01  -0.3630445712E-01  -0.3807039611E-16   0.1852762919E-17  -0.1798025085E-16   0.4625000007E+01
   0.0000000000E+00   0.0000000000E+00   0.9636955429E+00   0.0000000000E+00   0.0000000000E+00   0.1122750000E-02   0.0000000000E+00   0.0000000000E+00  -0.3742720707E-01   0.4625000007E+01   0.2152997466E-11   0.2151640308E-11  -0.1639154003E-16  -0.1334788009E-16   0.3258265282E-15   0.7262741424E-01  -0.3630445712E-01  -0.3630445712E-01  -0.8373776943E-17  -0.2472336807E-16  -0.1723823857E-17   0.4625000007E+01
   0.1072627414E+01   0.0000000000E+00   0.9636955429E+00  -0.2250000000E-02   0.0000000000E+00   0.1122750000E-02   0.7487741413E-01   0.0000000000E+00  -0.3742720707E-01   0.4625000007E+01   0.1299748521E-11   0.1299377344E-11  -0.1367438790E-15   0.1299512976E-14   0.1813512562E-16   0.7262741424E-01  -0.3630445712E-01  -0.3630445712E-01   0.3615530365E-16  -0.1944472886E-16  -0.3540797336E-16   0.4625000007E+01
   0.1072627414E+01   0.9636955429E+00   0.9636955429E+00  -0.2250000000E-02   0.1122750000E-02   0.1122750000E-02   0.7487741413E-01  -0.3742720707E-01  -0.3742720707E-01   0.4625000006E+01  -0.4529167409E-12  -0.4531779636E-12   0.4670944864E-15   0.5638924970E-15   0.9672749351E-15   0.7262741423E-01  -0.3630445711E-01  -0.3630445711E-01   0.3404130613E-16   0.2393478998E-16   0.2805943120E-16   0.4625000006E+01
   0.0000000000E+00   0.9636955429E+00   0.9636955429E+00   0.0000000000E+00   0.1122750000E-02   0.1122750000E-02   0.0000000000E+00  -0.3742720707E-01  -0.3742720707E-01   0.4625000006E+01   0.3566207874E-11   0.3562939958E-11  -0.3655179970E-15  -0.4995022321E-16   0.2923626762E-15   0.7262741423E-01  -0.3630445711E-01  -0.3630445711E-01   0.4486483836E-16  -0.9091973335E-16   0.9202789299E-17   0.4625000006E+01
   0.2145254828E+01   0.0000000000E+00  -0.5108262001E-16  -0.4500000000E-02   0.0000000000E+00   0.5105401560E-18   0.1497548283E+00   0.0000000000E+00  -0.5159316017E-16   0.4625000007E+01   0.2841163958E-11   0.2838869480E-11  -0.2613237205E-14  -0.8212837282E-15  -0.6357925937E-15   0.7262741424E-01  -0.3630445712E-01  -0.3630445712E-01   0.1431576634E-15   0.1859932763E-15  -0.2576936321E-16   0.4625000007E+01
   0.2145254828E+01   0.9636955429E+00  -0.6526102418E-16  -0.4500000000E-02   0.1122750000E-02   0.8561433419E-18   0.1497548283E+00  -0.3742720707E-01  -0.6611716753E-16   0.4625000006E+01  -0.4907584648E-12  -0.4886310541E-12  -0.3856522227E-15  -0.7665397152E-16   0.6039212544E-16   0.7262741423E-01  -0.3630445712E-01  -0.3630445712E-01   0.2071159724E-15  -0.1030178405E-15  -0.7558339721E-18   0.4625000006E+01
   0.2145254828E+01   0.0000000000E+00   0.9636955429E+00  -0.4500000000E-02   0.0000000000E+00   0.1122750000E-02   0.1497548283E+00   0.0000000000E+00  -0.3742720707E-01   0.4625000006E+01   0.3855539400E-11   0.3855474263E-11  -0.1330060133E-14   0.1476067363E-15  -0.2009578755E-16   0.7262741423E-01  -0.3630445712E-01  -0.3630445712E-01   0.1492245640E-15   0.2867734468E-16  -0.2158149745E-16   0.4625000006E+01
   0.2145254828E+01   0.9636955429E+00   0.9636955429E+00  -0.4500000000E-02   0.1122750000E-02   0.1122750000E-02   0.1497548283E+00  -0.3742720707E-01  -0.3742720707E-01   0.4625000006E+01   0.2672371771E-12   0.2677266183E-12   0.1116547002E-14   0.2312984155E-14   0.4859493173E-15   0.7262741422E-01  -0.3630445711E-01  -0.3630445711E-01   0.1334572483E-15   0.4959060306E-16  -0.1759215274E-16   0.4625000006E+01
     1     2     3     4     5     6     7     8
     2     9    10     3     6    11    12     7
 VARIABLES = X,Y,Z,DU1,DU2,DU3,U1,U2,U3,S11,S22,S33,S12,S13,S23,E11,E22,E33,E12,E13,E23,SMISES
 ZONE, T="0.3400D+01" F=FEPOINT, I=   12 J=    2 ET=BRICK
   0.0000000000E+00   0.0000000000E+00   0.0000000000E+00   0.0000000000E+00   0.0000000000E+00   0.0000000000E+00   0.0000000000E+00   0.0000000000E+00   0.0000000000E+00   0.3500000005E+01   0.3098124446E-12   0.3097569334E-12   0.7602126551E-16   0.7450186064E-15  -0.8232418770E-15   0.7037741424E-01  -0.3518170712E-01  -0.3518170712E-01  -0.7274647134E-17   0.1555830065E-16  -0.9736439623E-17   0.3500000005E+01
   0.1070377414E+01   0.0000000000E+00   0.3044840251E-17  -0.2250000000E-02   0.0000000000E+00   0.1090495902E-16   0.7262741413E-01   0.0000000000E+00  -0.7860118772E-17   0.3500000005E+01  -0.6095837124E-12  -0.6105938017E-12   0.6528735872E-15  -0.4185883534E-15  -0.2488808730E-16   0.7037741424E-01  -0.3518170712E-01  -0.3518170712E-01  -0.5130493423E-18   0.2621889736E-16  -0.7722890270E-18   0.3500000005E+01
   0.1070377414E+01   0.9648182929E+00  -0.2372481494E-17  -0.2250000000E-02   0.1122750000E-02   0.1361620736E-16   0.7262741413E-01  -0.3630445707E-01  -0.1598868885E-16   0.3500000005E+01  -0.3448108519E-11  -0.3445844519E-11   0.1854906859E-14  -0.2535069824E-14  -0.4315787018E-15   0.7037741423E-01  -0.3518170712E-01  -0.3518170712E-01  -0.1196871661E-16   0.1913198869E-16   0.3692125298E-16   0.3500000005E+01
   0.0000000000E+00   0.9648182929E+00  -0.1236576226E-17   0.0000000000E+00   0.1122750000E-02   0.4179488759E-17   0.0000000000E+00  -0.3630445707E-01  -0.5416064984E-17   0.3500000005E+01  -0.8383896487E-12  -0.8380391809E-12  -0.1618161075E-15   0.1758633949E-14  -0.1353197529E-15   0.7037741423E-01  -0.3518170712E-01  -0.3518170712E-01  -0.3799305184E-16   0.2046098212E-16  -0.5342304234E-17   0.3500000005E+01
   0.0000000000E+00   0.0000000000E+00   0.9648182929E+00   0.0000000000E+00   0.0000000000E+00   0.1122750000E-02   0.0000000000E+00   0.0000000000E+00  -0.3630445707E-01   0.3500000005E+01   0.1203676600E-11   0.1203529994E-11   0.1539218136E-17   0.8679201832E-15   0.7730578933E-15   0.7037741423E-01  -0.3518170712E-01  -0.3518170712E-01  -0.5383429344E-17  -0.4736510559E-16   0.2637006728E-16   0.3500000005E+01
   0.1070377414E+01   0.0000000000E+00   0.9648182929E+00  -0.2250000000E-02   0.0000000000E+00   0.1122750000E-02   0.7262741413E-01   0.0000000000E+00  -0.3630445707E-01   0.3500000005E+01   0.5691643538E-12   0.5698711245E-12  -0.3385732977E-15   0.6758364325E-15   0.3203982460E-15   0.7037741423E-01  -0.3518170712E-01  -0.3518170712E-01   0.3235008947E-16   0.6330411467E-16  -0.3540673518E-16   0.3500000005E+01
   0.1070377414E+01   0.9648182929E+00   0.9648182929E+00  -0.2250000000E-02   0.1122750000E-02   0.1122750000E-02   0.7262741413E-01  -0.3630445707E-01  -0.3630445707E-01   0.3500000005E+01  -0.1422989740E-11  -0.1422916437E-11   0.4248065304E-15   0.4490745520E-15   0.5945731712E-15   0.7037741422E-01  -0.3518170711E-01  -0.3518170711E-01   0.5385638479E-16   0.1824923757E-16   0.1678812000E-16   0.3500000005E+01
   0.0000000000E+00   0.9648182929E+00   0.9648182929E+00   0.0000000000E+00   0.1122750000E-02   0.1122750000E-02   0.0000000000E+00  -0.3630445707E-01  -0.3630445707E-01   0.3500000005E+01   0.2510970821E-11   0.2509285168E-11  -0.3362015639E-15   0.5743759925E-15  -0.1293849345E-15   0.7037741423E-01  -0.3518170711E-01  -0.3518170711E-01   0.3076937944E-16  -0.5460333047E-16  -0.9313076776E-17   0.3500000005E+01
   0.2140754828E+01   0.0000000000E+00  -0.1508140315E-16  -0.4500000000E-02   0.0000000000E+00   0.3600121686E-16   0.1452548283E+00   0.0000000000E+00  -0.5108262001E-16   0.3500000005E+01   0.3549578469E-11   0.3545934661E-11  -0.3187680377E-14  -0.1481256311E-14  -0.1836764307E-15   0.7037741424E-01  -0.3518170712E-01  -0.3518170712E-01   0.1312849063E-15   0.4782506295E-16  -0.2792742340E-16   0.3500000005E+01
   0.2140754828E+01   0.9648182929E+00  -0.2673590379E-16  -0.4500000000E-02   0.1122750000E-02   0.3852512040E-16   0.1452548283E+00  -0.3630445707E-01  -0.6526102418E-16   0.3500000005E+01   0.3837361846E-12   0.3844146658E-12  -0.5412372865E-15  -0.4128150386E-15  -0.4447592801E-15   0.7037741423E-01  -0.3518170712E-01  -0.3518170712E-01   0.1880434682E-15  -0.5976459911E-16  -0.2941315671E-16   0.3500000005E+01
   0.2140754828E+01   0.0000000000E+00   0.9648182929E+00  -0.4500000000E-02   0.0000000000E+00   0.1122750000E-02   0.1452548283E+00   0.0000000000E+00  -0.3630445707E-01   0.3500000005E+01   0.3393268902E-11   0.3393328398E-11  -0.1857789522E-14  -0.3494142600E-15   0.3022156171E-15   0.7037741423E-01  -0.3518170712E-01  -0.3518170712E-01   0.9477684091E-16  -0.5061205222E-16  -0.8384866364E-17   0.3500000005E+01
   0.2140754828E+01   0.9648182929E+00   0.9648182929E+00  -0.4500000000E-02   0.1122750000E-02   0.1122750000E-02   0.1452548283E+00  -0.3630445707E-01  -0.3630445707E-01   0.3500000004E+01  -0.5168678333E-12  -0.5160485814E-12   0.5875414705E-15   0.1751008342E-14  -0.5722954662E-17   0.7037741422E-01  -0.3518170711E-01  -0.3518170711E-01   0.3284423416E-16   0.4447624768E-16  -0.9732834380E-17   0.3500000004E+01
     1     2     3     4     5     6     7     8
     2     9    10     3     6    11    12     7
 VARIABLES = X,Y,Z,DU1,DU2,DU3,U1,U2,U3,S11,S22,S33,S12,S13,S23,E11,E22,E33,E12,E13,E23,SMISES
 ZONE, T="0.3450D+01" F=FEPOINT, I=   12 J=    2 ET=BRICK
   0.0000000000E+00   0.0000000000E+00   0.0000000000E+00   0.0000000000E+00   0.0000000000E+00   0.0000000000E+00   0.0000000000E+00   0.0000000000E+00   0.0000000000E+00   0.2375000004E+01  -0.1888017299E-12  -0.1882563153E-12   0.8092499513E-16   0.3291190681E-15  -0.1076414270E-14   0.6812741424E-01  -0.3405895712E-01  -0.3405895712E-01   0.1055201222E-16   0.1573753053E-16  -0.3196403887E-17   0.2375000004E+01
   0.1068127414E+01   0.0000000000E+00  -0.2054987230E-17  -0.2250000000E-02   0.0000000000E+00  -0.5099827481E-17   0.7037741413E-01   0.0000000000E+00   0.3044840251E-17   0.2375000004E+01  -0.1250282523E-11  -0.1250738035E-11   0.6465210922E-15  -0.6059916399E-15  -0.2911540541E-15   0.6812741424E-01  -0.3405895712E-01  -0.3405895712E-01  -0.2619850878E-16   0.1667990251E-16  -0.2016519041E-16   0.2375000004E+01
   0.1068127414E+01   0.9659410429E+00  -0.9174209541E-17  -0.2250000000E-02   0.1122750000E-02  -0.6801728047E-17   0.7037741413E-01  -0.3518170707E-01  -0.2372481494E-17   0.2375000003E+01  -0.4010451096E-11  -0.4007885770E-11   0.1867717751E-14  -0.2327712539E-14  -0.3291290862E-15   0.6812741423E-01  -0.3405895711E-01  -0.3405895711E-01  -0.3280948914E-16   0.4804837195E-16   0.5673971141E-16   0.2375000003E+01
   0.0000000000E+00   0.9659410429E+00  -0.2850617846E-17   0.0000000000E+00   0.1122750000E-02  -0.1614041621E-17   0.0000000000E+00  -0.3518170707E-01  -0.1236576226E-17   0.2375000003E+01  -0.1491535596E-11  -0.1490457577E-11  -0.5596481357E-16   0.1336469064E-14   0.3209540236E-15   0.6812741423E-01  -0.3405895712E-01  -0.3405895712E-01  -0.2795248829E-16   0.6012459462E-17  -0.2391387377E-16   0.2375000003E+01
   0.0000000000E+00   0.0000000000E+00   0.9659410429E+00   0.0000000000E+00   0.0000000000E+00   0.1122750000E-02   0.0000000000E+00   0.0000000000E+00  -0.3518170707E-01   0.2375000003E+01   0.1744965349E-11   0.1744129835E-11   0.1697062524E-16   0.3904099845E-15   0.3420300719E-15   0.6812741423E-01  -0.3405895712E-01  -0.3405895712E-01  -0.1085446307E-16  -0.3645696042E-16  -0.1673644296E-17   0.2375000003E+01
   0.1068127414E+01   0.0000000000E+00   0.9659410429E+00  -0.2250000000E-02   0.0000000000E+00   0.1122750000E-02   0.7037741413E-01   0.0000000000E+00  -0.3518170707E-01   0.2375000003E+01   0.1125696135E-11   0.1125742751E-11  -0.6913438091E-16   0.5359729733E-15  -0.1285240317E-16   0.6812741423E-01  -0.3405895711E-01  -0.3405895711E-01   0.5781923168E-16   0.2272942038E-16  -0.3868804717E-16   0.2375000003E+01
   0.1068127414E+01   0.9659410429E+00   0.9659410429E+00  -0.2250000000E-02   0.1122750000E-02   0.1122750000E-02   0.7037741413E-01  -0.3518170707E-01  -0.3518170707E-01   0.2375000003E+01  -0.1058369147E-11  -0.1058920807E-11   0.7681189027E-15   0.8778951487E-15   0.7259657288E-15   0.6812741422E-01  -0.3405895711E-01  -0.3405895711E-01   0.4740684163E-16   0.7401586340E-16   0.3295111673E-16   0.2375000003E+01
   0.0000000000E+00   0.9659410429E+00   0.9659410429E+00   0.0000000000E+00   0.1122750000E-02   0.1122750000E-02   0.0000000000E+00  -0.3518170707E-01  -0.3518170707E-01   0.2375000003E+01   0.3357601683E-11   0.3354921082E-11  -0.5593534191E-15  -0.7573505860E-16   0.1759572989E-15   0.6812741422E-01  -0.3405895711E-01  -0.3405895711E-01   0.3195920889E-16  -0.7037413582E-16  -0.4790133347E-17   0.2375000003E+01
   0.2136254828E+01   0.0000000000E+00  -0.3567188074E-16  -0.4500000000E-02   0.0000000000E+00  -0.2059047759E-16   0.1407548283E+00   0.0000000000E+00  -0.1508140315E-16   0.2375000004E+01   0.2899564757E-11   0.2896569949E-11  -0.2754712394E-14  -0.7657685790E-15  -0.2441516562E-15   0.6812741423E-01  -0.3405895712E-01  -0.3405895712E-01   0.1966638410E-15  -0.1024242890E-16  -0.1756725489E-16   0.2375000004E+01
   0.2136254828E+01   0.9659410429E+00  -0.4774684581E-16  -0.4500000000E-02   0.1122750000E-02  -0.2101094202E-16   0.1407548283E+00  -0.3518170707E-01  -0.2673590379E-16   0.2375000003E+01  -0.8291317487E-14  -0.7353143909E-14  -0.6996414550E-16  -0.2782145223E-15   0.4914202958E-16   0.6812741423E-01  -0.3405895711E-01  -0.3405895711E-01   0.2198099407E-15  -0.6191290010E-16  -0.1477874380E-16   0.2375000003E+01
   0.2136254828E+01   0.0000000000E+00   0.9659410429E+00  -0.4500000000E-02   0.0000000000E+00   0.1122750000E-02   0.1407548283E+00   0.0000000000E+00  -0.3518170707E-01   0.2375000003E+01   0.4262048079E-11   0.4261860764E-11  -0.2436782040E-14   0.5830068880E-15  -0.1682598066E-17   0.6812741423E-01  -0.3405895711E-01  -0.3405895711E-01   0.8830746854E-16   0.8067690636E-16  -0.4975508182E-16   0.2375000003E+01
   0.2136254828E+01   0.9659410429E+00   0.9659410429E+00  -0.4500000000E-02   0.1122750000E-02   0.1122750000E-02   0.1407548283E+00  -0.3518170707E-01  -0.3518170707E-01   0.2375000003E+01  -0.3922418443E-12  -0.3922029331E-12   0.1786533778E-15   0.1818133751E-14   0.3039618505E-15   0.6812741422E-01  -0.3405895711E-01  -0.3405895711E-01   0.8689735307E-16   0.7247156016E-16  -0.2333960628E-16   0.2375000003E+01
     1     2     3     4     5     6     7     8
     2     9    10     3     6    11    12     7
 VARIABLES = X,Y,Z,DU1,DU2,DU3,U1,U2,U3,S11,S22,S33,S12,S13,S23,E11,E22,E33,E12,E13,E23,SMISES
 ZONE, T="0.3500D+01" F=FEPOINT, I=   12 J=    2 ET=BRICK
   0.0000000000E+00   0.0000000000E+00   0.0000000000E+00   0.0000000000E+00   0.0000000000E+00   0.0000000000E+00   0.0000000000E+00   0.0000000000E+00   0.0000000000E+00   0.1250000002E+01   0.2384706146E-12   0.2386878108E-12   0.6848527293E-16   0.5403954401E-15  -0.8063365520E-15   0.6587741424E-01  -0.3293620712E-01  -0.3293620712E-01   0.4505523228E-17   0.1478509503E-16  -0.4523620317E-17   0.1250000002E+01
   0.1065877414E+01   0.0000000000E+00   0.4693840917E-18  -0.2250000000E-02   0.0000000000E+00   0.2524371322E-17   0.6812741413E-01   0.0000000000E+00  -0.2054987230E-17   0.1250000002E+01  -0.9424448887E-12  -0.9429251668E-12   0.4415625615E-15  -0.6794241061E-15  -0.1134114833E-15   0.6587741423E-01  -0.3293620712E-01  -0.3293620712E-01  -0.1420629902E-16   0.2260919153E-16  -0.1084263758E-16   0.1250000002E+01
   0.1065877414E+01   0.9670637929E+00  -0.5550745961E-17  -0.2250000000E-02   0.1122750000E-02   0.3623463580E-17   0.6812741413E-01  -0.3405895707E-01  -0.9174209541E-17   0.1250000002E+01  -0.3806787475E-11  -0.3804334897E-11   0.1548631123E-14  -0.2379455445E-14  -0.3856748155E-15   0.6587741423E-01  -0.3293620711E-01  -0.3293620711E-01   0.6454102058E-17   0.6985633137E-16   0.2890083047E-16   0.1250000002E+01
   0.0000000000E+00   0.9670637929E+00  -0.1315451747E-17   0.0000000000E+00   0.1122750000E-02   0.1535166099E-17   0.0000000000E+00  -0.3405895707E-01  -0.2850617846E-17   0.1250000002E+01  -0.1278071124E-11  -0.1277463188E-11  -0.1715267135E-15   0.1505419826E-14   0.8372616052E-16   0.6587741423E-01  -0.3293620711E-01  -0.3293620711E-01  -0.4921389858E-16   0.1326739498E-16  -0.8263163057E-17   0.1250000002E+01
   0.0000000000E+00   0.0000000000E+00   0.9670637929E+00   0.0000000000E+00   0.0000000000E+00   0.1122750000E-02   0.0000000000E+00   0.0000000000E+00  -0.3405895707E-01   0.1250000002E+01   0.1323395386E-11   0.1323160932E-11   0.4494148999E-16   0.6999521619E-15   0.5536246227E-15   0.6587741423E-01  -0.3293620711E-01  -0.3293620711E-01  -0.2878913443E-17  -0.4358141217E-16  -0.1642997059E-16   0.1250000002E+01
   0.1065877414E+01   0.0000000000E+00   0.9670637929E+00  -0.2250000000E-02   0.0000000000E+00   0.1122750000E-02   0.6812741413E-01   0.0000000000E+00  -0.3405895707E-01   0.1250000002E+01   0.8944920408E-12   0.8949242449E-12  -0.1360057711E-15   0.4538057764E-15   0.1448252863E-15   0.6587741423E-01  -0.3293620711E-01  -0.3293620711E-01   0.3603726335E-16   0.7398430353E-16  -0.2437360299E-16   0.1250000002E+01
   0.1065877414E+01   0.9670637929E+00   0.9670637929E+00  -0.2250000000E-02   0.1122750000E-02   0.1122750000E-02   0.6812741413E-01  -0.3405895707E-01  -0.3405895707E-01   0.1250000002E+01  -0.1231232940E-11  -0.1231547948E-11   0.8712460750E-15   0.8529484939E-15   0.7231957030E-15   0.6587741422E-01  -0.3293620711E-01  -0.3293620711E-01   0.2264732361E-16   0.5522990516E-16   0.6090818050E-17   0.1250000002E+01
   0.0000000000E+00   0.9670637929E+00   0.9670637929E+00   0.0000000000E+00   0.1122750000E-02   0.1122750000E-02   0.0000000000E+00  -0.3405895707E-01  -0.3405895707E-01   0.1250000002E+01   0.2965509865E-11   0.2963515947E-11  -0.3999406386E-15   0.1474321580E-15  -0.1138733359E-15   0.6587741422E-01  -0.3293620711E-01  -0.3293620711E-01   0.4750663052E-16  -0.6343567385E-16   0.2224454186E-16   0.1250000002E+01
   0.2131754828E+01   0.0000000000E+00  -0.2509010876E-16  -0.4500000000E-02   0.0000000000E+00   0.1058177198E-16   0.1362548283E+00   0.0000000000E+00  -0.3567188074E-16   0.1250000002E+01   0.2939977983E-11   0.2936727067E-11  -0.2925324037E-14  -0.5321743451E-15  -0.4589911731E-15   0.6587741423E-01  -0.3293620712E-01  -0.3293620712E-01   0.1628286631E-15  -0.8908033371E-16  -0.2732148082E-16   0.1250000002E+01
   0.2131754828E+01   0.9670637929E+00  -0.3834455685E-16  -0.4500000000E-02   0.1122750000E-02   0.9402288955E-17   0.1362548283E+00  -0.3405895707E-01  -0.4774684581E-16   0.1250000002E+01   0.2545301878E-12   0.2555558449E-12  -0.3405482103E-15  -0.6065983925E-15  -0.1849357742E-15   0.6587741422E-01  -0.3293620711E-01  -0.3293620711E-01   0.1669094961E-15  -0.6880196054E-17   0.2205965565E-16   0.1250000002E+01
   0.2131754828E+01   0.0000000000E+00   0.9670637929E+00  -0.4500000000E-02   0.0000000000E+00   0.1122750000E-02   0.1362548283E+00   0.0000000000E+00  -0.3405895707E-01   0.1250000002E+01   0.3964762267E-11   0.3964421434E-11  -0.1984239491E-14   0.1113626689E-15   0.1961145316E-16   0.6587741422E-01  -0.3293620711E-01  -0.3293620711E-01   0.1210312946E-15   0.1497854153E-15  -0.2306242913E-16   0.1250000002E+01
   0.2131754828E+01   0.9670637929E+00   0.9670637929E+00  -0.4500000000E-02   0.1122750000E-02   0.1122750000E-02   0.1362548283E+00  -0.3405895707E-01  -0.3405895707E-01   0.1250000002E+01  -0.3859536501E-12  -0.3854971777E-12   0.7298032645E-15   0.1715830731E-14   0.1659580194E-15   0.6587741422E-01  -0.3293620711E-01  -0.3293620711E-01   0.8762181702E-16  -0.5863105330E-19  -0.1071030830E-16   0.1250000002E+01
     1     2     3     4     5     6     7     8
     2     9    10     3     6    11    12     7
 VARIABLES = X,Y,Z,DU1,DU2,DU3,U1,U2,U3,S11,S22,S33,S12,S13,S23,E11,E22,E33,E12,E13,E23,SMISES
 ZONE, T="0.3550D+01" F=FEPOINT, I=   12 J=    2 ET=BRICK
   0.0000000000E+00   0.0000000000E+00   0.0000000000E+00   0.0000000000E+00   0.0000000000E+00   0.0000000000E+00   0.0000000000E+00   0.0000000000E+00   0.0000000000E+00   0.1250000002E+00   0.2443288093E-12   0.2446134578E-12   0.5219306587E-16   0.5903169126E-15  -0.8497777836E-15   0.6362741423E-01  -0.3181345712E-01  -0.3181345712E-01  -0.1484897548E-16   0.1273626488E-16   0.3465409242E-17   0.1250000002E+00
   0.1063627414E+01   0.0000000000E+00   0.5404540755E-18  -0.2250000000E-02   0.0000000000E+00   0.7106998372E-19   0.6587741413E-01   0.0000000000E+00   0.4693840917E-18   0.1250000002E+00  -0.9053422770E-12  -0.9057269508E-12   0.4864974076E-15  -0.7682018899E-15  -0.2195378977E-15   0.6362741423E-01  -0.3181345712E-01  -0.3181345712E-01   0.2415427561E-16   0.5458519254E-16  -0.4488191912E-17   0.1250000002E+00
   0.1063627414E+01   0.9681865429E+00  -0.5970913560E-17  -0.2250000000E-02   0.1122750000E-02  -0.4201675990E-18   0.6587741413E-01  -0.3293620707E-01  -0.5550745961E-17   0.1250000002E+00  -0.3863499631E-11  -0.3861088856E-11   0.1548643804E-14  -0.2359945185E-14  -0.3960951235E-15   0.6362741422E-01  -0.3181345711E-01  -0.3181345711E-01   0.9344919238E-17   0.8351235135E-16   0.4050137797E-16   0.1250000002E+00
   0.0000000000E+00   0.9681865429E+00  -0.1608488507E-17   0.0000000000E+00   0.1122750000E-02  -0.2930367600E-18   0.0000000000E+00  -0.3293620707E-01  -0.1315451747E-17   0.1250000002E+00  -0.1272288441E-11  -0.1271749253E-11  -0.1371180505E-15   0.1457394289E-14   0.1415411782E-15   0.6362741422E-01  -0.3181345711E-01  -0.3181345711E-01  -0.4687381114E-16  -0.3299047557E-17  -0.1782205705E-16   0.1250000002E+00
   0.0000000000E+00   0.0000000000E+00   0.9681865429E+00   0.0000000000E+00   0.0000000000E+00   0.1122750000E-02   0.0000000000E+00   0.0000000000E+00  -0.3293620707E-01   0.1250000002E+00   0.1382078293E-11   0.1381634010E-11   0.4818632867E-16   0.7813980223E-15   0.4306374060E-15   0.6362741422E-01  -0.3181345711E-01  -0.3181345711E-01   0.1277519104E-16  -0.5898015217E-16  -0.2048008551E-16   0.1250000002E+00
   0.1063627414E+01   0.0000000000E+00   0.9681865429E+00  -0.2250000000E-02   0.0000000000E+00   0.1122750000E-02   0.6587741413E-01   0.0000000000E+00  -0.3293620707E-01   0.1250000002E+00   0.9941247912E-12   0.9945129923E-12  -0.1626588574E-15   0.3020365801E-15   0.1212304454E-15   0.6362741422E-01  -0.3181345711E-01  -0.3181345711E-01   0.9560640464E-18   0.6915490685E-16  -0.4449036864E-16   0.1250000002E+00
   0.1063627414E+01   0.9681865429E+00   0.9681865429E+00  -0.2250000000E-02   0.1122750000E-02   0.1122750000E-02   0.6587741413E-01  -0.3293620707E-01  -0.3293620707E-01   0.1250000002E+00  -0.1225224271E-11  -0.1225696063E-11   0.8687823181E-15   0.7625206523E-15   0.6531968856E-15   0.6362741422E-01  -0.3181345711E-01  -0.3181345711E-01   0.1180781955E-16   0.6176478725E-16   0.3125130533E-16   0.1250000002E+00
   0.0000000000E+00   0.9681865429E+00   0.9681865429E+00   0.0000000000E+00   0.1122750000E-02   0.1122750000E-02   0.0000000000E+00  -0.3293620707E-01  -0.3293620707E-01   0.1250000002E+00   0.3024119127E-11   0.3021798093E-11  -0.4969291254E-15   0.2423921296E-15  -0.5199271231E-16   0.6362741422E-01  -0.3181345711E-01  -0.3181345711E-01   0.6773250629E-16  -0.6295969057E-16  -0.6267160203E-16   0.1250000002E+00
   0.2127254828E+01   0.0000000000E+00  -0.2687392083E-16  -0.4500000000E-02   0.0000000000E+00  -0.1783812075E-17   0.1317548283E+00   0.0000000000E+00  -0.2509010876E-16   0.1250000002E+00   0.3008248817E-11   0.3005115649E-11  -0.2884328148E-14  -0.1006958101E-14  -0.2371609776E-15   0.6362741423E-01  -0.3181345711E-01  -0.3181345711E-01   0.1550238053E-15   0.1021000114E-15  -0.2371105892E-16   0.1250000002E+00
   0.2127254828E+01   0.9681865429E+00  -0.3882550019E-16  -0.4500000000E-02   0.1122750000E-02  -0.4809433355E-18   0.1317548283E+00  -0.3293620707E-01  -0.3834455685E-16   0.1250000002E+00   0.1353993886E-12   0.1364117967E-12  -0.3080924578E-15  -0.2787854286E-15  -0.3423470481E-17   0.6362741422E-01  -0.3181345711E-01  -0.3181345711E-01   0.1878791324E-15  -0.2789445767E-16   0.1066180719E-17   0.1250000002E+00
   0.2127254828E+01   0.0000000000E+00   0.9681865429E+00  -0.4500000000E-02   0.0000000000E+00   0.1122750000E-02   0.1317548283E+00   0.0000000000E+00  -0.3293620707E-01   0.1250000002E+00   0.4105629223E-11   0.4105432640E-11  -0.2158741030E-14   0.2468658691E-15   0.4364765926E-16   0.6362741422E-01  -0.3181345711E-01  -0.3181345711E-01   0.1148676562E-15   0.1291759993E-15  -0.2291574096E-16   0.1250000002E+00
   0.2127254828E+01   0.9681865429E+00   0.9681865429E+00  -0.4500000000E-02   0.1122750000E-02   0.1122750000E-02   0.1317548283E+00  -0.3293620707E-01  -0.3293620707E-01   0.1250000002E+00  -0.4328299348E-12  -0.4323659236E-12   0.5482090127E-15   0.1767339997E-14   0.2281645940E-15   0.6362741421E-01  -0.3181345711E-01  -0.3181345711E-01   0.5551500833E-16   0.1270217204E-15  -0.1784066549E-16   0.1250000002E+00
     1     2     3     4     5     6     7     8
     2     9    10     3     6    11    12     7
 VARIABLES = X,Y,Z,DU1,DU2,DU3,U1,U2,U3,S11,S22,S33,S12,S13,S23,E11,E22,E33,E12,E13,E23,SMISES
 ZONE, T="0.3600D+01" F=FEPOINT, I=   12 J=    2 ET=BRICK
   0.0000000000E+00   0.0000000000E+00   0.0000000000E+00   0.0000000000E+00   0.0000000000E+00   0.0000000000E+00   0.0000000000E+00   0.0000000000E+00   0.0000000000E+00  -0.1000000002E+01   0.1622915848E-12   0.1625568551E-12   0.3456065176E-16   0.4372722465E-15  -0.9203413480E-15   0.6137741423E-01  -0.3069070711E-01  -0.3069070711E-01   0.1102763648E-17   0.3361101975E-17  -0.1324900235E-16   0.1000000002E+01
   0.1061377414E+01   0.0000000000E+00  -0.1287750183E-18  -0.2250000000E-02   0.0000000000E+00  -0.6692290938E-18   0.6362741413E-01   0.0000000000E+00   0.5404540755E-18  -0.1000000002E+01  -0.9184953446E-12  -0.9189979340E-12   0.5010813042E-15  -0.6609660099E-15  -0.1768389387E-15   0.6137741423E-01  -0.3069070711E-01  -0.3069070711E-01   0.1188475513E-16   0.8364334891E-16  -0.6077078647E-17   0.1000000002E+01
   0.1061377414E+01   0.9693092929E+00  -0.6507059034E-17  -0.2250000000E-02   0.1122750000E-02  -0.5361454740E-18   0.6362741413E-01  -0.3181345707E-01  -0.5970913560E-17  -0.1000000001E+01  -0.3859611794E-11  -0.3857391419E-11   0.1471889170E-14  -0.2377914593E-14  -0.4489501529E-15   0.6137741422E-01  -0.3069070711E-01  -0.3069070711E-01  -0.8826576569E-17   0.3384320882E-16   0.4695417896E-16   0.1000000001E+01
   0.0000000000E+00   0.9693092929E+00  -0.1979089445E-17   0.0000000000E+00   0.1122750000E-02  -0.3706009374E-18   0.0000000000E+00  -0.3181345707E-01  -0.1608488507E-17  -0.1000000001E+01  -0.1315957647E-11  -0.1315166213E-11   0.1170665191E-15   0.1508435055E-14   0.1972508062E-15   0.6137741422E-01  -0.3069070711E-01  -0.3069070711E-01  -0.4418847463E-16   0.1580677846E-16  -0.1800668765E-16   0.1000000001E+01
   0.0000000000E+00   0.0000000000E+00   0.9693092929E+00   0.0000000000E+00   0.0000000000E+00   0.1122750000E-02   0.0000000000E+00   0.0000000000E+00  -0.3181345707E-01  -0.1000000001E+01   0.1366240855E-11   0.1365618819E-11   0.5992992794E-16   0.8034977987E-15   0.4106882375E-15   0.6137741422E-01  -0.3069070711E-01  -0.3069070711E-01  -0.2312505204E-17  -0.3953719282E-16  -0.3227032635E-16   0.1000000001E+01
   0.1061377414E+01   0.0000000000E+00   0.9693092929E+00  -0.2250000000E-02   0.0000000000E+00   0.1122750000E-02   0.6362741413E-01   0.0000000000E+00  -0.3181345707E-01  -0.1000000001E+01   0.1090176747E-11   0.1090547996E-11  -0.1909009314E-15   0.4196847472E-15   0.9808755141E-16   0.6137741422E-01  -0.3069070711E-01  -0.3069070711E-01   0.1797461957E-16   0.5117761187E-16  -0.3084503041E-16   0.1000000001E+01
   0.1061377414E+01   0.9693092929E+00   0.9693092929E+00  -0.2250000000E-02   0.1122750000E-02   0.1122750000E-02   0.6362741413E-01  -0.3181345707E-01  -0.3181345707E-01  -0.1000000001E+01  -0.1220227591E-11  -0.1220669225E-11   0.9674879529E-15   0.7848608381E-15   0.6419001933E-15   0.6137741421E-01  -0.3069070711E-01  -0.3069070711E-01   0.7744879644E-16   0.8030641990E-16   0.3539625212E-17   0.1000000001E+01
   0.0000000000E+00   0.9693092929E+00   0.9693092929E+00   0.0000000000E+00   0.1122750000E-02   0.1122750000E-02   0.0000000000E+00  -0.3181345707E-01  -0.3181345707E-01  -0.1000000001E+01   0.3100758953E-11   0.3098440767E-11  -0.4784303823E-15   0.2279643595E-15   0.8432002703E-16   0.6137741421E-01  -0.3069070711E-01  -0.3069070711E-01   0.5411082409E-16  -0.4296887927E-16  -0.1424983983E-16   0.1000000001E+01
   0.2122754828E+01   0.0000000000E+00  -0.2820190667E-16  -0.4500000000E-02   0.0000000000E+00  -0.1327985845E-17   0.1272548283E+00   0.0000000000E+00  -0.2687392083E-16  -0.1000000002E+01   0.2787173024E-11   0.2784293819E-11  -0.2411461029E-14  -0.5561388495E-15  -0.3033877435E-15   0.6137741422E-01  -0.3069070711E-01  -0.3069070711E-01   0.1553029597E-15   0.5487068186E-16  -0.3195266477E-16   0.1000000002E+01
   0.2122754828E+01   0.9693092929E+00  -0.4047578529E-16  -0.4500000000E-02   0.1122750000E-02  -0.1650285104E-17   0.1272548283E+00  -0.3181345707E-01  -0.3882550019E-16  -0.1000000001E+01  -0.3564223858E-13  -0.3434510183E-13  -0.1305911871E-15  -0.4566492865E-15   0.1645898066E-15   0.6137741422E-01  -0.3069070711E-01  -0.3069070711E-01   0.1978229228E-15  -0.4058492357E-16  -0.1103657083E-16   0.1000000001E+01
   0.2122754828E+01   0.0000000000E+00   0.9693092929E+00  -0.4500000000E-02   0.0000000000E+00   0.1122750000E-02   0.1272548283E+00   0.0000000000E+00  -0.3181345707E-01  -0.1000000001E+01   0.4254078660E-11   0.4253757149E-11  -0.2463956863E-14   0.4861599019E-15  -0.4202530817E-16   0.6137741422E-01  -0.3069070711E-01  -0.3069070711E-01   0.9408183140E-16   0.1079747624E-15  -0.1179351555E-16   0.1000000001E+01
   0.2122754828E+01   0.9693092929E+00   0.9693092929E+00  -0.4500000000E-02   0.1122750000E-02   0.1122750000E-02   0.1272548283E+00  -0.3181345707E-01  -0.3181345707E-01  -0.1000000001E+01  -0.5047921616E-12  -0.5046329317E-12   0.3615518907E-15   0.1596100014E-14   0.3149972302E-15   0.6137741421E-01  -0.3069070711E-01  -0.3069070711E-01   0.6603574378E-16   0.4541245398E-16   0.2007780397E-17   0.1000000001E+01
     1     2     3     4     5     6     7     8
     2     9    10     3     6    11    12     7
 VARIABLES = X,Y,Z,DU1,DU2,DU3,U1,U2,U3,S11,S22,S33,S12,S13,S23,E11,E22,E33,E12,E13,E23,SMISES
 ZONE, T="0.3650D+01" F=FEPOINT, I=   12 J=    2 ET=BRICK
   0.0000000000E+00   0.0000000000E+00   0.0000000000E+00   0.0000000000E+00   0.0000000000E+00   0.0000000000E+00   0.0000000000E+00   0.0000000000E+00   0.0000000000E+00  -0.2125000003E+01   0.2711106349E-12   0.2714684682E-12   0.4851216126E-16   0.4921393289E-15  -0.8658488261E-15   0.5912741422E-01  -0.2956795711E-01  -0.2956795711E-01   0.2918235581E-17  -0.2022212419E-17   0.6605987321E-17   0.2125000003E+01
   0.1059127414E+01   0.0000000000E+00   0.4443603991E-18  -0.2250000000E-02   0.0000000000E+00   0.5731354174E-18   0.6137741413E-01   0.0000000000E+00  -0.1287750183E-18  -0.2125000003E+01  -0.8951178607E-12  -0.8958618167E-12   0.4114932855E-15  -0.6749062444E-15  -0.1239888619E-15   0.5912741422E-01  -0.2956795711E-01  -0.2956795711E-01  -0.4574232000E-17   0.9174185742E-16  -0.1646971130E-16   0.2125000003E+01
   0.1059127414E+01   0.9704320429E+00  -0.5631071079E-17  -0.2250000000E-02   0.1122750000E-02   0.8759879551E-18   0.6137741413E-01  -0.3069070707E-01  -0.6507059034E-17  -0.2125000003E+01  -0.3783715403E-11  -0.3781473714E-11   0.1387216124E-14  -0.2379647605E-14  -0.4328986915E-15   0.5912741422E-01  -0.2956795711E-01  -0.2956795711E-01   0.7706585002E-17   0.2281641853E-16   0.4491508323E-16   0.2125000003E+01
   0.0000000000E+00   0.9704320429E+00  -0.1504483895E-17   0.0000000000E+00   0.1122750000E-02   0.4746055493E-18   0.0000000000E+00  -0.3069070707E-01  -0.1979089445E-17  -0.2125000003E+01  -0.1432682298E-11  -0.1432085020E-11   0.1374061827E-16   0.1525886925E-14   0.1275447332E-15   0.5912741422E-01  -0.2956795711E-01  -0.2956795711E-01  -0.4165349833E-16   0.4090693755E-16  -0.1867577891E-16   0.2125000003E+01
   0.0000000000E+00   0.0000000000E+00   0.9704320429E+00   0.0000000000E+00   0.0000000000E+00   0.1122750000E-02   0.0000000000E+00   0.0000000000E+00  -0.3069070707E-01  -0.2125000003E+01   0.1208159343E-11   0.1207559485E-11   0.4083222577E-16   0.6769275370E-15   0.4571284445E-15   0.5912741422E-01  -0.2956795711E-01  -0.2956795711E-01  -0.8419372768E-17  -0.5164331780E-16  -0.3840307177E-16   0.2125000003E+01
   0.1059127414E+01   0.0000000000E+00   0.9704320429E+00  -0.2250000000E-02   0.0000000000E+00   0.1122750000E-02   0.6137741413E-01   0.0000000000E+00  -0.3069070707E-01  -0.2125000003E+01   0.9670376488E-12   0.9676353900E-12  -0.1125197083E-15   0.4638351501E-15   0.1761460680E-15   0.5912741422E-01  -0.2956795711E-01  -0.2956795711E-01   0.3725753745E-16   0.6588044662E-16  -0.3295236774E-16   0.2125000003E+01
   0.1059127414E+01   0.9704320429E+00   0.9704320429E+00  -0.2250000000E-02   0.1122750000E-02   0.1122750000E-02   0.6137741413E-01  -0.3069070707E-01  -0.3069070707E-01  -0.2125000003E+01  -0.1236693941E-11  -0.1237018112E-11   0.9112954591E-15   0.7321831836E-15   0.6251181438E-15   0.5912741421E-01  -0.2956795710E-01  -0.2956795710E-01   0.3684983839E-16   0.9679318494E-16   0.5667137377E-16   0.2125000003E+01
   0.0000000000E+00   0.9704320429E+00   0.9704320429E+00   0.0000000000E+00   0.1122750000E-02   0.1122750000E-02   0.0000000000E+00  -0.3069070707E-01  -0.3069070707E-01  -0.2125000003E+01   0.3014547201E-11   0.3012347341E-11  -0.4723829625E-15   0.3551165323E-15  -0.2234446420E-16   0.5912741421E-01  -0.2956795711E-01  -0.2956795711E-01   0.5961978917E-16  -0.4334849893E-16  -0.3161871698E-16   0.2125000003E+01
   0.2118254828E+01   0.0000000000E+00  -0.2584993187E-16  -0.4500000000E-02   0.0000000000E+00   0.2351974801E-17   0.1227548283E+00   0.0000000000E+00  -0.2820190667E-16  -0.2125000003E+01   0.2833438937E-11   0.2830509799E-11  -0.2312495593E-14  -0.7627453919E-15  -0.2587663951E-15   0.5912741422E-01  -0.2956795711E-01  -0.2956795711E-01   0.1787473399E-15   0.9092306107E-16  -0.2679211944E-16   0.2125000003E+01
   0.2118254828E+01   0.9704320429E+00  -0.3794714716E-16  -0.4500000000E-02   0.1122750000E-02   0.2528638128E-17   0.1227548283E+00  -0.3069070707E-01  -0.4047578529E-16  -0.2125000003E+01   0.1790625854E-12   0.1800453815E-12  -0.5410300427E-16  -0.3437095780E-15   0.8099712107E-17   0.5912741421E-01  -0.2956795711E-01  -0.2956795711E-01   0.1901340915E-15  -0.4918992809E-16   0.7219258440E-17   0.2125000003E+01
   0.2118254828E+01   0.0000000000E+00   0.9704320429E+00  -0.4500000000E-02   0.0000000000E+00   0.1122750000E-02   0.1227548283E+00   0.0000000000E+00  -0.3069070707E-01  -0.2125000003E+01   0.4219983028E-11   0.4219874265E-11  -0.2352892244E-14   0.4726464269E-15  -0.9568349968E-16   0.5912741421E-01  -0.2956795711E-01  -0.2956795711E-01   0.6784566590E-16   0.9159552313E-16  -0.1071104887E-16   0.2125000003E+01
   0.2118254828E+01   0.9704320429E+00   0.9704320429E+00  -0.4500000000E-02   0.1122750000E-02   0.1122750000E-02   0.1227548283E+00  -0.3069070707E-01  -0.3069070707E-01  -0.2125000003E+01  -0.5598431049E-12  -0.5597080455E-12   0.5279217997E-15   0.1422251827E-14   0.1373832822E-15   0.5912741421E-01  -0.2956795710E-01  -0.2956795710E-01   0.3096081940E-16   0.5030325185E-16  -0.2792003172E-16   0.2125000003E+01
     1     2     3     4     5     6     7     8
     2     9    10     3     6    11    12     7
 VARIABLES = X,Y,Z,DU1,DU2,DU3,U1,U2,U3,S11,S22,S33,S12,S13,S23,E11,E22,E33,E12,E13,E23,SMISES
 ZONE, T="0.3700D+01" F=FEPOINT, I=   12 J=    2 ET=BRICK
   0.0000000000E+00   0.0000000000E+00   0.0000000000E+00   0.0000000000E+00   0.0000000000E+00   0.0000000000E+00   0.0000000000E+00   0.0000000000E+00   0.0000000000E+00  -0.3250000005E+01  -0.1124898127E-12  -0.1123929351E-12   0.4361004840E-16  -0.4673036725E-16  -0.1186013886E-14   0.5687741422E-01  -0.2844520711E-01  -0.2844520711E-01  -0.6987662781E-17   0.1439351611E-18  -0.1498574994E-16   0.3250000005E+01
   0.1056877414E+01   0.0000000000E+00  -0.2605634748E-17  -0.2250000000E-02   0.0000000000E+00  -0.3049995147E-17   0.5912741413E-01   0.0000000000E+00   0.4443603991E-18  -0.3250000005E+01  -0.8845397121E-12  -0.8849119571E-12   0.7401183247E-15  -0.3913338981E-15  -0.7460570989E-16   0.5687741422E-01  -0.2844520711E-01  -0.2844520711E-01   0.2335454189E-16   0.9617029291E-16  -0.6584278619E-17   0.3250000005E+01
   0.1056877414E+01   0.9715547929E+00  -0.8514032292E-17  -0.2250000000E-02   0.1122750000E-02  -0.2882961214E-17   0.5912741413E-01  -0.2956795707E-01  -0.5631071079E-17  -0.3250000005E+01  -0.4133465693E-11  -0.4131114975E-11   0.1730121289E-14  -0.2563888732E-14  -0.1738968279E-15   0.5687741421E-01  -0.2844520711E-01  -0.2844520711E-01  -0.7160071985E-18   0.7739592483E-16   0.3863614806E-16   0.3250000005E+01
   0.0000000000E+00   0.9715547929E+00  -0.3405150393E-17   0.0000000000E+00   0.1122750000E-02  -0.1900666498E-17   0.0000000000E+00  -0.2956795707E-01  -0.1504483895E-17  -0.3250000005E+01  -0.1340488538E-11  -0.1339088607E-11  -0.1688332282E-15   0.1577893201E-14   0.4145473803E-16   0.5687741421E-01  -0.2844520711E-01  -0.2844520711E-01  -0.3597092212E-16   0.9694738112E-17   0.1460595456E-16   0.3250000005E+01
   0.0000000000E+00   0.0000000000E+00   0.9715547929E+00   0.0000000000E+00   0.0000000000E+00   0.1122750000E-02   0.0000000000E+00   0.0000000000E+00  -0.2956795707E-01  -0.3250000005E+01   0.1452984763E-11   0.1452006753E-11   0.4763724086E-16   0.4852617697E-15   0.3607565177E-15   0.5687741421E-01  -0.2844520711E-01  -0.2844520711E-01   0.1413602455E-17  -0.4132046120E-16  -0.8322895971E-17   0.3250000005E+01
   0.1056877414E+01   0.0000000000E+00   0.9715547929E+00  -0.2250000000E-02   0.0000000000E+00   0.1122750000E-02   0.5912741413E-01   0.0000000000E+00  -0.2956795707E-01  -0.3250000005E+01   0.1083914659E-11   0.1084342415E-11  -0.1388009190E-15   0.6845950510E-15   0.7456618010E-16   0.5687741421E-01  -0.2844520711E-01  -0.2844520711E-01   0.2238802629E-16   0.8233136460E-16  -0.2113851465E-16   0.3250000005E+01
   0.1056877414E+01   0.9715547929E+00   0.9715547929E+00  -0.2250000000E-02   0.1122750000E-02   0.1122750000E-02   0.5912741413E-01  -0.2956795707E-01  -0.2956795707E-01  -0.3250000004E+01  -0.9929904680E-12  -0.9936253946E-12   0.8865036404E-15   0.5797268488E-15   0.8458630397E-15   0.5687741421E-01  -0.2844520710E-01  -0.2844520710E-01   0.4590068655E-16   0.9195352622E-16   0.5261996215E-16   0.3250000004E+01
   0.0000000000E+00   0.9715547929E+00   0.9715547929E+00   0.0000000000E+00   0.1122750000E-02   0.1122750000E-02   0.0000000000E+00  -0.2956795707E-01  -0.2956795707E-01  -0.3250000004E+01   0.3329430454E-11   0.3326961471E-11  -0.5051908612E-15   0.1675141110E-15   0.5688860199E-16   0.5687741421E-01  -0.2844520710E-01  -0.2844520710E-01   0.6151664706E-16  -0.4885460086E-16  -0.7476939274E-16   0.3250000004E+01
   0.2113754828E+01   0.0000000000E+00  -0.3263557334E-16  -0.4500000000E-02   0.0000000000E+00  -0.6785641463E-17   0.1182548283E+00   0.0000000000E+00  -0.2584993187E-16  -0.3250000005E+01   0.3266203167E-11   0.3263490362E-11  -0.3623797974E-14  -0.1476860107E-14  -0.5202504894E-15   0.5687741422E-01  -0.2844520711E-01  -0.2844520711E-01   0.1602575674E-15   0.1379396931E-15  -0.1966185033E-16   0.3250000005E+01
   0.2113754828E+01   0.9715547929E+00  -0.4622519218E-16  -0.4500000000E-02   0.1122750000E-02  -0.8278045021E-17   0.1182548283E+00  -0.2956795707E-01  -0.3794714716E-16  -0.3250000005E+01  -0.3683746356E-12  -0.3671883877E-12  -0.1185291238E-14   0.4539251901E-15  -0.9819840623E-16   0.5687741421E-01  -0.2844520711E-01  -0.2844520711E-01   0.1980448698E-15  -0.5021530360E-16  -0.1469633774E-17   0.3250000005E+01
   0.2113754828E+01   0.0000000000E+00   0.9715547929E+00  -0.4500000000E-02   0.0000000000E+00   0.1122750000E-02   0.1182548283E+00   0.0000000000E+00  -0.2956795707E-01  -0.3250000005E+01   0.4182718459E-11   0.4182436723E-11  -0.1884321679E-14  -0.5425810285E-15  -0.2031323965E-15   0.5687741421E-01  -0.2844520711E-01  -0.2844520711E-01   0.8684724955E-16   0.1443528833E-15  -0.3941286947E-16   0.3250000005E+01
   0.2113754828E+01   0.9715547929E+00   0.9715547929E+00  -0.4500000000E-02   0.1122750000E-02   0.1122750000E-02   0.1182548283E+00  -0.2956795707E-01  -0.2956795707E-01  -0.3250000004E+01  -0.1961091659E-12  -0.1961153396E-12   0.9601726023E-15   0.2219156636E-14   0.1402323841E-15   0.5687741420E-01  -0.2844520710E-01  -0.2844520710E-01   0.4325180823E-16   0.6458216936E-16   0.1379766330E-16   0.3250000004E+01
     1     2     3     4     5     6     7     8
     2     9    10     3     6    11    12     7
 VARIABLES = X,Y,Z,DU1,DU2,DU3,U1,U2,U3,S11,S22,S33,S12,S13,S23,E11,E22,E33,E12,E13,E23,SMISES
 ZONE, T="0.3750D+01" F=FEPOINT, I=   12 J=    2 ET=BRICK
   0.0000000000E+00   0.0000000000E+00   0.0000000000E+00   0.0000000000E+00   0.0000000000E+00   0.0000000000E+00   0.0000000000E+00   0.0000000000E+00   0.0000000000E+00  -0.4375000007E+01   0.5176195862E-12   0.5181300751E-12   0.5272766790E-16   0.5318410540E-15  -0.8171024700E-15   0.5462741422E-01  -0.2732245711E-01  -0.2732245711E-01   0.8847557713E-17   0.2232811140E-16   0.5513660563E-17   0.4375000007E+01
   0.1054627414E+01   0.0000000000E+00   0.3805116497E-19  -0.2250000000E-02   0.0000000000E+00   0.2643685913E-17   0.5687741413E-01   0.0000000000E+00  -0.2605634748E-17  -0.4375000007E+01  -0.1223219397E-11  -0.1223874642E-11  -0.4577342490E-15  -0.8410294744E-15  -0.3665515997E-15   0.5462741422E-01  -0.2732245711E-01  -0.2732245711E-01  -0.2403901156E-16   0.5319349169E-16  -0.8631494523E-17   0.4375000007E+01
   0.1054627414E+01   0.9726775429E+00  -0.7682418090E-17  -0.2250000000E-02   0.1122750000E-02   0.8316142023E-18   0.5687741413E-01  -0.2844520707E-01  -0.8514032292E-17  -0.4375000006E+01  -0.3819328201E-11  -0.3816901653E-11   0.6325692066E-15  -0.1980460191E-14  -0.7242020528E-15   0.5462741421E-01  -0.2732245710E-01  -0.2732245710E-01  -0.1930729382E-16   0.6612272694E-16   0.1897397105E-16   0.4375000006E+01
   0.0000000000E+00   0.9726775429E+00  -0.9983260089E-18   0.0000000000E+00   0.1122750000E-02   0.2406824384E-17   0.0000000000E+00  -0.2844520707E-01  -0.3405150393E-17  -0.4375000006E+01  -0.1951383204E-11  -0.1950248677E-11   0.7325721119E-16   0.1102122846E-14   0.4327228957E-15   0.5462741421E-01  -0.2732245711E-01  -0.2732245711E-01  -0.3760090302E-16   0.1004348855E-16  -0.3484582047E-16   0.4375000006E+01
   0.0000000000E+00   0.0000000000E+00   0.9726775429E+00   0.0000000000E+00   0.0000000000E+00   0.1122750000E-02   0.0000000000E+00   0.0000000000E+00  -0.2844520707E-01  -0.4375000006E+01   0.1452429060E-11   0.1452262136E-11   0.5566916690E-16   0.6693041817E-15   0.5001020719E-15   0.5462741421E-01  -0.2732245711E-01  -0.2732245711E-01   0.5395369233E-17  -0.4067080488E-16  -0.4440392666E-16   0.4375000006E+01
   0.1054627414E+01   0.0000000000E+00   0.9726775429E+00  -0.2250000000E-02   0.0000000000E+00   0.1122750000E-02   0.5687741413E-01   0.0000000000E+00  -0.2844520707E-01  -0.4375000006E+01   0.1242814751E-11   0.1242985270E-11  -0.2834623345E-15   0.3019724272E-15  -0.1967164192E-15   0.5462741421E-01  -0.2732245710E-01  -0.2732245710E-01   0.3293296503E-16   0.4981451197E-16  -0.2203156169E-16   0.4375000006E+01
   0.1054627414E+01   0.9726775429E+00   0.9726775429E+00  -0.2250000000E-02   0.1122750000E-02   0.1122750000E-02   0.5687741413E-01  -0.2844520707E-01  -0.2844520707E-01  -0.4375000006E+01  -0.1589479874E-11  -0.1589802052E-11   0.1033878239E-14   0.1417407051E-14   0.3745240057E-15   0.5462741420E-01  -0.2732245710E-01  -0.2732245710E-01   0.3342009866E-16   0.1085600602E-15   0.5421976985E-17   0.4375000006E+01
   0.0000000000E+00   0.9726775429E+00   0.9726775429E+00   0.0000000000E+00   0.1122750000E-02   0.1122750000E-02   0.0000000000E+00  -0.2844520707E-01  -0.2844520707E-01  -0.4375000006E+01   0.3441243201E-11   0.3439011867E-11  -0.7732982465E-15  -0.3185161552E-15   0.1958720481E-15   0.5462741421E-01  -0.2732245710E-01  -0.2732245710E-01   0.5244612615E-16  -0.6116897173E-16  -0.1713079191E-17   0.4375000006E+01
   0.2109254828E+01   0.0000000000E+00  -0.3003918405E-16  -0.4500000000E-02   0.0000000000E+00   0.2596389288E-17   0.1137548283E+00   0.0000000000E+00  -0.3263557334E-16  -0.4375000007E+01   0.2163072133E-11   0.2160763510E-11  -0.1232919531E-14   0.5880051688E-15  -0.1747779265E-15   0.5462741421E-01  -0.2732245711E-01  -0.2732245711E-01   0.1721888493E-15   0.1043905556E-15  -0.3135168682E-16   0.4375000007E+01
   0.2109254828E+01   0.9726775429E+00  -0.4166578357E-16  -0.4500000000E-02   0.1122750000E-02   0.4559408613E-17   0.1137548283E+00  -0.2844520707E-01  -0.4622519218E-16  -0.4375000006E+01   0.9672190896E-12   0.9679639706E-12   0.1247639311E-14  -0.1893807397E-14   0.5684326317E-15   0.5462741421E-01  -0.2732245710E-01  -0.2732245710E-01   0.2035233270E-15  -0.6971848914E-16   0.2752634154E-16   0.4375000006E+01
   0.2109254828E+01   0.0000000000E+00   0.9726775429E+00  -0.4500000000E-02   0.0000000000E+00   0.1122750000E-02   0.1137548283E+00   0.0000000000E+00  -0.2844520707E-01  -0.4375000006E+01   0.5031151470E-11   0.5030018011E-11  -0.4914491084E-14   0.1578274928E-14   0.1614246906E-15   0.5462741421E-01  -0.2732245710E-01  -0.2732245710E-01   0.4740822875E-16   0.2089131177E-15  -0.1112901555E-16   0.4375000006E+01
   0.2109254828E+01   0.9726775429E+00   0.9726775429E+00  -0.4500000000E-02   0.1122750000E-02   0.1122750000E-02   0.1137548283E+00  -0.2844520707E-01  -0.2844520707E-01  -0.4375000006E+01  -0.1078737264E-11  -0.1078970197E-11  -0.1246855503E-14   0.5260104482E-16   0.8947931678E-15   0.5462741420E-01  -0.2732245710E-01  -0.2732245710E-01   0.2090827577E-16   0.1218815684E-16   0.1854856496E-16   0.4375000006E+01
     1     2     3     4     5     6     7     8
     2     9    10     3     6    11    12     7
 VARIABLES = X,Y,Z,DU1,DU2,DU3,U1,U2,U3,S11,S22,S33,S12,S13,S23,E11,E22,E33,E12,E13,E23,SMISES
 ZONE, T="0.3800D+01" F=FEPOINT, I=   12 J=    2 ET=BRICK
   0.0000000000E+00   0.0000000000E+00   0.0000000000E+00   0.0000000000E+00   0.0000000000E+00   0.0000000000E+00   0.0000000000E+00   0.0000000000E+00   0.0000000000E+00  -0.5500000009E+01   0.3791764798E-12   0.3796178468E-12   0.4773524727E-16   0.3890837741E-15  -0.9470236664E-15   0.5237741421E-01  -0.2619970711E-01  -0.2619970711E-01   0.5039481575E-17   0.8943277056E-17  -0.1921325383E-16   0.5500000009E+01
   0.1052377414E+01   0.0000000000E+00  -0.1804031094E-18  -0.2250000000E-02   0.0000000000E+00  -0.2184542744E-18   0.5462741413E-01   0.0000000000E+00   0.3805116497E-19  -0.5500000008E+01  -0.1093777487E-11  -0.1094275628E-11  -0.4630423845E-15  -0.1347920163E-14  -0.2650186557E-15   0.5237741421E-01  -0.2619970711E-01  -0.2619970711E-01  -0.1351394080E-16   0.8201943628E-16  -0.1279259733E-16   0.5500000008E+01
   0.1052377414E+01   0.9738002929E+00  -0.7101662124E-17  -0.2250000000E-02   0.1122750000E-02   0.5807559662E-18   0.5462741413E-01  -0.2732245707E-01  -0.7682418090E-17  -0.5500000008E+01  -0.3888724994E-11  -0.3886622083E-11   0.7759672521E-15  -0.1860085392E-14  -0.5703099823E-15   0.5237741421E-01  -0.2619970710E-01  -0.2619970710E-01  -0.1789151222E-16   0.6935832703E-16   0.2999669746E-16   0.5500000008E+01
   0.0000000000E+00   0.9738002929E+00  -0.1777976455E-17   0.0000000000E+00   0.1122750000E-02  -0.7796504456E-18   0.0000000000E+00  -0.2732245707E-01  -0.9983260089E-18  -0.5500000008E+01  -0.1787341082E-11  -0.1786079930E-11   0.1708375173E-15   0.1387183448E-14   0.4420183588E-15   0.5237741421E-01  -0.2619970710E-01  -0.2619970710E-01  -0.2302991585E-16   0.1143121927E-16  -0.1468839463E-16   0.5500000008E+01
   0.0000000000E+00   0.0000000000E+00   0.9738002929E+00   0.0000000000E+00   0.0000000000E+00   0.1122750000E-02   0.0000000000E+00   0.0000000000E+00  -0.2732245707E-01  -0.5500000008E+01   0.1117562618E-11   0.1117426172E-11   0.4420026616E-16   0.8850425071E-15   0.4945883456E-15   0.5237741421E-01  -0.2619970710E-01  -0.2619970710E-01  -0.8054456038E-17  -0.3026403308E-16  -0.1726200587E-16   0.5500000008E+01
   0.1052377414E+01   0.0000000000E+00   0.9738002929E+00  -0.2250000000E-02   0.0000000000E+00   0.1122750000E-02   0.5462741413E-01   0.0000000000E+00  -0.2732245707E-01  -0.5500000008E+01   0.1214374353E-11   0.1214413531E-11   0.3768405117E-15  -0.1235715341E-15  -0.4690294888E-16   0.5237741421E-01  -0.2619970710E-01  -0.2619970710E-01   0.4639013034E-16   0.5434771766E-16  -0.3385834586E-16   0.5500000008E+01
   0.1052377414E+01   0.9738002929E+00   0.9738002929E+00  -0.2250000000E-02   0.1122750000E-02   0.1122750000E-02   0.5462741413E-01  -0.2732245707E-01  -0.2732245707E-01  -0.5500000007E+01  -0.1438760757E-11  -0.1438663150E-11   0.1623339514E-14   0.1453588079E-14   0.4390287333E-15   0.5237741420E-01  -0.2619970710E-01  -0.2619970710E-01   0.4713694400E-16   0.1128445645E-15   0.5086564151E-16   0.5500000007E+01
   0.0000000000E+00   0.9738002929E+00   0.9738002929E+00   0.0000000000E+00   0.1122750000E-02   0.1122750000E-02   0.0000000000E+00  -0.2732245707E-01  -0.2732245707E-01  -0.5500000007E+01   0.3543815024E-11   0.3541505138E-11  -0.7839853157E-15   0.1631833207E-15   0.3276009701E-15   0.5237741420E-01  -0.2619970710E-01  -0.2619970710E-01   0.3943658723E-16  -0.5002754804E-16  -0.2549395208E-16   0.5500000007E+01
   0.2104754828E+01   0.0000000000E+00  -0.2881714728E-16  -0.4500000000E-02   0.0000000000E+00   0.1222036764E-17   0.1092548283E+00   0.0000000000E+00  -0.3003918405E-16  -0.5500000008E+01   0.2447385803E-11   0.2444639799E-11  -0.1980789243E-14   0.1633778367E-15  -0.2812087269E-15   0.5237741421E-01  -0.2619970711E-01  -0.2619970711E-01   0.1881434267E-15   0.5782747701E-16  -0.3004984638E-16   0.5500000008E+01
   0.2104754828E+01   0.9738002929E+00  -0.4111774166E-16  -0.4500000000E-02   0.1122750000E-02   0.5480419159E-18   0.1092548283E+00  -0.2732245707E-01  -0.4166578357E-16  -0.5500000008E+01   0.4953495603E-12   0.4958974300E-12   0.6109154968E-15  -0.9785703055E-15   0.2628984042E-15   0.5237741421E-01  -0.2619970710E-01  -0.2619970710E-01   0.1905033769E-15   0.1231301200E-16   0.3188763061E-16   0.5500000008E+01
   0.2104754828E+01   0.0000000000E+00   0.9738002929E+00  -0.4500000000E-02   0.0000000000E+00   0.1122750000E-02   0.1092548283E+00   0.0000000000E+00  -0.2732245707E-01  -0.5500000008E+01   0.5194726259E-11   0.5193876529E-11  -0.4254093274E-14   0.1072612526E-14  -0.1465096285E-15   0.5237741421E-01  -0.2619970710E-01  -0.2619970710E-01   0.4095537400E-16   0.2100361108E-15  -0.2052588236E-16   0.5500000008E+01
   0.2104754828E+01   0.9738002929E+00   0.9738002929E+00  -0.4500000000E-02   0.1122750000E-02   0.1122750000E-02   0.1092548283E+00  -0.2732245707E-01  -0.2732245707E-01  -0.5500000007E+01  -0.1046840942E-11  -0.1047642598E-11  -0.4485663545E-15   0.6237132784E-15   0.4548741390E-15   0.5237741420E-01  -0.2619970710E-01  -0.2619970710E-01   0.2898844405E-16  -0.5695880325E-16  -0.9494170162E-17   0.5500000007E+01
     1     2     3     4     5     6     7     8
     2     9    10     3     6    11    12     7
 VARIABLES = X,Y,Z,DU1,DU2,DU3,U1,U2,U3,S11,S22,S33,S12,S13,S23,E11,E22,E33,E12,E13,E23,SMISES
 ZONE, T="0.3850D+01" F=FEPOINT, I=   12 J=    2 ET=BRICK
   0.0000000000E+00   0.0000000000E+00   0.0000000000E+00   0.0000000000E+00   0.0000000000E+00   0.0000000000E+00   0.0000000000E+00   0.0000000000E+00   0.0000000000E+00  -0.6625000010E+01   0.9196258950E-12   0.9181836732E-12   0.4276816488E-16   0.1115702520E-14  -0.6277511187E-15   0.5012741421E-01  -0.2507695711E-01  -0.2507695711E-01  -0.1238253551E-16   0.1248232947E-16   0.1726825195E-18   0.6625000010E+01
   0.1050127414E+01   0.0000000000E+00   0.7978710591E-17  -0.2250000000E-02   0.0000000000E+00   0.8159113700E-17   0.5237741413E-01   0.0000000000E+00  -0.1804031094E-18  -0.6625000010E+01  -0.2122915733E-12  -0.2131500033E-12   0.1039996553E-14   0.1612145371E-15   0.3229884694E-15   0.5012741421E-01  -0.2507695710E-01  -0.2507695710E-01   0.3238270282E-16   0.1158052156E-15  -0.1136900183E-16   0.6625000010E+01
   0.1050127414E+01   0.9749230429E+00   0.4601613201E-17  -0.2250000000E-02   0.1122750000E-02   0.1170327532E-16   0.5237741413E-01  -0.2619970707E-01  -0.7101662124E-17  -0.6625000009E+01  -0.3506694581E-11  -0.3505310788E-11   0.1971534699E-14  -0.3937121306E-14  -0.3461737839E-15   0.5012741420E-01  -0.2507695710E-01  -0.2507695710E-01   0.1564180091E-16   0.7785410054E-16   0.4788458657E-16   0.6625000009E+01
   0.0000000000E+00   0.9749230429E+00   0.2365987626E-18   0.0000000000E+00   0.1122750000E-02   0.2014575217E-17   0.0000000000E+00  -0.2619970707E-01  -0.1777976455E-17  -0.6625000010E+01  -0.3918655075E-13  -0.3859770547E-13  -0.4177311997E-15   0.2648832563E-14  -0.7673326928E-15   0.5012741420E-01  -0.2507695710E-01  -0.2507695710E-01  -0.4545439298E-16   0.1852185997E-16  -0.2101412577E-16   0.6625000010E+01
   0.0000000000E+00   0.0000000000E+00   0.9749230429E+00   0.0000000000E+00   0.0000000000E+00   0.1122750000E-02   0.0000000000E+00   0.0000000000E+00  -0.2619970707E-01  -0.6625000010E+01   0.8232286342E-12   0.8240286354E-12   0.4390633004E-16   0.1490609017E-14   0.8747238843E-15   0.5012741420E-01  -0.2507695710E-01  -0.2507695710E-01   0.1275821086E-16  -0.4522193690E-16   0.1478948662E-16   0.6625000010E+01
   0.1050127414E+01   0.0000000000E+00   0.9749230429E+00  -0.2250000000E-02   0.0000000000E+00   0.1122750000E-02   0.5237741413E-01   0.0000000000E+00  -0.2619970707E-01  -0.6625000009E+01   0.2273613722E-12   0.2278352098E-12  -0.1481626740E-14   0.1424438631E-14   0.6281865360E-15   0.5012741420E-01  -0.2507695710E-01  -0.2507695710E-01  -0.2307962369E-17   0.1090126520E-15  -0.1355149897E-16   0.6625000009E+01
   0.1050127414E+01   0.9749230429E+00   0.9749230429E+00  -0.2250000000E-02   0.1122750000E-02   0.1122750000E-02   0.5237741413E-01  -0.2619970707E-01  -0.2619970707E-01  -0.6625000009E+01  -0.1573165038E-11  -0.1572625868E-11  -0.1416060204E-15  -0.4230057576E-15   0.7557620675E-15   0.5012741420E-01  -0.2507695710E-01  -0.2507695710E-01   0.1308725313E-16   0.4258357252E-16   0.5209668079E-16   0.6625000009E+01
   0.0000000000E+00   0.9749230429E+00   0.9749230429E+00   0.0000000000E+00   0.1122750000E-02   0.1122750000E-02   0.0000000000E+00  -0.2619970707E-01  -0.2619970707E-01  -0.6625000009E+01   0.1509760057E-11   0.1508838145E-11   0.1901701498E-15   0.1224867870E-14  -0.7786431694E-15   0.5012741420E-01  -0.2507695710E-01  -0.2507695710E-01   0.6339066622E-16  -0.1739070888E-16  -0.9886800747E-16   0.6625000009E+01
   0.2100254828E+01   0.0000000000E+00   0.2737478033E-17  -0.4500000000E-02   0.0000000000E+00   0.3155462532E-16   0.1047548283E+00   0.0000000000E+00  -0.2881714728E-16  -0.6625000010E+01   0.3923568811E-11   0.3919935892E-11  -0.4081869899E-14  -0.2435867177E-14  -0.4507994731E-15   0.5012741421E-01  -0.2507695710E-01  -0.2507695710E-01   0.1196606158E-15   0.7048459020E-16  -0.2268867517E-16   0.6625000010E+01
   0.2100254828E+01   0.9749230429E+00  -0.1064565926E-16  -0.4500000000E-02   0.1122750000E-02   0.3047208240E-16   0.1047548283E+00  -0.2619970707E-01  -0.4111774166E-16  -0.6625000009E+01  -0.1322073085E-12  -0.1310792939E-12  -0.1536071393E-14   0.1024127664E-14  -0.5074221159E-15   0.5012741420E-01  -0.2507695710E-01  -0.2507695710E-01   0.1620916768E-15  -0.1573831190E-16  -0.4538136618E-17   0.6625000009E+01
   0.2100254828E+01   0.0000000000E+00   0.9749230429E+00  -0.4500000000E-02   0.0000000000E+00   0.1122750000E-02   0.1047548283E+00   0.0000000000E+00  -0.2619970707E-01  -0.6625000009E+01   0.3058887985E-11   0.3059317200E-11  -0.1112959703E-14  -0.1219964439E-14   0.1396542734E-16   0.5012741420E-01  -0.2507695710E-01  -0.2507695710E-01   0.1343327095E-15   0.1251219454E-15  -0.1920987007E-16   0.6625000009E+01
   0.2100254828E+01   0.9749230429E+00   0.9749230429E+00  -0.4500000000E-02   0.1122750000E-02   0.1122750000E-02   0.1047548283E+00  -0.2619970707E-01  -0.2619970707E-01  -0.6625000008E+01   0.3732118497E-12   0.3731860870E-12   0.2184189922E-14   0.2888908058E-14  -0.4770002070E-17   0.5012741420E-01  -0.2507695710E-01  -0.2507695710E-01   0.9909354119E-16   0.9219075644E-16  -0.2481070034E-16   0.6625000008E+01
     1     2     3     4     5     6     7     8
     2     9    10     3     6    11    12     7
 VARIABLES = X,Y,Z,DU1,DU2,DU3,U1,U2,U3,S11,S22,S33,S12,S13,S23,E11,E22,E33,E12,E13,E23,SMISES
 ZONE, T="0.3900D+01" F=FEPOINT, I=   12 J=    2 ET=BRICK
   0.0000000000E+00   0.0000000000E+00   0.0000000000E+00   0.0000000000E+00   0.0000000000E+00   0.0000000000E+00   0.0000000000E+00   0.0000000000E+00   0.0000000000E+00  -0.7749966911E+01  -0.1655082871E-04  -0.1655082871E-04   0.6185815276E-16  -0.8667643043E-16  -0.2367209514E-15   0.4347348073E-01  -0.2175224036E-01  -0.2175224036E-01  -0.2172391894E-17  -0.4157533693E-17  -0.4052892370E-17   0.7749950360E+01
   0.1043473481E+01   0.0000000000E+00  -0.5670922737E-17  -0.6653933474E-02   0.0000000000E+00  -0.1364963333E-16   0.5012741413E-01   0.0000000000E+00   0.7978710591E-17  -0.7749966910E+01  -0.1655082908E-04  -0.1655082908E-04   0.1895149506E-14   0.7974218578E-15   0.5180536472E-15   0.4347348073E-01  -0.2175224036E-01  -0.2175224036E-01   0.2914259442E-16   0.1164142611E-15   0.4301532645E-17   0.7749950359E+01
   0.1043473481E+01   0.9782477597E+00  -0.6988741586E-17  -0.6653933474E-02   0.3324716737E-02  -0.1159035479E-16   0.5012741413E-01  -0.2507695707E-01   0.4601613201E-17  -0.7749966909E+01  -0.1655083227E-04  -0.1655083227E-04   0.4760039516E-15  -0.5817799586E-15   0.3254623719E-15   0.4347348072E-01  -0.2175224036E-01  -0.2175224036E-01  -0.1676947327E-16   0.1220833070E-15   0.6333577063E-16   0.7749950359E+01
   0.0000000000E+00   0.9782477597E+00   0.2265004956E-17   0.0000000000E+00   0.3324716737E-02   0.2028406194E-17   0.0000000000E+00  -0.2507695707E-01   0.2365987626E-18  -0.7749966910E+01  -0.1655082950E-04  -0.1655082950E-04  -0.1330254747E-14   0.1162149817E-14  -0.3062663253E-16   0.4347348072E-01  -0.2175224036E-01  -0.2175224036E-01  -0.5865511840E-16   0.7691529039E-17  -0.3413526278E-16   0.7749950359E+01
   0.0000000000E+00   0.0000000000E+00   0.9782477597E+00   0.0000000000E+00   0.0000000000E+00   0.3324716737E-02   0.0000000000E+00   0.0000000000E+00  -0.2507695707E-01  -0.7749966910E+01  -0.1655082608E-04  -0.1655082608E-04  -0.2891877286E-16  -0.1052862735E-14   0.3770494329E-15   0.4347348072E-01  -0.2175224036E-01  -0.2175224036E-01  -0.1657141353E-17  -0.6253836841E-16  -0.1641918625E-16   0.7749950359E+01
   0.1043473481E+01   0.0000000000E+00   0.9782477597E+00  -0.6653933474E-02   0.0000000000E+00   0.3324716737E-02   0.5012741413E-01   0.0000000000E+00  -0.2507695707E-01  -0.7749966909E+01  -0.1655082617E-04  -0.1655082617E-04   0.1654996704E-14  -0.3465250415E-15   0.2632839128E-15   0.4347348072E-01  -0.2175224036E-01  -0.2175224036E-01   0.5870508643E-16   0.5531711309E-16  -0.2681491654E-16   0.7749950359E+01
   0.1043473481E+01   0.9782477597E+00   0.9782477597E+00  -0.6653933474E-02   0.3324716737E-02   0.3324716737E-02   0.5012741413E-01  -0.2507695707E-01  -0.2507695707E-01  -0.7749966908E+01  -0.1655082755E-04  -0.1655082755E-04   0.9886528686E-16  -0.5049874698E-15   0.4209417315E-15   0.4347348072E-01  -0.2175224036E-01  -0.2175224036E-01   0.3377398553E-16   0.1108598709E-15   0.3301709518E-16   0.7749950358E+01
   0.0000000000E+00   0.9782477597E+00   0.9782477597E+00   0.0000000000E+00   0.3324716737E-02   0.3324716737E-02   0.0000000000E+00  -0.2507695707E-01  -0.2507695707E-01  -0.7749966909E+01  -0.1655082342E-04  -0.1655082343E-04  -0.7946610995E-15  -0.1148450179E-14  -0.6356457642E-15   0.4347348072E-01  -0.2175224036E-01  -0.2175224036E-01   0.4783305638E-16  -0.7605886274E-16  -0.1633819610E-16   0.7749950358E+01
   0.2086946961E+01   0.0000000000E+00  -0.5038728657E-16  -0.1330786695E-01   0.0000000000E+00  -0.5312476461E-16   0.1002548283E+00   0.0000000000E+00   0.2737478033E-17  -0.7749966910E+01  -0.1655082617E-04  -0.1655082617E-04  -0.1626454039E-14  -0.4967636439E-15  -0.1477970627E-15   0.4347348072E-01  -0.2175224036E-01  -0.2175224036E-01   0.1764923409E-15   0.3371165020E-16  -0.3425381132E-16   0.7749950359E+01
   0.2086946961E+01   0.9782477597E+00  -0.6219912949E-16  -0.1330786695E-01   0.3324716737E-02  -0.5155347023E-16   0.1002548283E+00  -0.2507695707E-01  -0.1064565926E-16  -0.7749966909E+01  -0.1655083030E-04  -0.1655083030E-04  -0.3357292814E-14   0.3026283130E-14  -0.9748586229E-16   0.4347348072E-01  -0.2175224036E-01  -0.2175224036E-01   0.1674269824E-15   0.1014873188E-15   0.1326110708E-17   0.7749950358E+01
   0.2086946961E+01   0.0000000000E+00   0.9782477597E+00  -0.1330786695E-01   0.0000000000E+00   0.3324716737E-02   0.1002548283E+00   0.0000000000E+00  -0.2507695707E-01  -0.7749966909E+01  -0.1655082451E-04  -0.1655082451E-04   0.1434579453E-14  -0.1697337835E-14  -0.9922922599E-15   0.4347348072E-01  -0.2175224036E-01  -0.2175224036E-01   0.1371285742E-15   0.1351124883E-15  -0.2576601952E-16   0.7749950358E+01
   0.2086946961E+01   0.9782477597E+00   0.9782477597E+00  -0.1330786695E-01   0.3324716737E-02   0.3324716737E-02   0.1002548283E+00  -0.2507695707E-01  -0.2507695707E-01  -0.7749966908E+01  -0.1655082841E-04  -0.1655082841E-04   0.9464435437E-15   0.1119476303E-14  -0.5868747346E-15   0.4347348071E-01  -0.2175224036E-01  -0.2175224036E-01   0.5053139674E-16   0.3026522966E-16  -0.2861284790E-16   0.7749950357E+01
     1     2     3     4     5     6     7     8
     2     9    10     3     6    11    12     7
 VARIABLES = X,Y,Z,DU1,DU2,DU3,U1,U2,U3,S11,S22,S33,S12,S13,S23,E11,E22,E33,E12,E13,E23,SMISES
 ZONE, T="0.3950D+01" F=FEPOINT, I=   12 J=    2 ET=BRICK
   0.0000000000E+00   0.0000000000E+00   0.0000000000E+00   0.0000000000E+00   0.0000000000E+00   0.0000000000E+00   0.0000000000E+00   0.0000000000E+00   0.0000000000E+00  -0.8875012697E+01   0.6341591736E-05   0.6341591738E-05  -0.1088570036E-15   0.1899777899E-15  -0.4536674003E-15   0.2014475082E-01  -0.1009012541E-01  -0.1009012541E-01   0.1861272972E-17   0.1125255155E-16   0.1056366922E-16   0.8875019039E+01
   0.1020144751E+01   0.0000000000E+00   0.2798256927E-17  -0.2332872987E-01   0.0000000000E+00   0.8469179664E-17   0.4347348066E-01   0.0000000000E+00  -0.5670922737E-17  -0.8875012697E+01   0.6341591760E-05   0.6341591759E-05   0.3814091096E-15  -0.5032320545E-16  -0.2048511568E-15   0.2014475082E-01  -0.1009012541E-01  -0.1009012541E-01  -0.5828000743E-18   0.8959938908E-16  -0.1738990048E-16   0.8875019038E+01
   0.1020144751E+01   0.9899098746E+00  -0.3855337512E-17  -0.2332872987E-01   0.1166211494E-01   0.3133404075E-17   0.4347348066E-01  -0.2175224033E-01  -0.6988741586E-17  -0.8875012696E+01   0.6341590560E-05   0.6341590561E-05  -0.4878356845E-15   0.8453040610E-15  -0.1003797261E-15   0.2014475082E-01  -0.1009012541E-01  -0.1009012541E-01  -0.4805028632E-16   0.1633027267E-15   0.4078830251E-16   0.8875019037E+01
   0.0000000000E+00   0.9899098746E+00  -0.1389772643E-17   0.0000000000E+00   0.1166211494E-01  -0.3654777599E-17   0.0000000000E+00  -0.2175224033E-01   0.2265004956E-17  -0.8875012696E+01   0.6341588437E-05   0.6341588437E-05   0.2938803803E-15   0.2525426382E-15  -0.1658910587E-15   0.2014475082E-01  -0.1009012541E-01  -0.1009012541E-01  -0.2920860479E-16  -0.1761412545E-16  -0.2572244913E-16   0.8875019038E+01
   0.0000000000E+00   0.0000000000E+00   0.9899098746E+00   0.0000000000E+00   0.0000000000E+00   0.1166211494E-01   0.0000000000E+00   0.0000000000E+00  -0.2175224033E-01  -0.8875012696E+01   0.6341591945E-05   0.6341591945E-05   0.1810163402E-15  -0.6298442987E-16   0.4408771018E-15   0.2014475082E-01  -0.1009012541E-01  -0.1009012541E-01   0.3825835157E-17  -0.4395424237E-16  -0.4168520292E-16   0.8875019038E+01
   0.1020144751E+01   0.0000000000E+00   0.9899098746E+00  -0.2332872987E-01   0.0000000000E+00   0.1166211494E-01   0.4347348066E-01   0.0000000000E+00  -0.2175224033E-01  -0.8875012696E+01   0.6341591330E-05   0.6341591330E-05  -0.7175543748E-16   0.7748001901E-15   0.2845303926E-15   0.2014475082E-01  -0.1009012541E-01  -0.1009012541E-01   0.3870908029E-16   0.7680314562E-16  -0.1498851687E-17   0.8875019037E+01
   0.1020144751E+01   0.9899098746E+00   0.9899098746E+00  -0.2332872987E-01   0.1166211494E-01   0.1166211494E-01   0.4347348066E-01  -0.2175224033E-01  -0.2175224033E-01  -0.8875012695E+01   0.6341591080E-05   0.6341591080E-05   0.1677782692E-15   0.1648296825E-15   0.1915842181E-15   0.2014475081E-01  -0.1009012541E-01  -0.1009012541E-01   0.5173212001E-16   0.1206497317E-15   0.4432570632E-16   0.8875019036E+01
   0.0000000000E+00   0.9899098746E+00   0.9899098746E+00   0.0000000000E+00   0.1166211494E-01   0.1166211494E-01   0.0000000000E+00  -0.2175224033E-01  -0.2175224033E-01  -0.8875012695E+01   0.6341595118E-05   0.6341595115E-05   0.6530571861E-16   0.2388702211E-15  -0.3445729808E-15   0.2014475081E-01  -0.1009012541E-01  -0.1009012541E-01   0.5366811785E-16  -0.6179615749E-16  -0.3077518300E-16   0.8875019037E+01
   0.2040289502E+01   0.0000000000E+00  -0.1035130786E-17  -0.4665745974E-01   0.0000000000E+00   0.4935215579E-16   0.8694696132E-01   0.0000000000E+00  -0.5038728657E-16  -0.8875012697E+01   0.6341593408E-05   0.6341593409E-05   0.1387278900E-14  -0.1999047125E-15   0.3646135062E-15   0.2014475082E-01  -0.1009012541E-01  -0.1009012541E-01   0.2335170778E-15   0.7425954213E-16  -0.1226165655E-16   0.8875019038E+01
   0.2040289502E+01   0.9899098746E+00  -0.6731372310E-17  -0.4665745974E-01   0.1166211494E-01   0.5546775718E-16   0.8694696132E-01  -0.2175224033E-01  -0.6219912949E-16  -0.8875012696E+01   0.6341594035E-05   0.6341594035E-05   0.9893158277E-15  -0.9928627283E-15   0.7822559548E-15   0.2014475081E-01  -0.1009012541E-01  -0.1009012541E-01   0.2127277207E-15  -0.8306166532E-17   0.3565946936E-16   0.8875019037E+01
   0.2040289502E+01   0.0000000000E+00   0.9899098746E+00  -0.4665745974E-01   0.0000000000E+00   0.1166211494E-01   0.8694696132E-01   0.0000000000E+00  -0.2175224033E-01  -0.8875012696E+01   0.6341592115E-05   0.6341592115E-05   0.1693136960E-14  -0.1668017069E-14   0.1162380615E-16   0.2014475081E-01  -0.1009012541E-01  -0.1009012541E-01   0.1541525246E-15   0.1624891372E-15  -0.3273609188E-16   0.8875019037E+01
   0.2040289502E+01   0.9899098746E+00   0.9899098746E+00  -0.4665745974E-01   0.1166211494E-01   0.1166211494E-01   0.8694696132E-01  -0.2175224033E-01  -0.2175224033E-01  -0.8875012695E+01   0.6341588212E-05   0.6341588212E-05  -0.7563508865E-15  -0.1270654223E-14  -0.1071375955E-15   0.2014475081E-01  -0.1009012541E-01  -0.1009012541E-01   0.2808315394E-16  -0.4039120696E-16  -0.2291632323E-16   0.8875019036E+01
     1     2     3     4     5     6     7     8
     2     9    10     3     6    11    12     7
 VARIABLES = X,Y,Z,DU1,DU2,DU3,U1,U2,U3,S11,S22,S33,S12,S13,S23,E11,E22,E33,E12,E13,E23,SMISES
 ZONE, T="0.4000D+01" F=FEPOINT, I=   12 J=    2 ET=BRICK
   0.0000000000E+00   0.0000000000E+00   0.0000000000E+00   0.0000000000E+00   0.0000000000E+00   0.0000000000E+00   0.0000000000E+00   0.0000000000E+00   0.0000000000E+00  -0.1000000668E+02   0.3330851466E-05   0.3330851470E-05   0.3701525308E-16  -0.3566482084E-15   0.4949625024E-15  -0.4605064035E-02   0.2282532017E-02   0.2282532017E-02   0.3998764945E-17  -0.1352883439E-16   0.1707695802E-16   0.1000001001E+02
   0.9953949360E+00   0.0000000000E+00  -0.9388201120E-17  -0.2474981481E-01   0.0000000000E+00  -0.1218645805E-16   0.2014475079E-01   0.0000000000E+00   0.2798256927E-17  -0.1000000668E+02   0.3330849408E-05   0.3330849407E-05  -0.4321665860E-14  -0.2037769223E-14  -0.3356340757E-15  -0.4605064034E-02   0.2282532017E-02   0.2282532017E-02  -0.1062661113E-15   0.7585198407E-16  -0.2659253008E-16   0.1000001001E+02
   0.9953949360E+00   0.1002282532E+01  -0.1773947851E-16  -0.2474981481E-01   0.1237265741E-01  -0.1388414100E-16   0.2014475079E-01  -0.1009012539E-01  -0.3855337512E-17  -0.1000000668E+02   0.3330849236E-05   0.3330849237E-05  -0.3542284845E-14   0.1536165283E-14   0.1744908081E-15  -0.4605064034E-02   0.2282532017E-02   0.2282532017E-02  -0.1100054614E-15   0.1519100979E-15   0.5698007885E-16   0.1000001001E+02
   0.0000000000E+00   0.1002282532E+01   0.7672726328E-17   0.0000000000E+00   0.1237265741E-01   0.9062498970E-17   0.0000000000E+00  -0.1009012539E-01  -0.1389772643E-17  -0.1000000668E+02   0.3330841356E-05   0.3330841357E-05   0.2150444161E-14  -0.1060040406E-14   0.8436514317E-15  -0.4605064034E-02   0.2282532017E-02   0.2282532017E-02   0.1188271963E-16  -0.3834391636E-16   0.6914735820E-17   0.1000001001E+02
   0.0000000000E+00   0.0000000000E+00   0.1002282532E+01   0.0000000000E+00   0.0000000000E+00   0.1237265741E-01   0.0000000000E+00   0.0000000000E+00  -0.1009012539E-01  -0.1000000668E+02   0.3330852487E-05   0.3330852488E-05  -0.2209794732E-16  -0.1161663686E-15   0.5691710223E-15  -0.4605064034E-02   0.2282532017E-02   0.2282532017E-02  -0.5949774118E-17  -0.4169610115E-16  -0.1675253317E-16   0.1000001001E+02
   0.9953949360E+00   0.0000000000E+00   0.1002282532E+01  -0.2474981481E-01   0.0000000000E+00   0.1237265741E-01   0.2014475079E-01   0.0000000000E+00  -0.1009012539E-01  -0.1000000668E+02   0.3330850812E-05   0.3330850811E-05  -0.7468278988E-15  -0.2900123271E-15   0.2486835394E-15  -0.4605064034E-02   0.2282532017E-02   0.2282532017E-02   0.2749191574E-16   0.4675654363E-16  -0.8207009017E-17   0.1000001001E+02
   0.9953949360E+00   0.1002282532E+01   0.1002282532E+01  -0.2474981481E-01   0.1237265741E-01   0.1237265741E-01   0.2014475079E-01  -0.1009012539E-01  -0.1009012539E-01  -0.1000000667E+02   0.3330851154E-05   0.3330851155E-05   0.4116024255E-15   0.2336899995E-14   0.2037582954E-15  -0.4605064033E-02   0.2282532017E-02   0.2282532017E-02   0.3004003495E-16   0.1620914456E-15   0.4429977805E-16   0.1000001001E+02
   0.0000000000E+00   0.1002282532E+01   0.1002282532E+01   0.0000000000E+00   0.1237265741E-01   0.1237265741E-01   0.0000000000E+00  -0.1009012539E-01  -0.1009012539E-01  -0.1000000668E+02   0.3330852965E-05   0.3330852964E-05   0.1752940082E-14   0.5048219577E-16  -0.3253176580E-16  -0.4605064034E-02   0.2282532017E-02   0.2282532017E-02   0.1143665032E-15  -0.5441364399E-16  -0.3248104597E-16   0.1000001001E+02
   0.1990789872E+01   0.0000000000E+00  -0.5532430107E-16  -0.4949962963E-01   0.0000000000E+00  -0.5428917028E-16   0.4028950157E-01   0.0000000000E+00  -0.1035130786E-17  -0.1000000668E+02   0.3330847816E-05   0.3330847817E-05   0.1202045822E-14  -0.1407961473E-14  -0.1895831148E-15  -0.4605064034E-02   0.2282532017E-02   0.2282532017E-02   0.2514789237E-15   0.1118047656E-15  -0.1823482676E-16   0.1000001001E+02
   0.1990789872E+01   0.1002282532E+01  -0.6688501068E-16  -0.4949962963E-01   0.1237265741E-01  -0.6015363837E-16   0.4028950157E-01  -0.1009012539E-01  -0.6731372310E-17  -0.1000000668E+02   0.3330855570E-05   0.3330855570E-05   0.2005083445E-14  -0.5156621400E-15  -0.4150218795E-15  -0.4605064034E-02   0.2282532017E-02   0.2282532017E-02   0.2342706324E-15   0.1155638062E-17   0.3385703457E-18   0.1000001001E+02
   0.1990789872E+01   0.0000000000E+00   0.1002282532E+01  -0.4949962963E-01   0.0000000000E+00   0.1237265741E-01   0.4028950157E-01   0.0000000000E+00  -0.1009012539E-01  -0.1000000668E+02   0.3330850675E-05   0.3330850675E-05   0.2616841330E-14  -0.1320200797E-15  -0.7292933718E-15  -0.4605064034E-02   0.2282532017E-02   0.2282532017E-02   0.1784185134E-15   0.1780082264E-15  -0.4673876100E-16   0.1000001001E+02
   0.1990789872E+01   0.1002282532E+01   0.1002282532E+01  -0.4949962963E-01   0.1237265741E-01   0.1237265741E-01   0.4028950157E-01  -0.1009012539E-01  -0.1009012539E-01  -0.1000000667E+02   0.3330848918E-05   0.3330848917E-05   0.1899786858E-14   0.7868209252E-15  -0.3827303437E-15  -0.4605064033E-02   0.2282532017E-02   0.2282532017E-02   0.1131826802E-15  -0.1393147598E-17  -0.1543647158E-16   0.1000001001E+02
     1     2     3     4     5     6     7     8
     2     9    10     3     6    11    12     7
 VARIABLES = X,Y,Z,DU1,DU2,DU3,U1,U2,U3,S11,S22,S33,S12,S13,S23,E11,E22,E33,E12,E13,E23,SMISES
 ZONE, T="0.4050D+01" F=FEPOINT, I=   12 J=    2 ET=BRICK
   0.0000000000E+00   0.0000000000E+00   0.0000000000E+00   0.0000000000E+00   0.0000000000E+00   0.0000000000E+00   0.0000000000E+00   0.0000000000E+00   0.0000000000E+00  -0.8875000015E+01  -0.5960830052E-09  -0.5964260382E-09   0.4195431373E-16  -0.1355381792E-11  -0.8580751705E-12  -0.2355044059E-02   0.1159772030E-02   0.1159772030E-02   0.7296161211E-19  -0.1624894553E-13  -0.1028044409E-13   0.8875000014E+01
   0.9976449559E+00   0.0000000000E+00  -0.7181461153E-14   0.2250019972E-02   0.0000000000E+00  -0.7172072952E-14  -0.4605064027E-02   0.0000000000E+00  -0.9388201120E-17  -0.8875000014E+01  -0.4814840380E-10  -0.4730849832E-10  -0.1692346638E-12  -0.1357295866E-12  -0.5328831997E-14  -0.2355044059E-02   0.1159772030E-02   0.1159772030E-02  -0.2081574517E-14  -0.1549272833E-14  -0.7602639274E-16   0.8875000014E+01
   0.9976449559E+00   0.1001159772E+01  -0.7219719699E-14   0.2250019972E-02  -0.1122759986E-02  -0.7201980220E-14  -0.4605064027E-02   0.2282532014E-02  -0.1773947851E-16  -0.8875000013E+01  -0.2729317590E-09  -0.2730233366E-09  -0.3304291422E-12   0.2492789640E-12   0.3588536550E-12  -0.2355044059E-02   0.1159772029E-02   0.1159772029E-02  -0.4025810455E-14   0.3135129723E-14   0.4346407730E-14   0.8875000013E+01
   0.0000000000E+00   0.1001159772E+01  -0.5140410474E-14   0.0000000000E+00  -0.1122759986E-02  -0.5148083201E-14   0.0000000000E+00   0.2282532014E-02   0.7672726328E-17  -0.8875000013E+01  -0.4354654935E-09  -0.4346146696E-09   0.3187844146E-12  -0.2136618890E-13  -0.2883922257E-12  -0.2355044059E-02   0.1159772029E-02   0.1159772029E-02   0.3803466946E-14  -0.2837842531E-15  -0.3468327259E-14   0.8875000013E+01
   0.0000000000E+00   0.0000000000E+00   0.1001159772E+01   0.0000000000E+00   0.0000000000E+00  -0.1122759986E-02   0.0000000000E+00   0.0000000000E+00   0.2282532014E-02  -0.8875000013E+01   0.1186833843E-09   0.1171983509E-09  -0.1841009459E-16  -0.2125410019E-12  -0.2604444917E-12  -0.2355044059E-02   0.1159772029E-02   0.1159772029E-02  -0.1865728937E-18  -0.2603179960E-14  -0.3142069660E-14   0.8875000013E+01
   0.9976449559E+00   0.0000000000E+00   0.1001159772E+01   0.2250019972E-02   0.0000000000E+00  -0.1122759986E-02  -0.4605064027E-02   0.0000000000E+00   0.2282532014E-02  -0.8875000012E+01   0.3932488561E-09   0.3933610708E-09   0.3244163649E-12  -0.1664836524E-12  -0.4710335820E-12  -0.2355044059E-02   0.1159772029E-02   0.1159772029E-02   0.3920434206E-14  -0.1936515343E-14  -0.5666343738E-14   0.8875000013E+01
   0.9976449559E+00   0.1001159772E+01   0.1001159772E+01   0.2250019972E-02  -0.1122759986E-02  -0.1122759986E-02  -0.4605064027E-02   0.2282532014E-02   0.2282532014E-02  -0.8875000011E+01   0.2842393273E-09   0.2834221225E-09   0.2895595009E-12   0.3149839554E-12  -0.1074364336E-12  -0.2355044059E-02   0.1159772029E-02   0.1159772029E-02   0.3503582688E-14   0.3907909753E-14  -0.1242771633E-14   0.8875000012E+01
   0.0000000000E+00   0.1001159772E+01   0.1001159772E+01   0.0000000000E+00  -0.1122759986E-02  -0.1122759986E-02   0.0000000000E+00   0.2282532014E-02   0.2282532014E-02  -0.8875000011E+01   0.5991494269E-09   0.5988564870E-09  -0.5312034856E-13  -0.5222544971E-12   0.3084209942E-12  -0.2355044059E-02   0.1159772029E-02   0.1159772029E-02  -0.5459997678E-15  -0.6313682706E-14   0.3677355278E-14   0.8875000012E+01
   0.1995289912E+01   0.0000000000E+00  -0.1058776181E-13   0.4500039944E-02   0.0000000000E+00  -0.1053243751E-13  -0.9210128055E-02   0.0000000000E+00  -0.5532430107E-16  -0.8875000014E+01  -0.6014363756E-09  -0.6012643775E-09   0.3355023032E-13   0.6307869176E-12  -0.1076394384E-11  -0.2355044059E-02   0.1159772030E-02   0.1159772030E-02   0.6364833092E-15   0.7670716152E-14  -0.1292870015E-13   0.8875000013E+01
   0.1995289912E+01   0.1001159772E+01  -0.1705210880E-13   0.4500039944E-02  -0.1122759986E-02  -0.1698522379E-13  -0.9210128055E-02   0.2282532014E-02  -0.6688501068E-16  -0.8875000012E+01  -0.5454009853E-10  -0.5278317324E-10  -0.6063190872E-12  -0.4596027594E-12  -0.2552109897E-12  -0.2355044059E-02   0.1159772029E-02   0.1159772029E-02  -0.7059409291E-14  -0.5493371360E-14  -0.3051314352E-14   0.8875000012E+01
   0.1995289912E+01   0.0000000000E+00   0.1001159772E+01   0.4500039944E-02   0.0000000000E+00  -0.1122759986E-02  -0.9210128055E-02   0.0000000000E+00   0.2282532014E-02  -0.8875000012E+01  -0.9995279196E-10  -0.1014249796E-09   0.4968194387E-12  -0.5760508906E-12  -0.2842454767E-12  -0.2355044059E-02   0.1159772029E-02   0.1159772029E-02   0.6108102715E-14  -0.6785219715E-14  -0.3449475692E-14   0.8875000012E+01
   0.1995289912E+01   0.1001159772E+01   0.1001159772E+01   0.4500039944E-02  -0.1122759986E-02  -0.1122759986E-02  -0.9210128055E-02   0.2282532014E-02   0.2282532014E-02  -0.8875000011E+01   0.3586887577E-09   0.3588004654E-09   0.4788884127E-12   0.1739015644E-12   0.5374104464E-12  -0.2355044059E-02   0.1159772029E-02   0.1159772029E-02   0.5822735285E-14   0.2104640031E-14   0.6431539736E-14   0.8875000011E+01
     1     2     3     4     5     6     7     8
     2     9    10     3     6    11    12     7
 VARIABLES = X,Y,Z,DU1,DU2,DU3,U1,U2,U3,S11,S22,S33,S12,S13,S23,E11,E22,E33,E12,E13,E23,SMISES
 ZONE, T="0.4100D+01" F=FEPOINT, I=   12 J=    2 ET=BRICK
   0.0000000000E+00   0.0000000000E+00   0.0000000000E+00   0.0000000000E+00   0.0000000000E+00   0.0000000000E+00   0.0000000000E+00   0.0000000000E+00   0.0000000000E+00  -0.7750000012E+01   0.3106310039E-12   0.3116733682E-12   0.3584099503E-16  -0.9579027728E-15  -0.1139091563E-15  -0.1050440558E-03   0.3702202786E-04   0.3702202786E-04  -0.1784256094E-20  -0.8663296928E-17   0.7931431056E-17   0.7750000012E+01
   0.9998949559E+00   0.0000000000E+00  -0.1222750788E-16   0.2250000000E-02   0.0000000000E+00   0.7169233645E-14  -0.2355044056E-02   0.0000000000E+00  -0.7181461153E-14  -0.7750000012E+01  -0.4068675650E-12  -0.4081076699E-12  -0.7869101015E-15  -0.4791197653E-15   0.8638984103E-16  -0.1050440558E-03   0.3702202786E-04   0.3702202786E-04  -0.6200570805E-16   0.7742228494E-16  -0.1187648755E-16   0.7750000012E+01
   0.9998949559E+00   0.1000037022E+01  -0.1814865192E-16   0.2250000000E-02  -0.1122750000E-02   0.7201571047E-14  -0.2355044056E-02   0.1159772028E-02  -0.7219719699E-14  -0.7750000011E+01  -0.8144518851E-12  -0.8146550699E-12  -0.3020754337E-15  -0.5373980774E-15   0.4959741069E-17  -0.1050440558E-03   0.3702202785E-04   0.3702202785E-04  -0.6964085278E-16   0.1342350781E-15   0.4488898369E-16   0.7750000011E+01
   0.0000000000E+00   0.1000037022E+01   0.4071488219E-17   0.0000000000E+00  -0.1122750000E-02   0.5144481963E-14   0.0000000000E+00   0.1159772028E-02  -0.5140410474E-14  -0.7750000011E+01  -0.6830286176E-11  -0.6829274628E-11   0.1753167192E-14  -0.8042823194E-15  -0.5884374729E-15  -0.1050440558E-03   0.3702202786E-04   0.3702202786E-04   0.2674417846E-17  -0.3476221095E-16  -0.1654510672E-16   0.7750000011E+01
   0.0000000000E+00   0.0000000000E+00   0.1000037022E+01   0.0000000000E+00   0.0000000000E+00  -0.1122750000E-02   0.0000000000E+00   0.0000000000E+00   0.1159772028E-02  -0.7750000011E+01   0.2194661289E-11   0.2194833267E-11  -0.3336697791E-16   0.4130640643E-15   0.7034074885E-15  -0.1050440558E-03   0.3702202786E-04   0.3702202786E-04  -0.2794412767E-18  -0.4900106417E-16  -0.8331529034E-17   0.7750000011E+01
   0.9998949559E+00   0.0000000000E+00   0.1000037022E+01   0.2250000000E-02   0.0000000000E+00  -0.1122750000E-02  -0.2355044056E-02   0.0000000000E+00   0.1159772028E-02  -0.7750000011E+01   0.7651659241E-12   0.7648219686E-12  -0.2106541674E-14   0.2024045240E-14   0.1672446754E-15  -0.1050440558E-03   0.3702202785E-04   0.3702202785E-04   0.4972726818E-17   0.8068062450E-16  -0.1489670398E-16   0.7750000011E+01
   0.9998949559E+00   0.1000037022E+01   0.1000037022E+01   0.2250000000E-02  -0.1122750000E-02  -0.1122750000E-02  -0.2355044056E-02   0.1159772028E-02   0.1159772028E-02  -0.7750000010E+01   0.6576159192E-12   0.6597064829E-12  -0.9762819507E-15  -0.3680114105E-15  -0.3506639778E-15  -0.1050440557E-03   0.3702202785E-04   0.3702202785E-04   0.2203716892E-16   0.1274808457E-15   0.4149925266E-16   0.7750000010E+01
   0.0000000000E+00   0.1000037022E+01   0.1000037022E+01   0.0000000000E+00  -0.1122750000E-02  -0.1122750000E-02   0.0000000000E+00   0.1159772028E-02   0.1159772028E-02  -0.7750000010E+01   0.2174415380E-11   0.2172703964E-11   0.1830707444E-14   0.1843487884E-15  -0.7056424416E-15  -0.1050440557E-03   0.3702202785E-04   0.3702202785E-04   0.1114113956E-15  -0.4862432086E-16  -0.3137873172E-16   0.7750000010E+01
   0.1999789912E+01   0.0000000000E+00  -0.5544281358E-16   0.4500000000E-02   0.0000000000E+00   0.1053231900E-13  -0.4710088111E-02   0.0000000000E+00  -0.1058776181E-13  -0.7750000012E+01  -0.1147578847E-11  -0.1146363047E-11   0.1200390997E-14  -0.2051181831E-15   0.9833969030E-15  -0.1050440558E-03   0.3702202786E-04   0.3702202786E-04   0.2501781232E-15   0.9029726516E-16  -0.8760909766E-17   0.7750000012E+01
   0.1999789912E+01   0.1000037022E+01  -0.5994825431E-16   0.4500000000E-02  -0.1122750000E-02   0.1699216055E-13  -0.4710088111E-02   0.1159772028E-02  -0.1705210880E-13  -0.7750000011E+01   0.3603977874E-11   0.3603432192E-11   0.1781681360E-14  -0.5426289528E-15   0.5176771991E-15  -0.1050440558E-03   0.3702202785E-04   0.3702202785E-04   0.2347425756E-15   0.2100992746E-16   0.1486961796E-16   0.7750000011E+01
   0.1999789912E+01   0.0000000000E+00   0.1000037022E+01   0.4500000000E-02   0.0000000000E+00  -0.1122750000E-02  -0.4710088111E-02   0.0000000000E+00   0.1159772028E-02  -0.7750000011E+01   0.3361875195E-12   0.3375321344E-12   0.1655579812E-14   0.2813585771E-15  -0.3911322037E-15  -0.1050440558E-03   0.3702202785E-04   0.3702202785E-04   0.1681858380E-15   0.1390713749E-15  -0.4409567855E-16   0.7750000011E+01
   0.1999789912E+01   0.1000037022E+01   0.1000037022E+01   0.4500000000E-02  -0.1122750000E-02  -0.1122750000E-02  -0.4710088111E-02   0.1159772028E-02   0.1159772028E-02  -0.7750000010E+01  -0.1391322413E-11  -0.1394014170E-11   0.8523721929E-15   0.7921298130E-15  -0.4157562969E-15  -0.1050440557E-03   0.3702202785E-04   0.3702202785E-04   0.9221935654E-16   0.2497333955E-16  -0.2009835977E-16   0.7750000010E+01
     1     2     3     4     5     6     7     8
     2     9    10     3     6    11    12     7
 VARIABLES = X,Y,Z,DU1,DU2,DU3,U1,U2,U3,S11,S22,S33,S12,S13,S23,E11,E22,E33,E12,E13,E23,SMISES
 ZONE, T="0.4150D+01" F=FEPOINT, I=   12 J=    2 ET=BRICK
   0.0000000000E+00   0.0000000000E+00   0.0000000000E+00   0.0000000000E+00   0.0000000000E+00   0.0000000000E+00   0.0000000000E+00   0.0000000000E+00   0.0000000000E+00  -0.6625000010E+01   0.4957770743E-13   0.5107106412E-13  -0.5819667979E-17  -0.1399390615E-14  -0.4252052573E-15   0.2144955948E-02  -0.1085727974E-02  -0.1085727974E-02  -0.3865167845E-18  -0.1488648249E-16   0.4263460059E-17   0.6625000010E+01
   0.1002144956E+01   0.0000000000E+00  -0.1553962540E-16   0.2250000000E-02   0.0000000000E+00  -0.3312117519E-17  -0.1050440556E-03   0.0000000000E+00  -0.1222750788E-16  -0.6625000010E+01  -0.4248502825E-12  -0.4246848170E-12  -0.9832438183E-15  -0.8933181922E-15   0.4061993641E-15   0.2144955948E-02  -0.1085727974E-02  -0.1085727974E-02  -0.6416160435E-16   0.7411334708E-16  -0.8273934041E-17   0.6625000010E+01
   0.1002144956E+01   0.9989142720E+00  -0.1956708624E-16   0.2250000000E-02  -0.1122750000E-02  -0.1418434319E-17  -0.1050440556E-03   0.3702202780E-04  -0.1814865192E-16  -0.6625000009E+01  -0.1534779572E-11  -0.1535922460E-11  -0.6015281672E-15   0.5678376039E-15   0.4559905470E-15   0.2144955947E-02  -0.1085727974E-02  -0.1085727974E-02  -0.7227661576E-16   0.1472708938E-15   0.5038098147E-16   0.6625000009E+01
   0.0000000000E+00   0.9989142720E+00   0.2060111760E-17   0.0000000000E+00  -0.1122750000E-02  -0.2011376459E-17   0.0000000000E+00   0.3702202780E-04   0.4071488219E-17  -0.6625000010E+01  -0.6827256350E-11  -0.6825108816E-11   0.1064199678E-14  -0.3249606656E-15  -0.4732201725E-15   0.2144955948E-02  -0.1085727974E-02  -0.1085727974E-02  -0.6001635738E-17  -0.2875681827E-16  -0.1551344619E-16   0.6625000010E+01
   0.0000000000E+00   0.0000000000E+00   0.9989142720E+00   0.0000000000E+00   0.0000000000E+00  -0.1122750000E-02   0.0000000000E+00   0.0000000000E+00   0.3702202780E-04  -0.6625000010E+01   0.2318049176E-11   0.2317832576E-11   0.8437212355E-18  -0.2761112757E-16   0.1037230066E-14   0.2144955948E-02  -0.1085727974E-02  -0.1085727974E-02   0.3732058849E-18  -0.5403476073E-16  -0.3943738752E-17   0.6625000010E+01
   0.1002144956E+01   0.0000000000E+00   0.9989142720E+00   0.2250000000E-02   0.0000000000E+00  -0.1122750000E-02  -0.1050440556E-03   0.0000000000E+00   0.3702202780E-04  -0.6625000009E+01   0.1015896784E-11   0.1016329984E-11  -0.1110915700E-14   0.1623054624E-14  -0.2316245076E-15   0.2144955947E-02  -0.1085727974E-02  -0.1085727974E-02   0.1636164772E-16   0.7684474296E-16  -0.1949300237E-16   0.6625000009E+01
   0.1002144956E+01   0.9989142720E+00   0.9989142720E+00   0.2250000000E-02  -0.1122750000E-02  -0.1122750000E-02  -0.1050440556E-03   0.3702202780E-04   0.3702202780E-04  -0.6625000009E+01   0.2592925068E-12   0.2609687296E-12  -0.5910349530E-16   0.4321468265E-15  -0.6139026548E-15   0.2144955947E-02  -0.1085727974E-02  -0.1085727974E-02   0.3273693645E-16   0.1379051957E-15   0.3886323390E-16   0.6625000009E+01
   0.0000000000E+00   0.9989142720E+00   0.9989142720E+00   0.0000000000E+00  -0.1122750000E-02  -0.1122750000E-02   0.0000000000E+00   0.3702202780E-04   0.3702202780E-04  -0.6625000009E+01   0.3670332877E-11   0.3668340988E-11   0.7092056107E-15  -0.1174722637E-14  -0.3320750124E-16   0.2144955947E-02  -0.1085727974E-02  -0.1085727974E-02   0.9818876912E-16  -0.6544474881E-16  -0.2338058051E-16   0.6625000009E+01
   0.2004289912E+01   0.0000000000E+00  -0.6446479100E-16   0.4500000000E-02   0.0000000000E+00  -0.9021977427E-17  -0.2100881112E-03   0.0000000000E+00  -0.5544281358E-16  -0.6625000010E+01  -0.4309391664E-12  -0.4302338545E-12  -0.4781809417E-15  -0.6118560014E-15   0.8571933181E-15   0.2144955948E-02  -0.1085727974E-02  -0.1085727974E-02   0.2301124874E-15   0.8932132022E-16  -0.1058372118E-16   0.6625000010E+01
   0.2004289912E+01   0.9989142720E+00  -0.6971965426E-16   0.4500000000E-02  -0.1122750000E-02  -0.9771399953E-17  -0.2100881112E-03   0.3702202780E-04  -0.5994825431E-16  -0.6625000009E+01   0.3572441289E-11   0.3572313934E-11   0.9365467489E-15  -0.1325770087E-14   0.4690093494E-15   0.2144955947E-02  -0.1085727974E-02  -0.1085727974E-02   0.2229865904E-15   0.1326794053E-16   0.1469194222E-16   0.6625000009E+01
   0.2004289912E+01   0.0000000000E+00   0.9989142720E+00   0.4500000000E-02   0.0000000000E+00  -0.1122750000E-02  -0.2100881112E-03   0.0000000000E+00   0.3702202780E-04  -0.6625000009E+01   0.1369682066E-11   0.1371074221E-11   0.5702960560E-15   0.1773802961E-15  -0.7172690430E-15   0.2144955947E-02  -0.1085727974E-02  -0.1085727974E-02   0.1550809242E-15   0.1360892748E-15  -0.4801189025E-16   0.6625000009E+01
   0.2004289912E+01   0.9989142720E+00   0.9989142720E+00   0.4500000000E-02  -0.1122750000E-02  -0.1122750000E-02  -0.2100881112E-03   0.3702202780E-04   0.3702202780E-04  -0.6625000008E+01  -0.2107869227E-11  -0.2111315294E-11   0.4888173567E-15   0.1438089024E-14  -0.6734316113E-15   0.2144955947E-02  -0.1085727974E-02  -0.1085727974E-02   0.8708343213E-16   0.2537537421E-16  -0.2352840654E-16   0.6625000008E+01
     1     2     3     4     5     6     7     8
     2     9    10     3     6    11    12     7
 VARIABLES = X,Y,Z,DU1,DU2,DU3,U1,U2,U3,S11,S22,S33,S12,S13,S23,E11,E22,E33,E12,E13,E23,SMISES
 ZONE, T="0.4200D+01" F=FEPOINT, I=   12 J=    2 ET=BRICK
   0.0000000000E+00   0.0000000000E+00   0.0000000000E+00   0.0000000000E+00   0.0000000000E+00   0.0000000000E+00   0.0000000000E+00   0.0000000000E+00   0.0000000000E+00  -0.5500000009E+01  -0.5640540363E-13  -0.5553355822E-13  -0.5778928975E-16  -0.1522720266E-14  -0.5127440311E-15   0.4394955951E-02  -0.2208477976E-02  -0.2208477976E-02   0.9541473081E-19  -0.1608589612E-16   0.2583509510E-17   0.5500000009E+01
   0.1004394956E+01   0.0000000000E+00  -0.1511596346E-16   0.2250000000E-02   0.0000000000E+00   0.4236619341E-18   0.2144955944E-02   0.0000000000E+00  -0.1553962540E-16  -0.5500000008E+01  -0.1378166921E-12  -0.1378435229E-12  -0.8113826423E-15  -0.6321092695E-15   0.3083410813E-15   0.4394955951E-02  -0.2208477976E-02  -0.2208477976E-02  -0.6432334555E-16   0.7666707295E-16  -0.9046839284E-17   0.5500000008E+01
   0.1004394956E+01   0.9977915220E+00  -0.1961586028E-16   0.2250000000E-02  -0.1122750000E-02  -0.4877403804E-19   0.2144955944E-02  -0.1085727972E-02  -0.1956708624E-16  -0.5500000008E+01  -0.1283002926E-11  -0.1283690837E-11  -0.4694361967E-15   0.3518844371E-15   0.5434950918E-15   0.4394955951E-02  -0.2208477975E-02  -0.2208477975E-02  -0.7073151378E-16   0.1440599047E-15   0.5077718940E-16   0.5500000008E+01
   0.0000000000E+00   0.9977915220E+00   0.1529639385E-17   0.0000000000E+00  -0.1122750000E-02  -0.5304723748E-18   0.0000000000E+00  -0.1085727972E-02   0.2060111760E-17  -0.5500000008E+01  -0.6735637672E-11  -0.6733736487E-11   0.1042336468E-14  -0.5308414760E-15  -0.6347151968E-15   0.4394955951E-02  -0.2208477975E-02  -0.2208477975E-02  -0.6365949697E-17  -0.3165477734E-16  -0.1638234495E-16   0.5500000008E+01
   0.0000000000E+00   0.0000000000E+00   0.9977915220E+00   0.0000000000E+00   0.0000000000E+00  -0.1122750000E-02   0.0000000000E+00   0.0000000000E+00  -0.1085727972E-02  -0.5500000008E+01   0.2347855566E-11   0.2347097269E-11   0.3991113159E-16  -0.6070508450E-16   0.8379336827E-15   0.4394955951E-02  -0.2208477975E-02  -0.2208477975E-02   0.1836541989E-18  -0.5509699202E-16  -0.5438319420E-17   0.5500000008E+01
   0.1004394956E+01   0.0000000000E+00   0.9977915220E+00   0.2250000000E-02   0.0000000000E+00  -0.1122750000E-02   0.2144955944E-02   0.0000000000E+00  -0.1085727972E-02  -0.5500000008E+01   0.6955432533E-12   0.6953807055E-12  -0.1751831215E-14   0.1882063121E-14   0.7968400243E-16   0.4394955951E-02  -0.2208477975E-02  -0.2208477975E-02   0.1010451443E-16   0.8166743488E-16  -0.1611049141E-16   0.5500000008E+01
   0.1004394956E+01   0.9977915220E+00   0.9977915220E+00   0.2250000000E-02  -0.1122750000E-02  -0.1122750000E-02   0.2144955944E-02  -0.1085727972E-02  -0.1085727972E-02  -0.5500000007E+01   0.4999043733E-12   0.5016321218E-12  -0.7826894369E-15   0.1811565609E-15  -0.1823322047E-15   0.4394955950E-02  -0.2208477975E-02  -0.2208477975E-02   0.2356654226E-16   0.1338955769E-15   0.4462224648E-16   0.5500000007E+01
   0.0000000000E+00   0.9977915220E+00   0.9977915220E+00   0.0000000000E+00  -0.1122750000E-02  -0.1122750000E-02   0.0000000000E+00  -0.1085727972E-02  -0.1085727972E-02  -0.5500000007E+01   0.3111443136E-11   0.3109284713E-11   0.1116314613E-14  -0.5530820761E-15  -0.2439386711E-15   0.4394955950E-02  -0.2208477975E-02  -0.2208477975E-02   0.1033453193E-15  -0.5757557818E-16  -0.2802519271E-16   0.5500000007E+01
   0.2008789912E+01   0.0000000000E+00  -0.5791328484E-16   0.4500000000E-02   0.0000000000E+00   0.6551506162E-17   0.4289911889E-02   0.0000000000E+00  -0.6446479100E-16  -0.5500000008E+01   0.2992903867E-13   0.2982054313E-13  -0.1168130969E-14  -0.1435980161E-14   0.8387797381E-15   0.4394955951E-02  -0.2208477976E-02  -0.2208477976E-02   0.2234543346E-15   0.7852063540E-16  -0.1072274310E-16   0.5500000008E+01
   0.2008789912E+01   0.9977915220E+00  -0.6325394443E-16   0.4500000000E-02  -0.1122750000E-02   0.6465709831E-17   0.4289911889E-02  -0.1085727972E-02  -0.6971965426E-16  -0.5500000008E+01   0.3496807260E-11   0.3496119349E-11   0.3625539410E-15  -0.3738453734E-15   0.9375850810E-16   0.4394955951E-02  -0.2208477975E-02  -0.2208477975E-02   0.2167820770E-15   0.2427742684E-16   0.9850054760E-17   0.5500000008E+01
   0.2008789912E+01   0.0000000000E+00   0.9977915220E+00   0.4500000000E-02   0.0000000000E+00  -0.1122750000E-02   0.4289911889E-02   0.0000000000E+00  -0.1085727972E-02  -0.5500000008E+01   0.1556447408E-12   0.1573347699E-12   0.2077520936E-14  -0.1035835655E-14  -0.7201059883E-15   0.4394955951E-02  -0.2208477975E-02  -0.2208477975E-02   0.1720318886E-15   0.1202052580E-15  -0.4778120286E-16   0.5500000008E+01
   0.2008789912E+01   0.9977915220E+00   0.9977915220E+00   0.4500000000E-02  -0.1122750000E-02  -0.1122750000E-02   0.4289911889E-02  -0.1085727972E-02  -0.1085727972E-02  -0.5500000007E+01  -0.1883127515E-11  -0.1886022456E-11   0.1230323320E-14   0.1708947384E-14  -0.1155280811E-14   0.4394955950E-02  -0.2208477975E-02  -0.2208477975E-02   0.9505446772E-16   0.3162668161E-16  -0.2902332879E-16   0.5500000007E+01
     1     2     3     4     5     6     7     8
     2     9    10     3     6    11    12     7
 VARIABLES = X,Y,Z,DU1,DU2,DU3,U1,U2,U3,S11,S22,S33,S12,S13,S23,E11,E22,E33,E12,E13,E23,SMISES
 ZONE, T="0.4250D+01" F=FEPOINT, I=   12 J=    2 ET=BRICK
   0.0000000000E+00   0.0000000000E+00   0.0000000000E+00   0.0000000000E+00   0.0000000000E+00   0.0000000000E+00   0.0000000000E+00   0.0000000000E+00   0.0000000000E+00  -0.4375000007E+01   0.1065649605E-11   0.1066692699E-11  -0.4571257102E-16  -0.4125272967E-15   0.1908338813E-15   0.6644955955E-02  -0.3331227977E-02  -0.3331227977E-02   0.2935879192E-18  -0.3274975655E-17   0.1142127410E-16   0.4375000007E+01
   0.1006644956E+01   0.0000000000E+00  -0.8238457505E-17   0.2250000000E-02   0.0000000000E+00   0.6877505957E-17   0.4394955944E-02   0.0000000000E+00  -0.1511596346E-16  -0.4375000007E+01  -0.4583820314E-13  -0.4664364872E-13  -0.1394414100E-14  -0.1428020746E-14   0.2447982472E-15   0.6644955955E-02  -0.3331227977E-02  -0.3331227977E-02  -0.6968450359E-16   0.6773129479E-16  -0.9940411981E-17   0.4375000007E+01
   0.1006644956E+01   0.9966687720E+00  -0.1312572942E-16   0.2250000000E-02  -0.1122750000E-02   0.6490130865E-17   0.4394955944E-02  -0.2208477972E-02  -0.1961586028E-16  -0.4375000006E+01  -0.5643221012E-12  -0.5656924789E-12  -0.1278206146E-14   0.4332673837E-15   0.7661862211E-17   0.6644955954E-02  -0.3331227977E-02  -0.3331227977E-02  -0.7768527691E-16   0.1448208705E-15   0.4526472983E-16   0.4375000006E+01
   0.0000000000E+00   0.9966687720E+00   0.5720732784E-17   0.0000000000E+00  -0.1122750000E-02   0.4191093399E-17   0.0000000000E+00  -0.2208477972E-02   0.1529639385E-17  -0.4375000006E+01  -0.6645826140E-11  -0.6644833647E-11   0.1304400048E-14  -0.5215501416E-15  -0.5920516337E-15   0.6644955954E-02  -0.3331227977E-02  -0.3331227977E-02  -0.4072772343E-17  -0.3140599550E-16  -0.1724157710E-16   0.4375000006E+01
   0.0000000000E+00   0.0000000000E+00   0.9966687720E+00   0.0000000000E+00   0.0000000000E+00  -0.1122750000E-02   0.0000000000E+00   0.0000000000E+00  -0.2208477972E-02  -0.4375000006E+01   0.1456734219E-11   0.1456657126E-11   0.7094908028E-16   0.7627466544E-15   0.1094310649E-14   0.6644955954E-02  -0.3331227977E-02  -0.3331227977E-02  -0.7901081768E-19  -0.4568886594E-16  -0.1740026125E-17   0.4375000006E+01
   0.1006644956E+01   0.0000000000E+00   0.9966687720E+00   0.2250000000E-02   0.0000000000E+00  -0.1122750000E-02   0.4394955944E-02   0.0000000000E+00  -0.2208477972E-02  -0.4375000006E+01   0.4802329588E-12   0.4808232630E-12  -0.1484098142E-14   0.1127372760E-14   0.1747597567E-15   0.6644955954E-02  -0.3331227977E-02  -0.3331227977E-02   0.1436492794E-16   0.7233265442E-16  -0.1457239162E-16   0.4375000006E+01
   0.1006644956E+01   0.9966687720E+00   0.9966687720E+00   0.2250000000E-02  -0.1122750000E-02  -0.1122750000E-02   0.4394955944E-02  -0.2208477972E-02  -0.2208477972E-02  -0.4375000006E+01   0.1535693130E-12   0.1556910839E-12  -0.9410349253E-16   0.3580358337E-15  -0.6198330487E-15   0.6644955953E-02  -0.3331227977E-02  -0.3331227977E-02   0.3002054797E-16   0.1324399471E-15   0.3994502472E-16   0.4375000006E+01
   0.0000000000E+00   0.9966687720E+00   0.9966687720E+00   0.0000000000E+00  -0.1122750000E-02  -0.1122750000E-02   0.0000000000E+00  -0.2208477972E-02  -0.2208477972E-02  -0.4375000006E+01   0.2541373550E-11   0.2539620768E-11   0.1386778102E-14  -0.4261346724E-16  -0.5884246028E-15   0.6644955953E-02  -0.3331227977E-02  -0.3331227977E-02   0.1082527766E-15  -0.5078052849E-16  -0.3003508937E-16   0.4375000006E+01
   0.2013289912E+01   0.0000000000E+00  -0.4172247083E-16   0.4500000000E-02   0.0000000000E+00   0.1619081401E-16   0.8789911889E-02   0.0000000000E+00  -0.5791328484E-16  -0.4375000007E+01  -0.1190600664E-11  -0.1190669252E-11   0.1181090030E-14   0.1050622006E-15   0.9559771180E-15   0.6644955954E-02  -0.3331227977E-02  -0.3331227977E-02   0.2544920609E-15   0.9355419315E-16  -0.9217166284E-17   0.4375000007E+01
   0.2013289912E+01   0.9966687720E+00  -0.4642914819E-16   0.4500000000E-02  -0.1122750000E-02   0.1682479624E-16   0.8789911889E-02  -0.2208477972E-02  -0.6325394443E-16  -0.4375000006E+01   0.4290143149E-11   0.4290523561E-11   0.2053038618E-14  -0.1667420950E-14   0.3785542523E-15   0.6644955954E-02  -0.3331227977E-02  -0.3331227977E-02   0.2394530284E-15   0.1399739224E-16   0.1346023669E-16   0.4375000006E+01
   0.2013289912E+01   0.0000000000E+00   0.9966687720E+00   0.4500000000E-02   0.0000000000E+00  -0.1122750000E-02   0.8789911889E-02   0.0000000000E+00  -0.2208477972E-02  -0.4375000006E+01   0.6061625156E-12   0.6075370743E-12   0.1074899460E-14   0.5055012814E-15  -0.3998136577E-15   0.6644955954E-02  -0.3331227977E-02  -0.3331227977E-02   0.1606522362E-15   0.1454638769E-15  -0.4273097079E-16   0.4375000006E+01
   0.2013289912E+01   0.9966687720E+00   0.9966687720E+00   0.4500000000E-02  -0.1122750000E-02  -0.1122750000E-02   0.8789911889E-02  -0.2208477972E-02  -0.2208477972E-02  -0.4375000006E+01  -0.2287493588E-11  -0.2290236141E-11   0.2854765730E-15   0.3588226251E-15  -0.5662109510E-15   0.6644955953E-02  -0.3331227976E-02  -0.3331227976E-02   0.8536857431E-16   0.1348051631E-16  -0.2144470178E-16   0.4375000006E+01
     1     2     3     4     5     6     7     8
     2     9    10     3     6    11    12     7
 VARIABLES = X,Y,Z,DU1,DU2,DU3,U1,U2,U3,S11,S22,S33,S12,S13,S23,E11,E22,E33,E12,E13,E23,SMISES
 ZONE, T="0.4300D+01" F=FEPOINT, I=   12 J=    2 ET=BRICK
   0.0000000000E+00   0.0000000000E+00   0.0000000000E+00   0.0000000000E+00   0.0000000000E+00   0.0000000000E+00   0.0000000000E+00   0.0000000000E+00   0.0000000000E+00  -0.3250000005E+01   0.2843131059E-12   0.2861883329E-12  -0.5529211842E-16  -0.9761587909E-15  -0.2352398188E-15   0.8894955958E-02  -0.4453977979E-02  -0.4453977979E-02   0.6739195802E-18  -0.9547324177E-17   0.5863831192E-17   0.3250000005E+01
   0.1008894956E+01   0.0000000000E+00  -0.1346825580E-16   0.2250000000E-02   0.0000000000E+00  -0.5229798299E-17   0.6644955944E-02   0.0000000000E+00  -0.8238457505E-17  -0.3250000005E+01  -0.4287659157E-12  -0.4293641908E-12  -0.1086596602E-14  -0.1112438226E-14   0.8797903404E-16   0.8894955958E-02  -0.4453977979E-02  -0.4453977979E-02  -0.6847295261E-16   0.7000145346E-16  -0.1132264460E-16   0.3250000005E+01
   0.1008894956E+01   0.9955460220E+00  -0.1933008877E-16   0.2250000000E-02  -0.1122750000E-02  -0.6204359358E-17   0.6644955944E-02  -0.3331227972E-02  -0.1312572942E-16  -0.3250000005E+01  -0.1167201987E-11  -0.1167525624E-11  -0.7625823518E-15  -0.2458696444E-16   0.3417084716E-15   0.8894955957E-02  -0.4453977979E-02  -0.4453977979E-02  -0.7331545914E-16   0.1397298234E-15   0.5275087695E-16   0.3250000005E+01
   0.0000000000E+00   0.9955460220E+00   0.3298593578E-17   0.0000000000E+00  -0.1122750000E-02  -0.2422139206E-17   0.0000000000E+00  -0.3331227972E-02   0.5720732784E-17  -0.3250000005E+01  -0.6874036415E-11  -0.6872631574E-11   0.1346882511E-14  -0.7196799209E-15  -0.4639789886E-15   0.8894955957E-02  -0.4453977979E-02  -0.4453977979E-02  -0.3049718805E-17  -0.3364018278E-16  -0.1584466064E-16   0.3250000005E+01
   0.0000000000E+00   0.0000000000E+00   0.9955460220E+00   0.0000000000E+00   0.0000000000E+00  -0.1122750000E-02   0.0000000000E+00   0.0000000000E+00  -0.3331227972E-02  -0.3250000005E+01   0.2096421867E-11   0.2095673730E-11   0.5898375744E-16   0.2483589099E-15   0.8615444846E-15   0.8894955957E-02  -0.4453977979E-02  -0.4453977979E-02   0.8527035650E-18  -0.5109163429E-16  -0.5985214750E-17   0.3250000005E+01
   0.1008894956E+01   0.0000000000E+00   0.9955460220E+00   0.2250000000E-02   0.0000000000E+00  -0.1122750000E-02   0.6644955944E-02   0.0000000000E+00  -0.3331227972E-02  -0.3250000005E+01   0.9030613848E-12   0.9034038815E-12  -0.1947450804E-14   0.1446343235E-14   0.9662511403E-16   0.8894955957E-02  -0.4453977979E-02  -0.4453977979E-02   0.8010354606E-17   0.7390090171E-16  -0.1640091479E-16   0.3250000005E+01
   0.1008894956E+01   0.9955460220E+00   0.9955460220E+00   0.2250000000E-02  -0.1122750000E-02  -0.1122750000E-02   0.6644955944E-02  -0.3331227972E-02  -0.3331227972E-02  -0.3250000004E+01   0.8985891654E-12   0.8998158549E-12  -0.6322211446E-15  -0.1520103640E-15  -0.1746604544E-15   0.8894955956E-02  -0.4453977978E-02  -0.4453977978E-02   0.2265659869E-16   0.1206670791E-15   0.4298498482E-16   0.3250000004E+01
   0.0000000000E+00   0.9955460220E+00   0.9955460220E+00   0.0000000000E+00  -0.1122750000E-02  -0.1122750000E-02   0.0000000000E+00  -0.3331227972E-02  -0.3331227972E-02  -0.3250000004E+01   0.2650976734E-11   0.2649453433E-11   0.1643543862E-14  -0.2195918065E-15  -0.4114912279E-15   0.8894955956E-02  -0.4453977978E-02  -0.4453977978E-02   0.1113234532E-15  -0.5080622379E-16  -0.2596481533E-16   0.3250000004E+01
   0.2017789912E+01   0.0000000000E+00  -0.6012834974E-16   0.4500000000E-02   0.0000000000E+00  -0.1840587891E-16   0.1328991189E-01   0.0000000000E+00  -0.4172247083E-16  -0.3250000005E+01  -0.1172551970E-11  -0.1172550707E-11   0.2021818228E-15  -0.5618114623E-15   0.6239369689E-15   0.8894955958E-02  -0.4453977979E-02  -0.4453977979E-02   0.2453432416E-15   0.9921758772E-16  -0.1425236308E-16   0.3250000005E+01
   0.2017789912E+01   0.9955460220E+00  -0.6689318032E-16   0.4500000000E-02  -0.1122750000E-02  -0.2046403213E-16   0.1328991189E-01  -0.3331227972E-02  -0.4642914819E-16  -0.3250000005E+01   0.3424894846E-11   0.3425136480E-11   0.1255058353E-14  -0.2724790427E-15   0.2767831234E-15   0.8894955957E-02  -0.4453977978E-02  -0.4453977978E-02   0.2340187683E-15   0.2143375859E-16   0.1145159252E-16   0.3250000005E+01
   0.2017789912E+01   0.0000000000E+00   0.9955460220E+00   0.4500000000E-02   0.0000000000E+00  -0.1122750000E-02   0.1328991189E-01   0.0000000000E+00  -0.3331227972E-02  -0.3250000005E+01   0.5440705608E-12   0.5451329050E-12   0.2147489341E-14  -0.1725955145E-16  -0.7390779639E-15   0.8894955957E-02  -0.4453977978E-02  -0.4453977978E-02   0.1758191509E-15   0.1303561408E-15  -0.4635660611E-16   0.3250000005E+01
   0.2017789912E+01   0.9955460220E+00   0.9955460220E+00   0.4500000000E-02  -0.1122750000E-02  -0.1122750000E-02   0.1328991189E-01  -0.3331227972E-02  -0.3331227972E-02  -0.3250000004E+01  -0.1067692208E-11  -0.1070634494E-11   0.1332579332E-14   0.1750088270E-14  -0.5481867111E-15   0.8894955956E-02  -0.4453977978E-02  -0.4453977978E-02   0.9195378810E-16   0.4205707059E-16  -0.1971479785E-16   0.3250000004E+01
     1     2     3     4     5     6     7     8
     2     9    10     3     6    11    12     7
 VARIABLES = X,Y,Z,DU1,DU2,DU3,U1,U2,U3,S11,S22,S33,S12,S13,S23,E11,E22,E33,E12,E13,E23,SMISES
 ZONE, T="0.4350D+01" F=FEPOINT, I=   12 J=    2 ET=BRICK
   0.0000000000E+00   0.0000000000E+00   0.0000000000E+00   0.0000000000E+00   0.0000000000E+00   0.0000000000E+00   0.0000000000E+00   0.0000000000E+00   0.0000000000E+00  -0.2125000003E+01   0.6590849349E-12   0.6604533914E-12  -0.5881364157E-16  -0.7071636155E-15  -0.1007117080E-15   0.1114495596E-01  -0.5576727981E-02  -0.5576727981E-02   0.1352518921E-17  -0.9934985719E-17   0.5223375186E-17   0.2125000003E+01
   0.1011144956E+01   0.0000000000E+00  -0.1091345115E-16   0.2250000000E-02   0.0000000000E+00   0.2554804657E-17   0.8894955944E-02   0.0000000000E+00  -0.1346825580E-16  -0.2125000003E+01  -0.3154020668E-12  -0.3164830753E-12  -0.1085285039E-14  -0.1385292120E-14   0.1421004351E-15   0.1114495596E-01  -0.5576727981E-02  -0.5576727981E-02  -0.6783250276E-16   0.6735182695E-16  -0.1040791424E-16   0.2125000003E+01
   0.1011144956E+01   0.9944232720E+00  -0.1641102850E-16   0.2250000000E-02  -0.1122750000E-02   0.2919060275E-17   0.8894955944E-02  -0.4453977972E-02  -0.1933008877E-16  -0.2125000003E+01  -0.7862860092E-12  -0.7871533350E-12  -0.1017038073E-14   0.3486519501E-15   0.1571482730E-15   0.1114495596E-01  -0.5576727980E-02  -0.5576727980E-02  -0.7305577390E-16   0.1440986325E-15   0.4564196342E-16   0.2125000003E+01
   0.0000000000E+00   0.9944232720E+00   0.4046874558E-17   0.0000000000E+00  -0.1122750000E-02   0.7482809797E-18   0.0000000000E+00  -0.4453977972E-02   0.3298593578E-17  -0.2125000003E+01  -0.6733211290E-11  -0.6731971986E-11   0.1493259128E-14  -0.5851379783E-15  -0.6060581708E-15   0.1114495596E-01  -0.5576727980E-02  -0.5576727980E-02  -0.2194965084E-17  -0.2948116935E-16  -0.1180650959E-16   0.2125000003E+01
   0.0000000000E+00   0.0000000000E+00   0.9944232720E+00   0.0000000000E+00   0.0000000000E+00  -0.1122750000E-02   0.0000000000E+00   0.0000000000E+00  -0.4453977972E-02  -0.2125000003E+01   0.1546949506E-11   0.1546380517E-11   0.3255100775E-16   0.5641998092E-15   0.1076386081E-14   0.1114495596E-01  -0.5576727980E-02  -0.5576727980E-02  -0.1778078778E-17  -0.4542010643E-16   0.2320599349E-20   0.2125000003E+01
   0.1011144956E+01   0.0000000000E+00   0.9944232720E+00   0.2250000000E-02   0.0000000000E+00  -0.1122750000E-02   0.8894955944E-02   0.0000000000E+00  -0.4453977972E-02  -0.2125000003E+01   0.7137918064E-12   0.7141769329E-12  -0.1331185847E-14   0.1233609693E-14   0.1384886509E-15   0.1114495596E-01  -0.5576727980E-02  -0.5576727980E-02   0.1974492728E-16   0.6921881241E-16  -0.1634863751E-16   0.2125000003E+01
   0.1011144956E+01   0.9944232720E+00   0.9944232720E+00   0.2250000000E-02  -0.1122750000E-02  -0.1122750000E-02   0.8894955944E-02  -0.4453977972E-02  -0.4453977972E-02  -0.2125000003E+01   0.5978416316E-12   0.5991719062E-12  -0.1009501479E-15   0.1209761817E-15  -0.3933726249E-15   0.1114495596E-01  -0.5576727979E-02  -0.5576727979E-02   0.3321806135E-16   0.1322796569E-15   0.4377960897E-16   0.2125000003E+01
   0.0000000000E+00   0.9944232720E+00   0.9944232720E+00   0.0000000000E+00  -0.1122750000E-02  -0.1122750000E-02   0.0000000000E+00  -0.4453977972E-02  -0.4453977972E-02  -0.2125000003E+01   0.2706553067E-11   0.2705095170E-11   0.1615238347E-14  -0.1389402316E-15  -0.3768116212E-15   0.1114495596E-01  -0.5576727980E-02  -0.5576727980E-02   0.1080419928E-15  -0.5698832465E-16  -0.3135787125E-16   0.2125000003E+01
   0.2022289912E+01   0.0000000000E+00  -0.5140448369E-16   0.4500000000E-02   0.0000000000E+00   0.8723866052E-17   0.1778991189E-01   0.0000000000E+00  -0.6012834974E-16  -0.2125000003E+01  -0.1555008033E-11  -0.1554485125E-11   0.1348648674E-14  -0.5456342818E-16   0.6963141669E-15   0.1114495596E-01  -0.5576727981E-02  -0.5576727981E-02   0.2528797458E-15   0.1195006290E-15  -0.1416430794E-16   0.2125000003E+01
   0.2022289912E+01   0.9944232720E+00  -0.5761143431E-16   0.4500000000E-02  -0.1122750000E-02   0.9281746009E-17   0.1778991189E-01  -0.4453977972E-02  -0.6689318032E-16  -0.2125000003E+01   0.3811822811E-11   0.3812699834E-11   0.1793997199E-14  -0.1102622940E-14   0.4865914849E-15   0.1114495596E-01  -0.5576727980E-02  -0.5576727980E-02   0.2336993904E-15  -0.7347315163E-17   0.1570475550E-16   0.2125000003E+01
   0.2022289912E+01   0.0000000000E+00   0.9944232720E+00   0.4500000000E-02   0.0000000000E+00  -0.1122750000E-02   0.1778991189E-01   0.0000000000E+00  -0.4453977972E-02  -0.2125000003E+01   0.6977514249E-12   0.6992779098E-12   0.1693391670E-14   0.6794903029E-15  -0.6910590205E-15   0.1114495596E-01  -0.5576727980E-02  -0.5576727980E-02   0.1733121509E-15   0.1356287554E-15  -0.4280868552E-16   0.2125000003E+01
   0.2022289912E+01   0.9944232720E+00   0.9944232720E+00   0.4500000000E-02  -0.1122750000E-02  -0.1122750000E-02   0.1778991189E-01  -0.4453977972E-02  -0.4453977972E-02  -0.2125000003E+01  -0.1741682882E-11  -0.1744502261E-11   0.7818996680E-15   0.7250574810E-15  -0.4560717691E-15   0.1114495596E-01  -0.5576727979E-02  -0.5576727979E-02   0.8548083242E-16   0.2786634206E-16  -0.2481801614E-16   0.2125000003E+01
     1     2     3     4     5     6     7     8
     2     9    10     3     6    11    12     7
 VARIABLES = X,Y,Z,DU1,DU2,DU3,U1,U2,U3,S11,S22,S33,S12,S13,S23,E11,E22,E33,E12,E13,E23,SMISES
 ZONE, T="0.4400D+01" F=FEPOINT, I=   12 J=    2 ET=BRICK
   0.0000000000E+00   0.0000000000E+00   0.0000000000E+00   0.0000000000E+00   0.0000000000E+00   0.0000000000E+00   0.0000000000E+00   0.0000000000E+00   0.0000000000E+00  -0.1000000002E+01   0.5075323411E-12   0.5086873688E-12  -0.4613768920E-16  -0.7953088308E-15  -0.1815126680E-15   0.1339495597E-01  -0.6699477983E-02  -0.6699477983E-02   0.1593466563E-20  -0.1020204833E-16   0.1070430864E-16   0.1000000002E+01
   0.1013394956E+01   0.0000000000E+00  -0.1175463765E-16   0.2250000000E-02   0.0000000000E+00  -0.8411865018E-18   0.1114495594E-01   0.0000000000E+00  -0.1091345115E-16  -0.1000000002E+01  -0.3286124148E-12  -0.3294987696E-12  -0.1041460860E-14  -0.1221515503E-14   0.1122432958E-15   0.1339495597E-01  -0.6699477983E-02  -0.6699477983E-02  -0.6585663909E-16   0.7099512584E-16  -0.1392701392E-16   0.1000000002E+01
   0.1013394956E+01   0.9933005220E+00  -0.1730703172E-16   0.2250000000E-02  -0.1122750000E-02  -0.8960032230E-18   0.1114495594E-01  -0.5576727972E-02  -0.1641102850E-16  -0.1000000001E+01  -0.8535652068E-12  -0.8542314383E-12  -0.8199949526E-15   0.2083280479E-15   0.2515287963E-15   0.1339495596E-01  -0.6699477982E-02  -0.6699477982E-02  -0.7205469660E-16   0.1340256288E-15   0.4917894035E-16   0.1000000001E+01
   0.0000000000E+00   0.9933005220E+00   0.3465857536E-17   0.0000000000E+00  -0.1122750000E-02  -0.5810170213E-18   0.0000000000E+00  -0.5576727972E-02   0.4046874558E-17  -0.1000000001E+01  -0.6718165243E-11  -0.6716873466E-11   0.1391473905E-14  -0.6438478811E-15  -0.6925524492E-15   0.1339495596E-01  -0.6699477982E-02  -0.6699477982E-02  -0.2681397228E-17  -0.2816522964E-16  -0.1758777855E-16   0.1000000001E+01
   0.0000000000E+00   0.0000000000E+00   0.9933005220E+00   0.0000000000E+00   0.0000000000E+00  -0.1122750000E-02   0.0000000000E+00   0.0000000000E+00  -0.5576727972E-02  -0.1000000001E+01   0.1805687997E-11   0.1804841404E-11   0.1444223548E-16   0.4457433964E-15   0.1003317377E-14   0.1339495596E-01  -0.6699477982E-02  -0.6699477982E-02  -0.5881763776E-18  -0.4704195433E-16  -0.6160657252E-17   0.1000000001E+01
   0.1013394956E+01   0.0000000000E+00   0.9933005220E+00   0.2250000000E-02   0.0000000000E+00  -0.1122750000E-02   0.1114495594E-01   0.0000000000E+00  -0.5576727972E-02  -0.1000000001E+01   0.7419207202E-12   0.7423627189E-12  -0.1791850417E-14   0.1654824881E-14   0.1042742359E-15   0.1339495596E-01  -0.6699477982E-02  -0.6699477982E-02   0.1288211790E-16   0.7282451083E-16  -0.1016150542E-16   0.1000000001E+01
   0.1013394956E+01   0.9933005220E+00   0.9933005220E+00   0.2250000000E-02  -0.1122750000E-02  -0.1122750000E-02   0.1114495594E-01  -0.5576727972E-02  -0.5576727972E-02  -0.1000000001E+01   0.6258503603E-12   0.6271911589E-12  -0.6139765215E-15  -0.2682317950E-15  -0.4568541622E-15   0.1339495596E-01  -0.6699477981E-02  -0.6699477981E-02   0.2783766345E-16   0.1299915655E-15   0.4313607111E-16   0.1000000001E+01
   0.0000000000E+00   0.9933005220E+00   0.9933005220E+00   0.0000000000E+00  -0.1122750000E-02  -0.1122750000E-02   0.0000000000E+00  -0.5576727972E-02  -0.5576727972E-02  -0.1000000001E+01   0.2618343839E-11   0.2616703623E-11   0.1545842110E-14  -0.7781848947E-16  -0.3703465535E-15   0.1339495596E-01  -0.6699477981E-02  -0.6699477981E-02   0.1045922873E-15  -0.5497961257E-16  -0.2884163651E-16   0.1000000001E+01
   0.2026789912E+01   0.0000000000E+00  -0.5330365176E-16   0.4500000000E-02   0.0000000000E+00  -0.1899168066E-17   0.2228991189E-01   0.0000000000E+00  -0.5140448369E-16  -0.1000000002E+01  -0.1346813019E-11  -0.1346680597E-11   0.1016047681E-14   0.2431111421E-16   0.7356754995E-15   0.1339495596E-01  -0.6699477982E-02  -0.6699477982E-02   0.2498354685E-15   0.1051986430E-15  -0.1342473538E-16   0.1000000002E+01
   0.2026789912E+01   0.9933005220E+00  -0.5941865337E-16   0.4500000000E-02  -0.1122750000E-02  -0.1807219059E-17   0.2228991189E-01  -0.5576727972E-02  -0.5761143431E-16  -0.1000000001E+01   0.3853178815E-11   0.3853972887E-11   0.1779084958E-14  -0.1225223687E-14   0.3194185556E-15   0.1339495596E-01  -0.6699477982E-02  -0.6699477982E-02   0.2389574502E-15   0.2128238195E-16   0.1071126939E-16   0.1000000001E+01
   0.2026789912E+01   0.0000000000E+00   0.9933005220E+00   0.4500000000E-02   0.0000000000E+00  -0.1122750000E-02   0.2228991189E-01   0.0000000000E+00  -0.5576727972E-02  -0.1000000001E+01   0.5235280463E-12   0.5250132137E-12   0.1743467267E-14   0.3705920281E-15  -0.5592616207E-15   0.1339495596E-01  -0.6699477982E-02  -0.6699477982E-02   0.1769412420E-15   0.1512939840E-15  -0.4286665964E-16   0.1000000001E+01
   0.2026789912E+01   0.9933005220E+00   0.9933005220E+00   0.4500000000E-02  -0.1122750000E-02  -0.1122750000E-02   0.2228991189E-01  -0.5576727972E-02  -0.5576727972E-02  -0.1000000001E+01  -0.1460436250E-11  -0.1463212816E-11   0.8749421582E-15   0.1060221165E-14  -0.4649576753E-15   0.1339495596E-01  -0.6699477981E-02  -0.6699477981E-02   0.8754951494E-16   0.7597973488E-17  -0.2424064355E-16   0.1000000001E+01
     1     2     3     4     5     6     7     8
     2     9    10     3     6    11    12     7
 VARIABLES = X,Y,Z,DU1,DU2,DU3,U1,U2,U3,S11,S22,S33,S12,S13,S23,E11,E22,E33,E12,E13,E23,SMISES
 ZONE, T="0.4450D+01" F=FEPOINT, I=   12 J=    2 ET=BRICK
   0.0000000000E+00   0.0000000000E+00   0.0000000000E+00   0.0000000000E+00   0.0000000000E+00   0.0000000000E+00   0.0000000000E+00   0.0000000000E+00   0.0000000000E+00   0.1250000002E+00   0.5682648619E-12   0.5696918737E-12  -0.9448048193E-16  -0.7804052826E-15  -0.8308230631E-16   0.1564495597E-01  -0.7822227984E-02  -0.7822227984E-02   0.6460292610E-18  -0.7733762345E-17   0.8820455987E-17   0.1250000002E+00
   0.1015644956E+01   0.0000000000E+00  -0.1141029888E-16   0.2250000000E-02   0.0000000000E+00   0.3443387693E-18   0.1339495594E-01   0.0000000000E+00  -0.1175463765E-16   0.1250000002E+00  -0.3324106731E-12  -0.3333282407E-12  -0.1033439569E-14  -0.1059681625E-14   0.6636976935E-16   0.1564495597E-01  -0.7822227984E-02  -0.7822227984E-02  -0.6669773165E-16   0.7207601585E-16  -0.1419661355E-16   0.1250000002E+00
   0.1015644956E+01   0.9921777720E+00  -0.1718590149E-16   0.2250000000E-02  -0.1122750000E-02   0.1211302295E-18   0.1339495594E-01  -0.6699477972E-02  -0.1730703172E-16   0.1250000002E+00  -0.8714227855E-12  -0.8720386310E-12  -0.7971837973E-15   0.1720499078E-15   0.2584835065E-15   0.1564495597E-01  -0.7822227983E-02  -0.7822227983E-02  -0.7121092796E-16   0.1401615779E-15   0.5038284741E-16   0.1250000002E+00
   0.0000000000E+00   0.9921777720E+00   0.3995645757E-17   0.0000000000E+00  -0.1122750000E-02   0.5297882208E-18   0.0000000000E+00  -0.6699477972E-02   0.3465857536E-17   0.1250000002E+00  -0.6852478128E-11  -0.6851248542E-11   0.1365275994E-14  -0.6667158805E-15  -0.6426728207E-15   0.1564495597E-01  -0.7822227984E-02  -0.7822227984E-02  -0.3447939837E-17  -0.3329415165E-16  -0.1327710254E-16   0.1250000002E+00
   0.0000000000E+00   0.0000000000E+00   0.9921777720E+00   0.0000000000E+00   0.0000000000E+00  -0.1122750000E-02   0.0000000000E+00   0.0000000000E+00  -0.6699477972E-02   0.1250000002E+00   0.1832120587E-11   0.1831544769E-11   0.6053922870E-16   0.3783302972E-15   0.9339780676E-15   0.1564495597E-01  -0.7822227984E-02  -0.7822227984E-02  -0.2890299883E-18  -0.5340244523E-16  -0.5219851937E-17   0.1250000002E+00
   0.1015644956E+01   0.0000000000E+00   0.9921777720E+00   0.2250000000E-02   0.0000000000E+00  -0.1122750000E-02   0.1339495594E-01   0.0000000000E+00  -0.6699477972E-02   0.1250000002E+00   0.7381202624E-12   0.7385362525E-12  -0.1813377834E-14   0.1536917730E-14   0.1369604432E-15   0.1564495597E-01  -0.7822227983E-02  -0.7822227983E-02   0.1664459596E-16   0.7802858519E-16  -0.9892115402E-17   0.1250000002E+00
   0.1015644956E+01   0.9921777720E+00   0.9921777720E+00   0.2250000000E-02  -0.1122750000E-02  -0.1122750000E-02   0.1339495594E-01  -0.6699477972E-02  -0.6699477972E-02   0.1250000002E+00   0.6080009905E-12   0.6093727527E-12  -0.5607626969E-15  -0.7945782448E-16  -0.3404207375E-15   0.1564495596E-01  -0.7822227982E-02  -0.7822227982E-02   0.3042983042E-16   0.1253972282E-15   0.4453498108E-16   0.1250000002E+00
   0.0000000000E+00   0.9921777720E+00   0.9921777720E+00   0.0000000000E+00  -0.1122750000E-02  -0.1122750000E-02   0.0000000000E+00  -0.6699477972E-02  -0.6699477972E-02   0.1250000002E+00   0.2612040058E-11   0.2610342158E-11   0.1641130891E-14  -0.1174645403E-15  -0.4778727345E-15   0.1564495597E-01  -0.7822227983E-02  -0.7822227983E-02   0.1065862858E-15  -0.4842689337E-16  -0.3434187464E-16   0.1250000002E+00
   0.2031289912E+01   0.0000000000E+00  -0.5348760745E-16   0.4500000000E-02   0.0000000000E+00  -0.1839556989E-18   0.2678991189E-01   0.0000000000E+00  -0.5330365176E-16   0.1250000002E+00  -0.1349475819E-11  -0.1349403222E-11   0.6714912830E-15  -0.3014538368E-15   0.8179845434E-15   0.1564495597E-01  -0.7822227984E-02  -0.7822227984E-02   0.2461999182E-15   0.8594078554E-16  -0.1125630354E-16   0.1250000002E+00
   0.2031289912E+01   0.9921777720E+00  -0.5905034019E-16   0.4500000000E-02  -0.1122750000E-02   0.3683131845E-18   0.2678991189E-01  -0.6699477972E-02  -0.5941865337E-16   0.1250000002E+00   0.3854802071E-11   0.3855359936E-11   0.1603105441E-14  -0.1009487991E-14   0.3555935242E-15   0.1564495597E-01  -0.7822227983E-02  -0.7822227983E-02   0.2345731704E-15   0.6784902745E-17   0.1341654577E-16   0.1250000002E+00
   0.2031289912E+01   0.0000000000E+00   0.9921777720E+00   0.4500000000E-02   0.0000000000E+00  -0.1122750000E-02   0.2678991189E-01   0.0000000000E+00  -0.6699477972E-02   0.1250000002E+00   0.5551607794E-12   0.5565901181E-12   0.1839889852E-14   0.5224437893E-15  -0.5377306739E-15   0.1564495597E-01  -0.7822227983E-02  -0.7822227983E-02   0.1781418436E-15   0.1320985667E-15  -0.4718289462E-16   0.1250000002E+00
   0.2031289912E+01   0.9921777720E+00   0.9921777720E+00   0.4500000000E-02  -0.1122750000E-02  -0.1122750000E-02   0.2678991189E-01  -0.6699477972E-02  -0.6699477972E-02   0.1250000002E+00  -0.1586805680E-11  -0.1589833369E-11   0.8393284249E-15   0.9711447746E-15  -0.6024373921E-15   0.1564495596E-01  -0.7822227982E-02  -0.7822227982E-02   0.7918521196E-16   0.2287338840E-16  -0.1839632775E-16   0.1250000002E+00
     1     2     3     4     5     6     7     8
     2     9    10     3     6    11    12     7
 VARIABLES = X,Y,Z,DU1,DU2,DU3,U1,U2,U3,S11,S22,S33,S12,S13,S23,E11,E22,E33,E12,E13,E23,SMISES
 ZONE, T="0.4500D+01" F=FEPOINT, I=   12 J=    2 ET=BRICK
   0.0000000000E+00   0.0000000000E+00   0.0000000000E+00   0.0000000000E+00   0.0000000000E+00   0.0000000000E+00   0.0000000000E+00   0.0000000000E+00   0.0000000000E+00   0.1250000002E+01   0.6105125354E-12   0.6114056956E-12  -0.1092012075E-15  -0.6805825496E-15  -0.1368353921E-15   0.1789495597E-01  -0.8944977986E-02  -0.8944977986E-02   0.7625070975E-18  -0.1106806891E-16   0.4845628404E-17   0.1250000002E+01
   0.1017894956E+01   0.0000000000E+00  -0.1071937367E-16   0.2250000000E-02   0.0000000000E+00   0.6909252103E-18   0.1564495594E-01   0.0000000000E+00  -0.1141029888E-16   0.1250000002E+01  -0.1895617766E-12  -0.1905974332E-12  -0.8777007057E-15  -0.1204537240E-14   0.9948088953E-16   0.1789495597E-01  -0.8944977986E-02  -0.8944977986E-02  -0.6858467830E-16   0.6701573285E-16  -0.8881432653E-17   0.1250000002E+01
   0.1017894956E+01   0.9910550220E+00  -0.1624634505E-16   0.2250000000E-02  -0.1122750000E-02   0.9395564445E-18   0.1564495594E-01  -0.7822227972E-02  -0.1718590149E-16   0.1250000002E+01  -0.8130114104E-12  -0.8136586844E-12  -0.7033648499E-15   0.6328089031E-16   0.2550948655E-15   0.1789495597E-01  -0.8944977985E-02  -0.8944977985E-02  -0.7531385450E-16   0.1458079863E-15   0.5079757908E-16   0.1250000002E+01
   0.0000000000E+00   0.9910550220E+00   0.3755694734E-17   0.0000000000E+00  -0.1122750000E-02  -0.2399510234E-18   0.0000000000E+00  -0.7822227972E-02   0.3995645757E-17   0.1250000002E+01  -0.6553479842E-11  -0.6552245618E-11   0.1380958198E-14  -0.4932585353E-15  -0.7960336526E-15   0.1789495597E-01  -0.8944977985E-02  -0.8944977985E-02  -0.3696935266E-17  -0.3138984621E-16  -0.2323111632E-16   0.1250000002E+01
   0.0000000000E+00   0.0000000000E+00   0.9910550220E+00   0.0000000000E+00   0.0000000000E+00  -0.1122750000E-02   0.0000000000E+00   0.0000000000E+00  -0.7822227972E-02   0.1250000002E+01   0.1649154317E-11   0.1648309400E-11   0.3806089542E-16   0.5720166322E-15   0.1114383803E-14   0.1789495597E-01  -0.8944977985E-02  -0.8944977985E-02   0.7662918169E-20  -0.4047101450E-16   0.1709334430E-17   0.1250000002E+01
   0.1017894956E+01   0.0000000000E+00   0.9910550220E+00   0.2250000000E-02   0.0000000000E+00  -0.1122750000E-02   0.1564495594E-01   0.0000000000E+00  -0.7822227972E-02   0.1250000002E+01   0.6004465077E-12   0.6009555379E-12  -0.1703778023E-14   0.1595460837E-14   0.1840385334E-15   0.1789495597E-01  -0.8944977985E-02  -0.8944977985E-02   0.1498145439E-16   0.6104653587E-16  -0.1922887431E-16   0.1250000002E+01
   0.1017894956E+01   0.9910550220E+00   0.9910550220E+00   0.2250000000E-02  -0.1122750000E-02  -0.1122750000E-02   0.1564495594E-01  -0.7822227972E-02  -0.7822227972E-02   0.1250000002E+01   0.6025697749E-12   0.6040321197E-12  -0.4660702791E-15  -0.1253612754E-15  -0.3977370733E-15   0.1789495597E-01  -0.8944977984E-02  -0.8944977984E-02   0.3170771631E-16   0.1386131023E-15   0.4255582205E-16   0.1250000002E+01
   0.0000000000E+00   0.9910550220E+00   0.9910550220E+00   0.0000000000E+00  -0.1122750000E-02  -0.1122750000E-02   0.0000000000E+00  -0.7822227972E-02  -0.7822227972E-02   0.1250000002E+01   0.2577487438E-11   0.2576110086E-11   0.1691935709E-14  -0.5431825133E-16  -0.4530976470E-15   0.1789495597E-01  -0.8944977984E-02  -0.8944977984E-02   0.1051999384E-15  -0.5877738863E-16  -0.1259483318E-16   0.1250000002E+01
   0.2035789912E+01   0.0000000000E+00  -0.5078878596E-16   0.4500000000E-02   0.0000000000E+00   0.2698821493E-17   0.3128991189E-01   0.0000000000E+00  -0.5348760745E-16   0.1250000002E+01  -0.1214688446E-11  -0.1214676027E-11   0.5250959277E-15  -0.3535602079E-15   0.8360822593E-15   0.1789495597E-01  -0.8944977986E-02  -0.8944977986E-02   0.2536937171E-15   0.1067637301E-15  -0.1378570023E-16   0.1250000002E+01
   0.2035789912E+01   0.9910550220E+00  -0.5636243431E-16   0.4500000000E-02  -0.1122750000E-02   0.2687905875E-17   0.3128991189E-01  -0.7822227972E-02  -0.5905034019E-16   0.1250000002E+01   0.3780955351E-11   0.3781700668E-11   0.1519142433E-14  -0.8525053838E-15   0.2079793284E-15   0.1789495597E-01  -0.8944977985E-02  -0.8944977985E-02   0.2385262458E-15   0.3990890649E-17   0.1348891397E-16   0.1250000002E+01
   0.2035789912E+01   0.0000000000E+00   0.9910550220E+00   0.4500000000E-02   0.0000000000E+00  -0.1122750000E-02   0.3128991189E-01   0.0000000000E+00  -0.7822227972E-02   0.1250000002E+01   0.3545108156E-12   0.3559841468E-12   0.2087186031E-14  -0.7957195255E-19  -0.3892570281E-15   0.1789495597E-01  -0.8944977985E-02  -0.8944977985E-02   0.1700031400E-15   0.1161175437E-15  -0.3676755468E-16   0.1250000002E+01
   0.2035789912E+01   0.9910550220E+00   0.9910550220E+00   0.4500000000E-02  -0.1122750000E-02  -0.1122750000E-02   0.3128991189E-01  -0.7822227972E-02  -0.7822227972E-02   0.1250000002E+01  -0.1454681096E-11  -0.1457394168E-11   0.9771220537E-15   0.1367756834E-14  -0.5702565605E-15   0.1789495597E-01  -0.8944977984E-02  -0.8944977984E-02   0.9723555871E-16   0.3937021186E-16  -0.1743446574E-16   0.1250000002E+01
     1     2     3     4     5     6     7     8
     2     9    10     3     6    11    12     7
 VARIABLES = X,Y,Z,DU1,DU2,DU3,U1,U2,U3,S11,S22,S33,S12,S13,S23,E11,E22,E33,E12,E13,E23,SMISES
 ZONE, T="0.4550D+01" F=FEPOINT, I=   12 J=    2 ET=BRICK
   0.0000000000E+00   0.0000000000E+00   0.0000000000E+00   0.0000000000E+00   0.0000000000E+00   0.0000000000E+00   0.0000000000E+00   0.0000000000E+00   0.0000000000E+00   0.2375000004E+01   0.6738131771E-12   0.6753051726E-12  -0.1082958271E-15  -0.5549341977E-15   0.8607266159E-16   0.2014495598E-01  -0.1006772799E-01  -0.1006772799E-01  -0.1242317786E-17  -0.6427499894E-17   0.1049703060E-16   0.2375000004E+01
   0.1020144956E+01   0.0000000000E+00  -0.1039267596E-16   0.2250000000E-02   0.0000000000E+00   0.3266977116E-18   0.1789495594E-01   0.0000000000E+00  -0.1071937367E-16   0.2375000004E+01  -0.3166522229E-12  -0.3180060722E-12  -0.8816170366E-15  -0.1004517582E-14   0.4123821678E-16   0.2014495598E-01  -0.1006772799E-01  -0.1006772799E-01  -0.6082221957E-16   0.7190175169E-16  -0.1023507188E-16   0.2375000004E+01
   0.1020144956E+01   0.9899322720E+00  -0.1614800532E-16   0.2250000000E-02  -0.1122750000E-02   0.9833973178E-19   0.1789495594E-01  -0.8944977972E-02  -0.1624634505E-16   0.2375000003E+01  -0.6479322656E-12  -0.6487616766E-12  -0.6607737241E-15   0.7741389089E-17   0.1199540886E-15   0.2014495597E-01  -0.1006772799E-01  -0.1006772799E-01  -0.7002150618E-16   0.1515018393E-15   0.4364809588E-16   0.2375000003E+01
   0.0000000000E+00   0.9899322720E+00   0.4863857356E-17   0.0000000000E+00  -0.1122750000E-02   0.1108162623E-17   0.0000000000E+00  -0.8944977972E-02   0.3755694734E-17   0.2375000003E+01  -0.6725566753E-11  -0.6724586776E-11   0.1570968752E-14  -0.7365987681E-15  -0.6411980304E-15   0.2014495597E-01  -0.1006772799E-01  -0.1006772799E-01  -0.4289762421E-17  -0.3941142468E-16  -0.2269586731E-16   0.2375000003E+01
   0.0000000000E+00   0.0000000000E+00   0.9899322720E+00   0.0000000000E+00   0.0000000000E+00  -0.1122750000E-02   0.0000000000E+00   0.0000000000E+00  -0.8944977972E-02   0.2375000003E+01   0.1862606662E-11   0.1862246204E-11   0.4025580328E-16   0.3286288984E-15   0.9083187056E-15   0.2014495597E-01  -0.1006772799E-01  -0.1006772799E-01   0.1237850380E-17  -0.4524546194E-16  -0.3811280097E-17   0.2375000003E+01
   0.1020144956E+01   0.0000000000E+00   0.9899322720E+00   0.2250000000E-02   0.0000000000E+00  -0.1122750000E-02   0.1789495594E-01   0.0000000000E+00  -0.8944977972E-02   0.2375000003E+01   0.6453945008E-12   0.6459136902E-12  -0.1968432449E-14   0.1714725756E-14   0.2307499469E-15   0.2014495597E-01  -0.1006772799E-01  -0.1006772799E-01   0.9164712292E-17   0.6990542304E-16  -0.1668712532E-16   0.2375000003E+01
   0.1020144956E+01   0.9899322720E+00   0.9899322720E+00   0.2250000000E-02  -0.1122750000E-02  -0.1122750000E-02   0.1789495594E-01  -0.8944977972E-02  -0.8944977972E-02   0.2375000003E+01   0.5063287327E-12   0.5078763370E-12  -0.7897783423E-15  -0.1283019742E-15  -0.5269023559E-15   0.2014495597E-01  -0.1006772799E-01  -0.1006772799E-01   0.2841521748E-16   0.1246777251E-15   0.4035010487E-16   0.2375000003E+01
   0.0000000000E+00   0.9899322720E+00   0.9899322720E+00   0.0000000000E+00  -0.1122750000E-02  -0.1122750000E-02   0.0000000000E+00  -0.8944977972E-02  -0.8944977972E-02   0.2375000003E+01   0.2447688364E-11   0.2446169876E-11   0.1589060885E-14  -0.4668313211E-16  -0.5173087360E-15   0.2014495597E-01  -0.1006772799E-01  -0.1006772799E-01   0.1049149839E-15  -0.4871549224E-16  -0.2836867870E-16   0.2375000003E+01
   0.2040289912E+01   0.0000000000E+00  -0.5116976194E-16   0.4500000000E-02   0.0000000000E+00  -0.3809759763E-18   0.3578991189E-01   0.0000000000E+00  -0.5078878596E-16   0.2375000004E+01  -0.1532871306E-11  -0.1532518019E-11   0.1276687811E-14   0.2804367895E-15   0.9427438420E-15   0.2014495597E-01  -0.1006772799E-01  -0.1006772799E-01   0.2508344345E-15   0.7206077346E-16  -0.1066870438E-16   0.2375000004E+01
   0.2040289912E+01   0.9899322720E+00  -0.5615767200E-16   0.4500000000E-02  -0.1122750000E-02   0.2047623091E-18   0.3578991189E-01  -0.8944977972E-02  -0.5636243431E-16   0.2375000003E+01   0.4011305514E-11   0.4012229250E-11   0.2033043105E-14  -0.1421782522E-14   0.4490508515E-15   0.2014495597E-01  -0.1006772799E-01  -0.1006772799E-01   0.2331310047E-15   0.1509441172E-16   0.1056017006E-16   0.2375000003E+01
   0.2040289912E+01   0.0000000000E+00   0.9899322720E+00   0.4500000000E-02   0.0000000000E+00  -0.1122750000E-02   0.3578991189E-01   0.0000000000E+00  -0.8944977972E-02   0.2375000003E+01   0.5017918649E-12   0.5030894998E-12   0.1459621353E-14   0.5628973552E-15  -0.2960235039E-15   0.2014495597E-01  -0.1006772799E-01  -0.1006772799E-01   0.1586186670E-15   0.1514459414E-15  -0.2928787326E-16   0.2375000003E+01
   0.2040289912E+01   0.9899322720E+00   0.9899322720E+00   0.4500000000E-02  -0.1122750000E-02  -0.1122750000E-02   0.3578991189E-01  -0.8944977972E-02  -0.8944977972E-02   0.2375000003E+01  -0.1516566632E-11  -0.1519390361E-11   0.5120246986E-15   0.7617290494E-15  -0.1985779879E-15   0.2014495597E-01  -0.1006772799E-01  -0.1006772799E-01   0.9221697838E-16  -0.1623848546E-16  -0.2292130784E-16   0.2375000003E+01
     1     2     3     4     5     6     7     8
     2     9    10     3     6    11    12     7
 VARIABLES = X,Y,Z,DU1,DU2,DU3,U1,U2,U3,S11,S22,S33,S12,S13,S23,E11,E22,E33,E12,E13,E23,SMISES
 ZONE, T="0.4600D+01" F=FEPOINT, I=   12 J=    2 ET=BRICK
   0.0000000000E+00   0.0000000000E+00   0.0000000000E+00   0.0000000000E+00   0.0000000000E+00   0.0000000000E+00   0.0000000000E+00   0.0000000000E+00   0.0000000000E+00   0.3500000005E+01   0.6831720990E-12   0.6852740855E-12  -0.1186547722E-15  -0.5991904760E-15   0.2082032200E-15   0.2239495598E-01  -0.1119047799E-01  -0.1119047799E-01  -0.7360748083E-18  -0.8039964875E-17   0.1305296517E-16   0.3500000005E+01
   0.1022394956E+01   0.0000000000E+00  -0.1149160107E-16   0.2250000000E-02   0.0000000000E+00  -0.1098925116E-17   0.2014495594E-01   0.0000000000E+00  -0.1039267596E-16   0.3500000005E+01  -0.5238986486E-12  -0.5250019684E-12  -0.1890263197E-14  -0.1466549815E-14  -0.1173337479E-15   0.2239495598E-01  -0.1119047799E-01  -0.1119047799E-01  -0.7196258040E-16   0.6640977343E-16  -0.1301279780E-16   0.3500000005E+01
   0.1022394956E+01   0.9888095220E+00  -0.1811400438E-16   0.2250000000E-02  -0.1122750000E-02  -0.1965999065E-17   0.2014495594E-01  -0.1006772797E-01  -0.1614800532E-16   0.3500000005E+01  -0.7969744456E-12  -0.7975662085E-12  -0.1636224722E-14   0.8536880284E-15   0.1150737905E-15   0.2239495598E-01  -0.1119047799E-01  -0.1119047799E-01  -0.7696131684E-16   0.1484554468E-15   0.4112253241E-16   0.3500000005E+01
   0.0000000000E+00   0.9888095220E+00   0.5479985389E-17   0.0000000000E+00  -0.1122750000E-02   0.6161280325E-18   0.0000000000E+00  -0.1006772797E-01   0.4863857356E-17   0.3500000005E+01  -0.7315812573E-11  -0.7314754409E-11   0.1549083738E-14  -0.1058039366E-14  -0.3912211245E-15   0.2239495598E-01  -0.1119047799E-01  -0.1119047799E-01  -0.7397724457E-17  -0.4003406760E-16  -0.1655257094E-16   0.3500000005E+01
   0.0000000000E+00   0.0000000000E+00   0.9888095220E+00   0.0000000000E+00   0.0000000000E+00  -0.1122750000E-02   0.0000000000E+00   0.0000000000E+00  -0.1006772797E-01   0.3500000005E+01   0.1945024098E-11   0.1944865002E-11   0.3825227220E-16   0.1080271695E-15   0.1003002365E-14   0.2239495598E-01  -0.1119047799E-01  -0.1119047799E-01   0.9520263312E-18  -0.4307698601E-16  -0.8611572822E-17   0.3500000005E+01
   0.1022394956E+01   0.0000000000E+00   0.9888095220E+00   0.2250000000E-02   0.0000000000E+00  -0.1122750000E-02   0.2014495594E-01   0.0000000000E+00  -0.1006772797E-01   0.3500000005E+01   0.7255856086E-12   0.7258522758E-12  -0.1368012317E-14   0.1157570695E-14   0.1918577294E-15   0.2239495598E-01  -0.1119047799E-01  -0.1119047799E-01   0.1678013742E-16   0.4624214793E-16  -0.1143674428E-16   0.3500000005E+01
   0.1022394956E+01   0.9888095220E+00   0.9888095220E+00   0.2250000000E-02  -0.1122750000E-02  -0.1122750000E-02   0.2014495594E-01  -0.1006772797E-01  -0.1006772797E-01   0.3500000005E+01   0.6443300638E-12   0.6461728201E-12  -0.1919040173E-15   0.7949711513E-15  -0.4182999192E-15   0.2239495597E-01  -0.1119047799E-01  -0.1119047799E-01   0.3037585977E-16   0.1540838131E-15   0.4357467941E-16   0.3500000005E+01
   0.0000000000E+00   0.9888095220E+00   0.9888095220E+00   0.0000000000E+00  -0.1122750000E-02  -0.1122750000E-02   0.0000000000E+00  -0.1006772797E-01  -0.1006772797E-01   0.3500000005E+01   0.2904813037E-11   0.2903077852E-11   0.1525996946E-14  -0.3862409121E-15  -0.2830825349E-15   0.2239495597E-01  -0.1119047799E-01  -0.1119047799E-01   0.1064063796E-15  -0.6033266332E-16  -0.3423466043E-16   0.3500000005E+01
   0.2044789912E+01   0.0000000000E+00  -0.5626843132E-16   0.4500000000E-02   0.0000000000E+00  -0.5098669383E-17   0.4028991189E-01   0.0000000000E+00  -0.5116976194E-16   0.3500000005E+01  -0.1797638265E-11  -0.1797208516E-11   0.1123070780E-14  -0.7980553562E-16   0.6542719879E-15   0.2239495598E-01  -0.1119047799E-01  -0.1119047799E-01   0.2327835208E-15   0.9542766215E-16  -0.1026840173E-16   0.3500000005E+01
   0.2044789912E+01   0.9888095220E+00  -0.6303854942E-16   0.4500000000E-02  -0.1122750000E-02  -0.6880877415E-17   0.4028991189E-01  -0.1006772797E-01  -0.5615767200E-16   0.3500000005E+01   0.4355515416E-11   0.4356144364E-11   0.2166741556E-14  -0.1286814227E-14   0.1129684659E-15   0.2239495598E-01  -0.1119047799E-01  -0.1119047799E-01   0.2229493158E-15  -0.2200876648E-16   0.7387255474E-17   0.3500000005E+01
   0.2044789912E+01   0.0000000000E+00   0.9888095220E+00   0.4500000000E-02   0.0000000000E+00  -0.1122750000E-02   0.4028991189E-01   0.0000000000E+00  -0.1006772797E-01   0.3500000005E+01   0.6844296494E-12   0.6853281824E-12   0.1442712083E-14   0.3274057378E-15  -0.5131641325E-15   0.2239495598E-01  -0.1119047799E-01  -0.1119047799E-01   0.1662685360E-15   0.1423631028E-15  -0.3938581690E-16   0.3500000005E+01
   0.2044789912E+01   0.9888095220E+00   0.9888095220E+00   0.4500000000E-02  -0.1122750000E-02  -0.1122750000E-02   0.4028991189E-01  -0.1006772797E-01  -0.1006772797E-01   0.3500000004E+01  -0.1699475122E-11  -0.1702638723E-11   0.4434233690E-15   0.8087426253E-15  -0.4287075369E-15   0.2239495597E-01  -0.1119047799E-01  -0.1119047799E-01   0.9263376071E-16   0.4586509063E-16  -0.1339727407E-16   0.3500000004E+01
     1     2     3     4     5     6     7     8
     2     9    10     3     6    11    12     7
 VARIABLES = X,Y,Z,DU1,DU2,DU3,U1,U2,U3,S11,S22,S33,S12,S13,S23,E11,E22,E33,E12,E13,E23,SMISES
 ZONE, T="0.4650D+01" F=FEPOINT, I=   12 J=    2 ET=BRICK
   0.0000000000E+00   0.0000000000E+00   0.0000000000E+00   0.0000000000E+00   0.0000000000E+00   0.0000000000E+00   0.0000000000E+00   0.0000000000E+00   0.0000000000E+00   0.4625000007E+01   0.3273952355E-12   0.3292798923E-12  -0.1335118194E-15  -0.1035975127E-14  -0.1722239900E-15   0.2464495598E-01  -0.1231322799E-01  -0.1231322799E-01  -0.1334853800E-17  -0.1605302091E-16   0.8986692538E-17   0.4625000007E+01
   0.1024644956E+01   0.0000000000E+00  -0.1395574974E-16   0.2250000000E-02   0.0000000000E+00  -0.2464148668E-17   0.2239495594E-01   0.0000000000E+00  -0.1149160107E-16   0.4625000007E+01  -0.5986073826E-12  -0.5999937024E-12  -0.1360313627E-14  -0.1224947061E-14  -0.1666620844E-15   0.2464495598E-01  -0.1231322799E-01  -0.1231322799E-01  -0.6212985739E-16   0.8359466926E-16  -0.1615421093E-16   0.4625000007E+01
   0.1024644956E+01   0.9876867720E+00  -0.2088549967E-16   0.2250000000E-02  -0.1122750000E-02  -0.2771495292E-17   0.2239495594E-01  -0.1119047797E-01  -0.1811400438E-16   0.4625000007E+01  -0.7280404945E-12  -0.7283126058E-12  -0.1202050676E-14   0.6699802543E-15   0.9783638109E-16   0.2464495598E-01  -0.1231322799E-01  -0.1231322799E-01  -0.7488072643E-16   0.1329566669E-15   0.5670252987E-16   0.4625000007E+01
   0.0000000000E+00   0.9876867720E+00   0.3330365755E-17   0.0000000000E+00  -0.1122750000E-02  -0.2149619634E-17   0.0000000000E+00  -0.1119047797E-01   0.5479985389E-17   0.4625000007E+01  -0.7114464913E-11  -0.7113470427E-11   0.1585274962E-14  -0.1132524892E-14  -0.6344374156E-15   0.2464495598E-01  -0.1231322799E-01  -0.1231322799E-01  -0.2027243293E-17  -0.3327234869E-16  -0.2769376028E-16   0.4625000007E+01
   0.0000000000E+00   0.0000000000E+00   0.9876867720E+00   0.0000000000E+00   0.0000000000E+00  -0.1122750000E-02   0.0000000000E+00   0.0000000000E+00  -0.1119047797E-01   0.4625000007E+01   0.1865986090E-11   0.1864975271E-11   0.1848652510E-16   0.1169594876E-15   0.1203279503E-14   0.2464495598E-01  -0.1231322799E-01  -0.1231322799E-01  -0.2506343586E-17  -0.4581105189E-16  -0.1213462881E-16   0.4625000007E+01
   0.1024644956E+01   0.0000000000E+00   0.9876867720E+00   0.2250000000E-02   0.0000000000E+00  -0.1122750000E-02   0.2239495594E-01   0.0000000000E+00  -0.1119047797E-01   0.4625000007E+01   0.8726433648E-12   0.8729858615E-12  -0.1416164157E-14   0.1466771154E-14   0.1205048830E-15   0.2464495598E-01  -0.1231322799E-01  -0.1231322799E-01   0.2474608536E-16   0.5802168207E-16  -0.1739172897E-16   0.4625000007E+01
   0.1024644956E+01   0.9876867720E+00   0.9876867720E+00   0.2250000000E-02  -0.1122750000E-02  -0.1122750000E-02   0.2239495594E-01  -0.1119047797E-01  -0.1119047797E-01   0.4625000006E+01   0.6648240382E-12   0.6666464761E-12  -0.2640121396E-15   0.4372581027E-15  -0.3448040351E-15   0.2464495598E-01  -0.1231322799E-01  -0.1231322799E-01   0.2584027337E-16   0.1425483305E-15   0.3127494692E-16   0.4625000006E+01
   0.0000000000E+00   0.9876867720E+00   0.9876867720E+00   0.0000000000E+00  -0.1122750000E-02  -0.1122750000E-02   0.0000000000E+00  -0.1119047797E-01  -0.1119047797E-01   0.4625000006E+01   0.3192474553E-11   0.3190967585E-11   0.1449070381E-14  -0.5567838178E-15  -0.1324729357E-15   0.2464495598E-01  -0.1231322799E-01  -0.1231322799E-01   0.1093682935E-15  -0.6136262149E-16  -0.1527228185E-16   0.4625000006E+01
   0.2049289912E+01   0.0000000000E+00  -0.6028982073E-16   0.4500000000E-02   0.0000000000E+00  -0.4021389407E-17   0.4478991189E-01   0.0000000000E+00  -0.5626843132E-16   0.4625000007E+01  -0.1964686071E-11  -0.1963887333E-11   0.1634708414E-14   0.6260190905E-15   0.6164772216E-15   0.2464495598E-01  -0.1231322799E-01  -0.1231322799E-01   0.2364870809E-15   0.5658999709E-16  -0.1867453786E-16   0.4625000007E+01
   0.2049289912E+01   0.9876867720E+00  -0.6741683946E-16   0.4500000000E-02  -0.1122750000E-02  -0.4378290041E-17   0.4478991189E-01  -0.1119047797E-01  -0.6303854942E-16   0.4625000006E+01   0.4135609559E-11   0.4136261548E-11   0.2378863781E-14  -0.1723372758E-14   0.5553760182E-15   0.2464495598E-01  -0.1231322799E-01  -0.1231322799E-01   0.2229006350E-15   0.2636065532E-16   0.1337006754E-16   0.4625000006E+01
   0.2049289912E+01   0.0000000000E+00   0.9876867720E+00   0.4500000000E-02   0.0000000000E+00  -0.1122750000E-02   0.4478991189E-01   0.0000000000E+00  -0.1119047797E-01   0.4625000006E+01   0.9024893380E-12   0.9023790451E-12   0.7726931594E-15   0.8887727597E-15  -0.6360225843E-15   0.2464495598E-01  -0.1231322799E-01  -0.1231322799E-01   0.1684421972E-15   0.1467984171E-15  -0.3281050461E-16   0.4625000006E+01
   0.2049289912E+01   0.9876867720E+00   0.9876867720E+00   0.4500000000E-02  -0.1122750000E-02  -0.1122750000E-02   0.4478991189E-01  -0.1119047797E-01  -0.1119047797E-01   0.4625000006E+01  -0.1886568974E-11  -0.1889949905E-11  -0.1332815924E-15   0.1101249814E-15   0.1209963008E-16   0.2464495598E-01  -0.1231322799E-01  -0.1231322799E-01   0.9575291786E-16   0.2269899443E-16  -0.6704590222E-17   0.4625000006E+01
     1     2     3     4     5     6     7     8
     2     9    10     3     6    11    12     7
 VARIABLES = X,Y,Z,DU1,DU2,DU3,U1,U2,U3,S11,S22,S33,S12,S13,S23,E11,E22,E33,E12,E13,E23,SMISES
 ZONE, T="0.4700D+01" F=FEPOINT, I=   12 J=    2 ET=BRICK
   0.0000000000E+00   0.0000000000E+00   0.0000000000E+00   0.0000000000E+00   0.0000000000E+00   0.0000000000E+00   0.0000000000E+00   0.0000000000E+00   0.0000000000E+00   0.5750000009E+01   0.3014122340E-12   0.3028250460E-12  -0.1388736330E-15  -0.5566944603E-15  -0.2075506109E-15   0.2689495599E-01  -0.1343597799E-01  -0.1343597799E-01  -0.2431578043E-18  -0.1357860159E-16   0.3449306701E-17   0.5750000009E+01
   0.1026894956E+01   0.0000000000E+00  -0.1112858841E-16   0.2250000000E-02   0.0000000000E+00   0.2827161328E-17   0.2464495594E-01   0.0000000000E+00  -0.1395574974E-16   0.5750000009E+01  -0.5573706314E-12  -0.5590562842E-12  -0.5041767007E-15  -0.1531012960E-14  -0.1052593316E-15   0.2689495599E-01  -0.1343597799E-01  -0.1343597799E-01  -0.4972706733E-16   0.7512188422E-16  -0.1433306453E-16   0.5750000009E+01
   0.1026894956E+01   0.9865640220E+00  -0.1769233931E-16   0.2250000000E-02  -0.1122750000E-02   0.3193160363E-17   0.2464495594E-01  -0.1231322797E-01  -0.2088549967E-16   0.5750000008E+01  -0.4993396200E-12  -0.5003145166E-12  -0.5929909167E-15  -0.3717504176E-15   0.9260185278E-17   0.2689495598E-01  -0.1343597799E-01  -0.1343597799E-01  -0.6478281261E-16   0.1014183136E-15   0.4640240487E-16   0.5750000008E+01
   0.0000000000E+00   0.9865640220E+00   0.3248816719E-17   0.0000000000E+00  -0.1122750000E-02  -0.8154903651E-19   0.0000000000E+00  -0.1231322797E-01   0.3330365755E-17   0.5750000008E+01  -0.6321064694E-11  -0.6320673394E-11   0.1879781545E-14  -0.5569146029E-15  -0.9457349815E-15   0.2689495598E-01  -0.1343597799E-01  -0.1343597799E-01  -0.2891389155E-17  -0.2037329210E-16  -0.2195284240E-16   0.5750000008E+01
   0.0000000000E+00   0.0000000000E+00   0.9865640220E+00   0.0000000000E+00   0.0000000000E+00  -0.1122750000E-02   0.0000000000E+00   0.0000000000E+00  -0.1231322797E-01   0.5750000008E+01   0.1333599747E-11   0.1332335143E-11   0.3450135514E-16   0.7192540089E-15   0.1287571607E-14   0.2689495598E-01  -0.1343597799E-01  -0.1343597799E-01  -0.2942830543E-18  -0.3878882733E-16  -0.1075283396E-16   0.5750000008E+01
   0.1026894956E+01   0.0000000000E+00   0.9865640220E+00   0.2250000000E-02   0.0000000000E+00  -0.1122750000E-02   0.2464495594E-01   0.0000000000E+00  -0.1231322797E-01   0.5750000008E+01   0.7159148671E-12   0.7160095564E-12  -0.1350224402E-14   0.1461847791E-14   0.1863386468E-15   0.2689495598E-01  -0.1343597799E-01  -0.1343597799E-01   0.1846693832E-16   0.6321063527E-16  -0.1174369793E-16   0.5750000008E+01
   0.1026894956E+01   0.9865640220E+00   0.9865640220E+00   0.2250000000E-02  -0.1122750000E-02  -0.1122750000E-02   0.2464495594E-01  -0.1231322797E-01  -0.1231322797E-01   0.5750000008E+01   0.9662537743E-12   0.9680910863E-12  -0.2680333997E-15  -0.4732277331E-15  -0.3742587299E-15   0.2689495598E-01  -0.1343597799E-01  -0.1343597799E-01   0.3733931299E-16   0.1355973720E-15   0.3557562060E-16   0.5750000008E+01
   0.0000000000E+00   0.9865640220E+00   0.9865640220E+00   0.0000000000E+00  -0.1122750000E-02  -0.1122750000E-02   0.0000000000E+00  -0.1231322797E-01  -0.1231322797E-01   0.5750000008E+01   0.2530198237E-11   0.2528972276E-11   0.1925082556E-14   0.1136172253E-15  -0.3450466555E-15   0.2689495598E-01  -0.1343597799E-01  -0.1343597799E-01   0.1125551662E-15  -0.5767745523E-16  -0.1709207124E-16   0.5750000008E+01
   0.2053789912E+01   0.0000000000E+00  -0.5472873027E-16   0.4500000000E-02   0.0000000000E+00   0.5561090462E-17   0.4928991189E-01   0.0000000000E+00  -0.6028982073E-16   0.5750000009E+01  -0.2212714518E-11  -0.2211029595E-11   0.2520035193E-14   0.1098109979E-14   0.6225906375E-15   0.2689495599E-01  -0.1343597799E-01  -0.1343597799E-01   0.2569483104E-15   0.9020713354E-16  -0.1732118987E-16   0.5750000009E+01
   0.2053789912E+01   0.9865640220E+00  -0.6182168362E-16   0.4500000000E-02  -0.1122750000E-02   0.5595155838E-17   0.4928991189E-01  -0.1231322797E-01  -0.6741683946E-16   0.5750000008E+01   0.3497570613E-11   0.3499099358E-11   0.2487057830E-14  -0.1029638420E-14   0.6626567289E-15   0.2689495598E-01  -0.1343597799E-01  -0.1343597799E-01   0.2280253659E-15   0.5220742633E-16   0.2205496664E-16   0.5750000008E+01
   0.2053789912E+01   0.0000000000E+00   0.9865640220E+00   0.4500000000E-02   0.0000000000E+00  -0.1122750000E-02   0.4928991189E-01   0.0000000000E+00  -0.1231322797E-01   0.5750000008E+01   0.7654213779E-12   0.7660822627E-12   0.2151952232E-14   0.9539152915E-15  -0.5702777086E-15   0.2689495598E-01  -0.1343597799E-01  -0.1343597799E-01   0.1701000301E-15   0.1443153733E-15  -0.3069450875E-16   0.5750000008E+01
   0.2053789912E+01   0.9865640220E+00   0.9865640220E+00   0.4500000000E-02  -0.1122750000E-02  -0.1122750000E-02   0.4928991189E-01  -0.1231322797E-01  -0.1231322797E-01   0.5750000007E+01  -0.9252935729E-12  -0.9272466221E-12   0.7275093259E-15   0.1054261638E-14   0.1448050729E-15   0.2689495598E-01  -0.1343597799E-01  -0.1343597799E-01   0.9332438210E-16   0.5172216201E-17  -0.1432674693E-16   0.5750000007E+01
     1     2     3     4     5     6     7     8
     2     9    10     3     6    11    12     7
 VARIABLES = X,Y,Z,DU1,DU2,DU3,U1,U2,U3,S11,S22,S33,S12,S13,S23,E11,E22,E33,E12,E13,E23,SMISES
 ZONE, T="0.4750D+01" F=FEPOINT, I=   12 J=    2 ET=BRICK
   0.0000000000E+00   0.0000000000E+00   0.0000000000E+00   0.0000000000E+00   0.0000000000E+00   0.0000000000E+00   0.0000000000E+00   0.0000000000E+00   0.0000000000E+00   0.6875000011E+01   0.2790930883E-12   0.2815384963E-12  -0.1536481842E-15  -0.9746149025E-15  -0.3839960271E-15   0.2914495599E-01  -0.1455872800E-01  -0.1455872800E-01   0.2733729384E-17  -0.3581063719E-17   0.8991089309E-17   0.6875000011E+01
   0.1029144956E+01   0.0000000000E+00  -0.1374442149E-16   0.2250000000E-02   0.0000000000E+00  -0.2615833077E-17   0.2689495594E-01   0.0000000000E+00  -0.1112858841E-16   0.6875000011E+01  -0.4921520460E-12  -0.4934030395E-12  -0.1391022616E-14  -0.1241798512E-14   0.8338337675E-16   0.2914495599E-01  -0.1455872799E-01  -0.1455872799E-01  -0.7525935997E-16   0.4697681338E-16  -0.1072698168E-16   0.6875000011E+01
   0.1029144956E+01   0.9854412720E+00  -0.1910692169E-16   0.2250000000E-02  -0.1122750000E-02  -0.1414582376E-17   0.2689495594E-01  -0.1343597797E-01  -0.1769233931E-16   0.6875000010E+01  -0.1067554687E-11  -0.1068524140E-11  -0.1036479794E-14   0.4107880349E-16   0.5576064978E-15   0.2914495599E-01  -0.1455872799E-01  -0.1455872799E-01  -0.7611808342E-16   0.1349162962E-15   0.4770713383E-16   0.6875000010E+01
   0.0000000000E+00   0.9854412720E+00   0.2354515867E-17   0.0000000000E+00  -0.1122750000E-02  -0.8943008515E-18   0.0000000000E+00  -0.1343597797E-01   0.3248816719E-17   0.6875000010E+01  -0.6937876260E-11  -0.6936725400E-11   0.1674508640E-14  -0.5043940592E-15  -0.5760696819E-15   0.2914495599E-01  -0.1455872799E-01  -0.1455872799E-01  -0.9058087125E-17  -0.3656963343E-16  -0.1918409808E-16   0.6875000010E+01
   0.0000000000E+00   0.0000000000E+00   0.9854412720E+00   0.0000000000E+00   0.0000000000E+00  -0.1122750000E-02   0.0000000000E+00   0.0000000000E+00  -0.1343597797E-01   0.6875000010E+01   0.2153182853E-11   0.2151828808E-11   0.5578022538E-16   0.1998933447E-15   0.9880461225E-15   0.2914495599E-01  -0.1455872799E-01  -0.1455872799E-01  -0.1706313962E-17  -0.4597409036E-16   0.9121550481E-18   0.6875000010E+01
   0.1029144956E+01   0.0000000000E+00   0.9854412720E+00   0.2250000000E-02   0.0000000000E+00  -0.1122750000E-02   0.2689495594E-01   0.0000000000E+00  -0.1343597797E-01   0.6875000010E+01   0.8621401222E-12   0.8630283005E-12  -0.2268976105E-14   0.1820483948E-14  -0.1017841129E-15   0.2914495599E-01  -0.1455872799E-01  -0.1455872799E-01   0.1600841360E-16   0.5355759070E-16  -0.2457583420E-16   0.6875000010E+01
   0.1029144956E+01   0.9854412720E+00   0.9854412720E+00   0.2250000000E-02  -0.1122750000E-02  -0.1122750000E-02   0.2689495594E-01  -0.1343597797E-01  -0.1343597797E-01   0.6875000009E+01   0.7511936656E-12   0.7516972513E-12  -0.9732014750E-15  -0.8869237214E-16  -0.3909972103E-15   0.2914495598E-01  -0.1455872799E-01  -0.1455872799E-01   0.2162981554E-16   0.1134435305E-15   0.5441991995E-16   0.6875000009E+01
   0.0000000000E+00   0.9854412720E+00   0.9854412720E+00   0.0000000000E+00  -0.1122750000E-02  -0.1122750000E-02   0.0000000000E+00  -0.1343597797E-01  -0.1343597797E-01   0.6875000009E+01   0.2619425940E-11   0.2618264191E-11   0.1625751143E-14  -0.3513194924E-15  -0.1806547018E-15   0.2914495598E-01  -0.1455872799E-01  -0.1455872799E-01   0.1086261269E-15  -0.5099651624E-16  -0.4887293892E-16   0.6875000009E+01
   0.2058289912E+01   0.0000000000E+00  -0.5994497336E-16   0.4500000000E-02   0.0000000000E+00  -0.5216243090E-17   0.5378991189E-01   0.0000000000E+00  -0.5472873027E-16   0.6875000010E+01  -0.1464622804E-11  -0.1464522670E-11   0.6372259353E-15  -0.6335712982E-16   0.5590258427E-15   0.2914495599E-01  -0.1455872799E-01  -0.1455872799E-01   0.2310343183E-15   0.7345350468E-16  -0.1182957579E-16   0.6875000010E+01
   0.2058289912E+01   0.9854412720E+00  -0.6754815903E-16   0.4500000000E-02  -0.1122750000E-02  -0.5726475414E-17   0.5378991189E-01  -0.1343597797E-01  -0.6182168362E-16   0.6875000010E+01   0.3845135330E-11   0.3845760827E-11   0.1818088380E-14  -0.9540848276E-15   0.2657362153E-15   0.2914495599E-01  -0.1455872799E-01  -0.1455872799E-01   0.2357185350E-15   0.1739650756E-16  -0.1954127171E-17   0.6875000010E+01
   0.2058289912E+01   0.0000000000E+00   0.9854412720E+00   0.4500000000E-02   0.0000000000E+00  -0.1122750000E-02   0.5378991189E-01   0.0000000000E+00  -0.1343597797E-01   0.6875000010E+01   0.5625730895E-12   0.5627574146E-12   0.1684112764E-14  -0.6154380540E-16  -0.7368298158E-15   0.2914495599E-01  -0.1455872799E-01  -0.1455872799E-01   0.1854252244E-15   0.9778329707E-16  -0.3804358310E-16   0.6875000010E+01
   0.2058289912E+01   0.9854412720E+00   0.9854412720E+00   0.4500000000E-02  -0.1122750000E-02  -0.1122750000E-02   0.5378991189E-01  -0.1343597797E-01  -0.1343597797E-01   0.6875000009E+01  -0.8519706307E-12  -0.8540800542E-12   0.8505041553E-15   0.1461221043E-14  -0.1911885450E-15   0.2914495598E-01  -0.1455872799E-01  -0.1455872799E-01   0.7643849187E-16   0.7539695040E-16  -0.2170131449E-16   0.6875000009E+01
     1     2     3     4     5     6     7     8
     2     9    10     3     6    11    12     7
 VARIABLES = X,Y,Z,DU1,DU2,DU3,U1,U2,U3,S11,S22,S33,S12,S13,S23,E11,E22,E33,E12,E13,E23,SMISES
 ZONE, T="0.4800D+01" F=FEPOINT, I=   12 J=    2 ET=BRICK
   0.0000000000E+00   0.0000000000E+00   0.0000000000E+00   0.0000000000E+00   0.0000000000E+00   0.0000000000E+00   0.0000000000E+00   0.0000000000E+00   0.0000000000E+00   0.8000000013E+01   0.1470019936E-11   0.1470279700E-11  -0.1405425603E-15   0.1153428042E-15   0.2327571459E-17   0.3139495599E-01  -0.1568147800E-01  -0.1568147800E-01  -0.1727418829E-17   0.1043485702E-16   0.4312830142E-17   0.8000000013E+01
   0.1031394956E+01   0.0000000000E+00  -0.2454560954E-17   0.2250000000E-02   0.0000000000E+00   0.1128986054E-16   0.2914495594E-01   0.0000000000E+00  -0.1374442149E-16   0.8000000012E+01   0.3715403041E-12   0.3689947625E-12  -0.7625968832E-15  -0.1957633390E-14   0.4741562833E-15   0.3139495599E-01  -0.1568147800E-01  -0.1568147800E-01  -0.5152668333E-16   0.3417651235E-16  -0.6525811226E-17   0.8000000012E+01
   0.1031394956E+01   0.9843185220E+00  -0.5531734631E-17   0.2250000000E-02  -0.1122750000E-02   0.1357518706E-16   0.2914495594E-01  -0.1455872797E-01  -0.1910692169E-16   0.8000000011E+01  -0.7653216784E-13  -0.7893693884E-13  -0.8924057635E-15  -0.3627199363E-15  -0.1075501998E-15   0.3139495599E-01  -0.1568147799E-01  -0.1568147799E-01  -0.6663698625E-16   0.1392979116E-15   0.4895407060E-16   0.8000000011E+01
   0.0000000000E+00   0.9843185220E+00   0.4590395572E-17   0.0000000000E+00  -0.1122750000E-02   0.2235879704E-17   0.0000000000E+00  -0.1455872797E-01   0.2354515867E-17   0.8000000012E+01  -0.5010919439E-11  -0.5010973882E-11   0.1336910109E-14   0.6107321885E-15  -0.1568431418E-14   0.3139495599E-01  -0.1568147799E-01  -0.1568147799E-01  -0.1334046354E-16  -0.2453578882E-16  -0.2655800513E-16   0.8000000012E+01
   0.0000000000E+00   0.0000000000E+00   0.9843185220E+00   0.0000000000E+00   0.0000000000E+00  -0.1122750000E-02   0.0000000000E+00   0.0000000000E+00  -0.1455872797E-01   0.8000000012E+01   0.8958174653E-13   0.8818998247E-13   0.4196165559E-16   0.1923922980E-14   0.1898310680E-14   0.3139495599E-01  -0.1568147799E-01  -0.1568147799E-01   0.1754699524E-17  -0.3314587533E-16   0.4380122353E-17   0.8000000012E+01
   0.1031394956E+01   0.0000000000E+00   0.9843185220E+00   0.2250000000E-02   0.0000000000E+00  -0.1122750000E-02   0.2914495594E-01   0.0000000000E+00  -0.1455872797E-01   0.8000000011E+01   0.6670625364E-13   0.6941434315E-13  -0.1237675552E-14   0.1250577695E-14   0.2007588161E-15   0.3139495599E-01  -0.1568147799E-01  -0.1568147799E-01   0.2130939209E-16   0.6208724816E-16  -0.1315356383E-16   0.8000000011E+01
   0.1031394956E+01   0.9843185220E+00   0.9843185220E+00   0.2250000000E-02  -0.1122750000E-02  -0.1122750000E-02   0.2914495594E-01  -0.1455872797E-01  -0.1455872797E-01   0.8000000010E+01  -0.3489869933E-12  -0.3468042669E-12   0.1486781995E-15  -0.6706013358E-15  -0.1124350226E-14   0.3139495599E-01  -0.1568147799E-01  -0.1568147799E-01   0.4604891964E-16   0.9139144827E-16   0.2104390887E-16   0.8000000010E+01
   0.0000000000E+00   0.9843185220E+00   0.9843185220E+00   0.0000000000E+00  -0.1122750000E-02  -0.1122750000E-02   0.0000000000E+00  -0.1455872797E-01  -0.1455872797E-01   0.8000000011E+01   0.1833632660E-11   0.1833413533E-11   0.1461319129E-14   0.5323453141E-15  -0.5133924716E-15   0.3139495599E-01  -0.1568147799E-01  -0.1568147799E-01   0.1099942468E-15  -0.3237565274E-16  -0.2724138511E-16   0.8000000011E+01
   0.2062789912E+01   0.0000000000E+00  -0.1890634700E-16   0.4500000000E-02   0.0000000000E+00   0.4103862636E-16   0.5828991189E-01   0.0000000000E+00  -0.5994497336E-16   0.8000000012E+01  -0.1445729192E-11  -0.1445469428E-11   0.1389928493E-14   0.9299106378E-15   0.7974941327E-15   0.3139495599E-01  -0.1568147800E-01  -0.1568147800E-01   0.2600039779E-15   0.8102809190E-16  -0.8940025063E-17   0.8000000012E+01
   0.2062789912E+01   0.9843185220E+00  -0.2490035986E-16   0.4500000000E-02  -0.1122750000E-02   0.4264779918E-16   0.5828991189E-01  -0.1455872797E-01  -0.6754815903E-16   0.8000000011E+01   0.3926712063E-11   0.3927567576E-11   0.1996811245E-14  -0.1818248409E-14   0.3038238187E-15   0.3139495599E-01  -0.1568147799E-01  -0.1568147799E-01   0.2209673684E-15   0.1840797925E-16  -0.3389955755E-17   0.8000000011E+01
   0.2062789912E+01   0.0000000000E+00   0.9843185220E+00   0.4500000000E-02   0.0000000000E+00  -0.1122750000E-02   0.5828991189E-01   0.0000000000E+00  -0.1455872797E-01   0.8000000011E+01   0.7926769529E-12   0.7931051001E-12   0.7000465773E-15   0.6652272066E-15  -0.2727368087E-15   0.3139495599E-01  -0.1568147799E-01  -0.1568147799E-01   0.1448126123E-15   0.1625665669E-15  -0.3542262500E-16   0.8000000011E+01
   0.2062789912E+01   0.9843185220E+00   0.9843185220E+00   0.4500000000E-02  -0.1122750000E-02  -0.1122750000E-02   0.5828991189E-01  -0.1455872797E-01  -0.1455872797E-01   0.8000000010E+01  -0.1967422973E-11  -0.1969218189E-11   0.6601343333E-16   0.8474363903E-15   0.1207324979E-16   0.3139495598E-01  -0.1568147799E-01  -0.1568147799E-01   0.7667916573E-16  -0.2559919106E-16   0.1141005595E-16   0.8000000010E+01
     1     2     3     4     5     6     7     8
     2     9    10     3     6    11    12     7
 VARIABLES = X,Y,Z,DU1,DU2,DU3,U1,U2,U3,S11,S22,S33,S12,S13,S23,E11,E22,E33,E12,E13,E23,SMISES
 ZONE, T="0.4850D+01" F=FEPOINT, I=   12 J=    2 ET=BRICK
   0.0000000000E+00   0.0000000000E+00   0.0000000000E+00   0.0000000000E+00   0.0000000000E+00   0.0000000000E+00   0.0000000000E+00   0.0000000000E+00   0.0000000000E+00   0.9125000014E+01   0.7705303585E-12   0.7731041896E-12  -0.1856932265E-15  -0.1177737581E-15   0.1159530522E-15   0.3364495600E-01  -0.1680422800E-01  -0.1680422800E-01  -0.2307505483E-17  -0.7647556936E-18   0.5586445453E-17   0.9125000014E+01
   0.1033644956E+01   0.0000000000E+00  -0.7636352689E-17   0.2250000000E-02   0.0000000000E+00  -0.5181791735E-17   0.3139495594E-01   0.0000000000E+00  -0.2454560954E-17   0.9125000014E+01  -0.2892197614E-12  -0.2906521625E-12  -0.1086652032E-14  -0.1397972823E-14  -0.1087408136E-15   0.3364495600E-01  -0.1680422800E-01  -0.1680422800E-01  -0.5985307327E-16   0.4362955178E-16  -0.1317991843E-16   0.9125000014E+01
   0.1033644956E+01   0.9831957720E+00  -0.1414964073E-16   0.2250000000E-02  -0.1122750000E-02  -0.8617906099E-17   0.3139495594E-01  -0.1568147797E-01  -0.5531734631E-17   0.9125000013E+01  -0.7105816432E-12  -0.7116432581E-12  -0.9903000125E-15   0.4157025345E-15   0.2161242355E-15   0.3364495599E-01  -0.1680422800E-01  -0.1680422800E-01  -0.6865689617E-16   0.1121867254E-15   0.4999052582E-16   0.9125000013E+01
   0.0000000000E+00   0.9831957720E+00   0.5303501206E-17   0.0000000000E+00  -0.1122750000E-02   0.7131056338E-18   0.0000000000E+00  -0.1568147797E-01   0.4590395572E-17   0.9125000013E+01  -0.6203887816E-11  -0.6203985423E-11   0.8654544166E-15  -0.6809808825E-15  -0.8600417723E-15   0.3364495599E-01  -0.1680422800E-01  -0.1680422800E-01  -0.8430831515E-17  -0.2575958627E-16  -0.2166697736E-16   0.9125000013E+01
   0.0000000000E+00   0.0000000000E+00   0.9831957720E+00   0.0000000000E+00   0.0000000000E+00  -0.1122750000E-02   0.0000000000E+00   0.0000000000E+00  -0.1568147797E-01   0.9125000013E+01   0.1397908650E-11   0.1397126049E-11   0.7110470059E-16   0.4597082503E-15   0.1282158944E-14   0.3364495599E-01  -0.1680422800E-01  -0.1680422800E-01   0.7312885309E-18  -0.3156340850E-16   0.4551918470E-17   0.9125000013E+01
   0.1033644956E+01   0.0000000000E+00   0.9831957720E+00   0.2250000000E-02   0.0000000000E+00  -0.1122750000E-02   0.3139495594E-01   0.0000000000E+00  -0.1568147797E-01   0.9125000013E+01   0.5724857435E-12   0.5737694030E-12  -0.1625793649E-14   0.1667993707E-14   0.1101568221E-15   0.3364495599E-01  -0.1680422800E-01  -0.1680422800E-01   0.1892952328E-16   0.2435618423E-16  -0.1381425256E-16   0.9125000013E+01
   0.1033644956E+01   0.9831957720E+00   0.9831957720E+00   0.2250000000E-02  -0.1122750000E-02  -0.1122750000E-02   0.3139495594E-01  -0.1568147797E-01  -0.1568147797E-01   0.9125000012E+01   0.2377037394E-12   0.2396020069E-12  -0.2166453903E-16  -0.6075732965E-16  -0.2335119449E-15   0.3364495599E-01  -0.1680422799E-01  -0.1680422799E-01   0.4301648694E-16   0.1269160296E-15   0.4360468062E-16   0.9125000012E+01
   0.0000000000E+00   0.9831957720E+00   0.9831957720E+00   0.0000000000E+00  -0.1122750000E-02  -0.1122750000E-02   0.0000000000E+00  -0.1568147797E-01  -0.1568147797E-01   0.9125000012E+01   0.2619804349E-11   0.2619380579E-11   0.1579938326E-14  -0.6453661648E-16  -0.6962959901E-15   0.3364495599E-01  -0.1680422799E-01  -0.1680422799E-01   0.1218598507E-15  -0.5659896087E-16  -0.4289277001E-16   0.9125000012E+01
   0.2067289912E+01   0.0000000000E+00  -0.4401438626E-16   0.4500000000E-02   0.0000000000E+00  -0.2510803926E-16   0.6278991189E-01   0.0000000000E+00  -0.1890634700E-16   0.9125000014E+01  -0.8877799368E-12  -0.8877110103E-12   0.4020521997E-15   0.3095851251E-16   0.8946116603E-15   0.3364495600E-01  -0.1680422800E-01  -0.1680422800E-01   0.2388614750E-15   0.3367052741E-16  -0.1088589876E-16   0.9125000014E+01
   0.2067289912E+01   0.9831957720E+00  -0.4936656612E-16   0.4500000000E-02  -0.1122750000E-02  -0.2446620627E-16   0.6278991189E-01  -0.1568147797E-01  -0.2490035986E-16   0.9125000013E+01   0.3786378892E-11   0.3786351670E-11   0.2077119527E-14  -0.1511143318E-14   0.5417492354E-15   0.3364495599E-01  -0.1680422800E-01  -0.1680422800E-01   0.2222484625E-15   0.5214849172E-16   0.8663458060E-17   0.9125000013E+01
   0.2067289912E+01   0.0000000000E+00   0.9831957720E+00   0.4500000000E-02   0.0000000000E+00  -0.1122750000E-02   0.6278991189E-01   0.0000000000E+00  -0.1568147797E-01   0.9125000013E+01   0.1188766601E-11   0.1190118119E-11   0.5131318075E-16   0.4912380788E-15  -0.7096535342E-15   0.3364495599E-01  -0.1680422800E-01  -0.1680422800E-01   0.1596009771E-15   0.1616900901E-15  -0.2763456494E-16   0.9125000013E+01
   0.2067289912E+01   0.9831957720E+00   0.9831957720E+00   0.4500000000E-02  -0.1122750000E-02  -0.1122750000E-02   0.6278991189E-01  -0.1568147797E-01  -0.1568147797E-01   0.9125000012E+01  -0.2134845585E-11  -0.2138440394E-11  -0.5109099624E-15   0.3882878036E-15  -0.3604304817E-15   0.3364495599E-01  -0.1680422799E-01  -0.1680422799E-01   0.8039091383E-16   0.1709245974E-16  -0.2038241695E-16   0.9125000012E+01
     1     2     3     4     5     6     7     8
     2     9    10     3     6    11    12     7
 VARIABLES = X,Y,Z,DU1,DU2,DU3,U1,U2,U3,S11,S22,S33,S12,S13,S23,E11,E22,E33,E12,E13,E23,SMISES
 ZONE, T="0.4900D+01" F=FEPOINT, I=   12 J=    2 ET=BRICK
   0.0000000000E+00   0.0000000000E+00   0.0000000000E+00   0.0000000000E+00   0.0000000000E+00   0.0000000000E+00   0.0000000000E+00   0.0000000000E+00   0.0000000000E+00   0.1024999973E+02   0.1434331787E-06   0.1434331807E-06  -0.1072611298E-15   0.1890908345E-15   0.3345274306E-15   0.4097129131E-01  -0.2046514566E-01  -0.2046514566E-01  -0.2026337909E-17   0.1218209449E-16   0.4917712160E-17   0.1024999959E+02
   0.1040971291E+01   0.0000000000E+00  -0.6884662085E-17   0.7326335306E-02   0.0000000000E+00   0.7516906039E-18   0.3364495594E-01   0.0000000000E+00  -0.7636352689E-17   0.1024999973E+02   0.1434329418E-06   0.1434329415E-06   0.1530229792E-14  -0.8505736777E-16   0.9803257401E-15   0.4097129131E-01  -0.2046514566E-01  -0.2046514566E-01  -0.7602184471E-17   0.4388695844E-16  -0.1401370964E-17   0.1024999959E+02
   0.1040971291E+01   0.9795348544E+00  -0.5343000460E-17   0.7326335306E-02  -0.3660917653E-02   0.8806640270E-17   0.3364495594E-01  -0.1680422797E-01  -0.1414964073E-16   0.1024999973E+02   0.1434310871E-06   0.1434310841E-06   0.1655875612E-14  -0.5440967300E-15   0.4266119222E-15   0.4097129131E-01  -0.2046514565E-01  -0.2046514565E-01  -0.1671655809E-16   0.9146116688E-16   0.6705112629E-16   0.1024999958E+02
   0.0000000000E+00   0.9795348544E+00   0.7142574188E-17   0.0000000000E+00  -0.3660917653E-02   0.1839072983E-17   0.0000000000E+00  -0.1680422797E-01   0.5303501206E-17   0.1024999973E+02   0.1434286398E-06   0.1434286387E-06  -0.5400644520E-15   0.1073812410E-14  -0.5570489010E-15   0.4097129131E-01  -0.2046514566E-01  -0.2046514566E-01  -0.3972590163E-16  -0.4191852933E-17   0.2208585464E-17   0.1024999958E+02
   0.0000000000E+00   0.0000000000E+00   0.9795348544E+00   0.0000000000E+00   0.0000000000E+00  -0.3660917653E-02   0.0000000000E+00   0.0000000000E+00  -0.1680422797E-01   0.1024999973E+02   0.1434343188E-06   0.1434343195E-06  -0.2809105185E-16   0.3245131607E-15   0.1261689467E-14   0.4097129131E-01  -0.2046514566E-01  -0.2046514566E-01   0.1176125603E-17  -0.5139059381E-16   0.6674508549E-17   0.1024999958E+02
   0.1040971291E+01   0.0000000000E+00   0.9795348544E+00   0.7326335306E-02   0.0000000000E+00  -0.3660917653E-02   0.3364495594E-01   0.0000000000E+00  -0.1680422797E-01   0.1024999973E+02   0.1434336158E-06   0.1434336184E-06  -0.3998983959E-15   0.1322520833E-14   0.1325596170E-15   0.4097129131E-01  -0.2046514565E-01  -0.2046514565E-01   0.3805711606E-16   0.6810391300E-16  -0.1771908720E-16   0.1024999958E+02
   0.1040971291E+01   0.9795348544E+00   0.9795348544E+00   0.7326335306E-02  -0.3660917653E-02  -0.3660917653E-02   0.3364495594E-01  -0.1680422797E-01  -0.1680422797E-01   0.1024999973E+02   0.1434328305E-06   0.1434328318E-06  -0.2588293463E-15  -0.1351766755E-14  -0.6172840573E-15   0.4097129130E-01  -0.2046514565E-01  -0.2046514565E-01   0.3933249551E-16   0.8529515845E-16   0.2640793116E-16   0.1024999958E+02
   0.0000000000E+00   0.9795348544E+00   0.9795348544E+00   0.0000000000E+00  -0.3660917653E-02  -0.3660917653E-02   0.0000000000E+00  -0.1680422797E-01  -0.1680422797E-01   0.1024999973E+02   0.1434361868E-06   0.1434361864E-06  -0.2902752251E-15  -0.5551916315E-15  -0.9078224656E-15   0.4097129131E-01  -0.2046514565E-01  -0.2046514565E-01   0.9579814087E-16  -0.6380234745E-16  -0.5067050069E-16   0.1024999958E+02
   0.2081942583E+01   0.0000000000E+00  -0.4930751242E-16   0.1465267061E-01   0.0000000000E+00  -0.5293126158E-17   0.6728991189E-01   0.0000000000E+00  -0.4401438626E-16   0.1024999973E+02   0.1434337042E-06   0.1434337014E-06  -0.2071729435E-14  -0.1276790388E-15   0.8762958280E-15   0.4097129131E-01  -0.2046514566E-01  -0.2046514566E-01   0.2100726160E-15   0.1302830096E-15  -0.2845951303E-17   0.1024999959E+02
   0.2081942583E+01   0.9795348544E+00  -0.5341335988E-16   0.1465267061E-01  -0.3660917653E-02  -0.4046793759E-17   0.6728991189E-01  -0.1680422797E-01  -0.4936656612E-16   0.1024999973E+02   0.1434345955E-06   0.1434345961E-06  -0.1459419164E-16  -0.3025648920E-15  -0.1088256920E-14   0.4097129131E-01  -0.2046514565E-01  -0.2046514565E-01   0.2230678311E-15   0.5176312817E-16  -0.1515302949E-16   0.1024999958E+02
   0.2081942583E+01   0.0000000000E+00   0.9795348544E+00   0.1465267061E-01   0.0000000000E+00  -0.3660917653E-02   0.6728991189E-01   0.0000000000E+00  -0.1680422797E-01   0.1024999973E+02   0.1434346799E-06   0.1434346806E-06  -0.1655987056E-15  -0.1057959706E-14   0.5365077980E-15   0.4097129131E-01  -0.2046514565E-01  -0.2046514565E-01   0.1323354565E-15   0.1062406215E-15  -0.1763729783E-16   0.1024999958E+02
   0.2081942583E+01   0.9795348544E+00   0.9795348544E+00   0.1465267061E-01  -0.3660917653E-02  -0.3660917653E-02   0.6728991189E-01  -0.1680422797E-01  -0.1680422797E-01   0.1024999973E+02   0.1434313194E-06   0.1434313172E-06  -0.1815256947E-15   0.2942849887E-14  -0.7265706572E-15   0.4097129130E-01  -0.2046514565E-01  -0.2046514565E-01   0.5519657713E-16   0.7115924724E-16  -0.1691735316E-16   0.1024999958E+02
     1     2     3     4     5     6     7     8
     2     9    10     3     6    11    12     7
 VARIABLES = X,Y,Z,DU1,DU2,DU3,U1,U2,U3,S11,S22,S33,S12,S13,S23,E11,E22,E33,E12,E13,E23,SMISES
 ZONE, T="0.4950D+01" F=FEPOINT, I=   12 J=    2 ET=BRICK
   0.0000000000E+00   0.0000000000E+00   0.0000000000E+00   0.0000000000E+00   0.0000000000E+00   0.0000000000E+00   0.0000000000E+00   0.0000000000E+00   0.0000000000E+00   0.1137499401E+02   0.3005158150E-05   0.3005158150E-05  -0.1559436801E-16  -0.9618326256E-15  -0.1202897312E-14   0.6774423336E-01  -0.3384936668E-01  -0.3384936668E-01   0.4120688592E-17  -0.2346244898E-16  -0.2269357714E-16   0.1137499100E+02
   0.1067744233E+01   0.0000000000E+00   0.3869996694E-17   0.2677294200E-01   0.0000000000E+00   0.1075465878E-16   0.4097129125E-01   0.0000000000E+00  -0.6884662085E-17   0.1137499401E+02   0.3005160329E-05   0.3005160328E-05   0.1693569260E-14   0.5311054118E-15  -0.1429070012E-15   0.6774423336E-01  -0.3384936668E-01  -0.3384936668E-01   0.7951927084E-17   0.8600123966E-16  -0.1787594264E-16   0.1137499100E+02
   0.1067744233E+01   0.9661506334E+00  -0.5532038389E-18   0.2677294200E-01  -0.1338422100E-01   0.4789796621E-17   0.4097129125E-01  -0.2046514563E-01  -0.5343000460E-17   0.1137499401E+02   0.3005160811E-05   0.3005160810E-05  -0.8896773477E-16   0.7443171966E-15  -0.9395597347E-16   0.6774423335E-01  -0.3384936668E-01  -0.3384936668E-01  -0.2985210953E-16   0.9812242189E-16   0.5302113002E-16   0.1137499100E+02
   0.0000000000E+00   0.9661506334E+00  -0.1072830245E-16   0.0000000000E+00  -0.1338422100E-01  -0.1787087664E-16   0.0000000000E+00  -0.2046514563E-01   0.7142574188E-17   0.1137499401E+02   0.3005154834E-05   0.3005154834E-05   0.8489345800E-16   0.1067590630E-14  -0.9905428058E-15   0.6774423335E-01  -0.3384936668E-01  -0.3384936668E-01  -0.3063186521E-16   0.1158861672E-16  -0.2925397616E-16   0.1137499100E+02
   0.0000000000E+00   0.0000000000E+00   0.9661506334E+00   0.0000000000E+00   0.0000000000E+00  -0.1338422100E-01   0.0000000000E+00   0.0000000000E+00  -0.2046514563E-01   0.1137499401E+02   0.3005156552E-05   0.3005156550E-05   0.6662303844E-16   0.9217517899E-15   0.7269771279E-15   0.6774423335E-01  -0.3384936668E-01  -0.3384936668E-01  -0.5084708409E-19  -0.1447823198E-16   0.8317158411E-18   0.1137499100E+02
   0.1067744233E+01   0.0000000000E+00   0.9661506334E+00   0.2677294200E-01   0.0000000000E+00  -0.1338422100E-01   0.4097129125E-01   0.0000000000E+00  -0.2046514563E-01   0.1137499401E+02   0.3005157149E-05   0.3005157150E-05   0.4802727346E-15   0.2993870516E-15   0.8128765854E-16   0.6774423335E-01  -0.3384936668E-01  -0.3384936668E-01   0.4565699421E-16   0.4564398959E-16  -0.1714257721E-16   0.1137499100E+02
   0.1067744233E+01   0.9661506334E+00   0.9661506334E+00   0.2677294200E-01  -0.1338422100E-01  -0.1338422100E-01   0.4097129125E-01  -0.2046514563E-01  -0.2046514563E-01   0.1137499400E+02   0.3005156528E-05   0.3005156530E-05  -0.9161293879E-15  -0.5649866230E-15  -0.6097540925E-15   0.6774423334E-01  -0.3384936667E-01  -0.3384936667E-01   0.6342773302E-17   0.8242638802E-16   0.2463596350E-16   0.1137499100E+02
   0.0000000000E+00   0.9661506334E+00   0.9661506334E+00   0.0000000000E+00  -0.1338422100E-01  -0.1338422100E-01   0.0000000000E+00  -0.2046514563E-01  -0.2046514563E-01   0.1137499400E+02   0.3005160726E-05   0.3005160726E-05  -0.8356281092E-15  -0.3797015512E-15   0.2868401467E-15   0.6774423334E-01  -0.3384936667E-01  -0.3384936667E-01   0.7508432487E-16  -0.8029989640E-16  -0.3612147122E-16   0.1137499100E+02
   0.2135488467E+01   0.0000000000E+00   0.4836203826E-16   0.5354588401E-01   0.0000000000E+00   0.9766955067E-16   0.8194258250E-01   0.0000000000E+00  -0.4930751242E-16   0.1137499401E+02   0.3005158385E-05   0.3005158387E-05   0.2040077088E-14   0.3874312616E-15   0.1035570117E-14   0.6774423336E-01  -0.3384936668E-01  -0.3384936668E-01   0.2759673007E-15   0.1037909744E-15   0.1364353290E-16   0.1137499100E+02
   0.2135488467E+01   0.9661506334E+00   0.5028941038E-16   0.5354588401E-01  -0.1338422100E-01   0.1037027703E-15   0.8194258250E-01  -0.2046514563E-01  -0.5341335988E-16   0.1137499401E+02   0.3005162725E-05   0.3005162726E-05  -0.3723789415E-15  -0.1513012029E-14   0.3247003275E-15   0.6774423335E-01  -0.3384936667E-01  -0.3384936667E-01   0.2220375565E-15   0.6242273418E-16   0.1138700195E-16   0.1137499100E+02
   0.2135488467E+01   0.0000000000E+00   0.9661506334E+00   0.5354588401E-01   0.0000000000E+00  -0.1338422100E-01   0.8194258250E-01   0.0000000000E+00  -0.2046514563E-01   0.1137499401E+02   0.3005156122E-05   0.3005156122E-05   0.7868974819E-15  -0.1790601483E-14  -0.2040698915E-15   0.6774423335E-01  -0.3384936667E-01  -0.3384936667E-01   0.1681350624E-15   0.1318515535E-15  -0.3650894785E-16   0.1137499100E+02
   0.2135488467E+01   0.9661506334E+00   0.9661506334E+00   0.5354588401E-01  -0.1338422100E-01  -0.1338422100E-01   0.8194258250E-01  -0.2046514563E-01  -0.2046514563E-01   0.1137499400E+02   0.3005150789E-05   0.3005150787E-05  -0.2250807415E-14  -0.2083356165E-14  -0.4139982996E-16   0.6774423334E-01  -0.3384936667E-01  -0.3384936667E-01   0.4677431085E-17  -0.7030057667E-16   0.8881537095E-17   0.1137499100E+02
     1     2     3     4     5     6     7     8
     2     9    10     3     6    11    12     7
 VARIABLES = X,Y,Z,DU1,DU2,DU3,U1,U2,U3,S11,S22,S33,S12,S13,S23,E11,E22,E33,E12,E13,E23,SMISES
 ZONE, T="0.5000D+01" F=FEPOINT, I=   12 J=    2 ET=BRICK
   0.0000000000E+00   0.0000000000E+00   0.0000000000E+00   0.0000000000E+00   0.0000000000E+00   0.0000000000E+00   0.0000000000E+00   0.0000000000E+00   0.0000000000E+00   0.1249998613E+02   0.6944757215E-05   0.6944757215E-05  -0.6279980920E-16  -0.1152076565E-14   0.3061742211E-15   0.9646448100E-01  -0.4820724050E-01  -0.4820724050E-01   0.4055634681E-17  -0.3318961763E-16  -0.1471509299E-16   0.1249997919E+02
   0.1096464481E+01   0.0000000000E+00  -0.1847825320E-16   0.2872024759E-01   0.0000000000E+00  -0.2234824989E-16   0.6774423325E-01   0.0000000000E+00   0.3869996694E-17   0.1249998613E+02   0.6944757742E-05   0.6944757742E-05   0.5810759032E-16   0.2476902054E-15  -0.8727889608E-17   0.9646448100E-01  -0.4820724050E-01  -0.4820724050E-01  -0.3274997665E-16   0.6497220743E-16  -0.2517975588E-17   0.1249997918E+02
   0.1096464481E+01   0.9517927596E+00  -0.2188151925E-16   0.2872024759E-01  -0.1435787380E-01  -0.2132831541E-16   0.6774423325E-01  -0.3384936663E-01  -0.5532038389E-18   0.1249998613E+02   0.6944756463E-05   0.6944756463E-05   0.1926150634E-14  -0.2878429554E-14   0.5210920982E-15   0.9646448099E-01  -0.4820724049E-01  -0.4820724049E-01   0.3783461735E-17   0.4141878546E-16   0.5478098654E-16   0.1249997918E+02
   0.0000000000E+00   0.9517927596E+00   0.1103012140E-17   0.0000000000E+00  -0.1435787380E-01   0.1183131459E-16   0.0000000000E+00  -0.3384936663E-01  -0.1072830245E-16   0.1249998613E+02   0.6944752244E-05   0.6944752242E-05   0.4785542350E-15  -0.9174520324E-15  -0.5890759435E-15   0.9646448099E-01  -0.4820724049E-01  -0.4820724049E-01  -0.3177956937E-16  -0.4108307126E-16  -0.3568675824E-16   0.1249997918E+02
   0.0000000000E+00   0.0000000000E+00   0.9517927596E+00   0.0000000000E+00   0.0000000000E+00  -0.1435787380E-01   0.0000000000E+00   0.0000000000E+00  -0.3384936663E-01   0.1249998613E+02   0.6944759178E-05   0.6944759180E-05  -0.4818264041E-16   0.9163583929E-15   0.1374459825E-15   0.9646448099E-01  -0.4820724049E-01  -0.4820724049E-01  -0.9131703131E-17  -0.1148867551E-16   0.1798345428E-16   0.1249997918E+02
   0.1096464481E+01   0.0000000000E+00   0.9517927596E+00   0.2872024759E-01   0.0000000000E+00  -0.1435787380E-01   0.6774423325E-01   0.0000000000E+00  -0.3384936663E-01   0.1249998613E+02   0.6944757981E-05   0.6944757979E-05  -0.2949576780E-14   0.1973529454E-14   0.4916548418E-15   0.9646448099E-01  -0.4820724049E-01  -0.4820724049E-01  -0.3846816388E-16   0.9434311833E-16  -0.2025544613E-16   0.1249997918E+02
   0.1096464481E+01   0.9517927596E+00   0.9517927596E+00   0.2872024759E-01  -0.1435787380E-01  -0.1435787380E-01   0.6774423325E-01  -0.3384936663E-01  -0.3384936663E-01   0.1249998613E+02   0.6944757327E-05   0.6944757328E-05   0.3900617056E-16   0.4028480750E-15   0.7353364666E-15   0.9646448097E-01  -0.4820724049E-01  -0.4820724049E-01  -0.4916362937E-17   0.9687276713E-16   0.6949554937E-16   0.1249997918E+02
   0.0000000000E+00   0.9517927596E+00   0.9517927596E+00   0.0000000000E+00  -0.1435787380E-01  -0.1435787380E-01   0.0000000000E+00  -0.3384936663E-01  -0.3384936663E-01   0.1249998613E+02   0.6944756932E-05   0.6944756931E-05   0.2409319471E-14   0.8159467067E-15  -0.1457357596E-14   0.9646448098E-01  -0.4820724049E-01  -0.4820724049E-01   0.1563278953E-15  -0.5059517961E-16  -0.5292853308E-16   0.1249997918E+02
   0.2192928962E+01   0.0000000000E+00  -0.5067511823E-16   0.5744049519E-01   0.0000000000E+00  -0.9903715649E-16   0.1354884665E+00   0.0000000000E+00   0.4836203826E-16   0.1249998613E+02   0.6944760423E-05   0.6944760423E-05  -0.4900257086E-14  -0.2376718519E-14  -0.4274185948E-15   0.9646448099E-01  -0.4820724050E-01  -0.4820724050E-01   0.1062404941E-15   0.6350673457E-16  -0.1726716933E-16   0.1249997918E+02
   0.2192928962E+01   0.9517927596E+00  -0.5933822645E-16   0.5744049519E-01  -0.1435787380E-01  -0.1096276368E-15   0.1354884665E+00  -0.3384936663E-01   0.5028941038E-16   0.1249998613E+02   0.6944760718E-05   0.6944760718E-05  -0.4066646263E-15  -0.4003229161E-15  -0.3552415509E-15   0.9646448098E-01  -0.4820724049E-01  -0.4820724049E-01   0.1548388622E-15  -0.7351042811E-16   0.1537201553E-16   0.1249997918E+02
   0.2192928962E+01   0.0000000000E+00   0.9517927596E+00   0.5744049519E-01   0.0000000000E+00  -0.1435787380E-01   0.1354884665E+00   0.0000000000E+00  -0.3384936663E-01   0.1249998613E+02   0.6944758816E-05   0.6944758817E-05   0.6577241213E-16   0.1833382535E-14  -0.2339748803E-15   0.9646448098E-01  -0.4820724049E-01  -0.4820724049E-01   0.1205461199E-15   0.9902098050E-16  -0.2855566241E-16   0.1249997918E+02
   0.2192928962E+01   0.9517927596E+00   0.9517927596E+00   0.5744049519E-01  -0.1435787380E-01  -0.1435787380E-01   0.1354884665E+00  -0.3384936663E-01  -0.3384936663E-01   0.1249998613E+02   0.6944757673E-05   0.6944757673E-05   0.2514369289E-14   0.4080447298E-14  -0.1833925796E-15   0.9646448097E-01  -0.4820724049E-01  -0.4820724049E-01   0.7794018758E-16   0.8031181646E-16   0.1188802006E-16   0.1249997918E+02
     1     2     3     4     5     6     7     8
     2     9    10     3     6    11    12     7
 VARIABLES = X,Y,Z,DU1,DU2,DU3,U1,U2,U3,S11,S22,S33,S12,S13,S23,E11,E22,E33,E12,E13,E23,SMISES
 ZONE, T="0.5050D+01" F=FEPOINT, I=   12 J=    2 ET=BRICK
   0.0000000000E+00   0.0000000000E+00   0.0000000000E+00   0.0000000000E+00   0.0000000000E+00   0.0000000000E+00   0.0000000000E+00   0.0000000000E+00   0.0000000000E+00   0.1137500002E+02   0.5570161932E-09   0.5573452907E-09  -0.6721217110E-16   0.1261517640E-11   0.7977988139E-12   0.9421452264E-01  -0.4708451132E-01  -0.4708451132E-01   0.5028628441E-17   0.1511735292E-13   0.9580012832E-14   0.1137500002E+02
   0.1094214522E+01   0.0000000000E+00   0.6662188207E-14  -0.2249958359E-02   0.0000000000E+00   0.6680666460E-14   0.9646448085E-01   0.0000000000E+00  -0.1847825320E-16   0.1137500002E+02   0.4255176260E-10   0.4177333783E-10   0.1592047168E-12   0.1260315706E-12   0.4491200552E-14   0.9421452263E-01  -0.4708451132E-01  -0.4708451132E-01   0.1864985476E-14   0.1561969011E-14   0.5499034024E-16   0.1137500002E+02
   0.1094214522E+01   0.9529154888E+00   0.6685838856E-14  -0.2249958359E-02   0.1122729180E-02   0.6707720376E-14   0.9646448085E-01  -0.4820724042E-01  -0.2188151925E-16   0.1137500002E+02   0.2498436935E-09   0.2499326320E-09   0.3114851845E-12  -0.2355682872E-12  -0.3311243095E-12   0.9421452262E-01  -0.4708451131E-01  -0.4708451131E-01   0.3693408332E-14  -0.2791161649E-14  -0.3935797330E-14   0.1137500002E+02
   0.0000000000E+00   0.9529154888E+00   0.4782661556E-14   0.0000000000E+00   0.1122729180E-02   0.4781558544E-14   0.0000000000E+00  -0.4820724042E-01   0.1103012140E-17   0.1137500002E+02   0.3965810918E-09   0.3957940576E-09  -0.2995249471E-12   0.2038678527E-13   0.2665018667E-12   0.9421452263E-01  -0.4708451131E-01  -0.4708451131E-01  -0.3602233298E-14   0.2281672268E-15   0.3145265064E-14   0.1137500002E+02
   0.0000000000E+00   0.0000000000E+00   0.9529154888E+00   0.0000000000E+00   0.0000000000E+00   0.1122729180E-02   0.0000000000E+00   0.0000000000E+00  -0.4820724042E-01   0.1137500002E+02  -0.1042485160E-09  -0.1028549074E-09  -0.4525929300E-16   0.1926896960E-12   0.2390714338E-12   0.9421452263E-01  -0.4708451131E-01  -0.4708451131E-01  -0.1140753156E-16   0.2305698026E-14   0.2846490696E-14   0.1137500002E+02
   0.1094214522E+01   0.0000000000E+00   0.9529154888E+00  -0.2249958359E-02   0.0000000000E+00   0.1122729180E-02   0.9646448085E-01   0.0000000000E+00  -0.4820724042E-01   0.1137500002E+02  -0.3655353941E-09  -0.3656440755E-09  -0.3061460824E-12   0.1559734685E-12   0.4391163430E-12   0.9421452262E-01  -0.4708451131E-01  -0.4708451131E-01  -0.3677109088E-14   0.1914516616E-14   0.5253971057E-14   0.1137500002E+02
   0.1094214522E+01   0.9529154888E+00   0.9529154888E+00  -0.2249958359E-02   0.1122729180E-02   0.1122729180E-02   0.9646448085E-01  -0.4820724042E-01  -0.4820724042E-01   0.1137500001E+02  -0.2647577263E-09  -0.2639940071E-09  -0.2706381447E-12  -0.2947336007E-12   0.1031667419E-12   0.9421452261E-01  -0.4708451131E-01  -0.4708451131E-01  -0.3251694604E-14  -0.3482999122E-14   0.1296193426E-14   0.1137500001E+02
   0.0000000000E+00   0.9529154888E+00   0.9529154888E+00   0.0000000000E+00   0.1122729180E-02   0.1122729180E-02   0.0000000000E+00  -0.4820724042E-01  -0.4820724042E-01   0.1137500001E+02  -0.5544906583E-09  -0.5542180077E-09   0.5253918816E-13   0.4854735621E-12  -0.2927749387E-12   0.9421452262E-01  -0.4708451131E-01  -0.4708451131E-01   0.7650670554E-15   0.5801435972E-14  -0.3551301424E-14   0.1137500002E+02
   0.2188429045E+01   0.0000000000E+00   0.9748979538E-14  -0.4499916718E-02   0.0000000000E+00   0.9799654656E-14   0.1929289617E+00   0.0000000000E+00  -0.5067511823E-16   0.1137500002E+02   0.5626175704E-09   0.5624594535E-09  -0.3733035803E-13  -0.5926028333E-12   0.1004899750E-11   0.9421452263E-01  -0.4708451132E-01  -0.4708451132E-01  -0.2196026822E-15  -0.6965872257E-14   0.1206864390E-13   0.1137500002E+02
   0.2188429045E+01   0.9529154888E+00   0.1576820087E-13  -0.4499916718E-02   0.1122729180E-02   0.1582753909E-13   0.1929289617E+00  -0.4820724042E-01  -0.5933822645E-16   0.1137500002E+02   0.5416974822E-10   0.5253070475E-10   0.5680983448E-12   0.4295919430E-12   0.2388702039E-12   0.9421452262E-01  -0.4708451131E-01  -0.4708451131E-01   0.7019879954E-14   0.5123332636E-14   0.2821060431E-14   0.1137500002E+02
   0.2188429045E+01   0.0000000000E+00   0.9529154888E+00  -0.4499916718E-02   0.0000000000E+00   0.1122729180E-02   0.1929289617E+00   0.0000000000E+00  -0.4820724042E-01   0.1137500002E+02   0.9488195086E-10   0.9625721894E-10  -0.4616019877E-12   0.5397304200E-12   0.2647349798E-12   0.9421452262E-01  -0.4708451131E-01  -0.4708451131E-01  -0.5444604625E-14   0.6475290608E-14   0.3107294914E-14   0.1137500002E+02
   0.2188429045E+01   0.9529154888E+00   0.9529154888E+00  -0.4499916718E-02   0.1122729180E-02   0.1122729180E-02   0.1929289617E+00  -0.4820724042E-01  -0.4820724042E-01   0.1137500001E+02  -0.3367481281E-09  -0.3368550384E-09  -0.4442714824E-12  -0.1547651067E-12  -0.5012686747E-12   0.9421452261E-01  -0.4708451130E-01  -0.4708451130E-01  -0.5310863016E-14  -0.1830678904E-14  -0.5982283308E-14   0.1137500001E+02
     1     2     3     4     5     6     7     8
     2     9    10     3     6    11    12     7
 VARIABLES = X,Y,Z,DU1,DU2,DU3,U1,U2,U3,S11,S22,S33,S12,S13,S23,E11,E22,E33,E12,E13,E23,SMISES
 ZONE, T="0.5100D+01" F=FEPOINT, I=   12 J=    2 ET=BRICK
   0.0000000000E+00   0.0000000000E+00   0.0000000000E+00   0.0000000000E+00   0.0000000000E+00   0.0000000000E+00   0.0000000000E+00   0.0000000000E+00   0.0000000000E+00   0.1025000002E+02   0.1378646257E-11   0.1377955429E-11  -0.5631196046E-16   0.1689008740E-15   0.7259073406E-15   0.9196452263E-01  -0.4596176132E-01  -0.4596176132E-01   0.4693117443E-17  -0.2872772524E-16  -0.7645076133E-17   0.1025000002E+02
   0.1091964522E+01   0.0000000000E+00  -0.7133168303E-17  -0.2250000000E-02   0.0000000000E+00  -0.6669321375E-14   0.9421452249E-01   0.0000000000E+00   0.6662188207E-14   0.1025000002E+02   0.6862976014E-12   0.6868447416E-12  -0.8338219270E-15  -0.7540437252E-15   0.2206224946E-15   0.9196452263E-01  -0.4596176132E-01  -0.4596176132E-01  -0.2710873098E-16   0.6851191539E-16   0.4799716763E-17   0.1025000002E+02
   0.1091964522E+01   0.9540382388E+00  -0.9154904671E-17  -0.2250000000E-02   0.1122750000E-02  -0.6694993761E-14   0.9421452249E-01  -0.4708451124E-01   0.6685838856E-14   0.1025000001E+02   0.3334362076E-13   0.3172397695E-13   0.5816473713E-15  -0.2336156422E-14  -0.1895434873E-15   0.9196452262E-01  -0.4596176131E-01  -0.4596176131E-01  -0.2335779686E-16  -0.5880445117E-17   0.2588890533E-16   0.1025000001E+02
   0.0000000000E+00   0.9540382388E+00   0.3395570652E-17   0.0000000000E+00   0.1122750000E-02  -0.4779265985E-14   0.0000000000E+00  -0.4708451124E-01   0.4782661556E-14   0.1025000001E+02  -0.4705836923E-11  -0.4706199738E-11   0.9607275538E-15   0.1939432297E-15  -0.2760053994E-15   0.9196452262E-01  -0.4596176131E-01  -0.4596176131E-01   0.1451137809E-16  -0.6959995542E-17  -0.1365588131E-16   0.1025000001E+02
   0.0000000000E+00   0.0000000000E+00   0.9540382388E+00   0.0000000000E+00   0.0000000000E+00   0.1122750000E-02   0.0000000000E+00   0.0000000000E+00  -0.4708451124E-01   0.1025000001E+02   0.6295509372E-12   0.6327060334E-12  -0.1941162756E-16   0.1985042191E-14   0.3568626753E-15   0.9196452262E-01  -0.4596176131E-01  -0.4596176131E-01  -0.1667256303E-16   0.2027884013E-16   0.9823931872E-17   0.1025000001E+02
   0.1091964522E+01   0.0000000000E+00   0.9540382388E+00  -0.2250000000E-02   0.0000000000E+00   0.1122750000E-02   0.9421452249E-01   0.0000000000E+00  -0.4708451124E-01   0.1025000001E+02  -0.2891926933E-12  -0.2900808714E-12  -0.2184521371E-14   0.2131038610E-15   0.3267748590E-15   0.9196452262E-01  -0.4596176131E-01  -0.4596176131E-01  -0.1114988348E-16   0.5242597699E-16  -0.9168849327E-17   0.1025000001E+02
   0.1091964522E+01   0.9540382388E+00   0.9540382388E+00  -0.2250000000E-02   0.1122750000E-02   0.1122750000E-02   0.9421452249E-01  -0.4708451124E-01  -0.4708451124E-01   0.1025000001E+02  -0.1292924999E-11  -0.1289366450E-11   0.2806091096E-15   0.5226799408E-15  -0.4109532502E-15   0.9196452261E-01  -0.4596176130E-01  -0.4596176130E-01   0.2027999243E-16   0.9045752529E-16   0.9048733382E-17   0.1025000001E+02
   0.0000000000E+00   0.9540382388E+00   0.9540382388E+00   0.0000000000E+00   0.1122750000E-02   0.1122750000E-02   0.0000000000E+00  -0.4708451124E-01  -0.4708451124E-01   0.1025000001E+02  -0.9400867964E-12  -0.9417956851E-12   0.1385663783E-14   0.1288019530E-14  -0.1188940970E-14   0.9196452261E-01  -0.4596176131E-01  -0.4596176131E-01   0.1355734982E-15  -0.3021543182E-16  -0.7249756042E-16   0.1025000001E+02
   0.2183929045E+01   0.0000000000E+00  -0.1396616521E-16  -0.4500000000E-02   0.0000000000E+00  -0.9762945703E-14   0.1884290450E+00   0.0000000000E+00   0.9748979538E-14   0.1025000002E+02   0.1332880963E-11   0.1332227854E-11  -0.2142578168E-14  -0.9324023248E-15  -0.1717620468E-15   0.9196452263E-01  -0.4596176131E-01  -0.4596176131E-01   0.1551416213E-15   0.7742096984E-16  -0.1291157486E-16   0.1025000002E+02
   0.2183929045E+01   0.9540382388E+00  -0.2108316567E-16  -0.4500000000E-02   0.1122750000E-02  -0.1578928403E-13   0.1884290450E+00  -0.4708451124E-01   0.1576820087E-13   0.1025000001E+02   0.4317440237E-11   0.4316026696E-11   0.1147180283E-14  -0.1971116115E-14  -0.2266720050E-15   0.9196452262E-01  -0.4596176131E-01  -0.4596176131E-01   0.2167748443E-15  -0.1700715447E-15   0.3015990006E-18   0.1025000001E+02
   0.2183929045E+01   0.0000000000E+00   0.9540382388E+00  -0.4500000000E-02   0.0000000000E+00   0.1122750000E-02   0.1884290450E+00   0.0000000000E+00  -0.4708451124E-01   0.1025000001E+02   0.8762814744E-12   0.8768097551E-12  -0.6015752987E-15   0.2457960226E-14   0.3383830675E-15   0.9196452262E-01  -0.4596176131E-01  -0.4596176131E-01   0.7819403187E-16   0.9074390455E-17  -0.1841978077E-16   0.1025000001E+02
   0.2183929045E+01   0.9540382388E+00   0.9540382388E+00  -0.4500000000E-02   0.1122750000E-02   0.1122750000E-02   0.1884290450E+00  -0.4708451124E-01  -0.4708451124E-01   0.1025000001E+02  -0.1314025362E-11  -0.1314298933E-11   0.1753496906E-14   0.1668867654E-14   0.2230103444E-15   0.9196452261E-01  -0.4596176130E-01  -0.4596176130E-01   0.1064559124E-16   0.1932636676E-16  -0.2886240421E-16   0.1025000001E+02
     1     2     3     4     5     6     7     8
     2     9    10     3     6    11    12     7
 VARIABLES = X,Y,Z,DU1,DU2,DU3,U1,U2,U3,S11,S22,S33,S12,S13,S23,E11,E22,E33,E12,E13,E23,SMISES
 ZONE, T="0.5150D+01" F=FEPOINT, I=   12 J=    2 ET=BRICK
   0.0000000000E+00   0.0000000000E+00   0.0000000000E+00   0.0000000000E+00   0.0000000000E+00   0.0000000000E+00   0.0000000000E+00   0.0000000000E+00   0.0000000000E+00   0.9125000014E+01   0.1987469153E-12   0.1993506349E-12  -0.4622086362E-16  -0.6760822891E-15  -0.1780909836E-15   0.8971452263E-01  -0.4483901131E-01  -0.4483901131E-01   0.9458419283E-17   0.1215483368E-16  -0.2236484703E-16   0.9125000014E+01
   0.1089714522E+01   0.0000000000E+00  -0.1634167332E-16  -0.2250000000E-02   0.0000000000E+00  -0.9208505015E-17   0.9196452249E-01   0.0000000000E+00  -0.7133168303E-17   0.9125000014E+01  -0.2574966880E-12  -0.2580002739E-12  -0.2774306849E-15   0.1363736149E-16  -0.2419806861E-15   0.8971452263E-01  -0.4483901131E-01  -0.4483901131E-01  -0.4174229398E-16  -0.3008202008E-17  -0.1339099790E-16   0.9125000014E+01
   0.1089714522E+01   0.9551609888E+00  -0.2114695888E-16  -0.2250000000E-02   0.1122750000E-02  -0.1199205421E-16   0.9196452249E-01  -0.4596176124E-01  -0.9154904671E-17   0.9125000013E+01  -0.7056985617E-12  -0.7066897911E-12   0.1224312189E-14  -0.2825354795E-14  -0.1029997131E-15   0.8971452262E-01  -0.4483901131E-01  -0.4483901131E-01  -0.1001237658E-17   0.9177580822E-16   0.6936344599E-16   0.9125000013E+01
   0.0000000000E+00   0.9551609888E+00  -0.2038149390E-17   0.0000000000E+00   0.1122750000E-02  -0.5433720042E-17   0.0000000000E+00  -0.4596176124E-01   0.3395570652E-17   0.9125000013E+01  -0.5297889778E-11  -0.5296643838E-11   0.1255098350E-14  -0.2160782942E-15  -0.2517923018E-15   0.8971452262E-01  -0.4483901131E-01  -0.4483901131E-01  -0.7642066818E-17  -0.7621994309E-16  -0.3950964492E-16   0.9125000013E+01
   0.0000000000E+00   0.0000000000E+00   0.9551609888E+00   0.0000000000E+00   0.0000000000E+00   0.1122750000E-02   0.0000000000E+00   0.0000000000E+00  -0.4596176124E-01   0.9125000013E+01   0.1960977951E-11   0.1962261611E-11  -0.8835204801E-17   0.7419520591E-15  -0.3076424237E-16   0.8971452262E-01  -0.4483901131E-01  -0.4483901131E-01  -0.7773468476E-17  -0.2010321396E-16   0.1825083476E-16   0.9125000013E+01
   0.1089714522E+01   0.0000000000E+00   0.9551609888E+00  -0.2250000000E-02   0.0000000000E+00   0.1122750000E-02   0.9196452249E-01   0.0000000000E+00  -0.4596176124E-01   0.9125000013E+01   0.2668126301E-12   0.2647706744E-12  -0.3342890320E-14   0.1272430767E-14   0.2045262891E-15   0.8971452262E-01  -0.4483901131E-01  -0.4483901131E-01  -0.2584364424E-16   0.6283188859E-16  -0.2191857315E-16   0.9125000013E+01
   0.1089714522E+01   0.9551609888E+00   0.9551609888E+00  -0.2250000000E-02   0.1122750000E-02   0.1122750000E-02   0.9196452249E-01  -0.4596176124E-01  -0.4596176124E-01   0.9125000012E+01  -0.5323460587E-12  -0.5294159248E-12  -0.8255023123E-15  -0.1309724493E-15   0.3661167939E-16   0.8971452261E-01  -0.4483901130E-01  -0.4483901130E-01   0.2638079822E-17   0.7227308085E-17   0.5487141778E-16   0.9125000012E+01
   0.0000000000E+00   0.9551609888E+00   0.9551609888E+00   0.0000000000E+00   0.1122750000E-02   0.1122750000E-02   0.0000000000E+00  -0.4596176124E-01  -0.4596176124E-01   0.9125000012E+01  -0.1593903768E-12  -0.1609258290E-12   0.1159015260E-14   0.4104546025E-15  -0.7120863611E-15   0.8971452261E-01  -0.4483901130E-01  -0.4483901130E-01   0.1455410174E-15   0.5328208690E-18  -0.8977950962E-16   0.9125000012E+01
   0.2179429045E+01   0.0000000000E+00  -0.4879216614E-16  -0.4500000000E-02   0.0000000000E+00  -0.3482600093E-16   0.1839290450E+00   0.0000000000E+00  -0.1396616521E-16   0.9125000014E+01   0.9671975181E-12   0.9678389569E-12  -0.2035691892E-14  -0.1078211616E-14  -0.8944668159E-16   0.8971452262E-01  -0.4483901131E-01  -0.4483901131E-01   0.2230013482E-15   0.1664565456E-15  -0.1249563454E-16   0.9125000014E+01
   0.2179429045E+01   0.9551609888E+00  -0.5556918093E-16  -0.4500000000E-02   0.1122750000E-02  -0.3448601527E-16   0.1839290450E+00  -0.4596176124E-01  -0.2108316567E-16   0.9125000013E+01   0.3613185447E-11   0.3612470705E-11   0.1316696699E-14  -0.1240341275E-14   0.3880336623E-15   0.8971452261E-01  -0.4483901131E-01  -0.4483901131E-01   0.2137895152E-15  -0.1006800575E-15  -0.1606988067E-16   0.9125000013E+01
   0.2179429045E+01   0.0000000000E+00   0.9551609888E+00  -0.4500000000E-02   0.0000000000E+00   0.1122750000E-02   0.1839290450E+00   0.0000000000E+00  -0.4596176124E-01   0.9125000013E+01   0.1165047348E-11   0.1164857969E-11  -0.4543019787E-15   0.3063336731E-14   0.2014380558E-15   0.8971452261E-01  -0.4483901131E-01  -0.4483901131E-01  -0.3563653708E-16   0.2538532734E-15  -0.4054164318E-16   0.9125000013E+01
   0.2179429045E+01   0.9551609888E+00   0.9551609888E+00  -0.4500000000E-02   0.1122750000E-02   0.1122750000E-02   0.1839290450E+00  -0.4596176124E-01  -0.4596176124E-01   0.9125000012E+01  -0.2302258425E-12  -0.2312359317E-12   0.2040997917E-14   0.2290379248E-14   0.6883477203E-15   0.8971452260E-01  -0.4483901130E-01  -0.4483901130E-01   0.1033090134E-15  -0.8145914345E-16   0.3857306324E-16   0.9125000012E+01
     1     2     3     4     5     6     7     8
     2     9    10     3     6    11    12     7
 VARIABLES = X,Y,Z,DU1,DU2,DU3,U1,U2,U3,S11,S22,S33,S12,S13,S23,E11,E22,E33,E12,E13,E23,SMISES
 ZONE, T="0.5200D+01" F=FEPOINT, I=   12 J=    2 ET=BRICK
   0.0000000000E+00   0.0000000000E+00   0.0000000000E+00   0.0000000000E+00   0.0000000000E+00   0.0000000000E+00   0.0000000000E+00   0.0000000000E+00   0.0000000000E+00   0.8000000013E+01  -0.4455883367E-12  -0.4462479582E-12  -0.6157032874E-16  -0.1328373719E-14  -0.3815539998E-15   0.8746452263E-01  -0.4371626131E-01  -0.4371626131E-01  -0.4810586611E-17  -0.1893916559E-16  -0.1797610900E-16   0.8000000013E+01
   0.1087464522E+01   0.0000000000E+00  -0.2006306234E-16  -0.2250000000E-02   0.0000000000E+00  -0.3721389022E-17   0.8971452249E-01   0.0000000000E+00  -0.1634167332E-16   0.8000000012E+01  -0.3567835447E-12  -0.3563365380E-12   0.1320080747E-15  -0.8468657639E-15  -0.3687390047E-15   0.8746452262E-01  -0.4371626131E-01  -0.4371626131E-01  -0.1667273705E-17   0.4869473748E-16  -0.2607880435E-16   0.8000000012E+01
   0.1087464522E+01   0.9562837388E+00  -0.2566420478E-16  -0.2250000000E-02   0.1122750000E-02  -0.4517245903E-17   0.8971452249E-01  -0.4483901124E-01  -0.2114695888E-16   0.8000000011E+01  -0.7941598882E-12  -0.7949181844E-12   0.1390798033E-14  -0.1784420720E-14   0.2941919894E-15   0.8746452261E-01  -0.4371626131E-01  -0.4371626131E-01  -0.4754553830E-17  -0.7492074013E-17   0.7777485072E-16   0.8000000011E+01
   0.0000000000E+00   0.9562837388E+00  -0.3234363689E-17   0.0000000000E+00   0.1122750000E-02  -0.1196214299E-17   0.0000000000E+00  -0.4483901124E-01  -0.2038149390E-17   0.8000000012E+01  -0.5436119923E-11  -0.5435201605E-11   0.8438938752E-15  -0.7287665476E-15  -0.4451542411E-16   0.8746452262E-01  -0.4371626131E-01  -0.4371626131E-01  -0.1434024908E-16  -0.4720676298E-16  -0.2232972168E-16   0.8000000012E+01
   0.0000000000E+00   0.0000000000E+00   0.9562837388E+00   0.0000000000E+00   0.0000000000E+00   0.1122750000E-02   0.0000000000E+00   0.0000000000E+00  -0.4483901124E-01   0.8000000012E+01   0.1136599227E-11   0.1135927649E-11   0.1148867806E-16   0.1216996781E-14   0.2720132391E-15   0.8746452262E-01  -0.4371626131E-01  -0.4371626131E-01  -0.8697691320E-17  -0.1127948923E-16  -0.7289194559E-17   0.8000000012E+01
   0.1087464522E+01   0.0000000000E+00   0.9562837388E+00  -0.2250000000E-02   0.0000000000E+00   0.1122750000E-02   0.8971452249E-01   0.0000000000E+00  -0.4483901124E-01   0.8000000011E+01   0.7017764744E-12   0.6995828594E-12  -0.9459470609E-15   0.5762348529E-15  -0.2320606398E-15   0.8746452261E-01  -0.4371626131E-01  -0.4371626131E-01  -0.2693735349E-16   0.8222581152E-16   0.1799587917E-16   0.8000000011E+01
   0.1087464522E+01   0.9562837388E+00   0.9562837388E+00  -0.2250000000E-02   0.1122750000E-02   0.1122750000E-02   0.8971452249E-01  -0.4483901124E-01  -0.4483901124E-01   0.8000000010E+01  -0.3021401865E-12  -0.2991694156E-12   0.1208041761E-14   0.1085020204E-14   0.2099848562E-15   0.8746452260E-01  -0.4371626130E-01  -0.4371626130E-01   0.1974778049E-16   0.8323091122E-16   0.1781178793E-16   0.8000000010E+01
   0.0000000000E+00   0.9562837388E+00   0.9562837388E+00   0.0000000000E+00   0.1122750000E-02   0.1122750000E-02   0.0000000000E+00  -0.4483901124E-01  -0.4483901124E-01   0.8000000011E+01   0.1092535060E-11   0.1089947423E-11   0.1130791199E-14  -0.2952732167E-16  -0.1360230267E-16   0.8746452261E-01  -0.4371626130E-01  -0.4371626130E-01   0.1495936811E-15  -0.1998366473E-16  -0.9000382205E-16   0.8000000011E+01
   0.2174929045E+01   0.0000000000E+00  -0.5626335653E-16  -0.4500000000E-02   0.0000000000E+00  -0.7471190384E-17   0.1794290450E+00   0.0000000000E+00  -0.4879216614E-16   0.8000000012E+01   0.1038544443E-11   0.1040145904E-11  -0.1506434040E-14  -0.8400673983E-15  -0.1253626444E-15   0.8746452262E-01  -0.4371626131E-01  -0.4371626131E-01   0.1640603915E-15   0.1185821871E-15  -0.9878918225E-17   0.8000000012E+01
   0.2174929045E+01   0.9562837388E+00  -0.6344458247E-16  -0.4500000000E-02   0.1122750000E-02  -0.7875401532E-17   0.1794290450E+00  -0.4483901124E-01  -0.5556918093E-16   0.8000000011E+01   0.3525639222E-11   0.3525333377E-11   0.1723485505E-14  -0.1547506034E-14   0.3385354105E-15   0.8746452261E-01  -0.4371626131E-01  -0.4371626131E-01   0.1950965486E-15  -0.5994364529E-16   0.1195518759E-16   0.8000000011E+01
   0.2174929045E+01   0.0000000000E+00   0.9562837388E+00  -0.4500000000E-02   0.0000000000E+00   0.1122750000E-02   0.1794290450E+00   0.0000000000E+00  -0.4483901124E-01   0.8000000011E+01   0.2159021270E-11   0.2160099217E-11  -0.7278970655E-15   0.3410875831E-14  -0.2232890943E-15   0.8746452261E-01  -0.4371626131E-01  -0.4371626131E-01   0.6800162850E-16   0.1679699786E-15  -0.2587271429E-16   0.8000000011E+01
   0.2174929045E+01   0.9562837388E+00   0.9562837388E+00  -0.4500000000E-02   0.1122750000E-02   0.1122750000E-02   0.1794290450E+00  -0.4483901124E-01  -0.4483901124E-01   0.8000000010E+01  -0.1398818684E-11  -0.1399567550E-11   0.1097771669E-14   0.1518697488E-14   0.4253528423E-15   0.8746452260E-01  -0.4371626130E-01  -0.4371626130E-01   0.8860653799E-17  -0.5522204122E-17  -0.4319323021E-17   0.8000000010E+01
     1     2     3     4     5     6     7     8
     2     9    10     3     6    11    12     7
 VARIABLES = X,Y,Z,DU1,DU2,DU3,U1,U2,U3,S11,S22,S33,S12,S13,S23,E11,E22,E33,E12,E13,E23,SMISES
 ZONE, T="0.5250D+01" F=FEPOINT, I=   12 J=    2 ET=BRICK
   0.0000000000E+00   0.0000000000E+00   0.0000000000E+00   0.0000000000E+00   0.0000000000E+00   0.0000000000E+00   0.0000000000E+00   0.0000000000E+00   0.0000000000E+00   0.6875000011E+01  -0.4803945421E-13  -0.4816428270E-13  -0.4770100836E-16  -0.1337540966E-14  -0.4485337101E-15   0.8521452262E-01  -0.4259351131E-01  -0.4259351131E-01   0.3229214622E-17  -0.3058394942E-16  -0.1577151907E-16   0.6875000011E+01
   0.1085214522E+01   0.0000000000E+00  -0.1839332228E-16  -0.2250000000E-02   0.0000000000E+00   0.1669740056E-17   0.8746452249E-01   0.0000000000E+00  -0.2006306234E-16   0.6875000011E+01   0.1655738124E-12   0.1658989082E-12  -0.8198473746E-15  -0.1106540238E-14   0.1151896421E-16   0.8521452262E-01  -0.4259351131E-01  -0.4259351131E-01  -0.4453919170E-16   0.4147949240E-16  -0.6953158513E-17   0.6875000011E+01
   0.1085214522E+01   0.9574064888E+00  -0.2164502737E-16  -0.2250000000E-02   0.1122750000E-02   0.4019177415E-17   0.8746452249E-01  -0.4371626124E-01  -0.2566420478E-16   0.6875000010E+01  -0.6739269355E-12  -0.6746148464E-12   0.6856538457E-15  -0.9167454944E-15   0.2676052547E-15   0.8521452261E-01  -0.4259351131E-01  -0.4259351131E-01  -0.2426957052E-16   0.5332700912E-16   0.7999794564E-16   0.6875000010E+01
   0.0000000000E+00   0.9574064888E+00  -0.3646875234E-17   0.0000000000E+00   0.1122750000E-02  -0.4125115445E-18   0.0000000000E+00  -0.4371626124E-01  -0.3234363689E-17   0.6875000010E+01  -0.5447153474E-11  -0.5445796512E-11   0.9431132202E-15  -0.1644118371E-15  -0.9748951076E-16   0.8521452261E-01  -0.4259351131E-01  -0.4259351131E-01   0.4696504192E-18  -0.2608727213E-16  -0.1774862921E-16   0.6875000010E+01
   0.0000000000E+00   0.0000000000E+00   0.9574064888E+00   0.0000000000E+00   0.0000000000E+00   0.1122750000E-02   0.0000000000E+00   0.0000000000E+00  -0.4371626124E-01   0.6875000010E+01   0.1157287782E-11   0.1156914078E-11   0.1455705763E-16   0.1054469089E-14   0.3757214488E-15   0.8521452261E-01  -0.4259351131E-01  -0.4259351131E-01  -0.8050986162E-18  -0.1964348059E-16   0.3440956826E-16   0.6875000010E+01
   0.1085214522E+01   0.0000000000E+00   0.9574064888E+00  -0.2250000000E-02   0.0000000000E+00   0.1122750000E-02   0.8746452249E-01   0.0000000000E+00  -0.4371626124E-01   0.6875000010E+01   0.2878239675E-12   0.2864699229E-12  -0.1043509986E-14   0.3448671301E-15  -0.4407410584E-16   0.8521452261E-01  -0.4259351131E-01  -0.4259351131E-01  -0.2194421279E-16   0.1196436014E-15  -0.2206197441E-16   0.6875000010E+01
   0.1085214522E+01   0.9574064888E+00   0.9574064888E+00  -0.2250000000E-02   0.1122750000E-02   0.1122750000E-02   0.8746452249E-01  -0.4371626124E-01  -0.4371626124E-01   0.6875000009E+01  -0.7386993697E-12  -0.7356066878E-12   0.9748932526E-15   0.1619557846E-14  -0.5041060481E-16   0.8521452260E-01  -0.4259351130E-01  -0.4259351130E-01   0.1603049274E-16   0.7533757730E-16   0.8168999034E-16   0.6875000009E+01
   0.0000000000E+00   0.9574064888E+00   0.9574064888E+00   0.0000000000E+00   0.1122750000E-02   0.1122750000E-02   0.0000000000E+00  -0.4371626124E-01  -0.4371626124E-01   0.6875000009E+01   0.9993400203E-12   0.9974090870E-12   0.7819752915E-15  -0.7574479313E-16   0.1847887841E-15   0.8521452260E-01  -0.4259351130E-01  -0.4259351130E-01   0.1377090020E-15  -0.2700729028E-16  -0.3308933858E-16   0.6875000009E+01
   0.2170429045E+01   0.0000000000E+00  -0.4491290144E-16  -0.4500000000E-02   0.0000000000E+00   0.1135045509E-16   0.1749290450E+00   0.0000000000E+00  -0.5626335653E-16   0.6875000010E+01   0.1581615467E-11   0.1581772180E-11  -0.2603989377E-14  -0.1559203555E-14   0.2391183427E-16   0.8521452262E-01  -0.4259351131E-01  -0.4259351131E-01   0.1627823519E-15   0.3229472516E-16  -0.1965619380E-16   0.6875000010E+01
   0.2170429045E+01   0.9574064888E+00  -0.5127819324E-16  -0.4500000000E-02   0.1122750000E-02   0.1216638923E-16   0.1749290450E+00  -0.4371626124E-01  -0.6344458247E-16   0.6875000010E+01   0.4056379911E-11   0.4054622414E-11   0.8689272135E-15  -0.1590957783E-14  -0.1743288036E-15   0.8521452261E-01  -0.4259351130E-01  -0.4259351130E-01   0.1648744291E-15  -0.9174210686E-16  -0.1126752225E-16   0.6875000010E+01
   0.2170429045E+01   0.0000000000E+00   0.9574064888E+00  -0.4500000000E-02   0.0000000000E+00   0.1122750000E-02   0.1749290450E+00   0.0000000000E+00  -0.4371626124E-01   0.6875000010E+01   0.1316554110E-11   0.1317859547E-11  -0.3609607557E-15   0.1931819699E-14  -0.1020627535E-15   0.8521452261E-01  -0.4259351130E-01  -0.4259351130E-01   0.6037391874E-16   0.4485562556E-16  -0.2161503284E-16   0.6875000010E+01
   0.2170429045E+01   0.9574064888E+00   0.9574064888E+00  -0.4500000000E-02   0.1122750000E-02   0.1122750000E-02   0.1749290450E+00  -0.4371626124E-01  -0.4371626124E-01   0.6875000009E+01  -0.1793894670E-11  -0.1794390285E-11   0.1503676047E-14   0.1782530103E-14   0.4959647966E-16   0.8521452260E-01  -0.4259351130E-01  -0.4259351130E-01   0.1441812540E-16  -0.8420737180E-16  -0.2135399760E-16   0.6875000009E+01
     1     2     3     4     5     6     7     8
     2     9    10     3     6    11    12     7
 VARIABLES = X,Y,Z,DU1,DU2,DU3,U1,U2,U3,S11,S22,S33,S12,S13,S23,E11,E22,E33,E12,E13,E23,SMISES
 ZONE, T="0.5300D+01" F=FEPOINT, I=   12 J=    2 ET=BRICK
   0.0000000000E+00   0.0000000000E+00   0.0000000000E+00   0.0000000000E+00   0.0000000000E+00   0.0000000000E+00   0.0000000000E+00   0.0000000000E+00   0.0000000000E+00   0.5750000009E+01   0.1334325373E-11   0.1334708311E-11  -0.5025732939E-16  -0.1731772829E-15   0.4149268418E-15   0.8296452262E-01  -0.4147076131E-01  -0.4147076131E-01  -0.5782680366E-17  -0.1445018326E-16   0.5556807136E-17   0.5750000009E+01
   0.1082964522E+01   0.0000000000E+00  -0.9507201858E-17  -0.2250000000E-02   0.0000000000E+00   0.8886120426E-17   0.8521452249E-01   0.0000000000E+00  -0.1839332228E-16   0.5750000009E+01   0.6282888791E-12   0.6280722787E-12  -0.1875698141E-14  -0.1455604045E-14   0.1711014221E-15   0.8296452262E-01  -0.4147076131E-01  -0.4147076131E-01  -0.5787650090E-16   0.4555233228E-17  -0.2016528641E-19   0.5750000009E+01
   0.1082964522E+01   0.9585292388E+00  -0.1173641632E-16  -0.2250000000E-02   0.1122750000E-02   0.9908611047E-17   0.8521452249E-01  -0.4259351124E-01  -0.2164502737E-16   0.5750000008E+01  -0.1328511452E-12  -0.1341769004E-12  -0.3954644734E-15  -0.1331573686E-14   0.3229286279E-16   0.8296452261E-01  -0.4147076130E-01  -0.4147076130E-01  -0.6077794756E-16   0.4013277496E-16   0.5417972281E-16   0.5750000008E+01
   0.0000000000E+00   0.9585292388E+00   0.1524969899E-17   0.0000000000E+00   0.1122750000E-02   0.5171845132E-17   0.0000000000E+00  -0.4259351124E-01  -0.3646875234E-17   0.5750000008E+01  -0.5262367679E-11  -0.5262152876E-11   0.9886974328E-15   0.2965177781E-15  -0.4326137454E-16   0.8296452261E-01  -0.4147076130E-01  -0.4147076130E-01  -0.7085414290E-17  -0.8300233421E-18  -0.1871197090E-16   0.5750000008E+01
   0.0000000000E+00   0.0000000000E+00   0.9585292388E+00   0.0000000000E+00   0.0000000000E+00   0.1122750000E-02   0.0000000000E+00   0.0000000000E+00  -0.4259351124E-01   0.5750000008E+01   0.6551142893E-12   0.6562931001E-12   0.1525914900E-16   0.1682058027E-14   0.4796232724E-15   0.8296452261E-01  -0.4147076130E-01  -0.4147076130E-01   0.6630865548E-18   0.2107534407E-16  -0.5092816226E-17   0.5750000008E+01
   0.1082964522E+01   0.0000000000E+00   0.9585292388E+00  -0.2250000000E-02   0.0000000000E+00   0.1122750000E-02   0.8521452249E-01   0.0000000000E+00  -0.4259351124E-01   0.5750000008E+01  -0.2989774219E-12  -0.3004112816E-12  -0.1559400914E-14  -0.3384884141E-15   0.2665506877E-15   0.8296452261E-01  -0.4147076130E-01  -0.4147076130E-01  -0.2829266596E-16   0.2400338283E-16   0.1293503503E-16   0.5750000008E+01
   0.1082964522E+01   0.9585292388E+00   0.9585292388E+00  -0.2250000000E-02   0.1122750000E-02   0.1122750000E-02   0.8521452249E-01  -0.4259351124E-01  -0.4259351124E-01   0.5750000008E+01  -0.1085058386E-11  -0.1081930512E-11   0.7285866121E-15   0.1722334049E-14  -0.1896668787E-15   0.8296452260E-01  -0.4147076130E-01  -0.4147076130E-01  -0.3141344984E-17   0.9496419885E-16   0.5726103728E-16   0.5750000008E+01
   0.0000000000E+00   0.9585292388E+00   0.9585292388E+00   0.0000000000E+00   0.1122750000E-02   0.1122750000E-02   0.0000000000E+00  -0.4259351124E-01  -0.4259351124E-01   0.5750000008E+01  -0.2948426526E-12  -0.2959773748E-12   0.1421658327E-14   0.6456088042E-15  -0.5466278318E-15   0.8296452260E-01  -0.4147076130E-01  -0.4147076130E-01   0.1596250213E-15  -0.3232021788E-16  -0.5287479564E-16   0.5750000008E+01
   0.2165929045E+01   0.0000000000E+00  -0.1972631414E-16  -0.4500000000E-02   0.0000000000E+00   0.2518658730E-16   0.1704290450E+00   0.0000000000E+00  -0.4491290144E-16   0.5750000009E+01   0.1320847768E-11   0.1320759395E-11  -0.2357467366E-14  -0.1916555795E-14  -0.7620521599E-16   0.8296452261E-01  -0.4147076131E-01  -0.4147076131E-01   0.1766465597E-15   0.8649211906E-16   0.1519235163E-17   0.5750000009E+01
   0.2165929045E+01   0.9585292388E+00  -0.2677123112E-16  -0.4500000000E-02   0.1122750000E-02   0.2450696212E-16   0.1704290450E+00  -0.4259351124E-01  -0.5127819324E-16   0.5750000008E+01   0.4824595616E-11   0.4822474574E-11   0.1234105329E-14  -0.1151882675E-14  -0.6475137205E-15   0.8296452260E-01  -0.4147076130E-01  -0.4147076130E-01   0.1689225274E-15  -0.1019815103E-15   0.1899848897E-17   0.5750000008E+01
   0.2165929045E+01   0.0000000000E+00   0.9585292388E+00  -0.4500000000E-02   0.0000000000E+00   0.1122750000E-02   0.1704290450E+00   0.0000000000E+00  -0.4259351124E-01   0.5750000008E+01   0.6785113700E-12   0.6798730473E-12   0.4161731746E-15   0.2105044549E-14   0.1941470709E-16   0.8296452260E-01  -0.4147076130E-01  -0.4147076130E-01   0.8709568177E-16   0.1235784571E-15  -0.4890039940E-16   0.5750000008E+01
   0.2165929045E+01   0.9585292388E+00   0.9585292388E+00  -0.4500000000E-02   0.1122750000E-02   0.1122750000E-02   0.1704290450E+00  -0.4259351124E-01  -0.4259351124E-01   0.5750000007E+01  -0.1483206783E-11  -0.1483082150E-11   0.2139992709E-14   0.1615227945E-14  -0.8626126143E-16   0.8296452260E-01  -0.4147076130E-01  -0.4147076130E-01   0.4549265526E-16  -0.1624598206E-15  -0.2383932457E-16   0.5750000007E+01
     1     2     3     4     5     6     7     8
     2     9    10     3     6    11    12     7
 VARIABLES = X,Y,Z,DU1,DU2,DU3,U1,U2,U3,S11,S22,S33,S12,S13,S23,E11,E22,E33,E12,E13,E23,SMISES
 ZONE, T="0.5350D+01" F=FEPOINT, I=   12 J=    2 ET=BRICK
   0.0000000000E+00   0.0000000000E+00   0.0000000000E+00   0.0000000000E+00   0.0000000000E+00   0.0000000000E+00   0.0000000000E+00   0.0000000000E+00   0.0000000000E+00   0.4625000007E+01   0.4517926494E-12   0.4515052729E-12  -0.5024118153E-16  -0.6192094984E-15  -0.1847992052E-15   0.8071452262E-01  -0.4034801131E-01  -0.4034801131E-01  -0.2100652189E-17  -0.2852078723E-16  -0.1403239690E-17   0.4625000007E+01
   0.1080714522E+01   0.0000000000E+00  -0.1371100242E-16  -0.2250000000E-02   0.0000000000E+00  -0.4203800562E-17   0.8296452249E-01   0.0000000000E+00  -0.9507201858E-17   0.4625000007E+01   0.3719599586E-12   0.3718598249E-12   0.6371501703E-16  -0.7563720680E-15   0.7826936163E-16   0.8071452261E-01  -0.4034801131E-01  -0.4034801131E-01  -0.2038867573E-16   0.5095917953E-16  -0.1359959543E-16   0.4625000007E+01
   0.1080714522E+01   0.9596519888E+00  -0.1658120551E-16  -0.2250000000E-02   0.1122750000E-02  -0.4844789183E-17   0.8296452249E-01  -0.4147076124E-01  -0.1173641632E-16   0.4625000007E+01  -0.2992068052E-12  -0.3002684200E-12   0.1484846143E-14  -0.2448322252E-14  -0.1018610270E-15   0.8071452260E-01  -0.4034801130E-01  -0.4034801130E-01   0.3672901278E-17   0.9777299407E-16   0.6701906590E-16   0.4625000007E+01
   0.0000000000E+00   0.9596519888E+00  -0.2073710921E-17   0.0000000000E+00   0.1122750000E-02  -0.3598680820E-17   0.0000000000E+00  -0.4147076124E-01   0.1524969899E-17   0.4625000007E+01  -0.4502064701E-11  -0.4501728717E-11   0.9756360929E-15   0.2624565004E-15  -0.4838215071E-15   0.8071452261E-01  -0.4034801130E-01  -0.4034801130E-01  -0.2316060383E-16  -0.4357229109E-16  -0.3975501232E-16   0.4625000007E+01
   0.0000000000E+00   0.0000000000E+00   0.9596519888E+00   0.0000000000E+00   0.0000000000E+00   0.1122750000E-02   0.0000000000E+00   0.0000000000E+00  -0.4147076124E-01   0.4625000007E+01   0.7704298366E-12   0.7701983621E-12   0.2482661517E-16   0.1868455903E-14   0.4425640286E-15   0.8071452261E-01  -0.4034801130E-01  -0.4034801130E-01  -0.6939233887E-17  -0.9664545468E-17  -0.1490591989E-16   0.4625000007E+01
   0.1080714522E+01   0.0000000000E+00   0.9596519888E+00  -0.2250000000E-02   0.0000000000E+00   0.1122750000E-02   0.8296452249E-01   0.0000000000E+00  -0.4147076124E-01   0.4625000007E+01   0.1541723578E-12   0.1530918834E-12  -0.1983860627E-14   0.8209123930E-15   0.4264985621E-16   0.8071452260E-01  -0.4034801130E-01  -0.4034801130E-01  -0.2882425492E-16   0.9167277159E-16  -0.2546560869E-17   0.4625000007E+01
   0.1080714522E+01   0.9596519888E+00   0.9596519888E+00  -0.2250000000E-02   0.1122750000E-02   0.1122750000E-02   0.8296452249E-01  -0.4147076124E-01  -0.4147076124E-01   0.4625000006E+01  -0.1029212159E-11  -0.1025705137E-11   0.4478690237E-15   0.5237216411E-15  -0.3231658914E-15   0.8071452259E-01  -0.4034801130E-01  -0.4034801130E-01  -0.1781924310E-16   0.1293064212E-15   0.6045460639E-16   0.4625000006E+01
   0.0000000000E+00   0.9596519888E+00   0.9596519888E+00   0.0000000000E+00   0.1122750000E-02   0.1122750000E-02   0.0000000000E+00  -0.4147076124E-01  -0.4147076124E-01   0.4625000006E+01  -0.8041165321E-13  -0.8131616437E-13   0.1048559203E-14   0.6475980517E-15  -0.4796337729E-15   0.8071452260E-01  -0.4034801130E-01  -0.4034801130E-01   0.1544681064E-15  -0.4954772118E-16  -0.3516474585E-16   0.4625000006E+01
   0.2161429045E+01   0.0000000000E+00  -0.3258098080E-16  -0.4500000000E-02   0.0000000000E+00  -0.1285466666E-16   0.1659290450E+00   0.0000000000E+00  -0.1972631414E-16   0.4625000007E+01   0.1346284415E-11   0.1346663172E-11  -0.1916402662E-14  -0.5791733801E-15   0.1937966846E-15   0.8071452261E-01  -0.4034801131E-01  -0.4034801131E-01   0.1564541794E-15  -0.4961051296E-16  -0.9501319583E-17   0.4625000007E+01
   0.2161429045E+01   0.9596519888E+00  -0.3818624754E-16  -0.4500000000E-02   0.1122750000E-02  -0.1141501642E-16   0.1659290450E+00  -0.4147076124E-01  -0.2677123112E-16   0.4625000006E+01   0.3657593372E-11   0.3655865623E-11   0.1552513895E-14  -0.1471907096E-14   0.4875456643E-16   0.8071452260E-01  -0.4034801130E-01  -0.4034801130E-01   0.1959530576E-15  -0.1489894153E-15   0.2491117649E-16   0.4625000006E+01
   0.2161429045E+01   0.0000000000E+00   0.9596519888E+00  -0.4500000000E-02   0.0000000000E+00   0.1122750000E-02   0.1659290450E+00   0.0000000000E+00  -0.4147076124E-01   0.4625000006E+01   0.1450796534E-11   0.1451596926E-11  -0.1058174535E-14   0.2992627153E-14   0.1371645982E-15   0.8071452260E-01  -0.4034801130E-01  -0.4034801130E-01   0.5440153334E-16  -0.6938438259E-16  -0.4023030579E-16   0.4625000006E+01
   0.2161429045E+01   0.9596519888E+00   0.9596519888E+00  -0.4500000000E-02   0.1122750000E-02   0.1122750000E-02   0.1659290450E+00  -0.4147076124E-01  -0.4147076124E-01   0.4625000006E+01  -0.1334193888E-11  -0.1334643421E-11   0.1288940053E-14   0.1361874891E-14   0.5884462422E-15   0.8071452259E-01  -0.4034801130E-01  -0.4034801130E-01   0.2771121309E-16  -0.5891394265E-16   0.1831733470E-16   0.4625000006E+01
     1     2     3     4     5     6     7     8
     2     9    10     3     6    11    12     7
 VARIABLES = X,Y,Z,DU1,DU2,DU3,U1,U2,U3,S11,S22,S33,S12,S13,S23,E11,E22,E33,E12,E13,E23,SMISES
 ZONE, T="0.5400D+01" F=FEPOINT, I=   12 J=    2 ET=BRICK
   0.0000000000E+00   0.0000000000E+00   0.0000000000E+00   0.0000000000E+00   0.0000000000E+00   0.0000000000E+00   0.0000000000E+00   0.0000000000E+00   0.0000000000E+00   0.3500000005E+01   0.2154057044E-12   0.2164284796E-12  -0.3539227267E-16  -0.1043511031E-14  -0.3867394419E-16   0.7846452261E-01  -0.3922526131E-01  -0.3922526131E-01  -0.1290876559E-16  -0.3552698164E-16  -0.5727971356E-17   0.3500000005E+01
   0.1078464522E+01   0.0000000000E+00  -0.1690895730E-16  -0.2250000000E-02   0.0000000000E+00  -0.3197954876E-17   0.8071452249E-01   0.0000000000E+00  -0.1371100242E-16   0.3500000005E+01   0.2292217657E-12   0.2293342467E-12  -0.5584636648E-15  -0.6406808028E-15   0.3407250192E-16   0.7846452261E-01  -0.3922526130E-01  -0.3922526130E-01  -0.1913595609E-16   0.5239945428E-16  -0.1503855722E-16   0.3500000005E+01
   0.1078464522E+01   0.9607747388E+00  -0.1999219418E-16  -0.2250000000E-02   0.1122750000E-02  -0.3410988676E-17   0.8071452249E-01  -0.4034801124E-01  -0.1658120551E-16   0.3500000005E+01  -0.6556270142E-12  -0.6563094808E-12   0.9328522958E-15  -0.1762560517E-14   0.2959839457E-15   0.7846452260E-01  -0.3922526130E-01  -0.3922526130E-01  -0.5850495600E-17   0.8612800885E-16   0.8850396667E-16   0.3500000005E+01
   0.0000000000E+00   0.9607747388E+00  -0.1133448961E-17   0.0000000000E+00   0.1122750000E-02   0.9402619597E-18   0.0000000000E+00  -0.4034801124E-01  -0.2073710921E-17   0.3500000005E+01  -0.5429245480E-11  -0.5429291366E-11   0.9665476477E-15  -0.3143034314E-15   0.6887919360E-16   0.7846452260E-01  -0.3922526130E-01  -0.3922526130E-01  -0.1254451862E-16  -0.4827463237E-16  -0.1625447519E-16   0.3500000005E+01
   0.0000000000E+00   0.0000000000E+00   0.9607747388E+00   0.0000000000E+00   0.0000000000E+00   0.1122750000E-02   0.0000000000E+00   0.0000000000E+00  -0.4034801124E-01   0.3500000005E+01   0.1257104595E-11   0.1257173717E-11   0.1786630767E-16   0.1175165315E-14   0.1653942192E-15   0.7846452260E-01  -0.3922526130E-01  -0.3922526130E-01  -0.9922379115E-18  -0.9296497975E-17   0.1318986665E-16   0.3500000005E+01
   0.1078464522E+01   0.0000000000E+00   0.9607747388E+00  -0.2250000000E-02   0.0000000000E+00   0.1122750000E-02   0.8071452249E-01   0.0000000000E+00  -0.4034801124E-01   0.3500000005E+01   0.3085586790E-12   0.3074023749E-12  -0.1697059715E-14   0.8325103885E-15  -0.9589634664E-16   0.7846452260E-01  -0.3922526130E-01  -0.3922526130E-01  -0.2075004853E-16   0.8647644585E-16   0.1597508183E-17   0.3500000005E+01
   0.1078464522E+01   0.9607747388E+00   0.9607747388E+00  -0.2250000000E-02   0.1122750000E-02   0.1122750000E-02   0.8071452249E-01  -0.4034801124E-01  -0.4034801124E-01   0.3500000005E+01  -0.7092339482E-12  -0.7066680882E-12   0.6224985616E-15   0.1209796785E-14  -0.3478528543E-16   0.7846452259E-01  -0.3922526130E-01  -0.3922526130E-01   0.4638354080E-17   0.1190991308E-15   0.4030472639E-16   0.3500000005E+01
   0.0000000000E+00   0.9607747388E+00   0.9607747388E+00   0.0000000000E+00   0.1122750000E-02   0.1122750000E-02   0.0000000000E+00  -0.4034801124E-01  -0.4034801124E-01   0.3500000005E+01   0.3366062922E-12   0.3354031774E-12   0.1188448799E-14   0.2364525914E-15  -0.4539431308E-15   0.7846452259E-01  -0.3922526130E-01  -0.3922526130E-01   0.1286234028E-15  -0.4272046783E-16  -0.5057219065E-16   0.3500000005E+01
   0.2156929045E+01   0.0000000000E+00  -0.4198614802E-16  -0.4500000000E-02   0.0000000000E+00  -0.9405167227E-17   0.1614290450E+00   0.0000000000E+00  -0.3258098080E-16   0.3500000005E+01   0.1407676256E-11   0.1408516165E-11  -0.2421248368E-14  -0.1393087331E-14  -0.7249662452E-16   0.7846452261E-01  -0.3922526130E-01  -0.3922526130E-01   0.1397820523E-15   0.3733561042E-16  -0.5602779662E-17   0.3500000005E+01
   0.2156929045E+01   0.9607747388E+00  -0.4937210059E-16  -0.4500000000E-02   0.1122750000E-02  -0.1118585305E-16   0.1614290450E+00  -0.4034801124E-01  -0.3818624754E-16   0.3500000005E+01   0.3767075334E-11   0.3765770093E-11   0.9857126124E-15  -0.1233082306E-14  -0.1341846636E-15   0.7846452260E-01  -0.3922526130E-01  -0.3922526130E-01   0.1791854007E-15  -0.2852402445E-15   0.1008964905E-16   0.3500000005E+01
   0.2156929045E+01   0.0000000000E+00   0.9607747388E+00  -0.4500000000E-02   0.0000000000E+00   0.1122750000E-02   0.1614290450E+00   0.0000000000E+00  -0.4034801124E-01   0.3500000005E+01   0.1221992850E-11   0.1222289461E-11  -0.3964369099E-15   0.2148223139E-14  -0.2254212369E-15   0.7846452260E-01  -0.3922526130E-01  -0.3922526130E-01   0.7001717836E-16   0.6240020115E-16  -0.5052364301E-16   0.3500000005E+01
   0.2156929045E+01   0.9607747388E+00   0.9607747388E+00  -0.4500000000E-02   0.1122750000E-02   0.1122750000E-02   0.1614290450E+00  -0.4034801124E-01  -0.4034801124E-01   0.3500000004E+01  -0.1379804213E-11  -0.1380491395E-11   0.1605721147E-14   0.1632060393E-14   0.4296608630E-15   0.7846452259E-01  -0.3922526129E-01  -0.3922526129E-01   0.4620508002E-16  -0.1526989538E-15   0.4598377860E-16   0.3500000004E+01
     1     2     3     4     5     6     7     8
     2     9    10     3     6    11    12     7
 VARIABLES = X,Y,Z,DU1,DU2,DU3,U1,U2,U3,S11,S22,S33,S12,S13,S23,E11,E22,E33,E12,E13,E23,SMISES
 ZONE, T="0.5450D+01" F=FEPOINT, I=   12 J=    2 ET=BRICK
   0.0000000000E+00   0.0000000000E+00   0.0000000000E+00   0.0000000000E+00   0.0000000000E+00   0.0000000000E+00   0.0000000000E+00   0.0000000000E+00   0.0000000000E+00   0.2375000004E+01  -0.4965657618E-13  -0.4884332885E-13  -0.3306138199E-16  -0.1231761756E-14  -0.1807575580E-15   0.7621452261E-01  -0.3810251130E-01  -0.3810251130E-01   0.3002822079E-17  -0.3139812629E-16   0.5554684025E-17   0.2375000004E+01
   0.1076214522E+01   0.0000000000E+00  -0.1817365900E-16  -0.2250000000E-02   0.0000000000E+00  -0.1264701705E-17   0.7846452249E-01   0.0000000000E+00  -0.1690895730E-16   0.2375000004E+01   0.3102645639E-12   0.3103668857E-12  -0.2639699960E-15  -0.6245274024E-15   0.8019442129E-16   0.7621452261E-01  -0.3810251130E-01  -0.3810251130E-01  -0.2007083215E-16   0.5910137289E-16  -0.7683911694E-17   0.2375000004E+01
   0.1076214522E+01   0.9618974888E+00  -0.2093715337E-16  -0.2250000000E-02   0.1122750000E-02  -0.9449591908E-18   0.7846452249E-01  -0.3922526124E-01  -0.1999219418E-16   0.2375000003E+01  -0.6811496611E-12  -0.6821882353E-12   0.1326369514E-14  -0.1778353196E-14   0.2949803692E-15   0.7621452260E-01  -0.3810251130E-01  -0.3810251130E-01  -0.6572526302E-17   0.1175732909E-15   0.6534242353E-16   0.2375000003E+01
   0.0000000000E+00   0.9618974888E+00  -0.1982078367E-17   0.0000000000E+00   0.1122750000E-02  -0.8486294059E-18   0.0000000000E+00  -0.3922526124E-01  -0.1133448961E-17   0.2375000003E+01  -0.5254002145E-11  -0.5254251118E-11   0.9629567788E-15  -0.3508014315E-15   0.6543410557E-16   0.7621452260E-01  -0.3810251130E-01  -0.3810251130E-01  -0.1060540005E-16  -0.6685591699E-16  -0.2620218039E-16   0.2375000003E+01
   0.0000000000E+00   0.0000000000E+00   0.9618974888E+00   0.0000000000E+00   0.0000000000E+00   0.1122750000E-02   0.0000000000E+00   0.0000000000E+00  -0.3922526124E-01   0.2375000003E+01   0.1326158394E-11   0.1325696077E-11   0.1906669633E-16   0.1053101594E-14   0.7394661136E-16   0.7621452260E-01  -0.3810251130E-01  -0.3810251130E-01   0.1310035579E-16  -0.2176551039E-16  -0.1045608484E-16   0.2375000003E+01
   0.1076214522E+01   0.0000000000E+00   0.9618974888E+00  -0.2250000000E-02   0.0000000000E+00   0.1122750000E-02   0.7846452249E-01   0.0000000000E+00  -0.3922526124E-01   0.2375000003E+01   0.2885097526E-12   0.2873209780E-12  -0.1638698132E-14   0.9078098209E-15  -0.8434879125E-16   0.7621452260E-01  -0.3810251130E-01  -0.3810251130E-01  -0.4315985003E-16   0.1215900084E-15   0.1845657633E-18   0.2375000003E+01
   0.1076214522E+01   0.9618974888E+00   0.9618974888E+00  -0.2250000000E-02   0.1122750000E-02   0.1122750000E-02   0.7846452249E-01  -0.3922526124E-01  -0.3922526124E-01   0.2375000003E+01  -0.7278290798E-12  -0.7252476162E-12   0.6009602572E-15   0.1256670136E-14  -0.1444759639E-16   0.7621452259E-01  -0.3810251129E-01  -0.3810251129E-01   0.3459877077E-16   0.2474259757E-16   0.6604553279E-16   0.2375000003E+01
   0.0000000000E+00   0.9618974888E+00   0.9618974888E+00   0.0000000000E+00   0.1122750000E-02   0.1122750000E-02   0.0000000000E+00  -0.3922526124E-01  -0.3922526124E-01   0.2375000003E+01   0.4668218846E-12   0.4653963604E-12   0.1021361292E-14   0.2291580770E-15  -0.4196609229E-15   0.7621452259E-01  -0.3810251130E-01  -0.3810251130E-01   0.1122400343E-15   0.4369500514E-17  -0.1821716702E-16   0.2375000003E+01
   0.2152429045E+01   0.0000000000E+00  -0.4468736883E-16  -0.4500000000E-02   0.0000000000E+00  -0.2701220808E-17   0.1569290450E+00   0.0000000000E+00  -0.4198614802E-16   0.2375000004E+01   0.1886398737E-11   0.1886806344E-11  -0.2684484552E-14  -0.1477110843E-14   0.1611683333E-15   0.7621452260E-01  -0.3810251130E-01  -0.3810251130E-01   0.1782152078E-15   0.4449148139E-17  -0.6307573226E-17   0.2375000004E+01
   0.2152429045E+01   0.9618974888E+00  -0.5069149569E-16  -0.4500000000E-02   0.1122750000E-02  -0.1319395102E-17   0.1569290450E+00  -0.3922526124E-01  -0.4937210059E-16   0.2375000003E+01   0.3645863163E-11   0.3644215327E-11   0.1025685439E-14  -0.1261296583E-14  -0.2430989964E-15   0.7621452260E-01  -0.3810251130E-01  -0.3810251130E-01   0.2242321734E-15  -0.3843384907E-15   0.2682303839E-16   0.2375000003E+01
   0.2152429045E+01   0.0000000000E+00   0.9618974888E+00  -0.4500000000E-02   0.0000000000E+00   0.1122750000E-02   0.1569290450E+00   0.0000000000E+00  -0.3922526124E-01   0.2375000003E+01   0.1164293892E-11   0.1164890467E-11  -0.5834389595E-15   0.1804041979E-14  -0.9468044859E-16   0.7621452260E-01  -0.3810251130E-01  -0.3810251130E-01   0.4441031624E-16   0.6665807316E-16  -0.6473348116E-16   0.2375000003E+01
   0.2152429045E+01   0.9618974888E+00   0.9618974888E+00  -0.4500000000E-02   0.1122750000E-02   0.1122750000E-02   0.1569290450E+00  -0.3922526124E-01  -0.3922526124E-01   0.2375000003E+01  -0.1441678633E-11  -0.1442067576E-11   0.1538111745E-14   0.1646048625E-14   0.1663752264E-15   0.7621452259E-01  -0.3810251129E-01  -0.3810251129E-01   0.9019057220E-17   0.1844014555E-16   0.2443472652E-16   0.2375000003E+01
     1     2     3     4     5     6     7     8
     2     9    10     3     6    11    12     7
 VARIABLES = X,Y,Z,DU1,DU2,DU3,U1,U2,U3,S11,S22,S33,S12,S13,S23,E11,E22,E33,E12,E13,E23,SMISES
 ZONE, T="0.5500D+01" F=FEPOINT, I=   12 J=    2 ET=BRICK
   0.0000000000E+00   0.0000000000E+00   0.0000000000E+00   0.0000000000E+00   0.0000000000E+00   0.0000000000E+00   0.0000000000E+00   0.0000000000E+00   0.0000000000E+00   0.1250000002E+01   0.2288322105E-12   0.2294377404E-12  -0.2175190970E-17  -0.1037031270E-14  -0.1266902913E-15   0.7396452261E-01  -0.3697976130E-01  -0.3697976130E-01   0.8900033406E-17  -0.2578410821E-16  -0.7344918088E-19   0.1250000002E+01
   0.1073964522E+01   0.0000000000E+00  -0.1643141753E-16  -0.2250000000E-02   0.0000000000E+00   0.1742241469E-17   0.7621452249E-01   0.0000000000E+00  -0.1817365900E-16   0.1250000002E+01   0.2798313487E-12   0.2796854984E-12  -0.3945608535E-15  -0.5966673738E-15   0.3012509937E-16   0.7396452260E-01  -0.3697976130E-01  -0.3697976130E-01  -0.4775776058E-16   0.2935338697E-16   0.5738524164E-17   0.1250000002E+01
   0.1073964522E+01   0.9630202388E+00  -0.1940346292E-16  -0.2250000000E-02   0.1122750000E-02   0.1533690450E-17   0.7621452249E-01  -0.3810251124E-01  -0.2093715337E-16   0.1250000002E+01  -0.4798038175E-12  -0.4807909638E-12   0.1146461688E-14  -0.1851554487E-14   0.1753569447E-15   0.7396452259E-01  -0.3697976130E-01  -0.3697976130E-01  -0.3270831510E-16   0.3905716101E-16   0.4252328910E-16   0.1250000002E+01
   0.0000000000E+00   0.9630202388E+00  -0.1694630447E-17   0.0000000000E+00   0.1122750000E-02   0.2874479202E-18   0.0000000000E+00  -0.3810251124E-01  -0.1982078367E-17   0.1250000002E+01  -0.5081497619E-11  -0.5081640965E-11   0.9378105247E-15  -0.2060089933E-15  -0.1785938281E-15   0.7396452260E-01  -0.3697976130E-01  -0.3697976130E-01  -0.4754416326E-17  -0.3813026587E-16   0.4371254170E-17   0.1250000002E+01
   0.0000000000E+00   0.0000000000E+00   0.9630202388E+00   0.0000000000E+00   0.0000000000E+00   0.1122750000E-02   0.0000000000E+00   0.0000000000E+00  -0.3810251124E-01   0.1250000002E+01   0.1127990582E-11   0.1127874894E-11   0.8425301274E-17   0.1241676386E-14   0.3069574856E-15   0.7396452260E-01  -0.3697976130E-01  -0.3697976130E-01  -0.2745573002E-17  -0.2809671123E-16  -0.1867788402E-16   0.1250000002E+01
   0.1073964522E+01   0.0000000000E+00   0.9630202388E+00  -0.2250000000E-02   0.0000000000E+00   0.1122750000E-02   0.7621452249E-01   0.0000000000E+00  -0.3810251124E-01   0.1250000002E+01   0.1245299130E-12   0.1232436293E-12  -0.1680530273E-14   0.7890585908E-15   0.2340927455E-17   0.7396452259E-01  -0.3697976130E-01  -0.3697976130E-01  -0.2189870947E-16   0.1251233992E-15  -0.2043067090E-16   0.1250000002E+01
   0.1073964522E+01   0.9630202388E+00   0.9630202388E+00  -0.2250000000E-02   0.1122750000E-02   0.1122750000E-02   0.7621452249E-01  -0.3810251124E-01  -0.3810251124E-01   0.1250000002E+01  -0.7683903339E-12  -0.7655763017E-12   0.5450463160E-15   0.1202660892E-14   0.3182240320E-16   0.7396452259E-01  -0.3697976129E-01  -0.3697976129E-01   0.2892178159E-16   0.3730787867E-16   0.7579222582E-16   0.1250000002E+01
   0.0000000000E+00   0.9630202388E+00   0.9630202388E+00   0.0000000000E+00   0.1122750000E-02   0.1122750000E-02   0.0000000000E+00  -0.3810251124E-01  -0.3810251124E-01   0.1250000002E+01   0.2168500461E-12   0.2160692563E-12   0.1195909754E-14   0.2412758185E-15  -0.5036415699E-15   0.7396452259E-01  -0.3697976129E-01  -0.3697976129E-01   0.1282917209E-15   0.1584821227E-17  -0.5099579523E-16   0.1250000002E+01
   0.2147929045E+01   0.0000000000E+00  -0.3991650185E-16  -0.4500000000E-02   0.0000000000E+00   0.4770866981E-17   0.1524290450E+00   0.0000000000E+00  -0.4468736883E-16   0.1250000002E+01   0.1558275954E-11   0.1558731453E-11  -0.2338566979E-14  -0.1333288330E-14   0.1298603113E-15   0.7396452260E-01  -0.3697976130E-01  -0.3697976130E-01   0.1964045578E-15  -0.6141407163E-16  -0.1096112722E-16   0.1250000002E+01
   0.2147929045E+01   0.9630202388E+00  -0.4604469542E-16  -0.4500000000E-02   0.1122750000E-02   0.4646800271E-17   0.1524290450E+00  -0.3810251124E-01  -0.5069149569E-16   0.1250000002E+01   0.3833098438E-11   0.3831678772E-11   0.1349180497E-14  -0.1134659997E-14  -0.2605681271E-15   0.7396452259E-01  -0.3697976130E-01  -0.3697976130E-01   0.2171720399E-15  -0.1413670255E-15   0.3148584282E-16   0.1250000002E+01
   0.2147929045E+01   0.0000000000E+00   0.9630202388E+00  -0.4500000000E-02   0.0000000000E+00   0.1122750000E-02   0.1524290450E+00   0.0000000000E+00  -0.3810251124E-01   0.1250000002E+01   0.1045340436E-11   0.1046125905E-11  -0.3502756561E-15   0.2161322921E-14  -0.9360173835E-17   0.7396452259E-01  -0.3697976130E-01  -0.3697976130E-01   0.4650495480E-16  -0.1015660908E-15  -0.4274291859E-16   0.1250000002E+01
   0.2147929045E+01   0.9630202388E+00   0.9630202388E+00  -0.4500000000E-02   0.1122750000E-02   0.1122750000E-02   0.1524290450E+00  -0.3810251124E-01  -0.3810251124E-01   0.1250000002E+01  -0.1315886767E-11  -0.1316118788E-11   0.1466537769E-14   0.1551698033E-14   0.1312210500E-15   0.7396452258E-01  -0.3697976129E-01  -0.3697976129E-01   0.2862906522E-16  -0.1037331174E-15   0.2069801374E-16   0.1250000002E+01
     1     2     3     4     5     6     7     8
     2     9    10     3     6    11    12     7
 VARIABLES = X,Y,Z,DU1,DU2,DU3,U1,U2,U3,S11,S22,S33,S12,S13,S23,E11,E22,E33,E12,E13,E23,SMISES
 ZONE, T="0.5550D+01" F=FEPOINT, I=   12 J=    2 ET=BRICK
   0.0000000000E+00   0.0000000000E+00   0.0000000000E+00   0.0000000000E+00   0.0000000000E+00   0.0000000000E+00   0.0000000000E+00   0.0000000000E+00   0.0000000000E+00   0.1250000002E+00   0.1828950904E-13   0.1893981976E-13   0.2412310841E-16  -0.1196595172E-14  -0.2102226242E-15   0.7171452260E-01  -0.3585701130E-01  -0.3585701130E-01  -0.1433179022E-17  -0.1326138275E-16  -0.1463430312E-16   0.1250000002E+00
   0.1071714522E+01   0.0000000000E+00  -0.1778541549E-16  -0.2250000000E-02   0.0000000000E+00  -0.1353997957E-17   0.7396452249E-01   0.0000000000E+00  -0.1643141753E-16   0.1250000002E+00   0.2308247603E-12   0.2307933472E-12  -0.3613529515E-15  -0.6577004390E-15   0.4381996485E-17   0.7171452260E-01  -0.3585701130E-01  -0.3585701130E-01  -0.1715732798E-16   0.3949680544E-16  -0.9290293389E-17   0.1250000002E+00
   0.1071714522E+01   0.9641429888E+00  -0.2084309608E-16  -0.2250000000E-02   0.1122750000E-02  -0.1439633158E-17   0.7396452249E-01  -0.3697976124E-01  -0.1940346292E-16   0.1250000002E+00  -0.6028038034E-12  -0.6036735078E-12   0.1187826766E-14  -0.1702787160E-14   0.2018155233E-15   0.7171452259E-01  -0.3585701130E-01  -0.3585701130E-01  -0.1876858944E-16   0.6836799078E-16   0.8548609142E-16   0.1250000002E+00
   0.0000000000E+00   0.9641429888E+00  -0.2114123398E-17   0.0000000000E+00   0.1122750000E-02  -0.4194929506E-18   0.0000000000E+00  -0.3697976124E-01  -0.1694630447E-17   0.1250000002E+00  -0.5161349201E-11  -0.5161449268E-11   0.9633263274E-15  -0.2926244773E-15  -0.6274518190E-16   0.7171452259E-01  -0.3585701130E-01  -0.3585701130E-01  -0.2664864768E-17  -0.2878164562E-16  -0.1476094320E-16   0.1250000002E+00
   0.0000000000E+00   0.0000000000E+00   0.9641429888E+00   0.0000000000E+00   0.0000000000E+00   0.1122750000E-02   0.0000000000E+00   0.0000000000E+00  -0.3697976124E-01   0.1250000002E+00   0.1246616167E-11   0.1246247320E-11   0.5496614945E-17   0.1084814558E-14   0.2557312749E-15   0.7171452259E-01  -0.3585701130E-01  -0.3585701130E-01  -0.5221125514E-17  -0.2773314144E-16   0.4473561100E-17   0.1250000002E+00
   0.1071714522E+01   0.0000000000E+00   0.9641429888E+00  -0.2250000000E-02   0.0000000000E+00   0.1122750000E-02   0.7396452249E-01   0.0000000000E+00  -0.3697976124E-01   0.1250000002E+00   0.1679435266E-12   0.1666103931E-12  -0.1538931377E-14   0.8384614912E-15  -0.1902026009E-17   0.7171452259E-01  -0.3585701130E-01  -0.3585701130E-01  -0.2075571061E-16   0.1092672867E-15  -0.2048044512E-17   0.1250000002E+00
   0.1071714522E+01   0.9641429888E+00   0.9641429888E+00  -0.2250000000E-02   0.1122750000E-02   0.1122750000E-02   0.7396452249E-01  -0.3697976124E-01  -0.3697976124E-01   0.1250000002E+00  -0.7447357978E-12  -0.7419694205E-12   0.6248053723E-15   0.1379119319E-14  -0.6691402131E-17   0.7171452258E-01  -0.3585701129E-01  -0.3585701129E-01   0.1177688739E-16   0.6314597695E-16   0.5538658952E-16   0.1250000002E+00
   0.0000000000E+00   0.9641429888E+00   0.9641429888E+00   0.0000000000E+00   0.1122750000E-02   0.1122750000E-02   0.0000000000E+00  -0.3697976124E-01  -0.3697976124E-01   0.1250000002E+00   0.4391155781E-12   0.4380820319E-12   0.1013736589E-14   0.6910100244E-16  -0.3850671476E-15   0.7171452258E-01  -0.3585701129E-01  -0.3585701129E-01   0.1367594156E-15  -0.2819689207E-16  -0.4602854589E-16   0.1250000002E+00
   0.2143429045E+01   0.0000000000E+00  -0.4399942268E-16  -0.4500000000E-02   0.0000000000E+00  -0.4082920826E-17   0.1479290450E+00   0.0000000000E+00  -0.3991650185E-16   0.1250000002E+00   0.1753463186E-11   0.1754049010E-11  -0.2465094575E-14  -0.9174965400E-15   0.5311823291E-16   0.7171452260E-01  -0.3585701130E-01  -0.3585701130E-01   0.1619823632E-15  -0.5246621123E-16  -0.1505145111E-16   0.1250000002E+00
   0.2143429045E+01   0.9641429888E+00  -0.5056329853E-16  -0.4500000000E-02   0.1122750000E-02  -0.4518603109E-17   0.1479290450E+00  -0.3697976124E-01  -0.4604469542E-16   0.1250000002E+00   0.3749683949E-11   0.3748373685E-11   0.1324120838E-14  -0.1534510484E-14  -0.2571813843E-15   0.7171452259E-01  -0.3585701129E-01  -0.3585701129E-01   0.2232134262E-15  -0.2072864896E-15   0.3895809389E-16   0.1250000002E+00
   0.2143429045E+01   0.0000000000E+00   0.9641429888E+00  -0.4500000000E-02   0.0000000000E+00   0.1122750000E-02   0.1479290450E+00   0.0000000000E+00  -0.3697976124E-01   0.1250000002E+00   0.1150482611E-11   0.1151137169E-11  -0.4261040062E-15   0.1682137359E-14  -0.6755653990E-16   0.7171452259E-01  -0.3585701129E-01  -0.3585701129E-01   0.4599208845E-16   0.7821514802E-16  -0.5430389721E-16   0.1250000002E+00
   0.2143429045E+01   0.9641429888E+00   0.9641429888E+00  -0.4500000000E-02   0.1122750000E-02   0.1122750000E-02   0.1479290450E+00  -0.3697976124E-01  -0.3697976124E-01   0.1250000002E+00  -0.1354187056E-11  -0.1354544381E-11   0.1372080927E-14   0.1436297549E-14   0.3150008412E-15   0.7171452258E-01  -0.3585701129E-01  -0.3585701129E-01   0.8637193846E-17  -0.1629863969E-15   0.2039662009E-16   0.1250000002E+00
     1     2     3     4     5     6     7     8
     2     9    10     3     6    11    12     7
 VARIABLES = X,Y,Z,DU1,DU2,DU3,U1,U2,U3,S11,S22,S33,S12,S13,S23,E11,E22,E33,E12,E13,E23,SMISES
 ZONE, T="0.5600D+01" F=FEPOINT, I=   12 J=    2 ET=BRICK
   0.0000000000E+00   0.0000000000E+00   0.0000000000E+00   0.0000000000E+00   0.0000000000E+00   0.0000000000E+00   0.0000000000E+00   0.0000000000E+00   0.0000000000E+00  -0.1000000002E+01   0.9609700114E-13   0.9680017370E-13   0.2271738770E-16  -0.1078673852E-14  -0.2040905253E-15   0.6946452260E-01  -0.3473426130E-01  -0.3473426130E-01   0.7023647177E-18  -0.2286637646E-16  -0.7116959055E-18   0.1000000002E+01
   0.1069464522E+01   0.0000000000E+00  -0.1715552651E-16  -0.2250000000E-02   0.0000000000E+00   0.6298889796E-18   0.7171452249E-01   0.0000000000E+00  -0.1778541549E-16  -0.1000000002E+01   0.2218506536E-12   0.2217721995E-12  -0.4167946568E-15  -0.7576948211E-15  -0.9795658752E-17   0.6946452260E-01  -0.3473426130E-01  -0.3473426130E-01  -0.3157322250E-16   0.2824722841E-16  -0.7773060645E-17   0.1000000002E+01
   0.1069464522E+01   0.9652657388E+00  -0.2034727107E-16  -0.2250000000E-02   0.1122750000E-02   0.4958250066E-18   0.7171452249E-01  -0.3585701124E-01  -0.2084309608E-16  -0.1000000001E+01  -0.6101379862E-12  -0.6109697547E-12   0.1080557735E-14  -0.1842991203E-14   0.1164845701E-15   0.6946452259E-01  -0.3473426129E-01  -0.3473426129E-01  -0.4400828968E-17   0.1004883419E-15   0.7269714876E-16   0.1000000001E+01
   0.0000000000E+00   0.9652657388E+00  -0.2220225237E-17   0.0000000000E+00   0.1122750000E-02  -0.1061018399E-18   0.0000000000E+00  -0.3585701124E-01  -0.2114123398E-17  -0.1000000001E+01  -0.5074406407E-11  -0.5074465623E-11   0.9365263019E-15  -0.1828074341E-15  -0.1473882438E-15   0.6946452259E-01  -0.3473426129E-01  -0.3473426129E-01  -0.5721232580E-17  -0.3788807307E-16  -0.3438003277E-16   0.1000000001E+01
   0.0000000000E+00   0.0000000000E+00   0.9652657388E+00   0.0000000000E+00   0.0000000000E+00   0.1122750000E-02   0.0000000000E+00   0.0000000000E+00  -0.3585701124E-01  -0.1000000001E+01   0.1237101513E-11   0.1236888814E-11  -0.2017605055E-16   0.1106542893E-14   0.2824454955E-15   0.6946452259E-01  -0.3473426129E-01  -0.3473426129E-01  -0.2425237710E-17  -0.4520689992E-16  -0.2901382838E-16   0.1000000001E+01
   0.1069464522E+01   0.0000000000E+00   0.9652657388E+00  -0.2250000000E-02   0.0000000000E+00   0.1122750000E-02   0.7171452249E-01   0.0000000000E+00  -0.3585701124E-01  -0.1000000001E+01   0.1263173259E-12   0.1249718124E-12  -0.1563095520E-14   0.7881015899E-15   0.1443280353E-16   0.6946452259E-01  -0.3473426129E-01  -0.3473426129E-01  -0.2037752678E-16   0.9022646243E-16  -0.2581827611E-16   0.1000000001E+01
   0.1069464522E+01   0.9652657388E+00   0.9652657388E+00  -0.2250000000E-02   0.1122750000E-02   0.1122750000E-02   0.7171452249E-01  -0.3585701124E-01  -0.3585701124E-01  -0.1000000001E+01  -0.7308538880E-12  -0.7279278372E-12   0.5584727588E-15   0.1374698294E-14  -0.1563368111E-17   0.6946452258E-01  -0.3473426129E-01  -0.3473426129E-01  -0.2727742562E-17   0.8746929451E-16   0.8272004597E-16   0.1000000001E+01
   0.0000000000E+00   0.9652657388E+00   0.9652657388E+00   0.0000000000E+00   0.1122750000E-02   0.1122750000E-02   0.0000000000E+00  -0.3585701124E-01  -0.3585701124E-01  -0.1000000001E+01   0.4117361481E-12   0.4108032008E-12   0.9592867029E-15   0.1151010263E-15  -0.4427447199E-15   0.6946452258E-01  -0.3473426129E-01  -0.3473426129E-01   0.1561585360E-15  -0.6201628385E-16  -0.3211789330E-16   0.1000000001E+01
   0.2138929045E+01   0.0000000000E+00  -0.4373836380E-16  -0.4500000000E-02   0.0000000000E+00   0.2610588779E-18   0.1434290450E+00   0.0000000000E+00  -0.4399942268E-16  -0.1000000002E+01   0.1860020775E-11   0.1860987261E-11  -0.2511859997E-14  -0.7740313695E-15   0.1712078667E-15   0.6946452259E-01  -0.3473426130E-01  -0.3473426130E-01   0.1843401893E-15   0.1235308377E-16  -0.1628516066E-16   0.1000000002E+01
   0.2138929045E+01   0.9652657388E+00  -0.4947326162E-16  -0.4500000000E-02   0.1122750000E-02   0.1090036908E-17   0.1434290450E+00  -0.3585701124E-01  -0.5056329853E-16  -0.1000000001E+01   0.3579404624E-11   0.3577686220E-11   0.1343299376E-14  -0.1517024273E-14  -0.8198071832E-16   0.6946452259E-01  -0.3473426129E-01  -0.3473426129E-01   0.2013811892E-15  -0.2815541369E-15   0.3588822195E-16   0.1000000001E+01
   0.2138929045E+01   0.0000000000E+00   0.9652657388E+00  -0.4500000000E-02   0.0000000000E+00   0.1122750000E-02   0.1434290450E+00   0.0000000000E+00  -0.3585701124E-01  -0.1000000001E+01   0.1332733618E-11   0.1333638409E-11  -0.6345457488E-15   0.1871873632E-14  -0.1123572100E-15   0.6946452259E-01  -0.3473426129E-01  -0.3473426129E-01   0.4497222388E-16  -0.1991385895E-16  -0.4402387599E-16   0.1000000001E+01
   0.2138929045E+01   0.9652657388E+00   0.9652657388E+00  -0.4500000000E-02   0.1122750000E-02   0.1122750000E-02   0.1434290450E+00  -0.3585701124E-01  -0.3585701124E-01  -0.1000000001E+01  -0.1313099068E-11  -0.1313813325E-11   0.1275784559E-14   0.1399325135E-14   0.1941944507E-15   0.6946452258E-01  -0.3473426129E-01  -0.3473426129E-01  -0.5351800212E-17  -0.1634449952E-15   0.2358083879E-16   0.1000000001E+01
     1     2     3     4     5     6     7     8
     2     9    10     3     6    11    12     7
 VARIABLES = X,Y,Z,DU1,DU2,DU3,U1,U2,U3,S11,S22,S33,S12,S13,S23,E11,E22,E33,E12,E13,E23,SMISES
 ZONE, T="0.5650D+01" F=FEPOINT, I=   12 J=    2 ET=BRICK
   0.0000000000E+00   0.0000000000E+00   0.0000000000E+00   0.0000000000E+00   0.0000000000E+00   0.0000000000E+00   0.0000000000E+00   0.0000000000E+00   0.0000000000E+00  -0.2125000003E+01   0.1164788687E-12   0.1174112071E-12   0.1726062046E-16  -0.9749262658E-15  -0.1866322609E-15   0.6721452259E-01  -0.3361151130E-01  -0.3361151130E-01   0.8246509077E-17  -0.2086209445E-16  -0.3582616549E-17   0.2125000003E+01
   0.1067214522E+01   0.0000000000E+00  -0.1672017762E-16  -0.2250000000E-02   0.0000000000E+00   0.4353488922E-18   0.6946452249E-01   0.0000000000E+00  -0.1715552651E-16  -0.2125000003E+01   0.2025388480E-12   0.2024312772E-12  -0.5632631546E-15  -0.8979710789E-15  -0.4467844812E-16   0.6721452259E-01  -0.3361151130E-01  -0.3361151130E-01  -0.4534997393E-16   0.5715643773E-16   0.1225949514E-17   0.2125000003E+01
   0.1067214522E+01   0.9663884888E+00  -0.2015067488E-16  -0.2250000000E-02   0.1122750000E-02   0.1965961936E-18   0.6946452249E-01  -0.3473426124E-01  -0.2034727107E-16  -0.2125000003E+01  -0.6309276237E-12  -0.6316026533E-12   0.1036192074E-14  -0.1843538613E-14   0.1218577160E-15   0.6721452258E-01  -0.3361151129E-01  -0.3361151129E-01  -0.3232325401E-16   0.4445301959E-16   0.6364154117E-16   0.2125000003E+01
   0.0000000000E+00   0.9663884888E+00  -0.1982895644E-17   0.0000000000E+00   0.1122750000E-02   0.2373295938E-18   0.0000000000E+00  -0.3473426124E-01  -0.2220225237E-17  -0.2125000003E+01  -0.5043638326E-11  -0.5043439393E-11   0.9330301522E-15  -0.2054156516E-15  -0.4578778486E-16   0.6721452259E-01  -0.3361151129E-01  -0.3361151129E-01   0.4389722847E-17  -0.3348192042E-16  -0.1502004685E-16   0.2125000003E+01
   0.0000000000E+00   0.0000000000E+00   0.9663884888E+00   0.0000000000E+00   0.0000000000E+00   0.1122750000E-02   0.0000000000E+00   0.0000000000E+00  -0.3473426124E-01  -0.2125000003E+01   0.1257418571E-11   0.1257081786E-11   0.5428330198E-17   0.1084337036E-14   0.3672777433E-15   0.6721452259E-01  -0.3361151129E-01  -0.3361151129E-01  -0.5283266324E-17  -0.6224037423E-16  -0.2892027556E-16   0.2125000003E+01
   0.1067214522E+01   0.0000000000E+00   0.9663884888E+00  -0.2250000000E-02   0.0000000000E+00   0.1122750000E-02   0.6946452249E-01   0.0000000000E+00  -0.3473426124E-01  -0.2125000003E+01   0.3332315188E-13   0.3174506989E-13  -0.1611059583E-14   0.7420745524E-15   0.5156366347E-16   0.6721452258E-01  -0.3361151129E-01  -0.3361151129E-01  -0.1892110283E-16   0.8651775915E-16  -0.1830501238E-16   0.2125000003E+01
   0.1067214522E+01   0.9663884888E+00   0.9663884888E+00  -0.2250000000E-02   0.1122750000E-02   0.1122750000E-02   0.6946452249E-01  -0.3473426124E-01  -0.3473426124E-01  -0.2125000003E+01  -0.7171705981E-12  -0.7141775159E-12   0.4497625000E-15   0.1343335356E-14   0.1444630112E-15   0.6721452258E-01  -0.3361151129E-01  -0.3361151129E-01   0.1195439679E-16   0.7848326352E-16   0.6271167759E-16   0.2125000003E+01
   0.0000000000E+00   0.9663884888E+00   0.9663884888E+00   0.0000000000E+00   0.1122750000E-02   0.1122750000E-02   0.0000000000E+00  -0.3473426124E-01  -0.3473426124E-01  -0.2125000003E+01   0.3886502185E-12   0.3876708740E-12   0.1080215325E-14   0.2088789323E-15  -0.4814059807E-15   0.6721452258E-01  -0.3361151129E-01  -0.3361151129E-01   0.1495891790E-15  -0.3301733682E-16  -0.7629715088E-16   0.2125000003E+01
   0.2134429045E+01   0.0000000000E+00  -0.4296755979E-16  -0.4500000000E-02   0.0000000000E+00   0.7708040043E-18   0.1389290450E+00   0.0000000000E+00  -0.4373836380E-16  -0.2125000003E+01   0.1898397851E-11   0.1899028864E-11  -0.2652869289E-14  -0.8647810478E-15   0.1193489490E-15   0.6721452259E-01  -0.3361151130E-01  -0.3361151130E-01   0.1844149115E-15  -0.1042597573E-15  -0.8798176565E-17   0.2125000003E+01
   0.2134429045E+01   0.9663884888E+00  -0.4908098356E-16  -0.4500000000E-02   0.1122750000E-02   0.3922780578E-18   0.1389290450E+00  -0.3473426124E-01  -0.4947326162E-16  -0.2125000003E+01   0.3549800525E-11   0.3547983798E-11   0.1342693304E-14  -0.1410294432E-14  -0.2804543305E-15   0.6721452258E-01  -0.3361151129E-01  -0.3361151129E-01   0.2064245941E-15  -0.8246684151E-16   0.2773791961E-16   0.2125000003E+01
   0.2134429045E+01   0.0000000000E+00   0.9663884888E+00  -0.4500000000E-02   0.0000000000E+00   0.1122750000E-02   0.1389290450E+00   0.0000000000E+00  -0.3473426124E-01  -0.2125000003E+01   0.1114548504E-11   0.1115458192E-11  -0.2595033379E-15   0.1421063018E-14  -0.7683398191E-16   0.6721452258E-01  -0.3361151129E-01  -0.3361151129E-01   0.4985971749E-16  -0.3755837471E-16  -0.4676904807E-16   0.2125000003E+01
   0.2134429045E+01   0.9663884888E+00   0.9663884888E+00  -0.4500000000E-02   0.1122750000E-02   0.1122750000E-02   0.1389290450E+00  -0.3473426124E-01  -0.3473426124E-01  -0.2125000003E+01  -0.1328300231E-11  -0.1328882102E-11   0.1536490517E-14   0.1663531326E-14   0.9921325450E-16   0.6721452257E-01  -0.3361151129E-01  -0.3361151129E-01  -0.2031788226E-16  -0.1599581533E-15   0.2769819921E-16   0.2125000003E+01
     1     2     3     4     5     6     7     8
     2     9    10     3     6    11    12     7
 VARIABLES = X,Y,Z,DU1,DU2,DU3,U1,U2,U3,S11,S22,S33,S12,S13,S23,E11,E22,E33,E12,E13,E23,SMISES
 ZONE, T="0.5700D+01" F=FEPOINT, I=   12 J=    2 ET=BRICK
   0.0000000000E+00   0.0000000000E+00   0.0000000000E+00   0.0000000000E+00   0.0000000000E+00   0.0000000000E+00   0.0000000000E+00   0.0000000000E+00   0.0000000000E+00  -0.3250000005E+01  -0.3268605431E-12  -0.3258384973E-12   0.3055155382E-16  -0.1359392650E-14  -0.3904238340E-15   0.6496452259E-01  -0.3248876130E-01  -0.3248876130E-01  -0.1187655698E-16  -0.3996030249E-16  -0.2374025986E-16   0.3250000005E+01
   0.1064964522E+01   0.0000000000E+00  -0.1971959864E-16  -0.2250000000E-02   0.0000000000E+00  -0.2999421025E-17   0.6721452249E-01   0.0000000000E+00  -0.1672017762E-16  -0.3250000005E+01   0.1654509257E-12   0.1655837252E-12  -0.1279784486E-15  -0.6638900360E-15   0.1502532314E-15   0.6496452259E-01  -0.3248876129E-01  -0.3248876129E-01  -0.1803386404E-17   0.1011304590E-15  -0.5008065094E-17   0.3250000005E+01
   0.1064964522E+01   0.9675112388E+00  -0.2217676853E-16  -0.2250000000E-02   0.1122750000E-02  -0.2026093649E-17   0.6721452249E-01  -0.3361151124E-01  -0.2015067488E-16  -0.3250000005E+01  -0.1002465024E-11  -0.1002960639E-11   0.1473060060E-14  -0.2152180545E-14   0.3511698193E-15   0.6496452258E-01  -0.3248876129E-01  -0.3248876129E-01  -0.1355476094E-16   0.2120498315E-16   0.8772327215E-16   0.3250000005E+01
   0.0000000000E+00   0.9675112388E+00  -0.3106173460E-17   0.0000000000E+00   0.1122750000E-02  -0.1123277817E-17   0.0000000000E+00  -0.3361151124E-01  -0.1982895644E-17  -0.3250000005E+01  -0.4965743838E-11  -0.4965341454E-11   0.7378581565E-15  -0.1112867795E-15  -0.2450081957E-15   0.6496452258E-01  -0.3248876129E-01  -0.3248876129E-01  -0.8363482192E-19  -0.7096033828E-17  -0.2831724475E-16   0.3250000005E+01
   0.0000000000E+00   0.0000000000E+00   0.9675112388E+00   0.0000000000E+00   0.0000000000E+00   0.1122750000E-02   0.0000000000E+00   0.0000000000E+00  -0.3361151124E-01  -0.3250000005E+01   0.1481346435E-11   0.1480972731E-11   0.1046564160E-16   0.9129437913E-15   0.3276759969E-15   0.6496452258E-01  -0.3248876129E-01  -0.3248876129E-01   0.1903728896E-17  -0.5564715959E-16   0.2010355578E-16   0.3250000005E+01
   0.1064964522E+01   0.0000000000E+00   0.9675112388E+00  -0.2250000000E-02   0.0000000000E+00   0.1122750000E-02   0.6721452249E-01   0.0000000000E+00  -0.3361151124E-01  -0.3250000005E+01   0.2733217249E-12   0.2718269096E-12  -0.1784423187E-14   0.1092564040E-14  -0.1308879689E-15   0.6496452258E-01  -0.3248876129E-01  -0.3248876129E-01  -0.3147471682E-16   0.8931661126E-16  -0.4709852249E-17   0.3250000005E+01
   0.1064964522E+01   0.9675112388E+00   0.9675112388E+00  -0.2250000000E-02   0.1122750000E-02   0.1122750000E-02   0.6721452249E-01  -0.3361151124E-01  -0.3361151124E-01  -0.3250000004E+01  -0.5952499566E-12  -0.5924010966E-12   0.3572212215E-15   0.9289396189E-15   0.1061799883E-15   0.6496452257E-01  -0.3248876129E-01  -0.3248876129E-01   0.5018553025E-17   0.7555986678E-16   0.4595064384E-16   0.3250000004E+01
   0.0000000000E+00   0.9675112388E+00   0.9675112388E+00   0.0000000000E+00   0.1122750000E-02   0.1122750000E-02   0.0000000000E+00  -0.3361151124E-01  -0.3361151124E-01  -0.3250000004E+01   0.5391211177E-12   0.5379078437E-12   0.1013388119E-14   0.1416062371E-16  -0.4813165685E-15   0.6496452258E-01  -0.3248876129E-01  -0.3248876129E-01   0.1429437702E-15  -0.5326748330E-16  -0.5587013520E-16   0.3250000004E+01
   0.2129929045E+01   0.0000000000E+00  -0.5166881649E-16  -0.4500000000E-02   0.0000000000E+00  -0.8701256692E-17   0.1344290450E+00   0.0000000000E+00  -0.4296755979E-16  -0.3250000005E+01   0.2273866317E-11   0.2274696067E-11  -0.3458108609E-14  -0.8365202168E-15   0.1013145787E-15   0.6496452259E-01  -0.3248876129E-01  -0.3248876129E-01   0.1601600670E-15  -0.1015912438E-15  -0.2171616779E-16   0.3250000005E+01
   0.2129929045E+01   0.9675112388E+00  -0.5789596727E-16  -0.4500000000E-02   0.1122750000E-02  -0.8814983710E-17   0.1344290450E+00  -0.3361151124E-01  -0.4908098356E-16  -0.3250000005E+01   0.2951385771E-11   0.2949532126E-11   0.6696762634E-15  -0.1037379834E-14  -0.2090609470E-15   0.6496452258E-01  -0.3248876129E-01  -0.3248876129E-01   0.2086540685E-15  -0.1297802718E-15   0.3148959154E-16   0.3250000005E+01
   0.2129929045E+01   0.0000000000E+00   0.9675112388E+00  -0.4500000000E-02   0.0000000000E+00   0.1122750000E-02   0.1344290450E+00   0.0000000000E+00  -0.3361151124E-01  -0.3250000005E+01   0.1429969561E-11   0.1430890405E-11  -0.1962946314E-15   0.1017427601E-14  -0.2743530774E-15   0.6496452258E-01  -0.3248876129E-01  -0.3248876129E-01   0.5161878188E-16  -0.1867741653E-16  -0.4131085052E-16   0.3250000005E+01
   0.2129929045E+01   0.9675112388E+00   0.9675112388E+00  -0.4500000000E-02   0.1122750000E-02   0.1122750000E-02   0.1344290450E+00  -0.3361151124E-01  -0.3361151124E-01  -0.3250000004E+01  -0.9581746601E-12  -0.9590033417E-12   0.1888876240E-14   0.2595972126E-14   0.3478000113E-16   0.6496452257E-01  -0.3248876129E-01  -0.3248876129E-01  -0.6305393225E-17  -0.2027697499E-15   0.2252969832E-16   0.3250000004E+01
     1     2     3     4     5     6     7     8
     2     9    10     3     6    11    12     7
 VARIABLES = X,Y,Z,DU1,DU2,DU3,U1,U2,U3,S11,S22,S33,S12,S13,S23,E11,E22,E33,E12,E13,E23,SMISES
 ZONE, T="0.5750D+01" F=FEPOINT, I=   12 J=    2 ET=BRICK
   0.0000000000E+00   0.0000000000E+00   0.0000000000E+00   0.0000000000E+00   0.0000000000E+00   0.0000000000E+00   0.0000000000E+00   0.0000000000E+00   0.0000000000E+00  -0.4375000007E+01   0.3630647715E-12   0.3642181580E-12   0.3351999755E-16  -0.8552768396E-15  -0.2969502046E-15   0.6271452259E-01  -0.3136601129E-01  -0.3136601129E-01  -0.3408909281E-17  -0.9276231506E-17   0.1000004121E-16   0.4375000007E+01
   0.1062714522E+01   0.0000000000E+00  -0.1547860294E-16  -0.2250000000E-02   0.0000000000E+00   0.4240995702E-17   0.6496452249E-01   0.0000000000E+00  -0.1971959864E-16  -0.4375000007E+01   0.2961699344E-12   0.2957773708E-12  -0.9369261129E-15  -0.1336314450E-14   0.1677404064E-15   0.6271452259E-01  -0.3136601129E-01  -0.3136601129E-01  -0.2715506085E-16   0.2581279578E-18  -0.7121495575E-17   0.4375000007E+01
   0.1062714522E+01   0.9686339888E+00  -0.1795626190E-16  -0.2250000000E-02   0.1122750000E-02   0.4220506629E-17   0.6496452249E-01  -0.3248876124E-01  -0.2217676853E-16  -0.4375000006E+01  -0.6366024382E-12  -0.6371684382E-12   0.6942927060E-15  -0.1732879430E-14   0.1120786851E-15   0.6271452258E-01  -0.3136601129E-01  -0.3136601129E-01  -0.2174219966E-16   0.7853037693E-16   0.8213466495E-16   0.4375000006E+01
   0.0000000000E+00   0.9686339888E+00  -0.2515243069E-17   0.0000000000E+00   0.1122750000E-02   0.5909303910E-18   0.0000000000E+00  -0.3248876124E-01  -0.3106173460E-17  -0.4375000006E+01  -0.4892688246E-11  -0.4892215477E-11   0.8415667803E-15   0.2383492338E-15  -0.8640523590E-16   0.6271452258E-01  -0.3136601129E-01  -0.3136601129E-01  -0.2184654294E-16  -0.2851696276E-16  -0.3842082455E-16   0.4375000006E+01
   0.0000000000E+00   0.0000000000E+00   0.9686339888E+00   0.0000000000E+00   0.0000000000E+00   0.1122750000E-02   0.0000000000E+00   0.0000000000E+00  -0.3248876124E-01  -0.4375000006E+01   0.9922403524E-12   0.9918056930E-12   0.1534815395E-16   0.1280657972E-14   0.4492921588E-15   0.6271452258E-01  -0.3136601129E-01  -0.3136601129E-01   0.7012943697E-17  -0.4255123981E-16  -0.3086324619E-16   0.4375000006E+01
   0.1062714522E+01   0.0000000000E+00   0.9686339888E+00  -0.2250000000E-02   0.0000000000E+00   0.1122750000E-02   0.6496452249E-01   0.0000000000E+00  -0.3248876124E-01  -0.4375000006E+01   0.1085846219E-12   0.1072821028E-12  -0.1451662910E-14   0.3775526360E-15  -0.9320786264E-16   0.6271452258E-01  -0.3136601129E-01  -0.3136601129E-01  -0.4907975421E-16   0.8118273579E-16  -0.1054194629E-16   0.4375000006E+01
   0.1062714522E+01   0.9686339888E+00   0.9686339888E+00  -0.2250000000E-02   0.1122750000E-02   0.1122750000E-02   0.6496452249E-01  -0.3248876124E-01  -0.3248876124E-01  -0.4375000006E+01  -0.1065833305E-11  -0.1062914059E-11   0.6796568538E-15   0.1249760782E-14   0.2970649881E-17   0.6271452257E-01  -0.3136601129E-01  -0.3136601129E-01   0.2252369364E-16   0.8042776554E-16   0.9220703450E-16   0.4375000006E+01
   0.0000000000E+00   0.9686339888E+00   0.9686339888E+00   0.0000000000E+00   0.1122750000E-02   0.1122750000E-02   0.0000000000E+00  -0.3248876124E-01  -0.3248876124E-01  -0.4375000006E+01   0.5152022226E-12   0.5139443261E-12   0.7700453163E-15   0.3728741770E-15  -0.2900509290E-15   0.6271452257E-01  -0.3136601129E-01  -0.3136601129E-01   0.1391656801E-15  -0.5485698416E-16  -0.3568503385E-16   0.4375000006E+01
   0.2125429045E+01   0.0000000000E+00  -0.3859262204E-16  -0.4500000000E-02   0.0000000000E+00   0.1307619445E-16   0.1299290450E+00   0.0000000000E+00  -0.5166881649E-16  -0.4375000007E+01   0.1799243982E-11   0.1800467753E-11  -0.2992759939E-14  -0.1153314205E-15   0.2617063524E-15   0.6271452258E-01  -0.3136601129E-01  -0.3136601129E-01   0.1538940629E-15  -0.6200798019E-16  -0.1042868700E-16   0.4375000007E+01
   0.2125429045E+01   0.9686339888E+00  -0.4382594020E-16  -0.4500000000E-02   0.1122750000E-02   0.1407002706E-16   0.1299290450E+00  -0.3248876124E-01  -0.5789596727E-16  -0.4375000006E+01   0.3456494295E-11   0.3454185672E-11   0.1058260168E-14  -0.1427257508E-14  -0.8590618093E-16   0.6271452258E-01  -0.3136601129E-01  -0.3136601129E-01   0.2315441310E-15  -0.2104233192E-15   0.4939087523E-16   0.4375000006E+01
   0.2125429045E+01   0.0000000000E+00   0.9686339888E+00  -0.4500000000E-02   0.0000000000E+00   0.1122750000E-02   0.1299290450E+00   0.0000000000E+00  -0.3248876124E-01  -0.4375000006E+01   0.1869693429E-11   0.1870149866E-11  -0.1228238897E-14   0.1595000152E-14  -0.3382076564E-15   0.6271452258E-01  -0.3136601129E-01  -0.3136601129E-01   0.8816158419E-16  -0.1446781678E-16  -0.6988137363E-16   0.4375000006E+01
   0.2125429045E+01   0.9686339888E+00   0.9686339888E+00  -0.4500000000E-02   0.1122750000E-02   0.1122750000E-02   0.1299290450E+00  -0.3248876124E-01  -0.3248876124E-01  -0.4375000006E+01  -0.1705064042E-11  -0.1706129642E-11   0.1059833047E-14   0.1828725372E-14  -0.3821896104E-17   0.6271452257E-01  -0.3136601128E-01  -0.3136601128E-01   0.5211231829E-17  -0.2174524828E-15   0.2416869941E-16   0.4375000006E+01
     1     2     3     4     5     6     7     8
     2     9    10     3     6    11    12     7
 VARIABLES = X,Y,Z,DU1,DU2,DU3,U1,U2,U3,S11,S22,S33,S12,S13,S23,E11,E22,E33,E12,E13,E23,SMISES
 ZONE, T="0.5800D+01" F=FEPOINT, I=   12 J=    2 ET=BRICK
   0.0000000000E+00   0.0000000000E+00   0.0000000000E+00   0.0000000000E+00   0.0000000000E+00   0.0000000000E+00   0.0000000000E+00   0.0000000000E+00   0.0000000000E+00  -0.5500000009E+01   0.4068334090E-12   0.4076618952E-12   0.6570522771E-16  -0.1027391802E-14  -0.1391105141E-15   0.6046452258E-01  -0.3024326129E-01  -0.3024326129E-01   0.7525372454E-18  -0.2911395819E-16  -0.1068135817E-16   0.5500000009E+01
   0.1060464522E+01   0.0000000000E+00  -0.1510197209E-16  -0.2250000000E-02   0.0000000000E+00   0.3766308443E-18   0.6271452249E-01   0.0000000000E+00  -0.1547860294E-16  -0.5500000008E+01   0.7763456085E-12   0.7756740304E-12  -0.7881021917E-15  -0.1060450475E-14   0.5764214071E-15   0.6046452258E-01  -0.3024326129E-01  -0.3024326129E-01  -0.2467929758E-16   0.4601871918E-16  -0.3595931258E-17   0.5500000008E+01
   0.1060464522E+01   0.9697567388E+00  -0.1508953185E-16  -0.2250000000E-02   0.1122750000E-02   0.2866730050E-17   0.6271452249E-01  -0.3136601124E-01  -0.1795626190E-16  -0.5500000008E+01  -0.5474797406E-12  -0.5482286071E-12   0.8886465973E-15  -0.2004852293E-14   0.3969877057E-15   0.6046452258E-01  -0.3024326129E-01  -0.3024326129E-01  -0.1035991229E-16   0.7093180887E-16   0.9260631124E-16   0.5500000008E+01
   0.0000000000E+00   0.9697567388E+00  -0.1408802193E-17   0.0000000000E+00   0.1122750000E-02   0.1106440876E-17   0.0000000000E+00  -0.3136601124E-01  -0.2515243069E-17  -0.5500000008E+01  -0.4675955182E-11  -0.4676265742E-11   0.8160306825E-15   0.4318453437E-15  -0.4638695744E-15   0.6046452258E-01  -0.3024326129E-01  -0.3024326129E-01  -0.2934875224E-16  -0.3129959772E-16   0.6625068773E-17   0.5500000008E+01
   0.0000000000E+00   0.0000000000E+00   0.9697567388E+00   0.0000000000E+00   0.0000000000E+00   0.1122750000E-02   0.0000000000E+00   0.0000000000E+00  -0.3136601124E-01  -0.5500000008E+01   0.8519075544E-12   0.8521248840E-12   0.5274749093E-17   0.1252097045E-14   0.5782371591E-15   0.6046452258E-01  -0.3024326129E-01  -0.3024326129E-01  -0.2388142855E-17  -0.5063418570E-16  -0.1992510599E-16   0.5500000008E+01
   0.1060464522E+01   0.0000000000E+00   0.9697567388E+00  -0.2250000000E-02   0.0000000000E+00   0.1122750000E-02   0.6271452249E-01   0.0000000000E+00  -0.3136601124E-01  -0.5500000008E+01  -0.3786043751E-12  -0.3799867093E-12  -0.1667080120E-14   0.7988614598E-15   0.2514408569E-15   0.6046452258E-01  -0.3024326129E-01  -0.3024326129E-01  -0.3311776785E-17   0.8615856116E-16   0.4651526088E-17   0.5500000008E+01
   0.1060464522E+01   0.9697567388E+00   0.9697567388E+00  -0.2250000000E-02   0.1122750000E-02   0.1122750000E-02   0.6271452249E-01  -0.3136601124E-01  -0.3136601124E-01  -0.5500000007E+01  -0.9149879319E-12  -0.9121742645E-12   0.3856477188E-15   0.1238169298E-14   0.1228885198E-15   0.6046452257E-01  -0.3024326128E-01  -0.3024326128E-01   0.3663246744E-16   0.9828626746E-16   0.8060664898E-16   0.5500000007E+01
   0.0000000000E+00   0.9697567388E+00   0.9697567388E+00   0.0000000000E+00   0.1122750000E-02   0.1122750000E-02   0.0000000000E+00  -0.3136601124E-01  -0.3136601124E-01  -0.5500000007E+01  -0.1283691340E-12  -0.1295836714E-12   0.1413070441E-14   0.6837629982E-15  -0.7208495555E-15   0.6046452257E-01  -0.3024326128E-01  -0.3024326128E-01   0.1570995645E-15  -0.3987193130E-16  -0.7824210837E-16   0.5500000007E+01
   0.2120929045E+01   0.0000000000E+00  -0.3061270259E-16  -0.4500000000E-02   0.0000000000E+00   0.7979919453E-17   0.1254290450E+00   0.0000000000E+00  -0.3859262204E-16  -0.5500000008E+01   0.2713665502E-11   0.2714426130E-11  -0.4237829522E-14  -0.2012504350E-14   0.9010448330E-16   0.6046452258E-01  -0.3024326129E-01  -0.3024326129E-01   0.1436654160E-15  -0.1392901710E-15   0.3358929697E-17   0.5500000008E+01
   0.2120929045E+01   0.9697567388E+00  -0.3685650866E-16  -0.4500000000E-02   0.1122750000E-02   0.6969431548E-17   0.1254290450E+00  -0.3136601124E-01  -0.4382594020E-16  -0.5500000008E+01   0.3579535839E-11   0.3576504842E-11   0.9264919267E-17  -0.2036339098E-15  -0.1064537254E-14   0.6046452257E-01  -0.3024326129E-01  -0.3024326129E-01   0.2033550431E-15  -0.1695910733E-15   0.1233084045E-16   0.5500000008E+01
   0.2120929045E+01   0.0000000000E+00   0.9697567388E+00  -0.4500000000E-02   0.0000000000E+00   0.1122750000E-02   0.1254290450E+00   0.0000000000E+00  -0.3136601124E-01  -0.5500000008E+01   0.4364527437E-12   0.4376221247E-12   0.1350151933E-14  -0.3470628361E-15  -0.2888099477E-15   0.6046452257E-01  -0.3024326129E-01  -0.3024326129E-01   0.4558710592E-16   0.9242956306E-16  -0.5859185335E-16   0.5500000008E+01
   0.2120929045E+01   0.9697567388E+00   0.9697567388E+00  -0.4500000000E-02   0.1122750000E-02   0.1122750000E-02   0.1254290450E+00  -0.3136601124E-01  -0.3136601124E-01  -0.5500000007E+01  -0.1197614580E-11  -0.1197166310E-11   0.2763683231E-14   0.3386858102E-14  -0.6571170402E-15   0.6046452257E-01  -0.3024326128E-01  -0.3024326128E-01  -0.8696886385E-17  -0.2768059053E-15  -0.1603712927E-17   0.5500000007E+01
     1     2     3     4     5     6     7     8
     2     9    10     3     6    11    12     7
 VARIABLES = X,Y,Z,DU1,DU2,DU3,U1,U2,U3,S11,S22,S33,S12,S13,S23,E11,E22,E33,E12,E13,E23,SMISES
 ZONE, T="0.5850D+01" F=FEPOINT, I=   12 J=    2 ET=BRICK
   0.0000000000E+00   0.0000000000E+00   0.0000000000E+00   0.0000000000E+00   0.0000000000E+00   0.0000000000E+00   0.0000000000E+00   0.0000000000E+00   0.0000000000E+00  -0.6625000010E+01   0.1042316269E-12   0.1056952351E-12   0.1009618697E-15  -0.1107008403E-14  -0.4059541459E-15   0.5821452258E-01  -0.2912051129E-01  -0.2912051129E-01  -0.3703156189E-17  -0.3863218036E-16  -0.9776385649E-17   0.6625000010E+01
   0.1058214522E+01   0.0000000000E+00  -0.1848624048E-16  -0.2250000000E-02   0.0000000000E+00  -0.3384268385E-17   0.6046452249E-01   0.0000000000E+00  -0.1510197209E-16  -0.6625000010E+01  -0.1037352705E-12  -0.1046640858E-12  -0.9229120975E-15  -0.1475807699E-14  -0.7487713268E-16   0.5821452258E-01  -0.2912051129E-01  -0.2912051129E-01  -0.1294645295E-16   0.7956598171E-16  -0.1126292639E-16   0.6625000010E+01
   0.1058214522E+01   0.9708794888E+00  -0.2243940132E-16  -0.2250000000E-02   0.1122750000E-02  -0.7349869467E-17   0.6046452249E-01  -0.3024326124E-01  -0.1508953185E-16  -0.6625000009E+01  -0.2956925945E-12  -0.2960445210E-12   0.5808381093E-15  -0.1369093771E-14  -0.2198686750E-15   0.5821452257E-01  -0.2912051129E-01  -0.2912051129E-01  -0.1202130254E-16   0.4119394152E-16   0.9789320322E-16   0.6625000009E+01
   0.0000000000E+00   0.9708794888E+00  -0.2911089431E-17   0.0000000000E+00   0.1122750000E-02  -0.1502287238E-17   0.0000000000E+00  -0.3024326124E-01  -0.1408802193E-17  -0.6625000010E+01  -0.5373530604E-11  -0.5372290108E-11   0.1299110368E-14  -0.3469835718E-15   0.3672817141E-16   0.5821452257E-01  -0.2912051129E-01  -0.2912051129E-01  -0.2826744205E-16  -0.2092102412E-16  -0.4020855445E-16   0.6625000010E+01
   0.0000000000E+00   0.0000000000E+00   0.9708794888E+00   0.0000000000E+00   0.0000000000E+00   0.1122750000E-02   0.0000000000E+00   0.0000000000E+00  -0.3024326124E-01  -0.6625000010E+01   0.9494920778E-12   0.9480919516E-12  -0.1725269582E-16   0.1169604302E-14   0.6468268923E-15   0.5821452257E-01  -0.2912051129E-01  -0.2912051129E-01   0.2633680476E-17  -0.5385683230E-16  -0.1511759195E-16   0.6625000010E+01
   0.1058214522E+01   0.0000000000E+00   0.9708794888E+00  -0.2250000000E-02   0.0000000000E+00   0.1122750000E-02   0.6046452249E-01   0.0000000000E+00  -0.3024326124E-01  -0.6625000009E+01   0.3630046455E-12   0.3614989415E-12  -0.8153752347E-15   0.2681476262E-15  -0.2105612795E-15   0.5821452257E-01  -0.2912051129E-01  -0.2912051129E-01   0.2481213776E-17   0.7227518747E-16  -0.1251610897E-16   0.6625000009E+01
   0.1058214522E+01   0.9708794888E+00   0.9708794888E+00  -0.2250000000E-02   0.1122750000E-02   0.1122750000E-02   0.6046452249E-01  -0.3024326124E-01  -0.3024326124E-01  -0.6625000009E+01  -0.8823714104E-12  -0.8797257352E-12   0.9698879067E-15   0.1849290700E-14  -0.3719127218E-15   0.5821452257E-01  -0.2912051128E-01  -0.2912051128E-01   0.3995188363E-16   0.7766980348E-16   0.8443137688E-16   0.6625000009E+01
   0.0000000000E+00   0.9708794888E+00   0.9708794888E+00   0.0000000000E+00   0.1122750000E-02   0.1122750000E-02   0.0000000000E+00  -0.3024326124E-01  -0.3024326124E-01  -0.6625000009E+01   0.1144940381E-11   0.1142374521E-11   0.8299175974E-15  -0.2798995664E-15   0.1038520775E-15   0.5821452257E-01  -0.2912051128E-01  -0.2912051128E-01   0.1508229803E-15  -0.4085064663E-16  -0.4391094236E-16   0.6625000009E+01
   0.2116429045E+01   0.0000000000E+00  -0.4898706017E-16  -0.4500000000E-02   0.0000000000E+00  -0.1837435759E-16   0.1209290450E+00   0.0000000000E+00  -0.3061270259E-16  -0.6625000010E+01   0.6724128510E-12   0.6743176307E-12  -0.2407300711E-15   0.1451847587E-14   0.2446722420E-15   0.5821452258E-01  -0.2912051129E-01  -0.2912051129E-01   0.2105403349E-15   0.2423865399E-16  -0.5934958145E-17   0.6625000010E+01
   0.2116429045E+01   0.9708794888E+00  -0.5419805752E-16  -0.4500000000E-02   0.1122750000E-02  -0.1734154887E-16   0.1209290450E+00  -0.3024326124E-01  -0.3685650866E-16  -0.6625000009E+01   0.4413486336E-11   0.4411926580E-11   0.3076206043E-14  -0.2918367830E-14   0.4939557330E-16   0.5821452257E-01  -0.2912051129E-01  -0.2912051129E-01   0.2518166296E-15  -0.1750493076E-15   0.5387144654E-17   0.6625000009E+01
   0.2116429045E+01   0.0000000000E+00   0.9708794888E+00  -0.4500000000E-02   0.0000000000E+00   0.1122750000E-02   0.1209290450E+00   0.0000000000E+00  -0.3024326124E-01  -0.6625000009E+01   0.2000450557E-11   0.1999223868E-11  -0.1803281479E-14   0.2723384146E-14   0.2920190494E-15   0.5821452257E-01  -0.2912051129E-01  -0.2912051129E-01  -0.3484511867E-16   0.1600087046E-16  -0.2337064944E-16   0.6625000009E+01
   0.2116429045E+01   0.9708794888E+00   0.9708794888E+00  -0.4500000000E-02   0.1122750000E-02   0.1122750000E-02   0.1209290450E+00  -0.3024326124E-01  -0.3024326124E-01  -0.6625000008E+01  -0.2010833298E-11  -0.2009740476E-11   0.1641862158E-16   0.5770889007E-15   0.8187046207E-15   0.5821452256E-01  -0.2912051128E-01  -0.2912051128E-01  -0.4196489654E-16  -0.1346393955E-15   0.2126023451E-16   0.6625000008E+01
     1     2     3     4     5     6     7     8
     2     9    10     3     6    11    12     7
 VARIABLES = X,Y,Z,DU1,DU2,DU3,U1,U2,U3,S11,S22,S33,S12,S13,S23,E11,E22,E33,E12,E13,E23,SMISES
 ZONE, T="0.5900D+01" F=FEPOINT, I=   12 J=    2 ET=BRICK
   0.0000000000E+00   0.0000000000E+00   0.0000000000E+00   0.0000000000E+00   0.0000000000E+00   0.0000000000E+00   0.0000000000E+00   0.0000000000E+00   0.0000000000E+00  -0.7749966911E+01  -0.1655082727E-04  -0.1655082727E-04   0.1050132007E-15   0.4195767385E-15   0.1617323799E-17   0.5156058910E-01  -0.2579579455E-01  -0.2579579455E-01   0.5179030699E-17  -0.1767183567E-16   0.9846416857E-17   0.7749950360E+01
   0.1051560589E+01   0.0000000000E+00  -0.9924339678E-17  -0.6653933474E-02   0.0000000000E+00   0.8561900801E-17   0.5821452249E-01   0.0000000000E+00  -0.1848624048E-16  -0.7749966910E+01  -0.1655082802E-04  -0.1655082802E-04  -0.5635666381E-15  -0.1148983193E-14   0.1356916270E-15   0.5156058909E-01  -0.2579579455E-01  -0.2579579455E-01  -0.3021822407E-16   0.3229096198E-16  -0.1696670363E-16   0.7749950359E+01
   0.1051560589E+01   0.9742042055E+00  -0.1249582427E-16  -0.6653933474E-02   0.3324716737E-02   0.9943577046E-17   0.5821452249E-01  -0.2912051124E-01  -0.2243940132E-16  -0.7749966909E+01  -0.1655082821E-04  -0.1655082821E-04  -0.1611996847E-14   0.2129058020E-15   0.3330832417E-15   0.5156058909E-01  -0.2579579454E-01  -0.2579579454E-01  -0.4417720630E-16   0.8465533641E-16   0.1137886518E-15   0.7749950359E+01
   0.0000000000E+00   0.9742042055E+00  -0.1691218907E-18   0.0000000000E+00   0.3324716737E-02   0.2741967541E-17   0.0000000000E+00  -0.2912051124E-01  -0.2911089431E-17  -0.7749966910E+01  -0.1655083306E-04  -0.1655083305E-04  -0.2262942644E-15   0.8297862576E-15   0.2793751259E-15   0.5156058909E-01  -0.2579579455E-01  -0.2579579455E-01  -0.4713823111E-16  -0.1598594010E-16  -0.5131059273E-16   0.7749950359E+01
   0.0000000000E+00   0.0000000000E+00   0.9742042055E+00   0.0000000000E+00   0.0000000000E+00   0.3324716737E-02   0.0000000000E+00   0.0000000000E+00  -0.2912051124E-01  -0.7749966910E+01  -0.1655082701E-04  -0.1655082701E-04   0.1296982206E-17   0.1153314724E-15   0.4899840535E-15   0.5156058909E-01  -0.2579579455E-01  -0.2579579455E-01  -0.6123583204E-17  -0.8398391184E-16  -0.1813143566E-16   0.7749950359E+01
   0.1051560589E+01   0.0000000000E+00   0.9742042055E+00  -0.6653933474E-02   0.0000000000E+00   0.3324716737E-02   0.5821452249E-01   0.0000000000E+00  -0.2912051124E-01  -0.7749966909E+01  -0.1655082746E-04  -0.1655082746E-04   0.6447162392E-15  -0.1593434275E-14  -0.2268327404E-15   0.5156058909E-01  -0.2579579454E-01  -0.2579579454E-01   0.3989195283E-16   0.5748307795E-16  -0.2245473094E-17   0.7749950359E+01
   0.1051560589E+01   0.9742042055E+00   0.9742042055E+00  -0.6653933474E-02   0.3324716737E-02   0.3324716737E-02   0.5821452249E-01  -0.2912051124E-01  -0.2912051124E-01  -0.7749966908E+01  -0.1655082752E-04  -0.1655082752E-04  -0.1025707492E-15   0.1544650284E-15  -0.2173923626E-16   0.5156058908E-01  -0.2579579454E-01  -0.2579579454E-01   0.4405629535E-16   0.5885547490E-16   0.9546841899E-16   0.7749950358E+01
   0.0000000000E+00   0.9742042055E+00   0.9742042055E+00   0.0000000000E+00   0.3324716737E-02   0.3324716737E-02   0.0000000000E+00  -0.2912051124E-01  -0.2912051124E-01  -0.7749966909E+01  -0.1655082641E-04  -0.1655082641E-04  -0.7545071469E-16  -0.5682322774E-15  -0.1345764677E-15   0.5156058908E-01  -0.2579579454E-01  -0.2579579454E-01   0.1458037614E-15  -0.4394673401E-16  -0.4275903467E-16   0.7749950358E+01
   0.2103121178E+01   0.0000000000E+00  -0.3674771914E-16  -0.1330786695E-01   0.0000000000E+00   0.1223934104E-16   0.1164290450E+00   0.0000000000E+00  -0.4898706017E-16  -0.7749966910E+01  -0.1655082855E-04  -0.1655082855E-04   0.3309519011E-15   0.1309401365E-14   0.2406001440E-15   0.5156058909E-01  -0.2579579455E-01  -0.2579579455E-01   0.2210960132E-15  -0.2241470215E-16  -0.3457923949E-17   0.7749950359E+01
   0.2103121178E+01   0.9742042055E+00  -0.4150429278E-16  -0.1330786695E-01   0.3324716737E-02   0.1269376474E-16   0.1164290450E+00  -0.2912051124E-01  -0.5419805752E-16  -0.7749966909E+01  -0.1655082537E-04  -0.1655082537E-04  -0.7348910098E-16   0.1255503514E-14  -0.2564796505E-15   0.5156058909E-01  -0.2579579454E-01  -0.2579579454E-01   0.2036340725E-15  -0.1527506056E-15   0.1259665354E-16   0.7749950358E+01
   0.2103121178E+01   0.0000000000E+00   0.9742042055E+00  -0.1330786695E-01   0.0000000000E+00   0.3324716737E-02   0.1164290450E+00   0.0000000000E+00  -0.2912051124E-01  -0.7749966909E+01  -0.1655082701E-04  -0.1655082701E-04   0.2418554424E-14   0.2882683839E-15  -0.7086677175E-15   0.5156058909E-01  -0.2579579454E-01  -0.2579579454E-01   0.7185030248E-16   0.7649087379E-18  -0.3846934574E-16   0.7749950358E+01
   0.2103121178E+01   0.9742042055E+00   0.9742042055E+00  -0.1330786695E-01   0.3324716737E-02   0.3324716737E-02   0.1164290450E+00  -0.2912051124E-01  -0.2912051124E-01  -0.7749966908E+01  -0.1655082990E-04  -0.1655082990E-04   0.1829377244E-15   0.5691789468E-15  -0.5386000050E-15   0.5156058908E-01  -0.2579579454E-01  -0.2579579454E-01  -0.5558270670E-16  -0.2668077087E-15  -0.1010006423E-16   0.7749950357E+01
     1     2     3     4     5     6     7     8
     2     9    10     3     6    11    12     7
 VARIABLES = X,Y,Z,DU1,DU2,DU3,U1,U2,U3,S11,S22,S33,S12,S13,S23,E11,E22,E33,E12,E13,E23,SMISES
 ZONE, T="0.5950D+01" F=FEPOINT, I=   12 J=    2 ET=BRICK
   0.0000000000E+00   0.0000000000E+00   0.0000000000E+00   0.0000000000E+00   0.0000000000E+00   0.0000000000E+00   0.0000000000E+00   0.0000000000E+00   0.0000000000E+00  -0.8875012697E+01   0.6341590785E-05   0.6341590786E-05  -0.1065078457E-15   0.1129460418E-15  -0.9515223959E-15   0.2823185919E-01  -0.1413367959E-01  -0.1413367959E-01  -0.4499085064E-17  -0.1695726588E-16  -0.1505776492E-16   0.8875019039E+01
   0.1028231859E+01   0.0000000000E+00  -0.1809753951E-16  -0.2332872987E-01   0.0000000000E+00  -0.8173199832E-17   0.5156058902E-01   0.0000000000E+00  -0.9924339678E-17  -0.8875012697E+01   0.6341590494E-05   0.6341590493E-05   0.1954854510E-14  -0.1633679256E-14   0.2582746721E-15   0.2823185919E-01  -0.1413367959E-01  -0.1413367959E-01   0.1933351290E-16   0.2712950945E-16  -0.7063681648E-17   0.8875019038E+01
   0.1028231859E+01   0.9858663204E+00  -0.1870207053E-16  -0.2332872987E-01   0.1166211494E-01  -0.6206246258E-17   0.5156058902E-01  -0.2579579451E-01  -0.1249582427E-16  -0.8875012696E+01   0.6341590036E-05   0.6341590037E-05   0.7167312962E-15   0.3361907457E-15   0.1738040911E-17   0.2823185918E-01  -0.1413367959E-01  -0.1413367959E-01  -0.2943162306E-16   0.9131365927E-16   0.1036612048E-15   0.8875019037E+01
   0.0000000000E+00   0.9858663204E+00  -0.9316584995E-17   0.0000000000E+00   0.1166211494E-01  -0.9147463105E-17   0.0000000000E+00  -0.2579579451E-01  -0.1691218907E-18  -0.8875012696E+01   0.6341588070E-05   0.6341588071E-05  -0.1474675233E-14   0.1442049576E-14  -0.3520872441E-15   0.2823185918E-01  -0.1413367959E-01  -0.1413367959E-01  -0.6831018006E-16   0.8984700463E-17  -0.5099340001E-16   0.8875019038E+01
   0.0000000000E+00   0.0000000000E+00   0.9858663204E+00   0.0000000000E+00   0.0000000000E+00   0.1166211494E-01   0.0000000000E+00   0.0000000000E+00  -0.2579579451E-01  -0.8875012696E+01   0.6341591701E-05   0.6341591699E-05  -0.9148977170E-16  -0.3956383224E-15   0.6931890086E-15   0.2823185918E-01  -0.1413367959E-01  -0.1413367959E-01   0.6885735377E-17  -0.8952802066E-16   0.4288559272E-17   0.8875019038E+01
   0.1028231859E+01   0.0000000000E+00   0.9858663204E+00  -0.2332872987E-01   0.0000000000E+00   0.1166211494E-01   0.5156058902E-01   0.0000000000E+00  -0.2579579451E-01  -0.8875012696E+01   0.6341592619E-05   0.6341592619E-05   0.2170671741E-14  -0.9187554445E-15  -0.2246400776E-15   0.2823185918E-01  -0.1413367959E-01  -0.1413367959E-01   0.7907975569E-16  -0.4425402667E-17  -0.7984700060E-17   0.8875019037E+01
   0.1028231859E+01   0.9858663204E+00   0.9858663204E+00  -0.2332872987E-01   0.1166211494E-01   0.1166211494E-01   0.5156058902E-01  -0.2579579451E-01  -0.2579579451E-01  -0.8875012695E+01   0.6341592732E-05   0.6341592733E-05   0.5899013581E-16  -0.1206899728E-14  -0.1932591345E-15   0.2823185918E-01  -0.1413367959E-01  -0.1413367959E-01   0.7669288032E-16   0.6219836362E-16   0.6925314965E-16   0.8875019036E+01
   0.0000000000E+00   0.9858663204E+00   0.9858663204E+00   0.0000000000E+00   0.1166211494E-01   0.1166211494E-01   0.0000000000E+00  -0.2579579451E-01  -0.2579579451E-01  -0.8875012695E+01   0.6341596457E-05   0.6341596457E-05  -0.1875867390E-14  -0.1104906875E-14   0.7121728089E-15   0.2823185918E-01  -0.1413367959E-01  -0.1413367959E-01   0.8235679811E-16  -0.5641462495E-16  -0.7548292538E-16   0.8875019037E+01
   0.2056463718E+01   0.0000000000E+00  -0.7509338610E-16  -0.4665745974E-01   0.0000000000E+00  -0.3834566696E-16   0.1031211780E+00   0.0000000000E+00  -0.3674771914E-16  -0.8875012697E+01   0.6341590907E-05   0.6341590909E-05  -0.8092628989E-16   0.3073466646E-14   0.4609211295E-15   0.2823185919E-01  -0.1413367959E-01  -0.1413367959E-01   0.1765552133E-15  -0.5825099859E-16   0.1342488027E-17   0.8875019038E+01
   0.2056463718E+01   0.9858663204E+00  -0.7562863571E-16  -0.4665745974E-01   0.1166211494E-01  -0.3412434293E-16   0.1031211780E+00  -0.2579579451E-01  -0.4150429278E-16  -0.8875012696E+01   0.6341590913E-05   0.6341590911E-05  -0.1207061318E-14   0.1587282016E-14   0.7291521215E-17   0.2823185918E-01  -0.1413367959E-01  -0.1413367959E-01   0.1656259525E-15  -0.9745818179E-16   0.2326882994E-16   0.8875019037E+01
   0.2056463718E+01   0.0000000000E+00   0.9858663204E+00  -0.4665745974E-01   0.0000000000E+00   0.1166211494E-01   0.1031211780E+00   0.0000000000E+00  -0.2579579451E-01  -0.8875012696E+01   0.6341595789E-05   0.6341595790E-05  -0.2682352004E-15   0.2205909024E-14   0.1840853135E-15   0.2823185918E-01  -0.1413367959E-01  -0.1413367959E-01   0.5610954500E-17   0.5807551651E-16  -0.2935872220E-16   0.8875019037E+01
   0.2056463718E+01   0.9858663204E+00   0.9858663204E+00  -0.4665745974E-01   0.1166211494E-01   0.1166211494E-01   0.1031211780E+00  -0.2579579451E-01  -0.2579579451E-01  -0.8875012695E+01   0.6341589508E-05   0.6341589509E-05  -0.1570582619E-14   0.1801045902E-14  -0.5461788984E-15   0.2823185918E-01  -0.1413367959E-01  -0.1413367959E-01  -0.1104341992E-15  -0.1997571170E-15  -0.9162625996E-17   0.8875019036E+01
     1     2     3     4     5     6     7     8
     2     9    10     3     6    11    12     7
 VARIABLES = X,Y,Z,DU1,DU2,DU3,U1,U2,U3,S11,S22,S33,S12,S13,S23,E11,E22,E33,E12,E13,E23,SMISES
 ZONE, T="0.6000D+01" F=FEPOINT, I=   12 J=    2 ET=BRICK
   0.0000000000E+00   0.0000000000E+00   0.0000000000E+00   0.0000000000E+00   0.0000000000E+00   0.0000000000E+00   0.0000000000E+00   0.0000000000E+00   0.0000000000E+00  -0.1000000668E+02   0.3330848913E-05   0.3330848916E-05  -0.1852805091E-15  -0.5897541911E-15   0.1159769150E-15   0.3482044335E-02  -0.1761022168E-02  -0.1761022168E-02  -0.3834359250E-17  -0.2434588288E-16  -0.1123386237E-16   0.1000001001E+02
   0.1003482044E+01   0.0000000000E+00  -0.1664599919E-16  -0.2474981481E-01   0.0000000000E+00   0.1451540318E-17   0.2823185914E-01   0.0000000000E+00  -0.1809753951E-16  -0.1000000668E+02   0.3330850850E-05   0.3330850849E-05   0.7916289458E-15   0.9676900832E-15   0.2383637692E-15   0.3482044335E-02  -0.1761022168E-02  -0.1761022168E-02   0.1613724489E-16   0.5514706835E-16  -0.3815044487E-17   0.1000001001E+02
   0.1003482044E+01   0.9982389778E+00  -0.1569695322E-16  -0.2474981481E-01   0.1237265741E-01   0.3005117309E-17   0.2823185914E-01  -0.1413367957E-01  -0.1870207053E-16  -0.1000000668E+02   0.3330849228E-05   0.3330849229E-05   0.4750637265E-15  -0.2512041305E-15   0.5253077052E-15   0.3482044335E-02  -0.1761022167E-02  -0.1761022167E-02  -0.1962513646E-16   0.9457417577E-16   0.1130054143E-15   0.1000001001E+02
   0.0000000000E+00   0.9982389778E+00  -0.2451015757E-17   0.0000000000E+00   0.1237265741E-01   0.6865569239E-17   0.0000000000E+00  -0.1413367957E-01  -0.9316584995E-17  -0.1000000668E+02   0.3330845988E-05   0.3330845987E-05  -0.4886004684E-15  -0.4669546863E-16  -0.9907470943E-16   0.3482044335E-02  -0.1761022167E-02  -0.1761022167E-02  -0.7100716267E-16  -0.9658852594E-17  -0.5210588291E-16   0.1000001001E+02
   0.0000000000E+00   0.0000000000E+00   0.9982389778E+00   0.0000000000E+00   0.0000000000E+00   0.1237265741E-01   0.0000000000E+00   0.0000000000E+00  -0.1413367957E-01  -0.1000000668E+02   0.3330851859E-05   0.3330851858E-05  -0.4805070624E-16  -0.2140345881E-15   0.2189910614E-15   0.3482044335E-02  -0.1761022167E-02  -0.1761022167E-02   0.3764530301E-17  -0.9101400988E-16  -0.4734699691E-17   0.1000001001E+02
   0.1003482044E+01   0.0000000000E+00   0.9982389778E+00  -0.2474981481E-01   0.0000000000E+00   0.1237265741E-01   0.2823185914E-01   0.0000000000E+00  -0.1413367957E-01  -0.1000000668E+02   0.3330850012E-05   0.3330850012E-05  -0.7702850958E-16   0.3808794816E-15   0.2155775199E-15   0.3482044335E-02  -0.1761022167E-02  -0.1761022167E-02   0.4532828695E-16   0.1282035040E-16  -0.2706094664E-17   0.1000001001E+02
   0.1003482044E+01   0.9982389778E+00   0.9982389778E+00  -0.2474981481E-01   0.1237265741E-01   0.1237265741E-01   0.2823185914E-01  -0.1413367957E-01  -0.1413367957E-01  -0.1000000667E+02   0.3330851129E-05   0.3330851130E-05  -0.6215231311E-15  -0.2820485897E-16   0.6104419854E-15   0.3482044334E-02  -0.1761022167E-02  -0.1761022167E-02   0.4961172737E-16   0.5960918370E-16   0.8668364627E-16   0.1000001001E+02
   0.0000000000E+00   0.9982389778E+00   0.9982389778E+00   0.0000000000E+00   0.1237265741E-01   0.1237265741E-01   0.0000000000E+00  -0.1413367957E-01  -0.1413367957E-01  -0.1000000668E+02   0.3330852723E-05   0.3330852722E-05   0.3742771094E-15   0.2826130751E-16  -0.3894965787E-15   0.3482044334E-02  -0.1761022167E-02  -0.1761022167E-02   0.1250489207E-15  -0.5335489623E-16  -0.3866658144E-16   0.1000001001E+02
   0.2006964089E+01   0.0000000000E+00  -0.4909941895E-16  -0.4949962963E-01   0.0000000000E+00   0.2599396715E-16   0.5646371829E-01   0.0000000000E+00  -0.7509338610E-16  -0.1000000668E+02   0.3330852577E-05   0.3330852579E-05  -0.2179072472E-14  -0.3146910577E-14  -0.1723549498E-15   0.3482044335E-02  -0.1761022167E-02  -0.1761022167E-02   0.1503851219E-15  -0.1230752945E-15  -0.5356540119E-17   0.1000001001E+02
   0.2006964089E+01   0.9982389778E+00  -0.5626539594E-16  -0.4949962963E-01   0.1237265741E-01   0.1936323977E-16   0.5646371829E-01  -0.1413367957E-01  -0.7562863571E-16  -0.1000000668E+02   0.3330850033E-05   0.3330850032E-05  -0.2189539108E-14   0.2699125998E-14  -0.9126250033E-15   0.3482044334E-02  -0.1761022167E-02  -0.1761022167E-02   0.1400679656E-15  -0.9164602475E-16  -0.1143589651E-16   0.1000001001E+02
   0.2006964089E+01   0.0000000000E+00   0.9982389778E+00  -0.4949962963E-01   0.0000000000E+00   0.1237265741E-01   0.5646371829E-01   0.0000000000E+00  -0.1413367957E-01  -0.1000000668E+02   0.3330849506E-05   0.3330849506E-05   0.2489684136E-14  -0.1905850946E-14  -0.3784569337E-15   0.3482044334E-02  -0.1761022167E-02  -0.1761022167E-02   0.7810930218E-16  -0.5410261612E-16  -0.3956471021E-16   0.1000001001E+02
   0.2006964089E+01   0.9982389778E+00   0.9982389778E+00  -0.4949962963E-01   0.1237265741E-01   0.1237265741E-01   0.5646371829E-01  -0.1413367957E-01  -0.1413367957E-01  -0.1000000667E+02   0.3330848701E-05   0.3330848700E-05   0.1267924118E-14   0.1304543210E-14  -0.2146043956E-15   0.3482044334E-02  -0.1761022167E-02  -0.1761022167E-02  -0.4620708291E-16  -0.1345816621E-15   0.7481400005E-17   0.1000001001E+02
     1     2     3     4     5     6     7     8
     2     9    10     3     6    11    12     7
 VARIABLES = X,Y,Z,DU1,DU2,DU3,U1,U2,U3,S11,S22,S33,S12,S13,S23,E11,E22,E33,E12,E13,E23,SMISES
 ZONE, T="0.6050D+01" F=FEPOINT, I=   12 J=    2 ET=BRICK
   0.0000000000E+00   0.0000000000E+00   0.0000000000E+00   0.0000000000E+00   0.0000000000E+00   0.0000000000E+00   0.0000000000E+00   0.0000000000E+00   0.0000000000E+00  -0.8875000015E+01  -0.6019555664E-09  -0.6022990326E-09  -0.1834993981E-15  -0.1360735148E-11  -0.8597817309E-12   0.5732064310E-02  -0.2883782155E-02  -0.2883782155E-02   0.5062918166E-18  -0.1633688981E-13  -0.1031645814E-13   0.8875000014E+01
   0.1005732064E+01   0.0000000000E+00  -0.7222095093E-14   0.2250019972E-02   0.0000000000E+00  -0.7205449094E-14   0.3482044330E-02   0.0000000000E+00  -0.1664599919E-16  -0.8875000014E+01  -0.4788545803E-10  -0.4704577459E-10  -0.1676003243E-12  -0.1340570198E-12  -0.6644499293E-14   0.5732064310E-02  -0.2883782155E-02  -0.2883782155E-02  -0.2005696032E-14  -0.1561134091E-14  -0.8066592877E-16   0.8875000014E+01
   0.1005732064E+01   0.9971162178E+00  -0.7262281237E-14   0.2250019972E-02  -0.1122759986E-02  -0.7246584283E-14   0.3482044330E-02  -0.1761022165E-02  -0.1569695322E-16  -0.8875000013E+01  -0.2715738206E-09  -0.2716619529E-09  -0.3281702358E-12   0.2492790946E-12   0.3573455936E-12   0.5732064310E-02  -0.2883782155E-02  -0.2883782155E-02  -0.3960573572E-14   0.3083870300E-14   0.4378661333E-14   0.8875000013E+01
   0.0000000000E+00   0.9971162178E+00  -0.5158622260E-14   0.0000000000E+00  -0.1122759986E-02  -0.5156171245E-14   0.0000000000E+00  -0.1761022165E-02  -0.2451015757E-17  -0.8875000013E+01  -0.4368827789E-09  -0.4360306714E-09   0.3209232589E-12  -0.2628435359E-13  -0.2854939143E-12   0.5732064310E-02  -0.2883782155E-02  -0.2883782155E-02   0.3787593764E-14  -0.3273367682E-15  -0.3466416898E-14   0.8875000013E+01
   0.0000000000E+00   0.0000000000E+00   0.9971162178E+00   0.0000000000E+00   0.0000000000E+00  -0.1122759986E-02   0.0000000000E+00   0.0000000000E+00  -0.1761022165E-02  -0.8875000013E+01   0.1197579201E-09   0.1182629555E-09  -0.2634887183E-16  -0.2132492436E-12  -0.2604965298E-12   0.5732064310E-02  -0.2883782155E-02  -0.2883782155E-02  -0.1154976259E-18  -0.2642444858E-14  -0.3144026554E-14   0.8875000013E+01
   0.1005732064E+01   0.0000000000E+00   0.9971162178E+00   0.2250019972E-02   0.0000000000E+00  -0.1122759986E-02   0.3482044330E-02   0.0000000000E+00  -0.1761022165E-02  -0.8875000012E+01   0.3941437303E-09   0.3942570552E-09   0.3245040851E-12  -0.1662970227E-12  -0.4713486798E-12   0.5732064310E-02  -0.2883782155E-02  -0.2883782155E-02   0.3948231466E-14  -0.1969017799E-14  -0.5655402424E-14   0.8875000013E+01
   0.1005732064E+01   0.9971162178E+00   0.9971162178E+00   0.2250019972E-02  -0.1122759986E-02  -0.1122759986E-02   0.3482044330E-02  -0.1761022165E-02  -0.1761022165E-02  -0.8875000011E+01   0.2859087183E-09   0.2850934960E-09   0.2870914400E-12   0.3157421542E-12  -0.1073087223E-12   0.5732064309E-02  -0.2883782154E-02  -0.2883782154E-02   0.3500231877E-14   0.3854930720E-14  -0.1198132252E-14   0.8875000012E+01
   0.0000000000E+00   0.9971162178E+00   0.9971162178E+00   0.0000000000E+00  -0.1122759986E-02  -0.1122759986E-02   0.0000000000E+00  -0.1761022165E-02  -0.1761022165E-02  -0.8875000011E+01   0.6014306262E-09   0.6011327549E-09  -0.5626371786E-13  -0.5241469604E-12   0.3135231239E-12   0.5732064309E-02  -0.2883782155E-02  -0.2883782155E-02  -0.5564578347E-15  -0.6345599102E-14   0.3711494065E-14   0.8875000012E+01
   0.2011464129E+01   0.0000000000E+00  -0.1065995498E-13   0.4500039944E-02   0.0000000000E+00  -0.1061085556E-13   0.6964088659E-02   0.0000000000E+00  -0.4909941895E-16  -0.8875000014E+01  -0.6000387983E-09  -0.5998685557E-09   0.3715524511E-13   0.6323714663E-12  -0.1077441262E-11   0.5732064310E-02  -0.2883782155E-02  -0.2883782155E-02   0.6223683230E-15   0.7552651974E-14  -0.1293292488E-13   0.8875000013E+01
   0.2011464129E+01   0.9971162178E+00  -0.1712640935E-13   0.4500039944E-02  -0.1122759986E-02  -0.1707014396E-13   0.6964088659E-02  -0.1761022165E-02  -0.5626539594E-16  -0.8875000012E+01  -0.5508553392E-10  -0.5332767184E-10  -0.6048914114E-12  -0.4618532820E-12  -0.2567999620E-12   0.5732064309E-02  -0.2883782155E-02  -0.2883782155E-02  -0.7080075721E-14  -0.5723504632E-14  -0.3061683400E-14   0.8875000012E+01
   0.2011464129E+01   0.0000000000E+00   0.9971162178E+00   0.4500039944E-02   0.0000000000E+00  -0.1122759986E-02   0.6964088659E-02   0.0000000000E+00  -0.1761022165E-02  -0.8875000012E+01  -0.1011570511E-09  -0.1026324156E-09   0.4931622674E-12  -0.5769711617E-12  -0.2821317734E-12   0.5732064309E-02  -0.2883782155E-02  -0.2883782155E-02   0.5967501957E-14  -0.6931711277E-14  -0.3413546335E-14   0.8875000012E+01
   0.2011464129E+01   0.9971162178E+00   0.9971162178E+00   0.4500039944E-02  -0.1122759986E-02  -0.1122759986E-02   0.6964088659E-02  -0.1761022165E-02  -0.1761022165E-02  -0.8875000011E+01   0.3581560695E-09   0.3582722646E-09   0.4748443824E-12   0.1677132985E-12   0.5393366663E-12   0.5732064309E-02  -0.2883782154E-02  -0.2883782154E-02   0.5628933618E-14   0.1834488845E-14   0.6456411258E-14   0.8875000011E+01
     1     2     3     4     5     6     7     8
     2     9    10     3     6    11    12     7
 VARIABLES = X,Y,Z,DU1,DU2,DU3,U1,U2,U3,S11,S22,S33,S12,S13,S23,E11,E22,E33,E12,E13,E23,SMISES
 ZONE, T="0.6100D+01" F=FEPOINT, I=   12 J=    2 ET=BRICK
   0.0000000000E+00   0.0000000000E+00   0.0000000000E+00   0.0000000000E+00   0.0000000000E+00   0.0000000000E+00   0.0000000000E+00   0.0000000000E+00   0.0000000000E+00  -0.7750000012E+01  -0.5641362862E-12  -0.5628540856E-12  -0.1942297652E-15  -0.7180195140E-16   0.8804997830E-16   0.7982064314E-02  -0.4006532157E-02  -0.4006532157E-02  -0.5390605791E-18  -0.1676463772E-16  -0.5685008512E-17   0.7750000012E+01
   0.1007982064E+01   0.0000000000E+00  -0.1126816576E-16   0.2250000000E-02   0.0000000000E+00   0.7210826927E-14   0.5732064301E-02   0.0000000000E+00  -0.7222095093E-14  -0.7750000012E+01   0.9656558115E-12   0.9644236777E-12   0.1447306639E-14   0.1101336450E-14   0.4202066930E-15   0.7982064314E-02  -0.4006532157E-02  -0.4006532157E-02   0.2303232265E-16   0.5520166224E-16   0.4203835420E-17   0.7750000012E+01
   0.1007982064E+01   0.9959934678E+00  -0.8996387732E-17   0.2250000000E-02  -0.1122750000E-02   0.7253284849E-14   0.5732064301E-02  -0.2883782151E-02  -0.7262281237E-14  -0.7750000011E+01  -0.4736609894E-12  -0.4744192857E-12   0.1214683740E-14  -0.1023384531E-14   0.2163657901E-15   0.7982064313E-02  -0.4006532156E-02  -0.4006532156E-02  -0.1171734461E-16   0.8039056796E-16   0.9471358531E-16   0.7750000011E+01
   0.0000000000E+00   0.9959934678E+00  -0.2763803339E-17   0.0000000000E+00  -0.1122750000E-02   0.5155858457E-14   0.0000000000E+00  -0.2883782151E-02  -0.5158622260E-14  -0.7750000011E+01  -0.3262381649E-11  -0.3263156279E-11  -0.5898672480E-15   0.8496478574E-15  -0.6139180288E-15   0.7982064313E-02  -0.4006532157E-02  -0.4006532157E-02  -0.6702719350E-16  -0.6672666673E-18  -0.4798319877E-16   0.7750000011E+01
   0.0000000000E+00   0.0000000000E+00   0.9959934678E+00   0.0000000000E+00   0.0000000000E+00  -0.1122750000E-02   0.0000000000E+00   0.0000000000E+00  -0.2883782151E-02  -0.7750000011E+01   0.1121116494E-11   0.1122072531E-11  -0.5084934430E-16   0.4470174453E-15   0.3637883145E-15   0.7982064313E-02  -0.4006532157E-02  -0.4006532157E-02   0.7120029513E-19  -0.8476721282E-16  -0.1540302551E-16   0.7750000011E+01
   0.1007982064E+01   0.0000000000E+00   0.9959934678E+00   0.2250000000E-02   0.0000000000E+00  -0.1122750000E-02   0.5732064301E-02   0.0000000000E+00  -0.2883782151E-02  -0.7750000011E+01  -0.6389106977E-12  -0.6385152165E-12  -0.5137242816E-15   0.7817531701E-15   0.1701065317E-15   0.7982064313E-02  -0.4006532156E-02  -0.4006532156E-02   0.4992231564E-16   0.4094351098E-16   0.7359382312E-18   0.7750000011E+01
   0.1007982064E+01   0.9959934678E+00   0.9959934678E+00   0.2250000000E-02  -0.1122750000E-02  -0.1122750000E-02   0.5732064301E-02  -0.2883782151E-02  -0.2883782151E-02  -0.7750000010E+01   0.9579047157E-14   0.1087067762E-13  -0.8231197464E-15  -0.4833229700E-15   0.4139853270E-17   0.7982064312E-02  -0.4006532156E-02  -0.4006532156E-02   0.4816509776E-16   0.6175931778E-16   0.8903451509E-16   0.7750000010E+01
   0.0000000000E+00   0.9959934678E+00   0.9959934678E+00   0.0000000000E+00  -0.1122750000E-02  -0.1122750000E-02   0.0000000000E+00  -0.2883782151E-02  -0.2883782151E-02  -0.7750000010E+01   0.2051312558E-11   0.2050000609E-11   0.1121993809E-15   0.1976941847E-15  -0.6964810391E-15   0.7982064312E-02  -0.4006532156E-02  -0.4006532156E-02   0.1194707564E-15  -0.5633118230E-16  -0.6123885417E-16   0.7750000010E+01
   0.2015964129E+01   0.0000000000E+00  -0.2977669085E-16   0.4500000000E-02   0.0000000000E+00   0.1063017828E-13   0.1146412860E-01   0.0000000000E+00  -0.1065995498E-13  -0.7750000012E+01   0.2630864897E-11   0.2632550549E-11  -0.8929571924E-15  -0.2277872645E-14   0.4880124042E-16   0.7982064313E-02  -0.4006532157E-02  -0.4006532157E-02   0.1702161575E-15  -0.3502933970E-16  -0.1216596252E-16   0.7750000012E+01
   0.2015964129E+01   0.9959934678E+00  -0.3569548819E-16   0.4500000000E-02  -0.1122750000E-02   0.1709071387E-13   0.1146412860E-01  -0.2883782151E-02  -0.1712640935E-13  -0.7750000011E+01   0.5469534571E-12   0.5458269013E-12  -0.6842298333E-15   0.5570363759E-15  -0.8583373739E-15   0.7982064313E-02  -0.4006532156E-02  -0.4006532156E-02   0.1694421909E-15  -0.1868529504E-15   0.8320413325E-17   0.7750000011E+01
   0.2015964129E+01   0.0000000000E+00   0.9959934678E+00   0.4500000000E-02   0.0000000000E+00  -0.1122750000E-02   0.1146412860E-01   0.0000000000E+00  -0.2883782151E-02  -0.7750000011E+01  -0.4446888980E-12  -0.4452385651E-12   0.7585810124E-15  -0.6133808502E-15   0.1308285401E-15   0.7982064313E-02  -0.4006532156E-02  -0.4006532156E-02   0.6169177350E-16  -0.2291994377E-16  -0.2760264257E-16   0.7750000011E+01
   0.2015964129E+01   0.9959934678E+00   0.9959934678E+00   0.4500000000E-02  -0.1122750000E-02  -0.1122750000E-02   0.1146412860E-01  -0.2883782151E-02  -0.2883782151E-02  -0.7750000010E+01  -0.1926047359E-11  -0.1926045900E-11   0.2428957499E-15   0.5321224871E-15   0.6996875625E-16   0.7982064312E-02  -0.4006532156E-02  -0.4006532156E-02  -0.5975961411E-16  -0.1613221311E-15  -0.1208539125E-16   0.7750000010E+01
     1     2     3     4     5     6     7     8
     2     9    10     3     6    11    12     7
 VARIABLES = X,Y,Z,DU1,DU2,DU3,U1,U2,U3,S11,S22,S33,S12,S13,S23,E11,E22,E33,E12,E13,E23,SMISES
 ZONE, T="0.6150D+01" F=FEPOINT, I=   12 J=    2 ET=BRICK
   0.0000000000E+00   0.0000000000E+00   0.0000000000E+00   0.0000000000E+00   0.0000000000E+00   0.0000000000E+00   0.0000000000E+00   0.0000000000E+00   0.0000000000E+00  -0.6625000010E+01  -0.8570072998E-12  -0.8558009288E-12  -0.1874196840E-15  -0.8685065540E-15  -0.1582470580E-15   0.1023206432E-01  -0.5129282159E-02  -0.5129282159E-02  -0.3506223935E-18  -0.3061189710E-16  -0.7721734036E-17   0.6625000010E+01
   0.1010232064E+01   0.0000000000E+00  -0.1818490914E-16   0.2250000000E-02   0.0000000000E+00  -0.6916743371E-17   0.7982064301E-02   0.0000000000E+00  -0.1126816576E-16  -0.6625000010E+01   0.5663954250E-12   0.5656995430E-12   0.2538543191E-15  -0.1214464317E-15   0.2016623568E-15   0.1023206432E-01  -0.5129282159E-02  -0.5129282159E-02   0.7920524925E-17   0.4574912001E-16   0.2110592331E-17   0.6625000010E+01
   0.1010232064E+01   0.9948707178E+00  -0.1721602786E-16   0.2250000000E-02  -0.1122750000E-02  -0.8219640130E-17   0.7982064301E-02  -0.4006532151E-02  -0.8996387732E-17  -0.6625000009E+01  -0.1056472527E-11  -0.1055976912E-11   0.2298811279E-16   0.3648684011E-15   0.6064748605E-15   0.1023206432E-01  -0.5129282158E-02  -0.5129282158E-02  -0.2654269832E-16   0.9795297626E-16   0.9875832246E-16   0.6625000009E+01
   0.0000000000E+00   0.9948707178E+00  -0.4118133536E-17   0.0000000000E+00  -0.1122750000E-02  -0.1354330197E-17   0.0000000000E+00  -0.4006532151E-02  -0.2763803339E-17  -0.6625000010E+01  -0.4288375669E-11  -0.4288675002E-11  -0.5483941387E-15   0.2920071945E-16  -0.3002720003E-15   0.1023206432E-01  -0.5129282158E-02  -0.5129282158E-02  -0.6641022714E-16  -0.1156862206E-16  -0.4598520354E-16   0.6625000010E+01
   0.0000000000E+00   0.0000000000E+00   0.9948707178E+00   0.0000000000E+00   0.0000000000E+00  -0.1122750000E-02   0.0000000000E+00   0.0000000000E+00  -0.4006532151E-02  -0.6625000010E+01   0.1199359215E-11   0.1199303703E-11  -0.9362232050E-16   0.2506070295E-15   0.4995894427E-15   0.1023206432E-01  -0.5129282158E-02  -0.5129282158E-02   0.2493490517E-18  -0.8378023163E-16  -0.1487775984E-16   0.6625000010E+01
   0.1010232064E+01   0.0000000000E+00   0.9948707178E+00   0.2250000000E-02   0.0000000000E+00  -0.1122750000E-02   0.7982064301E-02   0.0000000000E+00  -0.4006532151E-02  -0.6625000009E+01  -0.6705893637E-13  -0.6656332160E-13   0.9515406728E-15  -0.1598364886E-15  -0.1938493005E-15   0.1023206432E-01  -0.5129282158E-02  -0.5129282158E-02   0.6428883676E-16   0.2543023810E-16  -0.5719271230E-17   0.6625000009E+01
   0.1010232064E+01   0.9948707178E+00   0.9948707178E+00   0.2250000000E-02  -0.1122750000E-02  -0.1122750000E-02   0.7982064301E-02  -0.4006532151E-02  -0.4006532151E-02  -0.6625000009E+01   0.6143731148E-12   0.6149064490E-12   0.5094289001E-15   0.8387715400E-15   0.2788674206E-15   0.1023206431E-01  -0.5129282157E-02  -0.5129282157E-02   0.6128861319E-16   0.7934283854E-16   0.9176539250E-16   0.6625000009E+01
   0.0000000000E+00   0.9948707178E+00   0.9948707178E+00   0.0000000000E+00  -0.1122750000E-02  -0.1122750000E-02   0.0000000000E+00  -0.4006532151E-02  -0.4006532151E-02  -0.6625000009E+01   0.3234628237E-11   0.3233643911E-11   0.2762612783E-15  -0.4496160155E-15  -0.9067087252E-16   0.1023206432E-01  -0.5129282158E-02  -0.5129282158E-02   0.1192427311E-15  -0.6723661444E-16  -0.4965934490E-16   0.6625000009E+01
   0.2020464129E+01   0.0000000000E+00  -0.5042468507E-16   0.4500000000E-02   0.0000000000E+00  -0.2064799422E-16   0.1596412860E-01   0.0000000000E+00  -0.2977669085E-16  -0.6625000010E+01   0.1755003970E-11   0.1757171822E-11  -0.1428332938E-14  -0.2166842010E-14  -0.5662817163E-15   0.1023206432E-01  -0.5129282158E-02  -0.5129282158E-02   0.1646955431E-15  -0.4779380042E-16  -0.2002998671E-16   0.6625000010E+01
   0.2020464129E+01   0.9948707178E+00  -0.6005638020E-16   0.4500000000E-02  -0.1122750000E-02  -0.2436089201E-16   0.1596412860E-01  -0.4006532151E-02  -0.3569548819E-16  -0.6625000009E+01   0.3075635229E-12   0.3073157156E-12  -0.1399339011E-14   0.9212920846E-15  -0.8351145613E-15   0.1023206432E-01  -0.5129282158E-02  -0.5129282158E-02   0.1614205611E-15  -0.1776712732E-15   0.8776520992E-17   0.6625000009E+01
   0.2020464129E+01   0.0000000000E+00   0.9948707178E+00   0.4500000000E-02   0.0000000000E+00  -0.1122750000E-02   0.1596412860E-01   0.0000000000E+00  -0.4006532151E-02  -0.6625000009E+01   0.2505607371E-12   0.2500691079E-12   0.1169149766E-14  -0.7992777210E-15  -0.4484052199E-15   0.1023206432E-01  -0.5129282158E-02  -0.5129282158E-02   0.7037146279E-16  -0.3111686295E-16  -0.3749791114E-16   0.6625000009E+01
   0.2020464129E+01   0.9948707178E+00   0.9948707178E+00   0.4500000000E-02  -0.1122750000E-02  -0.1122750000E-02   0.1596412860E-01  -0.4006532151E-02  -0.4006532151E-02  -0.6625000008E+01  -0.1999535782E-11  -0.2000712405E-11   0.7196758325E-15   0.8838348515E-15   0.9112021855E-16   0.1023206431E-01  -0.5129282157E-02  -0.5129282157E-02  -0.5925576548E-16  -0.1679642290E-15  -0.1014731575E-16   0.6625000008E+01
     1     2     3     4     5     6     7     8
     2     9    10     3     6    11    12     7
 VARIABLES = X,Y,Z,DU1,DU2,DU3,U1,U2,U3,S11,S22,S33,S12,S13,S23,E11,E22,E33,E12,E13,E23,SMISES
 ZONE, T="0.6200D+01" F=FEPOINT, I=   12 J=    2 ET=BRICK
   0.0000000000E+00   0.0000000000E+00   0.0000000000E+00   0.0000000000E+00   0.0000000000E+00   0.0000000000E+00   0.0000000000E+00   0.0000000000E+00   0.0000000000E+00  -0.5500000009E+01  -0.5372932319E-12  -0.5359250425E-12  -0.1904939602E-15  -0.3717456196E-15   0.1628296453E-15   0.1248206432E-01  -0.6252032161E-02  -0.6252032161E-02   0.4834943355E-18  -0.2647754399E-16  -0.2573846805E-17   0.5500000009E+01
   0.1012482064E+01   0.0000000000E+00  -0.1529814381E-16   0.2250000000E-02   0.0000000000E+00   0.2886765327E-17   0.1023206430E-01   0.0000000000E+00  -0.1818490914E-16  -0.5500000008E+01   0.6650312576E-12   0.6639413533E-12   0.5350443971E-15   0.3805703001E-15   0.3329681187E-15   0.1248206432E-01  -0.6252032160E-02  -0.6252032160E-02   0.1043497995E-16   0.5178369440E-16   0.3755088765E-17   0.5500000008E+01
   0.1012482064E+01   0.9937479678E+00  -0.1362409925E-16   0.2250000000E-02  -0.1122750000E-02   0.3591928612E-17   0.1023206430E-01  -0.5129282151E-02  -0.1721602786E-16  -0.5500000008E+01  -0.8120201414E-12  -0.8119443119E-12   0.3478563996E-15  -0.2108775490E-15   0.3453761632E-15   0.1248206432E-01  -0.6252032160E-02  -0.6252032160E-02  -0.2046211741E-16   0.8696031563E-16   0.9815665268E-16   0.5500000008E+01
   0.0000000000E+00   0.9937479678E+00  -0.2073481013E-17   0.0000000000E+00  -0.1122750000E-02   0.2044652522E-17   0.0000000000E+00  -0.5129282151E-02  -0.4118133536E-17  -0.5500000008E+01  -0.4158739928E-11  -0.4160184872E-11  -0.7331926521E-15   0.1514663167E-15  -0.2591178640E-15   0.1248206432E-01  -0.6252032160E-02  -0.6252032160E-02  -0.6675269942E-16  -0.7830425595E-17  -0.5027461971E-16   0.5500000008E+01
   0.0000000000E+00   0.0000000000E+00   0.9937479678E+00   0.0000000000E+00   0.0000000000E+00  -0.1122750000E-02   0.0000000000E+00   0.0000000000E+00  -0.5129282151E-02  -0.5500000008E+01   0.1355897614E-11   0.1356769655E-11  -0.1144947038E-15   0.2432015870E-15   0.2638551197E-15   0.1248206432E-01  -0.6252032160E-02  -0.6252032160E-02   0.8673499787E-19  -0.8521434851E-16  -0.2005901748E-16   0.5500000008E+01
   0.1012482064E+01   0.0000000000E+00   0.9937479678E+00   0.2250000000E-02   0.0000000000E+00  -0.1122750000E-02   0.1023206430E-01   0.0000000000E+00  -0.5129282151E-02  -0.5500000008E+01  -0.1060404916E-12  -0.1050735661E-12   0.1173807571E-15   0.4045743638E-15  -0.1220399248E-15   0.1248206432E-01  -0.6252032160E-02  -0.6252032160E-02   0.5586483036E-16   0.3265997013E-16  -0.5322853286E-17   0.5500000008E+01
   0.1012482064E+01   0.9937479678E+00   0.9937479678E+00   0.2250000000E-02  -0.1122750000E-02  -0.1122750000E-02   0.1023206430E-01  -0.5129282151E-02  -0.5129282151E-02  -0.5500000007E+01   0.2338093884E-12   0.2346663596E-12  -0.2609434526E-15   0.3512313604E-15   0.1180796714E-16   0.1248206432E-01  -0.6252032159E-02  -0.6252032159E-02   0.5556489010E-16   0.6520811169E-16   0.8716772827E-16   0.5500000007E+01
   0.0000000000E+00   0.9937479678E+00   0.9937479678E+00   0.0000000000E+00  -0.1122750000E-02  -0.1122750000E-02   0.0000000000E+00  -0.5129282151E-02  -0.5129282151E-02  -0.5500000007E+01   0.2633436808E-11   0.2631922403E-11   0.8308175454E-16  -0.1138363268E-15  -0.6673654418E-15   0.1248206432E-01  -0.6252032159E-02  -0.6252032159E-02   0.1185581552E-15  -0.6266843082E-16  -0.5677034925E-16   0.5500000007E+01
   0.2024964129E+01   0.0000000000E+00  -0.4424384348E-16   0.4500000000E-02   0.0000000000E+00   0.6180841593E-17   0.2046412860E-01   0.0000000000E+00  -0.5042468507E-16  -0.5500000008E+01   0.1895435961E-11   0.1897127788E-11  -0.7399665620E-15  -0.1450039635E-14  -0.2447249116E-15   0.1248206432E-01  -0.6252032160E-02  -0.6252032160E-02   0.1749663138E-15  -0.4417449683E-16  -0.1482322872E-16   0.5500000008E+01
   0.2024964129E+01   0.9937479678E+00  -0.5190213427E-16   0.4500000000E-02  -0.1122750000E-02   0.8154245938E-17   0.2046412860E-01  -0.5129282151E-02  -0.6005638020E-16  -0.5500000008E+01   0.8208833293E-12   0.8198393108E-12  -0.5153093305E-15   0.1211335066E-15  -0.6740719273E-15   0.1248206432E-01  -0.6252032159E-02  -0.6252032159E-02   0.1732477334E-15  -0.1863040409E-15   0.8878769568E-17   0.5500000008E+01
   0.2024964129E+01   0.0000000000E+00   0.9937479678E+00   0.4500000000E-02   0.0000000000E+00  -0.1122750000E-02   0.2046412860E-01   0.0000000000E+00  -0.5129282151E-02  -0.5500000008E+01   0.3319804967E-12   0.3310678190E-12   0.2170532578E-15  -0.3235508705E-15  -0.2272966831E-16   0.1248206432E-01  -0.6252032159E-02  -0.6252032159E-02   0.5609957798E-16  -0.2041288332E-16  -0.3107954500E-16   0.5500000008E+01
   0.2024964129E+01   0.9937479678E+00   0.9937479678E+00   0.4500000000E-02  -0.1122750000E-02  -0.1122750000E-02   0.2046412860E-01  -0.5129282151E-02  -0.5129282151E-02  -0.5500000007E+01  -0.1951220376E-11  -0.1952078076E-11   0.5267578520E-16   0.2452732290E-15   0.2424269444E-15   0.1248206432E-01  -0.6252032159E-02  -0.6252032159E-02  -0.6125925845E-16  -0.1698672405E-15  -0.6401323405E-18   0.5500000007E+01
     1     2     3     4     5     6     7     8
     2     9    10     3     6    11    12     7
 VARIABLES = X,Y,Z,DU1,DU2,DU3,U1,U2,U3,S11,S22,S33,S12,S13,S23,E11,E22,E33,E12,E13,E23,SMISES
 ZONE, T="0.6250D+01" F=FEPOINT, I=   12 J=    2 ET=BRICK
   0.0000000000E+00   0.0000000000E+00   0.0000000000E+00   0.0000000000E+00   0.0000000000E+00   0.0000000000E+00   0.0000000000E+00   0.0000000000E+00   0.0000000000E+00  -0.4375000007E+01  -0.1515852551E-11  -0.1513329320E-11  -0.1816607388E-15  -0.1028715188E-14  -0.5548601017E-15   0.1473206432E-01  -0.7374782162E-02  -0.7374782162E-02   0.1169196008E-17  -0.3028051897E-16  -0.1163398517E-16   0.4375000007E+01
   0.1014732064E+01   0.0000000000E+00  -0.2179930221E-16   0.2250000000E-02   0.0000000000E+00  -0.6501158407E-17   0.1248206430E-01   0.0000000000E+00  -0.1529814381E-16  -0.4375000007E+01  -0.5203459048E-13  -0.5251241339E-13   0.1236195417E-14   0.1335525706E-14  -0.8247303760E-16   0.1473206432E-01  -0.7374782162E-02  -0.7374782162E-02   0.1556371276E-16   0.6126900732E-16  -0.2121655139E-17   0.4375000007E+01
   0.1014732064E+01   0.9926252178E+00  -0.2267056275E-16   0.2250000000E-02  -0.1122750000E-02  -0.9046463500E-17   0.1248206430E-01  -0.6252032151E-02  -0.1362409925E-16  -0.4375000006E+01  -0.1244324654E-11  -0.1244136344E-11   0.9272895858E-15  -0.7849562020E-15   0.4992765125E-15   0.1473206432E-01  -0.7374782161E-02  -0.7374782161E-02  -0.1465646160E-16   0.7954830545E-16   0.9831793070E-16   0.4375000006E+01
   0.0000000000E+00   0.9926252178E+00  -0.6234309404E-17   0.0000000000E+00  -0.1122750000E-02  -0.4160828391E-17   0.0000000000E+00  -0.6252032151E-02  -0.2073481013E-17  -0.4375000006E+01  -0.4558972551E-11  -0.4559223810E-11  -0.4402525197E-15  -0.1715015671E-15  -0.2753034187E-16   0.1473206432E-01  -0.7374782161E-02  -0.7374782161E-02  -0.6355559707E-16  -0.1562711278E-16  -0.4318461175E-16   0.4375000006E+01
   0.0000000000E+00   0.0000000000E+00   0.9926252178E+00   0.0000000000E+00   0.0000000000E+00  -0.1122750000E-02   0.0000000000E+00   0.0000000000E+00  -0.6252032151E-02  -0.4375000006E+01   0.2599326740E-11   0.2599642940E-11  -0.9314571644E-16  -0.7191114544E-15  -0.2777100201E-15   0.1473206432E-01  -0.7374782161E-02  -0.7374782161E-02  -0.1143094580E-19  -0.9892689440E-16  -0.2372989085E-16   0.4375000006E+01
   0.1014732064E+01   0.0000000000E+00   0.9926252178E+00   0.2250000000E-02   0.0000000000E+00  -0.1122750000E-02   0.1248206430E-01   0.0000000000E+00  -0.6252032151E-02  -0.4375000006E+01   0.5066469851E-12   0.5068541555E-12  -0.8540220124E-15   0.1259884395E-14  -0.5722289512E-15   0.1473206432E-01  -0.7374782161E-02  -0.7374782161E-02   0.4443464831E-16   0.4421747826E-16  -0.1129768204E-16   0.4375000006E+01
   0.1014732064E+01   0.9926252178E+00   0.9926252178E+00   0.2250000000E-02  -0.1122750000E-02  -0.1122750000E-02   0.1248206430E-01  -0.6252032151E-02  -0.6252032151E-02  -0.4375000006E+01   0.5900245560E-12   0.5904102164E-12  -0.1177486678E-14  -0.1989492318E-15   0.1092261130E-15   0.1473206432E-01  -0.7374782160E-02  -0.7374782160E-02   0.4248443936E-16   0.5517125615E-16   0.9182273763E-16   0.4375000006E+01
   0.0000000000E+00   0.9926252178E+00   0.9926252178E+00   0.0000000000E+00  -0.1122750000E-02  -0.1122750000E-02   0.0000000000E+00  -0.6252032151E-02  -0.6252032151E-02  -0.4375000006E+01   0.3264767065E-11   0.3262763753E-11  -0.2722261361E-15  -0.9867808266E-15  -0.3323028654E-15   0.1473206432E-01  -0.7374782161E-02  -0.7374782161E-02   0.1160110773E-15  -0.6799276462E-16  -0.4909087847E-16   0.4375000006E+01
   0.2029464129E+01   0.0000000000E+00  -0.6764663646E-16   0.4500000000E-02   0.0000000000E+00  -0.2340279298E-16   0.2496412860E-01   0.0000000000E+00  -0.4424384348E-16  -0.4375000007E+01   0.1208105539E-11   0.1210584147E-11   0.1524962091E-15  -0.5470732324E-15  -0.4248347178E-15   0.1473206432E-01  -0.7374782162E-02  -0.7374782162E-02   0.1881123807E-15  -0.8564473142E-17  -0.1608372500E-16   0.4375000007E+01
   0.2029464129E+01   0.9926252178E+00  -0.7619899061E-16   0.4500000000E-02  -0.1122750000E-02  -0.2429685635E-16   0.2496412860E-01  -0.6252032151E-02  -0.5190213427E-16  -0.4375000006E+01   0.2866193759E-12   0.2869003832E-12  -0.9841306075E-16  -0.5387190618E-15   0.1936326028E-15   0.1473206432E-01  -0.7374782161E-02  -0.7374782161E-02   0.1822012368E-15  -0.2077855521E-15   0.1581777893E-16   0.4375000006E+01
   0.2029464129E+01   0.0000000000E+00   0.9926252178E+00   0.4500000000E-02   0.0000000000E+00  -0.1122750000E-02   0.2496412860E-01   0.0000000000E+00  -0.6252032151E-02  -0.4375000006E+01   0.5711104272E-12   0.5688632938E-12  -0.6371206067E-15   0.5488879573E-15   0.5731494214E-16   0.1473206432E-01  -0.7374782161E-02  -0.7374782161E-02   0.4282134056E-16  -0.8285208192E-17  -0.3253471096E-16   0.4375000006E+01
   0.2029464129E+01   0.9926252178E+00   0.9926252178E+00   0.4500000000E-02  -0.1122750000E-02  -0.1122750000E-02   0.2496412860E-01  -0.6252032151E-02  -0.6252032151E-02  -0.4375000006E+01  -0.1451065702E-11  -0.1452325591E-11  -0.6214040427E-15  -0.1413129305E-15   0.1188062898E-14   0.1473206432E-01  -0.7374782160E-02  -0.7374782160E-02  -0.7272003062E-16  -0.1521019284E-15   0.1029912553E-16   0.4375000006E+01
     1     2     3     4     5     6     7     8
     2     9    10     3     6    11    12     7
 VARIABLES = X,Y,Z,DU1,DU2,DU3,U1,U2,U3,S11,S22,S33,S12,S13,S23,E11,E22,E33,E12,E13,E23,SMISES
 ZONE, T="0.6300D+01" F=FEPOINT, I=   12 J=    2 ET=BRICK
   0.0000000000E+00   0.0000000000E+00   0.0000000000E+00   0.0000000000E+00   0.0000000000E+00   0.0000000000E+00   0.0000000000E+00   0.0000000000E+00   0.0000000000E+00  -0.3250000005E+01  -0.9677028126E-12  -0.9658823674E-12  -0.1934482024E-15  -0.5208871714E-15  -0.2809712164E-15   0.1698206433E-01  -0.8497532164E-02  -0.8497532164E-02  -0.1023220288E-17  -0.2582540108E-16  -0.9331569288E-17   0.3250000005E+01
   0.1016982064E+01   0.0000000000E+00  -0.1687838325E-16   0.2250000000E-02   0.0000000000E+00   0.4920918963E-17   0.1473206430E-01   0.0000000000E+00  -0.2179930221E-16  -0.3250000005E+01   0.5446530639E-12   0.5437797598E-12   0.5810942879E-15   0.3805075864E-15   0.1557155366E-15   0.1698206433E-01  -0.8497532164E-02  -0.8497532164E-02   0.1572798127E-16   0.5293791669E-16   0.7088512364E-18   0.3250000005E+01
   0.1016982064E+01   0.9915024678E+00  -0.1643980355E-16   0.2250000000E-02  -0.1122750000E-02   0.6230759204E-17   0.1473206430E-01  -0.7374782151E-02  -0.2267056275E-16  -0.3250000005E+01  -0.1023115018E-11  -0.1022674914E-11   0.3409972259E-15  -0.1746713978E-15   0.5705338596E-15   0.1698206433E-01  -0.8497532163E-02  -0.8497532163E-02  -0.1753436362E-16   0.8780894746E-16   0.9707218810E-16   0.3250000005E+01
   0.0000000000E+00   0.9915024678E+00  -0.4540219178E-17   0.0000000000E+00  -0.1122750000E-02   0.1694090226E-17   0.0000000000E+00  -0.7374782151E-02  -0.6234309404E-17  -0.3250000005E+01  -0.4035945835E-11  -0.4036813161E-11  -0.7842831457E-15   0.2365598632E-15  -0.3392537558E-15   0.1698206433E-01  -0.8497532163E-02  -0.8497532163E-02  -0.6720714101E-16  -0.8537347679E-17  -0.4609910298E-16   0.3250000005E+01
   0.0000000000E+00   0.0000000000E+00   0.9915024678E+00   0.0000000000E+00   0.0000000000E+00  -0.1122750000E-02   0.0000000000E+00   0.0000000000E+00  -0.7374782151E-02  -0.3250000005E+01   0.1572430672E-11   0.1572665598E-11  -0.8735544124E-16  -0.1472606465E-15   0.2518720309E-15   0.1698206433E-01  -0.8497532163E-02  -0.8497532163E-02   0.1174658687E-20  -0.8569396918E-16  -0.1731779462E-16   0.3250000005E+01
   0.1016982064E+01   0.0000000000E+00   0.9915024678E+00   0.2250000000E-02   0.0000000000E+00  -0.1122750000E-02   0.1473206430E-01   0.0000000000E+00  -0.7374782151E-02  -0.3250000005E+01  -0.6874545701E-13  -0.6844612402E-13   0.1879816304E-15   0.4437214627E-15  -0.1462682681E-15   0.1698206433E-01  -0.8497532163E-02  -0.8497532163E-02   0.5580134983E-16   0.2555789246E-16  -0.6651565527E-17   0.3250000005E+01
   0.1016982064E+01   0.9915024678E+00   0.9915024678E+00   0.2250000000E-02  -0.1122750000E-02  -0.1122750000E-02   0.1473206430E-01  -0.7374782151E-02  -0.7374782151E-02  -0.3250000004E+01   0.5064928602E-12   0.5070410685E-12  -0.3058466735E-15   0.3190149915E-15   0.3703364111E-15   0.1698206432E-01  -0.8497532162E-02  -0.8497532162E-02   0.4918338916E-16   0.6986231439E-16   0.9623607203E-16   0.3250000004E+01
   0.0000000000E+00   0.9915024678E+00   0.9915024678E+00   0.0000000000E+00  -0.1122750000E-02  -0.1122750000E-02   0.0000000000E+00  -0.7374782151E-02  -0.7374782151E-02  -0.3250000004E+01   0.2915591960E-11   0.2914670581E-11   0.1727525361E-15  -0.4241811837E-15  -0.3293440375E-15   0.1698206432E-01  -0.8497532162E-02  -0.8497532162E-02   0.1238627663E-15  -0.7011200645E-16  -0.5837930561E-16   0.3250000004E+01
   0.2033964129E+01   0.0000000000E+00  -0.4911458393E-16   0.4500000000E-02   0.0000000000E+00   0.1853205254E-16   0.2946412860E-01   0.0000000000E+00  -0.6764663646E-16  -0.3250000005E+01   0.2150293827E-11   0.2152261946E-11  -0.1597693117E-14  -0.2198737294E-14  -0.3710507335E-15   0.1698206433E-01  -0.8497532164E-02  -0.8497532164E-02   0.1609793332E-15  -0.3971551480E-16  -0.1647813829E-16   0.3250000005E+01
   0.2033964129E+01   0.9915024678E+00  -0.5742854804E-16   0.4500000000E-02  -0.1122750000E-02   0.1877044257E-16   0.2946412860E-01  -0.7374782151E-02  -0.7619899061E-16  -0.3250000005E+01   0.3971247205E-12   0.3962831575E-12  -0.1302706164E-14   0.8454489086E-15  -0.8144680761E-15   0.1698206433E-01  -0.8497532163E-02  -0.8497532163E-02   0.1626482236E-15  -0.1769496633E-15   0.9603738908E-17   0.3250000005E+01
   0.2033964129E+01   0.0000000000E+00   0.9915024678E+00   0.4500000000E-02   0.0000000000E+00  -0.1122750000E-02   0.2946412860E-01   0.0000000000E+00  -0.7374782151E-02  -0.3250000005E+01   0.3881405547E-13   0.3792096684E-13   0.9337148472E-15  -0.1046877609E-14  -0.2011231308E-15   0.1698206433E-01  -0.8497532163E-02  -0.8497532163E-02   0.6923532408E-16  -0.1547784440E-16  -0.3329806726E-16   0.3250000005E+01
   0.2033964129E+01   0.9915024678E+00   0.9915024678E+00   0.4500000000E-02  -0.1122750000E-02  -0.1122750000E-02   0.2946412860E-01  -0.7374782151E-02  -0.7374782151E-02  -0.3250000004E+01  -0.1786672805E-11  -0.1787113443E-11   0.2867722637E-15   0.9631169102E-15  -0.4622012651E-16   0.1698206432E-01  -0.8497532162E-02  -0.8497532162E-02  -0.5169791215E-16  -0.1547442549E-15  -0.1487305964E-16   0.3250000004E+01
     1     2     3     4     5     6     7     8
     2     9    10     3     6    11    12     7
 VARIABLES = X,Y,Z,DU1,DU2,DU3,U1,U2,U3,S11,S22,S33,S12,S13,S23,E11,E22,E33,E12,E13,E23,SMISES
 ZONE, T="0.6350D+01" F=FEPOINT, I=   12 J=    2 ET=BRICK
   0.0000000000E+00   0.0000000000E+00   0.0000000000E+00   0.0000000000E+00   0.0000000000E+00   0.0000000000E+00   0.0000000000E+00   0.0000000000E+00   0.0000000000E+00  -0.2125000003E+01  -0.1062046043E-11  -0.1059851894E-11  -0.2380614503E-15  -0.5882069048E-15  -0.1655253867E-15   0.1923206433E-01  -0.9620282166E-02  -0.9620282166E-02  -0.3395682285E-17  -0.2829910478E-16  -0.8182771742E-17   0.2125000003E+01
   0.1019232064E+01   0.0000000000E+00  -0.1690057661E-16   0.2250000000E-02   0.0000000000E+00  -0.2219335986E-19   0.1698206430E-01   0.0000000000E+00  -0.1687838325E-16  -0.2125000003E+01   0.5568648218E-12   0.5553144953E-12   0.9427432904E-15   0.9078062757E-15   0.1459463987E-15   0.1923206433E-01  -0.9620282166E-02  -0.9620282166E-02   0.2667301725E-16   0.5849022420E-16   0.3244841230E-17   0.2125000003E+01
   0.1019232064E+01   0.9903797178E+00  -0.1642445470E-16   0.2250000000E-02  -0.1122750000E-02   0.1534884601E-19   0.1698206430E-01  -0.8497532151E-02  -0.1643980355E-16  -0.2125000003E+01  -0.6696799184E-12  -0.6693305187E-12   0.6513822394E-15  -0.2263623135E-15   0.2875040278E-15   0.1923206433E-01  -0.9620282164E-02  -0.9620282164E-02  -0.1527772852E-16   0.8414985570E-16   0.8814223576E-16   0.2125000003E+01
   0.0000000000E+00   0.9903797178E+00  -0.3714245048E-17   0.0000000000E+00  -0.1122750000E-02   0.8259741300E-18   0.0000000000E+00  -0.8497532151E-02  -0.4540219178E-17  -0.2125000003E+01  -0.4084596120E-11  -0.4085732301E-11  -0.5250910775E-15   0.4932762489E-16  -0.1948944207E-15   0.1923206433E-01  -0.9620282165E-02  -0.9620282165E-02  -0.6877719730E-16  -0.1101907875E-16  -0.4371400903E-16   0.2125000003E+01
   0.0000000000E+00   0.0000000000E+00   0.9903797178E+00   0.0000000000E+00   0.0000000000E+00  -0.1122750000E-02   0.0000000000E+00   0.0000000000E+00  -0.8497532151E-02  -0.2125000003E+01   0.1862347193E-11   0.1862933512E-11  -0.4346576355E-16  -0.3189269990E-15   0.2429269145E-15   0.1923206433E-01  -0.9620282165E-02  -0.9620282165E-02   0.1934290142E-17  -0.9815489286E-16  -0.1140841196E-16   0.2125000003E+01
   0.1019232064E+01   0.0000000000E+00   0.9903797178E+00   0.2250000000E-02   0.0000000000E+00  -0.1122750000E-02   0.1698206430E-01   0.0000000000E+00  -0.8497532151E-02  -0.2125000003E+01  -0.2108565870E-12  -0.2101577874E-12  -0.7814846792E-16   0.8191665419E-15  -0.3157167364E-16   0.1923206433E-01  -0.9620282164E-02  -0.9620282164E-02   0.5187532368E-16   0.4548290423E-16  -0.5440353069E-17   0.2125000003E+01
   0.1019232064E+01   0.9903797178E+00   0.9903797178E+00   0.2250000000E-02  -0.1122750000E-02  -0.1122750000E-02   0.1698206430E-01  -0.8497532151E-02  -0.8497532151E-02  -0.2125000003E+01   0.3271964986E-12   0.3279870700E-12  -0.4807408280E-15   0.4608729525E-15   0.1553128050E-15   0.1923206433E-01  -0.9620282163E-02  -0.9620282163E-02   0.5184140974E-16   0.6315382432E-16   0.9607956013E-16   0.2125000003E+01
   0.0000000000E+00   0.9903797178E+00   0.9903797178E+00   0.0000000000E+00  -0.1122750000E-02  -0.1122750000E-02   0.0000000000E+00  -0.8497532151E-02  -0.8497532151E-02  -0.2125000003E+01   0.2953900610E-11   0.2952848621E-11  -0.2164295363E-16  -0.5729277049E-15  -0.4115806863E-15   0.1923206433E-01  -0.9620282164E-02  -0.9620282164E-02   0.1106461751E-15  -0.6625767129E-16  -0.6216128480E-16   0.2125000003E+01
   0.2038464129E+01   0.0000000000E+00  -0.4785229242E-16   0.4500000000E-02   0.0000000000E+00   0.1262291509E-17   0.3396412860E-01   0.0000000000E+00  -0.4911458393E-16  -0.2125000003E+01   0.2011036900E-11   0.2012923745E-11  -0.5014627859E-15  -0.1594660930E-14  -0.2485527638E-15   0.1923206433E-01  -0.9620282165E-02  -0.9620282165E-02   0.1773843273E-15  -0.6971773398E-16  -0.1734146012E-16   0.2125000003E+01
   0.2038464129E+01   0.9903797178E+00  -0.5549067813E-16   0.4500000000E-02  -0.1122750000E-02   0.1937869907E-17   0.3396412860E-01  -0.8497532151E-02  -0.5742854804E-16  -0.2125000003E+01   0.7872847580E-12   0.7863572061E-12  -0.5611933529E-15  -0.1386479085E-15  -0.6412517651E-15   0.1923206433E-01  -0.9620282164E-02  -0.9620282164E-02   0.1732672635E-15  -0.1843351277E-15   0.1538029914E-16   0.2125000003E+01
   0.2038464129E+01   0.0000000000E+00   0.9903797178E+00   0.4500000000E-02   0.0000000000E+00  -0.1122750000E-02   0.3396412860E-01   0.0000000000E+00  -0.8497532151E-02  -0.2125000003E+01  -0.3574531279E-12  -0.3590713130E-12   0.5651460925E-15  -0.6807959720E-15   0.5288376079E-16   0.1923206433E-01  -0.9620282164E-02  -0.9620282164E-02   0.7406894841E-16  -0.4540475699E-16  -0.3012973343E-16   0.2125000003E+01
   0.2038464129E+01   0.9903797178E+00   0.9903797178E+00   0.4500000000E-02  -0.1122750000E-02  -0.1122750000E-02   0.3396412860E-01  -0.8497532151E-02  -0.8497532151E-02  -0.2125000003E+01  -0.2114193131E-11  -0.2114703425E-11   0.5000413821E-16  -0.2981776474E-15   0.3652491997E-15   0.1923206433E-01  -0.9620282163E-02  -0.9620282163E-02  -0.6249001937E-16  -0.1842084598E-15  -0.9292082060E-17   0.2125000003E+01
     1     2     3     4     5     6     7     8
     2     9    10     3     6    11    12     7
 VARIABLES = X,Y,Z,DU1,DU2,DU3,U1,U2,U3,S11,S22,S33,S12,S13,S23,E11,E22,E33,E12,E13,E23,SMISES
 ZONE, T="0.6400D+01" F=FEPOINT, I=   12 J=    2 ET=BRICK
   0.0000000000E+00   0.0000000000E+00   0.0000000000E+00   0.0000000000E+00   0.0000000000E+00   0.0000000000E+00   0.0000000000E+00   0.0000000000E+00   0.0000000000E+00  -0.1000000002E+01  -0.1147970823E-11  -0.1145726376E-11  -0.2472676885E-15  -0.6253768635E-15  -0.2042960361E-15   0.2148206434E-01  -0.1074303217E-01  -0.1074303217E-01  -0.1876657519E-17  -0.2355334127E-16  -0.6173726551E-17   0.1000000002E+01
   0.1021482064E+01   0.0000000000E+00  -0.1794533926E-16   0.2250000000E-02   0.0000000000E+00  -0.1044762647E-17   0.1923206430E-01   0.0000000000E+00  -0.1690057661E-16  -0.1000000002E+01   0.4607379302E-12   0.4593179482E-12   0.8068807899E-15   0.6168568059E-15   0.3088213613E-16   0.2148206433E-01  -0.1074303217E-01  -0.1074303217E-01   0.1489230894E-16   0.5355784736E-16   0.6127567471E-18   0.1000000002E+01
   0.1021482064E+01   0.9892569678E+00  -0.1804681057E-16   0.2250000000E-02  -0.1122750000E-02  -0.1622355873E-17   0.1923206430E-01  -0.9620282151E-02  -0.1642445470E-16  -0.1000000001E+01  -0.8553583342E-12  -0.8549266641E-12   0.5250426110E-15  -0.2474451963E-15   0.3792091186E-15   0.2148206433E-01  -0.1074303217E-01  -0.1074303217E-01  -0.2192127400E-16   0.8024400092E-16   0.9210128477E-16   0.1000000001E+01
   0.0000000000E+00   0.9892569678E+00  -0.4088255382E-17   0.0000000000E+00  -0.1122750000E-02  -0.3740103340E-18   0.0000000000E+00  -0.9620282151E-02  -0.3714245048E-17  -0.1000000001E+01  -0.4290810978E-11  -0.4291986568E-11  -0.4732451849E-15  -0.6056616454E-16  -0.1502938335E-15   0.2148206433E-01  -0.1074303217E-01  -0.1074303217E-01  -0.6950363659E-16  -0.1614449843E-16  -0.4009128491E-16   0.1000000001E+01
   0.0000000000E+00   0.0000000000E+00   0.9892569678E+00   0.0000000000E+00   0.0000000000E+00  -0.1122750000E-02   0.0000000000E+00   0.0000000000E+00  -0.9620282151E-02  -0.1000000001E+01   0.1807568719E-11   0.1807901653E-11  -0.4107828063E-16  -0.2663875853E-15   0.1228820096E-15   0.2148206433E-01  -0.1074303217E-01  -0.1074303217E-01   0.1111037139E-17  -0.9710315952E-16  -0.1957514709E-16   0.1000000001E+01
   0.1021482064E+01   0.0000000000E+00   0.9892569678E+00   0.2250000000E-02   0.0000000000E+00  -0.1122750000E-02   0.1923206430E-01   0.0000000000E+00  -0.9620282151E-02  -0.1000000001E+01  -0.6236947939E-13  -0.6179830200E-13  -0.6453017786E-16   0.6300184937E-15  -0.1487700129E-15   0.2148206433E-01  -0.1074303217E-01  -0.1074303217E-01   0.4612377744E-16   0.3049844948E-16  -0.7562242784E-18   0.1000000001E+01
   0.1021482064E+01   0.9892569678E+00   0.9892569678E+00   0.2250000000E-02  -0.1122750000E-02  -0.1122750000E-02   0.1923206430E-01  -0.9620282151E-02  -0.9620282151E-02  -0.1000000001E+01   0.4402249687E-12   0.4408398438E-12  -0.4097054387E-15   0.3925733710E-15   0.2347140186E-15   0.2148206433E-01  -0.1074303216E-01  -0.1074303216E-01   0.4988324852E-16   0.6790935619E-16   0.9438515126E-16   0.1000000001E+01
   0.0000000000E+00   0.9892569678E+00   0.9892569678E+00   0.0000000000E+00  -0.1122750000E-02  -0.1122750000E-02   0.0000000000E+00  -0.9620282151E-02  -0.9620282151E-02  -0.1000000001E+01   0.2914352719E-11   0.2912957636E-11  -0.1157290881E-16  -0.5298731371E-15  -0.4003677191E-15   0.2148206433E-01  -0.1074303217E-01  -0.1074303217E-01   0.1107222940E-15  -0.6419289428E-16  -0.5853727859E-16   0.1000000001E+01
   0.2042964129E+01   0.0000000000E+00  -0.5346135353E-16   0.4500000000E-02   0.0000000000E+00  -0.5609061112E-17   0.3846412860E-01   0.0000000000E+00  -0.4785229242E-16  -0.1000000002E+01   0.1947704406E-11   0.1949670300E-11  -0.8507341047E-15  -0.1403978477E-14  -0.2962766197E-15   0.2148206433E-01  -0.1074303217E-01  -0.1074303217E-01   0.1717493037E-15  -0.8049479274E-16  -0.1503349867E-16   0.1000000002E+01
   0.2042964129E+01   0.9892569678E+00  -0.6140139857E-16   0.4500000000E-02  -0.1122750000E-02  -0.5910720439E-17   0.3846412860E-01  -0.9620282151E-02  -0.5549067813E-16  -0.1000000001E+01   0.6650783370E-12   0.6642233944E-12  -0.8075500696E-15   0.5684865921E-16  -0.5712611104E-15   0.2148206433E-01  -0.1074303217E-01  -0.1074303217E-01   0.1665867659E-15  -0.1910334785E-15   0.1197756991E-16   0.1000000001E+01
   0.2042964129E+01   0.0000000000E+00   0.9892569678E+00   0.4500000000E-02   0.0000000000E+00  -0.1122750000E-02   0.3846412860E-01   0.0000000000E+00  -0.9620282151E-02  -0.1000000001E+01  -0.1738785003E-13  -0.1897270172E-13   0.6340458202E-15  -0.4815022657E-15  -0.5340055345E-16   0.2148206433E-01  -0.1074303217E-01  -0.1074303217E-01   0.6926926304E-16  -0.7579085577E-17  -0.4082468121E-16   0.1000000001E+01
   0.2042964129E+01   0.9892569678E+00   0.9892569678E+00   0.4500000000E-02  -0.1122750000E-02  -0.1122750000E-02   0.3846412860E-01  -0.9620282151E-02  -0.9620282151E-02  -0.1000000001E+01  -0.1860048222E-11  -0.1860531623E-11   0.1184089551E-15   0.3316389207E-15   0.3084244862E-15   0.2148206433E-01  -0.1074303216E-01  -0.1074303216E-01  -0.3902750070E-16  -0.1998440296E-15  -0.1371659514E-16   0.1000000001E+01
     1     2     3     4     5     6     7     8
     2     9    10     3     6    11    12     7
 VARIABLES = X,Y,Z,DU1,DU2,DU3,U1,U2,U3,S11,S22,S33,S12,S13,S23,E11,E22,E33,E12,E13,E23,SMISES
 ZONE, T="0.6450D+01" F=FEPOINT, I=   12 J=    2 ET=BRICK
   0.0000000000E+00   0.0000000000E+00   0.0000000000E+00   0.0000000000E+00   0.0000000000E+00   0.0000000000E+00   0.0000000000E+00   0.0000000000E+00   0.0000000000E+00   0.1250000002E+00  -0.1015614700E-11  -0.1013469478E-11  -0.2615496726E-15  -0.4824936352E-15  -0.1580544396E-15   0.2373206434E-01  -0.1186578217E-01  -0.1186578217E-01   0.1344747876E-17  -0.2127546548E-16  -0.6694966123E-17   0.1250000002E+00
   0.1023732064E+01   0.0000000000E+00  -0.1697886161E-16   0.2250000000E-02   0.0000000000E+00   0.9664776480E-18   0.2148206430E-01   0.0000000000E+00  -0.1794533926E-16   0.1250000002E+00   0.4715105177E-12   0.4699467327E-12   0.8773702360E-15   0.6969267841E-15   0.5470812622E-16   0.2373206434E-01  -0.1186578217E-01  -0.1186578217E-01   0.1010908946E-16   0.4287448058E-16  -0.7450744174E-18   0.1250000002E+00
   0.1023732064E+01   0.9881342178E+00  -0.1702107874E-16   0.2250000000E-02  -0.1122750000E-02   0.1025731835E-17   0.2148206430E-01  -0.1074303215E-01  -0.1804681057E-16   0.1250000002E+00  -0.7478168683E-12  -0.7475139780E-12   0.5291742528E-15  -0.4423115912E-15   0.2932877564E-15   0.2373206434E-01  -0.1186578217E-01  -0.1186578217E-01  -0.2852707082E-16   0.9012258944E-16   0.9699454391E-16   0.1250000002E+00
   0.0000000000E+00   0.9881342178E+00  -0.3828333995E-17   0.0000000000E+00  -0.1122750000E-02   0.2599213878E-18   0.0000000000E+00  -0.1074303215E-01  -0.4088255382E-17   0.1250000002E+00  -0.4135710057E-11  -0.4136855409E-11  -0.3579699324E-15   0.3980788116E-16  -0.2105571932E-15   0.2373206434E-01  -0.1186578217E-01  -0.1186578217E-01  -0.6468307076E-16  -0.1614317592E-16  -0.4284610536E-16   0.1250000002E+00
   0.0000000000E+00   0.0000000000E+00   0.9881342178E+00   0.0000000000E+00   0.0000000000E+00  -0.1122750000E-02   0.0000000000E+00   0.0000000000E+00  -0.1074303215E-01   0.1250000002E+00   0.1769275856E-11   0.1769618133E-11  -0.1008644247E-16  -0.2081531601E-15   0.2150769236E-15   0.2373206434E-01  -0.1186578217E-01  -0.1186578217E-01  -0.6222858535E-18  -0.8847832242E-16  -0.2419984155E-16   0.1250000002E+00
   0.1023732064E+01   0.0000000000E+00   0.9881342178E+00   0.2250000000E-02   0.0000000000E+00  -0.1122750000E-02   0.2148206430E-01   0.0000000000E+00  -0.1074303215E-01   0.1250000002E+00  -0.1112830119E-12  -0.1107226287E-12  -0.2617233323E-15   0.7285315176E-15  -0.1265267744E-15   0.2373206434E-01  -0.1186578217E-01  -0.1186578217E-01   0.4855687232E-16   0.2209668267E-16  -0.2449812401E-17   0.1250000002E+00
   0.1023732064E+01   0.9881342178E+00   0.9881342178E+00   0.2250000000E-02  -0.1122750000E-02  -0.1122750000E-02   0.2148206430E-01  -0.1074303215E-01  -0.1074303215E-01   0.1250000002E+00   0.3257764810E-12   0.3263737476E-12  -0.5315629219E-15   0.3565269123E-15   0.2204209905E-15   0.2373206433E-01  -0.1186578217E-01  -0.1186578217E-01   0.4534477149E-16   0.5878458612E-16   0.9536235424E-16   0.1250000002E+00
   0.0000000000E+00   0.9881342178E+00   0.9881342178E+00   0.0000000000E+00  -0.1122750000E-02  -0.1122750000E-02   0.0000000000E+00  -0.1074303215E-01  -0.1074303215E-01   0.1250000002E+00   0.2817895189E-11   0.2816674460E-11   0.2785596710E-18  -0.5994591714E-15  -0.4276062250E-15   0.2373206433E-01  -0.1186578217E-01  -0.1186578217E-01   0.1102161823E-15  -0.6416615219E-16  -0.3554632540E-16   0.1250000002E+00
   0.2047464129E+01   0.0000000000E+00  -0.5105000710E-16   0.4500000000E-02   0.0000000000E+00   0.2411346430E-17   0.4296412860E-01   0.0000000000E+00  -0.5346135353E-16   0.1250000002E+00   0.1867882885E-11   0.1870063020E-11  -0.6616784324E-15  -0.1432907600E-14  -0.1941372158E-15   0.2373206434E-01  -0.1186578217E-01  -0.1186578217E-01   0.1679521702E-15  -0.9503879661E-16  -0.1114686772E-16   0.1250000002E+00
   0.2047464129E+01   0.9881342178E+00  -0.5841604153E-16   0.4500000000E-02  -0.1122750000E-02   0.2985357047E-17   0.4296412860E-01  -0.1074303215E-01  -0.6140139857E-16   0.1250000002E+00   0.7560782121E-12   0.7552735993E-12  -0.7278987776E-15   0.2024520086E-15  -0.5464663542E-15   0.2373206433E-01  -0.1186578217E-01  -0.1186578217E-01   0.1717027010E-15  -0.1611844281E-15   0.1010367920E-16   0.1250000002E+00
   0.2047464129E+01   0.0000000000E+00   0.9881342178E+00   0.4500000000E-02   0.0000000000E+00  -0.1122750000E-02   0.4296412860E-01   0.0000000000E+00  -0.1074303215E-01   0.1250000002E+00  -0.4569602178E-13  -0.4695286014E-13   0.6524312117E-15  -0.3166749695E-15   0.5336929128E-16   0.2373206433E-01  -0.1186578217E-01  -0.1186578217E-01   0.5657036162E-16  -0.9415945295E-17  -0.4088478556E-16   0.1250000002E+00
   0.2047464129E+01   0.9881342178E+00   0.9881342178E+00   0.4500000000E-02  -0.1122750000E-02  -0.1122750000E-02   0.4296412860E-01  -0.1074303215E-01  -0.1074303215E-01   0.1250000002E+00  -0.1961269257E-11  -0.1961559608E-11   0.2487622776E-16   0.8565453509E-16   0.2857849696E-15   0.2373206433E-01  -0.1186578217E-01  -0.1186578217E-01  -0.5893641988E-16  -0.2030430428E-15  -0.7463624273E-17   0.1250000002E+00
     1     2     3     4     5     6     7     8
     2     9    10     3     6    11    12     7
 VARIABLES = X,Y,Z,DU1,DU2,DU3,U1,U2,U3,S11,S22,S33,S12,S13,S23,E11,E22,E33,E12,E13,E23,SMISES
 ZONE, T="0.6500D+01" F=FEPOINT, I=   12 J=    2 ET=BRICK
   0.0000000000E+00   0.0000000000E+00   0.0000000000E+00   0.0000000000E+00   0.0000000000E+00   0.0000000000E+00   0.0000000000E+00   0.0000000000E+00   0.0000000000E+00   0.1250000002E+01  -0.1103530710E-11  -0.1101250706E-11  -0.2772268967E-15  -0.6249043729E-15  -0.1791552879E-15   0.2598206434E-01  -0.1298853217E-01  -0.1298853217E-01   0.1235045240E-17  -0.1986601140E-16  -0.8573903025E-17   0.1250000002E+01
   0.1025982064E+01   0.0000000000E+00  -0.1770730563E-16   0.2250000000E-02   0.0000000000E+00  -0.7284440216E-18   0.2373206430E-01   0.0000000000E+00  -0.1697886161E-16   0.1250000002E+01   0.4650204954E-12   0.4636607394E-12   0.1035743717E-14   0.8528874373E-15   0.7333903323E-16   0.2598206434E-01  -0.1298853217E-01  -0.1298853217E-01   0.2470843118E-16   0.4349261788E-16  -0.4640214856E-17   0.1250000002E+01
   0.1025982064E+01   0.9870114678E+00  -0.1756281121E-16   0.2250000000E-02  -0.1122750000E-02  -0.5417324682E-18   0.2373206430E-01  -0.1186578215E-01  -0.1702107874E-16   0.1250000002E+01  -0.8156652055E-12  -0.8152565760E-12   0.6820764159E-15  -0.5510727593E-15   0.4151977189E-15   0.2598206434E-01  -0.1298853217E-01  -0.1298853217E-01  -0.1330298133E-16   0.9665397678E-16   0.1067361125E-15   0.1250000002E+01
   0.0000000000E+00   0.9870114678E+00  -0.3846529853E-17   0.0000000000E+00  -0.1122750000E-02  -0.1819585821E-19   0.0000000000E+00  -0.1186578215E-01  -0.3828333995E-17   0.1250000002E+01  -0.4111600163E-11  -0.4112729040E-11  -0.3355416326E-15   0.6379333902E-17  -0.1818118404E-15   0.2598206434E-01  -0.1298853217E-01  -0.1298853217E-01  -0.6941959287E-16  -0.1705370470E-16  -0.4020566445E-16   0.1250000002E+01
   0.0000000000E+00   0.0000000000E+00   0.9870114678E+00   0.0000000000E+00   0.0000000000E+00  -0.1122750000E-02   0.0000000000E+00   0.0000000000E+00  -0.1186578215E-01   0.1250000002E+01   0.1890497944E-11   0.1891015372E-11  -0.3479485219E-17  -0.3348389304E-15   0.1809737985E-15   0.2598206434E-01  -0.1298853217E-01  -0.1298853217E-01   0.2524289528E-17  -0.9527506780E-16  -0.1245954957E-16   0.1250000002E+01
   0.1025982064E+01   0.0000000000E+00   0.9870114678E+00   0.2250000000E-02   0.0000000000E+00  -0.1122750000E-02   0.2373206430E-01   0.0000000000E+00  -0.1186578215E-01   0.1250000002E+01  -0.7218036405E-13  -0.7161934590E-13  -0.2704133467E-15   0.7235853315E-15  -0.8350478829E-16   0.2598206434E-01  -0.1298853217E-01  -0.1298853217E-01   0.4546449826E-16   0.3710004686E-16   0.5216521099E-17   0.1250000002E+01
   0.1025982064E+01   0.9870114678E+00   0.9870114678E+00   0.2250000000E-02  -0.1122750000E-02  -0.1122750000E-02   0.2373206430E-01  -0.1186578215E-01  -0.1186578215E-01   0.1250000002E+01   0.4658551252E-12   0.4663765743E-12  -0.5428371175E-15   0.2723853997E-15   0.3383874911E-15   0.2598206434E-01  -0.1298853217E-01  -0.1298853217E-01   0.4290160698E-16   0.3337041934E-16   0.9186363656E-16   0.1250000002E+01
   0.0000000000E+00   0.9870114678E+00   0.9870114678E+00   0.0000000000E+00  -0.1122750000E-02  -0.1122750000E-02   0.0000000000E+00  -0.1186578215E-01  -0.1186578215E-01   0.1250000002E+01   0.2807244436E-11   0.2806045004E-11   0.7720129638E-16  -0.6271004022E-15  -0.5088642074E-15   0.2598206434E-01  -0.1298853217E-01  -0.1298853217E-01   0.1090551462E-15  -0.6032052464E-16  -0.7616707590E-16   0.1250000002E+01
   0.2051964129E+01   0.0000000000E+00  -0.5227702583E-16   0.4500000000E-02   0.0000000000E+00  -0.1227018733E-17   0.4746412860E-01   0.0000000000E+00  -0.5105000710E-16   0.1250000002E+01   0.1860635959E-11   0.1862475593E-11  -0.7844908503E-15  -0.1829102767E-14  -0.3083524292E-15   0.2598206434E-01  -0.1298853217E-01  -0.1298853217E-01   0.1645558821E-15  -0.5365994998E-16  -0.1463698362E-16   0.1250000002E+01
   0.2051964129E+01   0.9870114678E+00  -0.6030736202E-16   0.4500000000E-02  -0.1122750000E-02  -0.1891320491E-17   0.4746412860E-01  -0.1186578215E-01  -0.5841604153E-16   0.1250000002E+01   0.6225345338E-12   0.6217087079E-12  -0.8369096280E-15   0.5107923783E-15  -0.7211592113E-15   0.2598206434E-01  -0.1298853217E-01  -0.1298853217E-01   0.1576491179E-15  -0.1626842956E-15  -0.2265268522E-17   0.1250000002E+01
   0.2051964129E+01   0.0000000000E+00   0.9870114678E+00   0.4500000000E-02   0.0000000000E+00  -0.1122750000E-02   0.4746412860E-01   0.0000000000E+00  -0.1186578215E-01   0.1250000002E+01  -0.3339410462E-12  -0.3352757331E-12   0.1175752044E-14  -0.4708417471E-15   0.5046417571E-16   0.2598206434E-01  -0.1298853217E-01  -0.1298853217E-01   0.7004597752E-16   0.1793167858E-16  -0.3622809711E-16   0.1250000002E+01
   0.2051964129E+01   0.9870114678E+00   0.9870114678E+00   0.4500000000E-02  -0.1122750000E-02  -0.1122750000E-02   0.4746412860E-01  -0.1186578215E-01  -0.1186578215E-01   0.1250000002E+01  -0.1807496055E-11  -0.1807573913E-11   0.3183093749E-15   0.2477616473E-15   0.2743870916E-15   0.2598206433E-01  -0.1298853217E-01  -0.1298853217E-01  -0.4779702373E-16  -0.1894122931E-15  -0.1152138678E-16   0.1250000002E+01
     1     2     3     4     5     6     7     8
     2     9    10     3     6    11    12     7
 VARIABLES = X,Y,Z,DU1,DU2,DU3,U1,U2,U3,S11,S22,S33,S12,S13,S23,E11,E22,E33,E12,E13,E23,SMISES
 ZONE, T="0.6550D+01" F=FEPOINT, I=   12 J=    2 ET=BRICK
   0.0000000000E+00   0.0000000000E+00   0.0000000000E+00   0.0000000000E+00   0.0000000000E+00   0.0000000000E+00   0.0000000000E+00   0.0000000000E+00   0.0000000000E+00   0.2375000004E+01  -0.8958533419E-12  -0.8937397375E-12  -0.3044997871E-15  -0.3275131597E-15  -0.7399877640E-16   0.2823206435E-01  -0.1411128217E-01  -0.1411128217E-01  -0.7026031742E-18  -0.2545482446E-16  -0.6736008235E-17   0.2375000004E+01
   0.1028232064E+01   0.0000000000E+00  -0.1587499874E-16   0.2250000000E-02   0.0000000000E+00   0.1832306894E-17   0.2598206430E-01   0.0000000000E+00  -0.1770730563E-16   0.2375000004E+01   0.4383926435E-12   0.4370291690E-12   0.1047797232E-14   0.6887128878E-15   0.2256294197E-16   0.2823206434E-01  -0.1411128217E-01  -0.1411128217E-01   0.1899596740E-16   0.4500437429E-16   0.1803777333E-17   0.2375000004E+01
   0.1028232064E+01   0.9858887178E+00  -0.1598136413E-16   0.2250000000E-02  -0.1122750000E-02   0.1581447074E-17   0.2598206430E-01  -0.1298853215E-01  -0.1756281121E-16   0.2375000003E+01  -0.6200936754E-12  -0.6199162533E-12   0.6587088540E-15  -0.5758642224E-15   0.2575644022E-15   0.2823206434E-01  -0.1411128217E-01  -0.1411128217E-01  -0.9435795576E-17   0.7459286141E-16   0.8840774516E-16   0.2375000003E+01
   0.0000000000E+00   0.9858887178E+00  -0.3485021066E-17   0.0000000000E+00  -0.1122750000E-02   0.3615087873E-18   0.0000000000E+00  -0.1298853215E-01  -0.3846529853E-17   0.2375000003E+01  -0.4005261440E-11  -0.4006298750E-11  -0.3027308313E-15   0.9754954623E-16  -0.3044523641E-15   0.2823206434E-01  -0.1411128217E-01  -0.1411128217E-01  -0.7475527829E-16  -0.6247657514E-17  -0.4783003284E-16   0.2375000003E+01
   0.0000000000E+00   0.0000000000E+00   0.9858887178E+00   0.0000000000E+00   0.0000000000E+00  -0.1122750000E-02   0.0000000000E+00   0.0000000000E+00  -0.1298853215E-01   0.2375000003E+01   0.1612514706E-11   0.1613199895E-11  -0.3345764881E-17  -0.5020018356E-16   0.2395843881E-15   0.2823206434E-01  -0.1411128217E-01  -0.1411128217E-01   0.2051100093E-17  -0.9260694640E-16  -0.1796887581E-16   0.2375000003E+01
   0.1028232064E+01   0.0000000000E+00   0.9858887178E+00   0.2250000000E-02   0.0000000000E+00  -0.1122750000E-02   0.2598206430E-01   0.0000000000E+00  -0.1298853215E-01   0.2375000003E+01  -0.6585751758E-13  -0.6533069570E-13  -0.2840030811E-15   0.7432623056E-15  -0.1214598876E-15   0.2823206434E-01  -0.1411128217E-01  -0.1411128217E-01   0.4862172409E-16   0.2506248338E-16  -0.3297535961E-17   0.2375000003E+01
   0.1028232064E+01   0.9858887178E+00   0.9858887178E+00   0.2250000000E-02  -0.1122750000E-02  -0.1122750000E-02   0.2598206430E-01  -0.1298853215E-01  -0.1298853215E-01   0.2375000003E+01   0.2612848604E-12   0.2619996021E-12  -0.4948617556E-15   0.1956955124E-15   0.9962208480E-16   0.2823206434E-01  -0.1411128217E-01  -0.1411128217E-01   0.3994038178E-16   0.4434458965E-16   0.9384404165E-16   0.2375000003E+01
   0.0000000000E+00   0.9858887178E+00   0.9858887178E+00   0.0000000000E+00  -0.1122750000E-02  -0.1122750000E-02   0.0000000000E+00  -0.1298853215E-01  -0.1298853215E-01   0.2375000003E+01   0.2644613012E-11   0.2643323375E-11   0.5633930964E-16  -0.5122609161E-15  -0.4878031090E-15   0.2823206434E-01  -0.1411128217E-01  -0.1411128217E-01   0.1144796190E-15  -0.7010219304E-16  -0.5194666551E-16   0.2375000003E+01
   0.2056464129E+01   0.0000000000E+00  -0.4804648773E-16   0.4500000000E-02   0.0000000000E+00   0.4230538106E-17   0.5196412860E-01   0.0000000000E+00  -0.5227702583E-16   0.2375000004E+01   0.1650428492E-11   0.1652436518E-11  -0.2660471352E-15  -0.1090509831E-14  -0.1484537101E-15   0.2823206434E-01  -0.1411128217E-01  -0.1411128217E-01   0.1635698732E-15  -0.5340792100E-16  -0.1062526253E-16   0.2375000004E+01
   0.2056464129E+01   0.9858887178E+00  -0.5512753402E-16   0.4500000000E-02  -0.1122750000E-02   0.5179827996E-17   0.5196412860E-01  -0.1298853215E-01  -0.6030736202E-16   0.2375000003E+01   0.9043960883E-12   0.9036025994E-12  -0.3633722602E-15   0.1071391660E-16  -0.4909758799E-15   0.2823206434E-01  -0.1411128217E-01  -0.1411128217E-01   0.1627383677E-15  -0.1394916320E-15  -0.2808532399E-17   0.2375000003E+01
   0.2056464129E+01   0.0000000000E+00   0.9858887178E+00   0.4500000000E-02   0.0000000000E+00  -0.1122750000E-02   0.5196412860E-01   0.0000000000E+00  -0.1298853215E-01   0.2375000003E+01   0.1164482630E-12   0.1149641409E-12   0.3312344824E-15   0.7785073717E-16   0.1579231172E-15   0.2823206434E-01  -0.1411128217E-01  -0.1411128217E-01   0.4624719960E-16   0.2865179638E-16  -0.3544914588E-16   0.2375000003E+01
   0.2056464129E+01   0.9858887178E+00   0.9858887178E+00   0.4500000000E-02  -0.1122750000E-02  -0.1122750000E-02   0.5196412860E-01  -0.1298853215E-01  -0.1298853215E-01   0.2375000003E+01  -0.1948490058E-11  -0.1948581296E-11  -0.3019924651E-15   0.4820307163E-16   0.4498289958E-15   0.2823206434E-01  -0.1411128217E-01  -0.1411128217E-01  -0.5726986146E-16  -0.2097901322E-15  -0.1085659181E-16   0.2375000003E+01
     1     2     3     4     5     6     7     8
     2     9    10     3     6    11    12     7
 VARIABLES = X,Y,Z,DU1,DU2,DU3,U1,U2,U3,S11,S22,S33,S12,S13,S23,E11,E22,E33,E12,E13,E23,SMISES
 ZONE, T="0.6600D+01" F=FEPOINT, I=   12 J=    2 ET=BRICK
   0.0000000000E+00   0.0000000000E+00   0.0000000000E+00   0.0000000000E+00   0.0000000000E+00   0.0000000000E+00   0.0000000000E+00   0.0000000000E+00   0.0000000000E+00   0.3500000005E+01  -0.8885906011E-12  -0.8868432634E-12  -0.3275416840E-15  -0.5275502722E-15   0.1457292446E-17   0.3048206435E-01  -0.1523403217E-01  -0.1523403217E-01   0.3818730160E-17  -0.1721556649E-16  -0.4406494020E-17   0.3500000005E+01
   0.1030482064E+01   0.0000000000E+00  -0.1635733589E-16   0.2250000000E-02   0.0000000000E+00  -0.4823371490E-18   0.2823206430E-01   0.0000000000E+00  -0.1587499874E-16   0.3500000005E+01   0.6593658830E-12   0.6583057270E-12   0.9510350600E-15   0.6301650148E-15   0.2609049366E-15   0.3048206435E-01  -0.1523403217E-01  -0.1523403217E-01   0.1799001215E-16   0.4012158510E-16   0.9074290039E-18   0.3500000005E+01
   0.1030482064E+01   0.9847659678E+00  -0.1499081760E-16   0.2250000000E-02  -0.1122750000E-02   0.9905465294E-18   0.2823206430E-01  -0.1411128215E-01  -0.1598136413E-16   0.3500000005E+01  -0.7647079880E-12  -0.7647431807E-12   0.6373842254E-15  -0.3758647861E-15   0.5406701845E-15   0.3048206434E-01  -0.1523403217E-01  -0.1523403217E-01  -0.1160613145E-16   0.6518733119E-16   0.9223653069E-16   0.3500000005E+01
   0.0000000000E+00   0.9847659678E+00  -0.3210185235E-17   0.0000000000E+00  -0.1122750000E-02   0.2748358309E-18   0.0000000000E+00  -0.1411128215E-01  -0.3485021066E-17   0.3500000005E+01  -0.3906886273E-11  -0.3907926306E-11  -0.5333978501E-15   0.2521786137E-15  -0.4536368604E-15   0.3048206435E-01  -0.1523403217E-01  -0.1523403217E-01  -0.7772581418E-16  -0.5632382418E-17  -0.4557849239E-16   0.3500000005E+01
   0.0000000000E+00   0.0000000000E+00   0.9847659678E+00   0.0000000000E+00   0.0000000000E+00  -0.1122750000E-02   0.0000000000E+00   0.0000000000E+00  -0.1411128215E-01   0.3500000005E+01   0.1659301640E-11   0.1660517637E-11   0.1045245747E-17  -0.1208855107E-15   0.2926669445E-15   0.3048206435E-01  -0.1523403217E-01  -0.1523403217E-01  -0.1932713763E-17  -0.1039070389E-15  -0.2132563556E-16   0.3500000005E+01
   0.1030482064E+01   0.0000000000E+00   0.9847659678E+00   0.2250000000E-02   0.0000000000E+00  -0.1122750000E-02   0.2823206430E-01   0.0000000000E+00  -0.1411128215E-01   0.3500000005E+01  -0.2559512029E-12  -0.2552172106E-12  -0.6411372674E-16   0.6726327318E-15  -0.2126806873E-16   0.3048206434E-01  -0.1523403217E-01  -0.1523403217E-01   0.5507260073E-16   0.3668450924E-16   0.1028362993E-16   0.3500000005E+01
   0.1030482064E+01   0.9847659678E+00   0.9847659678E+00   0.2250000000E-02  -0.1122750000E-02  -0.1122750000E-02   0.2823206430E-01  -0.1411128215E-01  -0.1411128215E-01   0.3500000005E+01   0.3004446983E-12   0.3012610325E-12  -0.3421426205E-15   0.2592516116E-15   0.2552210900E-15   0.3048206434E-01  -0.1523403217E-01  -0.1523403217E-01   0.5110191554E-16   0.5873782314E-16   0.7847620540E-16   0.3500000005E+01
   0.0000000000E+00   0.9847659678E+00   0.9847659678E+00   0.0000000000E+00  -0.1122750000E-02  -0.1122750000E-02   0.0000000000E+00  -0.1411128215E-01  -0.1411128215E-01   0.3500000005E+01   0.2648644005E-11   0.2646967053E-11   0.7173011296E-16  -0.3471445978E-15  -0.4379232788E-15   0.3048206434E-01  -0.1523403217E-01  -0.1523403217E-01   0.1099211264E-15  -0.7196684754E-16  -0.5415875764E-16   0.3500000005E+01
   0.2060964129E+01   0.0000000000E+00  -0.4597083466E-16   0.4500000000E-02   0.0000000000E+00   0.2075653063E-17   0.5646412860E-01   0.0000000000E+00  -0.4804648773E-16   0.3500000005E+01   0.2128672746E-11   0.2130288743E-11  -0.1605667357E-14  -0.2595272517E-14  -0.3678699851E-15   0.3048206435E-01  -0.1523403217E-01  -0.1523403217E-01   0.1610827750E-15  -0.3577286974E-16  -0.1452607480E-16   0.3500000005E+01
   0.2060964129E+01   0.9847659678E+00  -0.5440001192E-16   0.4500000000E-02  -0.1122750000E-02   0.7275221019E-18   0.5646412860E-01  -0.1411128215E-01  -0.5512753402E-16   0.3500000005E+01   0.6136108441E-12   0.6128498257E-12  -0.1478820475E-14   0.1132011022E-14  -0.1019085124E-14   0.3048206434E-01  -0.1523403217E-01  -0.1523403217E-01   0.1681061914E-15  -0.1680706509E-15  -0.1713421141E-17   0.3500000005E+01
   0.2060964129E+01   0.0000000000E+00   0.9847659678E+00   0.4500000000E-02   0.0000000000E+00  -0.1122750000E-02   0.5646412860E-01   0.0000000000E+00  -0.1411128215E-01   0.3500000005E+01  -0.3765771884E-12  -0.3780558662E-12   0.1555544294E-14  -0.8566228835E-15   0.2006736377E-16   0.3048206434E-01  -0.1523403217E-01  -0.1523403217E-01   0.4515092037E-16   0.3631655431E-16  -0.4274734221E-16   0.3500000005E+01
   0.2060964129E+01   0.9847659678E+00   0.9847659678E+00   0.4500000000E-02  -0.1122750000E-02  -0.1122750000E-02   0.5646412860E-01  -0.1411128215E-01  -0.1411128215E-01   0.3500000004E+01  -0.1885263824E-11  -0.1885130295E-11   0.8130038287E-15   0.6234020060E-15  -0.8927535312E-17   0.3048206434E-01  -0.1523403217E-01  -0.1523403217E-01  -0.7053694022E-16  -0.1925728166E-15  -0.1680163343E-16   0.3500000004E+01
     1     2     3     4     5     6     7     8
     2     9    10     3     6    11    12     7
 VARIABLES = X,Y,Z,DU1,DU2,DU3,U1,U2,U3,S11,S22,S33,S12,S13,S23,E11,E22,E33,E12,E13,E23,SMISES
 ZONE, T="0.6650D+01" F=FEPOINT, I=   12 J=    2 ET=BRICK
   0.0000000000E+00   0.0000000000E+00   0.0000000000E+00   0.0000000000E+00   0.0000000000E+00   0.0000000000E+00   0.0000000000E+00   0.0000000000E+00   0.0000000000E+00   0.4625000007E+01  -0.1763376049E-11  -0.1761428978E-11  -0.3272430084E-15  -0.1398422963E-14  -0.6383338358E-15   0.3273206435E-01  -0.1635678218E-01  -0.1635678218E-01  -0.7959724408E-18  -0.4056157826E-16  -0.1172928036E-16   0.4625000007E+01
   0.1032732064E+01   0.0000000000E+00  -0.2391084335E-16   0.2250000000E-02   0.0000000000E+00  -0.7553507459E-17   0.3048206430E-01   0.0000000000E+00  -0.1635733589E-16   0.4625000007E+01   0.2409857270E-13   0.2340813501E-13   0.1252672315E-14   0.1372590359E-14  -0.1067311242E-15   0.3273206435E-01  -0.1635678218E-01  -0.1635678218E-01   0.2783943960E-16   0.6519610218E-16  -0.4084802954E-17   0.4625000007E+01
   0.1032732064E+01   0.9836432178E+00  -0.2470343035E-16   0.2250000000E-02  -0.1122750000E-02  -0.9712612752E-17   0.3048206430E-01  -0.1523403215E-01  -0.1499081760E-16   0.4625000007E+01  -0.1042362153E-11  -0.1042552990E-11   0.9143599164E-15  -0.7482937235E-15   0.6448631496E-15   0.3273206435E-01  -0.1635678217E-01  -0.1635678217E-01  -0.7067108119E-17   0.6106208575E-16   0.1011048564E-15   0.4625000007E+01
   0.0000000000E+00   0.9836432178E+00  -0.7045364170E-17   0.0000000000E+00  -0.1122750000E-02  -0.3835178936E-17   0.0000000000E+00  -0.1523403215E-01  -0.3210185235E-17   0.4625000007E+01  -0.4609623261E-11  -0.4609169013E-11   0.1350989816E-16  -0.3579180667E-15  -0.4006888492E-15   0.3273206435E-01  -0.1635678217E-01  -0.1635678217E-01  -0.6576093566E-16  -0.1600233417E-16  -0.4953450928E-16   0.4625000007E+01
   0.0000000000E+00   0.0000000000E+00   0.9836432178E+00   0.0000000000E+00   0.0000000000E+00  -0.1122750000E-02   0.0000000000E+00   0.0000000000E+00  -0.1523403215E-01   0.4625000007E+01   0.2634888271E-11   0.2635384615E-11  -0.1119753769E-16  -0.5887294846E-15  -0.2346879064E-16   0.3273206435E-01  -0.1635678217E-01  -0.1635678217E-01   0.2867244744E-17  -0.1142512371E-15  -0.1577086008E-16   0.4625000007E+01
   0.1032732064E+01   0.0000000000E+00   0.9836432178E+00   0.2250000000E-02   0.0000000000E+00  -0.1122750000E-02   0.3048206430E-01   0.0000000000E+00  -0.1523403215E-01   0.4625000007E+01   0.4475985885E-12   0.4475673813E-12  -0.1176708946E-14   0.1497307751E-14  -0.4716153338E-15   0.3273206435E-01  -0.1635678217E-01  -0.1635678217E-01   0.2702013263E-16   0.6197437525E-16  -0.7445008660E-17   0.4625000007E+01
   0.1032732064E+01   0.9836432178E+00   0.9836432178E+00   0.2250000000E-02  -0.1122750000E-02  -0.1122750000E-02   0.3048206430E-01  -0.1523403215E-01  -0.1523403215E-01   0.4625000006E+01   0.7653852936E-12   0.7660648427E-12  -0.1310877989E-14   0.1694520202E-16   0.2467520201E-15   0.3273206434E-01  -0.1635678217E-01  -0.1635678217E-01   0.2356959494E-16   0.6317512297E-17   0.9088127613E-16   0.4625000006E+01
   0.0000000000E+00   0.9836432178E+00   0.9836432178E+00   0.0000000000E+00  -0.1122750000E-02  -0.1122750000E-02   0.0000000000E+00  -0.1523403215E-01  -0.1523403215E-01   0.4625000006E+01   0.2957300017E-11   0.2955044183E-11   0.2354427898E-15  -0.1076761465E-14  -0.1318897127E-15   0.3273206435E-01  -0.1635678217E-01  -0.1635678217E-01   0.1174343429E-15  -0.6096332763E-16  -0.5670151835E-16   0.4625000006E+01
   0.2065464129E+01   0.0000000000E+00  -0.6996593038E-16   0.4500000000E-02   0.0000000000E+00  -0.2399509571E-16   0.6096412860E-01   0.0000000000E+00  -0.4597083466E-16   0.4625000007E+01   0.1212155087E-11   0.1214066965E-11  -0.2476684750E-15  -0.8934251554E-15  -0.4830000054E-15   0.3273206435E-01  -0.1635678218E-01  -0.1635678218E-01   0.1738296825E-15  -0.3581009327E-16  -0.1658621600E-16   0.4625000007E+01
   0.2065464129E+01   0.9836432178E+00  -0.7907490651E-16   0.4500000000E-02  -0.1122750000E-02  -0.2467489459E-16   0.6096412860E-01  -0.1523403215E-01  -0.5440001192E-16   0.4625000006E+01   0.5626144029E-12   0.5634438141E-12  -0.4672833892E-15   0.5012789004E-15  -0.4640203469E-15   0.3273206435E-01  -0.1635678217E-01  -0.1635678217E-01   0.1639434261E-15  -0.1937622509E-15   0.7590602362E-17   0.4625000006E+01
   0.2065464129E+01   0.0000000000E+00   0.9836432178E+00   0.4500000000E-02   0.0000000000E+00  -0.1122750000E-02   0.6096412860E-01   0.0000000000E+00  -0.1523403215E-01   0.4625000006E+01  -0.2500707306E-12  -0.2522948233E-12   0.8934463918E-15  -0.4055881426E-15   0.2962154333E-15   0.3273206435E-01  -0.1635678217E-01  -0.1635678217E-01   0.4704643112E-16  -0.1790304842E-16  -0.4635140366E-16   0.4625000006E+01
   0.2065464129E+01   0.9836432178E+00   0.9836432178E+00   0.4500000000E-02  -0.1122750000E-02  -0.1122750000E-02   0.6096412860E-01  -0.1523403215E-01  -0.1523403215E-01   0.4625000006E+01  -0.1243240421E-11  -0.1243711536E-11  -0.1051973554E-16   0.5405704834E-15   0.1006806807E-14   0.3273206434E-01  -0.1635678217E-01  -0.1635678217E-01  -0.7389660910E-16  -0.1205210176E-15  -0.9184876444E-17   0.4625000006E+01
     1     2     3     4     5     6     7     8
     2     9    10     3     6    11    12     7
 VARIABLES = X,Y,Z,DU1,DU2,DU3,U1,U2,U3,S11,S22,S33,S12,S13,S23,E11,E22,E33,E12,E13,E23,SMISES
 ZONE, T="0.6700D+01" F=FEPOINT, I=   12 J=    2 ET=BRICK
   0.0000000000E+00   0.0000000000E+00   0.0000000000E+00   0.0000000000E+00   0.0000000000E+00   0.0000000000E+00   0.0000000000E+00   0.0000000000E+00   0.0000000000E+00   0.5750000009E+01  -0.8506615763E-12  -0.8492656312E-12  -0.2843182238E-15  -0.1740345586E-15  -0.9654367644E-16   0.3498206436E-01  -0.1747953218E-01  -0.1747953218E-01  -0.2074951087E-17  -0.3304457173E-16  -0.3211238076E-17   0.5750000009E+01
   0.1034982064E+01   0.0000000000E+00  -0.1610012013E-16   0.2250000000E-02   0.0000000000E+00   0.7810723216E-17   0.3273206430E-01   0.0000000000E+00  -0.2391084335E-16   0.5750000009E+01   0.1705469696E-12   0.1693311688E-12   0.7296336970E-15  -0.2029670168E-15  -0.2675539393E-15   0.3498206436E-01  -0.1747953218E-01  -0.1747953218E-01   0.2740531224E-16   0.5264204100E-16  -0.1615525979E-17   0.5750000009E+01
   0.1034982064E+01   0.9825204678E+00  -0.1784961800E-16   0.2250000000E-02  -0.1122750000E-02   0.6853812356E-17   0.3273206430E-01  -0.1635678215E-01  -0.2470343035E-16   0.5750000008E+01  -0.3600660758E-12  -0.3605711205E-12   0.2074841081E-15   0.5845622096E-15   0.2348200759E-15   0.3498206435E-01  -0.1747953218E-01  -0.1747953218E-01  -0.1188453719E-16   0.5974943944E-16   0.7552776496E-16   0.5750000008E+01
   0.0000000000E+00   0.9825204678E+00  -0.3692713679E-17   0.0000000000E+00  -0.1122750000E-02   0.3352650491E-17   0.0000000000E+00  -0.1635678215E-01  -0.7045364170E-17   0.5750000008E+01  -0.4302471629E-11  -0.4302552174E-11  -0.1874377619E-15  -0.3045720397E-15  -0.2505316653E-16   0.3498206435E-01  -0.1747953218E-01  -0.1747953218E-01  -0.7512441895E-16  -0.6314014539E-17  -0.3540664008E-16   0.5750000008E+01
   0.0000000000E+00   0.0000000000E+00   0.9825204678E+00   0.0000000000E+00   0.0000000000E+00  -0.1122750000E-02   0.0000000000E+00   0.0000000000E+00  -0.1635678215E-01   0.5750000008E+01   0.1204554146E-11   0.1204980105E-11  -0.3966983133E-16  -0.3472979917E-16   0.4017807435E-15   0.3498206435E-01  -0.1747953218E-01  -0.1747953218E-01  -0.6830532559E-18  -0.8878917807E-16  -0.2256896894E-16   0.5750000008E+01
   0.1034982064E+01   0.0000000000E+00   0.9825204678E+00   0.2250000000E-02   0.0000000000E+00  -0.1122750000E-02   0.3273206430E-01   0.0000000000E+00  -0.1635678215E-01   0.5750000008E+01   0.3834599649E-14   0.3470325633E-14   0.1286551934E-14  -0.8266312576E-16  -0.3075820365E-15   0.3498206435E-01  -0.1747953218E-01  -0.1747953218E-01   0.7162971379E-16   0.3726516954E-17  -0.5745709520E-17   0.5750000008E+01
   0.1034982064E+01   0.9825204678E+00   0.9825204678E+00   0.2250000000E-02  -0.1122750000E-02  -0.1122750000E-02   0.3273206430E-01  -0.1635678215E-01  -0.1635678215E-01   0.5750000008E+01   0.4234502029E-12   0.4245847297E-12   0.6302993674E-15   0.9834665745E-15   0.1481819690E-15   0.3498206435E-01  -0.1747953217E-01  -0.1747953217E-01   0.5903228863E-16   0.6893629207E-16   0.1080451865E-15   0.5750000008E+01
   0.0000000000E+00   0.9825204678E+00   0.9825204678E+00   0.0000000000E+00  -0.1122750000E-02  -0.1122750000E-02   0.0000000000E+00  -0.1635678215E-01  -0.1635678215E-01   0.5750000008E+01   0.3413169795E-11   0.3410571464E-11   0.1847084410E-16  -0.6722312741E-15   0.1168088324E-15   0.3498206435E-01  -0.1747953217E-01  -0.1747953217E-01   0.1196654918E-15  -0.7800579198E-16  -0.7253835203E-16   0.5750000008E+01
   0.2069964129E+01   0.0000000000E+00  -0.5050319344E-16   0.4500000000E-02   0.0000000000E+00   0.1946273693E-16   0.6546412860E-01   0.0000000000E+00  -0.6996593038E-16   0.5750000009E+01   0.8983787461E-12   0.9005979285E-12   0.1388987423E-14  -0.3061887549E-15  -0.1732967609E-15   0.3498206435E-01  -0.1747953218E-01  -0.1747953218E-01   0.1813982478E-15   0.2794352265E-17  -0.1349371121E-16   0.5750000009E+01
   0.2069964129E+01   0.9825204678E+00  -0.5781487576E-16   0.4500000000E-02  -0.1122750000E-02   0.2126003076E-16   0.6546412860E-01  -0.1635678215E-01  -0.7907490651E-16   0.5750000008E+01   0.1274552157E-11   0.1275250227E-11   0.8013726963E-15  -0.6713872440E-15  -0.5766610460E-15   0.3498206435E-01  -0.1747953218E-01  -0.1747953218E-01   0.1639484215E-15  -0.2146082288E-15   0.2632599984E-16   0.5750000008E+01
   0.2069964129E+01   0.0000000000E+00   0.9825204678E+00   0.4500000000E-02   0.0000000000E+00  -0.1122750000E-02   0.6546412860E-01   0.0000000000E+00  -0.1635678215E-01   0.5750000008E+01   0.5420900574E-12   0.5412308981E-12   0.2647152314E-15   0.1335800193E-15   0.1158189325E-15   0.3498206435E-01  -0.1747953218E-01  -0.1747953218E-01   0.3487045648E-16  -0.6187034199E-16  -0.3471570089E-16   0.5750000008E+01
   0.2069964129E+01   0.9825204678E+00   0.9825204678E+00   0.4500000000E-02  -0.1122750000E-02  -0.1122750000E-02   0.6546412860E-01  -0.1635678215E-01  -0.1635678215E-01   0.5750000007E+01  -0.2781708514E-11  -0.2782118673E-11  -0.1016796639E-14  -0.1233415628E-14   0.6107420106E-15   0.3498206435E-01  -0.1747953217E-01  -0.1747953217E-01  -0.8273425892E-16  -0.1830356990E-15  -0.4903486147E-16   0.5750000007E+01
     1     2     3     4     5     6     7     8
     2     9    10     3     6    11    12     7
 VARIABLES = X,Y,Z,DU1,DU2,DU3,U1,U2,U3,S11,S22,S33,S12,S13,S23,E11,E22,E33,E12,E13,E23,SMISES
 ZONE, T="0.6750D+01" F=FEPOINT, I=   12 J=    2 ET=BRICK
   0.0000000000E+00   0.0000000000E+00   0.0000000000E+00   0.0000000000E+00   0.0000000000E+00   0.0000000000E+00   0.0000000000E+00   0.0000000000E+00   0.0000000000E+00   0.6875000011E+01  -0.1477245554E-11  -0.1475968798E-11  -0.2685639391E-15  -0.9990075909E-15  -0.1699644267E-15   0.3723206436E-01  -0.1860228218E-01  -0.1860228218E-01   0.4950030597E-19  -0.2411013447E-16  -0.8702081108E-17   0.6875000011E+01
   0.1037232064E+01   0.0000000000E+00  -0.2099122539E-16   0.2250000000E-02   0.0000000000E+00  -0.4891105258E-17   0.3498206430E-01   0.0000000000E+00  -0.1610012013E-16   0.6875000011E+01   0.3850507675E-12   0.3842141149E-12   0.1134445579E-14   0.9606811151E-15   0.1295439300E-15   0.3723206436E-01  -0.1860228218E-01  -0.1860228218E-01   0.3517209618E-16   0.4233350243E-16  -0.8907801600E-18   0.6875000011E+01
   0.1037232064E+01   0.9813977178E+00  -0.2047665168E-16   0.2250000000E-02  -0.1122750000E-02  -0.2627033680E-17   0.3498206430E-01  -0.1747953215E-01  -0.1784961800E-16   0.6875000010E+01  -0.6846042327E-12  -0.6855439366E-12   0.8545030631E-15   0.3148560353E-15   0.4084588347E-15   0.3723206435E-01  -0.1860228218E-01  -0.1860228218E-01   0.4062128979E-17   0.6652480785E-16   0.1040879467E-15   0.6875000010E+01
   0.0000000000E+00   0.9813977178E+00  -0.4303579065E-17   0.0000000000E+00  -0.1122750000E-02  -0.6108653854E-18   0.0000000000E+00  -0.1747953215E-01  -0.3692713679E-17   0.6875000010E+01  -0.4451919886E-11  -0.4452411515E-11  -0.2066785558E-15  -0.5312954925E-15  -0.2739781822E-15   0.3723206436E-01  -0.1860228218E-01  -0.1860228218E-01  -0.7333446062E-16  -0.1462332658E-16  -0.4705799315E-16   0.6875000010E+01
   0.0000000000E+00   0.0000000000E+00   0.9813977178E+00   0.0000000000E+00   0.0000000000E+00  -0.1122750000E-02   0.0000000000E+00   0.0000000000E+00  -0.1747953215E-01   0.6875000010E+01   0.2035406378E-11   0.2036504644E-11  -0.4205059858E-16  -0.6753716166E-15   0.9342452159E-16   0.3723206436E-01  -0.1860228218E-01  -0.1860228218E-01   0.3111341948E-17  -0.1095335830E-15  -0.2785529389E-16   0.6875000010E+01
   0.1037232064E+01   0.0000000000E+00   0.9813977178E+00   0.2250000000E-02   0.0000000000E+00  -0.1122750000E-02   0.3498206430E-01   0.0000000000E+00  -0.1747953215E-01   0.6875000010E+01   0.1026705312E-12   0.1031661460E-12   0.3806567058E-16   0.1190883233E-14  -0.3480004160E-15   0.3723206435E-01  -0.1860228218E-01  -0.1860228218E-01   0.6613072611E-16   0.4202511026E-16  -0.5428948265E-17   0.6875000010E+01
   0.1037232064E+01   0.9813977178E+00   0.9813977178E+00   0.2250000000E-02  -0.1122750000E-02  -0.1122750000E-02   0.3498206430E-01  -0.1747953215E-01  -0.1747953215E-01   0.6875000009E+01   0.2536944685E-12   0.2547531657E-12  -0.3314975809E-15   0.7032003811E-15  -0.6237006589E-16   0.3723206435E-01  -0.1860228218E-01  -0.1860228218E-01   0.7087760411E-16   0.4328021104E-16   0.8564758746E-16   0.6875000009E+01
   0.0000000000E+00   0.9813977178E+00   0.9813977178E+00   0.0000000000E+00  -0.1122750000E-02  -0.1122750000E-02   0.0000000000E+00  -0.1747953215E-01  -0.1747953215E-01   0.6875000009E+01   0.3286183838E-11   0.3284026874E-11  -0.1422854402E-15  -0.1032751604E-14  -0.1947419592E-15   0.3723206435E-01  -0.1860228218E-01  -0.1860228218E-01   0.1125320516E-15  -0.6660732482E-16  -0.5290662474E-16   0.6875000009E+01
   0.2074464129E+01   0.0000000000E+00  -0.5953821145E-16   0.4500000000E-02   0.0000000000E+00  -0.9035018007E-17   0.6996412860E-01   0.0000000000E+00  -0.5050319344E-16   0.6875000010E+01   0.2030785590E-11   0.2033164598E-11   0.3522935037E-16  -0.8334700465E-15  -0.5173267274E-16   0.3723206436E-01  -0.1860228218E-01  -0.1860228218E-01   0.1491051527E-15  -0.1027025939E-15  -0.2058276143E-16   0.6875000010E+01
   0.2074464129E+01   0.9813977178E+00  -0.6608879496E-16   0.4500000000E-02  -0.1122750000E-02  -0.8273919204E-17   0.6996412860E-01  -0.1747953215E-01  -0.5781487576E-16   0.6875000010E+01   0.1122855792E-11   0.1122800281E-11   0.3288301189E-16  -0.1008935322E-14  -0.5090829324E-15   0.3723206435E-01  -0.1860228218E-01  -0.1860228218E-01   0.1691295733E-15  -0.1366734083E-15   0.9160878130E-17   0.6875000010E+01
   0.2074464129E+01   0.0000000000E+00   0.9813977178E+00   0.4500000000E-02   0.0000000000E+00  -0.1122750000E-02   0.6996412860E-01   0.0000000000E+00  -0.1747953215E-01   0.6875000010E+01   0.9363862089E-13   0.9219931668E-13  -0.6747066593E-16  -0.5409116244E-15   0.1989539364E-15   0.3723206435E-01  -0.1860228218E-01  -0.1860228218E-01   0.6215954809E-16  -0.2018099615E-16  -0.3963862626E-16   0.6875000010E+01
   0.2074464129E+01   0.9813977178E+00   0.9813977178E+00   0.4500000000E-02  -0.1122750000E-02  -0.1122750000E-02   0.6996412860E-01  -0.1747953215E-01  -0.1747953215E-01   0.6875000009E+01  -0.2538388671E-11  -0.2539443382E-11  -0.9271295276E-15  -0.8246627138E-15   0.5507658733E-15   0.3723206435E-01  -0.1860228217E-01  -0.1860228217E-01  -0.9911672958E-16  -0.1703642642E-15  -0.2544113395E-16   0.6875000009E+01
     1     2     3     4     5     6     7     8
     2     9    10     3     6    11    12     7
 VARIABLES = X,Y,Z,DU1,DU2,DU3,U1,U2,U3,S11,S22,S33,S12,S13,S23,E11,E22,E33,E12,E13,E23,SMISES
 ZONE, T="0.6800D+01" F=FEPOINT, I=   12 J=    2 ET=BRICK
   0.0000000000E+00   0.0000000000E+00   0.0000000000E+00   0.0000000000E+00   0.0000000000E+00   0.0000000000E+00   0.0000000000E+00   0.0000000000E+00   0.0000000000E+00   0.8000000013E+01  -0.5865319878E-12  -0.5853365053E-12  -0.2504108584E-15  -0.2920274600E-15   0.1007814320E-15   0.3948206436E-01  -0.1972503218E-01  -0.1972503218E-01  -0.2393741860E-18  -0.3750540682E-16   0.8615848333E-18   0.8000000013E+01
   0.1039482064E+01   0.0000000000E+00  -0.1504180070E-16   0.2250000000E-02   0.0000000000E+00   0.5949424687E-17   0.3723206430E-01   0.0000000000E+00  -0.2099122539E-16   0.8000000012E+01   0.6299899312E-12   0.6289312339E-12   0.2806710803E-15   0.4913254126E-15  -0.4542447114E-16   0.3948206436E-01  -0.1972503218E-01  -0.1972503218E-01   0.2016907851E-16   0.4611702316E-16   0.9264839762E-18   0.8000000012E+01
   0.1039482064E+01   0.9802749678E+00  -0.1551846683E-16   0.2250000000E-02  -0.1122750000E-02   0.4958184849E-17   0.3723206430E-01  -0.1860228215E-01  -0.2047665168E-16   0.8000000011E+01  -0.1894065184E-12  -0.1902867257E-12   0.9971901365E-16   0.2754965575E-16   0.1329112299E-15   0.3948206436E-01  -0.1972503218E-01  -0.1972503218E-01  -0.1507519829E-16   0.7002687597E-16   0.8758487556E-16   0.8000000011E+01
   0.0000000000E+00   0.9802749678E+00  -0.2893148042E-17   0.0000000000E+00  -0.1122750000E-02   0.1410431022E-17   0.0000000000E+00  -0.1860228215E-01  -0.4303579065E-17   0.8000000012E+01  -0.4241075446E-11  -0.4241545298E-11   0.1596631484E-15  -0.3647813513E-15  -0.4284075039E-15   0.3948206436E-01  -0.1972503218E-01  -0.1972503218E-01  -0.7487483170E-16   0.4126695338E-17  -0.6432272902E-16   0.8000000012E+01
   0.0000000000E+00   0.0000000000E+00   0.9802749678E+00   0.0000000000E+00   0.0000000000E+00  -0.1122750000E-02   0.0000000000E+00   0.0000000000E+00  -0.1860228215E-01   0.8000000012E+01   0.1506033501E-11   0.1508152745E-11  -0.6015270753E-16   0.1587935083E-15   0.3777654014E-15   0.3948206436E-01  -0.1972503218E-01  -0.1972503218E-01   0.2623959170E-17  -0.8748162870E-16  -0.1526568305E-16   0.8000000012E+01
   0.1039482064E+01   0.0000000000E+00   0.9802749678E+00   0.2250000000E-02   0.0000000000E+00  -0.1122750000E-02   0.3723206430E-01   0.0000000000E+00  -0.1860228215E-01   0.8000000011E+01  -0.2879863663E-12  -0.2880973885E-12  -0.4010391061E-15   0.7559462084E-15  -0.1825025602E-15   0.3948206436E-01  -0.1972503218E-01  -0.1972503218E-01   0.5225478212E-16   0.3832919029E-16  -0.6523182288E-17   0.8000000011E+01
   0.1039482064E+01   0.9802749678E+00   0.9802749678E+00   0.2250000000E-02  -0.1122750000E-02  -0.1122750000E-02   0.3723206430E-01  -0.1860228215E-01  -0.1860228215E-01   0.8000000010E+01   0.2189022288E-12   0.2201234739E-12  -0.6959723921E-15   0.4435090563E-15  -0.3126715981E-16   0.3948206435E-01  -0.1972503218E-01  -0.1972503218E-01   0.4974223374E-16   0.6367301425E-16   0.8460682712E-16   0.8000000010E+01
   0.0000000000E+00   0.9802749678E+00   0.9802749678E+00   0.0000000000E+00  -0.1122750000E-02  -0.1122750000E-02   0.0000000000E+00  -0.1860228215E-01  -0.1860228215E-01   0.8000000011E+01   0.2350609631E-11   0.2348179097E-11   0.3775777536E-15  -0.3070786350E-15  -0.1177342997E-15   0.3948206435E-01  -0.1972503218E-01  -0.1972503218E-01   0.1275231598E-15  -0.7290183300E-16  -0.7371884489E-16   0.8000000011E+01
   0.2078964129E+01   0.0000000000E+00  -0.4084158021E-16   0.4500000000E-02   0.0000000000E+00   0.1869663124E-16   0.7446412860E-01   0.0000000000E+00  -0.5953821145E-16   0.8000000012E+01   0.1322011045E-11   0.1323258053E-11   0.4855086577E-15  -0.1097346925E-14  -0.1925268322E-15   0.3948206436E-01  -0.1972503218E-01  -0.1972503218E-01   0.1431115857E-15  -0.1006853866E-15  -0.1683141332E-16   0.8000000012E+01
   0.2078964129E+01   0.9802749678E+00  -0.4831442584E-16   0.4500000000E-02  -0.1122750000E-02   0.1777436912E-16   0.7446412860E-01  -0.1860228215E-01  -0.6608879496E-16   0.8000000011E+01   0.1535229401E-11   0.1535477208E-11   0.1582593907E-15  -0.6056256206E-15  -0.7489366242E-15   0.3948206436E-01  -0.1972503218E-01  -0.1972503218E-01   0.1485165277E-15  -0.1320647724E-15  -0.5201018165E-17   0.8000000011E+01
   0.2078964129E+01   0.0000000000E+00   0.9802749678E+00   0.4500000000E-02   0.0000000000E+00  -0.1122750000E-02   0.7446412860E-01   0.0000000000E+00  -0.1860228215E-01   0.8000000011E+01  -0.5787703746E-12  -0.5795732935E-12   0.6617754985E-15  -0.7970476648E-15   0.5154428451E-15   0.3948206436E-01  -0.1972503218E-01  -0.1972503218E-01   0.7719975928E-16  -0.3001766269E-16  -0.3648696124E-16   0.8000000011E+01
   0.2078964129E+01   0.9802749678E+00   0.9802749678E+00   0.4500000000E-02  -0.1122750000E-02  -0.1122750000E-02   0.7446412860E-01  -0.1860228215E-01  -0.1860228215E-01   0.8000000010E+01  -0.2142874876E-11  -0.2144100106E-11  -0.3677919532E-15  -0.2895657778E-15   0.8349698407E-15   0.3948206435E-01  -0.1972503218E-01  -0.1972503218E-01  -0.5780438825E-16  -0.1176720805E-15  -0.8208181281E-17   0.8000000010E+01
     1     2     3     4     5     6     7     8
     2     9    10     3     6    11    12     7
 VARIABLES = X,Y,Z,DU1,DU2,DU3,U1,U2,U3,S11,S22,S33,S12,S13,S23,E11,E22,E33,E12,E13,E23,SMISES
 ZONE, T="0.6850D+01" F=FEPOINT, I=   12 J=    2 ET=BRICK
   0.0000000000E+00   0.0000000000E+00   0.0000000000E+00   0.0000000000E+00   0.0000000000E+00   0.0000000000E+00   0.0000000000E+00   0.0000000000E+00   0.0000000000E+00   0.9125000014E+01  -0.1564742377E-11  -0.1563485939E-11  -0.2536752030E-15  -0.2208572129E-15  -0.1634255884E-15   0.4173206437E-01  -0.2084778218E-01  -0.2084778218E-01   0.2371610383E-17  -0.1982641055E-16  -0.1175424353E-16   0.9125000014E+01
   0.1041732064E+01   0.0000000000E+00  -0.1700286861E-16   0.2250000000E-02   0.0000000000E+00  -0.1961067911E-17   0.3948206430E-01   0.0000000000E+00  -0.1504180070E-16   0.9125000014E+01   0.1543072629E-12   0.1529858841E-12   0.2456180578E-14   0.2160942246E-14  -0.3555836587E-15   0.4173206437E-01  -0.2084778218E-01  -0.2084778218E-01   0.3480533690E-16   0.5237225076E-16  -0.2344186348E-17   0.9125000014E+01
   0.1041732064E+01   0.9791522178E+00  -0.1955003079E-16   0.2250000000E-02  -0.1122750000E-02  -0.4031563960E-17   0.3948206430E-01  -0.1972503215E-01  -0.1551846683E-16   0.9125000013E+01  -0.5478964859E-12  -0.5477963523E-12   0.2023497808E-14  -0.1346349533E-14   0.2386528128E-15   0.4173206436E-01  -0.2084778218E-01  -0.2084778218E-01  -0.1849292447E-17   0.7346214474E-16   0.8230769636E-16   0.9125000013E+01
   0.0000000000E+00   0.9791522178E+00  -0.4408687506E-17   0.0000000000E+00  -0.1122750000E-02  -0.1515539464E-17   0.0000000000E+00  -0.1972503215E-01  -0.2893148042E-17   0.9125000013E+01  -0.3581515579E-11  -0.3582212920E-11  -0.6939496773E-15  -0.5947859184E-15  -0.9821122827E-15   0.4173206436E-01  -0.2084778218E-01  -0.2084778218E-01  -0.8200474687E-16  -0.1471665449E-16  -0.5401336613E-16   0.9125000013E+01
   0.0000000000E+00   0.0000000000E+00   0.9791522178E+00   0.0000000000E+00   0.0000000000E+00  -0.1122750000E-02   0.0000000000E+00   0.0000000000E+00  -0.1972503215E-01   0.9125000013E+01   0.2098540094E-11   0.2100643005E-11  -0.4171116509E-16   0.1355431044E-16   0.3284663310E-15   0.4173206436E-01  -0.2084778218E-01  -0.2084778218E-01  -0.2695972045E-17  -0.8906430086E-16  -0.7066272343E-17   0.9125000013E+01
   0.1041732064E+01   0.0000000000E+00   0.9791522178E+00   0.2250000000E-02   0.0000000000E+00  -0.1122750000E-02   0.3948206430E-01   0.0000000000E+00  -0.1972503215E-01   0.9125000013E+01   0.9322247633E-13   0.9318183936E-13  -0.1511621108E-14   0.2343533228E-14  -0.2885320529E-15   0.4173206436E-01  -0.2084778218E-01  -0.2084778218E-01   0.6109198302E-16   0.5015560546E-16  -0.5150456304E-17   0.9125000013E+01
   0.1041732064E+01   0.9791522178E+00   0.9791522178E+00   0.2250000000E-02  -0.1122750000E-02  -0.1122750000E-02   0.3948206430E-01  -0.1972503215E-01  -0.1972503215E-01   0.9125000012E+01   0.6109661995E-12   0.6119247630E-12  -0.1734591228E-14  -0.1063972360E-14   0.4358427926E-15   0.4173206436E-01  -0.2084778218E-01  -0.2084778218E-01   0.5080334473E-16   0.6017013530E-16   0.9987039467E-16   0.9125000012E+01
   0.0000000000E+00   0.9791522178E+00   0.9791522178E+00   0.0000000000E+00  -0.1122750000E-02  -0.1122750000E-02   0.0000000000E+00  -0.1972503215E-01  -0.1972503215E-01   0.9125000012E+01   0.2200002701E-11   0.2197633123E-11   0.6872935876E-15  -0.5322380722E-15  -0.5607902549E-15   0.4173206436E-01  -0.2084778218E-01  -0.2084778218E-01   0.1320643079E-15  -0.5701808116E-16  -0.7710428693E-16   0.9125000012E+01
   0.2083464129E+01   0.0000000000E+00  -0.5414669326E-16   0.4500000000E-02   0.0000000000E+00  -0.1330511305E-16   0.7896412860E-01   0.0000000000E+00  -0.4084158021E-16   0.9125000014E+01   0.1864037344E-11   0.1865082626E-11   0.4724539290E-15  -0.1234811011E-14  -0.3751960613E-16   0.4173206436E-01  -0.2084778218E-01  -0.2084778218E-01   0.1423340888E-15  -0.9109848469E-16  -0.1515231205E-16   0.9125000014E+01
   0.2083464129E+01   0.9791522178E+00  -0.6063540189E-16   0.4500000000E-02  -0.1122750000E-02  -0.1232097605E-16   0.7896412860E-01  -0.1972503215E-01  -0.4831442584E-16   0.9125000013E+01   0.5131541304E-12   0.5141547898E-12   0.4461377814E-15  -0.2491463473E-15  -0.3855075988E-15   0.4173206436E-01  -0.2084778218E-01  -0.2084778218E-01   0.1506452868E-15  -0.1082771060E-15   0.2410281724E-16   0.9125000013E+01
   0.2083464129E+01   0.0000000000E+00   0.9791522178E+00   0.4500000000E-02   0.0000000000E+00  -0.1122750000E-02   0.7896412860E-01   0.0000000000E+00  -0.1972503215E-01   0.9125000013E+01  -0.5433368988E-12  -0.5440857653E-12   0.2872871083E-15  -0.4874851041E-15   0.7149010685E-15   0.4173206436E-01  -0.2084778218E-01  -0.2084778218E-01   0.3963030049E-16   0.3606338814E-16  -0.3848981081E-16   0.9125000013E+01
   0.2083464129E+01   0.9791522178E+00   0.9791522178E+00   0.4500000000E-02  -0.1122750000E-02  -0.1122750000E-02   0.7896412860E-01  -0.1972503215E-01  -0.1972503215E-01   0.9125000012E+01  -0.1505641891E-11  -0.1507068848E-11  -0.8945103565E-15  -0.1217674431E-15   0.1168270479E-14   0.4173206435E-01  -0.2084778218E-01  -0.2084778218E-01  -0.8733708297E-16  -0.2148462375E-15  -0.2113839269E-16   0.9125000012E+01
     1     2     3     4     5     6     7     8
     2     9    10     3     6    11    12     7
 VARIABLES = X,Y,Z,DU1,DU2,DU3,U1,U2,U3,S11,S22,S33,S12,S13,S23,E11,E22,E33,E12,E13,E23,SMISES
 ZONE, T="0.6900D+01" F=FEPOINT, I=   12 J=    2 ET=BRICK
   0.0000000000E+00   0.0000000000E+00   0.0000000000E+00   0.0000000000E+00   0.0000000000E+00   0.0000000000E+00   0.0000000000E+00   0.0000000000E+00   0.0000000000E+00   0.1024999973E+02   0.1434355689E-06   0.1434355721E-06  -0.2176714697E-15   0.3661729534E-14   0.9569632886E-15   0.4905839968E-01  -0.2450869984E-01  -0.2450869984E-01  -0.3446499789E-17   0.2959969744E-16   0.1625841536E-16   0.1024999959E+02
   0.1049058400E+01   0.0000000000E+00   0.1470071299E-16   0.7326335306E-02   0.0000000000E+00   0.3170358160E-16   0.4173206430E-01   0.0000000000E+00  -0.1700286861E-16   0.1024999973E+02   0.1434337893E-06   0.1434337877E-06  -0.8050469534E-15  -0.2188319029E-14  -0.7739795201E-15   0.4905839968E-01  -0.2450869984E-01  -0.2450869984E-01   0.1022332685E-16   0.2318682451E-16  -0.1498486436E-16   0.1024999959E+02
   0.1049058400E+01   0.9754913002E+00   0.8195292944E-17   0.7326335306E-02  -0.3660917653E-02   0.2774532373E-16   0.4173206430E-01  -0.2084778215E-01  -0.1955003079E-16   0.1024999973E+02   0.1434325068E-06   0.1434325077E-06   0.1449524394E-14  -0.2942467204E-14  -0.2898993335E-15   0.4905839968E-01  -0.2450869984E-01  -0.2450869984E-01  -0.2965173535E-18   0.3804342957E-16   0.8882038094E-16   0.1024999958E+02
   0.0000000000E+00   0.9754913002E+00   0.3734817291E-17   0.0000000000E+00  -0.3660917653E-02   0.8143504797E-17   0.0000000000E+00  -0.2084778215E-01  -0.4408687506E-17   0.1024999973E+02   0.1434306939E-06   0.1434306937E-06   0.4250401279E-15   0.1357345525E-14   0.2871407622E-15   0.4905839968E-01  -0.2450869984E-01  -0.2450869984E-01  -0.6734112416E-16   0.1863131573E-16  -0.5490881486E-16   0.1024999958E+02
   0.0000000000E+00   0.0000000000E+00   0.9754913002E+00   0.0000000000E+00   0.0000000000E+00  -0.3660917653E-02   0.0000000000E+00   0.0000000000E+00  -0.2084778215E-01   0.1024999973E+02   0.1434321743E-06   0.1434321788E-06   0.1134600575E-16   0.3287386422E-14  -0.4571215832E-16   0.4905839968E-01  -0.2450869984E-01  -0.2450869984E-01   0.8127618315E-17  -0.4703114185E-16  -0.1474673928E-16   0.1024999958E+02
   0.1049058400E+01   0.0000000000E+00   0.9754913002E+00   0.7326335306E-02   0.0000000000E+00  -0.3660917653E-02   0.4173206430E-01   0.0000000000E+00  -0.2084778215E-01   0.1024999973E+02   0.1434314936E-06   0.1434314923E-06  -0.1282827003E-14  -0.1229838236E-15  -0.1173508258E-15   0.4905839968E-01  -0.2450869984E-01  -0.2450869984E-01   0.4133190503E-16   0.4755785303E-16  -0.2562213200E-17   0.1024999958E+02
   0.1049058400E+01   0.9754913002E+00   0.9754913002E+00   0.7326335306E-02  -0.3660917653E-02  -0.3660917653E-02   0.4173206430E-01  -0.2084778215E-01  -0.2084778215E-01   0.1024999973E+02   0.1434315385E-06   0.1434315402E-06   0.1257183639E-14  -0.1023892239E-15   0.5595205910E-15   0.4905839967E-01  -0.2450869984E-01  -0.2450869984E-01   0.9289381464E-16   0.4161957717E-16   0.1142816551E-15   0.1024999958E+02
   0.0000000000E+00   0.9754913002E+00   0.9754913002E+00   0.0000000000E+00  -0.3660917653E-02  -0.3660917653E-02   0.0000000000E+00  -0.2084778215E-01  -0.2084778215E-01   0.1024999973E+02   0.1434319684E-06   0.1434319649E-06   0.1529252754E-14   0.3406138461E-14  -0.6014353363E-15   0.4905839967E-01  -0.2450869984E-01  -0.2450869984E-01   0.1398367101E-15  -0.1629441898E-18  -0.7117598946E-16   0.1024999958E+02
   0.2098116799E+01   0.0000000000E+00   0.1968798735E-16   0.1465267061E-01   0.0000000000E+00   0.7383468061E-16   0.8346412860E-01   0.0000000000E+00  -0.5414669326E-16   0.1024999973E+02   0.1434349097E-06   0.1434349071E-06  -0.2699790854E-14  -0.1869250497E-14  -0.4272851380E-15   0.4905839968E-01  -0.2450869984E-01  -0.2450869984E-01   0.9861052108E-16  -0.9588893179E-16  -0.2253407405E-16   0.1024999959E+02
   0.2098116799E+01   0.9754913002E+00   0.1037176376E-16   0.1465267061E-01  -0.3660917653E-02   0.7100716565E-16   0.8346412860E-01  -0.2084778215E-01  -0.6063540189E-16   0.1024999973E+02   0.1434346066E-06   0.1434346084E-06   0.1737262614E-14  -0.5370362500E-15  -0.6735053255E-15   0.4905839968E-01  -0.2450869984E-01  -0.2450869984E-01   0.1613661859E-15  -0.1559048785E-15  -0.6185262410E-17   0.1024999958E+02
   0.2098116799E+01   0.0000000000E+00   0.9754913002E+00   0.1465267061E-01   0.0000000000E+00  -0.3660917653E-02   0.8346412860E-01   0.0000000000E+00  -0.2084778215E-01   0.1024999973E+02   0.1434353018E-06   0.1434353011E-06  -0.2878446823E-14   0.2550405183E-14   0.1537723502E-14   0.4905839968E-01  -0.2450869984E-01  -0.2450869984E-01   0.9776592485E-17  -0.4860410880E-17  -0.1573958516E-16   0.1024999958E+02
   0.2098116799E+01   0.9754913002E+00   0.9754913002E+00   0.1465267061E-01  -0.3660917653E-02  -0.3660917653E-02   0.8346412860E-01  -0.2084778215E-01  -0.2084778215E-01   0.1024999973E+02   0.1434330559E-06   0.1434330536E-06   0.3802929191E-15   0.3506793916E-14   0.1830622824E-14   0.4905839967E-01  -0.2450869984E-01  -0.2450869984E-01  -0.4228727554E-16  -0.6796679663E-16   0.3216290892E-17   0.1024999958E+02
     1     2     3     4     5     6     7     8
     2     9    10     3     6    11    12     7
 VARIABLES = X,Y,Z,DU1,DU2,DU3,U1,U2,U3,S11,S22,S33,S12,S13,S23,E11,E22,E33,E12,E13,E23,SMISES
 ZONE, T="0.6950D+01" F=FEPOINT, I=   12 J=    2 ET=BRICK
   0.0000000000E+00   0.0000000000E+00   0.0000000000E+00   0.0000000000E+00   0.0000000000E+00   0.0000000000E+00   0.0000000000E+00   0.0000000000E+00   0.0000000000E+00   0.1137499401E+02   0.3005154810E-05   0.3005154810E-05   0.1206058807E-16  -0.2149091275E-14  -0.1435422487E-14   0.7583134173E-01  -0.3789292086E-01  -0.3789292086E-01   0.6569607546E-17  -0.4852678554E-16  -0.3297601554E-16   0.1137499100E+02
   0.1075831342E+01   0.0000000000E+00  -0.4029120923E-16   0.2677294200E-01   0.0000000000E+00  -0.5499192221E-16   0.4905839961E-01   0.0000000000E+00   0.1470071299E-16   0.1137499401E+02   0.3005158597E-05   0.3005158597E-05   0.7404372967E-15  -0.3878845256E-15   0.1654119605E-15   0.7583134173E-01  -0.3789292086E-01  -0.3789292086E-01   0.2376851176E-16   0.1077250824E-16   0.4655505261E-17   0.1137499100E+02
   0.1075831342E+01   0.9621070792E+00  -0.4033136379E-16   0.2677294200E-01  -0.1338422100E-01  -0.4852665673E-16   0.4905839961E-01  -0.2450869980E-01   0.8195292944E-17   0.1137499401E+02   0.3005155750E-05   0.3005155751E-05   0.2111337167E-14  -0.3272359534E-14   0.5335193918E-15   0.7583134172E-01  -0.3789292086E-01  -0.3789292086E-01   0.2941173781E-16   0.9026447046E-17   0.9817757756E-16   0.1137499100E+02
   0.0000000000E+00   0.9621070792E+00  -0.1845136887E-16   0.0000000000E+00  -0.1338422100E-01  -0.2218618616E-16   0.0000000000E+00  -0.2450869980E-01   0.3734817291E-17   0.1137499401E+02   0.3005153990E-05   0.3005153991E-05   0.9976325177E-15   0.1082804979E-15  -0.9191017863E-15   0.7583134172E-01  -0.3789292086E-01  -0.3789292086E-01  -0.4162896430E-16  -0.4889306638E-18  -0.6675249098E-16   0.1137499100E+02
   0.0000000000E+00   0.0000000000E+00   0.9621070792E+00   0.0000000000E+00   0.0000000000E+00  -0.1338422100E-01   0.0000000000E+00   0.0000000000E+00  -0.2450869980E-01   0.1137499401E+02   0.3005159507E-05   0.3005159505E-05  -0.1614925612E-15   0.1247366510E-14   0.2954215362E-15   0.7583134172E-01  -0.3789292086E-01  -0.3789292086E-01  -0.1478887598E-17  -0.5121636528E-16  -0.2785322564E-16   0.1137499100E+02
   0.1075831342E+01   0.0000000000E+00   0.9621070792E+00   0.2677294200E-01   0.0000000000E+00  -0.1338422100E-01   0.4905839961E-01   0.0000000000E+00  -0.2450869980E-01   0.1137499401E+02   0.3005159642E-05   0.3005159642E-05  -0.2104097783E-14   0.2225378538E-14  -0.3197891444E-16   0.7583134172E-01  -0.3789292086E-01  -0.3789292086E-01   0.1100115926E-16   0.2719627461E-16  -0.6600841620E-17   0.1137499100E+02
   0.1075831342E+01   0.9621070792E+00   0.9621070792E+00   0.2677294200E-01  -0.1338422100E-01  -0.1338422100E-01   0.4905839961E-01  -0.2450869980E-01  -0.2450869980E-01   0.1137499400E+02   0.3005159860E-05   0.3005159861E-05  -0.1823295035E-14  -0.8333761904E-15   0.2603497877E-15   0.7583134171E-01  -0.3789292086E-01  -0.3789292086E-01   0.4334365948E-16   0.4199126736E-16   0.8840283776E-16   0.1137499100E+02
   0.0000000000E+00   0.9621070792E+00   0.9621070792E+00   0.0000000000E+00  -0.1338422100E-01  -0.1338422100E-01   0.0000000000E+00  -0.2450869980E-01  -0.2450869980E-01   0.1137499400E+02   0.3005158578E-05   0.3005158577E-05   0.1572561356E-14   0.5717861358E-15  -0.1027543148E-15   0.7583134171E-01  -0.3789292086E-01  -0.3789292086E-01   0.1626253064E-15  -0.2545513013E-16  -0.4144103011E-16   0.1137499100E+02
   0.2151662683E+01   0.0000000000E+00  -0.1107728665E-15   0.5354588401E-01   0.0000000000E+00  -0.1304608539E-15   0.9811679922E-01   0.0000000000E+00   0.1968798735E-16   0.1137499401E+02   0.3005159541E-05   0.3005159541E-05  -0.1926348543E-14  -0.9602485419E-15   0.1506549306E-15   0.7583134173E-01  -0.3789292086E-01  -0.3789292086E-01   0.1205180870E-15  -0.1054303609E-16  -0.1242606447E-16   0.1137499100E+02
   0.2151662683E+01   0.9621070792E+00  -0.1156577114E-15   0.5354588401E-01  -0.1338422100E-01  -0.1260294752E-15   0.9811679922E-01  -0.2450869980E-01   0.1037176376E-16   0.1137499401E+02   0.3005155093E-05   0.3005155093E-05  -0.1883698979E-15   0.2549503254E-14   0.1955657246E-15   0.7583134172E-01  -0.3789292086E-01  -0.3789292086E-01   0.1614695145E-15  -0.1293398367E-15   0.1424984403E-16   0.1137499100E+02
   0.2151662683E+01   0.0000000000E+00   0.9621070792E+00   0.5354588401E-01   0.0000000000E+00  -0.1338422100E-01   0.9811679922E-01   0.0000000000E+00  -0.2450869980E-01   0.1137499401E+02   0.3005158969E-05   0.3005158970E-05  -0.6977787276E-17   0.6810469378E-15   0.1684647481E-16   0.7583134172E-01  -0.3789292086E-01  -0.3789292086E-01   0.4546700827E-16   0.4880022197E-16  -0.4772044316E-16   0.1137499100E+02
   0.2151662683E+01   0.9621070792E+00   0.9621070792E+00   0.5354588401E-01  -0.1338422100E-01  -0.1338422100E-01   0.9811679922E-01  -0.2450869980E-01  -0.2450869980E-01   0.1137499400E+02   0.3005160815E-05   0.3005160813E-05   0.6915756264E-15   0.1458340672E-14  -0.1094516955E-15   0.7583134171E-01  -0.3789292085E-01  -0.3789292085E-01  -0.5558474627E-16  -0.8111525721E-16   0.3902226119E-19   0.1137499100E+02
     1     2     3     4     5     6     7     8
     2     9    10     3     6    11    12     7
 VARIABLES = X,Y,Z,DU1,DU2,DU3,U1,U2,U3,S11,S22,S33,S12,S13,S23,E11,E22,E33,E12,E13,E23,SMISES
 ZONE, T="0.7000D+01" F=FEPOINT, I=   12 J=    2 ET=BRICK
   0.0000000000E+00   0.0000000000E+00   0.0000000000E+00   0.0000000000E+00   0.0000000000E+00   0.0000000000E+00   0.0000000000E+00   0.0000000000E+00   0.0000000000E+00   0.1249998613E+02   0.6944751285E-05   0.6944751288E-05   0.1510001060E-15  -0.2342666364E-14  -0.2971458709E-15   0.1045515894E+00  -0.5225079468E-01  -0.5225079468E-01   0.1197010831E-16  -0.8647578370E-16  -0.2830544446E-16   0.1249997919E+02
   0.1104551589E+01   0.0000000000E+00  -0.7885296515E-16   0.2872024759E-01   0.0000000000E+00  -0.3856175592E-16   0.7583134161E-01   0.0000000000E+00  -0.4029120923E-16   0.1249998613E+02   0.6944753646E-05   0.6944753646E-05   0.1969684723E-15  -0.5354589205E-15  -0.3093319971E-15   0.1045515894E+00  -0.5225079468E-01  -0.5225079468E-01   0.4028294032E-16   0.2841141876E-16   0.4107835852E-18   0.1249997918E+02
   0.1104551589E+01   0.9477492054E+00  -0.8310011616E-16   0.2872024759E-01  -0.1435787380E-01  -0.4276875237E-16   0.7583134161E-01  -0.3789292081E-01  -0.4033136379E-16   0.1249998613E+02   0.6944753636E-05   0.6944753637E-05  -0.1898817794E-15   0.1891307912E-14  -0.6690675951E-15   0.1045515894E+00  -0.5225079468E-01  -0.5225079468E-01  -0.6916769341E-17   0.1413156298E-15   0.5413320230E-16   0.1249997918E+02
   0.0000000000E+00   0.9477492054E+00  -0.1137598544E-16   0.0000000000E+00  -0.1435787380E-01   0.7075383429E-17   0.0000000000E+00  -0.3789292081E-01  -0.1845136887E-16   0.1249998613E+02   0.6944747671E-05   0.6944747669E-05  -0.2183819817E-15  -0.2593461456E-14   0.7509330907E-15   0.1045515894E+00  -0.5225079468E-01  -0.5225079468E-01  -0.4594127418E-16  -0.1151964518E-15  -0.3995113961E-16   0.1249997918E+02
   0.0000000000E+00   0.0000000000E+00   0.9477492054E+00   0.0000000000E+00   0.0000000000E+00  -0.1435787380E-01   0.0000000000E+00   0.0000000000E+00  -0.3789292081E-01   0.1249998613E+02   0.6944762093E-05   0.6944762089E-05  -0.2641675846E-15  -0.2447486806E-14   0.2580108877E-15   0.1045515894E+00  -0.5225079468E-01  -0.5225079468E-01  -0.1921473854E-16  -0.1953933263E-15  -0.2308833137E-16   0.1249997918E+02
   0.1104551589E+01   0.0000000000E+00   0.9477492054E+00   0.2872024759E-01   0.0000000000E+00  -0.1435787380E-01   0.7583134161E-01   0.0000000000E+00  -0.3789292081E-01   0.1249998613E+02   0.6944762523E-05   0.6944762524E-05   0.2122918674E-14   0.2531126519E-15  -0.5552982157E-15   0.1045515894E+00  -0.5225079468E-01  -0.5225079468E-01   0.1127988722E-15   0.1164826745E-15  -0.3186919272E-16   0.1249997918E+02
   0.1104551589E+01   0.9477492054E+00   0.9477492054E+00   0.2872024759E-01  -0.1435787380E-01  -0.1435787380E-01   0.7583134161E-01  -0.3789292081E-01  -0.3789292081E-01   0.1249998613E+02   0.6944759944E-05   0.6944759945E-05   0.1107298483E-14   0.2512220069E-14  -0.1119138903E-14   0.1045515893E+00  -0.5225079467E-01  -0.5225079467E-01   0.1072599731E-15   0.2253617150E-16   0.6378910148E-16   0.1249997918E+02
   0.0000000000E+00   0.9477492054E+00   0.9477492054E+00   0.0000000000E+00  -0.1435787380E-01  -0.1435787380E-01   0.0000000000E+00  -0.3789292081E-01  -0.3789292081E-01   0.1249998613E+02   0.6944767696E-05   0.6944767693E-05  -0.1971457378E-14  -0.4014866996E-14   0.8364755231E-15   0.1045515893E+00  -0.5225079467E-01  -0.5225079467E-01   0.8391484423E-16  -0.8394852929E-16  -0.1055289584E-15   0.1249997918E+02
   0.2209103178E+01   0.0000000000E+00  -0.2640086217E-15   0.5744049519E-01   0.0000000000E+00  -0.1532357552E-15   0.1516626832E+00   0.0000000000E+00  -0.1107728665E-15   0.1249998613E+02   0.6944751719E-05   0.6944751718E-05   0.4378721703E-14   0.4984768650E-14  -0.2080642979E-15   0.1045515894E+00  -0.5225079468E-01  -0.5225079468E-01   0.2661671350E-15   0.5907169232E-16  -0.1221345350E-16   0.1249997918E+02
   0.2209103178E+01   0.9477492054E+00  -0.2722589831E-15   0.5744049519E-01  -0.1435787380E-01  -0.1566012717E-15   0.1516626832E+00  -0.3789292081E-01  -0.1156577114E-15   0.1249998613E+02   0.6944757912E-05   0.6944757915E-05   0.3252878028E-14  -0.3061354135E-14   0.6773407888E-15   0.1045515894E+00  -0.5225079468E-01  -0.5225079468E-01   0.2375491531E-15  -0.2332338762E-15   0.4698364332E-16   0.1249997918E+02
   0.2209103178E+01   0.0000000000E+00   0.9477492054E+00   0.5744049519E-01   0.0000000000E+00  -0.1435787380E-01   0.1516626832E+00   0.0000000000E+00  -0.3789292081E-01   0.1249998613E+02   0.6944764176E-05   0.6944764174E-05  -0.3731859913E-14   0.3235714494E-14   0.1275788269E-14   0.1045515894E+00  -0.5225079468E-01  -0.5225079468E-01  -0.5715264086E-16  -0.3877156815E-16  -0.7436976279E-17   0.1249997918E+02
   0.2209103178E+01   0.9477492054E+00   0.9477492054E+00   0.5744049519E-01  -0.1435787380E-01  -0.1435787380E-01   0.1516626832E+00  -0.3789292081E-01  -0.3789292081E-01   0.1249998613E+02   0.6944756063E-05   0.6944756064E-05  -0.4195482066E-14  -0.4063583919E-14   0.2196121977E-14   0.1045515893E+00  -0.5225079467E-01  -0.5225079467E-01  -0.1668701738E-15  -0.8270821309E-16   0.2502235609E-16   0.1249997918E+02
     1     2     3     4     5     6     7     8
     2     9    10     3     6    11    12     7
 VARIABLES = X,Y,Z,DU1,DU2,DU3,U1,U2,U3,S11,S22,S33,S12,S13,S23,E11,E22,E33,E12,E13,E23,SMISES
 ZONE, T="0.7050D+01" F=FEPOINT, I=   12 J=    2 ET=BRICK
   0.0000000000E+00   0.0000000000E+00   0.0000000000E+00   0.0000000000E+00   0.0000000000E+00   0.0000000000E+00   0.0000000000E+00   0.0000000000E+00   0.0000000000E+00   0.1137500002E+02   0.5584071084E-09   0.5587343682E-09   0.1529442468E-15   0.1272587136E-11   0.8074367777E-12   0.1023016310E+00  -0.5112806550E-01  -0.5112806550E-01  -0.8050233481E-17   0.1520793580E-13   0.9650799341E-14   0.1137500002E+02
   0.1102301631E+01   0.0000000000E+00   0.6681763216E-14  -0.2249958359E-02   0.0000000000E+00   0.6760616181E-14   0.1045515892E+00   0.0000000000E+00  -0.7885296515E-16   0.1137500002E+02   0.4325729247E-10   0.4247250598E-10   0.1570034760E-12   0.1268279993E-12   0.7648866065E-14   0.1023016310E+00  -0.5112806550E-01  -0.5112806550E-01   0.1954653212E-14   0.1553259654E-14   0.8168131232E-16   0.1137500002E+02
   0.1102301631E+01   0.9488719346E+00   0.6725169931E-14  -0.2249958359E-02   0.1122729180E-02   0.6808270047E-14   0.1045515892E+00  -0.5225079460E-01  -0.8310011616E-16   0.1137500002E+02   0.2502678783E-09   0.2503501082E-09   0.3069321346E-12  -0.2332133495E-12  -0.3341119962E-12   0.1023016310E+00  -0.5112806550E-01  -0.5112806550E-01   0.3695603648E-14  -0.2631638726E-14  -0.3923507411E-14   0.1137500002E+02
   0.0000000000E+00   0.9488719346E+00   0.4831701450E-14   0.0000000000E+00   0.1122729180E-02   0.4843077435E-14   0.0000000000E+00  -0.5225079460E-01  -0.1137598544E-16   0.1137500002E+02   0.3960048724E-09   0.3952030361E-09  -0.3019164180E-12   0.2273896317E-13   0.2686147597E-12   0.1023016310E+00  -0.5112806550E-01  -0.5112806550E-01  -0.3685799481E-14   0.1854805720E-15   0.3174663190E-14   0.1137500002E+02
   0.0000000000E+00   0.0000000000E+00   0.9488719346E+00   0.0000000000E+00   0.0000000000E+00   0.1122729180E-02   0.0000000000E+00   0.0000000000E+00  -0.5225079460E-01   0.1137500002E+02  -0.1059076897E-09  -0.1045067264E-09  -0.3022638715E-15   0.1993785247E-12   0.2452671046E-12   0.1023016310E+00  -0.5112806550E-01  -0.5112806550E-01   0.1877432989E-17   0.2250387288E-14   0.2886605852E-14   0.1137500002E+02
   0.1102301631E+01   0.0000000000E+00   0.9488719346E+00  -0.2249958359E-02   0.0000000000E+00   0.1122729180E-02   0.1045515892E+00   0.0000000000E+00  -0.5225079460E-01   0.1137500002E+02  -0.3654343712E-09  -0.3655356721E-09  -0.3033213591E-12   0.1567621318E-12   0.4406645285E-12   0.1023016310E+00  -0.5112806550E-01  -0.5112806550E-01  -0.3580898521E-14   0.1989359977E-14   0.5297909831E-14   0.1137500002E+02
   0.1102301631E+01   0.9488719346E+00   0.9488719346E+00  -0.2249958359E-02   0.1122729180E-02   0.1122729180E-02   0.1045515892E+00  -0.5225079460E-01  -0.5225079460E-01   0.1137500001E+02  -0.2655874157E-09  -0.2648212780E-09  -0.2695755344E-12  -0.2936712236E-12   0.9864536166E-13   0.1023016310E+00  -0.5112806549E-01  -0.5112806549E-01  -0.3144728014E-14  -0.3546124138E-14   0.1264327410E-14   0.1137500001E+02
   0.0000000000E+00   0.9488719346E+00   0.9488719346E+00   0.0000000000E+00   0.1122729180E-02   0.1122729180E-02   0.0000000000E+00  -0.5225079460E-01  -0.5225079460E-01   0.1137500001E+02  -0.5528974673E-09  -0.5526222367E-09   0.5178238406E-13   0.4871951905E-12  -0.2939588590E-12   0.1023016310E+00  -0.5112806549E-01  -0.5112806549E-01   0.7365948584E-15   0.5815006473E-14  -0.3618458658E-14   0.1137500002E+02
   0.2204603262E+01   0.0000000000E+00   0.9722461961E-14  -0.4499916718E-02   0.0000000000E+00   0.9986470583E-14   0.2091031784E+00   0.0000000000E+00  -0.2640086217E-15   0.1137500002E+02   0.5590400000E-09   0.5588793277E-09  -0.3267655211E-13  -0.5928364337E-12   0.1007065812E-11   0.1023016310E+00  -0.5112806550E-01  -0.5112806550E-01  -0.1488439598E-15  -0.7163823606E-14   0.1205182848E-13   0.1137500002E+02
   0.2204603262E+01   0.9488719346E+00   0.1575374740E-13  -0.4499916718E-02   0.1122729180E-02   0.1602600638E-13   0.2091031784E+00  -0.5225079460E-01  -0.2722589831E-15   0.1137500002E+02   0.5416844447E-10   0.5252588921E-10   0.5684299987E-12   0.4293282867E-12   0.2371435306E-12   0.1023016310E+00  -0.5112806549E-01  -0.5112806549E-01   0.7089205127E-14   0.4975502218E-14   0.2911094603E-14   0.1137500002E+02
   0.2204603262E+01   0.0000000000E+00   0.9488719346E+00  -0.4499916718E-02   0.0000000000E+00   0.1122729180E-02   0.2091031784E+00   0.0000000000E+00  -0.5225079460E-01   0.1137500002E+02   0.9703989950E-10   0.9841900953E-10  -0.4596957297E-12   0.5371550759E-12   0.2656893130E-12   0.1023016310E+00  -0.5112806549E-01  -0.5112806549E-01  -0.5545609622E-14   0.6454515024E-14   0.3177054309E-14   0.1137500002E+02
   0.2204603262E+01   0.9488719346E+00   0.9488719346E+00  -0.4499916718E-02   0.1122729180E-02   0.1122729180E-02   0.2091031784E+00  -0.5225079460E-01  -0.5225079460E-01   0.1137500001E+02  -0.3375206089E-09  -0.3376235930E-09  -0.4440924623E-12  -0.1592343517E-12  -0.5040196863E-12   0.1023016310E+00  -0.5112806549E-01  -0.5112806549E-01  -0.5442190218E-14  -0.2183641653E-14  -0.6114916159E-14   0.1137500001E+02
     1     2     3     4     5     6     7     8
     2     9    10     3     6    11    12     7
 VARIABLES = X,Y,Z,DU1,DU2,DU3,U1,U2,U3,S11,S22,S33,S12,S13,S23,E11,E22,E33,E12,E13,E23,SMISES
 ZONE, T="0.7100D+01" F=FEPOINT, I=   12 J=    2 ET=BRICK
   0.0000000000E+00   0.0000000000E+00   0.0000000000E+00   0.0000000000E+00   0.0000000000E+00   0.0000000000E+00   0.0000000000E+00   0.0000000000E+00   0.0000000000E+00   0.1025000002E+02  -0.2389095339E-11  -0.2388354834E-11   0.1534252903E-15   0.1505363593E-14   0.1225083876E-14   0.1000516310E+00  -0.5000531550E-01  -0.5000531550E-01   0.7577822774E-17  -0.4694674879E-16   0.2576536779E-16   0.1025000002E+02
   0.1100051631E+01   0.0000000000E+00  -0.4571174387E-16  -0.2250000000E-02   0.0000000000E+00  -0.6727474960E-14   0.1023016308E+00   0.0000000000E+00   0.6681763216E-14   0.1025000002E+02  -0.1082124088E-11  -0.1083388887E-11  -0.3188675973E-15  -0.1673517194E-14   0.1357202832E-14   0.1000516310E+00  -0.5000531550E-01  -0.5000531550E-01   0.1007408705E-16   0.4709482776E-16  -0.1530725467E-17   0.1025000002E+02
   0.1100051631E+01   0.9499946846E+00  -0.4012515568E-16  -0.2250000000E-02   0.1122750000E-02  -0.6765295087E-14   0.1023016308E+00  -0.5112806542E-01   0.6725169931E-14   0.1025000001E+02  -0.3236195418E-11  -0.3237075625E-11  -0.3981314640E-15  -0.4739325779E-15  -0.6373383013E-16   0.1000516310E+00  -0.5000531549E-01  -0.5000531549E-01   0.7675622723E-17   0.6644164070E-16   0.1033607449E-15   0.1025000001E+02
   0.0000000000E+00   0.9499946846E+00  -0.2218037785E-17   0.0000000000E+00   0.1122750000E-02  -0.4833919487E-14   0.0000000000E+00  -0.5112806542E-01   0.4831701450E-14   0.1025000001E+02  -0.5516794209E-11  -0.5520641202E-11  -0.2196742172E-14   0.1812217129E-14  -0.1439000691E-14   0.1000516310E+00  -0.5000531550E-01  -0.5000531550E-01  -0.1157232705E-15  -0.5108560026E-16  -0.1465570841E-15   0.1025000001E+02
   0.0000000000E+00   0.0000000000E+00   0.9499946846E+00   0.0000000000E+00   0.0000000000E+00   0.1122750000E-02   0.0000000000E+00   0.0000000000E+00  -0.5112806542E-01   0.1025000001E+02   0.1438901162E-11   0.1440391992E-11  -0.2974976927E-15   0.1187693381E-15   0.1531084157E-14   0.1000516310E+00  -0.5000531550E-01  -0.5000531550E-01  -0.1385763112E-18  -0.1351161624E-15  -0.5682391166E-16   0.1025000001E+02
   0.1100051631E+01   0.0000000000E+00   0.9499946846E+00  -0.2250000000E-02   0.0000000000E+00   0.1122750000E-02   0.1023016308E+00   0.0000000000E+00  -0.5112806542E-01   0.1025000001E+02   0.2475107296E-11   0.2476778465E-11   0.1271716545E-14  -0.6690196824E-15   0.8837261046E-15   0.1000516310E+00  -0.5000531549E-01  -0.5000531549E-01   0.8194025876E-16   0.5770071361E-16   0.1607482158E-16   0.1025000001E+02
   0.1100051631E+01   0.9499946846E+00   0.9499946846E+00  -0.2250000000E-02   0.1122750000E-02   0.1122750000E-02   0.1023016308E+00  -0.5112806542E-01  -0.5112806542E-01   0.1025000001E+02   0.7295847443E-12   0.7311528627E-12   0.1369154738E-14  -0.2029755509E-15  -0.7950964710E-15   0.1000516310E+00  -0.5000531549E-01  -0.5000531549E-01   0.1103961010E-15   0.8424008755E-16   0.8825269362E-16   0.1025000001E+02
   0.0000000000E+00   0.9499946846E+00   0.9499946846E+00   0.0000000000E+00   0.1122750000E-02   0.1122750000E-02   0.0000000000E+00  -0.5112806542E-01  -0.5112806542E-01   0.1025000001E+02   0.5713770031E-11   0.5715645454E-11  -0.3055915695E-15  -0.6421915339E-15  -0.1620705768E-14   0.1000516310E+00  -0.5000531549E-01  -0.5000531549E-01   0.8630517615E-16  -0.8067548214E-16  -0.7872551267E-17   0.1025000001E+02
   0.2200103262E+01   0.0000000000E+00  -0.1568887982E-15  -0.4500000000E-02   0.0000000000E+00  -0.9879350760E-14   0.2046032617E+00   0.0000000000E+00   0.9722461961E-14   0.1025000002E+02  -0.1620256060E-11  -0.1623244623E-11  -0.4077030057E-14  -0.4120351634E-15  -0.2085967490E-15   0.1000516310E+00  -0.5000531550E-01  -0.5000531550E-01   0.1626824979E-15   0.2022141065E-15  -0.2833325876E-16   0.1025000002E+02
   0.2200103262E+01   0.9499946846E+00  -0.1652517044E-15  -0.4500000000E-02   0.1122750000E-02  -0.1591899911E-13   0.2046032617E+00  -0.5112806542E-01   0.1575374740E-13   0.1025000001E+02  -0.7965520101E-12  -0.7978237131E-12  -0.2798487823E-14   0.1651390454E-14  -0.1190625919E-14   0.1000516310E+00  -0.5000531549E-01  -0.5000531549E-01   0.1238795078E-15  -0.3464359690E-15   0.2984407261E-16   0.1025000001E+02
   0.2200103262E+01   0.0000000000E+00   0.9499946846E+00  -0.4500000000E-02   0.0000000000E+00   0.1122750000E-02   0.2046032617E+00   0.0000000000E+00  -0.5112806542E-01   0.1025000001E+02   0.5547522857E-11   0.5547348353E-11   0.1903680879E-15  -0.1371720554E-15  -0.8686085659E-16   0.1000516310E+00  -0.5000531549E-01  -0.5000531549E-01  -0.4483748843E-16  -0.2424822916E-15  -0.1683730353E-16   0.1025000001E+02
   0.2200103262E+01   0.9499946846E+00   0.9499946846E+00  -0.4500000000E-02   0.1122750000E-02   0.1122750000E-02   0.2046032617E+00  -0.5112806542E-01  -0.5112806542E-01   0.1025000001E+02  -0.1657846249E-12  -0.1655745369E-12   0.6317105565E-15   0.1380480951E-14  -0.9354715862E-15   0.1000516310E+00  -0.5000531549E-01  -0.5000531549E-01  -0.7139855800E-16   0.4620306456E-16  -0.2901543204E-17   0.1025000001E+02
     1     2     3     4     5     6     7     8
     2     9    10     3     6    11    12     7
 VARIABLES = X,Y,Z,DU1,DU2,DU3,U1,U2,U3,S11,S22,S33,S12,S13,S23,E11,E22,E33,E12,E13,E23,SMISES
 ZONE, T="0.7150D+01" F=FEPOINT, I=   12 J=    2 ET=BRICK
   0.0000000000E+00   0.0000000000E+00   0.0000000000E+00   0.0000000000E+00   0.0000000000E+00   0.0000000000E+00   0.0000000000E+00   0.0000000000E+00   0.0000000000E+00   0.9125000014E+01  -0.3245356201E-11  -0.3243504015E-11   0.1447868311E-15   0.7437452806E-15   0.1188620992E-14   0.9780163100E-01  -0.4888256550E-01  -0.4888256550E-01   0.4868817903E-18  -0.9870296394E-16  -0.2500000065E-16   0.9125000014E+01
   0.1097801631E+01   0.0000000000E+00  -0.5467663038E-16  -0.2250000000E-02   0.0000000000E+00  -0.8964886505E-17   0.1000516308E+00   0.0000000000E+00  -0.4571174387E-16   0.9125000014E+01  -0.2185974760E-11  -0.2187643012E-11  -0.1220794236E-14  -0.1850791722E-14   0.4595158037E-15   0.9780163100E-01  -0.4888256550E-01  -0.4888256550E-01   0.2379345769E-16   0.1019101911E-15  -0.1001432429E-17   0.9125000014E+01
   0.1097801631E+01   0.9511174346E+00  -0.5444716015E-16  -0.2250000000E-02   0.1122750000E-02  -0.1432200447E-16   0.1000516308E+00  -0.5000531542E-01  -0.4012515568E-16   0.9125000013E+01  -0.2868311716E-11  -0.2868736946E-11  -0.1512212927E-14   0.1257901132E-14  -0.7329115538E-15   0.9780163099E-01  -0.4888256549E-01  -0.4888256549E-01  -0.7828771975E-17   0.3939621380E-18   0.6689669721E-16   0.9125000013E+01
   0.0000000000E+00   0.9511174346E+00  -0.2452065117E-17   0.0000000000E+00   0.1122750000E-02  -0.2340273317E-18   0.0000000000E+00  -0.5000531542E-01  -0.2218037785E-17   0.9125000013E+01  -0.7712340740E-11  -0.7715261444E-11  -0.1028791824E-14  -0.2887768217E-15  -0.5456625950E-15   0.9780163099E-01  -0.4888256549E-01  -0.4888256549E-01  -0.1010304615E-15  -0.1173503946E-16  -0.4257919123E-16   0.9125000013E+01
   0.0000000000E+00   0.0000000000E+00   0.9511174346E+00   0.0000000000E+00   0.0000000000E+00   0.1122750000E-02   0.0000000000E+00   0.0000000000E+00  -0.5000531542E-01   0.9125000013E+01   0.2286482538E-11   0.2287098605E-11  -0.3008440516E-15  -0.6066372997E-15   0.1309937956E-14   0.9780163099E-01  -0.4888256549E-01  -0.4888256549E-01  -0.2089894288E-17  -0.1399136789E-15   0.1584164593E-16   0.9125000013E+01
   0.1097801631E+01   0.0000000000E+00   0.9511174346E+00  -0.2250000000E-02   0.0000000000E+00   0.1122750000E-02   0.1000516308E+00   0.0000000000E+00  -0.5000531542E-01   0.9125000013E+01   0.3442204716E-11   0.3443317856E-11   0.2030276727E-14  -0.9378670268E-15   0.4881776378E-15   0.9780163099E-01  -0.4888256549E-01  -0.4888256549E-01   0.9233768068E-16   0.1016101119E-16   0.2087328794E-16   0.9125000013E+01
   0.1097801631E+01   0.9511174346E+00   0.9511174346E+00  -0.2250000000E-02   0.1122750000E-02   0.1122750000E-02   0.1000516308E+00  -0.5000531542E-01  -0.5000531542E-01   0.9125000012E+01   0.1545958628E-11   0.1548070969E-11   0.1782880402E-14   0.1457293034E-14  -0.9701685307E-15   0.9780163097E-01  -0.4888256549E-01  -0.4888256549E-01   0.1026000799E-15   0.9588001875E-16   0.7798798302E-16   0.9125000012E+01
   0.0000000000E+00   0.9511174346E+00   0.9511174346E+00   0.0000000000E+00   0.1122750000E-02   0.1122750000E-02   0.0000000000E+00  -0.5000531542E-01  -0.5000531542E-01   0.9125000012E+01   0.7170807208E-11   0.7171500563E-11  -0.1573937334E-15  -0.1733169577E-14  -0.8458733880E-15   0.9780163098E-01  -0.4888256549E-01  -0.4888256549E-01   0.9941346926E-16  -0.1027274207E-15  -0.1157418845E-15   0.9125000012E+01
   0.2195603262E+01   0.0000000000E+00  -0.1933056610E-15  -0.4500000000E-02   0.0000000000E+00  -0.3641686275E-16   0.2001032617E+00   0.0000000000E+00  -0.1568887982E-15   0.9125000014E+01  -0.4043647548E-11  -0.4045505569E-11   0.1032262379E-14   0.2234412831E-14   0.2017639703E-15   0.9780163099E-01  -0.4888256550E-01  -0.4888256550E-01   0.2519742305E-15  -0.5147548286E-16  -0.9854466230E-17   0.9125000014E+01
   0.2195603262E+01   0.9511174346E+00  -0.1992411515E-15  -0.4500000000E-02   0.1122750000E-02  -0.3398944706E-16   0.2001032617E+00  -0.5000531542E-01  -0.1652517044E-15   0.9125000013E+01   0.5783532186E-12   0.5792696864E-12   0.7208405043E-15  -0.3909175957E-15  -0.1005738637E-15   0.9780163098E-01  -0.4888256549E-01  -0.4888256549E-01   0.2432067576E-15  -0.1496056507E-15   0.2128595774E-16   0.9125000013E+01
   0.2195603262E+01   0.0000000000E+00   0.9511174346E+00  -0.4500000000E-02   0.0000000000E+00   0.1122750000E-02   0.2001032617E+00   0.0000000000E+00  -0.5000531542E-01   0.9125000013E+01   0.6216816270E-11   0.6217272707E-11  -0.1250490402E-14   0.2198283191E-14   0.3685198386E-15   0.9780163098E-01  -0.4888256549E-01  -0.4888256549E-01  -0.5465829510E-16   0.2118033033E-15  -0.2733742947E-16   0.9125000013E+01
   0.2195603262E+01   0.9511174346E+00   0.9511174346E+00  -0.4500000000E-02   0.1122750000E-02   0.1122750000E-02   0.2001032617E+00  -0.5000531542E-01  -0.5000531542E-01   0.9125000012E+01  -0.8941593405E-12  -0.8939586822E-12  -0.1739267895E-14  -0.1601270475E-14   0.1291131792E-15   0.9780163097E-01  -0.4888256549E-01  -0.4888256549E-01  -0.9725656693E-16  -0.2041710240E-15   0.6131165865E-16   0.9125000012E+01
     1     2     3     4     5     6     7     8
     2     9    10     3     6    11    12     7
 VARIABLES = X,Y,Z,DU1,DU2,DU3,U1,U2,U3,S11,S22,S33,S12,S13,S23,E11,E22,E33,E12,E13,E23,SMISES
 ZONE, T="0.7200D+01" F=FEPOINT, I=   12 J=    2 ET=BRICK
   0.0000000000E+00   0.0000000000E+00   0.0000000000E+00   0.0000000000E+00   0.0000000000E+00   0.0000000000E+00   0.0000000000E+00   0.0000000000E+00   0.0000000000E+00   0.8000000013E+01  -0.3299527610E-11  -0.3297542624E-11   0.1683815953E-15   0.7625209236E-15   0.1157492617E-14   0.9555163100E-01  -0.4775981550E-01  -0.4775981550E-01   0.5645573550E-18  -0.7994593020E-16  -0.6941070100E-17   0.8000000013E+01
   0.1095551631E+01   0.0000000000E+00  -0.5529244854E-16  -0.2250000000E-02   0.0000000000E+00  -0.6158181610E-18   0.9780163085E-01   0.0000000000E+00  -0.5467663038E-16   0.8000000012E+01  -0.2233945776E-11  -0.2235532754E-11  -0.1333381915E-14  -0.2276038819E-14   0.4663524604E-15   0.9555163099E-01  -0.4775981550E-01  -0.4775981550E-01   0.3368438369E-16   0.2231079817E-16  -0.1638686058E-16   0.8000000012E+01
   0.1095551631E+01   0.9522401846E+00  -0.5495663161E-16  -0.2250000000E-02   0.1122750000E-02  -0.5094714601E-18   0.9780163085E-01  -0.4888256542E-01  -0.5444716015E-16   0.8000000011E+01  -0.3098473823E-11  -0.3098677008E-11  -0.1567236387E-14   0.1991230034E-14  -0.6555745899E-15   0.9555163098E-01  -0.4775981549E-01  -0.4775981549E-01   0.3458070824E-17   0.1219636008E-15   0.9292695242E-16   0.8000000011E+01
   0.0000000000E+00   0.9522401846E+00  -0.2600287647E-17   0.0000000000E+00   0.1122750000E-02  -0.1482225300E-18   0.0000000000E+00  -0.4888256542E-01  -0.2452065117E-17   0.8000000012E+01  -0.7947405441E-11  -0.7950174486E-11  -0.8873878497E-15  -0.2950997911E-15   0.2732106850E-16   0.9555163098E-01  -0.4775981549E-01  -0.4775981549E-01  -0.9196700854E-16  -0.5909559190E-16  -0.6565627670E-16   0.8000000012E+01
   0.0000000000E+00   0.0000000000E+00   0.9522401846E+00   0.0000000000E+00   0.0000000000E+00   0.1122750000E-02   0.0000000000E+00   0.0000000000E+00  -0.4888256542E-01   0.8000000012E+01   0.2299034506E-11   0.2299154958E-11  -0.2994620732E-15  -0.9906718303E-15   0.1296403659E-14   0.9555163098E-01  -0.4775981549E-01  -0.4775981549E-01  -0.4238846139E-18  -0.1799574657E-15   0.1292710016E-16   0.8000000012E+01
   0.1095551631E+01   0.0000000000E+00   0.9522401846E+00  -0.2250000000E-02   0.0000000000E+00   0.1122750000E-02   0.9780163085E-01   0.0000000000E+00  -0.4888256542E-01   0.8000000011E+01   0.3503701794E-11   0.3504511616E-11   0.2923021606E-14  -0.1127853916E-14   0.3178473179E-15   0.9555163098E-01  -0.4775981549E-01  -0.4775981549E-01   0.1008374031E-15   0.5126991392E-16   0.1010433996E-16   0.8000000011E+01
   0.1095551631E+01   0.9522401846E+00   0.9522401846E+00  -0.2250000000E-02   0.1122750000E-02   0.1122750000E-02   0.9780163085E-01  -0.4888256542E-01  -0.4888256542E-01   0.8000000010E+01   0.1317350954E-11   0.1318634614E-11   0.2633159121E-14   0.2092971820E-14  -0.1099931283E-14   0.9555163097E-01  -0.4775981549E-01  -0.4775981549E-01   0.1279172658E-15   0.3553778416E-17   0.6879826954E-16   0.8000000010E+01
   0.0000000000E+00   0.9522401846E+00   0.9522401846E+00   0.0000000000E+00   0.1122750000E-02   0.1122750000E-02   0.0000000000E+00  -0.4888256542E-01  -0.4888256542E-01   0.8000000011E+01   0.8030488681E-11   0.8030616036E-11  -0.7387212038E-15  -0.2202940855E-14  -0.3132866419E-15   0.9555163097E-01  -0.4775981549E-01  -0.4775981549E-01   0.8757982212E-16  -0.9924729780E-16  -0.1270408873E-15   0.8000000011E+01
   0.2191103262E+01   0.0000000000E+00  -0.1963873394E-15  -0.4500000000E-02   0.0000000000E+00  -0.3081678364E-17   0.1956032617E+00   0.0000000000E+00  -0.1933056610E-15   0.8000000012E+01  -0.3915953824E-11  -0.3918063639E-11   0.7614989022E-15   0.2098140682E-14   0.2177873190E-15   0.9555163099E-01  -0.4775981550E-01  -0.4775981550E-01   0.3130400127E-15   0.1853262801E-15  -0.1636112852E-16   0.8000000012E+01
   0.2191103262E+01   0.9522401846E+00  -0.2021767840E-15  -0.4500000000E-02   0.1122750000E-02  -0.2935632530E-17   0.1956032617E+00  -0.4888256542E-01  -0.1992411515E-15   0.8000000011E+01   0.6864269463E-12   0.6873543027E-12   0.5394074654E-15  -0.8409163103E-15  -0.1735573004E-15   0.9555163098E-01  -0.4775981549E-01  -0.4775981549E-01   0.3213407390E-15  -0.4031174379E-15   0.4346127150E-16   0.8000000011E+01
   0.2191103262E+01   0.0000000000E+00   0.9522401846E+00  -0.4500000000E-02   0.0000000000E+00   0.1122750000E-02   0.1956032617E+00   0.0000000000E+00  -0.4888256542E-01   0.8000000011E+01   0.6713882398E-11   0.6715278538E-11  -0.1769056125E-14   0.2272358449E-14   0.2782537527E-15   0.9555163098E-01  -0.4775981549E-01  -0.4775981549E-01  -0.1353798492E-15   0.1574351303E-15   0.7767915237E-17   0.8000000011E+01
   0.2191103262E+01   0.9522401846E+00   0.9522401846E+00  -0.4500000000E-02   0.1122750000E-02   0.1122750000E-02   0.1956032617E+00  -0.4888256542E-01  -0.4888256542E-01   0.8000000010E+01  -0.1660563330E-11  -0.1660403309E-11  -0.2231857772E-14  -0.1330315721E-14   0.6643247408E-17   0.9555163097E-01  -0.4775981548E-01  -0.4775981548E-01  -0.1682138589E-15  -0.2060416191E-15   0.1182947091E-16   0.8000000010E+01
     1     2     3     4     5     6     7     8
     2     9    10     3     6    11    12     7
 VARIABLES = X,Y,Z,DU1,DU2,DU3,U1,U2,U3,S11,S22,S33,S12,S13,S23,E11,E22,E33,E12,E13,E23,SMISES
 ZONE, T="0.7250D+01" F=FEPOINT, I=   12 J=    2 ET=BRICK
   0.0000000000E+00   0.0000000000E+00   0.0000000000E+00   0.0000000000E+00   0.0000000000E+00   0.0000000000E+00   0.0000000000E+00   0.0000000000E+00   0.0000000000E+00   0.6875000011E+01  -0.4634720305E-11  -0.4632528148E-11   0.1647312523E-15  -0.2815231144E-15   0.3420375231E-15   0.9330163099E-01  -0.4663706550E-01  -0.4663706550E-01  -0.1989887645E-17  -0.8084031944E-16  -0.2665277537E-16   0.6875000011E+01
   0.1093301631E+01   0.0000000000E+00  -0.6057920359E-16  -0.2250000000E-02   0.0000000000E+00  -0.5286755056E-17   0.9555163085E-01   0.0000000000E+00  -0.5529244854E-16   0.6875000011E+01  -0.2008978558E-11  -0.2010979877E-11   0.1278705557E-14   0.3894019407E-15   0.6201642071E-15   0.9330163099E-01  -0.4663706549E-01  -0.4663706549E-01   0.8720096525E-16   0.5753514568E-16  -0.2037447306E-17   0.6875000011E+01
   0.1093301631E+01   0.9533629346E+00  -0.5939834919E-16  -0.2250000000E-02   0.1122750000E-02  -0.4441717584E-17   0.9555163085E-01  -0.4775981542E-01  -0.5495663161E-16   0.6875000010E+01  -0.3056605575E-11  -0.3056697738E-11   0.1071675717E-14   0.7105383667E-16  -0.6006175094E-15   0.9330163098E-01  -0.4663706549E-01  -0.4663706549E-01   0.4138702079E-16   0.2861379182E-16   0.5607360832E-16   0.6875000010E+01
   0.0000000000E+00   0.9533629346E+00  -0.7379604669E-17   0.0000000000E+00   0.1122750000E-02  -0.4779317022E-17   0.0000000000E+00  -0.4775981542E-01  -0.2600287647E-17   0.6875000010E+01  -0.7212040578E-11  -0.7214865134E-11  -0.8615548561E-15  -0.2144839202E-15  -0.7553294090E-15   0.9330163098E-01  -0.4663706549E-01  -0.4663706549E-01  -0.7237775082E-16  -0.3469659448E-16  -0.3002137651E-16   0.6875000010E+01
   0.0000000000E+00   0.0000000000E+00   0.9533629346E+00   0.0000000000E+00   0.0000000000E+00   0.1122750000E-02   0.0000000000E+00   0.0000000000E+00  -0.4775981542E-01   0.6875000010E+01   0.3394449596E-11   0.3394514537E-11  -0.3079133749E-15  -0.1795334767E-14   0.7834906646E-15   0.9330163098E-01  -0.4663706549E-01  -0.4663706549E-01   0.1030788200E-16  -0.1827540567E-15  -0.1813819536E-16   0.6875000010E+01
   0.1093301631E+01   0.0000000000E+00   0.9533629346E+00  -0.2250000000E-02   0.0000000000E+00   0.1122750000E-02   0.9555163085E-01   0.0000000000E+00  -0.4775981542E-01   0.6875000010E+01   0.3351088233E-11   0.3352009078E-11   0.3184210132E-15   0.1479236419E-14   0.4868004041E-15   0.9330163098E-01  -0.4663706549E-01  -0.4663706549E-01   0.3347708990E-16   0.5061664517E-16   0.2209614236E-16   0.6875000010E+01
   0.1093301631E+01   0.9533629346E+00   0.9533629346E+00  -0.2250000000E-02   0.1122750000E-02   0.1122750000E-02   0.9555163085E-01  -0.4775981542E-01  -0.4775981542E-01   0.6875000009E+01   0.1416201427E-11   0.1417455339E-11  -0.1091397648E-15   0.1152050782E-15  -0.9973348998E-15   0.9330163097E-01  -0.4663706548E-01  -0.4663706548E-01   0.5777379428E-16  -0.1659337982E-17   0.1207475894E-15   0.6875000009E+01
   0.0000000000E+00   0.9533629346E+00   0.9533629346E+00   0.0000000000E+00   0.1122750000E-02   0.1122750000E-02   0.0000000000E+00  -0.4775981542E-01  -0.4775981542E-01   0.6875000009E+01   0.7244590455E-11   0.7244732685E-11  -0.6023128221E-15  -0.2342413160E-14  -0.8353464633E-15   0.9330163097E-01  -0.4663706549E-01  -0.4663706549E-01   0.1003617185E-15  -0.1214366386E-15  -0.1477674185E-15   0.6875000009E+01
   0.2186603262E+01   0.0000000000E+00  -0.2026511620E-15  -0.4500000000E-02   0.0000000000E+00  -0.6263822654E-17   0.1911032617E+00   0.0000000000E+00  -0.1963873394E-15   0.6875000010E+01  -0.2383444776E-11  -0.2386590442E-11   0.3019429708E-15   0.1074125801E-14   0.4324625550E-15   0.9330163099E-01  -0.4663706549E-01  -0.4663706549E-01   0.3393366106E-15   0.1625545693E-15   0.2169848765E-17   0.6875000010E+01
   0.2186603262E+01   0.9533629346E+00  -0.2070362908E-15  -0.4500000000E-02   0.1122750000E-02  -0.4859506754E-17   0.1911032617E+00  -0.4775981542E-01  -0.2021767840E-15   0.6875000010E+01   0.5311842818E-13   0.5432334031E-13   0.8848018945E-16  -0.8241072169E-15  -0.1266250312E-15   0.9330163098E-01  -0.4663706549E-01  -0.4663706549E-01   0.3617214191E-15  -0.3385432742E-15   0.3935723329E-16   0.6875000010E+01
   0.2186603262E+01   0.0000000000E+00   0.9533629346E+00  -0.4500000000E-02   0.0000000000E+00   0.1122750000E-02   0.1911032617E+00   0.0000000000E+00  -0.4775981542E-01   0.6875000010E+01   0.4951863817E-11   0.4953537514E-11  -0.9007155674E-15   0.7146402397E-15   0.7943036886E-15   0.9330163098E-01  -0.4663706549E-01  -0.4663706549E-01  -0.6269520015E-16   0.1420260499E-15  -0.5778130385E-17   0.6875000010E+01
   0.2186603262E+01   0.9533629346E+00   0.9533629346E+00  -0.4500000000E-02   0.1122750000E-02   0.1122750000E-02   0.1911032617E+00  -0.4775981542E-01  -0.4775981542E-01   0.6875000009E+01  -0.7697101493E-12  -0.7696244987E-12  -0.1693700573E-14  -0.1315764431E-14   0.2504535636E-15   0.9330163097E-01  -0.4663706548E-01  -0.4663706548E-01  -0.1430641834E-15  -0.1813825676E-15   0.1206552095E-16   0.6875000009E+01
     1     2     3     4     5     6     7     8
     2     9    10     3     6    11    12     7
 VARIABLES = X,Y,Z,DU1,DU2,DU3,U1,U2,U3,S11,S22,S33,S12,S13,S23,E11,E22,E33,E12,E13,E23,SMISES
 ZONE, T="0.7300D+01" F=FEPOINT, I=   12 J=    2 ET=BRICK
   0.0000000000E+00   0.0000000000E+00   0.0000000000E+00   0.0000000000E+00   0.0000000000E+00   0.0000000000E+00   0.0000000000E+00   0.0000000000E+00   0.0000000000E+00   0.5750000009E+01  -0.3930075763E-11  -0.3928381944E-11   0.1538368694E-15   0.5265122989E-15   0.7314821962E-15   0.9105163099E-01  -0.4551431549E-01  -0.4551431549E-01   0.3220157974E-17  -0.8619892480E-16   0.2038424963E-17   0.5750000009E+01
   0.1091051631E+01   0.0000000000E+00  -0.5586625536E-16  -0.2250000000E-02   0.0000000000E+00   0.4712948238E-17   0.9330163085E-01   0.0000000000E+00  -0.6057920359E-16   0.5750000009E+01  -0.1809369647E-11  -0.1810566588E-11   0.7872502399E-15  -0.6218616900E-15   0.7778563467E-15   0.9105163099E-01  -0.4551431549E-01  -0.4551431549E-01   0.5344913473E-16   0.4726182618E-16   0.7707319769E-17   0.5750000009E+01
   0.1091051631E+01   0.9544856846E+00  -0.5382457034E-16  -0.2250000000E-02   0.1122750000E-02   0.5573778853E-17   0.9330163085E-01  -0.4663706542E-01  -0.5939834919E-16   0.5750000008E+01  -0.3466881019E-11  -0.3467104522E-11   0.4526159991E-15  -0.1627963752E-15  -0.2996330333E-15   0.9105163098E-01  -0.4551431549E-01  -0.4551431549E-01   0.4249711460E-16   0.7568046080E-16   0.5350632374E-16   0.5750000008E+01
   0.0000000000E+00   0.9544856846E+00  -0.5091910913E-17   0.0000000000E+00   0.1122750000E-02   0.2287693757E-17   0.0000000000E+00  -0.4663706542E-01  -0.7379604669E-17   0.5750000008E+01  -0.6667954910E-11  -0.6671597989E-11  -0.1572118640E-14   0.3507428622E-15  -0.8729157154E-15   0.9105163098E-01  -0.4551431549E-01  -0.4551431549E-01  -0.1013158570E-15  -0.7996979807E-16  -0.7295610040E-16   0.5750000008E+01
   0.0000000000E+00   0.0000000000E+00   0.9544856846E+00   0.0000000000E+00   0.0000000000E+00   0.1122750000E-02   0.0000000000E+00   0.0000000000E+00  -0.4663706542E-01   0.5750000008E+01   0.2783351987E-11   0.2783543554E-11  -0.3177941675E-15  -0.1140138076E-14   0.9926946561E-15   0.9105163098E-01  -0.4551431549E-01  -0.4551431549E-01  -0.1224133404E-17  -0.1690456675E-15  -0.4220081431E-16   0.5750000008E+01
   0.1091051631E+01   0.0000000000E+00   0.9544856846E+00  -0.2250000000E-02   0.0000000000E+00   0.1122750000E-02   0.9330163085E-01   0.0000000000E+00  -0.4663706542E-01   0.5750000008E+01   0.3306300291E-11   0.3307019410E-11   0.8412317050E-15   0.7242688425E-15   0.5054078513E-15   0.9105163098E-01  -0.4551431549E-01  -0.4551431549E-01   0.4547045997E-16  -0.2771416578E-16   0.1512972244E-16   0.5750000008E+01
   0.1091051631E+01   0.9544856846E+00   0.9544856846E+00  -0.2250000000E-02   0.1122750000E-02   0.1122750000E-02   0.9330163085E-01  -0.4663706542E-01  -0.4663706542E-01   0.5750000008E+01   0.1409977637E-11   0.1411459037E-11   0.6154021731E-15  -0.2698802062E-15  -0.8018359303E-15   0.9105163097E-01  -0.4551431548E-01  -0.4551431548E-01   0.7395308263E-16   0.3678264388E-16   0.1188090492E-15   0.5750000008E+01
   0.0000000000E+00   0.9544856846E+00   0.9544856846E+00   0.0000000000E+00   0.1122750000E-02   0.1122750000E-02   0.0000000000E+00  -0.4663706542E-01  -0.4663706542E-01   0.5750000008E+01   0.6798190098E-11   0.6798455501E-11  -0.4889960548E-15  -0.1687673397E-14  -0.1113804182E-14   0.9105163097E-01  -0.4551431548E-01  -0.4551431548E-01   0.1123568491E-15  -0.1309863301E-15  -0.1333395644E-15   0.5750000008E+01
   0.2182103262E+01   0.0000000000E+00  -0.1930979846E-15  -0.4500000000E-02   0.0000000000E+00   0.9553177468E-17   0.1866032617E+00   0.0000000000E+00  -0.2026511620E-15   0.5750000009E+01  -0.2286162260E-11  -0.2288931500E-11  -0.1727906366E-14   0.7520375624E-15   0.7129616453E-16   0.9105163098E-01  -0.4551431549E-01  -0.4551431549E-01   0.2427762240E-15   0.4098081552E-17  -0.1024104634E-16   0.5750000009E+01
   0.2182103262E+01   0.9544856846E+00  -0.1995318193E-15  -0.4500000000E-02   0.1122750000E-02   0.7504471497E-17   0.1866032617E+00  -0.4663706542E-01  -0.2070362908E-15   0.5750000008E+01  -0.1018786287E-11  -0.1017358601E-11  -0.1480719763E-14   0.8071637363E-15  -0.4284997661E-16   0.9105163097E-01  -0.4551431549E-01  -0.4551431549E-01   0.2655180828E-15  -0.3146529863E-15   0.1466836484E-16   0.5750000008E+01
   0.2182103262E+01   0.0000000000E+00   0.9544856846E+00  -0.4500000000E-02   0.0000000000E+00   0.1122750000E-02   0.1866032617E+00   0.0000000000E+00  -0.4663706542E-01   0.5750000008E+01   0.5712160550E-11   0.5713637235E-11  -0.4387035528E-15   0.6706214522E-15  -0.4433397379E-17   0.9105163097E-01  -0.4551431549E-01  -0.4551431549E-01  -0.6056609188E-17   0.2724733577E-15  -0.2056487121E-16   0.5750000008E+01
   0.2182103262E+01   0.9544856846E+00   0.9544856846E+00  -0.4500000000E-02   0.1122750000E-02   0.1122750000E-02   0.1866032617E+00  -0.4663706542E-01  -0.4663706542E-01   0.5750000007E+01  -0.2034984265E-12  -0.2048116387E-12  -0.8353937624E-15  -0.5872749944E-16  -0.2041662794E-16   0.9105163096E-01  -0.4551431548E-01  -0.4551431548E-01  -0.9735175100E-16  -0.2659458329E-15   0.2019563336E-16   0.5750000007E+01
     1     2     3     4     5     6     7     8
     2     9    10     3     6    11    12     7
 VARIABLES = X,Y,Z,DU1,DU2,DU3,U1,U2,U3,S11,S22,S33,S12,S13,S23,E11,E22,E33,E12,E13,E23,SMISES
 ZONE, T="0.7350D+01" F=FEPOINT, I=   12 J=    2 ET=BRICK
   0.0000000000E+00   0.0000000000E+00   0.0000000000E+00   0.0000000000E+00   0.0000000000E+00   0.0000000000E+00   0.0000000000E+00   0.0000000000E+00   0.0000000000E+00   0.4625000007E+01  -0.4524648223E-11  -0.4521480441E-11   0.1601771908E-15  -0.4023788776E-15   0.5453391698E-15   0.8880163099E-01  -0.4439156549E-01  -0.4439156549E-01   0.2834957534E-17  -0.1041599047E-15  -0.3762997220E-16   0.4625000007E+01
   0.1088801631E+01   0.0000000000E+00  -0.6325801561E-16  -0.2250000000E-02   0.0000000000E+00  -0.7391760256E-17   0.9105163085E-01   0.0000000000E+00  -0.5586625536E-16   0.4625000007E+01  -0.2260391308E-11  -0.2261492101E-11   0.3245572555E-16  -0.2978484518E-15   0.5585588010E-15   0.8880163098E-01  -0.4439156549E-01  -0.4439156549E-01   0.3561812461E-16   0.7386747864E-16   0.1963013970E-17   0.4625000007E+01
   0.1088801631E+01   0.9556084346E+00  -0.6265756491E-16  -0.2250000000E-02   0.1122750000E-02  -0.8832994571E-17   0.9105163085E-01  -0.4551431542E-01  -0.5382457034E-16   0.4625000007E+01  -0.3694442025E-11  -0.3694569380E-11   0.7350910303E-16   0.9126511971E-15  -0.2800007978E-15   0.8880163097E-01  -0.4439156549E-01  -0.4439156549E-01  -0.2774473729E-17   0.2189057342E-16   0.1062202202E-15   0.4625000007E+01
   0.0000000000E+00   0.9556084346E+00  -0.6129623883E-17   0.0000000000E+00   0.1122750000E-02  -0.1037712970E-17   0.0000000000E+00  -0.4551431542E-01  -0.5091910913E-17   0.4625000007E+01  -0.8040556354E-11  -0.8043135825E-11  -0.8779782184E-15  -0.7637913907E-15  -0.2739093619E-15   0.8880163098E-01  -0.4439156549E-01  -0.4439156549E-01  -0.7508008229E-16  -0.3513994338E-16  -0.9307894645E-16   0.4625000007E+01
   0.0000000000E+00   0.0000000000E+00   0.9556084346E+00   0.0000000000E+00   0.0000000000E+00   0.1122750000E-02   0.0000000000E+00   0.0000000000E+00  -0.4551431542E-01   0.4625000007E+01   0.3755900893E-11   0.3756281305E-11  -0.3127253778E-15  -0.2018618629E-14   0.6509603901E-15   0.8880163098E-01  -0.4439156549E-01  -0.4439156549E-01  -0.3314339730E-17  -0.2027436751E-15  -0.1789246688E-16   0.4625000007E+01
   0.1088801631E+01   0.0000000000E+00   0.9556084346E+00  -0.2250000000E-02   0.0000000000E+00   0.1122750000E-02   0.9105163085E-01   0.0000000000E+00  -0.4551431542E-01   0.4625000007E+01   0.3751321198E-11   0.3751822257E-11   0.6999317928E-15   0.9556745105E-15   0.1852723881E-15   0.8880163097E-01  -0.4439156549E-01  -0.4439156549E-01   0.9152391541E-16  -0.1817735146E-16   0.1992788331E-16   0.4625000007E+01
   0.1088801631E+01   0.9556084346E+00   0.9556084346E+00  -0.2250000000E-02   0.1122750000E-02   0.1122750000E-02   0.9105163085E-01  -0.4551431542E-01  -0.4551431542E-01   0.4625000006E+01   0.1807886999E-11   0.1809150340E-11   0.4428838791E-15   0.7273043248E-15  -0.8296147056E-15   0.8880163096E-01  -0.4439156548E-01  -0.4439156548E-01   0.9308951559E-16   0.8228866364E-16   0.4437921048E-16   0.4625000006E+01
   0.0000000000E+00   0.9556084346E+00   0.9556084346E+00   0.0000000000E+00   0.1122750000E-02   0.1122750000E-02   0.0000000000E+00  -0.4551431542E-01  -0.4551431542E-01   0.4625000006E+01   0.7616605187E-11   0.7616437924E-11  -0.2644339955E-15  -0.2567016366E-14  -0.8018225823E-15   0.8880163096E-01  -0.4439156548E-01  -0.4439156548E-01   0.1180732179E-15  -0.1637326216E-15  -0.3763270067E-16   0.4625000006E+01
   0.2177603262E+01   0.0000000000E+00  -0.2154631449E-15  -0.4500000000E-02   0.0000000000E+00  -0.2236516039E-16   0.1821032617E+00   0.0000000000E+00  -0.1930979846E-15   0.4625000007E+01  -0.2835463395E-11  -0.2838604347E-11  -0.4647048455E-15   0.9324910705E-15   0.1803487123E-16   0.8880163098E-01  -0.4439156549E-01  -0.4439156549E-01   0.3199784807E-15   0.8186469483E-16  -0.3123583384E-16   0.4625000007E+01
   0.2177603262E+01   0.9556084346E+00  -0.2223008207E-15  -0.4500000000E-02   0.1122750000E-02  -0.2276900140E-16   0.1821032617E+00  -0.4551431542E-01  -0.1995318193E-15   0.4625000006E+01  -0.2900902523E-12  -0.2886239220E-12  -0.2925655825E-15  -0.6548112477E-18  -0.1292923720E-15   0.8880163097E-01  -0.4439156548E-01  -0.4439156548E-01   0.2940660947E-15  -0.7817319537E-16   0.3709318292E-16   0.4625000006E+01
   0.2177603262E+01   0.0000000000E+00   0.9556084346E+00  -0.4500000000E-02   0.0000000000E+00   0.1122750000E-02   0.1821032617E+00   0.0000000000E+00  -0.4551431542E-01   0.4625000006E+01   0.5441536195E-11   0.5442631739E-11  -0.6891282454E-15   0.7588884409E-15   0.2245690722E-15   0.8880163097E-01  -0.4439156548E-01  -0.4439156548E-01  -0.8789000500E-16   0.2885309146E-15   0.1664311980E-16   0.4625000006E+01
   0.2177603262E+01   0.9556084346E+00   0.9556084346E+00  -0.4500000000E-02   0.1122750000E-02   0.1122750000E-02   0.1821032617E+00  -0.4551431542E-01  -0.4551431542E-01   0.4625000006E+01  -0.3600114014E-12  -0.3610842433E-12  -0.1107098403E-14  -0.3336895879E-15   0.2610114878E-15   0.8880163096E-01  -0.4439156548E-01  -0.4439156548E-01  -0.1733307574E-15  -0.3052572357E-15   0.7007019160E-16   0.4625000006E+01
     1     2     3     4     5     6     7     8
     2     9    10     3     6    11    12     7
 VARIABLES = X,Y,Z,DU1,DU2,DU3,U1,U2,U3,S11,S22,S33,S12,S13,S23,E11,E22,E33,E12,E13,E23,SMISES
 ZONE, T="0.7400D+01" F=FEPOINT, I=   12 J=    2 ET=BRICK
   0.0000000000E+00   0.0000000000E+00   0.0000000000E+00   0.0000000000E+00   0.0000000000E+00   0.0000000000E+00   0.0000000000E+00   0.0000000000E+00   0.0000000000E+00   0.3500000005E+01  -0.4537912347E-11  -0.4535482543E-11   0.9628898312E-16  -0.1698218801E-15   0.4865930204E-15   0.8655163098E-01  -0.4326881549E-01  -0.4326881549E-01   0.1257482456E-16  -0.7111258317E-16  -0.1996184942E-16   0.3500000005E+01
   0.1086551631E+01   0.0000000000E+00  -0.6105530310E-16  -0.2250000000E-02   0.0000000000E+00   0.2202712509E-17   0.8880163085E-01   0.0000000000E+00  -0.6325801561E-16   0.3500000005E+01  -0.2065644621E-11  -0.2066371710E-11   0.8690884020E-15  -0.3149827946E-15   0.7325243216E-15   0.8655163098E-01  -0.4326881549E-01  -0.4326881549E-01   0.1346051801E-16  -0.2737071926E-16  -0.3073676565E-17   0.3500000005E+01
   0.1086551631E+01   0.9567311846E+00  -0.5944945469E-16  -0.2250000000E-02   0.1122750000E-02   0.3208110220E-17   0.8880163085E-01  -0.4439156542E-01  -0.6265756491E-16   0.3500000005E+01  -0.3580604821E-11  -0.3581146518E-11   0.5392450184E-15   0.5531301340E-15  -0.2590249191E-15   0.8655163097E-01  -0.4326881548E-01  -0.4326881548E-01  -0.1349907426E-17   0.8118569929E-16   0.1191584769E-15   0.3500000005E+01
   0.0000000000E+00   0.9567311846E+00  -0.6692158158E-17   0.0000000000E+00   0.1122750000E-02  -0.5625342750E-18   0.0000000000E+00  -0.4439156542E-01  -0.6129623883E-17   0.3500000005E+01  -0.7221716717E-11  -0.7224518233E-11  -0.1262194619E-14  -0.2736719248E-15  -0.7098176505E-15   0.8655163097E-01  -0.4326881549E-01  -0.4326881549E-01  -0.8316694747E-16  -0.7434579700E-16  -0.1073452763E-15   0.3500000005E+01
   0.0000000000E+00   0.0000000000E+00   0.9567311846E+00   0.0000000000E+00   0.0000000000E+00   0.1122750000E-02   0.0000000000E+00   0.0000000000E+00  -0.4439156542E-01   0.3500000005E+01   0.3320565192E-11   0.3320127810E-11  -0.2639249636E-15  -0.1638850600E-14   0.8563850805E-15   0.8655163097E-01  -0.4326881549E-01  -0.4326881549E-01  -0.6885008127E-17  -0.2047883880E-15  -0.5124245099E-16   0.3500000005E+01
   0.1086551631E+01   0.0000000000E+00   0.9567311846E+00  -0.2250000000E-02   0.0000000000E+00   0.1122750000E-02   0.8880163085E-01   0.0000000000E+00  -0.4439156542E-01   0.3500000005E+01   0.3603814436E-11   0.3604426518E-11   0.6955796308E-15   0.1189764489E-14   0.3105633565E-15   0.8655163097E-01  -0.4326881548E-01  -0.4326881548E-01   0.1094482093E-15  -0.5297213857E-16   0.2346043124E-16   0.3500000005E+01
   0.1086551631E+01   0.9567311846E+00   0.9567311846E+00  -0.2250000000E-02   0.1122750000E-02   0.1122750000E-02   0.8880163085E-01  -0.4439156542E-01  -0.4439156542E-01   0.3500000005E+01   0.1578682709E-11   0.1580178984E-11   0.4061046332E-15   0.3677905779E-16  -0.8384605486E-15   0.8655163096E-01  -0.4326881548E-01  -0.4326881548E-01   0.9809664028E-16   0.4808123327E-16   0.1087264062E-15   0.3500000005E+01
   0.0000000000E+00   0.9567311846E+00   0.9567311846E+00   0.0000000000E+00   0.1122750000E-02   0.1122750000E-02   0.0000000000E+00  -0.4439156542E-01  -0.4439156542E-01   0.3500000005E+01   0.7363287704E-11   0.7363362804E-11  -0.4644663432E-15  -0.2315547825E-14  -0.9060723159E-15   0.8655163096E-01  -0.4326881548E-01  -0.4326881548E-01   0.1251869653E-15  -0.1588992726E-15  -0.8340775324E-16   0.3500000005E+01
   0.2173103262E+01   0.0000000000E+00  -0.2063779422E-15  -0.4500000000E-02   0.0000000000E+00   0.9085202787E-17   0.1776032617E+00   0.0000000000E+00  -0.2154631449E-15   0.3500000005E+01  -0.2404313820E-11  -0.2407404704E-11  -0.6748085439E-15   0.1216977758E-14   0.5039266799E-16   0.8655163098E-01  -0.4326881549E-01  -0.4326881549E-01   0.3204689831E-15   0.2757036095E-15  -0.1781945489E-16   0.3500000005E+01
   0.2173103262E+01   0.9567311846E+00  -0.2128703108E-15  -0.4500000000E-02   0.1122750000E-02   0.9430509878E-17   0.1776032617E+00  -0.4439156542E-01  -0.2223008207E-15   0.3500000005E+01  -0.5280339730E-12  -0.5261235535E-12  -0.6161552785E-15  -0.8817818478E-16  -0.1966212228E-16   0.8655163097E-01  -0.4326881548E-01  -0.4326881548E-01   0.3239760362E-15  -0.4247706060E-15   0.2574366244E-17   0.3500000005E+01
   0.2173103262E+01   0.0000000000E+00   0.9567311846E+00  -0.4500000000E-02   0.0000000000E+00   0.1122750000E-02   0.1776032617E+00   0.0000000000E+00  -0.4439156542E-01   0.3500000005E+01   0.5447470002E-11   0.5449323843E-11  -0.6765443597E-15   0.7207050180E-15   0.2947554546E-15   0.8655163097E-01  -0.4326881548E-01  -0.4326881548E-01  -0.4169407785E-16   0.3524770171E-15   0.7627721803E-17   0.3500000005E+01
   0.2173103262E+01   0.9567311846E+00   0.9567311846E+00  -0.4500000000E-02   0.1122750000E-02   0.1122750000E-02   0.1776032617E+00  -0.4439156542E-01  -0.4439156542E-01   0.3500000004E+01  -0.3735076605E-12  -0.3744600502E-12  -0.1113426361E-14  -0.9544463496E-16   0.2964928530E-15   0.8655163096E-01  -0.4326881548E-01  -0.4326881548E-01  -0.1269028758E-15  -0.2164257144E-15   0.6921941451E-16   0.3500000004E+01
     1     2     3     4     5     6     7     8
     2     9    10     3     6    11    12     7
 VARIABLES = X,Y,Z,DU1,DU2,DU3,U1,U2,U3,S11,S22,S33,S12,S13,S23,E11,E22,E33,E12,E13,E23,SMISES
 ZONE, T="0.7450D+01" F=FEPOINT, I=   12 J=    2 ET=BRICK
   0.0000000000E+00   0.0000000000E+00   0.0000000000E+00   0.0000000000E+00   0.0000000000E+00   0.0000000000E+00   0.0000000000E+00   0.0000000000E+00   0.0000000000E+00   0.2375000004E+01  -0.4132590206E-11  -0.4129529728E-11   0.7705245847E-16  -0.1412410286E-15   0.7346638064E-15   0.8430163098E-01  -0.4214606549E-01  -0.4214606549E-01  -0.6622951730E-17  -0.9145775656E-16   0.5714113458E-17   0.2375000004E+01
   0.1084301631E+01   0.0000000000E+00  -0.6135221625E-16  -0.2250000000E-02   0.0000000000E+00  -0.2969131461E-18   0.8655163085E-01   0.0000000000E+00  -0.6105530310E-16   0.2375000004E+01  -0.2156291681E-11  -0.2157501503E-11  -0.2983479438E-15  -0.1016231925E-14   0.6013615400E-15   0.8430163098E-01  -0.4214606549E-01  -0.4214606549E-01   0.2086492398E-16  -0.4440978214E-17   0.7075072976E-17   0.2375000004E+01
   0.1084301631E+01   0.9578539346E+00  -0.6049925260E-16  -0.2250000000E-02   0.1122750000E-02  -0.1049797908E-17   0.8655163085E-01  -0.4326881542E-01  -0.5944945469E-16   0.2375000003E+01  -0.3369587606E-11  -0.3370384547E-11  -0.6263773530E-15   0.1564121057E-14  -0.4544559481E-15   0.8430163097E-01  -0.4214606548E-01  -0.4214606548E-01   0.8738898679E-17   0.2012223211E-16   0.8680560173E-16   0.2375000003E+01
   0.0000000000E+00   0.9578539346E+00  -0.5027261255E-17   0.0000000000E+00   0.1122750000E-02   0.1664896903E-17   0.0000000000E+00  -0.4326881542E-01  -0.6692158158E-17   0.2375000003E+01  -0.8158993129E-11  -0.8161815959E-11  -0.8237019611E-15  -0.7410942869E-15  -0.2230684055E-15   0.8430163097E-01  -0.4214606548E-01  -0.4214606548E-01  -0.9415110721E-16  -0.6821248883E-16  -0.9250081080E-16   0.2375000003E+01
   0.0000000000E+00   0.0000000000E+00   0.9578539346E+00   0.0000000000E+00   0.0000000000E+00   0.1122750000E-02   0.0000000000E+00   0.0000000000E+00  -0.4326881542E-01   0.2375000003E+01   0.3208759875E-11   0.3208344538E-11  -0.2404926941E-15  -0.1827230151E-14   0.9116291206E-15   0.8430163097E-01  -0.4214606548E-01  -0.4214606548E-01   0.1212695602E-16  -0.2166295365E-15  -0.8062687169E-16   0.2375000003E+01
   0.1084301631E+01   0.0000000000E+00   0.9578539346E+00  -0.2250000000E-02   0.0000000000E+00   0.1122750000E-02   0.8655163085E-01   0.0000000000E+00  -0.4326881542E-01   0.2375000003E+01   0.3545847001E-11   0.3546239031E-11   0.1336892933E-14   0.4223639752E-15   0.3321309929E-15   0.8430163097E-01  -0.4214606548E-01  -0.4214606548E-01   0.8555913478E-16  -0.6945652958E-16   0.2397696361E-16   0.2375000003E+01
   0.1084301631E+01   0.9578539346E+00   0.9578539346E+00  -0.2250000000E-02   0.1122750000E-02   0.1122750000E-02   0.8655163085E-01  -0.4326881542E-01  -0.4326881542E-01   0.2375000003E+01   0.1659721012E-11   0.1661224723E-11   0.1078986122E-14   0.1248431209E-14  -0.9006161767E-15   0.8430163096E-01  -0.4214606548E-01  -0.4214606548E-01   0.1049173548E-15   0.7038844120E-16   0.1059742619E-15   0.2375000003E+01
   0.0000000000E+00   0.9578539346E+00   0.9578539346E+00   0.0000000000E+00   0.1122750000E-02   0.1122750000E-02   0.0000000000E+00  -0.4326881542E-01  -0.4326881542E-01   0.2375000003E+01   0.7776678123E-11   0.7776517301E-11  -0.2458520991E-15  -0.2579559629E-14  -0.7094147802E-15   0.8430163096E-01  -0.4214606548E-01  -0.4214606548E-01   0.1326604300E-15  -0.1762657219E-15  -0.1298298881E-15   0.2375000003E+01
   0.2168603262E+01   0.0000000000E+00  -0.2087509106E-15  -0.4500000000E-02   0.0000000000E+00  -0.2372968487E-17   0.1731032617E+00   0.0000000000E+00  -0.2063779422E-15   0.2375000004E+01  -0.3210410492E-11  -0.3213924880E-11   0.4357605783E-15   0.1405661300E-14  -0.4852551718E-16   0.8430163097E-01  -0.4214606549E-01  -0.4214606549E-01   0.3245333077E-15   0.1252473413E-15  -0.1482215083E-16   0.2375000004E+01
   0.2168603262E+01   0.9578539346E+00  -0.2158949929E-15  -0.4500000000E-02   0.1122750000E-02  -0.3024682141E-17   0.1731032617E+00  -0.4326881542E-01  -0.2128703108E-15   0.2375000003E+01   0.4486829426E-12   0.4509437582E-12   0.2235686715E-15  -0.7219792725E-15  -0.3009162767E-15   0.8430163096E-01  -0.4214606548E-01  -0.4214606548E-01   0.3276623774E-15  -0.2684427265E-15   0.4385554741E-16   0.2375000003E+01
   0.2168603262E+01   0.0000000000E+00   0.9578539346E+00  -0.4500000000E-02   0.0000000000E+00   0.1122750000E-02   0.1731032617E+00   0.0000000000E+00  -0.4326881542E-01   0.2375000003E+01   0.5386152842E-11   0.5388051038E-11  -0.5266780099E-15   0.8478532150E-15   0.3320184585E-15   0.8430163096E-01  -0.4214606548E-01  -0.4214606548E-01  -0.5431921017E-16   0.2749017629E-15  -0.2070836300E-16   0.2375000003E+01
   0.2168603262E+01   0.9578539346E+00   0.9578539346E+00  -0.4500000000E-02   0.1122750000E-02   0.1122750000E-02   0.1731032617E+00  -0.4326881542E-01  -0.4326881542E-01   0.2375000003E+01  -0.8439688190E-12  -0.8444969756E-12  -0.1282271931E-14  -0.8361026527E-15   0.2333386878E-15   0.8430163095E-01  -0.4214606548E-01  -0.4214606548E-01  -0.1402281781E-15  -0.2163223832E-15   0.5630648163E-16   0.2375000003E+01
     1     2     3     4     5     6     7     8
     2     9    10     3     6    11    12     7
 VARIABLES = X,Y,Z,DU1,DU2,DU3,U1,U2,U3,S11,S22,S33,S12,S13,S23,E11,E22,E33,E12,E13,E23,SMISES
 ZONE, T="0.7500D+01" F=FEPOINT, I=   12 J=    2 ET=BRICK
   0.0000000000E+00   0.0000000000E+00   0.0000000000E+00   0.0000000000E+00   0.0000000000E+00   0.0000000000E+00   0.0000000000E+00   0.0000000000E+00   0.0000000000E+00   0.1250000002E+01  -0.3989695005E-11  -0.3987114538E-11   0.9229740103E-16   0.9051736704E-16   0.6232143878E-15   0.8205163097E-01  -0.4102331549E-01  -0.4102331549E-01   0.1320865724E-16  -0.7321682334E-16  -0.1743313804E-16   0.1250000002E+01
   0.1082051631E+01   0.0000000000E+00  -0.5930325977E-16  -0.2250000000E-02   0.0000000000E+00   0.2048956479E-17   0.8430163085E-01   0.0000000000E+00  -0.6135221625E-16   0.1250000002E+01  -0.1986968832E-11  -0.1987953888E-11   0.4140200324E-15  -0.7204036754E-15   0.7265570123E-15   0.8205163097E-01  -0.4102331549E-01  -0.4102331549E-01  -0.2204080387E-16  -0.2941837009E-16  -0.4358218789E-17   0.1250000002E+01
   0.1082051631E+01   0.9589766846E+00  -0.5769558279E-16  -0.2250000000E-02   0.1122750000E-02   0.2803669803E-17   0.8430163085E-01  -0.4214606542E-01  -0.6049925260E-16   0.1250000002E+01  -0.3393961544E-11  -0.3394730729E-11  -0.2062618591E-17   0.7813454267E-15  -0.3048525375E-15   0.8205163096E-01  -0.4102331548E-01  -0.4102331548E-01  -0.1786005719E-16   0.9513518236E-16   0.1114504802E-15   0.1250000002E+01
   0.0000000000E+00   0.9589766846E+00  -0.5846550987E-17   0.0000000000E+00   0.1122750000E-02  -0.8192897320E-18   0.0000000000E+00  -0.4214606542E-01  -0.5027261255E-17   0.1250000002E+01  -0.7473475761E-11  -0.7476471931E-11  -0.1155913386E-14  -0.1577271820E-15  -0.5908752902E-15   0.8205163097E-01  -0.4102331548E-01  -0.4102331548E-01  -0.8663501634E-16  -0.8094518888E-16  -0.1380147611E-16   0.1250000002E+01
   0.0000000000E+00   0.0000000000E+00   0.9589766846E+00   0.0000000000E+00   0.0000000000E+00   0.1122750000E-02   0.0000000000E+00   0.0000000000E+00  -0.4214606542E-01   0.1250000002E+01   0.3066787381E-11   0.3066432635E-11  -0.2292392033E-15  -0.1655921664E-14   0.8306178631E-15   0.8205163097E-01  -0.4102331548E-01  -0.4102331548E-01  -0.1625165353E-16  -0.2268419091E-15  -0.7032245990E-16   0.1250000002E+01
   0.1082051631E+01   0.0000000000E+00   0.9589766846E+00  -0.2250000000E-02   0.0000000000E+00   0.1122750000E-02   0.8430163085E-01   0.0000000000E+00  -0.4214606542E-01   0.1250000002E+01   0.3399585099E-11   0.3400113914E-11   0.8523481441E-15   0.7433692665E-15   0.4218917265E-15   0.8205163096E-01  -0.4102331548E-01  -0.4102331548E-01   0.1144862440E-15  -0.8856215438E-16   0.3379703949E-16   0.1250000002E+01
   0.1082051631E+01   0.9589766846E+00   0.9589766846E+00  -0.2250000000E-02   0.1122750000E-02   0.1122750000E-02   0.8430163085E-01  -0.4214606542E-01  -0.4214606542E-01   0.1250000002E+01   0.1590584323E-11   0.1592027808E-11   0.6090008189E-15   0.4106997708E-15  -0.8521977136E-15   0.8205163095E-01  -0.4102331548E-01  -0.4102331548E-01   0.7271082726E-16   0.4459506465E-16   0.1454464360E-15   0.1250000002E+01
   0.0000000000E+00   0.9589766846E+00   0.9589766846E+00   0.0000000000E+00   0.1122750000E-02   0.1122750000E-02   0.0000000000E+00  -0.4214606542E-01  -0.4214606542E-01   0.1250000002E+01   0.7392042416E-11   0.7392051845E-11  -0.2791448716E-15  -0.2199991953E-14  -0.9327110939E-15   0.8205163096E-01  -0.4102331548E-01  -0.4102331548E-01   0.1539798828E-15  -0.1390357611E-15  -0.1409881470E-15   0.1250000002E+01
   0.2164103262E+01   0.0000000000E+00  -0.2014512011E-15  -0.4500000000E-02   0.0000000000E+00   0.7299709570E-17   0.1686032617E+00   0.0000000000E+00  -0.2087509106E-15   0.1250000002E+01  -0.2803639221E-11  -0.2807274791E-11   0.9393151009E-17   0.1124775571E-14  -0.2034979682E-16   0.8205163097E-01  -0.4102331549E-01  -0.4102331549E-01   0.3241060979E-15   0.2437339675E-15  -0.1787352228E-16   0.1250000002E+01
   0.2164103262E+01   0.9589766846E+00  -0.2082938456E-15  -0.4500000000E-02   0.1122750000E-02   0.7601147373E-17   0.1686032617E+00  -0.4214606542E-01  -0.2158949929E-15   0.1250000002E+01   0.3426209182E-13   0.3620063152E-13  -0.8671077578E-16  -0.3188333746E-15  -0.2188736060E-15   0.8205163096E-01  -0.4102331548E-01  -0.4102331548E-01   0.3332949199E-15  -0.2544855053E-15   0.3298335561E-16   0.1250000002E+01
   0.2164103262E+01   0.0000000000E+00   0.9589766846E+00  -0.4500000000E-02   0.0000000000E+00   0.1122750000E-02   0.1686032617E+00   0.0000000000E+00  -0.4214606542E-01   0.1250000002E+01   0.5229873069E-11   0.5231766186E-11  -0.2376872865E-15   0.8322592692E-15   0.3647300857E-15   0.8205163096E-01  -0.4102331548E-01  -0.4102331548E-01  -0.6290646605E-16   0.2495103175E-15  -0.1437072886E-16   0.1250000002E+01
   0.2164103262E+01   0.9589766846E+00   0.9589766846E+00  -0.4500000000E-02   0.1122750000E-02   0.1122750000E-02   0.1686032617E+00  -0.4214606542E-01  -0.4214606542E-01   0.1250000002E+01  -0.4956651107E-12  -0.4962024302E-12  -0.9220039691E-15  -0.4664071114E-15   0.2152746227E-15   0.8205163095E-01  -0.4102331548E-01  -0.4102331548E-01  -0.1528236583E-15  -0.2256301228E-15   0.2908623092E-16   0.1250000002E+01
     1     2     3     4     5     6     7     8
     2     9    10     3     6    11    12     7
 VARIABLES = X,Y,Z,DU1,DU2,DU3,U1,U2,U3,S11,S22,S33,S12,S13,S23,E11,E22,E33,E12,E13,E23,SMISES
 ZONE, T="0.7550D+01" F=FEPOINT, I=   12 J=    2 ET=BRICK
   0.0000000000E+00   0.0000000000E+00   0.0000000000E+00   0.0000000000E+00   0.0000000000E+00   0.0000000000E+00   0.0000000000E+00   0.0000000000E+00   0.0000000000E+00   0.1250000002E+00  -0.4271493761E-11  -0.4268622221E-11   0.8951415713E-16  -0.1507094927E-15   0.5724975744E-15   0.7980163097E-01  -0.3990056549E-01  -0.3990056549E-01  -0.3052148938E-17  -0.9381935535E-16  -0.2521442219E-16   0.1250000002E+00
   0.1079801631E+01   0.0000000000E+00  -0.6131339504E-16  -0.2250000000E-02   0.0000000000E+00  -0.2010135275E-17   0.8205163085E-01   0.0000000000E+00  -0.5930325977E-16   0.1250000002E+00  -0.2061731964E-11  -0.2062622233E-11   0.4147740951E-15  -0.6914134902E-15   0.5993837308E-15   0.7980163097E-01  -0.3990056548E-01  -0.3990056548E-01   0.9596621086E-17  -0.8713253105E-17   0.1209060769E-17   0.1250000002E+00
   0.1079801631E+01   0.9600994346E+00  -0.6031630299E-16  -0.2250000000E-02   0.1122750000E-02  -0.2620720195E-17   0.8205163085E-01  -0.4102331542E-01  -0.5769558279E-16   0.1250000002E+00  -0.3509905498E-11  -0.3510491798E-11   0.2221297426E-16   0.9274536447E-15  -0.3330591488E-15   0.7980163096E-01  -0.3990056548E-01  -0.3990056548E-01  -0.6920130993E-17   0.8268468378E-16   0.1229392581E-15   0.1250000002E+00
   0.0000000000E+00   0.9600994346E+00  -0.6186389993E-17   0.0000000000E+00   0.1122750000E-02  -0.3398390052E-18   0.0000000000E+00  -0.4102331542E-01  -0.5846550987E-17   0.1250000002E+00  -0.7724764999E-11  -0.7727470843E-11  -0.1001122612E-14  -0.4344907347E-15  -0.4888299443E-15   0.7980163096E-01  -0.3990056548E-01  -0.3990056548E-01  -0.8227763345E-16  -0.5583708795E-16  -0.5972633508E-16   0.1250000002E+00
   0.0000000000E+00   0.0000000000E+00   0.9600994346E+00   0.0000000000E+00   0.0000000000E+00   0.1122750000E-02   0.0000000000E+00   0.0000000000E+00  -0.4102331542E-01   0.1250000002E+00   0.3231444552E-11   0.3231090586E-11  -0.2230409081E-15  -0.1839700808E-14   0.8647441937E-15   0.7980163096E-01  -0.3990056548E-01  -0.3990056548E-01   0.8624960667E-17  -0.2322148709E-15  -0.2660681928E-16   0.1250000002E+00
   0.1079801631E+01   0.0000000000E+00   0.9600994346E+00  -0.2250000000E-02   0.0000000000E+00   0.1122750000E-02   0.8205163085E-01   0.0000000000E+00  -0.4102331542E-01   0.1250000002E+00   0.3537961199E-11   0.3538494820E-11   0.8684474944E-15   0.9555972782E-15   0.3830982954E-15   0.7980163096E-01  -0.3990056548E-01  -0.3990056548E-01   0.4438911228E-16  -0.6367641907E-16   0.1339371137E-16   0.1250000002E+00
   0.1079801631E+01   0.9600994346E+00   0.9600994346E+00  -0.2250000000E-02   0.1122750000E-02   0.1122750000E-02   0.8205163085E-01  -0.4102331542E-01  -0.4102331542E-01   0.1250000002E+00   0.1687790010E-11   0.1689308370E-11   0.5961067130E-15   0.5347205879E-15  -0.9287304156E-15   0.7980163095E-01  -0.3990056548E-01  -0.3990056548E-01   0.6461004671E-16   0.1490097835E-16   0.1267706753E-15   0.1250000002E+00
   0.0000000000E+00   0.9600994346E+00   0.9600994346E+00   0.0000000000E+00   0.1122750000E-02   0.1122750000E-02   0.0000000000E+00  -0.4102331542E-01  -0.4102331542E-01   0.1250000002E+00   0.7587210499E-11   0.7587222377E-11  -0.3024150912E-15  -0.2514387696E-14  -0.8102551736E-15   0.7980163095E-01  -0.3990056548E-01  -0.3990056548E-01   0.1353840944E-15  -0.1550934888E-15  -0.9045008176E-16   0.1250000002E+00
   0.2159603262E+01   0.0000000000E+00  -0.2081789799E-15  -0.4500000000E-02   0.0000000000E+00  -0.6727778790E-17   0.1641032617E+00   0.0000000000E+00  -0.2014512011E-15   0.1250000002E+00  -0.2702887529E-11  -0.2706387994E-11  -0.1429015423E-15   0.1036042887E-14  -0.6435038348E-17   0.7980163097E-01  -0.3990056548E-01  -0.3990056548E-01   0.3030544488E-15   0.1627142342E-15  -0.1156831129E-16   0.1250000002E+00
   0.2159603262E+01   0.9600994346E+00  -0.2150266474E-15  -0.4500000000E-02   0.1122750000E-02  -0.6732801878E-17   0.1641032617E+00  -0.4102331542E-01  -0.2082938456E-15   0.1250000002E+00  -0.3185584175E-13  -0.2984947770E-13  -0.2189027331E-15  -0.4309239763E-15  -0.1416391193E-15   0.7980163096E-01  -0.3990056548E-01  -0.3990056548E-01   0.3170268364E-15  -0.4333622782E-15   0.2965873114E-16   0.1250000002E+00
   0.2159603262E+01   0.0000000000E+00   0.9600994346E+00  -0.4500000000E-02   0.0000000000E+00   0.1122750000E-02   0.1641032617E+00   0.0000000000E+00  -0.4102331542E-01   0.1250000002E+00   0.5364882913E-11   0.5366756425E-11  -0.4811249867E-15   0.1084318711E-14   0.2536737030E-15   0.7980163096E-01  -0.3990056548E-01  -0.3990056548E-01  -0.4888483176E-16   0.3733828917E-15  -0.2078651219E-17   0.1250000002E+00
   0.2159603262E+01   0.9600994346E+00   0.9600994346E+00  -0.4500000000E-02   0.1122750000E-02   0.1122750000E-02   0.1641032617E+00  -0.4102331542E-01  -0.4102331542E-01   0.1250000002E+00  -0.5275054702E-12  -0.5280960345E-12  -0.1039814114E-14  -0.5591943440E-15   0.1934862630E-15   0.7980163095E-01  -0.3990056547E-01  -0.3990056547E-01  -0.1779144154E-15  -0.2673334137E-15   0.3464480982E-17   0.1250000002E+00
     1     2     3     4     5     6     7     8
     2     9    10     3     6    11    12     7
 VARIABLES = X,Y,Z,DU1,DU2,DU3,U1,U2,U3,S11,S22,S33,S12,S13,S23,E11,E22,E33,E12,E13,E23,SMISES
 ZONE, T="0.7600D+01" F=FEPOINT, I=   12 J=    2 ET=BRICK
   0.0000000000E+00   0.0000000000E+00   0.0000000000E+00   0.0000000000E+00   0.0000000000E+00   0.0000000000E+00   0.0000000000E+00   0.0000000000E+00   0.0000000000E+00  -0.1000000002E+01  -0.4181184163E-11  -0.4178251987E-11   0.7115978140E-16   0.5054463217E-16   0.6429971743E-15   0.7755163097E-01  -0.3877781548E-01  -0.3877781548E-01   0.4810253857E-18  -0.9005651301E-16  -0.6788228596E-18   0.1000000002E+01
   0.1077551631E+01   0.0000000000E+00  -0.6066678521E-16  -0.2250000000E-02   0.0000000000E+00   0.6466098297E-18   0.7980163085E-01   0.0000000000E+00  -0.6131339504E-16  -0.1000000002E+01  -0.2106754586E-11  -0.2107690206E-11   0.4582606376E-15  -0.8644211437E-15   0.5476486136E-15   0.7755163097E-01  -0.3877781548E-01  -0.3877781548E-01  -0.3964930832E-18  -0.8987093475E-17  -0.2647695872E-17   0.1000000002E+01
   0.1077551631E+01   0.9612221846E+00  -0.5998780689E-16  -0.2250000000E-02   0.1122750000E-02   0.3284960981E-18   0.7980163085E-01  -0.3990056542E-01  -0.6031630299E-16  -0.1000000001E+01  -0.3459396444E-11  -0.3459859953E-11  -0.4099548464E-16   0.1004148763E-14  -0.3471429896E-15   0.7755163096E-01  -0.3877781548E-01  -0.3877781548E-01  -0.1673818752E-17   0.5062755045E-16   0.1250448605E-15   0.1000000001E+01
   0.0000000000E+00   0.9612221846E+00  -0.5685210729E-17   0.0000000000E+00   0.1122750000E-02   0.5011792636E-18   0.0000000000E+00  -0.3990056542E-01  -0.6186389993E-17  -0.1000000001E+01  -0.7719274140E-11  -0.7722129988E-11  -0.1015421443E-14  -0.5661334380E-15  -0.5488075941E-15   0.7755163096E-01  -0.3877781548E-01  -0.3877781548E-01  -0.6024442509E-16  -0.8033551192E-16  -0.9022819854E-16   0.1000000001E+01
   0.0000000000E+00   0.0000000000E+00   0.9612221846E+00   0.0000000000E+00   0.0000000000E+00   0.1122750000E-02   0.0000000000E+00   0.0000000000E+00  -0.3990056542E-01  -0.1000000001E+01   0.3188033519E-11   0.3187802129E-11  -0.2151021172E-15  -0.1789586082E-14   0.8774488455E-15   0.7755163096E-01  -0.3877781548E-01  -0.3877781548E-01  -0.6981646956E-17  -0.2713750487E-15  -0.6113331107E-16   0.1000000001E+01
   0.1077551631E+01   0.0000000000E+00   0.9612221846E+00  -0.2250000000E-02   0.0000000000E+00   0.1122750000E-02   0.7980163085E-01   0.0000000000E+00  -0.3990056542E-01  -0.1000000001E+01   0.3498855257E-11   0.3499313322E-11   0.8361956409E-15   0.1049570585E-14   0.3831924744E-15   0.7755163096E-01  -0.3877781548E-01  -0.3877781548E-01   0.5978569670E-16  -0.2908901195E-16   0.2000957810E-17   0.1000000001E+01
   0.1077551631E+01   0.9612221846E+00   0.9612221846E+00  -0.2250000000E-02   0.1122750000E-02   0.1122750000E-02   0.7980163085E-01  -0.3990056542E-01  -0.3990056542E-01  -0.1000000001E+01   0.1743833623E-11   0.1745348855E-11   0.5743683168E-15   0.4862502106E-15  -0.9491316735E-15   0.7755163095E-01  -0.3877781547E-01  -0.3877781547E-01   0.6632842025E-16  -0.2761908731E-16   0.1217777457E-15   0.1000000001E+01
   0.0000000000E+00   0.9612221846E+00   0.9612221846E+00   0.0000000000E+00   0.1122750000E-02   0.1122750000E-02   0.0000000000E+00  -0.3990056542E-01  -0.3990056542E-01  -0.1000000001E+01   0.7459112400E-11   0.7459090671E-11  -0.1171765856E-15  -0.2404168188E-14  -0.8457445004E-15   0.7755163095E-01  -0.3877781547E-01  -0.3877781547E-01   0.1456798112E-15  -0.1321456661E-15  -0.6960354382E-16   0.1000000001E+01
   0.2155103262E+01   0.0000000000E+00  -0.2078323693E-15  -0.4500000000E-02   0.0000000000E+00   0.3466106046E-18   0.1596032617E+00   0.0000000000E+00  -0.2081789799E-15  -0.1000000002E+01  -0.2837158310E-11  -0.2840761725E-11   0.1071526708E-15   0.1045267914E-14   0.1186891452E-15   0.7755163096E-01  -0.3877781548E-01  -0.3877781548E-01   0.3609937165E-15   0.9247255481E-16  -0.1142502176E-17   0.1000000002E+01
   0.2155103262E+01   0.9612221846E+00  -0.2139551277E-15  -0.4500000000E-02   0.1122750000E-02   0.1071519736E-17   0.1596032617E+00  -0.3990056542E-01  -0.2150266474E-15  -0.1000000001E+01  -0.5348294992E-13  -0.5168200934E-13   0.4859465699E-16  -0.3080768042E-15  -0.5582370748E-16   0.7755163095E-01  -0.3877781548E-01  -0.3877781548E-01   0.3588964046E-15  -0.2517097351E-15  -0.1823880553E-16   0.1000000001E+01
   0.2155103262E+01   0.0000000000E+00   0.9612221846E+00  -0.4500000000E-02   0.0000000000E+00   0.1122750000E-02   0.1596032617E+00   0.0000000000E+00  -0.3990056542E-01  -0.1000000001E+01   0.5321486687E-11   0.5323338984E-11  -0.2954233797E-15   0.9101916356E-15   0.3312917128E-15   0.7755163095E-01  -0.3877781548E-01  -0.3877781548E-01  -0.7446286591E-16   0.1264618498E-15   0.1312728976E-16   0.1000000001E+01
   0.2155103262E+01   0.9612221846E+00   0.9612221846E+00  -0.4500000000E-02   0.1122750000E-02   0.1122750000E-02   0.1596032617E+00  -0.3990056542E-01  -0.3990056542E-01  -0.1000000001E+01  -0.4580001580E-12  -0.4587439673E-12  -0.1004609207E-14  -0.3346689368E-15   0.3267664859E-15   0.7755163095E-01  -0.3877781547E-01  -0.3877781547E-01  -0.1572673174E-15  -0.1070472538E-15   0.5791961887E-16   0.1000000001E+01
     1     2     3     4     5     6     7     8
     2     9    10     3     6    11    12     7
 VARIABLES = X,Y,Z,DU1,DU2,DU3,U1,U2,U3,S11,S22,S33,S12,S13,S23,E11,E22,E33,E12,E13,E23,SMISES
 ZONE, T="0.7650D+01" F=FEPOINT, I=   12 J=    2 ET=BRICK
   0.0000000000E+00   0.0000000000E+00   0.0000000000E+00   0.0000000000E+00   0.0000000000E+00   0.0000000000E+00   0.0000000000E+00   0.0000000000E+00   0.0000000000E+00  -0.2125000003E+01  -0.4451324051E-11  -0.4448345114E-11   0.4083388843E-16  -0.3494988304E-15   0.4415624106E-15   0.7530163096E-01  -0.3765506548E-01  -0.3765506548E-01   0.4536213087E-17  -0.9894050004E-16  -0.4319349076E-17   0.2125000003E+01
   0.1075301631E+01   0.0000000000E+00  -0.6414026495E-16  -0.2250000000E-02   0.0000000000E+00  -0.3473479734E-17   0.7755163085E-01   0.0000000000E+00  -0.6066678521E-16  -0.2125000003E+01  -0.2343486920E-11  -0.2344325031E-11   0.5212611358E-15  -0.7793235787E-15   0.5047744912E-15   0.7530163096E-01  -0.3765506548E-01  -0.3765506548E-01  -0.8991130684E-19   0.3471757810E-16  -0.1257983769E-16   0.2125000003E+01
   0.1075301631E+01   0.9623449346E+00  -0.6375093888E-16  -0.2250000000E-02   0.1122750000E-02  -0.3763131983E-17   0.7755163085E-01  -0.3877781542E-01  -0.5998780689E-16  -0.2125000003E+01  -0.3785787606E-11  -0.3786308984E-11   0.3150506387E-16   0.1220024452E-14  -0.2523323404E-15   0.7530163095E-01  -0.3765506548E-01  -0.3765506548E-01  -0.3145217865E-17   0.4523831905E-16   0.9477673448E-16   0.2125000003E+01
   0.0000000000E+00   0.9623449346E+00  -0.6883849781E-17   0.0000000000E+00   0.1122750000E-02  -0.1198639052E-17   0.0000000000E+00  -0.3877781542E-01  -0.5685210729E-17  -0.2125000003E+01  -0.8069968437E-11  -0.8072574934E-11  -0.9944717386E-15  -0.7545912518E-15  -0.4539242129E-15   0.7530163096E-01  -0.3765506548E-01  -0.3765506548E-01  -0.5665679041E-16  -0.5236796891E-16  -0.6881515898E-16   0.2125000003E+01
   0.0000000000E+00   0.0000000000E+00   0.9623449346E+00   0.0000000000E+00   0.0000000000E+00   0.1122750000E-02   0.0000000000E+00   0.0000000000E+00  -0.3877781542E-01  -0.2125000003E+01   0.3464900054E-11   0.3464369247E-11  -0.1897444205E-15  -0.2206316932E-14   0.8064093560E-15   0.7530163096E-01  -0.3765506548E-01  -0.3765506548E-01   0.5880926877E-17  -0.2624276493E-15  -0.5946811951E-16   0.2125000003E+01
   0.1075301631E+01   0.0000000000E+00   0.9623449346E+00  -0.2250000000E-02   0.0000000000E+00   0.1122750000E-02   0.7755163085E-01   0.0000000000E+00  -0.3877781542E-01  -0.2125000003E+01   0.3699928706E-11   0.3700106128E-11   0.8926125830E-15   0.1250875817E-14   0.2493351405E-15   0.7530163095E-01  -0.3765506548E-01  -0.3765506548E-01   0.5108588517E-16  -0.5535837018E-16   0.3608602979E-16   0.2125000003E+01
   0.1075301631E+01   0.9623449346E+00   0.9623449346E+00  -0.2250000000E-02   0.1122750000E-02   0.1122750000E-02   0.7755163085E-01  -0.3877781542E-01  -0.3877781542E-01  -0.2125000003E+01   0.1855248244E-11   0.1856441199E-11   0.6506492122E-15   0.4972416895E-15  -0.8968568734E-15   0.7530163094E-01  -0.3765506547E-01  -0.3765506547E-01   0.4834515521E-16   0.4257151332E-16   0.1305669908E-15   0.2125000003E+01
   0.0000000000E+00   0.9623449346E+00   0.9623449346E+00   0.0000000000E+00   0.1122750000E-02   0.1122750000E-02   0.0000000000E+00  -0.3877781542E-01  -0.3877781542E-01  -0.2125000003E+01   0.7980611519E-11   0.7980239078E-11  -0.3334302400E-15  -0.2688104315E-14  -0.6617462471E-15   0.7530163095E-01  -0.3765506547E-01  -0.3765506547E-01   0.1447325984E-15  -0.1721691337E-15  -0.9468778370E-16   0.2125000003E+01
   0.2150603262E+01   0.0000000000E+00  -0.2190942159E-15  -0.4500000000E-02   0.0000000000E+00  -0.1126184665E-16   0.1551032617E+00   0.0000000000E+00  -0.2078323693E-15  -0.2125000003E+01  -0.2938673051E-11  -0.2942150521E-11   0.3632776334E-16   0.1004629397E-14  -0.3873597120E-16   0.7530163096E-01  -0.3765506548E-01  -0.3765506548E-01   0.3576718927E-15   0.1273105863E-15  -0.2108698128E-16   0.2125000003E+01
   0.2150603262E+01   0.9623449346E+00  -0.2261737621E-15  -0.4500000000E-02   0.1122750000E-02  -0.1221863444E-16   0.1551032617E+00  -0.3877781542E-01  -0.2139551277E-15  -0.2125000003E+01  -0.1450146089E-12  -0.1432070453E-12   0.9107057879E-16  -0.6007751954E-15  -0.6044278921E-16   0.7530163095E-01  -0.3765506548E-01  -0.3765506548E-01   0.3645752279E-15  -0.3377323259E-15   0.2660276135E-16   0.2125000003E+01
   0.2150603262E+01   0.0000000000E+00   0.9623449346E+00  -0.4500000000E-02   0.0000000000E+00   0.1122750000E-02   0.1551032617E+00   0.0000000000E+00  -0.3877781542E-01  -0.2125000003E+01   0.5549076687E-11   0.5550872294E-11  -0.7228835701E-15   0.1317794106E-14   0.1890058460E-15   0.7530163095E-01  -0.3765506548E-01  -0.3765506548E-01  -0.7609014606E-16   0.3414960798E-15  -0.2415746508E-17   0.2125000003E+01
   0.2150603262E+01   0.9623449346E+00   0.9623449346E+00  -0.4500000000E-02   0.1122750000E-02   0.1122750000E-02   0.1551032617E+00  -0.3877781542E-01  -0.3877781542E-01  -0.2125000003E+01  -0.5456140684E-12  -0.5463409620E-12  -0.1292909452E-14  -0.5136129948E-15   0.3697827801E-15   0.7530163094E-01  -0.3765506547E-01  -0.3765506547E-01  -0.1802944223E-15  -0.1774808700E-15   0.4130183938E-16   0.2125000003E+01
     1     2     3     4     5     6     7     8
     2     9    10     3     6    11    12     7
 VARIABLES = X,Y,Z,DU1,DU2,DU3,U1,U2,U3,S11,S22,S33,S12,S13,S23,E11,E22,E33,E12,E13,E23,SMISES
 ZONE, T="0.7700D+01" F=FEPOINT, I=   12 J=    2 ET=BRICK
   0.0000000000E+00   0.0000000000E+00   0.0000000000E+00   0.0000000000E+00   0.0000000000E+00   0.0000000000E+00   0.0000000000E+00   0.0000000000E+00   0.0000000000E+00  -0.3250000005E+01  -0.4760111692E-11  -0.4757335210E-11   0.2589273453E-16  -0.7041348260E-15   0.3150053365E-15   0.7305163096E-01  -0.3653231548E-01  -0.3653231548E-01  -0.2534129336E-17  -0.1240939126E-15  -0.5286708000E-17   0.3250000005E+01
   0.1073051631E+01   0.0000000000E+00  -0.6629059548E-16  -0.2250000000E-02   0.0000000000E+00  -0.2150330534E-17   0.7530163085E-01   0.0000000000E+00  -0.6414026495E-16  -0.3250000005E+01  -0.2319520285E-11  -0.2319786952E-11   0.7724766530E-15  -0.3903184195E-15   0.6047542313E-15   0.7305163096E-01  -0.3653231548E-01  -0.3653231548E-01   0.2260175108E-17   0.7890075078E-17   0.1107098427E-17   0.3250000005E+01
   0.1073051631E+01   0.9634676846E+00  -0.6531537225E-16  -0.2250000000E-02   0.1122750000E-02  -0.1564433379E-17   0.7530163085E-01  -0.3765506542E-01  -0.6375093888E-16  -0.3250000005E+01  -0.3982513770E-11  -0.3982620807E-11   0.2081101096E-15   0.1087213514E-14  -0.2290602475E-16   0.7305163095E-01  -0.3653231548E-01  -0.3653231548E-01  -0.1134493864E-16   0.2691974088E-16   0.9960311883E-16   0.3250000005E+01
   0.0000000000E+00   0.9634676846E+00  -0.7565188263E-17   0.0000000000E+00   0.1122750000E-02  -0.6813384818E-18   0.0000000000E+00  -0.3765506542E-01  -0.6883849781E-17  -0.3250000005E+01  -0.8071476958E-11  -0.8073918915E-11  -0.1230394373E-14  -0.8760476017E-15  -0.5973515607E-15   0.7305163095E-01  -0.3653231548E-01  -0.3653231548E-01  -0.3954922813E-16  -0.4403915185E-16  -0.5306808151E-16   0.3250000005E+01
   0.0000000000E+00   0.0000000000E+00   0.9634676846E+00   0.0000000000E+00   0.0000000000E+00   0.1122750000E-02   0.0000000000E+00   0.0000000000E+00  -0.3765506542E-01  -0.3250000005E+01   0.3774383957E-11   0.3773966165E-11  -0.2023325795E-15  -0.2388978377E-14   0.7838875155E-15   0.7305163095E-01  -0.3653231548E-01  -0.3653231548E-01   0.6479068391E-17  -0.2795883346E-15  -0.6973551341E-16   0.3250000005E+01
   0.1073051631E+01   0.0000000000E+00   0.9634676846E+00  -0.2250000000E-02   0.0000000000E+00   0.1122750000E-02   0.7530163085E-01   0.0000000000E+00  -0.3765506542E-01  -0.3250000005E+01   0.3764948921E-11   0.3765278003E-11   0.4868374819E-15   0.1677557260E-14   0.2288075467E-15   0.7305163095E-01  -0.3653231548E-01  -0.3653231548E-01   0.3830916345E-16  -0.7620049391E-16   0.3093993979E-16   0.3250000005E+01
   0.1073051631E+01   0.9634676846E+00   0.9634676846E+00  -0.2250000000E-02   0.1122750000E-02   0.1122750000E-02   0.7530163085E-01  -0.3765506542E-01  -0.3765506542E-01  -0.3250000004E+01   0.2078727657E-11   0.2080037079E-11   0.1080453540E-15   0.2339555142E-15  -0.7962921599E-15   0.7305163094E-01  -0.3653231547E-01  -0.3653231547E-01   0.6221352175E-16   0.2131420707E-16   0.1108771412E-15   0.3250000004E+01
   0.0000000000E+00   0.9634676846E+00   0.9634676846E+00   0.0000000000E+00   0.1122750000E-02   0.1122750000E-02   0.0000000000E+00  -0.3765506542E-01  -0.3765506542E-01  -0.3250000004E+01   0.7920083101E-11   0.7919552827E-11  -0.3408704860E-15  -0.2731284641E-14  -0.6733175839E-15   0.7305163094E-01  -0.3653231547E-01  -0.3653231547E-01   0.1474855205E-15  -0.1857424996E-15  -0.8281758303E-16   0.3250000004E+01
   0.2146103262E+01   0.0000000000E+00  -0.2223309791E-15  -0.4500000000E-02   0.0000000000E+00  -0.3236763171E-17   0.1506032617E+00   0.0000000000E+00  -0.2190942159E-15  -0.3250000005E+01  -0.2558481170E-11  -0.2562100140E-11  -0.9158183746E-15   0.7116067848E-15  -0.1585356112E-15   0.7305163096E-01  -0.3653231548E-01  -0.3653231548E-01   0.3510984075E-15   0.9244093508E-16  -0.1647334689E-16   0.3250000005E+01
   0.2146103262E+01   0.9634676846E+00  -0.2301680921E-15  -0.4500000000E-02   0.1122750000E-02  -0.3994329917E-17   0.1506032617E+00  -0.3765506542E-01  -0.2261737621E-15  -0.3250000005E+01  -0.5132436219E-12  -0.5116818729E-12  -0.7900271332E-15   0.5286763696E-15  -0.6807360614E-16   0.7305163095E-01  -0.3653231547E-01  -0.3653231547E-01   0.3298952666E-15  -0.2503305756E-15   0.1359013994E-16   0.3250000005E+01
   0.2146103262E+01   0.0000000000E+00   0.9634676846E+00  -0.4500000000E-02   0.0000000000E+00   0.1122750000E-02   0.1506032617E+00   0.0000000000E+00  -0.3765506542E-01  -0.3250000005E+01   0.5284768213E-11   0.5286510302E-11  -0.1300161056E-15   0.4262966954E-15   0.2164833151E-16   0.7305163095E-01  -0.3653231547E-01  -0.3653231547E-01  -0.7609279785E-16   0.3768071267E-15  -0.1920675325E-16   0.3250000005E+01
   0.2146103262E+01   0.9634676846E+00   0.9634676846E+00  -0.4500000000E-02   0.1122750000E-02   0.1122750000E-02   0.1506032617E+00  -0.3765506542E-01  -0.3765506542E-01  -0.3250000004E+01  -0.1239017825E-12  -0.1250586205E-12  -0.4628288974E-15   0.2563247230E-15   0.3170434141E-15   0.7305163094E-01  -0.3653231547E-01  -0.3653231547E-01  -0.1486095454E-15  -0.3703789368E-15   0.4157274018E-16   0.3250000004E+01
     1     2     3     4     5     6     7     8
     2     9    10     3     6    11    12     7
 VARIABLES = X,Y,Z,DU1,DU2,DU3,U1,U2,U3,S11,S22,S33,S12,S13,S23,E11,E22,E33,E12,E13,E23,SMISES
 ZONE, T="0.7750D+01" F=FEPOINT, I=   12 J=    2 ET=BRICK
   0.0000000000E+00   0.0000000000E+00   0.0000000000E+00   0.0000000000E+00   0.0000000000E+00   0.0000000000E+00   0.0000000000E+00   0.0000000000E+00   0.0000000000E+00  -0.4375000007E+01  -0.3742580328E-11  -0.3739101790E-11   0.1867375705E-16   0.2429851016E-15   0.5841012422E-15   0.7080163096E-01  -0.3540956548E-01  -0.3540956548E-01   0.5427362453E-17  -0.6528437255E-16  -0.1047495613E-16   0.4375000007E+01
   0.1070801631E+01   0.0000000000E+00  -0.6054805218E-16  -0.2250000000E-02   0.0000000000E+00   0.5742543307E-17   0.7305163085E-01   0.0000000000E+00  -0.6629059548E-16  -0.4375000007E+01  -0.2482607167E-11  -0.2483156835E-11  -0.7300455125E-16  -0.1618991781E-14   0.4373958513E-15   0.7080163096E-01  -0.3540956548E-01  -0.3540956548E-01  -0.2727968182E-16  -0.7754102451E-16  -0.6382246697E-17   0.4375000007E+01
   0.1070801631E+01   0.9645904346E+00  -0.6052838379E-16  -0.2250000000E-02   0.1122750000E-02   0.4786988464E-17   0.7305163085E-01  -0.3653231542E-01  -0.6531537225E-16  -0.4375000006E+01  -0.3666959439E-11  -0.3667253327E-11  -0.5268461122E-15   0.9467022625E-15  -0.3542074176E-15   0.7080163095E-01  -0.3540956547E-01  -0.3540956547E-01  -0.5994767320E-16   0.7753387014E-17   0.1142814276E-15   0.4375000006E+01
   0.0000000000E+00   0.9645904346E+00  -0.5898182602E-17   0.0000000000E+00   0.1122750000E-02   0.1667005661E-17   0.0000000000E+00  -0.3653231542E-01  -0.7565188263E-17  -0.4375000006E+01  -0.7994388748E-11  -0.7997586278E-11  -0.1021622871E-14  -0.4627678903E-15  -0.4079181832E-15   0.7080163095E-01  -0.3540956547E-01  -0.3540956547E-01  -0.3082634050E-16  -0.3586025373E-16  -0.3077160490E-16   0.4375000006E+01
   0.0000000000E+00   0.0000000000E+00   0.9645904346E+00   0.0000000000E+00   0.0000000000E+00   0.1122750000E-02   0.0000000000E+00   0.0000000000E+00  -0.3653231542E-01  -0.4375000006E+01   0.2962348575E-11   0.2962075735E-11  -0.2168568981E-15  -0.1579074234E-14   0.8776058532E-15   0.7080163095E-01  -0.3540956547E-01  -0.3540956547E-01   0.4395325176E-17  -0.2550224728E-15  -0.8577683066E-16   0.4375000006E+01
   0.1070801631E+01   0.0000000000E+00   0.9645904346E+00  -0.2250000000E-02   0.0000000000E+00   0.1122750000E-02   0.7305163085E-01   0.0000000000E+00  -0.3653231542E-01  -0.4375000006E+01   0.3848599294E-11   0.3849004205E-11   0.1057128377E-14   0.4528756388E-15   0.9284378890E-16   0.7080163095E-01  -0.3540956547E-01  -0.3540956547E-01   0.5028579772E-16  -0.1160520255E-15   0.3295885775E-16   0.4375000006E+01
   0.1070801631E+01   0.9645904346E+00   0.9645904346E+00  -0.2250000000E-02   0.1122750000E-02   0.1122750000E-02   0.7305163085E-01  -0.3653231542E-01  -0.3653231542E-01  -0.4375000006E+01   0.1558673865E-11   0.1560033354E-11   0.9629589375E-15   0.5572027051E-15  -0.1191890643E-14   0.7080163094E-01  -0.3540956547E-01  -0.3540956547E-01   0.9992804369E-16   0.7182882801E-16   0.1328076850E-15   0.4375000006E+01
   0.0000000000E+00   0.9645904346E+00   0.9645904346E+00   0.0000000000E+00   0.1122750000E-02   0.1122750000E-02   0.0000000000E+00  -0.3653231542E-01  -0.3653231542E-01  -0.4375000006E+01   0.7682209732E-11   0.7682214981E-11  -0.3510113568E-15  -0.2395934635E-14  -0.5687517900E-15   0.7080163094E-01  -0.3540956547E-01  -0.3540956547E-01   0.1255634313E-15  -0.1869619714E-15  -0.7795301375E-16   0.4375000006E+01
   0.2141603262E+01   0.0000000000E+00  -0.2115772735E-15  -0.4500000000E-02   0.0000000000E+00   0.1075370558E-16   0.1461032617E+00   0.0000000000E+00  -0.2223309791E-15  -0.4375000007E+01  -0.3803668442E-11  -0.3807312445E-11   0.1008128028E-14   0.2664834233E-14  -0.1009446740E-15   0.7080163095E-01  -0.3540956548E-01  -0.3540956548E-01   0.3766015885E-15   0.2092052820E-15  -0.1870448704E-16   0.4375000007E+01
   0.2141603262E+01   0.9645904346E+00  -0.2189233680E-15  -0.4500000000E-02   0.1122750000E-02   0.1124472408E-16   0.1461032617E+00  -0.3653231542E-01  -0.2301680921E-15  -0.4375000006E+01   0.1402046420E-12   0.1424813282E-12   0.1196166662E-14  -0.1195728447E-14   0.4201550513E-15   0.7080163094E-01  -0.3540956547E-01  -0.3540956547E-01   0.3875073409E-15  -0.3483296654E-15   0.3052799953E-16   0.4375000006E+01
   0.2141603262E+01   0.0000000000E+00   0.9645904346E+00  -0.4500000000E-02   0.0000000000E+00   0.1122750000E-02   0.1461032617E+00   0.0000000000E+00  -0.3653231542E-01  -0.4375000006E+01   0.6634648574E-11   0.6636064303E-11  -0.2632642299E-14   0.2849279517E-14   0.3543310929E-15   0.7080163094E-01  -0.3540956547E-01  -0.3540956547E-01  -0.9728422610E-16   0.1693342819E-15   0.3540883229E-17   0.4375000006E+01
   0.2141603262E+01   0.9645904346E+00   0.9645904346E+00  -0.4500000000E-02   0.1122750000E-02   0.1122750000E-02   0.1461032617E+00  -0.3653231542E-01  -0.3653231542E-01  -0.4375000006E+01  -0.5558355848E-12  -0.5575170565E-12  -0.2261158225E-14  -0.1048196786E-14   0.9981297054E-15   0.7080163094E-01  -0.3540956547E-01  -0.3540956547E-01  -0.2074164145E-15  -0.2195515347E-15   0.6611996781E-16   0.4375000006E+01
     1     2     3     4     5     6     7     8
     2     9    10     3     6    11    12     7
 VARIABLES = X,Y,Z,DU1,DU2,DU3,U1,U2,U3,S11,S22,S33,S12,S13,S23,E11,E22,E33,E12,E13,E23,SMISES
 ZONE, T="0.7800D+01" F=FEPOINT, I=   12 J=    2 ET=BRICK
   0.0000000000E+00   0.0000000000E+00   0.0000000000E+00   0.0000000000E+00   0.0000000000E+00   0.0000000000E+00   0.0000000000E+00   0.0000000000E+00   0.0000000000E+00  -0.5500000009E+01  -0.3814348462E-11  -0.3811228754E-11   0.1834244706E-16   0.4134689841E-15   0.7205628678E-15   0.6855163095E-01  -0.3428681548E-01  -0.3428681548E-01   0.2554251781E-17  -0.8462121141E-16   0.5497040513E-18   0.5500000009E+01
   0.1068551631E+01   0.0000000000E+00  -0.5745986600E-16  -0.2250000000E-02   0.0000000000E+00   0.3088186172E-17   0.7080163085E-01   0.0000000000E+00  -0.6054805218E-16  -0.5500000008E+01  -0.1865737820E-11  -0.1866793991E-11   0.9513711623E-15  -0.6283494294E-15   0.7649697859E-15   0.6855163095E-01  -0.3428681548E-01  -0.3428681548E-01   0.1811716725E-16   0.2187158142E-16   0.2000821807E-17   0.5500000008E+01
   0.1068551631E+01   0.9657131846E+00  -0.5559967266E-16  -0.2250000000E-02   0.1122750000E-02   0.4928711126E-17   0.7080163085E-01  -0.3540956542E-01  -0.6052838379E-16  -0.5500000008E+01  -0.3342700741E-11  -0.3343501133E-11   0.2078441834E-15   0.6433146295E-15  -0.3949646324E-15   0.6855163094E-01  -0.3428681547E-01  -0.3428681547E-01  -0.1122822299E-16   0.3548450434E-16   0.9412365077E-16   0.5500000008E+01
   0.0000000000E+00   0.9657131846E+00  -0.4813595870E-17   0.0000000000E+00   0.1122750000E-02   0.1084586732E-17   0.0000000000E+00  -0.3540956542E-01  -0.5898182602E-17  -0.5500000008E+01  -0.7187739715E-11  -0.7191462608E-11  -0.1258158899E-14  -0.9060242274E-16  -0.7092916229E-15   0.6855163095E-01  -0.3428681547E-01  -0.3428681547E-01  -0.5519832662E-16  -0.6282725699E-16  -0.4384527800E-16   0.5500000008E+01
   0.0000000000E+00   0.0000000000E+00   0.9657131846E+00   0.0000000000E+00   0.0000000000E+00   0.1122750000E-02   0.0000000000E+00   0.0000000000E+00  -0.3540956542E-01  -0.5500000008E+01   0.3024316868E-11   0.3024909360E-11  -0.2130976901E-15  -0.1955479523E-14   0.9556503172E-15   0.6855163095E-01  -0.3428681547E-01  -0.3428681547E-01  -0.1233640393E-17  -0.2809767267E-15  -0.8383847471E-16   0.5500000008E+01
   0.1068551631E+01   0.0000000000E+00   0.9657131846E+00  -0.2250000000E-02   0.0000000000E+00   0.1122750000E-02   0.7080163085E-01   0.0000000000E+00  -0.3540956542E-01  -0.5500000008E+01   0.3146453677E-11   0.3146788203E-11   0.6973937224E-15   0.1397652995E-14   0.5228432175E-15   0.6855163094E-01  -0.3428681547E-01  -0.3428681547E-01   0.7141317329E-16  -0.1122254916E-15   0.3250414566E-16   0.5500000008E+01
   0.1068551631E+01   0.9657131846E+00   0.9657131846E+00  -0.2250000000E-02   0.1122750000E-02   0.1122750000E-02   0.7080163085E-01  -0.3540956542E-01  -0.3540956542E-01  -0.5500000007E+01   0.1538715047E-11   0.1540004151E-11   0.3957799979E-15  -0.1246941538E-15  -0.1005108255E-14   0.6855163094E-01  -0.3428681547E-01  -0.3428681547E-01   0.1081633485E-15   0.4874667288E-16   0.1244505310E-15   0.5500000007E+01
   0.0000000000E+00   0.9657131846E+00   0.9657131846E+00   0.0000000000E+00   0.1122750000E-02   0.1122750000E-02   0.0000000000E+00  -0.3540956542E-01  -0.3540956542E-01  -0.5500000007E+01   0.7160187899E-11   0.7161103103E-11  -0.1698040727E-15  -0.2054732717E-14  -0.1200631219E-14   0.6855163094E-01  -0.3428681547E-01  -0.3428681547E-01   0.1377756554E-15  -0.1606105491E-15  -0.1137958769E-15   0.5500000007E+01
   0.2137103262E+01   0.0000000000E+00  -0.1968825876E-15  -0.4500000000E-02   0.0000000000E+00   0.1469468587E-16   0.1416032617E+00   0.0000000000E+00  -0.2115772735E-15  -0.5500000008E+01  -0.2396130538E-11  -0.2399941075E-11  -0.3666363838E-15   0.5125966955E-16  -0.8435785287E-16   0.6855163095E-01  -0.3428681547E-01  -0.3428681547E-01   0.3109089828E-15   0.4752256783E-16  -0.1318502982E-16   0.5500000008E+01
   0.2137103262E+01   0.9657131846E+00  -0.2042006378E-15  -0.4500000000E-02   0.1122750000E-02   0.1472273018E-16   0.1416032617E+00  -0.3540956542E-01  -0.2189233680E-15  -0.5500000008E+01  -0.1312356013E-12  -0.1289589151E-12  -0.6008153469E-15  -0.2580071884E-16  -0.7517533825E-16   0.6855163094E-01  -0.3428681547E-01  -0.3428681547E-01   0.3579037916E-15  -0.2731236461E-15   0.2937891841E-16   0.5500000008E+01
   0.2137103262E+01   0.0000000000E+00   0.9657131846E+00  -0.4500000000E-02   0.0000000000E+00   0.1122750000E-02   0.1416032617E+00   0.0000000000E+00  -0.3540956542E-01  -0.5500000008E+01   0.4999791345E-11   0.5002020882E-11  -0.5030698147E-16   0.4827421608E-15   0.1815040026E-15   0.6855163094E-01  -0.3428681547E-01  -0.3428681547E-01  -0.4631615856E-16   0.2264555119E-15   0.1503884111E-16   0.5500000008E+01
   0.2137103262E+01   0.9657131846E+00   0.9657131846E+00  -0.4500000000E-02   0.1122750000E-02   0.1122750000E-02   0.1416032617E+00  -0.3540956542E-01  -0.3540956542E-01  -0.5500000007E+01  -0.4599763257E-12  -0.4608886124E-12  -0.4734840857E-15  -0.3249507908E-15   0.3894856578E-15   0.6855163093E-01  -0.3428681547E-01  -0.3428681547E-01  -0.2310715020E-15  -0.3343728408E-15   0.4140390271E-16   0.5500000007E+01
     1     2     3     4     5     6     7     8
     2     9    10     3     6    11    12     7
 VARIABLES = X,Y,Z,DU1,DU2,DU3,U1,U2,U3,S11,S22,S33,S12,S13,S23,E11,E22,E33,E12,E13,E23,SMISES
 ZONE, T="0.7850D+01" F=FEPOINT, I=   12 J=    2 ET=BRICK
   0.0000000000E+00   0.0000000000E+00   0.0000000000E+00   0.0000000000E+00   0.0000000000E+00   0.0000000000E+00   0.0000000000E+00   0.0000000000E+00   0.0000000000E+00  -0.6625000010E+01  -0.5293156913E-11  -0.5288997172E-11   0.1186311041E-16  -0.1246315444E-14  -0.3730723274E-16   0.6630163095E-01  -0.3316406548E-01  -0.3316406548E-01   0.9122942993E-17  -0.1121586135E-15  -0.2837555494E-16   0.6625000010E+01
   0.1066301631E+01   0.0000000000E+00  -0.7110687902E-16  -0.2250000000E-02   0.0000000000E+00  -0.1364701301E-16   0.6855163085E-01   0.0000000000E+00  -0.5745986600E-16  -0.6625000010E+01  -0.2846962201E-11  -0.2846951312E-11   0.7646851894E-15  -0.3808193531E-15   0.3199301880E-15   0.6630163095E-01  -0.3316406547E-01  -0.3316406547E-01  -0.1249065510E-16  -0.2384764674E-16  -0.8215478093E-17   0.6625000010E+01
   0.1066301631E+01   0.9668359346E+00  -0.7194836612E-16  -0.2250000000E-02   0.1122750000E-02  -0.1634869346E-16   0.6855163085E-01  -0.3428681542E-01  -0.5559967266E-16  -0.6625000009E+01  -0.4175531970E-11  -0.4175188014E-11   0.4392894585E-15   0.1257727875E-14  -0.9166090849E-16   0.6630163094E-01  -0.3316406547E-01  -0.3316406547E-01  -0.9549708524E-18  -0.7466097938E-17   0.1122518963E-15   0.6625000009E+01
   0.0000000000E+00   0.9668359346E+00  -0.9465968589E-17   0.0000000000E+00   0.1122750000E-02  -0.4652372719E-17   0.0000000000E+00  -0.3428681542E-01  -0.4813595870E-17  -0.6625000010E+01  -0.8839527031E-11  -0.8841838180E-11  -0.7844373912E-15  -0.1348174411E-14  -0.7400730225E-16   0.6630163094E-01  -0.3316406547E-01  -0.3316406547E-01  -0.5735577772E-16  -0.4542560741E-16  -0.3499744924E-16   0.6625000010E+01
   0.0000000000E+00   0.0000000000E+00   0.9668359346E+00   0.0000000000E+00   0.0000000000E+00   0.1122750000E-02   0.0000000000E+00   0.0000000000E+00  -0.3428681542E-01  -0.6625000010E+01   0.4218054933E-11   0.4216133429E-11  -0.1924425308E-15  -0.2919668335E-14   0.5119205684E-15   0.6630163094E-01  -0.3316406547E-01  -0.3316406547E-01  -0.8225531801E-17  -0.2976842157E-15  -0.5806705025E-16   0.6625000010E+01
   0.1066301631E+01   0.0000000000E+00   0.9668359346E+00  -0.2250000000E-02   0.0000000000E+00   0.1122750000E-02   0.6855163085E-01   0.0000000000E+00  -0.3428681542E-01  -0.6625000009E+01   0.4165985377E-11   0.4165419377E-11   0.6482740278E-15   0.1740232441E-14   0.4491250752E-16   0.6630163094E-01  -0.3316406547E-01  -0.3316406547E-01   0.9921399322E-16  -0.1176431264E-15   0.2738642630E-16   0.6625000009E+01
   0.1066301631E+01   0.9668359346E+00   0.9668359346E+00  -0.2250000000E-02   0.1122750000E-02   0.1122750000E-02   0.6855163085E-01  -0.3428681542E-01  -0.3428681542E-01  -0.6625000009E+01   0.2435279654E-11   0.2435956677E-11   0.2881782934E-15   0.7318854280E-15  -0.6534863066E-15   0.6630163093E-01  -0.3316406547E-01  -0.3316406547E-01   0.1060040956E-15   0.1793257297E-16   0.1145031605E-15   0.6625000009E+01
   0.0000000000E+00   0.9668359346E+00   0.9668359346E+00   0.0000000000E+00   0.1122750000E-02   0.1122750000E-02   0.0000000000E+00  -0.3428681542E-01  -0.3428681542E-01  -0.6625000009E+01   0.8641156240E-11   0.8640611626E-11  -0.3524271668E-15  -0.3161995948E-14  -0.3217509000E-15   0.6630163093E-01  -0.3316406547E-01  -0.3316406547E-01   0.1302974138E-15  -0.1850876404E-15  -0.9581100320E-16   0.6625000009E+01
   0.2132603262E+01   0.0000000000E+00  -0.2396291850E-15  -0.4500000000E-02   0.0000000000E+00  -0.4274659736E-16   0.1371032617E+00   0.0000000000E+00  -0.1968825876E-15  -0.6625000010E+01  -0.3220487687E-11  -0.3224447161E-11   0.2195145855E-15   0.7799827371E-15  -0.4083253801E-15   0.6630163095E-01  -0.3316406547E-01  -0.3316406547E-01   0.3551626495E-15   0.1450619488E-15  -0.1628028703E-16   0.6625000010E+01
   0.2132603262E+01   0.9668359346E+00  -0.2489590576E-15  -0.4500000000E-02   0.1122750000E-02  -0.4475841986E-16   0.1371032617E+00  -0.3428681542E-01  -0.2042006378E-15  -0.6625000009E+01  -0.1632403729E-12  -0.1609074462E-12   0.3086587527E-15  -0.9529896676E-16  -0.1563411574E-16   0.6630163094E-01  -0.3316406547E-01  -0.3316406547E-01   0.3620255712E-15  -0.2683448493E-15   0.6620395034E-17   0.6625000009E+01
   0.2132603262E+01   0.0000000000E+00   0.9668359346E+00  -0.4500000000E-02   0.0000000000E+00   0.1122750000E-02   0.1371032617E+00   0.0000000000E+00  -0.3428681542E-01  -0.6625000009E+01   0.5612491993E-11   0.5613947630E-11  -0.3920411480E-15   0.1316006994E-14   0.1237063608E-15   0.6630163094E-01  -0.3316406547E-01  -0.3316406547E-01  -0.7532580856E-16   0.2651115526E-15   0.3856351665E-16   0.6625000009E+01
   0.2132603262E+01   0.9668359346E+00   0.9668359346E+00  -0.4500000000E-02   0.1122750000E-02   0.1122750000E-02   0.1371032617E+00  -0.3428681542E-01  -0.3428681542E-01  -0.6625000008E+01  -0.5554537584E-13  -0.5613276216E-13  -0.9436044833E-15  -0.1552037116E-15   0.7250341916E-15   0.6630163093E-01  -0.3316406547E-01  -0.3316406547E-01  -0.1671836239E-15  -0.1902019597E-15   0.2637792375E-16   0.6625000008E+01
     1     2     3     4     5     6     7     8
     2     9    10     3     6    11    12     7
 VARIABLES = X,Y,Z,DU1,DU2,DU3,U1,U2,U3,S11,S22,S33,S12,S13,S23,E11,E22,E33,E12,E13,E23,SMISES
 ZONE, T="0.7900D+01" F=FEPOINT, I=   12 J=    2 ET=BRICK
   0.0000000000E+00   0.0000000000E+00   0.0000000000E+00   0.0000000000E+00   0.0000000000E+00   0.0000000000E+00   0.0000000000E+00   0.0000000000E+00   0.0000000000E+00  -0.7749966911E+01  -0.1655083203E-04  -0.1655083203E-04  -0.2964174165E-18  -0.2829483444E-15  -0.4093261745E-15   0.5964769747E-01  -0.2983934873E-01  -0.2983934873E-01   0.1180740916E-16  -0.7448811933E-16  -0.1820701658E-16   0.7749950360E+01
   0.1059647697E+01   0.0000000000E+00  -0.5740410351E-16  -0.6653933474E-02   0.0000000000E+00   0.1370277551E-16   0.6630163085E-01   0.0000000000E+00  -0.7110687902E-16  -0.7749966910E+01  -0.1655082946E-04  -0.1655082947E-04   0.5322629585E-15  -0.5221536038E-15   0.3485049132E-15   0.5964769746E-01  -0.2983934873E-01  -0.2983934873E-01  -0.2439909919E-16  -0.5815782324E-16  -0.1594915174E-17   0.7749950359E+01
   0.1059647697E+01   0.9701606513E+00  -0.5783170077E-16  -0.6653933474E-02   0.3324716737E-02   0.1411666536E-16   0.6630163085E-01  -0.3316406542E-01  -0.7194836612E-16  -0.7749966909E+01  -0.1655083091E-04  -0.1655083091E-04   0.3746453182E-15   0.3212128736E-15   0.1628132973E-15   0.5964769746E-01  -0.2983934873E-01  -0.2983934873E-01  -0.2152262722E-16   0.6916079279E-16   0.1141419024E-15   0.7749950359E+01
   0.0000000000E+00   0.9701606513E+00  -0.1166041811E-16   0.0000000000E+00   0.3324716737E-02  -0.2194449524E-17   0.0000000000E+00  -0.3316406542E-01  -0.9465968589E-17  -0.7749966910E+01  -0.1655083520E-04  -0.1655083520E-04  -0.3224544826E-15   0.1437486725E-15  -0.3873325652E-15   0.5964769746E-01  -0.2983934873E-01  -0.2983934873E-01  -0.5578620952E-16  -0.7199332070E-16  -0.7041235649E-16   0.7749950359E+01
   0.0000000000E+00   0.0000000000E+00   0.9701606513E+00   0.0000000000E+00   0.0000000000E+00   0.3324716737E-02   0.0000000000E+00   0.0000000000E+00  -0.3316406542E-01  -0.7749966910E+01  -0.1655082497E-04  -0.1655082497E-04  -0.2439117049E-15  -0.1036344261E-14   0.6109828265E-15   0.5964769746E-01  -0.2983934873E-01  -0.2983934873E-01  -0.1109918331E-16  -0.2645427054E-15  -0.6427778082E-16   0.7749950359E+01
   0.1059647697E+01   0.0000000000E+00   0.9701606513E+00  -0.6653933474E-02   0.0000000000E+00   0.3324716737E-02   0.6630163085E-01   0.0000000000E+00  -0.3316406542E-01  -0.7749966909E+01  -0.1655082521E-04  -0.1655082521E-04  -0.1906459354E-15   0.1742306671E-14   0.1456408429E-15   0.5964769746E-01  -0.2983934873E-01  -0.2983934873E-01   0.9852814465E-16  -0.1027103117E-15   0.1598657082E-16   0.7749950359E+01
   0.1059647697E+01   0.9701606513E+00   0.9701606513E+00  -0.6653933474E-02   0.3324716737E-02   0.3324716737E-02   0.6630163085E-01  -0.3316406542E-01  -0.3316406542E-01  -0.7749966908E+01  -0.1655082597E-04  -0.1655082597E-04  -0.5048605601E-15  -0.1246346484E-15  -0.3749844464E-16   0.5964769745E-01  -0.2983934873E-01  -0.2983934873E-01   0.8068374834E-16   0.1609526314E-16   0.1339301541E-15   0.7749950358E+01
   0.0000000000E+00   0.9701606513E+00   0.9701606513E+00   0.0000000000E+00   0.3324716737E-02   0.3324716737E-02   0.0000000000E+00  -0.3316406542E-01  -0.3316406542E-01  -0.7749966909E+01  -0.1655082134E-04  -0.1655082134E-04   0.5731396557E-15  -0.1053186838E-14  -0.1744963858E-15   0.5964769745E-01  -0.2983934873E-01  -0.2983934873E-01   0.1511900581E-15  -0.1578626328E-15  -0.9080233828E-16   0.7749950358E+01
   0.2119295395E+01   0.0000000000E+00  -0.1800515821E-15  -0.1330786695E-01   0.0000000000E+00   0.5957760289E-16   0.1326032617E+00   0.0000000000E+00  -0.2396291850E-15  -0.7749966910E+01  -0.1655082967E-04  -0.1655082967E-04  -0.1005560208E-14  -0.1650789429E-14  -0.6417202045E-15   0.5964769746E-01  -0.2983934873E-01  -0.2983934873E-01   0.3065700097E-15   0.8572344726E-16  -0.2836492345E-16   0.7749950359E+01
   0.2119295395E+01   0.9701606513E+00  -0.1917521512E-15  -0.1330786695E-01   0.3324716737E-02   0.5720690645E-16   0.1326032617E+00  -0.3316406542E-01  -0.2489590576E-15  -0.7749966909E+01  -0.1655082767E-04  -0.1655082767E-04  -0.1149455647E-14   0.7398461734E-15  -0.2242320838E-15   0.5964769746E-01  -0.2983934873E-01  -0.2983934873E-01   0.3098835076E-15  -0.2723913909E-15   0.1968525768E-16   0.7749950358E+01
   0.2119295395E+01   0.0000000000E+00   0.9701606513E+00  -0.1330786695E-01   0.0000000000E+00   0.3324716737E-02   0.1326032617E+00   0.0000000000E+00  -0.3316406542E-01  -0.7749966909E+01  -0.1655082456E-04  -0.1655082456E-04   0.1741438172E-14  -0.1597670034E-15  -0.5894739384E-15   0.5964769746E-01  -0.2983934873E-01  -0.2983934873E-01  -0.1772102526E-16   0.1846531134E-15   0.1407430006E-16   0.7749950358E+01
   0.2119295395E+01   0.9701606513E+00   0.9701606513E+00  -0.1330786695E-01   0.3324716737E-02   0.3324716737E-02   0.1326032617E+00  -0.3316406542E-01  -0.3316406542E-01  -0.7749966908E+01  -0.1655082792E-04  -0.1655082792E-04   0.9114298677E-15  -0.3056504077E-15   0.5386439805E-16   0.5964769745E-01  -0.2983934872E-01  -0.2983934872E-01  -0.1367213279E-15  -0.2450967105E-15   0.1381557347E-16   0.7749950357E+01
     1     2     3     4     5     6     7     8
     2     9    10     3     6    11    12     7
 VARIABLES = X,Y,Z,DU1,DU2,DU3,U1,U2,U3,S11,S22,S33,S12,S13,S23,E11,E22,E33,E12,E13,E23,SMISES
 ZONE, T="0.7950D+01" F=FEPOINT, I=   12 J=    2 ET=BRICK
   0.0000000000E+00   0.0000000000E+00   0.0000000000E+00   0.0000000000E+00   0.0000000000E+00   0.0000000000E+00   0.0000000000E+00   0.0000000000E+00   0.0000000000E+00  -0.8875012697E+01   0.6341587434E-05   0.6341587438E-05  -0.1195171467E-15  -0.1005696242E-14  -0.5482733357E-15   0.3631896756E-01  -0.1817723378E-01  -0.1817723378E-01  -0.6534543310E-17  -0.9586250343E-16  -0.3041825014E-16   0.8875019039E+01
   0.1036318968E+01   0.0000000000E+00  -0.6151258513E-16  -0.2332872987E-01   0.0000000000E+00  -0.4108481625E-17   0.5964769737E-01   0.0000000000E+00  -0.5740410351E-16  -0.8875012697E+01   0.6341589719E-05   0.6341589719E-05  -0.5313577465E-15  -0.7788629931E-15   0.1386788566E-15   0.3631896756E-01  -0.1817723378E-01  -0.1817723378E-01  -0.1197132218E-16  -0.8452187031E-16   0.7794829874E-17   0.8875019038E+01
   0.1036318968E+01   0.9818227662E+00  -0.6218227065E-16  -0.2332872987E-01   0.1166211494E-01  -0.4350569886E-17   0.5964769737E-01  -0.2983934869E-01  -0.5783170077E-16  -0.8875012696E+01   0.6341589012E-05   0.6341589012E-05  -0.3622105157E-15   0.1863691161E-14   0.1426414823E-15   0.3631896755E-01  -0.1817723378E-01  -0.1817723378E-01  -0.3169393566E-16   0.1096338911E-15   0.9872059414E-16   0.8875019037E+01
   0.0000000000E+00   0.9818227662E+00  -0.1400847761E-16   0.0000000000E+00   0.1166211494E-01  -0.2348059497E-17   0.0000000000E+00  -0.2983934869E-01  -0.1166041811E-16  -0.8875012696E+01   0.6341582711E-05   0.6341582709E-05   0.5136525117E-15  -0.2286650606E-15   0.3101110449E-15   0.3631896755E-01  -0.1817723378E-01  -0.1817723378E-01  -0.3613768686E-16  -0.7832530032E-16  -0.3749831097E-16   0.8875019038E+01
   0.0000000000E+00   0.0000000000E+00   0.9818227662E+00   0.0000000000E+00   0.0000000000E+00   0.1166211494E-01   0.0000000000E+00   0.0000000000E+00  -0.2983934869E-01  -0.8875012696E+01   0.6341594556E-05   0.6341594553E-05  -0.6564863868E-16  -0.4302038062E-15   0.5035413970E-15   0.3631896755E-01  -0.1817723378E-01  -0.1817723378E-01   0.1179256007E-16  -0.2810357098E-15  -0.4618903554E-16   0.8875019038E+01
   0.1036318968E+01   0.0000000000E+00   0.9818227662E+00  -0.2332872987E-01   0.0000000000E+00   0.1166211494E-01   0.5964769737E-01   0.0000000000E+00  -0.2983934869E-01  -0.8875012696E+01   0.6341594808E-05   0.6341594807E-05   0.1495808143E-15   0.7123227792E-15  -0.3047549592E-15   0.3631896755E-01  -0.1817723378E-01  -0.1817723378E-01   0.7469756514E-16  -0.6672380040E-16  -0.6512766772E-17   0.8875019037E+01
   0.1036318968E+01   0.9818227662E+00   0.9818227662E+00  -0.2332872987E-01   0.1166211494E-01   0.1166211494E-01   0.5964769737E-01  -0.2983934869E-01  -0.2983934869E-01  -0.8875012695E+01   0.6341592615E-05   0.6341592614E-05  -0.3407448800E-15   0.1213710630E-14  -0.6453164598E-15   0.3631896755E-01  -0.1817723377E-01  -0.1817723377E-01   0.9373539285E-16  -0.7006782268E-17   0.1552036554E-15   0.8875019036E+01
   0.0000000000E+00   0.9818227662E+00   0.9818227662E+00   0.0000000000E+00   0.1166211494E-01   0.1166211494E-01   0.0000000000E+00  -0.2983934869E-01  -0.2983934869E-01  -0.8875012695E+01   0.6341599004E-05   0.6341599005E-05   0.2452036432E-15  -0.1831675457E-14   0.4962236422E-15   0.3631896755E-01  -0.1817723377E-01  -0.1817723377E-01   0.1431795079E-15  -0.1630604064E-15  -0.9901125246E-16   0.8875019037E+01
   0.2072637935E+01   0.0000000000E+00  -0.1815941944E-15  -0.4665745974E-01   0.0000000000E+00  -0.1542612252E-17   0.1192953947E+00   0.0000000000E+00  -0.1800515821E-15  -0.8875012697E+01   0.6341588797E-05   0.6341588796E-05   0.1775283457E-14  -0.2769537776E-15  -0.1444815519E-15   0.3631896756E-01  -0.1817723378E-01  -0.1817723378E-01   0.3612727918E-15   0.1357939644E-15  -0.2292856168E-16   0.8875019038E+01
   0.2072637935E+01   0.9818227662E+00  -0.1897424654E-15  -0.4665745974E-01   0.1166211494E-01   0.2009685776E-17   0.1192953947E+00  -0.2983934869E-01  -0.1917521512E-15  -0.8875012696E+01   0.6341594704E-05   0.6341594706E-05   0.1654979614E-14  -0.3104258829E-14   0.3328010673E-15   0.3631896755E-01  -0.1817723378E-01  -0.1817723378E-01   0.3725709686E-15  -0.4228137500E-15   0.2916126686E-16   0.8875019037E+01
   0.2072637935E+01   0.0000000000E+00   0.9818227662E+00  -0.4665745974E-01   0.0000000000E+00   0.1166211494E-01   0.1192953947E+00   0.0000000000E+00  -0.2983934869E-01  -0.8875012696E+01   0.6341595512E-05   0.6341595513E-05  -0.8529442303E-15   0.8016875864E-15  -0.1948814383E-17   0.3631896755E-01  -0.1817723378E-01  -0.1817723378E-01  -0.5715265992E-16   0.1791837916E-15   0.1907747922E-16   0.8875019037E+01
   0.2072637935E+01   0.9818227662E+00   0.9818227662E+00  -0.4665745974E-01   0.1166211494E-01   0.1166211494E-01   0.1192953947E+00  -0.2983934869E-01  -0.2983934869E-01  -0.8875012695E+01   0.6341589333E-05   0.6341589333E-05  -0.1433581779E-14  -0.2130508349E-14   0.4527776458E-15   0.3631896755E-01  -0.1817723377E-01  -0.1817723377E-01  -0.1924208911E-15  -0.1741043039E-15   0.4103078999E-16   0.8875019036E+01
     1     2     3     4     5     6     7     8
     2     9    10     3     6    11    12     7
 VARIABLES = X,Y,Z,DU1,DU2,DU3,U1,U2,U3,S11,S22,S33,S12,S13,S23,E11,E22,E33,E12,E13,E23,SMISES
 ZONE, T="0.8000D+01" F=FEPOINT, I=   12 J=    2 ET=BRICK
   0.0000000000E+00   0.0000000000E+00   0.0000000000E+00   0.0000000000E+00   0.0000000000E+00   0.0000000000E+00   0.0000000000E+00   0.0000000000E+00   0.0000000000E+00  -0.1000000668E+02   0.3330843713E-05   0.3330843716E-05   0.5285829909E-16  -0.2754027277E-14   0.2502440527E-15   0.1156915270E-01  -0.5804576352E-02  -0.5804576352E-02   0.3485116462E-17  -0.1371055866E-15  -0.1234678042E-16   0.1000001001E+02
   0.1011569153E+01   0.0000000000E+00  -0.9863114416E-16  -0.2474981481E-01   0.0000000000E+00  -0.3711855902E-16   0.3631896750E-01   0.0000000000E+00  -0.6151258513E-16  -0.1000000668E+02   0.3330845706E-05   0.3330845705E-05  -0.1256395133E-14  -0.3311007246E-15  -0.8696067424E-16   0.1156915270E-01  -0.5804576352E-02  -0.5804576352E-02  -0.5722168941E-16  -0.6156788801E-16  -0.4239559302E-18   0.1000001001E+02
   0.1011569153E+01   0.9941954237E+00  -0.1014874513E-15  -0.2474981481E-01   0.1237265741E-01  -0.3930518068E-16   0.3631896750E-01  -0.1817723375E-01  -0.6218227065E-16  -0.1000000668E+02   0.3330845556E-05   0.3330845557E-05  -0.4197149066E-15   0.2115317146E-14  -0.4899504815E-15   0.1156915270E-01  -0.5804576352E-02  -0.5804576352E-02  -0.6286930270E-16   0.1079483855E-15   0.9704169304E-16   0.1000001001E+02
   0.0000000000E+00   0.9941954237E+00  -0.8827045605E-17   0.0000000000E+00   0.1237265741E-01   0.5181432006E-17   0.0000000000E+00  -0.1817723375E-01  -0.1400847761E-16  -0.1000000668E+02   0.3330835517E-05   0.3330835514E-05   0.1000888276E-14  -0.2797533082E-14   0.7402973080E-15   0.1156915270E-01  -0.5804576352E-02  -0.5804576352E-02  -0.1345277246E-16  -0.1250808931E-15  -0.3423811424E-16   0.1000001001E+02
   0.0000000000E+00   0.0000000000E+00   0.9941954237E+00   0.0000000000E+00   0.0000000000E+00   0.1237265741E-01   0.0000000000E+00   0.0000000000E+00  -0.1817723375E-01  -0.1000000668E+02   0.3330855083E-05   0.3330855081E-05   0.1566190098E-16  -0.1710592058E-14  -0.1075448236E-15   0.1156915270E-01  -0.5804576352E-02  -0.5804576352E-02   0.4619591590E-17  -0.3240473225E-15  -0.8750402289E-16   0.1000001001E+02
   0.1011569153E+01   0.0000000000E+00   0.9941954237E+00  -0.2474981481E-01   0.0000000000E+00   0.1237265741E-01   0.3631896750E-01   0.0000000000E+00  -0.1817723375E-01  -0.1000000668E+02   0.3330855551E-05   0.3330855551E-05   0.1400111090E-14  -0.3311192994E-15  -0.2597229588E-15   0.1156915270E-01  -0.5804576352E-02  -0.5804576352E-02   0.1215893254E-15  -0.9121367862E-16   0.1135986949E-16   0.1000001001E+02
   0.1011569153E+01   0.9941954237E+00   0.9941954237E+00  -0.2474981481E-01   0.1237265741E-01   0.1237265741E-01   0.3631896750E-01  -0.1817723375E-01  -0.1817723375E-01  -0.1000000667E+02   0.3330853484E-05   0.3330853483E-05   0.8284983986E-15   0.3516355825E-14  -0.6634000008E-15   0.1156915270E-01  -0.5804576351E-02  -0.5804576351E-02   0.1355375015E-15   0.1087840182E-15   0.1219401908E-15   0.1000001001E+02
   0.0000000000E+00   0.9941954237E+00   0.9941954237E+00   0.0000000000E+00   0.1237265741E-01   0.1237265741E-01   0.0000000000E+00  -0.1817723375E-01  -0.1817723375E-01  -0.1000000668E+02   0.3330861482E-05   0.3330861480E-05   0.2265074243E-16  -0.2977009534E-14   0.2597870912E-15   0.1156915270E-01  -0.5804576351E-02  -0.5804576351E-02   0.1510644753E-15  -0.2223681500E-15  -0.6687649997E-16   0.1000001001E+02
   0.2023138305E+01   0.0000000000E+00  -0.3175272577E-15  -0.4949962963E-01   0.0000000000E+00  -0.1359330633E-15   0.7263793500E-01   0.0000000000E+00  -0.1815941944E-15  -0.1000000668E+02   0.3330844489E-05   0.3330844489E-05   0.2315512849E-14   0.1093755580E-14  -0.3870650714E-15   0.1156915270E-01  -0.5804576352E-02  -0.5804576352E-02   0.3706779643E-15   0.1391167997E-15  -0.2423342234E-16   0.1000001001E+02
   0.2023138305E+01   0.9941954237E+00  -0.3278732650E-15  -0.4949962963E-01   0.1237265741E-01  -0.1381307995E-15   0.7263793500E-01  -0.1817723375E-01  -0.1897424654E-15  -0.1000000668E+02   0.3330854121E-05   0.3330854121E-05   0.2079610011E-14  -0.1854929039E-14   0.2180106956E-15   0.1156915270E-01  -0.5804576351E-02  -0.5804576351E-02   0.3625445961E-15  -0.2815668998E-15   0.3602209499E-16   0.1000001001E+02
   0.2023138305E+01   0.0000000000E+00   0.9941954237E+00  -0.4949962963E-01   0.0000000000E+00   0.1237265741E-01   0.7263793500E-01   0.0000000000E+00  -0.1817723375E-01  -0.1000000668E+02   0.3330857338E-05   0.3330857338E-05  -0.8965359313E-15   0.2196361323E-14   0.4834560356E-15   0.1156915270E-01  -0.5804576351E-02  -0.5804576351E-02  -0.1010630630E-15   0.1669945235E-15   0.2894494847E-16   0.1000001001E+02
   0.2023138305E+01   0.9941954237E+00   0.9941954237E+00  -0.4949962963E-01   0.1237265741E-01   0.1237265741E-01   0.7263793500E-01  -0.1817723375E-01  -0.1817723375E-01  -0.1000000667E+02   0.3330848594E-05   0.3330848594E-05  -0.5258214046E-15  -0.1984784645E-14   0.3712182168E-15   0.1156915270E-01  -0.5804576351E-02  -0.5804576351E-02  -0.1928251398E-15  -0.2350579089E-15   0.5037623984E-16   0.1000001001E+02
     1     2     3     4     5     6     7     8
     2     9    10     3     6    11    12     7
 VARIABLES = X,Y,Z,DU1,DU2,DU3,U1,U2,U3,S11,S22,S33,S12,S13,S23,E11,E22,E33,E12,E13,E23,SMISES
 ZONE, T="0.8050D+01" F=FEPOINT, I=   12 J=    2 ET=BRICK
   0.0000000000E+00   0.0000000000E+00   0.0000000000E+00   0.0000000000E+00   0.0000000000E+00   0.0000000000E+00   0.0000000000E+00   0.0000000000E+00   0.0000000000E+00  -0.8875000015E+01  -0.6059364650E-09  -0.6062871837E-09   0.4199121382E-16  -0.1360117748E-11  -0.8635960422E-12   0.1381917268E-01  -0.6927336340E-02  -0.6927336340E-02   0.2162676221E-17  -0.1641281781E-13  -0.1037804636E-13   0.8875000014E+01
   0.1013819173E+01   0.0000000000E+00  -0.7283510497E-14   0.2250019972E-02   0.0000000000E+00  -0.7184879353E-14   0.1156915269E-01   0.0000000000E+00  -0.9863114416E-16  -0.8875000014E+01  -0.5198186541E-10  -0.5114538859E-10  -0.1614805092E-12  -0.1386359208E-12  -0.6359387661E-14   0.1381917268E-01  -0.6927336340E-02  -0.6927336340E-02  -0.1974119956E-14  -0.1728747678E-14  -0.8017091897E-16   0.8875000014E+01
   0.1013819173E+01   0.9930726637E+00  -0.7323977191E-14   0.2250019972E-02  -0.1122759986E-02  -0.7222489739E-14   0.1156915269E-01  -0.5804576343E-02  -0.1014874513E-15  -0.8875000013E+01  -0.2750326318E-09  -0.2751218177E-09  -0.3222039769E-12   0.2451777289E-12   0.3572193485E-12   0.1381917268E-01  -0.6927336339E-02  -0.6927336339E-02  -0.3918726083E-14   0.3018885602E-14   0.4387922702E-14   0.8875000013E+01
   0.0000000000E+00   0.9930726637E+00  -0.5188303155E-14   0.0000000000E+00  -0.1122759986E-02  -0.5179476110E-14   0.0000000000E+00  -0.5804576343E-02  -0.8827045605E-17  -0.8875000013E+01  -0.4371812553E-09  -0.4363316425E-09   0.3195715804E-12  -0.2121379583E-13  -0.2916715963E-12   0.1381917268E-01  -0.6927336339E-02  -0.6927336339E-02   0.3804231139E-14  -0.3406079321E-15  -0.3524118493E-14   0.8875000013E+01
   0.0000000000E+00   0.0000000000E+00   0.9930726637E+00   0.0000000000E+00   0.0000000000E+00  -0.1122759986E-02   0.0000000000E+00   0.0000000000E+00  -0.5804576343E-02  -0.8875000013E+01   0.1183429615E-09   0.1168434298E-09   0.9203299575E-17  -0.2130934439E-12  -0.2604259954E-12   0.1381917268E-01  -0.6927336339E-02  -0.6927336339E-02  -0.1558086136E-17  -0.2848399221E-14  -0.3189625763E-14   0.8875000013E+01
   0.1013819173E+01   0.0000000000E+00   0.9930726637E+00   0.2250019972E-02   0.0000000000E+00  -0.1122759986E-02   0.1156915269E-01   0.0000000000E+00  -0.5804576343E-02  -0.8875000012E+01   0.3974101822E-09   0.3975187005E-09   0.3277340312E-12  -0.1680556386E-12  -0.4698149973E-12   0.1381917268E-01  -0.6927336339E-02  -0.6927336339E-02   0.4040079026E-14  -0.2118034689E-14  -0.5625002634E-14   0.8875000013E+01
   0.1013819173E+01   0.9930726637E+00   0.9930726637E+00   0.2250019972E-02  -0.1122759986E-02  -0.1122759986E-02   0.1156915269E-01  -0.5804576343E-02  -0.5804576343E-02  -0.8875000011E+01   0.2877550795E-09   0.2869376259E-09   0.2902104304E-12   0.3101672066E-12  -0.1063456022E-12   0.1381917268E-01  -0.6927336338E-02  -0.6927336338E-02   0.3617905677E-14   0.3788159102E-14  -0.1149895857E-14   0.8875000012E+01
   0.0000000000E+00   0.9930726637E+00   0.9930726637E+00   0.0000000000E+00  -0.1122759986E-02  -0.1122759986E-02   0.0000000000E+00  -0.5804576343E-02  -0.5804576343E-02  -0.8875000011E+01   0.6083284746E-09   0.6080377316E-09  -0.5484775042E-13  -0.5220043781E-12   0.3112352302E-12   0.1381917268E-01  -0.6927336338E-02  -0.6927336338E-02  -0.5125804879E-15  -0.6451364395E-14   0.3652483006E-14   0.8875000012E+01
   0.2027638345E+01   0.0000000000E+00  -0.1087060229E-13   0.4500039944E-02   0.0000000000E+00  -0.1055307503E-13   0.2313830537E-01   0.0000000000E+00  -0.3175272577E-15  -0.8875000014E+01  -0.6042337021E-09  -0.6040595159E-09   0.3588234975E-13   0.6296906414E-12  -0.1075035025E-11   0.1381917268E-01  -0.6927336340E-02  -0.6927336340E-02   0.7819313139E-15   0.7679486626E-14  -0.1290962138E-13   0.8875000013E+01
   0.2027638345E+01   0.9930726637E+00  -0.1732466048E-13   0.4500039944E-02  -0.1122759986E-02  -0.1699678721E-13   0.2313830537E-01  -0.5804576343E-02  -0.3278732650E-15  -0.8875000012E+01  -0.5961732386E-10  -0.5786311901E-10  -0.6061202906E-12  -0.4612613916E-12  -0.2537732646E-12   0.1381917268E-01  -0.6927336339E-02  -0.6927336339E-02  -0.6910118979E-14  -0.5879009516E-14  -0.3016391792E-14   0.8875000012E+01
   0.2027638345E+01   0.0000000000E+00   0.9930726637E+00   0.4500039944E-02   0.0000000000E+00  -0.1122759986E-02   0.2313830537E-01   0.0000000000E+00  -0.5804576343E-02  -0.8875000012E+01  -0.9238748673E-10  -0.9385462250E-10   0.4943439108E-12  -0.5746204673E-12  -0.2841772984E-12   0.1381917268E-01  -0.6927336339E-02  -0.6927336339E-02   0.5839205234E-14  -0.6671634100E-14  -0.3393849662E-14   0.8875000012E+01
   0.2027638345E+01   0.9930726637E+00   0.9930726637E+00   0.4500039944E-02  -0.1122759986E-02  -0.1122759986E-02   0.2313830537E-01  -0.5804576343E-02  -0.5804576343E-02  -0.8875000011E+01   0.3578429890E-09   0.3579560264E-09   0.4759327793E-12   0.1663494393E-12   0.5365486873E-12   0.1381917268E-01  -0.6927336338E-02  -0.6927336338E-02   0.5505674732E-14   0.1807939468E-14   0.6490789470E-14   0.8875000011E+01
     1     2     3     4     5     6     7     8
     2     9    10     3     6    11    12     7
 VARIABLES = X,Y,Z,DU1,DU2,DU3,U1,U2,U3,S11,S22,S33,S12,S13,S23,E11,E22,E33,E12,E13,E23,SMISES
 ZONE, T="0.8100D+01" F=FEPOINT, I=   12 J=    2 ET=BRICK
   0.0000000000E+00   0.0000000000E+00   0.0000000000E+00   0.0000000000E+00   0.0000000000E+00   0.0000000000E+00   0.0000000000E+00   0.0000000000E+00   0.0000000000E+00  -0.7750000012E+01  -0.4292749747E-11  -0.4290795968E-11   0.2148351862E-16  -0.2326395737E-15   0.8359775363E-15   0.1606917268E-01  -0.8050086342E-02  -0.8050086342E-02  -0.9934605267E-18  -0.1075204052E-15  -0.1137144587E-16   0.7750000012E+01
   0.1016069173E+01   0.0000000000E+00  -0.7881939974E-16   0.2250000000E-02   0.0000000000E+00   0.7204691097E-14   0.1381917266E-01   0.0000000000E+00  -0.7283510497E-14  -0.7750000012E+01  -0.3190899559E-11  -0.3192001811E-11  -0.1701545537E-15  -0.2446161786E-15   0.4136634741E-15   0.1606917268E-01  -0.8050086342E-02  -0.8050086342E-02  -0.3585470445E-16  -0.6910379289E-16   0.1108293690E-17   0.7750000012E+01
   0.1016069173E+01   0.9919499137E+00  -0.7863166544E-16   0.2250000000E-02  -0.1122750000E-02   0.7245345525E-14   0.1381917266E-01  -0.6927336329E-02  -0.7323977191E-14  -0.7750000011E+01  -0.3906032366E-11  -0.3905943121E-11   0.4413728486E-16   0.2842474331E-15  -0.4785943402E-15   0.1606917268E-01  -0.8050086341E-02  -0.8050086341E-02  -0.4986602868E-16   0.7525910112E-16   0.1052110335E-15   0.7750000011E+01
   0.0000000000E+00   0.9919499137E+00  -0.5266286230E-17   0.0000000000E+00  -0.1122750000E-02   0.5183036869E-14   0.0000000000E+00  -0.6927336329E-02  -0.5188303155E-14  -0.7750000011E+01  -0.1122604167E-10  -0.1122950116E-10  -0.1892769422E-15  -0.4250569783E-15  -0.4239718374E-15   0.1606917268E-01  -0.8050086341E-02  -0.8050086341E-02  -0.3368150699E-16  -0.8710165841E-16  -0.3603817965E-16   0.7750000011E+01
   0.0000000000E+00   0.0000000000E+00   0.9919499137E+00   0.0000000000E+00   0.0000000000E+00  -0.1122750000E-02   0.0000000000E+00   0.0000000000E+00  -0.6927336329E-02  -0.7750000011E+01   0.3749186814E-11   0.3749353348E-11  -0.3665611442E-17   0.1138321457E-15   0.7987309653E-15   0.1606917268E-01  -0.8050086341E-02  -0.8050086341E-02  -0.9202472742E-18  -0.2895752037E-15  -0.5279309418E-16   0.7750000011E+01
   0.1016069173E+01   0.0000000000E+00   0.9919499137E+00   0.2250000000E-02   0.0000000000E+00  -0.1122750000E-02   0.1381917266E-01   0.0000000000E+00  -0.6927336329E-02  -0.7750000011E+01   0.4309576324E-11   0.4309205538E-11   0.4702674170E-15  -0.3436626654E-15   0.4150993271E-15   0.1606917268E-01  -0.8050086341E-02  -0.8050086341E-02   0.1166382317E-15  -0.1106816834E-15   0.9290758919E-17   0.7750000011E+01
   0.1016069173E+01   0.9919499137E+00   0.9919499137E+00   0.2250000000E-02  -0.1122750000E-02  -0.1122750000E-02   0.1381917266E-01  -0.6927336329E-02  -0.6927336329E-02  -0.7750000010E+01   0.2595808734E-11   0.2596807935E-11  -0.6241184657E-16   0.6549253599E-15  -0.5988632582E-15   0.1606917268E-01  -0.8050086340E-02  -0.8050086340E-02   0.1347273463E-15   0.8387025839E-16   0.1258302427E-15   0.7750000010E+01
   0.0000000000E+00   0.9919499137E+00   0.9919499137E+00   0.0000000000E+00  -0.1122750000E-02  -0.1122750000E-02   0.0000000000E+00  -0.6927336329E-02  -0.6927336329E-02  -0.7750000010E+01   0.9325685821E-11   0.9327076517E-11   0.4352100562E-15  -0.1103737379E-14  -0.7119910272E-15   0.1606917268E-01  -0.8050086340E-02  -0.8050086340E-02   0.1502566075E-15  -0.2100059321E-15  -0.9675720410E-16   0.7750000010E+01
   0.2032138345E+01   0.0000000000E+00  -0.2588301910E-15   0.4500000000E-02   0.0000000000E+00   0.1061177210E-13   0.2763834532E-01   0.0000000000E+00  -0.1087060229E-13  -0.7750000012E+01  -0.4589026470E-11  -0.4588981847E-11   0.2640346655E-15   0.1779923199E-15   0.1096952377E-15   0.1606917268E-01  -0.8050086341E-02  -0.8050086341E-02   0.3511919746E-15   0.1597901058E-15  -0.1491700440E-16   0.7750000012E+01
   0.2032138345E+01   0.9919499137E+00  -0.2665168122E-15   0.4500000000E-02  -0.1122750000E-02   0.1705814367E-13   0.2763834532E-01  -0.6927336329E-02  -0.1732466048E-13  -0.7750000011E+01   0.2322005835E-11   0.2320877821E-11   0.4935844159E-17   0.6234868263E-15   0.1953432041E-15   0.1606917268E-01  -0.8050086340E-02  -0.8050086340E-02   0.3590216805E-15  -0.3477194699E-15   0.2823801385E-16   0.7750000011E+01
   0.2032138345E+01   0.0000000000E+00   0.9919499137E+00   0.4500000000E-02   0.0000000000E+00  -0.1122750000E-02   0.2763834532E-01   0.0000000000E+00  -0.6927336329E-02  -0.7750000011E+01   0.6242689476E-11   0.6245008987E-11   0.2413180535E-15   0.1336523476E-14   0.1555684270E-16   0.1606917268E-01  -0.8050086340E-02  -0.8050086340E-02  -0.8834255563E-16   0.2371518458E-15   0.1689312117E-16   0.7750000011E+01
   0.2032138345E+01   0.9919499137E+00   0.9919499137E+00   0.4500000000E-02  -0.1122750000E-02  -0.1122750000E-02   0.2763834532E-01  -0.6927336329E-02  -0.6927336329E-02  -0.7750000010E+01  -0.1295649850E-11  -0.1296168310E-11   0.5852298535E-15  -0.7943640542E-15  -0.3544354930E-15   0.1606917268E-01  -0.8050086340E-02  -0.8050086340E-02  -0.1897545681E-15  -0.2024406071E-15   0.5443136995E-16   0.7750000010E+01
     1     2     3     4     5     6     7     8
     2     9    10     3     6    11    12     7
 VARIABLES = X,Y,Z,DU1,DU2,DU3,U1,U2,U3,S11,S22,S33,S12,S13,S23,E11,E22,E33,E12,E13,E23,SMISES
 ZONE, T="0.8150D+01" F=FEPOINT, I=   12 J=    2 ET=BRICK
   0.0000000000E+00   0.0000000000E+00   0.0000000000E+00   0.0000000000E+00   0.0000000000E+00   0.0000000000E+00   0.0000000000E+00   0.0000000000E+00   0.0000000000E+00  -0.6625000010E+01  -0.3344761502E-11  -0.3342783419E-11   0.5449689281E-17   0.1001155689E-15   0.1281859565E-14   0.1831917269E-01  -0.9172836344E-02  -0.9172836344E-02   0.3754449772E-18  -0.9961734497E-16  -0.6377464912E-17   0.6625000010E+01
   0.1018319173E+01   0.0000000000E+00  -0.7246317643E-16   0.2250000000E-02   0.0000000000E+00   0.6356223316E-17   0.1606917266E-01   0.0000000000E+00  -0.7881939974E-16  -0.6625000010E+01  -0.2295145372E-11  -0.2297168468E-11  -0.7552249792E-15   0.1371916772E-15   0.8786181178E-15   0.1831917269E-01  -0.9172836343E-02  -0.9172836343E-02  -0.3964987914E-16  -0.7124600405E-16   0.5437917112E-17   0.6625000010E+01
   0.1018319173E+01   0.9908271637E+00  -0.6940851540E-16   0.2250000000E-02  -0.1122750000E-02   0.9223150044E-17   0.1606917266E-01  -0.8050086329E-02  -0.7863166544E-16  -0.6625000009E+01  -0.2966361631E-11  -0.2967526297E-11  -0.4751337755E-15   0.2397002963E-15  -0.7183676046E-15   0.1831917268E-01  -0.9172836342E-02  -0.9172836342E-02  -0.5523094424E-16   0.7725540167E-16   0.1046897038E-15   0.6625000009E+01
   0.0000000000E+00   0.9908271637E+00  -0.2657420301E-17   0.0000000000E+00  -0.1122750000E-02   0.2608865929E-17   0.0000000000E+00  -0.8050086329E-02  -0.5266286230E-17  -0.6625000010E+01  -0.1094172036E-10  -0.1094614278E-10   0.3003621435E-15   0.5877662563E-16  -0.6027299241E-15   0.1831917269E-01  -0.9172836343E-02  -0.9172836343E-02  -0.2931731243E-16  -0.8217253902E-16  -0.4006288724E-16   0.6625000010E+01
   0.0000000000E+00   0.0000000000E+00   0.9908271637E+00   0.0000000000E+00   0.0000000000E+00  -0.1122750000E-02   0.0000000000E+00   0.0000000000E+00  -0.8050086329E-02  -0.6625000010E+01   0.3538484767E-11   0.3540098967E-11  -0.5264113378E-17   0.3780001327E-15   0.8058826964E-15   0.1831917269E-01  -0.9172836343E-02  -0.9172836343E-02   0.6394007363E-18  -0.2852246532E-15  -0.5135517851E-16   0.6625000010E+01
   0.1018319173E+01   0.0000000000E+00   0.9908271637E+00   0.2250000000E-02   0.0000000000E+00  -0.1122750000E-02   0.1606917266E-01   0.0000000000E+00  -0.8050086329E-02  -0.6625000009E+01   0.3491515815E-11   0.3492480214E-11  -0.4292656165E-15  -0.4074072070E-15   0.8895194001E-15   0.1831917268E-01  -0.9172836342E-02  -0.9172836342E-02   0.1066344090E-15  -0.1158024744E-15   0.2344612087E-16   0.6625000009E+01
   0.1018319173E+01   0.9908271637E+00   0.9908271637E+00   0.2250000000E-02  -0.1122750000E-02  -0.1122750000E-02   0.1606917266E-01  -0.8050086329E-02  -0.8050086329E-02  -0.6625000009E+01   0.1983291445E-11   0.1985048942E-11  -0.8359414915E-15   0.8049040477E-15  -0.9327459433E-15   0.1831917268E-01  -0.9172836341E-02  -0.9172836341E-02   0.1301101280E-15   0.8684100319E-16   0.1164473920E-15   0.6625000009E+01
   0.0000000000E+00   0.9908271637E+00   0.9908271637E+00   0.0000000000E+00  -0.1122750000E-02  -0.1122750000E-02   0.0000000000E+00  -0.8050086329E-02  -0.8050086329E-02  -0.6625000009E+01   0.8045186439E-11   0.8047159469E-11   0.6063822238E-15  -0.3021232690E-15  -0.1166353671E-14   0.1831917268E-01  -0.9172836341E-02  -0.9172836341E-02   0.1529781604E-15  -0.2038181476E-15  -0.9429853213E-16   0.6625000009E+01
   0.2036638345E+01   0.0000000000E+00  -0.2289824573E-15   0.4500000000E-02   0.0000000000E+00   0.2984773366E-16   0.3213834532E-01   0.0000000000E+00  -0.2588301910E-15  -0.6625000010E+01  -0.4102592094E-11  -0.4102978145E-11   0.5851131284E-15  -0.8180053064E-15   0.2332257847E-15   0.1831917269E-01  -0.9172836343E-02  -0.9172836343E-02   0.3673077376E-15   0.1350588654E-15  -0.1421097612E-16   0.6625000010E+01
   0.2036638345E+01   0.9908271637E+00  -0.2359365107E-15   0.4500000000E-02  -0.1122750000E-02   0.3058030146E-16   0.3213834532E-01  -0.8050086329E-02  -0.2665168122E-15  -0.6625000009E+01   0.3559452595E-11   0.3557727374E-11   0.1980537743E-16  -0.3969476970E-16  -0.4380189839E-15   0.1831917268E-01  -0.9172836342E-02  -0.9172836342E-02   0.3697899147E-15  -0.3673266957E-15   0.2259921411E-16   0.6625000009E+01
   0.2036638345E+01   0.0000000000E+00   0.9908271637E+00   0.4500000000E-02   0.0000000000E+00  -0.1122750000E-02   0.3213834532E-01   0.0000000000E+00  -0.8050086329E-02  -0.6625000009E+01   0.4515652342E-11   0.4517477697E-11   0.1148123577E-14   0.3986182683E-15   0.5342897651E-15   0.1831917268E-01  -0.9172836342E-02  -0.9172836342E-02  -0.7835552844E-16   0.2383666298E-15   0.1892542869E-16   0.6625000009E+01
   0.2036638345E+01   0.9908271637E+00   0.9908271637E+00   0.4500000000E-02  -0.1122750000E-02  -0.1122750000E-02   0.3213834532E-01  -0.8050086329E-02  -0.8050086329E-02  -0.6625000008E+01  -0.1539983301E-11  -0.1539464450E-11   0.1157559804E-14  -0.1415955883E-14  -0.5282323081E-15   0.1831917268E-01  -0.9172836341E-02  -0.9172836341E-02  -0.1881009758E-15  -0.2475127747E-15   0.5566146328E-16   0.6625000008E+01
     1     2     3     4     5     6     7     8
     2     9    10     3     6    11    12     7
 VARIABLES = X,Y,Z,DU1,DU2,DU3,U1,U2,U3,S11,S22,S33,S12,S13,S23,E11,E22,E33,E12,E13,E23,SMISES
 ZONE, T="0.8200D+01" F=FEPOINT, I=   12 J=    2 ET=BRICK
   0.0000000000E+00   0.0000000000E+00   0.0000000000E+00   0.0000000000E+00   0.0000000000E+00   0.0000000000E+00   0.0000000000E+00   0.0000000000E+00   0.0000000000E+00  -0.5500000009E+01  -0.4981756951E-11  -0.4978742821E-11  -0.1946958447E-16  -0.1730503547E-14   0.4014968654E-15   0.2056917269E-01  -0.1029558635E-01  -0.1029558635E-01  -0.1052712574E-18  -0.1236387377E-15  -0.1741895130E-16   0.5500000009E+01
   0.1020569173E+01   0.0000000000E+00  -0.8981113168E-16   0.2250000000E-02   0.0000000000E+00  -0.1734795525E-16   0.1831917266E-01   0.0000000000E+00  -0.7246317643E-16  -0.5500000008E+01  -0.3709874151E-11  -0.3710212662E-11  -0.1507520772E-14  -0.4388072647E-15   0.1953713634E-15   0.2056917269E-01  -0.1029558635E-01  -0.1029558635E-01  -0.5730398759E-16  -0.8328702475E-16  -0.1791679683E-17   0.5500000008E+01
   0.1020569173E+01   0.9897044137E+00  -0.9071387674E-16   0.2250000000E-02  -0.1122750000E-02  -0.2130536135E-16   0.1831917266E-01  -0.9172836329E-02  -0.6940851540E-16  -0.5500000008E+01  -0.4605913200E-11  -0.4605104837E-11  -0.1179041038E-14   0.1857066317E-14   0.1320691626E-15   0.2056917269E-01  -0.1029558634E-01  -0.1029558634E-01  -0.6668806988E-16   0.1043636028E-15   0.1178773259E-15   0.5500000008E+01
   0.0000000000E+00   0.9897044137E+00  -0.7949532933E-17   0.0000000000E+00  -0.1122750000E-02  -0.5292112632E-17   0.0000000000E+00  -0.9172836329E-02  -0.2657420301E-17  -0.5500000008E+01  -0.1297692821E-10  -0.1297979267E-10  -0.1215260233E-15  -0.1419470568E-14  -0.1595499413E-16   0.2056917269E-01  -0.1029558634E-01  -0.1029558634E-01  -0.3733831638E-16  -0.1055239544E-15  -0.2839958789E-16   0.5500000008E+01
   0.0000000000E+00   0.0000000000E+00   0.9897044137E+00   0.0000000000E+00   0.0000000000E+00  -0.1122750000E-02   0.0000000000E+00   0.0000000000E+00  -0.9172836329E-02  -0.5500000008E+01   0.4858819397E-11   0.4858434076E-11   0.2596194837E-16  -0.1348278890E-14   0.2393575703E-15   0.2056917269E-01  -0.1029558634E-01  -0.1029558634E-01   0.6380289293E-18  -0.3084636243E-15  -0.6017361176E-16   0.5500000008E+01
   0.1020569173E+01   0.0000000000E+00   0.9897044137E+00   0.2250000000E-02   0.0000000000E+00  -0.1122750000E-02   0.1831917266E-01   0.0000000000E+00  -0.9172836329E-02  -0.5500000008E+01   0.5034792293E-11   0.5034704507E-11   0.8936777261E-15  -0.8756904219E-15   0.2116914555E-15   0.2056917269E-01  -0.1029558634E-01  -0.1029558634E-01   0.1195136898E-15  -0.1236164318E-15   0.9526021082E-17   0.5500000008E+01
   0.1020569173E+01   0.9897044137E+00   0.9897044137E+00   0.2250000000E-02  -0.1122750000E-02  -0.1122750000E-02   0.1831917266E-01  -0.9172836329E-02  -0.9172836329E-02  -0.5500000007E+01   0.3302443931E-11   0.3302405821E-11   0.3719889812E-15   0.2441345833E-14  -0.1793094255E-15   0.2056917269E-01  -0.1029558634E-01  -0.1029558634E-01   0.1351273565E-15   0.9935866196E-16   0.1271013046E-15   0.5500000007E+01
   0.0000000000E+00   0.9897044137E+00   0.9897044137E+00   0.0000000000E+00  -0.1122750000E-02  -0.1122750000E-02   0.0000000000E+00  -0.9172836329E-02  -0.9172836329E-02  -0.5500000007E+01   0.1075295299E-10   0.1075354203E-10   0.2319982242E-15  -0.2230570074E-14  -0.1759629297E-15   0.2056917269E-01  -0.1029558634E-01  -0.1029558634E-01   0.1527948396E-15  -0.2229749718E-15  -0.7730698347E-16   0.5500000007E+01
   0.2041138345E+01   0.0000000000E+00  -0.2893258948E-15   0.4500000000E-02   0.0000000000E+00  -0.6034343751E-16   0.3663834532E-01   0.0000000000E+00  -0.2289824573E-15  -0.5500000008E+01  -0.5052942388E-11  -0.5051994518E-11  -0.1530237468E-15   0.6218376345E-16  -0.3492194165E-15   0.2056917269E-01  -0.1029558634E-01  -0.1029558634E-01   0.3453834760E-15   0.1527775100E-15  -0.2095301691E-16   0.5500000008E+01
   0.2041138345E+01   0.9897044137E+00  -0.2999423451E-15   0.4500000000E-02  -0.1122750000E-02  -0.6400583439E-16   0.3663834532E-01  -0.9172836329E-02  -0.2359365107E-15  -0.5500000008E+01   0.2613689678E-11   0.2611955756E-11  -0.8065697872E-16   0.6448774446E-15  -0.8163678922E-16   0.2056917269E-01  -0.1029558634E-01  -0.1029558634E-01   0.3681359849E-15  -0.3261414850E-15   0.2022334894E-16   0.5500000008E+01
   0.2041138345E+01   0.0000000000E+00   0.9897044137E+00   0.4500000000E-02   0.0000000000E+00  -0.1122750000E-02   0.3663834532E-01   0.0000000000E+00  -0.9172836329E-02  -0.5500000008E+01   0.6362177319E-11   0.6362833294E-11   0.3305713227E-15   0.1070753735E-14  -0.5605096160E-15   0.2056917269E-01  -0.1029558634E-01  -0.1029558634E-01  -0.9595162262E-16   0.2370796000E-15   0.9757193655E-17   0.5500000008E+01
   0.2041138345E+01   0.9897044137E+00   0.9897044137E+00   0.4500000000E-02  -0.1122750000E-02  -0.1122750000E-02   0.3663834532E-01  -0.9172836329E-02  -0.9172836329E-02  -0.5500000007E+01  -0.1476578991E-11  -0.1477268165E-11   0.2190956875E-15  -0.1137654358E-14  -0.4267413454E-15   0.2056917268E-01  -0.1029558634E-01  -0.1029558634E-01  -0.2099878950E-15  -0.2057481547E-15   0.5001159031E-16   0.5500000007E+01
     1     2     3     4     5     6     7     8
     2     9    10     3     6    11    12     7
 VARIABLES = X,Y,Z,DU1,DU2,DU3,U1,U2,U3,S11,S22,S33,S12,S13,S23,E11,E22,E33,E12,E13,E23,SMISES
 ZONE, T="0.8250D+01" F=FEPOINT, I=   12 J=    2 ET=BRICK
   0.0000000000E+00   0.0000000000E+00   0.0000000000E+00   0.0000000000E+00   0.0000000000E+00   0.0000000000E+00   0.0000000000E+00   0.0000000000E+00   0.0000000000E+00  -0.4375000007E+01  -0.5026679740E-11  -0.5023608836E-11  -0.2684550852E-17  -0.1235006382E-14   0.6342581381E-15   0.2281917269E-01  -0.1141833635E-01  -0.1141833635E-01  -0.7120910915E-18  -0.1168839833E-15  -0.9827544729E-17   0.4375000007E+01
   0.1022819173E+01   0.0000000000E+00  -0.8594623365E-16   0.2250000000E-02   0.0000000000E+00   0.3864898028E-17   0.2056917266E-01   0.0000000000E+00  -0.8981113168E-16  -0.4375000007E+01  -0.3569666722E-11  -0.3571375611E-11  -0.3630904139E-15   0.5019134993E-15   0.1695044368E-15   0.2281917269E-01  -0.1141833635E-01  -0.1141833635E-01  -0.3869686757E-16  -0.5431721503E-16  -0.1725015756E-17   0.4375000007E+01
   0.1022819173E+01   0.9885816637E+00  -0.8687834741E-16   0.2250000000E-02  -0.1122750000E-02   0.3835529335E-17   0.2056917266E-01  -0.1029558633E-01  -0.9071387674E-16  -0.4375000006E+01  -0.3874879094E-11  -0.3874768072E-11  -0.8416413207E-16   0.7553105598E-15  -0.5995708447E-15   0.2281917269E-01  -0.1141833635E-01  -0.1141833635E-01  -0.4772385527E-16   0.6215730791E-16   0.1127796044E-15   0.4375000006E+01
   0.0000000000E+00   0.9885816637E+00  -0.6521138579E-17   0.0000000000E+00  -0.1122750000E-02   0.1428394354E-17   0.0000000000E+00  -0.1029558633E-01  -0.7949532933E-17  -0.4375000006E+01  -0.1229982219E-10  -0.1230305565E-10   0.4315261466E-15  -0.1297643138E-14  -0.2713977527E-15   0.2281917269E-01  -0.1141833635E-01  -0.1141833635E-01  -0.3121588362E-16  -0.9170955390E-16  -0.3804212257E-16   0.4375000006E+01
   0.0000000000E+00   0.0000000000E+00   0.9885816637E+00   0.0000000000E+00   0.0000000000E+00  -0.1122750000E-02   0.0000000000E+00   0.0000000000E+00  -0.1029558633E-01  -0.4375000006E+01   0.4788113879E-11   0.4787533005E-11  -0.4385169085E-17  -0.9036158854E-15   0.4945822587E-15   0.2281917269E-01  -0.1141833635E-01  -0.1141833635E-01  -0.3644319473E-17  -0.3096253549E-15  -0.5685812938E-16   0.4375000006E+01
   0.1022819173E+01   0.0000000000E+00   0.9885816637E+00   0.2250000000E-02   0.0000000000E+00  -0.1122750000E-02   0.2056917266E-01   0.0000000000E+00  -0.1029558633E-01  -0.4375000006E+01   0.4607371318E-11   0.4607636917E-11  -0.1359276036E-16   0.9820143522E-16   0.4998902982E-15   0.2281917269E-01  -0.1141833635E-01  -0.1141833635E-01   0.1108067617E-15  -0.1131961602E-15   0.9263648097E-17   0.4375000006E+01
   0.1022819173E+01   0.9885816637E+00   0.9885816637E+00   0.2250000000E-02  -0.1122750000E-02  -0.1122750000E-02   0.2056917266E-01  -0.1029558633E-01  -0.1029558633E-01  -0.4375000006E+01   0.2869993024E-11   0.2870859425E-11  -0.3417857871E-15   0.1556859419E-14  -0.6885885760E-15   0.2281917269E-01  -0.1141833634E-01  -0.1141833634E-01   0.1324821666E-15   0.7057270234E-16   0.1287643039E-15   0.4375000006E+01
   0.0000000000E+00   0.9885816637E+00   0.9885816637E+00   0.0000000000E+00  -0.1122750000E-02  -0.1122750000E-02   0.0000000000E+00  -0.1029558633E-01  -0.1029558633E-01  -0.4375000006E+01   0.9914423602E-11   0.9915451483E-11   0.2356725631E-15  -0.1856193275E-14  -0.4422784571E-15   0.2281917269E-01  -0.1141833634E-01  -0.1141833634E-01   0.1519188661E-15  -0.2082713421E-15  -0.8028924116E-16   0.4375000006E+01
   0.2045638345E+01   0.0000000000E+00  -0.2784358900E-15   0.4500000000E-02   0.0000000000E+00   0.1089000483E-16   0.4113834532E-01   0.0000000000E+00  -0.2893258948E-15  -0.4375000007E+01  -0.4996435085E-11  -0.4995465633E-11   0.1566307366E-14   0.2156747020E-15  -0.4131901851E-17   0.2281917269E-01  -0.1141833635E-01  -0.1141833635E-01   0.3754760000E-15   0.1458718475E-15  -0.1710503108E-16   0.4375000007E+01
   0.2045638345E+01   0.9885816637E+00  -0.2870580010E-15   0.4500000000E-02  -0.1122750000E-02   0.1288434411E-16   0.4113834532E-01  -0.1029558633E-01  -0.2999423451E-15  -0.4375000006E+01   0.3021241740E-11   0.3020391281E-11   0.9226054221E-15  -0.5534262476E-15   0.1624630578E-15   0.2281917269E-01  -0.1141833635E-01  -0.1141833635E-01   0.3789768767E-15  -0.3543962642E-15   0.1421560572E-16   0.4375000006E+01
   0.2045638345E+01   0.0000000000E+00   0.9885816637E+00   0.4500000000E-02   0.0000000000E+00  -0.1122750000E-02   0.4113834532E-01   0.0000000000E+00  -0.1029558633E-01  -0.4375000006E+01   0.5798152691E-11   0.5798955610E-11  -0.1212306433E-15   0.1965664922E-14   0.1457661064E-15   0.2281917269E-01  -0.1141833635E-01  -0.1141833635E-01  -0.8987855053E-16   0.2877459883E-15   0.2065481055E-16   0.4375000006E+01
   0.2045638345E+01   0.9885816637E+00   0.9885816637E+00   0.4500000000E-02  -0.1122750000E-02  -0.1122750000E-02   0.4113834532E-01  -0.1029558633E-01  -0.1029558633E-01  -0.4375000006E+01  -0.1391419414E-11  -0.1391249962E-11   0.4289173941E-17  -0.2269581063E-14   0.2868498534E-15   0.2281917269E-01  -0.1141833634E-01  -0.1141833634E-01  -0.2079413433E-15  -0.2543925046E-15   0.7493013991E-16   0.4375000006E+01
     1     2     3     4     5     6     7     8
     2     9    10     3     6    11    12     7
 VARIABLES = X,Y,Z,DU1,DU2,DU3,U1,U2,U3,S11,S22,S33,S12,S13,S23,E11,E22,E33,E12,E13,E23,SMISES
 ZONE, T="0.8300D+01" F=FEPOINT, I=   12 J=    2 ET=BRICK
   0.0000000000E+00   0.0000000000E+00   0.0000000000E+00   0.0000000000E+00   0.0000000000E+00   0.0000000000E+00   0.0000000000E+00   0.0000000000E+00   0.0000000000E+00  -0.3250000005E+01  -0.4408443092E-11  -0.4406288851E-11   0.4167527465E-16  -0.6418916308E-15   0.8619476788E-15   0.2506917270E-01  -0.1254108635E-01  -0.1254108635E-01   0.9148115482E-18  -0.1151524508E-15  -0.1392465788E-16   0.3250000005E+01
   0.1025069173E+01   0.0000000000E+00  -0.8111857042E-16   0.2250000000E-02   0.0000000000E+00   0.4827663226E-17   0.2281917266E-01   0.0000000000E+00  -0.8594623365E-16  -0.3250000005E+01  -0.3286941762E-11  -0.3288463799E-11  -0.1669695179E-15   0.1346369206E-16   0.3330502994E-15   0.2506917270E-01  -0.1254108635E-01  -0.1254108635E-01  -0.4160421529E-16  -0.7276354993E-16   0.2350401591E-17   0.3250000005E+01
   0.1025069173E+01   0.9874589137E+00  -0.8103407709E-16   0.2250000000E-02  -0.1122750000E-02   0.5844270322E-17   0.2281917266E-01  -0.1141833633E-01  -0.8687834741E-16  -0.3250000005E+01  -0.3831427705E-11  -0.3831610572E-11   0.5606395462E-16   0.3712655696E-15  -0.3524213657E-15   0.2506917269E-01  -0.1254108635E-01  -0.1254108635E-01  -0.5879320189E-16   0.8206834616E-16   0.1085545086E-15   0.3250000005E+01
   0.0000000000E+00   0.9874589137E+00  -0.4979221098E-17   0.0000000000E+00  -0.1122750000E-02   0.1541917481E-17   0.0000000000E+00  -0.1141833633E-01  -0.6521138579E-17  -0.3250000005E+01  -0.1155641305E-10  -0.1156027817E-10   0.7686942713E-16  -0.7282464094E-15  -0.4429118583E-15   0.2506917269E-01  -0.1254108635E-01  -0.1254108635E-01  -0.2730553825E-16  -0.9620656654E-16  -0.1564962558E-16   0.3250000005E+01
   0.0000000000E+00   0.0000000000E+00   0.9874589137E+00   0.0000000000E+00   0.0000000000E+00  -0.1122750000E-02   0.0000000000E+00   0.0000000000E+00  -0.1141833633E-01  -0.3250000005E+01   0.3984460281E-11   0.3984516521E-11  -0.5374385623E-16  -0.5167051066E-16   0.7879285515E-15   0.2506917269E-01  -0.1254108635E-01  -0.1254108635E-01   0.1510218297E-17  -0.2969405935E-15  -0.5301998181E-16   0.3250000005E+01
   0.1025069173E+01   0.0000000000E+00   0.9874589137E+00   0.2250000000E-02   0.0000000000E+00  -0.1122750000E-02   0.2281917266E-01   0.0000000000E+00  -0.1141833633E-01  -0.3250000005E+01   0.4504999972E-11   0.4505407801E-11   0.5833429695E-15  -0.3964024167E-15   0.3650980649E-15   0.2506917269E-01  -0.1254108635E-01  -0.1254108635E-01   0.1050723807E-15  -0.1111238728E-15   0.7992434611E-17   0.3250000005E+01
   0.1025069173E+01   0.9874589137E+00   0.9874589137E+00   0.2250000000E-02  -0.1122750000E-02  -0.1122750000E-02   0.2281917266E-01  -0.1141833633E-01  -0.1141833633E-01  -0.3250000004E+01   0.2691217801E-11   0.2691867602E-11   0.1753272449E-15   0.1250471285E-14  -0.8285569476E-15   0.2506917269E-01  -0.1254108635E-01  -0.1254108635E-01   0.1314832407E-15   0.6462420660E-16   0.1339904274E-15   0.3250000004E+01
   0.0000000000E+00   0.9874589137E+00   0.9874589137E+00   0.0000000000E+00  -0.1122750000E-02  -0.1122750000E-02   0.0000000000E+00  -0.1141833633E-01  -0.1141833633E-01  -0.3250000004E+01   0.9479247838E-11   0.9480348826E-11   0.6062388393E-15  -0.1501250764E-14  -0.7862810293E-15   0.2506917269E-01  -0.1254108635E-01  -0.1254108635E-01   0.1562643577E-15  -0.2110418819E-15  -0.1033682805E-15   0.3250000004E+01
   0.2050138345E+01   0.0000000000E+00  -0.2649349970E-15   0.4500000000E-02   0.0000000000E+00   0.1350089301E-16   0.4563834532E-01   0.0000000000E+00  -0.2784358900E-15  -0.3250000005E+01  -0.4971127877E-11  -0.4970251851E-11   0.1198067089E-14   0.3455592801E-15   0.2131391928E-15   0.2506917270E-01  -0.1254108635E-01  -0.1254108635E-01   0.3431528703E-15   0.1170696007E-15  -0.1461593820E-16   0.3250000005E+01
   0.2050138345E+01   0.9874589137E+00  -0.2725034614E-15   0.4500000000E-02  -0.1122750000E-02   0.1455453961E-16   0.4563834532E-01  -0.1141833633E-01  -0.2870580010E-15  -0.3250000005E+01   0.2605365938E-11   0.2604085534E-11   0.6563559079E-15   0.1008669622E-15   0.8143526652E-16   0.2506917269E-01  -0.1254108635E-01  -0.1254108635E-01   0.3501238851E-15  -0.3430082532E-15   0.2341657749E-16   0.3250000005E+01
   0.2050138345E+01   0.0000000000E+00   0.9874589137E+00   0.4500000000E-02   0.0000000000E+00  -0.1122750000E-02   0.4563834532E-01   0.0000000000E+00  -0.1141833633E-01  -0.3250000005E+01   0.6094129049E-11   0.6095437742E-11   0.9801352089E-16   0.1926999315E-14   0.8817468926E-16   0.2506917269E-01  -0.1254108635E-01  -0.1254108635E-01  -0.6604614292E-16   0.2444857903E-15   0.1319750353E-16   0.3250000005E+01
   0.2050138345E+01   0.9874589137E+00   0.9874589137E+00   0.4500000000E-02  -0.1122750000E-02  -0.1122750000E-02   0.4563834532E-01  -0.1141833633E-01  -0.1141833633E-01  -0.3250000004E+01  -0.1454192017E-11  -0.1453914266E-11  -0.6576755895E-16  -0.1548168041E-14   0.6188132123E-16   0.2506917269E-01  -0.1254108635E-01  -0.1254108635E-01  -0.1869618915E-15  -0.2098681345E-15   0.5754152089E-16   0.3250000004E+01
     1     2     3     4     5     6     7     8
     2     9    10     3     6    11    12     7
 VARIABLES = X,Y,Z,DU1,DU2,DU3,U1,U2,U3,S11,S22,S33,S12,S13,S23,E11,E22,E33,E12,E13,E23,SMISES
 ZONE, T="0.8350D+01" F=FEPOINT, I=   12 J=    2 ET=BRICK
   0.0000000000E+00   0.0000000000E+00   0.0000000000E+00   0.0000000000E+00   0.0000000000E+00   0.0000000000E+00   0.0000000000E+00   0.0000000000E+00   0.0000000000E+00  -0.2125000003E+01  -0.4668124274E-11  -0.4665833977E-11   0.2135639170E-16  -0.8724185680E-15   0.7456727439E-15   0.2731917270E-01  -0.1366383635E-01  -0.1366383635E-01  -0.2590336756E-17  -0.1225945869E-15  -0.1000010657E-16   0.2125000003E+01
   0.1027319173E+01   0.0000000000E+00  -0.8289375589E-16   0.2250000000E-02   0.0000000000E+00  -0.1775185464E-17   0.2506917266E-01   0.0000000000E+00  -0.8111857042E-16  -0.2125000003E+01  -0.3362740056E-11  -0.3364165945E-11  -0.1398977620E-15   0.3867483582E-15   0.2096663784E-15   0.2731917270E-01  -0.1366383635E-01  -0.1366383635E-01  -0.3748171603E-16  -0.5044671031E-16  -0.1010267600E-17   0.2125000003E+01
   0.1027319173E+01   0.9863361637E+00  -0.8342550618E-16   0.2250000000E-02  -0.1122750000E-02  -0.2391429089E-17   0.2506917266E-01  -0.1254108633E-01  -0.8103407709E-16  -0.2125000003E+01  -0.3978404918E-11  -0.3978097614E-11   0.1463544936E-15   0.2327574717E-15  -0.2240217592E-15   0.2731917270E-01  -0.1366383635E-01  -0.1366383635E-01  -0.4530854583E-16   0.7684618008E-16   0.1179132225E-15   0.2125000003E+01
   0.0000000000E+00   0.9863361637E+00  -0.5973027807E-17   0.0000000000E+00  -0.1122750000E-02  -0.9938067091E-18   0.0000000000E+00  -0.1254108633E-01  -0.4979221098E-17  -0.2125000003E+01  -0.1173897943E-10  -0.1174257842E-10  -0.2286030372E-16  -0.8825588460E-15  -0.5560147929E-15   0.2731917270E-01  -0.1366383635E-01  -0.1366383635E-01  -0.3417403408E-16  -0.9416574558E-16  -0.4103309623E-16   0.2125000003E+01
   0.0000000000E+00   0.0000000000E+00   0.9863361637E+00   0.0000000000E+00   0.0000000000E+00  -0.1122750000E-02   0.0000000000E+00   0.0000000000E+00  -0.1254108633E-01  -0.2125000003E+01   0.4340106135E-11   0.4340206998E-11  -0.5042690740E-16  -0.5050036251E-15   0.5556170303E-15   0.2731917270E-01  -0.1366383635E-01  -0.1366383635E-01   0.5247467105E-17  -0.3034538466E-15  -0.5371363763E-16   0.2125000003E+01
   0.1027319173E+01   0.0000000000E+00   0.9863361637E+00   0.2250000000E-02   0.0000000000E+00  -0.1122750000E-02   0.2506917266E-01   0.0000000000E+00  -0.1254108633E-01  -0.2125000003E+01   0.4481968434E-11   0.4481789944E-11   0.1614661415E-15  -0.1886013596E-15   0.5135246329E-15   0.2731917270E-01  -0.1366383635E-01  -0.1366383635E-01   0.9487304626E-16  -0.1240144035E-15   0.1120047293E-16   0.2125000003E+01
   0.1027319173E+01   0.9863361637E+00   0.9863361637E+00   0.2250000000E-02  -0.1122750000E-02  -0.1122750000E-02   0.2506917266E-01  -0.1254108633E-01  -0.1254108633E-01  -0.2125000003E+01   0.2921353509E-11   0.2922265991E-11  -0.2730700927E-15   0.1176118831E-14  -0.5213955163E-15   0.2731917269E-01  -0.1366383635E-01  -0.1366383635E-01   0.1207047077E-15   0.8008864855E-16   0.1219657372E-15   0.2125000003E+01
   0.0000000000E+00   0.9863361637E+00   0.9863361637E+00   0.0000000000E+00  -0.1122750000E-02  -0.1122750000E-02   0.0000000000E+00  -0.1254108633E-01  -0.1254108633E-01  -0.2125000003E+01   0.9424595633E-11   0.9425749411E-11   0.5958415874E-15  -0.1565605769E-14  -0.7335567604E-15   0.2731917269E-01  -0.1366383635E-01  -0.1366383635E-01   0.1566975091E-15  -0.2119108362E-15  -0.8001584828E-16   0.2125000003E+01
   0.2054638345E+01   0.0000000000E+00  -0.2700386778E-15   0.4500000000E-02   0.0000000000E+00  -0.5103680864E-17   0.5013834532E-01   0.0000000000E+00  -0.2649349970E-15  -0.2125000003E+01  -0.4688937704E-11  -0.4688056963E-11   0.5805052691E-15  -0.1781798569E-15   0.1874841766E-15   0.2731917270E-01  -0.1366383635E-01  -0.1366383635E-01   0.3513262952E-15   0.1184081827E-15  -0.1381092181E-16   0.2125000003E+01
   0.2054638345E+01   0.9863361637E+00  -0.2777233920E-15   0.4500000000E-02  -0.1122750000E-02  -0.5219930657E-17   0.5013834532E-01  -0.1254108633E-01  -0.2725034614E-15  -0.2125000003E+01   0.2397178209E-11   0.2395805109E-11   0.1583467092E-15   0.6453404652E-15   0.3780636148E-16   0.2731917270E-01  -0.1366383635E-01  -0.1366383635E-01   0.3581894837E-15  -0.3189533445E-15   0.1521724673E-16   0.2125000003E+01
   0.2054638345E+01   0.0000000000E+00   0.9863361637E+00   0.4500000000E-02   0.0000000000E+00  -0.1122750000E-02   0.5013834532E-01   0.0000000000E+00  -0.1254108633E-01  -0.2125000003E+01   0.5757490924E-11   0.5758773854E-11   0.5062751136E-15   0.1443021168E-14   0.6369638987E-16   0.2731917270E-01  -0.1366383635E-01  -0.1366383635E-01  -0.7708562797E-16   0.2601317408E-15   0.1933173624E-16   0.2125000003E+01
   0.2054638345E+01   0.9863361637E+00   0.9863361637E+00   0.4500000000E-02  -0.1122750000E-02  -0.1122750000E-02   0.5013834532E-01  -0.1254108633E-01  -0.1254108633E-01  -0.2125000003E+01  -0.1144525970E-11  -0.1144493304E-11   0.2402460484E-15  -0.1228516159E-14  -0.4923075084E-16   0.2731917269E-01  -0.1366383635E-01  -0.1366383635E-01  -0.1938263461E-15  -0.2195376024E-15   0.6604421373E-16   0.2125000003E+01
     1     2     3     4     5     6     7     8
     2     9    10     3     6    11    12     7
 VARIABLES = X,Y,Z,DU1,DU2,DU3,U1,U2,U3,S11,S22,S33,S12,S13,S23,E11,E22,E33,E12,E13,E23,SMISES
 ZONE, T="0.8400D+01" F=FEPOINT, I=   12 J=    2 ET=BRICK
   0.0000000000E+00   0.0000000000E+00   0.0000000000E+00   0.0000000000E+00   0.0000000000E+00   0.0000000000E+00   0.0000000000E+00   0.0000000000E+00   0.0000000000E+00  -0.1000000002E+01  -0.4663032907E-11  -0.4660357203E-11   0.2545223119E-16  -0.9955029891E-15   0.7357344593E-15   0.2956917270E-01  -0.1478658635E-01  -0.1478658635E-01  -0.2040010369E-17  -0.1123490038E-15  -0.1868217496E-16   0.1000000002E+01
   0.1029569173E+01   0.0000000000E+00  -0.8398424883E-16   0.2250000000E-02   0.0000000000E+00  -0.1090492943E-17   0.2731917266E-01   0.0000000000E+00  -0.8289375589E-16  -0.1000000002E+01  -0.3370364441E-11  -0.3371620709E-11  -0.4551184634E-15   0.1926703485E-15   0.2181212697E-15   0.2956917270E-01  -0.1478658635E-01  -0.1478658635E-01  -0.4453354053E-16  -0.6983606744E-16   0.5862424834E-18   0.1000000002E+01
   0.1029569173E+01   0.9852134137E+00  -0.8436308403E-16   0.2250000000E-02  -0.1122750000E-02  -0.9375778513E-18   0.2731917266E-01  -0.1366383633E-01  -0.8342550618E-16  -0.1000000001E+01  -0.3992941985E-11  -0.3992698991E-11  -0.4722126324E-16   0.4763582317E-15  -0.2084602592E-15   0.2956917270E-01  -0.1478658635E-01  -0.1478658635E-01  -0.5786592905E-16   0.7441815613E-16   0.1125133851E-15   0.1000000001E+01
   0.0000000000E+00   0.9852134137E+00  -0.6256788470E-17   0.0000000000E+00  -0.1122750000E-02  -0.2837606626E-18   0.0000000000E+00  -0.1366383633E-01  -0.5973027807E-17  -0.1000000001E+01  -0.1208029066E-10  -0.1208377831E-10   0.7536045957E-16  -0.9095675161E-15  -0.4624007508E-15   0.2956917270E-01  -0.1478658635E-01  -0.1478658635E-01  -0.2473956980E-16  -0.9802625104E-16  -0.4160772345E-16   0.1000000001E+01
   0.0000000000E+00   0.0000000000E+00   0.9852134137E+00   0.0000000000E+00   0.0000000000E+00  -0.1122750000E-02   0.0000000000E+00   0.0000000000E+00  -0.1366383633E-01  -0.1000000001E+01   0.4483160092E-11   0.4483209843E-11  -0.6953639383E-16  -0.5267353109E-15   0.4160544027E-15   0.2956917270E-01  -0.1478658635E-01  -0.1478658635E-01  -0.5884191570E-18  -0.3042329237E-15  -0.4868124227E-16   0.1000000001E+01
   0.1029569173E+01   0.0000000000E+00   0.9852134137E+00   0.2250000000E-02   0.0000000000E+00  -0.1122750000E-02   0.2731917266E-01   0.0000000000E+00  -0.1366383633E-01  -0.1000000001E+01   0.4659084363E-11   0.4659121841E-11   0.2895969621E-15  -0.3899766198E-15   0.4160779614E-15   0.2956917270E-01  -0.1478658635E-01  -0.1478658635E-01   0.1069071183E-15  -0.1069860096E-15   0.1835401297E-16   0.1000000001E+01
   0.1029569173E+01   0.9852134137E+00   0.9852134137E+00   0.2250000000E-02  -0.1122750000E-02  -0.1122750000E-02   0.2731917266E-01  -0.1366383633E-01  -0.1366383633E-01  -0.1000000001E+01   0.2875093774E-11   0.2876018774E-11  -0.2838707355E-15   0.1466753879E-14  -0.7209864728E-15   0.2956917270E-01  -0.1478658635E-01  -0.1478658635E-01   0.1236070132E-15   0.7640028085E-16   0.1058392083E-15   0.1000000001E+01
   0.0000000000E+00   0.9852134137E+00   0.9852134137E+00   0.0000000000E+00  -0.1122750000E-02  -0.1122750000E-02   0.0000000000E+00  -0.1366383633E-01  -0.1366383633E-01  -0.1000000001E+01   0.9654074440E-11   0.9654835009E-11   0.3309602837E-15  -0.1687160487E-14  -0.5140096281E-15   0.2956917270E-01  -0.1478658635E-01  -0.1478658635E-01   0.1564387472E-15  -0.2102151272E-15  -0.7940408304E-16   0.1000000001E+01
   0.2059138345E+01   0.0000000000E+00  -0.2732541751E-15   0.4500000000E-02   0.0000000000E+00  -0.3215497310E-17   0.5463834532E-01   0.0000000000E+00  -0.2700386778E-15  -0.1000000002E+01  -0.4786500466E-11  -0.4785835876E-11   0.7319156802E-15   0.3325445120E-16   0.2055990676E-15   0.2956917270E-01  -0.1478658635E-01  -0.1478658635E-01   0.3490407546E-15   0.1346915932E-15  -0.1238284996E-16   0.1000000002E+01
   0.2059138345E+01   0.9852134137E+00  -0.2809913153E-15   0.4500000000E-02  -0.1122750000E-02  -0.3267923281E-17   0.5463834532E-01  -0.1366383633E-01  -0.2777233920E-15  -0.1000000001E+01   0.2686543529E-11   0.2685154510E-11   0.3169782734E-15   0.4213081112E-15  -0.7788395936E-16   0.2956917270E-01  -0.1478658635E-01  -0.1478658635E-01   0.3659101690E-15  -0.3686280210E-15   0.1235247546E-16   0.1000000001E+01
   0.2059138345E+01   0.0000000000E+00   0.9852134137E+00   0.4500000000E-02   0.0000000000E+00  -0.1122750000E-02   0.5463834532E-01   0.0000000000E+00  -0.1366383633E-01  -0.1000000001E+01   0.6054709915E-11   0.6055867264E-11   0.8243257481E-16   0.1870361058E-14   0.8171673317E-16   0.2956917270E-01  -0.1478658635E-01  -0.1478658635E-01  -0.7858320825E-16   0.2540947261E-15   0.2004623897E-16   0.1000000001E+01
   0.2059138345E+01   0.9852134137E+00   0.9852134137E+00   0.4500000000E-02  -0.1122750000E-02  -0.1122750000E-02   0.5463834532E-01  -0.1366383633E-01  -0.1366383633E-01  -0.1000000001E+01  -0.1326420746E-11  -0.1326472890E-11  -0.2282831760E-16  -0.1748380814E-14   0.4202368242E-16   0.2956917270E-01  -0.1478658635E-01  -0.1478658635E-01  -0.2024318262E-15  -0.1948119598E-15   0.6974984238E-16   0.1000000001E+01
     1     2     3     4     5     6     7     8
     2     9    10     3     6    11    12     7
 VARIABLES = X,Y,Z,DU1,DU2,DU3,U1,U2,U3,S11,S22,S33,S12,S13,S23,E11,E22,E33,E12,E13,E23,SMISES
 ZONE, T="0.8450D+01" F=FEPOINT, I=   12 J=    2 ET=BRICK
   0.0000000000E+00   0.0000000000E+00   0.0000000000E+00   0.0000000000E+00   0.0000000000E+00   0.0000000000E+00   0.0000000000E+00   0.0000000000E+00   0.0000000000E+00   0.1250000002E+00  -0.4671060806E-11  -0.4668484077E-11   0.1593695074E-16  -0.9271149907E-15   0.7002632448E-15   0.3181917271E-01  -0.1590933635E-01  -0.1590933635E-01  -0.1653836373E-17  -0.1085169624E-15  -0.9849444384E-17   0.1250000002E+00
   0.1031819173E+01   0.0000000000E+00  -0.8349259669E-16   0.2250000000E-02   0.0000000000E+00   0.4916521371E-18   0.2956917266E-01   0.0000000000E+00  -0.8398424883E-16   0.1250000002E+00  -0.3332484933E-11  -0.3333527739E-11  -0.3081662759E-15   0.2630915017E-15   0.2632735493E-15   0.3181917271E-01  -0.1590933635E-01  -0.1590933635E-01  -0.3722860629E-16  -0.7770823631E-16  -0.1946009891E-17   0.1250000002E+00
   0.1031819173E+01   0.9840906637E+00  -0.8367960495E-16   0.2250000000E-02  -0.1122750000E-02   0.6834790818E-18   0.2956917266E-01  -0.1478658633E-01  -0.8436308403E-16   0.1250000002E+00  -0.4057531918E-11  -0.4057272041E-11   0.1175818858E-15   0.1734112399E-15  -0.1460428572E-15   0.3181917270E-01  -0.1590933635E-01  -0.1590933635E-01  -0.5870245350E-16   0.9570621230E-16   0.1061576446E-15   0.1250000002E+00
   0.0000000000E+00   0.9840906637E+00  -0.6276846120E-17   0.0000000000E+00  -0.1122750000E-02  -0.2005765026E-19   0.0000000000E+00  -0.1478658633E-01  -0.6256788470E-17   0.1250000002E+00  -0.1188459262E-10  -0.1188811766E-10   0.2079493504E-18  -0.7981610874E-15  -0.5237997466E-15   0.3181917270E-01  -0.1590933635E-01  -0.1590933635E-01  -0.2764618060E-16  -0.1055767261E-15  -0.3190955880E-16   0.1250000002E+00
   0.0000000000E+00   0.0000000000E+00   0.9840906637E+00   0.0000000000E+00   0.0000000000E+00  -0.1122750000E-02   0.0000000000E+00   0.0000000000E+00  -0.1478658633E-01   0.1250000002E+00   0.4438365321E-11   0.4438529763E-11  -0.9498092035E-16  -0.4040321497E-15   0.4624184624E-15   0.3181917270E-01  -0.1590933635E-01  -0.1590933635E-01  -0.6877625080E-18  -0.3000030016E-15  -0.6975547427E-16   0.1250000002E+00
   0.1031819173E+01   0.0000000000E+00   0.9840906637E+00   0.2250000000E-02   0.0000000000E+00  -0.1122750000E-02   0.2956917266E-01   0.0000000000E+00  -0.1478658633E-01   0.1250000002E+00   0.4665968160E-11   0.4666002725E-11   0.1084766812E-15  -0.1500868387E-15   0.3828394518E-15   0.3181917270E-01  -0.1590933635E-01  -0.1590933635E-01   0.1035651135E-15  -0.9417312476E-16   0.1854709819E-16   0.1250000002E+00
   0.1031819173E+01   0.9840906637E+00   0.9840906637E+00   0.2250000000E-02  -0.1122750000E-02  -0.1122750000E-02   0.2956917266E-01  -0.1478658633E-01  -0.1478658633E-01   0.1250000002E+00   0.2887675129E-11   0.2888400635E-11  -0.4221055089E-15   0.1155766653E-14  -0.6897364250E-15   0.3181917270E-01  -0.1590933635E-01  -0.1590933635E-01   0.1326278933E-15   0.6005432036E-16   0.1284149404E-15   0.1250000002E+00
   0.0000000000E+00   0.9840906637E+00   0.9840906637E+00   0.0000000000E+00  -0.1122750000E-02  -0.1122750000E-02   0.0000000000E+00  -0.1478658633E-01  -0.1478658633E-01   0.1250000002E+00   0.9433994580E-11   0.9434924829E-11   0.5330240368E-15  -0.1605176198E-14  -0.5514382149E-15   0.3181917270E-01  -0.1590933635E-01  -0.1590933635E-01   0.1486913119E-15  -0.2062100459E-15  -0.7361111622E-16   0.1250000002E+00
   0.2063638345E+01   0.0000000000E+00  -0.2714460964E-15   0.4500000000E-02   0.0000000000E+00   0.1808078692E-17   0.5913834532E-01   0.0000000000E+00  -0.2732541751E-15   0.1250000002E+00  -0.4753369949E-11  -0.4753005371E-11   0.4568028405E-15  -0.1251402181E-15   0.2328070741E-15   0.3181917271E-01  -0.1590933635E-01  -0.1590933635E-01   0.3421356685E-15   0.1461733924E-15  -0.1380290011E-16   0.1250000002E+00
   0.2063638345E+01   0.9840906637E+00  -0.2791455789E-15   0.4500000000E-02  -0.1122750000E-02   0.1845736430E-17   0.5913834532E-01  -0.1478658633E-01  -0.2809913153E-15   0.1250000002E+00   0.2473136591E-11   0.2471658947E-11   0.1474802160E-15   0.6878922843E-15  -0.1150141696E-15   0.3181917270E-01  -0.1590933635E-01  -0.1590933635E-01   0.3417928395E-15  -0.2938094951E-15   0.3011247915E-16   0.1250000002E+00
   0.2063638345E+01   0.0000000000E+00   0.9840906637E+00   0.4500000000E-02   0.0000000000E+00  -0.1122750000E-02   0.5913834532E-01   0.0000000000E+00  -0.1478658633E-01   0.1250000002E+00   0.5845067846E-11   0.5846132251E-11   0.1291917735E-15   0.1575458123E-14   0.8004793542E-16   0.3181917270E-01  -0.1590933635E-01  -0.1590933635E-01  -0.8547369955E-16   0.2430992764E-15   0.1391124961E-16   0.1250000002E+00
   0.2063638345E+01   0.9840906637E+00   0.9840906637E+00   0.4500000000E-02  -0.1122750000E-02  -0.1122750000E-02   0.5913834532E-01  -0.1478658633E-01  -0.1478658633E-01   0.1250000002E+00  -0.1186894689E-11  -0.1186821792E-11   0.1389450267E-15  -0.1372808821E-14   0.3434244992E-16   0.3181917270E-01  -0.1590933635E-01  -0.1590933635E-01  -0.2044799111E-15  -0.2316758017E-15   0.5223483841E-16   0.1250000002E+00
     1     2     3     4     5     6     7     8
     2     9    10     3     6    11    12     7
 VARIABLES = X,Y,Z,DU1,DU2,DU3,U1,U2,U3,S11,S22,S33,S12,S13,S23,E11,E22,E33,E12,E13,E23,SMISES
 ZONE, T="0.8500D+01" F=FEPOINT, I=   12 J=    2 ET=BRICK
   0.0000000000E+00   0.0000000000E+00   0.0000000000E+00   0.0000000000E+00   0.0000000000E+00   0.0000000000E+00   0.0000000000E+00   0.0000000000E+00   0.0000000000E+00   0.1250000002E+01  -0.4538219492E-11  -0.4535953548E-11   0.1224644542E-16  -0.8531139653E-15   0.6890453842E-15   0.3406917271E-01  -0.1703208636E-01  -0.1703208636E-01   0.1733943987E-17  -0.1051499883E-15  -0.1298341003E-16   0.1250000002E+01
   0.1034069173E+01   0.0000000000E+00  -0.8260082113E-16   0.2250000000E-02   0.0000000000E+00   0.8917755657E-18   0.3181917266E-01   0.0000000000E+00  -0.8349259669E-16   0.1250000002E+01  -0.3288185848E-11  -0.3289454002E-11  -0.4260756802E-15   0.6662708827E-16   0.3414500762E-15   0.3406917271E-01  -0.1703208636E-01  -0.1703208636E-01  -0.3082590563E-16  -0.8008972058E-16   0.3479004461E-17   0.1250000002E+01
   0.1034069173E+01   0.9829679137E+00  -0.8238998339E-16   0.2250000000E-02  -0.1122750000E-02   0.1289621559E-17   0.3181917266E-01  -0.1590933633E-01  -0.8367960495E-16   0.1250000002E+01  -0.3944866335E-11  -0.3944591866E-11   0.1681465522E-16   0.2386080730E-15  -0.1718532732E-15   0.3406917271E-01  -0.1703208635E-01  -0.1703208635E-01  -0.3531659328E-16   0.8637537192E-16   0.1109168854E-15   0.1250000002E+01
   0.0000000000E+00   0.9829679137E+00  -0.6289384970E-17   0.0000000000E+00  -0.1122750000E-02  -0.1253885048E-19   0.0000000000E+00  -0.1590933633E-01  -0.6276846120E-17   0.1250000002E+01  -0.1173904711E-10  -0.1174286361E-10  -0.1233693289E-15  -0.6082502056E-15  -0.6336339679E-15   0.3406917271E-01  -0.1703208635E-01  -0.1703208635E-01  -0.4117715858E-16  -0.9972723659E-16  -0.4687799107E-16   0.1250000002E+01
   0.0000000000E+00   0.0000000000E+00   0.9829679137E+00   0.0000000000E+00   0.0000000000E+00  -0.1122750000E-02   0.0000000000E+00   0.0000000000E+00  -0.1590933633E-01   0.1250000002E+01   0.4312105662E-11   0.4312205346E-11  -0.1257033690E-15  -0.4396170569E-15   0.5558470860E-15   0.3406917271E-01  -0.1703208635E-01  -0.1703208635E-01  -0.3323909437E-17  -0.3159096326E-15  -0.4491042863E-16   0.1250000002E+01
   0.1034069173E+01   0.0000000000E+00   0.9829679137E+00   0.2250000000E-02   0.0000000000E+00  -0.1122750000E-02   0.3181917266E-01   0.0000000000E+00  -0.1590933633E-01   0.1250000002E+01   0.4497150282E-11   0.4497083179E-11   0.3354874959E-15  -0.1672416340E-15   0.4759473867E-15   0.3406917271E-01  -0.1703208635E-01  -0.1703208635E-01   0.1121151114E-15  -0.7433936431E-16   0.1337076882E-17   0.1250000002E+01
   0.1034069173E+01   0.9829679137E+00   0.9829679137E+00   0.2250000000E-02  -0.1122750000E-02  -0.1122750000E-02   0.3181917266E-01  -0.1590933633E-01  -0.1590933633E-01   0.1250000002E+01   0.2787015036E-11   0.2787817858E-11  -0.3510660718E-15   0.1253385839E-14  -0.6758938647E-15   0.3406917270E-01  -0.1703208635E-01  -0.1703208635E-01   0.1292542753E-15   0.4402219923E-16   0.1323393806E-15   0.1250000002E+01
   0.0000000000E+00   0.9829679137E+00   0.9829679137E+00   0.0000000000E+00  -0.1122750000E-02  -0.1122750000E-02   0.0000000000E+00  -0.1590933633E-01  -0.1590933633E-01   0.1250000002E+01   0.9320678041E-11   0.9321796942E-11   0.5472264414E-15  -0.1505850800E-14  -0.6245964998E-15   0.3406917270E-01  -0.1703208635E-01  -0.1703208635E-01   0.1606155273E-15  -0.1998928629E-15  -0.8914456414E-16   0.1250000002E+01
   0.2068138345E+01   0.0000000000E+00  -0.2670910346E-15   0.4500000000E-02   0.0000000000E+00   0.4355061807E-17   0.6363834532E-01   0.0000000000E+00  -0.2714460964E-15   0.1250000002E+01  -0.4743261061E-11  -0.4742719512E-11   0.5416505862E-15  -0.5418605523E-15   0.1971264873E-15   0.3406917271E-01  -0.1703208635E-01  -0.1703208635E-01   0.3347107454E-15   0.1260100478E-15  -0.1444617480E-16   0.1250000002E+01
   0.2068138345E+01   0.9829679137E+00  -0.2750128135E-15   0.4500000000E-02  -0.1122750000E-02   0.4132765365E-17   0.6363834532E-01  -0.1590933633E-01  -0.2791455789E-15   0.1250000002E+01   0.2552650215E-11   0.2551188586E-11   0.1165359241E-15   0.9735743927E-15  -0.2580680047E-15   0.3406917271E-01  -0.1703208635E-01  -0.1703208635E-01   0.3414737905E-15  -0.2771976548E-15   0.1990283098E-16   0.1250000002E+01
   0.2068138345E+01   0.0000000000E+00   0.9829679137E+00   0.4500000000E-02   0.0000000000E+00  -0.1122750000E-02   0.6363834532E-01   0.0000000000E+00  -0.1590933633E-01   0.1250000002E+01   0.5633398906E-11   0.5634665419E-11   0.3665144263E-15   0.1375589707E-14   0.4842124657E-16   0.3406917271E-01  -0.1703208635E-01  -0.1703208635E-01  -0.6992658935E-16   0.2010727914E-15   0.1903357990E-16   0.1250000002E+01
   0.2068138345E+01   0.9829679137E+00   0.9829679137E+00   0.4500000000E-02  -0.1122750000E-02  -0.1122750000E-02   0.6363834532E-01  -0.1590933633E-01  -0.1590933633E-01   0.1250000002E+01  -0.1329022016E-11  -0.1328687077E-11   0.4012196631E-15  -0.1517703767E-14  -0.9295721184E-16   0.3406917270E-01  -0.1703208635E-01  -0.1703208635E-01  -0.1918959949E-15  -0.1954899933E-15   0.6310556071E-16   0.1250000002E+01
     1     2     3     4     5     6     7     8
     2     9    10     3     6    11    12     7
 VARIABLES = X,Y,Z,DU1,DU2,DU3,U1,U2,U3,S11,S22,S33,S12,S13,S23,E11,E22,E33,E12,E13,E23,SMISES
 ZONE, T="0.8550D+01" F=FEPOINT, I=   12 J=    2 ET=BRICK
   0.0000000000E+00   0.0000000000E+00   0.0000000000E+00   0.0000000000E+00   0.0000000000E+00   0.0000000000E+00   0.0000000000E+00   0.0000000000E+00   0.0000000000E+00   0.2375000004E+01  -0.4910584593E-11  -0.4908331846E-11  -0.2395446526E-16  -0.1098332941E-14   0.6002956380E-15   0.3631917272E-01  -0.1815483636E-01  -0.1815483636E-01  -0.1966514972E-17  -0.1177492912E-15  -0.1637691978E-16   0.2375000004E+01
   0.1036319173E+01   0.0000000000E+00  -0.8412235555E-16   0.2250000000E-02   0.0000000000E+00  -0.1521534422E-17   0.3406917266E-01   0.0000000000E+00  -0.8260082113E-16   0.2375000004E+01  -0.3246508900E-11  -0.3247343756E-11  -0.6283113771E-16   0.5421971826E-15   0.4523804383E-15   0.3631917271E-01  -0.1815483636E-01  -0.1815483636E-01  -0.1670400923E-16  -0.4770780588E-16   0.5244190835E-17   0.2375000004E+01
   0.1036319173E+01   0.9818451637E+00  -0.8338477363E-16   0.2250000000E-02  -0.1122750000E-02  -0.9947902440E-18   0.3406917266E-01  -0.1703208633E-01  -0.8238998339E-16   0.2375000003E+01  -0.4140591104E-11  -0.4140362351E-11   0.4401921458E-15   0.9794887665E-16  -0.5581875034E-16   0.3631917271E-01  -0.1815483636E-01  -0.1815483636E-01  -0.2196750866E-16   0.5784203680E-16   0.1108165481E-15   0.2375000003E+01
   0.0000000000E+00   0.9818451637E+00  -0.6721846587E-17   0.0000000000E+00  -0.1122750000E-02  -0.4324616168E-18   0.0000000000E+00  -0.1703208633E-01  -0.6289384970E-17   0.2375000003E+01  -0.1167795671E-10  -0.1168163017E-10  -0.2507985364E-15  -0.5925974899E-15  -0.6081393063E-15   0.3631917271E-01  -0.1815483636E-01  -0.1815483636E-01  -0.4625571374E-16  -0.8645477112E-16  -0.3569723548E-16   0.2375000003E+01
   0.0000000000E+00   0.0000000000E+00   0.9818451637E+00   0.0000000000E+00   0.0000000000E+00  -0.1122750000E-02   0.0000000000E+00   0.0000000000E+00  -0.1703208633E-01   0.2375000003E+01   0.4591554147E-11   0.4592040235E-11  -0.1168775135E-15  -0.6142897167E-15   0.5110260637E-15   0.3631917271E-01  -0.1815483636E-01  -0.1815483636E-01   0.8275732703E-17  -0.3038344892E-15  -0.5235019227E-16   0.2375000003E+01
   0.1036319173E+01   0.0000000000E+00   0.9818451637E+00   0.2250000000E-02   0.0000000000E+00  -0.1122750000E-02   0.3406917266E-01   0.0000000000E+00  -0.1703208633E-01   0.2375000003E+01   0.4674340131E-11   0.4674073659E-11  -0.5363871578E-16   0.2031408424E-15   0.4191818380E-15   0.3631917271E-01  -0.1815483636E-01  -0.1815483636E-01   0.8848833975E-16  -0.8748754680E-16   0.9140867539E-17   0.2375000003E+01
   0.1036319173E+01   0.9818451637E+00   0.9818451637E+00   0.2250000000E-02  -0.1122750000E-02  -0.1122750000E-02   0.3406917266E-01  -0.1703208633E-01  -0.1703208633E-01   0.2375000003E+01   0.2834625397E-11   0.2835174335E-11  -0.7058024596E-15   0.1003427028E-14  -0.6317492447E-15   0.3631917271E-01  -0.1815483635E-01  -0.1815483635E-01   0.1197763794E-15   0.6894354227E-16   0.1141587955E-15   0.2375000003E+01
   0.0000000000E+00   0.9818451637E+00   0.9818451637E+00   0.0000000000E+00  -0.1122750000E-02  -0.1122750000E-02   0.0000000000E+00  -0.1703208633E-01  -0.1703208633E-01   0.2375000003E+01   0.9330176400E-11   0.9331587050E-11   0.5919918177E-15  -0.1695519803E-14  -0.7248361830E-15   0.3631917271E-01  -0.1815483635E-01  -0.1815483635E-01   0.1608386915E-15  -0.2219329571E-15  -0.8937427314E-16   0.2375000003E+01
   0.2072638345E+01   0.0000000000E+00  -0.2708922413E-15   0.4500000000E-02   0.0000000000E+00  -0.3801206623E-17   0.6813834532E-01   0.0000000000E+00  -0.2670910346E-15   0.2375000004E+01  -0.4181594296E-11  -0.4181114650E-11  -0.1570068758E-15  -0.6239772633E-15   0.2382865932E-15   0.3631917271E-01  -0.1815483636E-01  -0.1815483636E-01   0.3145784160E-15   0.1111792997E-15  -0.1494260754E-16   0.2375000004E+01
   0.2072638345E+01   0.9818451637E+00  -0.2786779854E-15   0.4500000000E-02  -0.1122750000E-02  -0.3665171937E-17   0.6813834532E-01  -0.1703208633E-01  -0.2750128135E-15   0.2375000003E+01   0.2314288450E-11   0.2312333114E-11  -0.3977517762E-15   0.1201488286E-14  -0.2740261990E-15   0.3631917271E-01  -0.1815483635E-01  -0.1815483635E-01   0.3131717368E-15  -0.3100999731E-15   0.2572175649E-16   0.2375000003E+01
   0.2072638345E+01   0.0000000000E+00   0.9818451637E+00   0.4500000000E-02   0.0000000000E+00  -0.1122750000E-02   0.6813834532E-01   0.0000000000E+00  -0.1703208633E-01   0.2375000003E+01   0.5650392660E-11   0.5651614003E-11   0.6128500903E-16   0.1401576053E-14  -0.3484207543E-16   0.3631917271E-01  -0.1815483635E-01  -0.1815483635E-01  -0.7973362054E-16   0.2198163669E-15   0.1463944131E-16   0.2375000003E+01
   0.2072638345E+01   0.9818451637E+00   0.9818451637E+00   0.4500000000E-02  -0.1122750000E-02  -0.1122750000E-02   0.6813834532E-01  -0.1703208633E-01  -0.1703208633E-01   0.2375000003E+01  -0.1192141382E-11  -0.1192048854E-11   0.1017747577E-15  -0.1407272615E-14  -0.2010117180E-15   0.3631917270E-01  -0.1815483635E-01  -0.1815483635E-01  -0.1941149690E-15  -0.1616452030E-15   0.6387072009E-16   0.2375000003E+01
     1     2     3     4     5     6     7     8
     2     9    10     3     6    11    12     7
 VARIABLES = X,Y,Z,DU1,DU2,DU3,U1,U2,U3,S11,S22,S33,S12,S13,S23,E11,E22,E33,E12,E13,E23,SMISES
 ZONE, T="0.8600D+01" F=FEPOINT, I=   12 J=    2 ET=BRICK
   0.0000000000E+00   0.0000000000E+00   0.0000000000E+00   0.0000000000E+00   0.0000000000E+00   0.0000000000E+00   0.0000000000E+00   0.0000000000E+00   0.0000000000E+00   0.3500000005E+01  -0.5004733506E-11  -0.5002634775E-11  -0.1122026697E-16  -0.1303720632E-14   0.5468588226E-15   0.3856917272E-01  -0.1927758636E-01  -0.1927758636E-01   0.2190246462E-18  -0.1238197068E-15  -0.1267380639E-16   0.3500000005E+01
   0.1038569173E+01   0.0000000000E+00  -0.8614156398E-16   0.2250000000E-02   0.0000000000E+00  -0.2019208426E-17   0.3631917266E-01   0.0000000000E+00  -0.8412235555E-16   0.3500000005E+01  -0.3441869766E-11  -0.3442563121E-11  -0.6694010831E-15   0.2808127264E-15   0.3345689127E-15   0.3856917272E-01  -0.1927758636E-01  -0.1927758636E-01  -0.3222104964E-16  -0.4387590908E-16  -0.5279602618E-17   0.3500000005E+01
   0.1038569173E+01   0.9807224137E+00  -0.8618751652E-16   0.2250000000E-02  -0.1122750000E-02  -0.2802742893E-17   0.3631917266E-01  -0.1815483633E-01  -0.8338477363E-16   0.3500000005E+01  -0.4130312602E-11  -0.4129929468E-11  -0.3829453174E-16   0.4880722765E-15  -0.1738579357E-15   0.3856917271E-01  -0.1927758636E-01  -0.1927758636E-01  -0.3681429057E-16   0.5992286329E-16   0.1107608949E-15   0.3500000005E+01
   0.0000000000E+00   0.9807224137E+00  -0.6989810289E-17   0.0000000000E+00  -0.1122750000E-02  -0.2679637016E-18   0.0000000000E+00  -0.1815483633E-01  -0.6721846587E-17   0.3500000005E+01  -0.1218876371E-10  -0.1219197611E-10  -0.2217823218E-17  -0.9097646430E-15  -0.3562418478E-15   0.3856917271E-01  -0.1927758636E-01  -0.1927758636E-01  -0.3480058093E-16  -0.8886764406E-16  -0.3439112800E-16   0.3500000005E+01
   0.0000000000E+00   0.0000000000E+00   0.9807224137E+00   0.0000000000E+00   0.0000000000E+00  -0.1122750000E-02   0.0000000000E+00   0.0000000000E+00  -0.1815483633E-01   0.3500000005E+01   0.4826412420E-11   0.4826886987E-11  -0.1490998324E-15  -0.7054544034E-15   0.5347772274E-15   0.3856917271E-01  -0.1927758636E-01  -0.1927758636E-01  -0.3489951843E-17  -0.2933699704E-15  -0.6128616875E-16   0.3500000005E+01
   0.1038569173E+01   0.0000000000E+00   0.9807224137E+00   0.2250000000E-02   0.0000000000E+00  -0.1122750000E-02   0.3631917266E-01   0.0000000000E+00  -0.1815483633E-01   0.3500000005E+01   0.4862424990E-11   0.4862226181E-11   0.5004899363E-16  -0.1390216416E-15   0.2784423952E-15   0.3856917271E-01  -0.1927758636E-01  -0.1927758636E-01   0.1068728195E-15  -0.1016130215E-15   0.2545809033E-16   0.3500000005E+01
   0.1038569173E+01   0.9807224137E+00   0.9807224137E+00   0.2250000000E-02  -0.1122750000E-02  -0.1122750000E-02   0.3631917266E-01  -0.1815483633E-01  -0.1815483633E-01   0.3500000005E+01   0.2958975824E-11   0.2959333195E-11  -0.7342187000E-15   0.1572012738E-14  -0.6831513679E-15   0.3856917271E-01  -0.1927758635E-01  -0.1927758635E-01   0.1053578308E-15   0.8048662591E-16   0.1268376016E-15   0.3500000005E+01
   0.0000000000E+00   0.9807224137E+00   0.9807224137E+00   0.0000000000E+00  -0.1122750000E-02  -0.1122750000E-02   0.0000000000E+00  -0.1815483633E-01  -0.1815483633E-01   0.3500000005E+01   0.9609302470E-11   0.9610664681E-11   0.6163546524E-15  -0.2061330976E-14  -0.4276513184E-15   0.3856917271E-01  -0.1927758635E-01  -0.1927758635E-01   0.1591088193E-15  -0.2257440936E-15  -0.8331256757E-16   0.3500000005E+01
   0.2077138345E+01   0.0000000000E+00  -0.2778143709E-15   0.4500000000E-02   0.0000000000E+00  -0.6922129624E-17   0.7263834532E-01   0.0000000000E+00  -0.2708922413E-15   0.3500000005E+01  -0.4808879133E-11  -0.4808917048E-11   0.6538507281E-15  -0.1589693446E-15   0.1741494573E-15   0.3856917272E-01  -0.1927758636E-01  -0.1927758636E-01   0.3477729692E-15   0.2020590271E-15  -0.1544807511E-16   0.3500000005E+01
   0.2077138345E+01   0.9807224137E+00  -0.2859644898E-15   0.4500000000E-02  -0.1122750000E-02  -0.7286504321E-17   0.7263834532E-01  -0.1815483633E-01  -0.2786779854E-15   0.3500000005E+01   0.2732254596E-11   0.2730646570E-11   0.1826421715E-15   0.8264930202E-15  -0.1777852696E-15   0.3856917271E-01  -0.1927758636E-01  -0.1927758636E-01   0.3380395672E-15  -0.3012322426E-15   0.2033646156E-16   0.3500000005E+01
   0.2077138345E+01   0.0000000000E+00   0.9807224137E+00   0.4500000000E-02   0.0000000000E+00  -0.1122750000E-02   0.7263834532E-01   0.0000000000E+00  -0.1815483633E-01   0.3500000005E+01   0.5624349424E-11   0.5625218013E-11  -0.3841498892E-16   0.1881621126E-14   0.2260934476E-15   0.3856917271E-01  -0.1927758636E-01  -0.1927758636E-01  -0.1152902180E-15   0.2590171935E-15   0.1132654488E-16   0.3500000005E+01
   0.2077138345E+01   0.9807224137E+00   0.9807224137E+00   0.4500000000E-02  -0.1122750000E-02  -0.1122750000E-02   0.7263834532E-01  -0.1815483633E-01  -0.1815483633E-01   0.3500000004E+01  -0.1174914665E-11  -0.1174779144E-11   0.2367217388E-16  -0.1884474026E-14   0.1611994881E-15   0.3856917271E-01  -0.1927758635E-01  -0.1927758635E-01  -0.2157130683E-15  -0.2644274673E-15   0.7739265240E-16   0.3500000004E+01
     1     2     3     4     5     6     7     8
     2     9    10     3     6    11    12     7
 VARIABLES = X,Y,Z,DU1,DU2,DU3,U1,U2,U3,S11,S22,S33,S12,S13,S23,E11,E22,E33,E12,E13,E23,SMISES
 ZONE, T="0.8650D+01" F=FEPOINT, I=   12 J=    2 ET=BRICK
   0.0000000000E+00   0.0000000000E+00   0.0000000000E+00   0.0000000000E+00   0.0000000000E+00   0.0000000000E+00   0.0000000000E+00   0.0000000000E+00   0.0000000000E+00   0.4625000007E+01  -0.5259303840E-11  -0.5256669587E-11  -0.3681610196E-16  -0.1148387711E-14   0.4863449776E-15   0.4081917272E-01  -0.2040033636E-01  -0.2040033636E-01   0.1391929354E-17  -0.9285637670E-16  -0.1826838334E-16   0.4625000007E+01
   0.1040819173E+01   0.0000000000E+00  -0.8752205770E-16   0.2250000000E-02   0.0000000000E+00  -0.1380493720E-17   0.3856917266E-01   0.0000000000E+00  -0.8614156398E-16   0.4625000007E+01  -0.3983408218E-11  -0.3984525344E-11  -0.2304674245E-15   0.1855489988E-16  -0.3708587811E-16   0.4081917272E-01  -0.2040033636E-01  -0.2040033636E-01  -0.2644699935E-16  -0.8484950947E-16  -0.1485434001E-17   0.4625000007E+01
   0.1040819173E+01   0.9795996637E+00  -0.8982746426E-16   0.2250000000E-02  -0.1122750000E-02  -0.3639947739E-17   0.3856917266E-01  -0.1927758633E-01  -0.8618751652E-16   0.4625000007E+01  -0.3914595713E-11  -0.3914136750E-11   0.2671075476E-15   0.3212040917E-15  -0.5708756087E-15   0.4081917272E-01  -0.2040033636E-01  -0.2040033636E-01  -0.4103868313E-16   0.1006450791E-15   0.1069435560E-15   0.4625000007E+01
   0.0000000000E+00   0.9795996637E+00  -0.7393145599E-17   0.0000000000E+00  -0.1122750000E-02  -0.4033353098E-18   0.0000000000E+00  -0.1927758633E-01  -0.6989810289E-17   0.4625000007E+01  -0.1251391655E-10  -0.1251655478E-10   0.5864797079E-15  -0.1321654725E-14   0.6998820160E-16   0.4081917272E-01  -0.2040033636E-01  -0.2040033636E-01  -0.3077270509E-16  -0.1111775084E-15  -0.2810103202E-16   0.4625000007E+01
   0.0000000000E+00   0.0000000000E+00   0.9795996637E+00   0.0000000000E+00   0.0000000000E+00  -0.1122750000E-02   0.0000000000E+00   0.0000000000E+00  -0.1927758633E-01   0.4625000007E+01   0.4995898653E-11   0.4996168772E-11  -0.1390731077E-15  -0.7216997092E-15   0.3248324708E-15   0.4081917272E-01  -0.2040033636E-01  -0.2040033636E-01   0.4505284523E-18  -0.3164416221E-15  -0.5652407261E-16   0.4625000007E+01
   0.1040819173E+01   0.0000000000E+00   0.9795996637E+00   0.2250000000E-02   0.0000000000E+00  -0.1122750000E-02   0.3856917266E-01   0.0000000000E+00  -0.1927758633E-01   0.4625000007E+01   0.5205455264E-11   0.5204825782E-11   0.3121770707E-15  -0.3564224743E-15   0.1943664399E-15   0.4081917272E-01  -0.2040033636E-01  -0.2040033636E-01   0.9624023784E-16  -0.8810754406E-16   0.4022519799E-17   0.4625000007E+01
   0.1040819173E+01   0.9795996637E+00   0.9795996637E+00   0.2250000000E-02  -0.1122750000E-02  -0.1122750000E-02   0.3856917266E-01  -0.1927758633E-01  -0.1927758633E-01   0.4625000006E+01   0.3300957448E-11   0.3301505657E-11  -0.6032639772E-15   0.1519112198E-14  -0.7564524577E-15   0.4081917271E-01  -0.2040033636E-01  -0.2040033636E-01   0.1237443260E-15   0.6406698252E-16   0.1221775039E-15   0.4625000006E+01
   0.0000000000E+00   0.9795996637E+00   0.9795996637E+00   0.0000000000E+00  -0.1122750000E-02  -0.1122750000E-02   0.0000000000E+00  -0.1927758633E-01  -0.1927758633E-01   0.4625000006E+01   0.9926064572E-11   0.9926411979E-11   0.4722513425E-15  -0.2025859909E-14  -0.1882512350E-15   0.4081917271E-01  -0.2040033636E-01  -0.2040033636E-01   0.1563093277E-15  -0.2091218227E-15  -0.8778209979E-16   0.4625000006E+01
   0.2081638345E+01   0.0000000000E+00  -0.2891029281E-15   0.4500000000E-02   0.0000000000E+00  -0.1128855726E-16   0.7713834532E-01   0.0000000000E+00  -0.2778143709E-15   0.4625000007E+01  -0.6091367291E-11  -0.6090212980E-11   0.3094244831E-14   0.1460117769E-14   0.2478995884E-15   0.4081917272E-01  -0.2040033636E-01  -0.2040033636E-01   0.3578203253E-15   0.2751484002E-15  -0.1287802653E-16   0.4625000007E+01
   0.2081638345E+01   0.9795996637E+00  -0.2967272546E-15   0.4500000000E-02  -0.1122750000E-02  -0.1076276479E-16   0.7713834532E-01  -0.1927758633E-01  -0.2859644898E-15   0.4625000006E+01   0.2709298729E-11   0.2708755040E-11   0.1679176059E-14  -0.5085415585E-16   0.3416669302E-15   0.4081917272E-01  -0.2040033636E-01  -0.2040033636E-01   0.3447293912E-15  -0.3727303492E-15   0.1932442848E-16   0.4625000006E+01
   0.2081638345E+01   0.0000000000E+00   0.9795996637E+00   0.4500000000E-02   0.0000000000E+00  -0.1122750000E-02   0.7713834532E-01   0.0000000000E+00  -0.1927758633E-01   0.4625000006E+01   0.6229353486E-11   0.6230385887E-11  -0.4643262925E-15   0.3735825841E-14   0.3304791670E-15   0.4081917272E-01  -0.2040033636E-01  -0.2040033636E-01  -0.1122220797E-15   0.2701315904E-15   0.2435007253E-16   0.4625000006E+01
   0.2081638345E+01   0.9795996637E+00   0.9795996637E+00   0.4500000000E-02  -0.1122750000E-02  -0.1122750000E-02   0.7713834532E-01  -0.1927758633E-01  -0.1927758633E-01   0.4625000006E+01  -0.1042537116E-11  -0.1042426627E-11  -0.6140084578E-15  -0.2578672769E-14   0.7035439002E-15   0.4081917271E-01  -0.2040033636E-01  -0.2040033636E-01  -0.2335110044E-15  -0.1255309815E-15   0.7926128121E-16   0.4625000006E+01
     1     2     3     4     5     6     7     8
     2     9    10     3     6    11    12     7
 VARIABLES = X,Y,Z,DU1,DU2,DU3,U1,U2,U3,S11,S22,S33,S12,S13,S23,E11,E22,E33,E12,E13,E23,SMISES
 ZONE, T="0.8700D+01" F=FEPOINT, I=   12 J=    2 ET=BRICK
   0.0000000000E+00   0.0000000000E+00   0.0000000000E+00   0.0000000000E+00   0.0000000000E+00   0.0000000000E+00   0.0000000000E+00   0.0000000000E+00   0.0000000000E+00   0.5750000009E+01  -0.5340664564E-11  -0.5337936885E-11  -0.4851656936E-16  -0.1731464341E-14   0.6172251871E-15   0.4306917273E-01  -0.2152308636E-01  -0.2152308636E-01   0.3977794115E-17  -0.1254751842E-15  -0.1300326933E-16   0.5750000009E+01
   0.1043069173E+01   0.0000000000E+00  -0.9027599527E-16   0.2250000000E-02   0.0000000000E+00  -0.2753937573E-17   0.4081917266E-01   0.0000000000E+00  -0.8752205770E-16   0.5750000009E+01  -0.3844796086E-11  -0.3845645086E-11  -0.5028514267E-15   0.2314993575E-15   0.1195199622E-15   0.4306917272E-01  -0.2152308636E-01  -0.2152308636E-01  -0.3848409525E-16  -0.5032596364E-16  -0.3380061362E-17   0.5750000009E+01
   0.1043069173E+01   0.9784769137E+00  -0.9150177128E-16   0.2250000000E-02  -0.1122750000E-02  -0.1674307020E-17   0.4081917266E-01  -0.2040033633E-01  -0.8982746426E-16   0.5750000008E+01  -0.4099747262E-11  -0.4099308617E-11  -0.1285996470E-16   0.4118277663E-15  -0.2148424452E-15   0.4306917272E-01  -0.2152308636E-01  -0.2152308636E-01  -0.5916650328E-16   0.9688230477E-16   0.1094493314E-15   0.5750000008E+01
   0.0000000000E+00   0.9784769137E+00  -0.6829257655E-17   0.0000000000E+00  -0.1122750000E-02   0.5638879437E-18   0.0000000000E+00  -0.2040033633E-01  -0.7393145599E-17   0.5750000008E+01  -0.1296115688E-10  -0.1296417898E-10   0.6266751151E-15  -0.1624701328E-14   0.1008124369E-15   0.4306917272E-01  -0.2152308636E-01  -0.2152308636E-01  -0.2671324197E-16  -0.1008135492E-15  -0.3834626056E-16   0.5750000008E+01
   0.0000000000E+00   0.0000000000E+00   0.9784769137E+00   0.0000000000E+00   0.0000000000E+00  -0.1122750000E-02   0.0000000000E+00   0.0000000000E+00  -0.2040033633E-01   0.5750000008E+01   0.5248383778E-11   0.5248760204E-11  -0.1356774143E-15  -0.8946543406E-15   0.1604243361E-15   0.4306917272E-01  -0.2152308636E-01  -0.2152308636E-01   0.5380407778E-18  -0.2982204732E-15  -0.6313600887E-16   0.5750000008E+01
   0.1043069173E+01   0.0000000000E+00   0.9784769137E+00   0.2250000000E-02   0.0000000000E+00  -0.1122750000E-02   0.4081917266E-01   0.0000000000E+00  -0.2040033633E-01   0.5750000008E+01   0.5215617153E-11   0.5214896967E-11   0.1590815834E-15  -0.3913407550E-15   0.1764194362E-15   0.4306917272E-01  -0.2152308636E-01  -0.2152308636E-01   0.1068075233E-15  -0.1019630025E-15  -0.2950252911E-18   0.5750000008E+01
   0.1043069173E+01   0.9784769137E+00   0.9784769137E+00   0.2250000000E-02  -0.1122750000E-02  -0.1122750000E-02   0.4081917266E-01  -0.2040033633E-01  -0.2040033633E-01   0.5750000008E+01   0.3475087448E-11   0.3475711485E-11  -0.7644202076E-15   0.1621238704E-14  -0.7508865847E-15   0.4306917271E-01  -0.2152308636E-01  -0.2152308636E-01   0.1432842813E-15   0.1017680265E-15   0.1222537698E-15   0.5750000008E+01
   0.0000000000E+00   0.9784769137E+00   0.9784769137E+00   0.0000000000E+00  -0.1122750000E-02  -0.1122750000E-02   0.0000000000E+00  -0.2040033633E-01  -0.2040033633E-01   0.5750000008E+01   0.9893544388E-11   0.9893504480E-11   0.6334259603E-15  -0.2062104910E-14  -0.2107243411E-15   0.4306917272E-01  -0.2152308636E-01  -0.2152308636E-01   0.1445411222E-15  -0.2386715911E-15  -0.5302537898E-16   0.5750000008E+01
   0.2086138345E+01   0.0000000000E+00  -0.2929432605E-15   0.4500000000E-02   0.0000000000E+00  -0.3840332327E-17   0.8163834532E-01   0.0000000000E+00  -0.2891029281E-15   0.5750000009E+01  -0.6037301153E-11  -0.6036280905E-11   0.2305991748E-14   0.5099266290E-15  -0.4779135435E-16   0.4306917272E-01  -0.2152308636E-01  -0.2152308636E-01   0.3511975043E-15   0.1505594452E-15  -0.1990885958E-16   0.5750000009E+01
   0.2086138345E+01   0.9784769137E+00  -0.3024245860E-15   0.4500000000E-02  -0.1122750000E-02  -0.5697331397E-17   0.8163834532E-01  -0.2040033633E-01  -0.2967272546E-15   0.5750000008E+01   0.2645163694E-11   0.2644630164E-11   0.8665204861E-15   0.7186954046E-15  -0.1120841459E-15   0.4306917272E-01  -0.2152308636E-01  -0.2152308636E-01   0.3509127173E-15  -0.2534378089E-15   0.3199725389E-16   0.5750000008E+01
   0.2086138345E+01   0.0000000000E+00   0.9784769137E+00   0.4500000000E-02   0.0000000000E+00  -0.1122750000E-02   0.8163834532E-01   0.0000000000E+00  -0.2040033633E-01   0.5750000008E+01   0.5638294146E-11   0.5639371898E-11   0.4776018361E-15   0.2795775244E-14   0.2099783051E-15   0.4306917272E-01  -0.2152308636E-01  -0.2152308636E-01  -0.9053833673E-16   0.3413780457E-15   0.2014956024E-16   0.5750000008E+01
   0.2086138345E+01   0.9784769137E+00   0.9784769137E+00   0.4500000000E-02  -0.1122750000E-02  -0.1122750000E-02   0.8163834532E-01  -0.2040033633E-01  -0.2040033633E-01   0.5750000007E+01  -0.8583621211E-12  -0.8582895475E-12   0.9106948055E-16  -0.2006035967E-14   0.6298113552E-15   0.4306917271E-01  -0.2152308636E-01  -0.2152308636E-01  -0.1961274950E-15  -0.2385398338E-15   0.6082948395E-16   0.5750000007E+01
     1     2     3     4     5     6     7     8
     2     9    10     3     6    11    12     7
 VARIABLES = X,Y,Z,DU1,DU2,DU3,U1,U2,U3,S11,S22,S33,S12,S13,S23,E11,E22,E33,E12,E13,E23,SMISES
 ZONE, T="0.8750D+01" F=FEPOINT, I=   12 J=    2 ET=BRICK
   0.0000000000E+00   0.0000000000E+00   0.0000000000E+00   0.0000000000E+00   0.0000000000E+00   0.0000000000E+00   0.0000000000E+00   0.0000000000E+00   0.0000000000E+00   0.6875000011E+01  -0.4355496241E-11  -0.4353779381E-11  -0.6144571764E-16  -0.8650746474E-15   0.8857471534E-15   0.4531917273E-01  -0.2264583636E-01  -0.2264583636E-01   0.3015593049E-17  -0.1110806340E-15  -0.1277452741E-16   0.6875000011E+01
   0.1045319173E+01   0.0000000000E+00  -0.8280115252E-16   0.2250000000E-02   0.0000000000E+00   0.7474842752E-17   0.4306917266E-01   0.0000000000E+00  -0.9027599527E-16   0.6875000011E+01  -0.3122306581E-11  -0.3123601129E-11  -0.9931854984E-15  -0.5349675753E-15   0.4881747581E-15   0.4531917273E-01  -0.2264583636E-01  -0.2264583636E-01  -0.3845391089E-16  -0.5579485386E-16   0.1228906391E-17   0.6875000011E+01
   0.1045319173E+01   0.9773541637E+00  -0.8185738737E-16   0.2250000000E-02  -0.1122750000E-02   0.9644383916E-17   0.4306917266E-01  -0.2152308633E-01  -0.9150177128E-16   0.6875000010E+01  -0.3830676262E-11  -0.3830394721E-11  -0.4100866984E-15   0.5030465837E-15  -0.3218267956E-15   0.4531917272E-01  -0.2264583636E-01  -0.2264583636E-01  -0.5930673374E-16   0.9641982005E-16   0.1219010919E-15   0.6875000010E+01
   0.0000000000E+00   0.9773541637E+00  -0.5208208622E-17   0.0000000000E+00  -0.1122750000E-02   0.1621049032E-17   0.0000000000E+00  -0.2152308633E-01  -0.6829257655E-17   0.6875000010E+01  -0.1215003877E-10  -0.1215350516E-10   0.4380608775E-15  -0.7001120549E-15  -0.1956813362E-15   0.4531917272E-01  -0.2264583636E-01  -0.2264583636E-01  -0.3068438551E-16  -0.1061028695E-15  -0.5197937621E-16   0.6875000010E+01
   0.0000000000E+00   0.0000000000E+00   0.9773541637E+00   0.0000000000E+00   0.0000000000E+00  -0.1122750000E-02   0.0000000000E+00   0.0000000000E+00  -0.2152308633E-01   0.6875000010E+01   0.4313545297E-11   0.4314403727E-11  -0.8830807464E-16  -0.1173284553E-15   0.5022742813E-15   0.4531917272E-01  -0.2264583636E-01  -0.2264583636E-01  -0.1106908096E-17  -0.2885386077E-15  -0.4234774962E-16   0.6875000010E+01
   0.1045319173E+01   0.0000000000E+00   0.9773541637E+00   0.2250000000E-02   0.0000000000E+00  -0.1122750000E-02   0.4306917266E-01   0.0000000000E+00  -0.2152308633E-01   0.6875000010E+01   0.4739805555E-11   0.4740537020E-11   0.3615380051E-15  -0.1082209357E-14   0.3882462521E-15   0.4531917272E-01  -0.2264583636E-01  -0.2264583636E-01   0.1016588875E-15  -0.9495403263E-16  -0.7814801553E-17   0.6875000010E+01
   0.1045319173E+01   0.9773541637E+00   0.9773541637E+00   0.2250000000E-02  -0.1122750000E-02  -0.1122750000E-02   0.4306917266E-01  -0.2152308633E-01  -0.2152308633E-01   0.6875000009E+01   0.2764658356E-11   0.2765324490E-11  -0.2460608906E-15   0.1513533929E-14  -0.1006334108E-14   0.4531917272E-01  -0.2264583636E-01  -0.2264583636E-01   0.1155937679E-15   0.5144191274E-16   0.1085020438E-15   0.6875000009E+01
   0.0000000000E+00   0.9773541637E+00   0.9773541637E+00   0.0000000000E+00  -0.1122750000E-02  -0.1122750000E-02   0.0000000000E+00  -0.2152308633E-01  -0.2152308633E-01   0.6875000009E+01   0.9323581771E-11   0.9324805934E-11   0.5272016525E-15  -0.1349390257E-14  -0.3803175502E-15   0.4531917272E-01  -0.2264583636E-01  -0.2264583636E-01   0.1439266958E-15  -0.2174394973E-15  -0.8578115746E-16   0.6875000009E+01
   0.2090638345E+01   0.0000000000E+00  -0.2681646522E-15   0.4500000000E-02   0.0000000000E+00   0.2477860829E-16   0.8613834532E-01   0.0000000000E+00  -0.2929432605E-15   0.6875000010E+01  -0.5190828810E-11  -0.5191213402E-11   0.8414666672E-15  -0.2393814964E-15   0.2217109279E-15   0.4531917273E-01  -0.2264583636E-01  -0.2264583636E-01   0.3342187360E-15   0.1932842049E-15  -0.2170516422E-16   0.6875000010E+01
   0.2090638345E+01   0.9773541637E+00  -0.2759994869E-15   0.4500000000E-02  -0.1122750000E-02   0.2642509908E-16   0.8613834532E-01  -0.2152308633E-01  -0.3024245860E-15   0.6875000010E+01   0.2763464356E-11   0.2761471008E-11  -0.1935355623E-16   0.7554231911E-15  -0.3545278023E-15   0.4531917272E-01  -0.2264583636E-01  -0.2264583636E-01   0.3513470057E-15  -0.2479330511E-15   0.3115167391E-16   0.6875000010E+01
   0.2090638345E+01   0.0000000000E+00   0.9773541637E+00   0.4500000000E-02   0.0000000000E+00  -0.1122750000E-02   0.8613834532E-01   0.0000000000E+00  -0.2152308633E-01   0.6875000010E+01   0.5957497098E-11   0.5958740120E-11  -0.1371518029E-15   0.2907946584E-14   0.1973665100E-15   0.4531917272E-01  -0.2264583636E-01  -0.2264583636E-01  -0.8081722337E-16   0.3245741756E-15   0.2630957437E-16   0.6875000010E+01
   0.2090638345E+01   0.9773541637E+00   0.9773541637E+00   0.4500000000E-02  -0.1122750000E-02  -0.1122750000E-02   0.8613834532E-01  -0.2152308633E-01  -0.2152308633E-01   0.6875000009E+01  -0.1377885130E-11  -0.1377852464E-11  -0.2262474520E-15  -0.1874622481E-14   0.2142627632E-16   0.4531917272E-01  -0.2264583636E-01  -0.2264583636E-01  -0.1890439551E-15  -0.1256710057E-15   0.5510725835E-16   0.6875000009E+01
     1     2     3     4     5     6     7     8
     2     9    10     3     6    11    12     7
 VARIABLES = X,Y,Z,DU1,DU2,DU3,U1,U2,U3,S11,S22,S33,S12,S13,S23,E11,E22,E33,E12,E13,E23,SMISES
 ZONE, T="0.8800D+01" F=FEPOINT, I=   12 J=    2 ET=BRICK
   0.0000000000E+00   0.0000000000E+00   0.0000000000E+00   0.0000000000E+00   0.0000000000E+00   0.0000000000E+00   0.0000000000E+00   0.0000000000E+00   0.0000000000E+00   0.8000000013E+01  -0.4657994501E-11  -0.4658066345E-11  -0.8740330456E-16  -0.6559480197E-15   0.8645468359E-15   0.4756917273E-01  -0.2376858637E-01  -0.2376858637E-01   0.1296404741E-17  -0.1036459197E-15  -0.1175020529E-16   0.8000000013E+01
   0.1047569173E+01   0.0000000000E+00  -0.8040241310E-16   0.2250000000E-02   0.0000000000E+00   0.2398739412E-17   0.4531917266E-01   0.0000000000E+00  -0.8280115252E-16   0.8000000012E+01  -0.2905218433E-11  -0.2906331573E-11   0.5041102398E-15   0.3341803345E-15   0.5459540831E-15   0.4756917273E-01  -0.2376858637E-01  -0.2376858637E-01  -0.3263651045E-16  -0.8094706945E-16   0.5835650904E-17   0.8000000012E+01
   0.1047569173E+01   0.9762314137E+00  -0.7916630471E-16   0.2250000000E-02  -0.1122750000E-02   0.2691082661E-17   0.4531917266E-01  -0.2264583633E-01  -0.8185738737E-16   0.8000000011E+01  -0.3435852142E-11  -0.3435581490E-11   0.7292982862E-15   0.4107637531E-16  -0.5284444540E-15   0.4756917273E-01  -0.2376858636E-01  -0.2376858636E-01  -0.4712974550E-16   0.8566662441E-16   0.9415995189E-16   0.8000000011E+01
   0.0000000000E+00   0.9762314137E+00  -0.5265907912E-17   0.0000000000E+00  -0.1122750000E-02  -0.5769928959E-19   0.0000000000E+00  -0.2264583633E-01  -0.5208208622E-17   0.8000000012E+01  -0.1121777740E-10  -0.1122169332E-10  -0.1899307264E-17  -0.6051989752E-15  -0.8236098727E-15   0.4756917273E-01  -0.2376858636E-01  -0.2376858636E-01  -0.3640779144E-16  -0.8950137582E-16  -0.2336019229E-16   0.8000000012E+01
   0.0000000000E+00   0.0000000000E+00   0.9762314137E+00   0.0000000000E+00   0.0000000000E+00  -0.1122750000E-02   0.0000000000E+00   0.0000000000E+00  -0.2264583633E-01   0.8000000012E+01   0.4002519350E-11   0.4003716291E-11  -0.7693401833E-16   0.1413797287E-15   0.7883761036E-15   0.4756917273E-01  -0.2376858636E-01  -0.2376858636E-01  -0.9198415771E-18  -0.2928217460E-15  -0.4937469602E-16   0.8000000012E+01
   0.1047569173E+01   0.0000000000E+00   0.9762314137E+00   0.2250000000E-02   0.0000000000E+00  -0.1122750000E-02   0.4531917266E-01   0.0000000000E+00  -0.2264583633E-01   0.8000000011E+01   0.4360596553E-11   0.4361560952E-11   0.5683533338E-16  -0.1287613130E-15   0.5507598262E-15   0.4756917273E-01  -0.2376858636E-01  -0.2376858636E-01   0.1156824413E-15  -0.8322404069E-16  -0.1012768394E-17   0.8000000011E+01
   0.1047569173E+01   0.9762314137E+00   0.9762314137E+00   0.2250000000E-02  -0.1122750000E-02  -0.1122750000E-02   0.4531917266E-01  -0.2264583633E-01  -0.2264583633E-01   0.8000000010E+01   0.2508318540E-11   0.2509269133E-11  -0.7519003858E-15   0.7486821351E-15  -0.1127001161E-14   0.4756917272E-01  -0.2376858636E-01  -0.2376858636E-01   0.1113716283E-15   0.7226563995E-16   0.1328740123E-15   0.8000000010E+01
   0.0000000000E+00   0.9762314137E+00   0.9762314137E+00   0.0000000000E+00  -0.1122750000E-02  -0.1122750000E-02   0.0000000000E+00  -0.2264583633E-01  -0.2264583633E-01   0.8000000011E+01   0.8975365815E-11   0.8976569660E-11   0.5233664200E-15  -0.1207511162E-14  -0.7919555761E-15   0.4756917272E-01  -0.2376858636E-01  -0.2376858636E-01   0.1509011799E-15  -0.2229250737E-15  -0.1070604322E-15   0.8000000011E+01
   0.2095138345E+01   0.0000000000E+00  -0.2573692431E-15   0.4500000000E-02   0.0000000000E+00   0.1079540912E-16   0.9063834532E-01   0.0000000000E+00  -0.2681646522E-15   0.8000000012E+01  -0.4523754669E-11  -0.4524473788E-11   0.1490896929E-14  -0.3032430940E-15   0.5881908785E-15   0.4756917273E-01  -0.2376858637E-01  -0.2376858637E-01   0.3417544317E-15   0.2397970471E-15  -0.1971489985E-16   0.8000000012E+01
   0.2095138345E+01   0.9762314137E+00  -0.2629437203E-15   0.4500000000E-02  -0.1122750000E-02   0.1305576652E-16   0.9063834532E-01  -0.2264583633E-01  -0.2759994869E-15   0.8000000011E+01   0.2605386123E-11   0.2603154397E-11   0.2468548396E-15   0.4827153865E-15  -0.2482735325E-15   0.4756917272E-01  -0.2376858636E-01  -0.2376858636E-01   0.3436043473E-15  -0.2876932512E-15   0.2535904129E-16   0.8000000011E+01
   0.2095138345E+01   0.0000000000E+00   0.9762314137E+00   0.4500000000E-02   0.0000000000E+00  -0.1122750000E-02   0.9063834532E-01   0.0000000000E+00  -0.2264583633E-01   0.8000000011E+01   0.5274815821E-11   0.5276852332E-11  -0.2275043664E-15   0.2590589397E-14   0.6612899406E-15   0.4756917272E-01  -0.2376858636E-01  -0.2376858636E-01  -0.8248307778E-16   0.2582909712E-15   0.3874216817E-16   0.8000000011E+01
   0.2095138345E+01   0.9762314137E+00   0.9762314137E+00   0.4500000000E-02  -0.1122750000E-02  -0.1122750000E-02   0.9063834532E-01  -0.2264583633E-01  -0.2264583633E-01   0.8000000010E+01  -0.1721195151E-11  -0.1720394759E-11  -0.5442559237E-15  -0.2597005149E-14   0.2316356046E-15   0.4756917272E-01  -0.2376858636E-01  -0.2376858636E-01  -0.1932454880E-15  -0.1159369799E-15   0.4665446876E-16   0.8000000010E+01
     1     2     3     4     5     6     7     8
     2     9    10     3     6    11    12     7
 VARIABLES = X,Y,Z,DU1,DU2,DU3,U1,U2,U3,S11,S22,S33,S12,S13,S23,E11,E22,E33,E12,E13,E23,SMISES
 ZONE, T="0.8850D+01" F=FEPOINT, I=   12 J=    2 ET=BRICK
   0.0000000000E+00   0.0000000000E+00   0.0000000000E+00   0.0000000000E+00   0.0000000000E+00   0.0000000000E+00   0.0000000000E+00   0.0000000000E+00   0.0000000000E+00   0.9125000014E+01  -0.5490491241E-11  -0.5488397760E-11  -0.8413173720E-16  -0.2009213171E-14   0.9187470934E-16   0.4981917274E-01  -0.2489133637E-01  -0.2489133637E-01   0.6953976458E-17  -0.1389515400E-15  -0.2162181118E-16   0.9125000014E+01
   0.1049819173E+01   0.0000000000E+00  -0.9216138784E-16   0.2250000000E-02   0.0000000000E+00  -0.1175897474E-16   0.4756917266E-01   0.0000000000E+00  -0.8040241310E-16   0.9125000014E+01  -0.3869037491E-11  -0.3869340809E-11  -0.1155138202E-14  -0.3295685892E-15   0.5187505056E-16   0.4981917274E-01  -0.2489133637E-01  -0.2489133637E-01  -0.6418515709E-16  -0.5881083093E-16  -0.8821195913E-17   0.9125000014E+01
   0.1049819173E+01   0.9751086637E+00  -0.9375683704E-16   0.2250000000E-02  -0.1122750000E-02  -0.1459053233E-16   0.4756917266E-01  -0.2376858633E-01  -0.7916630471E-16   0.9125000013E+01  -0.4315870911E-11  -0.4314457369E-11  -0.3991266179E-15   0.1054725006E-14  -0.5031563391E-16   0.4981917273E-01  -0.2489133636E-01  -0.2489133636E-01  -0.6330679802E-16   0.7189859628E-16   0.1157876458E-15   0.9125000013E+01
   0.0000000000E+00   0.9751086637E+00  -0.1000020844E-16   0.0000000000E+00  -0.1122750000E-02  -0.4734300531E-17   0.0000000000E+00  -0.2376858633E-01  -0.5265907912E-17   0.9125000013E+01  -0.1313671497E-10  -0.1313829903E-10   0.9208392037E-15  -0.1443169335E-14  -0.8309087665E-16   0.4981917273E-01  -0.2489133637E-01  -0.2489133637E-01  -0.3243523496E-16  -0.8771548788E-16  -0.2552122294E-16   0.9125000013E+01
   0.0000000000E+00   0.0000000000E+00   0.9751086637E+00   0.0000000000E+00   0.0000000000E+00  -0.1122750000E-02   0.0000000000E+00   0.0000000000E+00  -0.2376858633E-01   0.9125000013E+01   0.5182602657E-11   0.5182932806E-11  -0.8548416617E-16  -0.8730040721E-15   0.3345918374E-15   0.4981917273E-01  -0.2489133637E-01  -0.2489133637E-01  -0.9441002099E-17  -0.3025484841E-15  -0.5171596270E-16   0.9125000013E+01
   0.1049819173E+01   0.0000000000E+00   0.9751086637E+00   0.2250000000E-02   0.0000000000E+00  -0.1122750000E-02   0.4756917266E-01   0.0000000000E+00  -0.2376858633E-01   0.9125000013E+01   0.5180755509E-11   0.5180029878E-11   0.2112133515E-15  -0.8602942570E-15   0.1592158734E-15   0.4981917273E-01  -0.2489133636E-01  -0.2489133636E-01   0.1154610032E-15  -0.1117081945E-15   0.1019471917E-16   0.9125000013E+01
   0.1049819173E+01   0.9751086637E+00   0.9751086637E+00   0.2250000000E-02  -0.1122750000E-02  -0.1122750000E-02   0.4756917266E-01  -0.2376858633E-01  -0.2376858633E-01   0.9125000012E+01   0.3627861287E-11   0.3627698739E-11  -0.5681469621E-15   0.2032248400E-14  -0.6356396360E-15   0.4981917272E-01  -0.2489133636E-01  -0.2489133636E-01   0.1104995359E-15   0.8984989263E-16   0.1000216633E-15   0.9125000012E+01
   0.0000000000E+00   0.9751086637E+00   0.9751086637E+00   0.0000000000E+00  -0.1122750000E-02  -0.1122750000E-02   0.0000000000E+00  -0.2376858633E-01  -0.2376858633E-01   0.9125000012E+01   0.1026059958E-10   0.1026055894E-10   0.7310925792E-15  -0.2191121073E-14   0.3056228640E-15   0.4981917273E-01  -0.2489133636E-01  -0.2489133636E-01   0.1550540891E-15  -0.2504103314E-15  -0.7366730043E-16   0.9125000012E+01
   0.2099638345E+01   0.0000000000E+00  -0.2965962434E-15   0.4500000000E-02   0.0000000000E+00  -0.3922700035E-16   0.9513834532E-01   0.0000000000E+00  -0.2573692431E-15   0.9125000014E+01  -0.5863063921E-11  -0.5863944128E-11   0.1906730151E-14  -0.1736989144E-16  -0.2703560598E-17   0.4981917273E-01  -0.2489133637E-01  -0.2489133637E-01   0.3764477160E-15   0.1246178825E-15  -0.1725609711E-16   0.9125000014E+01
   0.2099638345E+01   0.9751086637E+00  -0.3058183747E-15   0.4500000000E-02  -0.1122750000E-02  -0.4287465435E-16   0.9513834532E-01  -0.2376858633E-01  -0.2629437203E-15   0.9125000013E+01   0.2627544306E-11   0.2626138735E-11   0.7529353713E-15   0.1010567472E-14  -0.3379602585E-15   0.4981917273E-01  -0.2489133636E-01  -0.2489133636E-01   0.3905727659E-15  -0.1548436859E-15   0.1984861620E-16   0.9125000013E+01
   0.2099638345E+01   0.0000000000E+00   0.9751086637E+00   0.4500000000E-02   0.0000000000E+00  -0.1122750000E-02   0.9513834532E-01   0.0000000000E+00  -0.2376858633E-01   0.9125000013E+01   0.5650266998E-11   0.5651994747E-11   0.7461558209E-15   0.3430542022E-14   0.8537627810E-16   0.4981917273E-01  -0.2489133636E-01  -0.2489133636E-01  -0.6835910676E-16   0.3241065601E-15   0.1712868911E-16   0.9125000013E+01
   0.2099638345E+01   0.9751086637E+00   0.9751086637E+00   0.4500000000E-02  -0.1122750000E-02  -0.1122750000E-02   0.9513834532E-01  -0.2376858633E-01  -0.2376858633E-01   0.9125000012E+01  -0.7423932734E-12  -0.7421900885E-12   0.3373466679E-15  -0.1917269487E-14   0.3041402918E-15   0.4981917272E-01  -0.2489133636E-01  -0.2489133636E-01  -0.1852224138E-15  -0.1323696767E-15   0.7948040273E-16   0.9125000012E+01
     1     2     3     4     5     6     7     8
     2     9    10     3     6    11    12     7
 VARIABLES = X,Y,Z,DU1,DU2,DU3,U1,U2,U3,S11,S22,S33,S12,S13,S23,E11,E22,E33,E12,E13,E23,SMISES
 ZONE, T="0.8900D+01" F=FEPOINT, I=   12 J=    2 ET=BRICK
   0.0000000000E+00   0.0000000000E+00   0.0000000000E+00   0.0000000000E+00   0.0000000000E+00   0.0000000000E+00   0.0000000000E+00   0.0000000000E+00   0.0000000000E+00   0.1024999973E+02   0.1434369166E-06   0.1434369242E-06  -0.5173978088E-16   0.1081038675E-13   0.5229378933E-14   0.5714550805E-01  -0.2855225403E-01  -0.2855225403E-01  -0.6695331390E-18   0.6602927731E-16   0.6491107656E-16   0.1024999959E+02
   0.1057145508E+01   0.0000000000E+00   0.1540388516E-16   0.7326335306E-02   0.0000000000E+00   0.1075652730E-15   0.4981917266E-01   0.0000000000E+00  -0.9216138784E-16   0.1024999973E+02   0.1434318362E-06   0.1434318340E-06   0.1428310884E-15   0.2362346395E-15  -0.1158156639E-14   0.5714550805E-01  -0.2855225403E-01  -0.2855225403E-01  -0.4142430214E-16  -0.6762116971E-16  -0.2056658690E-16   0.1024999959E+02
   0.1057145508E+01   0.9714477460E+00   0.4573214993E-17   0.7326335306E-02  -0.3660917653E-02   0.9833005203E-16   0.4981917266E-01  -0.2489133633E-01  -0.9375683704E-16   0.1024999973E+02   0.1434329350E-06   0.1434329376E-06   0.4159094154E-15  -0.3777428629E-14  -0.1213554637E-14   0.5714550805E-01  -0.2855225402E-01  -0.2855225402E-01  -0.5825444094E-16   0.4988579551E-16   0.1045277386E-15   0.1024999958E+02
   0.0000000000E+00   0.9714477460E+00   0.2924256980E-16   0.0000000000E+00  -0.3660917653E-02   0.3924277824E-16   0.0000000000E+00  -0.2489133633E-01  -0.1000020844E-16   0.1024999973E+02   0.1434262584E-06   0.1434262492E-06  -0.7747476822E-15   0.2680725275E-14   0.2616536248E-14   0.5714550805E-01  -0.2855225402E-01  -0.2855225402E-01  -0.5936197775E-16  -0.5676857193E-16  -0.1878324553E-16   0.1024999958E+02
   0.0000000000E+00   0.0000000000E+00   0.9714477460E+00   0.0000000000E+00   0.0000000000E+00  -0.3660917653E-02   0.0000000000E+00   0.0000000000E+00  -0.2489133633E-01   0.1024999973E+02   0.1434335240E-06   0.1434335334E-06  -0.1262052410E-15   0.5211883440E-14  -0.4352763840E-15   0.5714550805E-01  -0.2855225402E-01  -0.2855225402E-01   0.6706338038E-18  -0.2212927591E-15  -0.5832022050E-16   0.1024999958E+02
   0.1057145508E+01   0.0000000000E+00   0.9714477460E+00   0.7326335306E-02   0.0000000000E+00  -0.3660917653E-02   0.4981917266E-01   0.0000000000E+00  -0.2489133633E-01   0.1024999973E+02   0.1434331832E-06   0.1434331798E-06  -0.1685599198E-14  -0.1130175115E-14   0.5591791156E-15   0.5714550805E-01  -0.2855225402E-01  -0.2855225402E-01   0.6479672995E-16  -0.1039434354E-15  -0.7366303630E-18   0.1024999958E+02
   0.1057145508E+01   0.9714477460E+00   0.9714477460E+00   0.7326335306E-02  -0.3660917653E-02  -0.3660917653E-02   0.4981917266E-01  -0.2489133633E-01  -0.2489133633E-01   0.1024999973E+02   0.1434321981E-06   0.1434321994E-06  -0.6177725048E-15  -0.1249940225E-14   0.2501430898E-15   0.5714550804E-01  -0.2855225402E-01  -0.2855225402E-01   0.1265284060E-15   0.2066733445E-16   0.1242797760E-15   0.1024999958E+02
   0.0000000000E+00   0.9714477460E+00   0.9714477460E+00   0.0000000000E+00  -0.3660917653E-02  -0.3660917653E-02   0.0000000000E+00  -0.2489133633E-01  -0.2489133633E-01   0.1024999973E+02   0.1434331454E-06   0.1434331443E-06   0.2548502837E-14   0.5656599405E-14  -0.3361092763E-14   0.5714550804E-01  -0.2855225402E-01  -0.2855225402E-01   0.1674028905E-15  -0.1143828829E-15  -0.8839984997E-16   0.1024999958E+02
   0.2114291016E+01   0.0000000000E+00  -0.2638069751E-16   0.1465267061E-01   0.0000000000E+00   0.2702155459E-15   0.9963834532E-01   0.0000000000E+00  -0.2965962434E-15   0.1024999973E+02   0.1434286515E-06   0.1434286538E-06   0.3286074051E-14  -0.9961080061E-15   0.4446735775E-15   0.5714550805E-01  -0.2855225403E-01  -0.2855225403E-01   0.3841964560E-15   0.2257240757E-15  -0.1382253327E-16   0.1024999959E+02
   0.2114291016E+01   0.9714477460E+00  -0.3208771565E-16   0.1465267061E-01  -0.3660917653E-02   0.2737306590E-15   0.9963834532E-01  -0.2489133633E-01  -0.3058183747E-15   0.1024999973E+02   0.1434370770E-06   0.1434370775E-06   0.3008989822E-14  -0.9019016702E-15   0.1748135490E-14   0.5714550804E-01  -0.2855225402E-01  -0.2855225402E-01   0.4227061799E-15  -0.2990962633E-15   0.2603164638E-16   0.1024999958E+02
   0.2114291016E+01   0.0000000000E+00   0.9714477460E+00   0.1465267061E-01   0.0000000000E+00  -0.3660917653E-02   0.9963834532E-01   0.0000000000E+00  -0.2489133633E-01   0.1024999973E+02   0.1434378483E-06   0.1434378490E-06  -0.9341583907E-15   0.6109259569E-14   0.3117722503E-15   0.5714550804E-01  -0.2855225402E-01  -0.2855225402E-01  -0.1061468963E-15   0.3435990801E-15   0.3018890685E-16   0.1024999958E+02
   0.2114291016E+01   0.9714477460E+00   0.9714477460E+00   0.1465267061E-01  -0.3660917653E-02  -0.3660917653E-02   0.9963834532E-01  -0.2489133633E-01  -0.2489133633E-01   0.1024999973E+02   0.1434318795E-06   0.1434318789E-06   0.1534789885E-15  -0.2611190432E-14   0.1727656677E-14   0.5714550804E-01  -0.2855225402E-01  -0.2855225402E-01  -0.2066409091E-15  -0.5870066584E-16   0.1078198312E-15   0.1024999958E+02
     1     2     3     4     5     6     7     8
     2     9    10     3     6    11    12     7
 VARIABLES = X,Y,Z,DU1,DU2,DU3,U1,U2,U3,S11,S22,S33,S12,S13,S23,E11,E22,E33,E12,E13,E23,SMISES
 ZONE, T="0.8950D+01" F=FEPOINT, I=   12 J=    2 ET=BRICK
   0.0000000000E+00   0.0000000000E+00   0.0000000000E+00   0.0000000000E+00   0.0000000000E+00   0.0000000000E+00   0.0000000000E+00   0.0000000000E+00   0.0000000000E+00   0.1137499401E+02   0.3005155404E-05   0.3005155408E-05  -0.1509385238E-15   0.2459715423E-15   0.3870495507E-15   0.8391845010E-01  -0.4193647505E-01  -0.4193647505E-01   0.7071900191E-17  -0.5111022956E-16   0.2905452345E-17   0.1137499100E+02
   0.1083918450E+01   0.0000000000E+00  -0.4472248032E-16   0.2677294200E-01   0.0000000000E+00  -0.6012636548E-16   0.5714550796E-01   0.0000000000E+00   0.1540388516E-16   0.1137499401E+02   0.3005156394E-05   0.3005156394E-05   0.1486907690E-14   0.1296815137E-14   0.6515591707E-17   0.8391845010E-01  -0.4193647505E-01  -0.4193647505E-01  -0.2590804938E-16  -0.5654196576E-16  -0.5438684669E-17   0.1137499100E+02
   0.1083918450E+01   0.9580635250E+00  -0.4955653408E-16   0.2677294200E-01  -0.1338422100E-01  -0.5412974907E-16   0.5714550796E-01  -0.2855225398E-01   0.4573214993E-17   0.1137499401E+02   0.3005156242E-05   0.3005156243E-05   0.1511296757E-14   0.9798260323E-16  -0.4615475029E-15   0.8391845009E-01  -0.4193647504E-01  -0.4193647504E-01  -0.1473975598E-16   0.6564762620E-16   0.1053374910E-15   0.1137499100E+02
   0.0000000000E+00   0.9580635250E+00   0.1773762068E-17   0.0000000000E+00  -0.1338422100E-01  -0.2746880773E-16   0.0000000000E+00  -0.2855225398E-01   0.2924256980E-16   0.1137499401E+02   0.3005149673E-05   0.3005149672E-05   0.1888986484E-15   0.7132999003E-16   0.3091813286E-15   0.8391845009E-01  -0.4193647504E-01  -0.4193647504E-01  -0.6122459277E-16  -0.6708044136E-16  -0.1325705241E-16   0.1137499100E+02
   0.0000000000E+00   0.0000000000E+00   0.9580635250E+00   0.0000000000E+00   0.0000000000E+00  -0.1338422100E-01   0.0000000000E+00   0.0000000000E+00  -0.2855225398E-01   0.1137499401E+02   0.3005161947E-05   0.3005161948E-05   0.1045109352E-15  -0.8261361186E-15  -0.2624705562E-15   0.8391845009E-01  -0.4193647504E-01  -0.4193647504E-01  -0.2500910676E-17  -0.2859111206E-15  -0.4557135571E-16   0.1137499100E+02
   0.1083918450E+01   0.0000000000E+00   0.9580635250E+00   0.2677294200E-01   0.0000000000E+00  -0.1338422100E-01   0.5714550796E-01   0.0000000000E+00  -0.2855225398E-01   0.1137499401E+02   0.3005160161E-05   0.3005160161E-05  -0.4533049324E-16   0.1165038490E-14   0.2863372071E-15   0.8391845009E-01  -0.4193647504E-01  -0.4193647504E-01   0.9615410588E-16  -0.8818980014E-16  -0.3241279447E-18   0.1137499100E+02
   0.1083918450E+01   0.9580635250E+00   0.9580635250E+00   0.2677294200E-01  -0.1338422100E-01  -0.1338422100E-01   0.5714550796E-01  -0.2855225398E-01  -0.2855225398E-01   0.1137499400E+02   0.3005158789E-05   0.3005158791E-05  -0.3821126918E-15  -0.4272739048E-15  -0.3472413636E-15   0.8391845008E-01  -0.4193647504E-01  -0.4193647504E-01   0.1000103650E-15   0.5706546162E-16   0.1422598178E-15   0.1137499100E+02
   0.0000000000E+00   0.9580635250E+00   0.9580635250E+00   0.0000000000E+00  -0.1338422100E-01  -0.1338422100E-01   0.0000000000E+00  -0.2855225398E-01  -0.2855225398E-01   0.1137499400E+02   0.3005164764E-05   0.3005164763E-05  -0.6715122393E-15   0.2960023744E-15  -0.7465199227E-15   0.8391845008E-01  -0.4193647504E-01  -0.4193647504E-01   0.1364617394E-15  -0.2011107760E-15  -0.9778680675E-16   0.1137499100E+02
   0.2167836900E+01   0.0000000000E+00  -0.1573053627E-15   0.5354588401E-01   0.0000000000E+00  -0.1309246652E-15   0.1142910159E+00   0.0000000000E+00  -0.2638069751E-16   0.1137499401E+02   0.3005155592E-05   0.3005155592E-05   0.1118079871E-14  -0.9672743127E-15   0.1917885201E-15   0.8391845009E-01  -0.4193647505E-01  -0.4193647505E-01   0.3708012572E-15   0.2273425686E-15  -0.8242099910E-17   0.1137499100E+02
   0.2167836900E+01   0.9580635250E+00  -0.1630855975E-15   0.5354588401E-01  -0.1338422100E-01  -0.1309978818E-15   0.1142910159E+00  -0.2855225398E-01  -0.3208771565E-16   0.1137499401E+02   0.3005159606E-05   0.3005159605E-05   0.1712953072E-15  -0.8418557602E-15   0.3914667012E-15   0.8391845009E-01  -0.4193647504E-01  -0.4193647504E-01   0.3695866037E-15  -0.1720207930E-15   0.3222929240E-16   0.1137499100E+02
   0.2167836900E+01   0.0000000000E+00   0.9580635250E+00   0.5354588401E-01   0.0000000000E+00  -0.1338422100E-01   0.1142910159E+00   0.0000000000E+00  -0.2855225398E-01   0.1137499401E+02   0.3005162294E-05   0.3005162293E-05  -0.1843852810E-14   0.2458439426E-14   0.6560431714E-16   0.8391845009E-01  -0.4193647504E-01  -0.4193647504E-01  -0.1542997492E-15   0.4130750040E-15   0.1910199508E-16   0.1137499100E+02
   0.2167836900E+01   0.9580635250E+00   0.9580635250E+00   0.5354588401E-01  -0.1338422100E-01  -0.1338422100E-01   0.1142910159E+00  -0.2855225398E-01  -0.2855225398E-01   0.1137499400E+02   0.3005155390E-05   0.3005155390E-05  -0.1513425704E-14  -0.2184228477E-14   0.2023988852E-16   0.8391845008E-01  -0.4193647504E-01  -0.4193647504E-01  -0.2444428019E-15  -0.1513476726E-15   0.8600405360E-16   0.1137499100E+02
     1     2     3     4     5     6     7     8
     2     9    10     3     6    11    12     7
 VARIABLES = X,Y,Z,DU1,DU2,DU3,U1,U2,U3,S11,S22,S33,S12,S13,S23,E11,E22,E33,E12,E13,E23,SMISES
 ZONE, T="0.9000D+01" F=FEPOINT, I=   12 J=    2 ET=BRICK
   0.0000000000E+00   0.0000000000E+00   0.0000000000E+00   0.0000000000E+00   0.0000000000E+00   0.0000000000E+00   0.0000000000E+00   0.0000000000E+00   0.0000000000E+00   0.1249998613E+02   0.6944757049E-05   0.6944757048E-05  -0.9025005243E-16   0.4828046980E-15  -0.6394566427E-16   0.1126386977E+00  -0.5629434887E-01  -0.5629434887E-01  -0.3440539777E-17  -0.3624699887E-16   0.2242417960E-17   0.1249997919E+02
   0.1112638698E+01   0.0000000000E+00  -0.2962568878E-16   0.2872024759E-01   0.0000000000E+00   0.1509679153E-16   0.8391844997E-01   0.0000000000E+00  -0.4472248032E-16   0.1249998613E+02   0.6944758076E-05   0.6944758077E-05   0.1891177307E-15  -0.1392610696E-14   0.2654111654E-15   0.1126386977E+00  -0.5629434887E-01  -0.5629434887E-01  -0.1776360550E-16  -0.6330326748E-16   0.7050170670E-17   0.1249997918E+02
   0.1112638698E+01   0.9437056512E+00  -0.2902310755E-16   0.2872024759E-01  -0.1435787380E-01   0.2053342653E-16   0.8391844997E-01  -0.4193647498E-01  -0.4955653408E-16   0.1249998613E+02   0.6944755722E-05   0.6944755722E-05   0.2227210025E-14  -0.2891323571E-14   0.6111587742E-15   0.1126386977E+00  -0.5629434886E-01  -0.5629434886E-01   0.2806768116E-16  -0.2677001361E-16   0.1125166056E-15   0.1249997918E+02
   0.0000000000E+00   0.9437056512E+00  -0.1646591011E-17   0.0000000000E+00  -0.1435787380E-01  -0.3420353079E-17   0.0000000000E+00  -0.4193647498E-01   0.1773762068E-17   0.1249998613E+02   0.6944752248E-05   0.6944752246E-05   0.7171058624E-15   0.1167815404E-14  -0.1135123615E-14   0.1126386977E+00  -0.5629434886E-01  -0.5629434886E-01  -0.3546109198E-16  -0.3827485556E-16  -0.3202518992E-16   0.1249997918E+02
   0.0000000000E+00   0.0000000000E+00   0.9437056512E+00   0.0000000000E+00   0.0000000000E+00  -0.1435787380E-01   0.0000000000E+00   0.0000000000E+00  -0.4193647498E-01   0.1249998613E+02   0.6944758659E-05   0.6944758660E-05  -0.5604925380E-16   0.2360242286E-14   0.2144821278E-15   0.1126386977E+00  -0.5629434886E-01  -0.5629434886E-01   0.8930149552E-17  -0.1876603256E-15  -0.7061659296E-16   0.1249997918E+02
   0.1112638698E+01   0.0000000000E+00   0.9437056512E+00   0.2872024759E-01   0.0000000000E+00  -0.1435787380E-01   0.8391844997E-01   0.0000000000E+00  -0.4193647498E-01   0.1249998613E+02   0.6944757894E-05   0.6944757893E-05  -0.2488719273E-14   0.1449979021E-14   0.2826544843E-15   0.1126386977E+00  -0.5629434886E-01  -0.5629434886E-01   0.7654956494E-17  -0.1011913315E-15   0.1745090144E-16   0.1249997918E+02
   0.1112638698E+01   0.9437056512E+00   0.9437056512E+00   0.2872024759E-01  -0.1435787380E-01  -0.1435787380E-01   0.8391844997E-01  -0.4193647498E-01  -0.4193647498E-01   0.1249998613E+02   0.6944756924E-05   0.6944756925E-05  -0.5189594490E-15  -0.2002316823E-14  -0.1697320345E-15   0.1126386977E+00  -0.5629434885E-01  -0.5629434885E-01   0.7788519160E-16   0.4867636811E-16   0.1441020127E-15   0.1249997918E+02
   0.0000000000E+00   0.9437056512E+00   0.9437056512E+00   0.0000000000E+00  -0.1435787380E-01  -0.1435787380E-01   0.0000000000E+00  -0.4193647498E-01  -0.4193647498E-01   0.1249998613E+02   0.6944757205E-05   0.6944757205E-05   0.2071601913E-14   0.2702722235E-14  -0.5801201479E-15   0.1126386977E+00  -0.5629434886E-01  -0.5629434886E-01   0.1796091152E-15  -0.1361394292E-15  -0.9239616393E-16   0.1249997918E+02
   0.2225277395E+01   0.0000000000E+00  -0.9069999579E-16   0.5744049519E-01   0.0000000000E+00   0.6660536694E-16   0.1678368999E+00   0.0000000000E+00  -0.1573053627E-15   0.1249998613E+02   0.6944758482E-05   0.6944758482E-05  -0.4253022907E-14  -0.4113308582E-14  -0.2847027804E-15   0.1126386977E+00  -0.5629434887E-01  -0.5629434887E-01   0.2148205810E-15   0.2888011756E-15  -0.3273097192E-16   0.1249997918E+02
   0.2225277395E+01   0.9437056512E+00  -0.1019323869E-15   0.5744049519E-01  -0.1435787380E-01   0.6115321058E-16   0.1678368999E+00  -0.4193647498E-01  -0.1630855975E-15   0.1249998613E+02   0.6944759755E-05   0.6944759755E-05  -0.1493742502E-14   0.8606167991E-15  -0.1093333269E-14   0.1126386977E+00  -0.5629434886E-01  -0.5629434886E-01   0.2994040546E-15  -0.4121774808E-15   0.5057519952E-16   0.1249997918E+02
   0.2225277395E+01   0.0000000000E+00   0.9437056512E+00   0.5744049519E-01   0.0000000000E+00  -0.1435787380E-01   0.1678368999E+00   0.0000000000E+00  -0.4193647498E-01   0.1249998613E+02   0.6944760037E-05   0.6944760037E-05   0.1428448154E-14  -0.1522510306E-14   0.4699876414E-15   0.1126386977E+00  -0.5629434886E-01  -0.5629434886E-01  -0.9025656107E-16   0.3637866323E-15   0.2155076281E-16   0.1249997918E+02
   0.2225277395E+01   0.9437056512E+00   0.9437056512E+00   0.5744049519E-01  -0.1435787380E-01  -0.1435787380E-01   0.1678368999E+00  -0.4193647498E-01  -0.4193647498E-01   0.1249998613E+02   0.6944760806E-05   0.6944760806E-05   0.3641097247E-14   0.6027903304E-14   0.3165885801E-16   0.1126386977E+00  -0.5629434885E-01  -0.5629434885E-01  -0.1099983377E-15   0.8318675907E-17   0.7276778680E-16   0.1249997918E+02
     1     2     3     4     5     6     7     8
     2     9    10     3     6    11    12     7
 VARIABLES = X,Y,Z,DU1,DU2,DU3,U1,U2,U3,S11,S22,S33,S12,S13,S23,E11,E22,E33,E12,E13,E23,SMISES
 ZONE, T="0.9050D+01" F=FEPOINT, I=   12 J=    2 ET=BRICK
   0.0000000000E+00   0.0000000000E+00   0.0000000000E+00   0.0000000000E+00   0.0000000000E+00   0.0000000000E+00   0.0000000000E+00   0.0000000000E+00   0.0000000000E+00   0.1137500002E+02   0.5601668922E-09   0.5604916470E-09  -0.1074901198E-15   0.1269437586E-11   0.8041742838E-12   0.1103887394E+00  -0.5517161969E-01  -0.5517161969E-01  -0.1381144878E-16   0.1515160679E-13   0.9638460069E-14   0.1137500002E+02
   0.1110388739E+01   0.0000000000E+00   0.6685771072E-14  -0.2249958359E-02   0.0000000000E+00   0.6715396761E-14   0.1126386976E+00   0.0000000000E+00  -0.2962568878E-16   0.1137500002E+02   0.4385739204E-10   0.4308093593E-10   0.1529844572E-12   0.1251046930E-12   0.7021928437E-14   0.1103887394E+00  -0.5517161969E-01  -0.5517161969E-01   0.1841208053E-14   0.1527188330E-14   0.9169579520E-16   0.1137500002E+02
   0.1110388739E+01   0.9448283804E+00   0.6726909216E-14  -0.2249958359E-02   0.1122729180E-02   0.6755932324E-14   0.1126386976E+00  -0.5629434878E-01  -0.2902310755E-16   0.1137500002E+02   0.2487620058E-09   0.2488499015E-09   0.3045566328E-12  -0.2294425151E-12  -0.3305375317E-12   0.1103887394E+00  -0.5517161968E-01  -0.5517161968E-01   0.3672976107E-14  -0.2779867605E-14  -0.3865537325E-14   0.1137500002E+02
   0.0000000000E+00   0.9448283804E+00   0.4820614011E-14   0.0000000000E+00   0.1122729180E-02   0.4822260602E-14   0.0000000000E+00  -0.5629434878E-01  -0.1646591011E-17   0.1137500002E+02   0.3950751431E-09   0.3942819891E-09  -0.3049216570E-12   0.2301977191E-13   0.2695832512E-12   0.1103887394E+00  -0.5517161968E-01  -0.5517161968E-01  -0.3711150064E-14   0.2318313909E-15   0.3214205104E-14   0.1137500002E+02
   0.0000000000E+00   0.0000000000E+00   0.9448283804E+00   0.0000000000E+00   0.0000000000E+00   0.1122729180E-02   0.0000000000E+00   0.0000000000E+00  -0.5629434878E-01   0.1137500002E+02  -0.1060746728E-09  -0.1046814202E-09  -0.5389710352E-16   0.1995421391E-12   0.2458696115E-12   0.1103887394E+00  -0.5517161968E-01  -0.5517161968E-01   0.4811996203E-17   0.2127697482E-14   0.2871831176E-14   0.1137500002E+02
   0.1110388739E+01   0.0000000000E+00   0.9448283804E+00  -0.2249958359E-02   0.0000000000E+00   0.1122729180E-02   0.1126386976E+00   0.0000000000E+00  -0.5629434878E-01   0.1137500002E+02  -0.3659034415E-09  -0.3660042823E-09  -0.3045585659E-12   0.1562007632E-12   0.4391726073E-12   0.1103887394E+00  -0.5517161968E-01  -0.5517161968E-01  -0.3603280442E-14   0.1825603274E-14   0.5282760546E-14   0.1137500002E+02
   0.1110388739E+01   0.9448283804E+00   0.9448283804E+00  -0.2249958359E-02   0.1122729180E-02   0.1122729180E-02   0.1126386976E+00  -0.5629434878E-01  -0.5629434878E-01   0.1137500001E+02  -0.2675635561E-09  -0.2667991352E-09  -0.2704301255E-12  -0.2919206339E-12   0.1007534752E-12   0.1103887393E+00  -0.5517161967E-01  -0.5517161967E-01  -0.3160729423E-14  -0.3438472995E-14   0.1329650573E-14   0.1137500001E+02
   0.0000000000E+00   0.9448283804E+00   0.9448283804E+00   0.0000000000E+00   0.1122729180E-02   0.1122729180E-02   0.0000000000E+00  -0.5629434878E-01  -0.5629434878E-01   0.1137500001E+02  -0.5540989782E-09  -0.5538232447E-09   0.4849617978E-13   0.4847232319E-12  -0.2884013342E-12   0.1103887394E+00  -0.5517161968E-01  -0.5517161968E-01   0.7332745976E-15   0.5701921691E-14  -0.3593542541E-14   0.1137500002E+02
   0.2220777478E+01   0.0000000000E+00   0.9766697447E-14  -0.4499916718E-02   0.0000000000E+00   0.9857397443E-14   0.2252773951E+00   0.0000000000E+00  -0.9069999579E-16   0.1137500002E+02   0.5629489017E-09   0.5627888390E-09  -0.3788874879E-13  -0.5916943398E-12   0.1007641976E-11   0.1103887394E+00  -0.5517161968E-01  -0.5517161968E-01  -0.2358775742E-15  -0.7147239858E-14   0.1206426362E-13   0.1137500002E+02
   0.2220777478E+01   0.9448283804E+00   0.1579889914E-13  -0.4499916718E-02   0.1122729180E-02   0.1590083153E-13   0.2252773951E+00  -0.5629434878E-01  -0.1019323869E-15   0.1137500002E+02   0.5855207961E-10   0.5690791559E-10   0.5697156870E-12   0.4311129075E-12   0.2383635736E-12   0.1103887394E+00  -0.5517161968E-01  -0.5517161968E-01   0.7113358990E-14   0.5160334621E-14   0.2867930270E-14   0.1137500002E+02
   0.2220777478E+01   0.0000000000E+00   0.9448283804E+00  -0.4499916718E-02   0.0000000000E+00   0.1122729180E-02   0.2252773951E+00   0.0000000000E+00  -0.5629434878E-01   0.1137500002E+02   0.9957558679E-10   0.1009537404E-09  -0.4649096044E-12   0.5390711218E-12   0.2660240618E-12   0.1103887394E+00  -0.5517161968E-01  -0.5517161968E-01  -0.5676426562E-14   0.6840758224E-14   0.3188456355E-14   0.1137500002E+02
   0.2220777478E+01   0.9448283804E+00   0.9448283804E+00  -0.4499916718E-02   0.1122729180E-02   0.1122729180E-02   0.2252773951E+00  -0.5629434878E-01  -0.5629434878E-01   0.1137500001E+02  -0.3349489090E-09  -0.3350557340E-09  -0.4449811390E-12  -0.1511445783E-12  -0.5027570084E-12   0.1103887393E+00  -0.5517161967E-01  -0.5517161967E-01  -0.5569663877E-14  -0.2020042906E-14  -0.5955976786E-14   0.1137500001E+02
     1     2     3     4     5     6     7     8
     2     9    10     3     6    11    12     7
 VARIABLES = X,Y,Z,DU1,DU2,DU3,U1,U2,U3,S11,S22,S33,S12,S13,S23,E11,E22,E33,E12,E13,E23,SMISES
 ZONE, T="0.9100D+01" F=FEPOINT, I=   12 J=    2 ET=BRICK
   0.0000000000E+00   0.0000000000E+00   0.0000000000E+00   0.0000000000E+00   0.0000000000E+00   0.0000000000E+00   0.0000000000E+00   0.0000000000E+00   0.0000000000E+00   0.1025000002E+02   0.1382540682E-11   0.1382002971E-11  -0.1120249249E-15   0.2679437057E-14   0.9327033685E-15   0.1081387394E+00  -0.5404886969E-01  -0.5404886969E-01  -0.1982508236E-16  -0.3975331773E-16   0.3697300346E-16   0.1025000002E+02
   0.1108138739E+01   0.0000000000E+00  -0.1627588337E-16  -0.2250000000E-02   0.0000000000E+00  -0.6702046955E-14   0.1103887392E+00   0.0000000000E+00   0.6685771072E-14   0.1025000002E+02   0.2265202349E-12   0.2242373748E-12  -0.1554401611E-14  -0.3413240795E-14  -0.1434438089E-15   0.1081387394E+00  -0.5404886968E-01  -0.5404886968E-01  -0.4065098174E-16  -0.1933325948E-16  -0.2663757011E-16   0.1025000002E+02
   0.1108138739E+01   0.9459511304E+00  -0.1803789634E-16  -0.2250000000E-02   0.1122750000E-02  -0.6744947112E-14   0.1103887392E+00  -0.5517161960E-01   0.6726909216E-14   0.1025000001E+02  -0.5954931049E-12  -0.5955852675E-12  -0.2143288120E-16  -0.1203608379E-14  -0.4964310386E-15   0.1081387394E+00  -0.5404886968E-01  -0.5404886968E-01  -0.6692489755E-16  -0.5498851503E-16   0.1343593742E-15   0.1025000001E+02
   0.0000000000E+00   0.9459511304E+00   0.4407379368E-17   0.0000000000E+00   0.1122750000E-02  -0.4816206632E-14   0.0000000000E+00  -0.5517161960E-01   0.4820614011E-14   0.1025000001E+02  -0.5616054888E-11  -0.5617444125E-11   0.1139938874E-14   0.1509388045E-14  -0.1089941003E-15   0.1081387394E+00  -0.5404886968E-01  -0.5404886968E-01  -0.1284418861E-16   0.6761692732E-18  -0.7278136502E-16   0.1025000001E+02
   0.0000000000E+00   0.0000000000E+00   0.9459511304E+00   0.0000000000E+00   0.0000000000E+00   0.1122750000E-02   0.0000000000E+00   0.0000000000E+00  -0.5517161960E-01   0.1025000001E+02  -0.4310503442E-12  -0.4296908551E-12  -0.3276068746E-16   0.3031739165E-14   0.7633872296E-15   0.1081387394E+00  -0.5404886968E-01  -0.5404886968E-01   0.2858931676E-16  -0.2208075160E-15  -0.7776088484E-16   0.1025000001E+02
   0.1108138739E+01   0.0000000000E+00   0.9459511304E+00  -0.2250000000E-02   0.0000000000E+00   0.1122750000E-02   0.1103887392E+00   0.0000000000E+00  -0.5517161960E-01   0.1025000001E+02  -0.6059873753E-13  -0.6072861947E-13  -0.1928045615E-15  -0.9930187170E-15   0.5142001275E-15   0.1081387394E+00  -0.5404886968E-01  -0.5404886968E-01  -0.5132190523E-17  -0.1274915136E-15   0.4489803390E-16   0.1025000001E+02
   0.1108138739E+01   0.9459511304E+00   0.9459511304E+00  -0.2250000000E-02   0.1122750000E-02   0.1122750000E-02   0.1103887392E+00  -0.5517161960E-01  -0.5517161960E-01   0.1025000001E+02  -0.1552729779E-11  -0.1550425142E-11   0.1773455361E-14  -0.4369958423E-15  -0.7623953163E-15   0.1081387393E+00  -0.5404886967E-01  -0.5404886967E-01   0.1187663490E-15   0.1036554671E-15   0.1360213862E-15   0.1025000001E+02
   0.0000000000E+00   0.9459511304E+00   0.9459511304E+00   0.0000000000E+00   0.1122750000E-02   0.1122750000E-02   0.0000000000E+00  -0.5517161960E-01  -0.5517161960E-01   0.1025000001E+02   0.1960853561E-12   0.1953176300E-12   0.1015723197E-14   0.3032031354E-14   0.5115401427E-17   0.1081387393E+00  -0.5404886967E-01  -0.5404886967E-01   0.1603890574E-15  -0.1196001912E-15  -0.5827771548E-16   0.1025000001E+02
   0.2216277478E+01   0.0000000000E+00  -0.6386294066E-16  -0.4500000000E-02   0.0000000000E+00  -0.9830560388E-14   0.2207774784E+00   0.0000000000E+00   0.9766697447E-14   0.1025000002E+02  -0.1338187594E-11  -0.1338040312E-11   0.6226202054E-15  -0.1125716515E-15   0.7687813242E-16   0.1081387394E+00  -0.5404886968E-01  -0.5404886968E-01   0.2955955920E-15   0.3973933444E-15  -0.8468826949E-17   0.1025000002E+02
   0.2216277478E+01   0.9459511304E+00  -0.7309656837E-16  -0.4500000000E-02   0.1122750000E-02  -0.1587199571E-13   0.2207774784E+00  -0.5517161960E-01   0.1579889914E-13   0.1025000001E+02   0.4120323788E-11   0.4119530298E-11   0.2270439623E-14  -0.2525012193E-14  -0.2556064738E-15   0.1081387394E+00  -0.5404886968E-01  -0.5404886968E-01   0.4466428285E-15  -0.1940056308E-15   0.1173635438E-16   0.1025000001E+02
   0.2216277478E+01   0.0000000000E+00   0.9459511304E+00  -0.4500000000E-02   0.0000000000E+00   0.1122750000E-02   0.2207774784E+00   0.0000000000E+00  -0.5517161960E-01   0.1025000001E+02   0.4522826841E-11   0.4523205989E-11  -0.2134972651E-14   0.2882816342E-14   0.2817114014E-15   0.1081387394E+00  -0.5404886968E-01  -0.5404886968E-01  -0.1355500454E-15   0.4198025743E-15   0.2077523231E-16   0.1025000001E+02
   0.2216277478E+01   0.9459511304E+00   0.9459511304E+00  -0.4500000000E-02   0.1122750000E-02   0.1122750000E-02   0.2207774784E+00  -0.5517161960E-01  -0.5517161960E-01   0.1025000001E+02   0.1084598190E-11   0.1083492344E-11   0.5421384118E-15   0.1417606431E-14   0.5432843582E-15   0.1081387393E+00  -0.5404886967E-01  -0.5404886967E-01  -0.2238267448E-15  -0.3150890182E-16   0.2368027824E-16   0.1025000001E+02
     1     2     3     4     5     6     7     8
     2     9    10     3     6    11    12     7
 VARIABLES = X,Y,Z,DU1,DU2,DU3,U1,U2,U3,S11,S22,S33,S12,S13,S23,E11,E22,E33,E12,E13,E23,SMISES
 ZONE, T="0.9150D+01" F=FEPOINT, I=   12 J=    2 ET=BRICK
   0.0000000000E+00   0.0000000000E+00   0.0000000000E+00   0.0000000000E+00   0.0000000000E+00   0.0000000000E+00   0.0000000000E+00   0.0000000000E+00   0.0000000000E+00   0.9125000014E+01  -0.2436659058E-11  -0.2436325991E-11  -0.9844772691E-16  -0.1896692381E-14  -0.1429959822E-14   0.1058887394E+00  -0.5292611968E-01  -0.5292611968E-01  -0.2495357900E-17  -0.6324815676E-16  -0.1317473467E-16   0.9125000014E+01
   0.1105888739E+01   0.0000000000E+00  -0.4612159828E-16  -0.2250000000E-02   0.0000000000E+00  -0.2984571490E-16   0.1081387392E+00   0.0000000000E+00  -0.1627588337E-16   0.9125000014E+01  -0.2182365486E-12  -0.2169797198E-12  -0.8589419728E-16  -0.1208212249E-14   0.1423377966E-15   0.1058887394E+00  -0.5292611968E-01  -0.5292611968E-01  -0.7796693672E-16  -0.1194739828E-15  -0.1036932631E-16   0.9125000014E+01
   0.1105888739E+01   0.9470738804E+00  -0.4604929062E-16  -0.2250000000E-02   0.1122750000E-02  -0.2801139429E-16   0.1081387392E+00  -0.5404886960E-01  -0.1803789634E-16   0.9125000013E+01  -0.2923550133E-11  -0.2922255585E-11   0.1917587187E-14  -0.2896428613E-15   0.1465234580E-14   0.1058887394E+00  -0.5292611968E-01  -0.5292611968E-01  -0.3871488455E-16   0.1749506865E-16   0.1300385522E-15   0.9125000013E+01
   0.0000000000E+00   0.9470738804E+00  -0.9867442882E-17   0.0000000000E+00   0.1122750000E-02  -0.1427482225E-16   0.0000000000E+00  -0.5404886960E-01   0.4407379368E-17   0.9125000013E+01  -0.6883619638E-11  -0.6881485520E-11   0.7307958529E-15   0.4727982491E-15  -0.2671542663E-15   0.1058887394E+00  -0.5292611968E-01  -0.5292611968E-01  -0.4290576918E-16  -0.4543224745E-16  -0.5972358563E-16   0.9125000013E+01
   0.0000000000E+00   0.0000000000E+00   0.9470738804E+00   0.0000000000E+00   0.0000000000E+00   0.1122750000E-02   0.0000000000E+00   0.0000000000E+00  -0.5404886960E-01   0.9125000013E+01   0.2535285943E-11   0.2532523410E-11  -0.3778552227E-16   0.2142780646E-15  -0.3617328251E-15   0.1058887394E+00  -0.5292611968E-01  -0.5292611968E-01   0.2005864781E-16  -0.2661331746E-15  -0.1211520958E-15   0.9125000013E+01
   0.1105888739E+01   0.0000000000E+00   0.9470738804E+00  -0.2250000000E-02   0.0000000000E+00   0.1122750000E-02   0.1081387392E+00   0.0000000000E+00  -0.5404886960E-01   0.9125000013E+01   0.1269044408E-11   0.1269569771E-11  -0.9579359302E-15   0.1512793872E-14  -0.2252842751E-15   0.1058887394E+00  -0.5292611968E-01  -0.5292611968E-01   0.1017869726E-16  -0.7176750901E-16   0.6458988053E-16   0.9125000013E+01
   0.1105888739E+01   0.9470738804E+00   0.9470738804E+00  -0.2250000000E-02   0.1122750000E-02   0.1122750000E-02   0.1081387392E+00  -0.5404886960E-01  -0.5404886960E-01   0.9125000012E+01  -0.1033227954E-12  -0.1022720692E-12   0.1573720861E-15  -0.3832072751E-15   0.1081508160E-15   0.1058887393E+00  -0.5292611967E-01  -0.5292611967E-01   0.1174151940E-15  -0.1424593616E-16   0.1496951761E-15   0.9125000012E+01
   0.0000000000E+00   0.9470738804E+00   0.9470738804E+00   0.0000000000E+00   0.1122750000E-02   0.1122750000E-02   0.0000000000E+00  -0.5404886960E-01  -0.5404886960E-01   0.9125000012E+01   0.2764083541E-11   0.2761724460E-11   0.2213232877E-15   0.8187309249E-15   0.1181429138E-14   0.1058887393E+00  -0.5292611967E-01  -0.5292611967E-01   0.1451304515E-15  -0.9610971833E-16  -0.9996640008E-16   0.9125000012E+01
   0.2211777478E+01   0.0000000000E+00  -0.1340464243E-15  -0.4500000000E-02   0.0000000000E+00  -0.7018348361E-16   0.2162774784E+00   0.0000000000E+00  -0.6386294066E-16   0.9125000014E+01   0.1280839152E-11   0.1281069168E-11  -0.5000355662E-14  -0.4014354232E-14  -0.2836664127E-15   0.1058887394E+00  -0.5292611968E-01  -0.5292611968E-01   0.2431300511E-15   0.2702818891E-15  -0.3263356271E-16   0.9125000014E+01
   0.2211777478E+01   0.9470738804E+00  -0.1454501039E-15  -0.4500000000E-02   0.1122750000E-02  -0.7235353554E-16   0.2162774784E+00  -0.5404886960E-01  -0.7309656837E-16   0.9125000013E+01   0.1666785104E-11   0.1664932527E-11  -0.1982163608E-14   0.8463967032E-15  -0.8391718726E-15   0.1058887394E+00  -0.5292611968E-01  -0.5292611968E-01   0.3479282792E-15  -0.3934953303E-15   0.7825355304E-16   0.9125000013E+01
   0.2211777478E+01   0.0000000000E+00   0.9470738804E+00  -0.4500000000E-02   0.0000000000E+00   0.1122750000E-02   0.2162774784E+00   0.0000000000E+00  -0.5404886960E-01   0.9125000013E+01   0.3252306376E-11   0.3253812080E-11   0.6705253386E-15  -0.1461896156E-14  -0.9218911885E-15   0.1058887394E+00  -0.5292611968E-01  -0.5292611968E-01  -0.1186381944E-15   0.3583990783E-15  -0.9118410690E-17   0.9125000013E+01
   0.2211777478E+01   0.9470738804E+00   0.9470738804E+00  -0.4500000000E-02   0.1122750000E-02   0.1122750000E-02   0.2162774784E+00  -0.5404886960E-01  -0.5404886960E-01   0.9125000012E+01   0.1697613554E-11   0.1694794442E-11   0.2330126091E-14   0.4483895131E-14  -0.8418152216E-15   0.1058887393E+00  -0.5292611967E-01  -0.5292611967E-01  -0.2116594368E-15   0.9336284425E-16   0.1046932524E-16   0.9125000012E+01
     1     2     3     4     5     6     7     8
     2     9    10     3     6    11    12     7
 VARIABLES = X,Y,Z,DU1,DU2,DU3,U1,U2,U3,S11,S22,S33,S12,S13,S23,E11,E22,E33,E12,E13,E23,SMISES
 ZONE, T="0.9200D+01" F=FEPOINT, I=   12 J=    2 ET=BRICK
   0.0000000000E+00   0.0000000000E+00   0.0000000000E+00   0.0000000000E+00   0.0000000000E+00   0.0000000000E+00   0.0000000000E+00   0.0000000000E+00   0.0000000000E+00   0.8000000013E+01  -0.8070979486E-12  -0.8080133487E-12  -0.1253535668E-15   0.1114901718E-14  -0.2552687686E-15   0.1036387394E+00  -0.5180336968E-01  -0.5180336968E-01   0.7835207656E-17  -0.3029213546E-16   0.7218386894E-17   0.8000000013E+01
   0.1103638739E+01   0.0000000000E+00  -0.2789743913E-16  -0.2250000000E-02   0.0000000000E+00   0.1822415915E-16   0.1058887392E+00   0.0000000000E+00  -0.4612159828E-16   0.8000000012E+01  -0.3120391919E-12  -0.3128352076E-12   0.9701715325E-15  -0.1569320718E-14  -0.3861657211E-15   0.1036387394E+00  -0.5180336968E-01  -0.5180336968E-01  -0.5244151196E-16  -0.8852283540E-16  -0.7070043458E-17   0.8000000012E+01
   0.1103638739E+01   0.9481966304E+00  -0.3100096142E-16  -0.2250000000E-02   0.1122750000E-02   0.1504832920E-16   0.1058887392E+00  -0.5292611960E-01  -0.4604929062E-16   0.8000000011E+01  -0.1887015180E-11  -0.1885479728E-11   0.2290762419E-14  -0.2065423859E-14   0.5591147127E-15   0.1036387394E+00  -0.5180336968E-01  -0.5180336968E-01  -0.3379872163E-16  -0.6169060447E-16   0.1382165699E-15   0.8000000011E+01
   0.0000000000E+00   0.9481966304E+00  -0.2735719839E-17   0.0000000000E+00   0.1122750000E-02   0.7131723042E-17   0.0000000000E+00  -0.5292611960E-01  -0.9867442882E-17   0.8000000012E+01  -0.5296349171E-11  -0.5296943460E-11   0.5145922180E-15   0.1204313408E-14  -0.3989465481E-15   0.1036387394E+00  -0.5180336968E-01  -0.5180336968E-01  -0.1085066187E-16  -0.8939305727E-17  -0.4332331133E-16   0.8000000012E+01
   0.0000000000E+00   0.0000000000E+00   0.9481966304E+00   0.0000000000E+00   0.0000000000E+00   0.1122750000E-02   0.0000000000E+00   0.0000000000E+00  -0.5292611960E-01   0.8000000012E+01   0.9592795295E-12   0.9590748857E-12  -0.5641482327E-17   0.1940126685E-14   0.1668676236E-15   0.1036387394E+00  -0.5180336968E-01  -0.5180336968E-01  -0.1526990561E-17  -0.2359098817E-15  -0.1018380507E-15   0.8000000012E+01
   0.1103638739E+01   0.0000000000E+00   0.9481966304E+00  -0.2250000000E-02   0.0000000000E+00   0.1122750000E-02   0.1058887392E+00   0.0000000000E+00  -0.5292611960E-01   0.8000000011E+01   0.6492011471E-12   0.6484943764E-12  -0.8006533580E-15   0.9082422985E-15   0.1513192598E-16   0.1036387394E+00  -0.5180336968E-01  -0.5180336968E-01   0.4970043817E-16  -0.9380127669E-16   0.5332731126E-16   0.8000000011E+01
   0.1103638739E+01   0.9481966304E+00   0.9481966304E+00  -0.2250000000E-02   0.1122750000E-02   0.1122750000E-02   0.1058887392E+00  -0.5292611960E-01  -0.5292611960E-01   0.8000000010E+01  -0.5104515665E-12  -0.5092491810E-12   0.6824005516E-15  -0.1682001835E-14  -0.8072876206E-16   0.1036387393E+00  -0.5180336967E-01  -0.5180336967E-01   0.1006646795E-15   0.3604532844E-16   0.1442232085E-15   0.8000000010E+01
   0.0000000000E+00   0.9481966304E+00   0.9481966304E+00   0.0000000000E+00   0.1122750000E-02   0.1122750000E-02   0.0000000000E+00  -0.5292611960E-01  -0.5292611960E-01   0.8000000011E+01   0.1117832771E-11   0.1116584304E-11   0.8569897180E-15   0.2154377158E-14   0.3393875453E-15   0.1036387393E+00  -0.5180336967E-01  -0.5180336967E-01   0.1670822651E-15  -0.1135075073E-15  -0.1109791176E-15   0.8000000011E+01
   0.2207277478E+01   0.0000000000E+00  -0.9762144049E-16  -0.4500000000E-02   0.0000000000E+00   0.3642498378E-16   0.2117774784E+00   0.0000000000E+00  -0.1340464243E-15   0.8000000012E+01   0.2233461372E-13   0.2373182220E-13  -0.1941478357E-14  -0.2056764799E-14  -0.1098272085E-15   0.1036387394E+00  -0.5180336968E-01  -0.5180336968E-01   0.2926126297E-15   0.2014827947E-15  -0.5963764552E-17   0.8000000012E+01
   0.2207277478E+01   0.9481966304E+00  -0.1077597354E-15  -0.4500000000E-02   0.1122750000E-02   0.3769036850E-16   0.2117774784E+00  -0.5292611960E-01  -0.1454501039E-15   0.8000000011E+01   0.1687351052E-11   0.1686916392E-11  -0.1033852254E-15   0.2554491211E-15   0.4703613638E-16   0.1036387393E+00  -0.5180336967E-01  -0.5180336967E-01   0.4151979016E-15  -0.7224540845E-16   0.2137423293E-16   0.8000000011E+01
   0.2207277478E+01   0.0000000000E+00   0.9481966304E+00  -0.4500000000E-02   0.0000000000E+00   0.1122750000E-02   0.2117774784E+00   0.0000000000E+00  -0.5292611960E-01   0.8000000011E+01   0.4149238700E-11   0.4150591286E-11  -0.3769636731E-15   0.1392225576E-14  -0.3649081409E-15   0.1036387393E+00  -0.5180336967E-01  -0.5180336967E-01  -0.1529464868E-15   0.5032595289E-15  -0.3980381917E-16   0.8000000011E+01
   0.2207277478E+01   0.9481966304E+00   0.9481966304E+00  -0.4500000000E-02   0.1122750000E-02   0.1122750000E-02   0.2117774784E+00  -0.5292611960E-01  -0.5292611960E-01   0.8000000010E+01   0.2057093647E-11   0.2054827120E-11   0.1363989176E-14   0.3477149586E-14   0.2356329601E-15   0.1036387393E+00  -0.5180336967E-01  -0.5180336967E-01  -0.2616025908E-15  -0.9217019490E-16   0.1135432027E-15   0.8000000010E+01
     1     2     3     4     5     6     7     8
     2     9    10     3     6    11    12     7
 VARIABLES = X,Y,Z,DU1,DU2,DU3,U1,U2,U3,S11,S22,S33,S12,S13,S23,E11,E22,E33,E12,E13,E23,SMISES
 ZONE, T="0.9250D+01" F=FEPOINT, I=   12 J=    2 ET=BRICK
   0.0000000000E+00   0.0000000000E+00   0.0000000000E+00   0.0000000000E+00   0.0000000000E+00   0.0000000000E+00   0.0000000000E+00   0.0000000000E+00   0.0000000000E+00   0.6875000011E+01  -0.8611900484E-12  -0.8611954927E-12  -0.1190283377E-15   0.9376064060E-16  -0.3774558593E-16   0.1013887394E+00  -0.5068061968E-01  -0.5068061968E-01  -0.3555156968E-16  -0.2918068723E-16   0.3138681529E-17   0.6875000011E+01
   0.1101388739E+01   0.0000000000E+00  -0.3299988657E-16  -0.2250000000E-02   0.0000000000E+00  -0.5102447442E-17   0.1036387392E+00   0.0000000000E+00  -0.2789743913E-16   0.6875000011E+01  -0.9228526511E-13  -0.9360664390E-13  -0.4007206355E-15  -0.1102334678E-14  -0.1592307962E-15   0.1013887394E+00  -0.5068061968E-01  -0.5068061968E-01   0.8705919523E-17  -0.6983414140E-16  -0.1239336875E-16   0.6875000011E+01
   0.1101388739E+01   0.9493193804E+00  -0.3465136026E-16  -0.2250000000E-02   0.1122750000E-02  -0.3650398840E-17   0.1036387392E+00  -0.5180336960E-01  -0.3100096142E-16   0.6875000010E+01  -0.1456279506E-11  -0.1455128646E-11   0.1212408359E-14  -0.9571243339E-15   0.3484953286E-15   0.1013887393E+00  -0.5068061967E-01  -0.5068061967E-01   0.2858196964E-16   0.5457229080E-17   0.1273625236E-15   0.6875000010E+01
   0.0000000000E+00   0.9493193804E+00  -0.1601813117E-17   0.0000000000E+00   0.1122750000E-02   0.1133906722E-17   0.0000000000E+00  -0.5180336960E-01  -0.2735719839E-17   0.6875000010E+01  -0.6720307518E-11  -0.6720639126E-11   0.1506822569E-14   0.3350827372E-15   0.5566472181E-16   0.1013887394E+00  -0.5068061968E-01  -0.5068061968E-01  -0.2437433918E-16  -0.7866901346E-16  -0.2131950647E-16   0.6875000010E+01
   0.0000000000E+00   0.0000000000E+00   0.9493193804E+00   0.0000000000E+00   0.0000000000E+00   0.1122750000E-02   0.0000000000E+00   0.0000000000E+00  -0.5180336960E-01   0.6875000010E+01   0.1828095471E-11   0.1828678872E-11  -0.2056560741E-17   0.1169152545E-14  -0.2707773934E-16   0.1013887394E+00  -0.5068061968E-01  -0.5068061968E-01   0.3030173733E-16  -0.2843100706E-15  -0.5361333156E-16   0.6875000010E+01
   0.1101388739E+01   0.0000000000E+00   0.9493193804E+00  -0.2250000000E-02   0.0000000000E+00   0.1122750000E-02   0.1036387392E+00   0.0000000000E+00  -0.5180336960E-01   0.6875000010E+01   0.6292185844E-12   0.6288964062E-12  -0.1480725957E-14   0.1181114015E-14   0.1106907000E-15   0.1013887393E+00  -0.5068061967E-01  -0.5068061967E-01  -0.1616542100E-16  -0.5339158113E-17   0.4500708003E-16   0.6875000010E+01
   0.1101388739E+01   0.9493193804E+00   0.9493193804E+00  -0.2250000000E-02   0.1122750000E-02   0.1122750000E-02   0.1036387392E+00  -0.5180336960E-01  -0.5180336960E-01   0.6875000009E+01  -0.6427057241E-12  -0.6409779755E-12   0.4419979929E-16  -0.4252271449E-15  -0.4668776622E-15   0.1013887393E+00  -0.5068061967E-01  -0.5068061967E-01   0.1173385734E-15   0.2579065314E-16   0.1537372357E-15   0.6875000009E+01
   0.0000000000E+00   0.9493193804E+00   0.9493193804E+00   0.0000000000E+00   0.1122750000E-02   0.1122750000E-02   0.0000000000E+00  -0.5180336960E-01  -0.5180336960E-01   0.6875000009E+01   0.1264865225E-11   0.1262181439E-11   0.7950039585E-15   0.1685649237E-14   0.4494831735E-15   0.1013887393E+00  -0.5068061967E-01  -0.5068061967E-01   0.1684602994E-15  -0.6113885431E-16  -0.1441998082E-15   0.6875000009E+01
   0.2202777478E+01   0.0000000000E+00  -0.1043838333E-15  -0.4500000000E-02   0.0000000000E+00  -0.6762392796E-17   0.2072774784E+00   0.0000000000E+00  -0.9762144049E-16   0.6875000010E+01  -0.2519239580E-12  -0.2511551640E-12  -0.4249708701E-15  -0.2261935721E-14  -0.1709406005E-15   0.1013887394E+00  -0.5068061968E-01  -0.5068061968E-01   0.2133837542E-15   0.1821120628E-15   0.4597019677E-17   0.6875000010E+01
   0.2202777478E+01   0.9493193804E+00  -0.1148730399E-15  -0.4500000000E-02   0.1122750000E-02  -0.7113304523E-17   0.2072774784E+00  -0.5180336960E-01  -0.1077597354E-15   0.6875000010E+01   0.3479012333E-11   0.3477545807E-11   0.1008706069E-14  -0.1537830694E-14  -0.2562984399E-15   0.1013887393E+00  -0.5068061967E-01  -0.5068061967E-01   0.2968842226E-15  -0.1721800872E-15  -0.1052167281E-16   0.6875000010E+01
   0.2202777478E+01   0.0000000000E+00   0.9493193804E+00  -0.4500000000E-02   0.0000000000E+00   0.1122750000E-02   0.2072774784E+00   0.0000000000E+00  -0.5180336960E-01   0.6875000010E+01   0.3015807240E-11   0.3017140967E-11  -0.4310263553E-15   0.9168248493E-15   0.9093863573E-16   0.1013887393E+00  -0.5068061967E-01  -0.5068061967E-01  -0.1533568631E-15   0.2819971267E-15  -0.6937417887E-17   0.6875000010E+01
   0.2202777478E+01   0.9493193804E+00   0.9493193804E+00  -0.4500000000E-02   0.1122750000E-02   0.1122750000E-02   0.2072774784E+00  -0.5180336960E-01  -0.5180336960E-01   0.6875000009E+01   0.1690377486E-11   0.1689264737E-11   0.1408548779E-14   0.1842804133E-14   0.4232131162E-15   0.1013887393E+00  -0.5068061967E-01  -0.5068061967E-01  -0.2516178668E-15  -0.2316624154E-15   0.6286399125E-16   0.6875000009E+01
     1     2     3     4     5     6     7     8
     2     9    10     3     6    11    12     7
 VARIABLES = X,Y,Z,DU1,DU2,DU3,U1,U2,U3,S11,S22,S33,S12,S13,S23,E11,E22,E33,E12,E13,E23,SMISES
 ZONE, T="0.9300D+01" F=FEPOINT, I=   12 J=    2 ET=BRICK
   0.0000000000E+00   0.0000000000E+00   0.0000000000E+00   0.0000000000E+00   0.0000000000E+00   0.0000000000E+00   0.0000000000E+00   0.0000000000E+00   0.0000000000E+00   0.5750000009E+01  -0.1801276876E-11  -0.1800960676E-11  -0.1030787480E-15  -0.1080790519E-14  -0.6767268548E-15   0.9913873936E-01  -0.4955786968E-01  -0.4955786968E-01   0.8936781798E-17  -0.5297238349E-16  -0.2455093413E-16   0.5750000009E+01
   0.1099138739E+01   0.0000000000E+00  -0.4154892898E-16  -0.2250000000E-02   0.0000000000E+00  -0.8549042409E-17   0.1013887392E+00   0.0000000000E+00  -0.3299988657E-16   0.5750000009E+01  -0.4704507279E-12  -0.4703516621E-12  -0.5813176839E-15  -0.9572089617E-15  -0.1140249038E-15   0.9913873936E-01  -0.4955786968E-01  -0.4955786968E-01  -0.6965492263E-16  -0.3818091138E-16  -0.1753684714E-17   0.5750000009E+01
   0.1099138739E+01   0.9504421304E+00  -0.4308957690E-16  -0.2250000000E-02   0.1122750000E-02  -0.8438216642E-17   0.1013887392E+00  -0.5068061960E-01  -0.3465136026E-16   0.5750000008E+01  -0.2388032813E-11  -0.2386512235E-11   0.1172743040E-14  -0.6855721543E-15   0.9040713828E-15   0.9913873934E-01  -0.4955786967E-01  -0.4955786967E-01  -0.1754039210E-16   0.2999794500E-16   0.1268241030E-15   0.5750000008E+01
   0.0000000000E+00   0.9504421304E+00  -0.5154260671E-17   0.0000000000E+00   0.1122750000E-02  -0.3552447554E-17   0.0000000000E+00  -0.5068061960E-01  -0.1601813117E-17   0.5750000008E+01  -0.7254982618E-11  -0.7254134152E-11   0.1247928470E-14   0.1070394185E-15   0.8364488711E-16   0.9913873935E-01  -0.4955786967E-01  -0.4955786967E-01  -0.3525844653E-16  -0.6693695453E-16  -0.2930214558E-16   0.5750000008E+01
   0.0000000000E+00   0.0000000000E+00   0.9504421304E+00   0.0000000000E+00   0.0000000000E+00   0.1122750000E-02   0.0000000000E+00   0.0000000000E+00  -0.5068061960E-01   0.5750000008E+01   0.2542393792E-11   0.2542407741E-11   0.1094956772E-16   0.4703612455E-15  -0.1211772452E-15   0.9913873935E-01  -0.4955786967E-01  -0.4955786967E-01  -0.1494433097E-16  -0.2540668976E-15  -0.9988651577E-16   0.5750000008E+01
   0.1099138739E+01   0.0000000000E+00   0.9504421304E+00  -0.2250000000E-02   0.0000000000E+00   0.1122750000E-02   0.1013887392E+00   0.0000000000E+00  -0.5068061960E-01   0.5750000008E+01   0.1165441619E-11   0.1164860745E-11  -0.1492823963E-14   0.1282539949E-14  -0.1330108964E-15   0.9913873934E-01  -0.4955786967E-01  -0.4955786967E-01   0.2460403219E-16  -0.8028354858E-17   0.2341498776E-16   0.5750000008E+01
   0.1099138739E+01   0.9504421304E+00   0.9504421304E+00  -0.2250000000E-02   0.1122750000E-02   0.1122750000E-02   0.1013887392E+00  -0.5068061960E-01  -0.5068061960E-01   0.5750000008E+01  -0.6500196885E-13  -0.6400675381E-13   0.2305234719E-16  -0.3168659834E-15  -0.3097644898E-16   0.9913873933E-01  -0.4955786967E-01  -0.4955786967E-01   0.5757781548E-16   0.6393937536E-16   0.1725725679E-15   0.5750000008E+01
   0.0000000000E+00   0.9504421304E+00   0.9504421304E+00   0.0000000000E+00   0.1122750000E-02   0.1122750000E-02   0.0000000000E+00  -0.5068061960E-01  -0.5068061960E-01   0.5750000008E+01   0.2086829848E-11   0.2084146596E-11   0.6345574868E-15   0.9595061955E-15   0.7473895807E-15   0.9913873934E-01  -0.4955786967E-01  -0.4955786967E-01   0.2167116918E-15  -0.1187730580E-15  -0.1010089191E-15   0.5750000008E+01
   0.2198277478E+01   0.0000000000E+00  -0.1282589365E-15  -0.4500000000E-02   0.0000000000E+00  -0.2387510323E-16   0.2027774784E+00   0.0000000000E+00  -0.1043838333E-15   0.5750000009E+01  -0.1895779187E-12  -0.1894420585E-12  -0.2266124393E-14  -0.2715047252E-14  -0.6964650137E-15   0.9913873935E-01  -0.4955786968E-01  -0.4955786968E-01   0.2058752977E-15   0.2060476348E-15  -0.8512598100E-17   0.5750000009E+01
   0.2198277478E+01   0.9504421304E+00  -0.1416325517E-15  -0.4500000000E-02   0.1122750000E-02  -0.2675951178E-16   0.2027774784E+00  -0.5068061960E-01  -0.1148730399E-15   0.5750000008E+01   0.2678007508E-11   0.2676766478E-11  -0.3164088870E-15  -0.2485888226E-15  -0.5235653403E-15   0.9913873934E-01  -0.4955786967E-01  -0.4955786967E-01   0.2917389688E-15  -0.2349350847E-15   0.3068610907E-16   0.5750000008E+01
   0.2198277478E+01   0.0000000000E+00   0.9504421304E+00  -0.4500000000E-02   0.0000000000E+00   0.1122750000E-02   0.2027774784E+00   0.0000000000E+00  -0.5068061960E-01   0.5750000008E+01   0.3033809446E-11   0.3034529098E-11   0.3467301151E-15  -0.2271432798E-15  -0.1203270496E-15   0.9913873934E-01  -0.4955786967E-01  -0.4955786967E-01  -0.1186788884E-15   0.3635452729E-15   0.3104656034E-17   0.5750000008E+01
   0.2198277478E+01   0.9504421304E+00   0.9504421304E+00  -0.4500000000E-02   0.1122750000E-02   0.1122750000E-02   0.2027774784E+00  -0.5068061960E-01  -0.5068061960E-01   0.5750000007E+01   0.2334065159E-11   0.2332331432E-11   0.2060167502E-14   0.3475509467E-14   0.1558492361E-15   0.9913873933E-01  -0.4955786966E-01  -0.4955786966E-01  -0.1917401204E-15  -0.1684150030E-15   0.3744070934E-16   0.5750000007E+01
     1     2     3     4     5     6     7     8
     2     9    10     3     6    11    12     7
 VARIABLES = X,Y,Z,DU1,DU2,DU3,U1,U2,U3,S11,S22,S33,S12,S13,S23,E11,E22,E33,E12,E13,E23,SMISES
 ZONE, T="0.9350D+01" F=FEPOINT, I=   12 J=    2 ET=BRICK
   0.0000000000E+00   0.0000000000E+00   0.0000000000E+00   0.0000000000E+00   0.0000000000E+00   0.0000000000E+00   0.0000000000E+00   0.0000000000E+00   0.0000000000E+00   0.4625000007E+01  -0.1395532108E-11  -0.1395435960E-11  -0.1319685567E-15   0.1674513399E-15  -0.3925971398E-15   0.9688873936E-01  -0.4843511968E-01  -0.4843511968E-01   0.3791519114E-17  -0.4660849720E-16  -0.3912796098E-17   0.4625000007E+01
   0.1096888739E+01   0.0000000000E+00  -0.3609860599E-16  -0.2250000000E-02   0.0000000000E+00   0.5450322989E-17   0.9913873920E-01   0.0000000000E+00  -0.4154892898E-16   0.4625000007E+01  -0.8861872740E-12  -0.8868207418E-12  -0.8518581047E-16  -0.1051537903E-14  -0.5677603924E-15   0.9688873935E-01  -0.4843511968E-01  -0.4843511968E-01  -0.5370049702E-16  -0.7431978876E-16   0.1145350502E-16   0.4625000007E+01
   0.1096888739E+01   0.9515648804E+00  -0.4038709915E-16  -0.2250000000E-02   0.1122750000E-02   0.2702477749E-17   0.9913873920E-01  -0.4955786960E-01  -0.4308957690E-16   0.4625000007E+01  -0.2027960047E-11  -0.2026121276E-11   0.1285657134E-14  -0.1361956103E-14   0.3199814856E-15   0.9688873934E-01  -0.4843511967E-01  -0.4843511967E-01  -0.1087018570E-16  -0.2953870109E-16   0.1133776843E-15   0.4625000007E+01
   0.0000000000E+00   0.9515648804E+00  -0.3462374886E-17   0.0000000000E+00   0.1122750000E-02   0.1691885784E-17   0.0000000000E+00  -0.4955786960E-01  -0.5154260671E-17   0.4625000007E+01  -0.6924591738E-11  -0.6924200243E-11   0.1264728181E-14   0.1886391327E-15   0.1034257573E-15   0.9688873934E-01  -0.4843511967E-01  -0.4843511967E-01  -0.8988111350E-17  -0.1518203821E-16  -0.1357556648E-16   0.4625000007E+01
   0.0000000000E+00   0.0000000000E+00   0.9515648804E+00   0.0000000000E+00   0.0000000000E+00   0.1122750000E-02   0.0000000000E+00   0.0000000000E+00  -0.4955786960E-01   0.4625000007E+01   0.2363826844E-11   0.2364207060E-11   0.4373831477E-16   0.7599063710E-15  -0.1197383214E-15   0.9688873934E-01  -0.4843511967E-01  -0.4843511967E-01  -0.3842851921E-17  -0.2206324863E-15  -0.9775448945E-16   0.4625000007E+01
   0.1096888739E+01   0.0000000000E+00   0.9515648804E+00  -0.2250000000E-02   0.0000000000E+00   0.1122750000E-02   0.9913873920E-01   0.0000000000E+00  -0.4955786960E-01   0.4625000007E+01   0.1131195711E-11   0.1129952688E-11  -0.1762636846E-14   0.1331053394E-14  -0.1632162980E-16   0.9688873934E-01  -0.4843511967E-01  -0.4843511967E-01   0.1170947395E-16  -0.6730312256E-16   0.4092480878E-17   0.4625000007E+01
   0.1096888739E+01   0.9515648804E+00   0.9515648804E+00  -0.2250000000E-02   0.1122750000E-02   0.1122750000E-02   0.9913873920E-01  -0.4955786960E-01  -0.4955786960E-01   0.4625000006E+01  -0.2733074763E-13  -0.2594695459E-13  -0.1243227410E-15  -0.9115907481E-15   0.1150615242E-16   0.9688873933E-01  -0.4843511966E-01  -0.4843511966E-01   0.5143202831E-16   0.1025910979E-15   0.1456512043E-15   0.4625000006E+01
   0.0000000000E+00   0.9515648804E+00   0.9515648804E+00   0.0000000000E+00   0.1122750000E-02   0.1122750000E-02   0.0000000000E+00  -0.4955786960E-01  -0.4955786960E-01   0.4625000006E+01   0.1698033259E-11   0.1695268199E-11   0.6798364630E-15   0.1342669683E-14   0.5999562037E-15   0.9688873933E-01  -0.4843511967E-01  -0.4843511967E-01   0.1979965275E-15  -0.1561760919E-15  -0.1007354184E-15   0.4625000006E+01
   0.2193777478E+01   0.0000000000E+00  -0.1236557416E-15  -0.4500000000E-02   0.0000000000E+00   0.4603194948E-17   0.1982774784E+00   0.0000000000E+00  -0.1282589365E-15   0.4625000007E+01  -0.1082446789E-11  -0.1081313721E-11  -0.6626060168E-15  -0.1640323052E-14  -0.4541361430E-15   0.9688873935E-01  -0.4843511967E-01  -0.4843511967E-01   0.2034441158E-15   0.1407431806E-15  -0.4076743349E-16   0.4625000007E+01
   0.2193777478E+01   0.9515648804E+00  -0.1355825108E-15  -0.4500000000E-02   0.1122750000E-02   0.6050040890E-17   0.1982774784E+00  -0.4955786960E-01  -0.1416325517E-15   0.4625000006E+01   0.2653141026E-11   0.2652571040E-11   0.7138342446E-15  -0.4034611290E-15   0.2302160305E-15   0.9688873934E-01  -0.4843511967E-01  -0.4843511967E-01   0.3360623745E-15  -0.1338487921E-15   0.5978376711E-16   0.4625000006E+01
   0.2193777478E+01   0.0000000000E+00   0.9515648804E+00  -0.4500000000E-02   0.0000000000E+00   0.1122750000E-02   0.1982774784E+00   0.0000000000E+00  -0.4955786960E-01   0.4625000006E+01   0.3651192505E-11   0.3651797683E-11  -0.3577260049E-15   0.1094287312E-14   0.5577966007E-17   0.9688873934E-01  -0.4843511967E-01  -0.4843511967E-01  -0.1841849551E-15   0.4441192943E-15   0.2366192102E-16   0.4625000006E+01
   0.2193777478E+01   0.9515648804E+00   0.9515648804E+00  -0.4500000000E-02   0.1122750000E-02   0.1122750000E-02   0.1982774784E+00  -0.4955786960E-01  -0.4955786960E-01   0.4625000006E+01   0.2547695772E-11   0.2545732563E-11   0.1386567704E-14   0.2830684411E-14   0.7078245444E-15   0.9688873933E-01  -0.4843511966E-01  -0.4843511966E-01  -0.2909923591E-15  -0.1137582608E-15   0.6969049766E-16   0.4625000006E+01
     1     2     3     4     5     6     7     8
     2     9    10     3     6    11    12     7
 VARIABLES = X,Y,Z,DU1,DU2,DU3,U1,U2,U3,S11,S22,S33,S12,S13,S23,E11,E22,E33,E12,E13,E23,SMISES
 ZONE, T="0.9400D+01" F=FEPOINT, I=   12 J=    2 ET=BRICK
   0.0000000000E+00   0.0000000000E+00   0.0000000000E+00   0.0000000000E+00   0.0000000000E+00   0.0000000000E+00   0.0000000000E+00   0.0000000000E+00   0.0000000000E+00   0.3500000005E+01  -0.9329792330E-12  -0.9344172739E-12  -0.1268565534E-15   0.4916143190E-15  -0.4266450921E-15   0.9463873935E-01  -0.4731236968E-01  -0.4731236968E-01  -0.8994008095E-18  -0.1272711264E-16  -0.3680230506E-17   0.3500000005E+01
   0.1094638739E+01   0.0000000000E+00  -0.3040950137E-16  -0.2250000000E-02   0.0000000000E+00   0.5689104620E-17   0.9688873920E-01   0.0000000000E+00  -0.3609860599E-16   0.3500000005E+01   0.6698964369E-14   0.6089800581E-14   0.4922678096E-15  -0.9074542928E-15   0.1359217698E-16   0.9463873935E-01  -0.4731236967E-01  -0.4731236967E-01  -0.3589524492E-16  -0.8180694736E-16   0.4815912228E-17   0.3500000005E+01
   0.1094638739E+01   0.9526876304E+00  -0.3121621228E-16  -0.2250000000E-02   0.1122750000E-02   0.9170886876E-17   0.9688873920E-01  -0.4843511960E-01  -0.4038709915E-16   0.3500000005E+01  -0.1781166890E-11  -0.1780258393E-11   0.1915156170E-14  -0.2069554843E-14   0.4829925929E-15   0.9463873934E-01  -0.4731236967E-01  -0.4731236967E-01  -0.2412654688E-16   0.4279466351E-16   0.1179587601E-15   0.3500000005E+01
   0.0000000000E+00   0.9526876304E+00  -0.3521394692E-17   0.0000000000E+00   0.1122750000E-02  -0.5901980581E-19   0.0000000000E+00  -0.4843511960E-01  -0.3462374886E-17   0.3500000005E+01  -0.5602053146E-11  -0.5601763972E-11   0.9789555434E-15   0.1378965729E-14  -0.6221475519E-15   0.9463873934E-01  -0.4731236967E-01  -0.4731236967E-01  -0.3354887935E-16  -0.5612317686E-16  -0.3137666496E-16   0.3500000005E+01
   0.0000000000E+00   0.0000000000E+00   0.9526876304E+00   0.0000000000E+00   0.0000000000E+00   0.1122750000E-02   0.0000000000E+00   0.0000000000E+00  -0.4843511960E-01   0.3500000005E+01   0.1560488032E-11   0.1561253570E-11   0.7072597236E-16   0.1451904012E-14   0.3260750788E-15   0.9463873934E-01  -0.4731236967E-01  -0.4731236967E-01  -0.2006708901E-17  -0.2686805715E-15  -0.9736295490E-16   0.3500000005E+01
   0.1094638739E+01   0.0000000000E+00   0.9526876304E+00  -0.2250000000E-02   0.0000000000E+00   0.1122750000E-02   0.9688873920E-01   0.0000000000E+00  -0.4843511960E-01   0.3500000005E+01   0.4781483356E-12   0.4777949503E-12  -0.2181561764E-14   0.1717799218E-14   0.2315647045E-15   0.9463873934E-01  -0.4731236967E-01  -0.4731236967E-01  -0.1915043873E-16  -0.1151467045E-16   0.5061680230E-17   0.3500000005E+01
   0.1094638739E+01   0.9526876304E+00   0.9526876304E+00  -0.2250000000E-02   0.1122750000E-02   0.1122750000E-02   0.9688873920E-01  -0.4843511960E-01  -0.4843511960E-01   0.3500000005E+01  -0.7853594700E-12  -0.7839187069E-12  -0.3555478589E-15  -0.1533910232E-14  -0.1419207226E-15   0.9463873933E-01  -0.4731236966E-01  -0.4731236966E-01   0.8259879026E-16   0.7779322060E-16   0.1658368714E-15   0.3500000005E+01
   0.0000000000E+00   0.9526876304E+00   0.9526876304E+00   0.0000000000E+00   0.1122750000E-02   0.1122750000E-02   0.0000000000E+00  -0.4843511960E-01  -0.4843511960E-01   0.3500000005E+01   0.8344327897E-12   0.8326359192E-12   0.7653447619E-15   0.1854219974E-14   0.2195168874E-15   0.9463873933E-01  -0.4731236966E-01  -0.4731236966E-01   0.1862268897E-15  -0.1033483985E-15  -0.1463713332E-15   0.3500000005E+01
   0.2189277478E+01   0.0000000000E+00  -0.9691236054E-16  -0.4500000000E-02   0.0000000000E+00   0.2674338104E-16   0.1937774784E+00   0.0000000000E+00  -0.1236557416E-15   0.3500000005E+01   0.3177803793E-12   0.3184463176E-12  -0.2232724173E-14  -0.2673277662E-14  -0.4149781822E-15   0.9463873935E-01  -0.4731236967E-01  -0.4731236967E-01   0.2180415686E-15   0.7990630236E-16  -0.3872341754E-16   0.3500000005E+01
   0.2189277478E+01   0.9526876304E+00  -0.1085254733E-15  -0.4500000000E-02   0.1122750000E-02   0.2705703750E-16   0.1937774784E+00  -0.4843511960E-01  -0.1355825108E-15   0.3500000005E+01   0.2496476035E-11   0.2495672386E-11  -0.4030629347E-15  -0.1968598557E-15  -0.2892686875E-15   0.9463873934E-01  -0.4731236967E-01  -0.4731236967E-01   0.3120837748E-15  -0.7127007322E-16   0.4933913465E-16   0.3500000005E+01
   0.2189277478E+01   0.0000000000E+00   0.9526876304E+00  -0.4500000000E-02   0.0000000000E+00   0.1122750000E-02   0.1937774784E+00   0.0000000000E+00  -0.4843511960E-01   0.3500000005E+01   0.3008040721E-11   0.3008899880E-11  -0.4571218752E-16   0.1222775804E-15   0.4859294319E-16   0.9463873934E-01  -0.4731236967E-01  -0.4731236967E-01  -0.1422654123E-15   0.3418288571E-15   0.1501801276E-16   0.3500000005E+01
   0.2189277478E+01   0.9526876304E+00   0.9526876304E+00  -0.4500000000E-02   0.1122750000E-02   0.1122750000E-02   0.1937774784E+00  -0.4843511960E-01  -0.4843511960E-01   0.3500000004E+01   0.2351276447E-11   0.2349739732E-11   0.1862290634E-14   0.3471920830E-14   0.2318009179E-15   0.9463873932E-01  -0.4731236966E-01  -0.4731236966E-01  -0.2307618142E-15  -0.7655078648E-16   0.6937882185E-16   0.3500000004E+01
     1     2     3     4     5     6     7     8
     2     9    10     3     6    11    12     7
 VARIABLES = X,Y,Z,DU1,DU2,DU3,U1,U2,U3,S11,S22,S33,S12,S13,S23,E11,E22,E33,E12,E13,E23,SMISES
 ZONE, T="0.9450D+01" F=FEPOINT, I=   12 J=    2 ET=BRICK
   0.0000000000E+00   0.0000000000E+00   0.0000000000E+00   0.0000000000E+00   0.0000000000E+00   0.0000000000E+00   0.0000000000E+00   0.0000000000E+00   0.0000000000E+00   0.2375000004E+01  -0.5599606629E-12  -0.5605229445E-12  -0.9526281837E-16   0.5423169293E-15  -0.2280932139E-15   0.9238873935E-01  -0.4618961967E-01  -0.4618961967E-01  -0.3812799953E-17  -0.2314307458E-16  -0.1547311269E-16   0.2375000004E+01
   0.1092388739E+01   0.0000000000E+00  -0.3151741674E-16  -0.2250000000E-02   0.0000000000E+00  -0.1107915367E-17   0.9463873920E-01   0.0000000000E+00  -0.3040950137E-16   0.2375000004E+01  -0.3601141403E-12  -0.3607252968E-12  -0.7613010112E-15  -0.1862497611E-14  -0.1634715361E-15   0.9238873935E-01  -0.4618961967E-01  -0.4618961967E-01  -0.2875917486E-16  -0.3738865149E-16  -0.1146492293E-17   0.2375000004E+01
   0.1092388739E+01   0.9538103804E+00  -0.3354874652E-16  -0.2250000000E-02   0.1122750000E-02  -0.2332534240E-17   0.9463873920E-01  -0.4731236960E-01  -0.3121621228E-16   0.2375000003E+01  -0.1859093155E-11  -0.1858020118E-11   0.7101710500E-15  -0.1294370344E-14   0.3687568997E-15   0.9238873933E-01  -0.4618961967E-01  -0.4618961967E-01  -0.2746989905E-16  -0.3181237465E-16   0.1013376897E-15   0.2375000003E+01
   0.0000000000E+00   0.9538103804E+00  -0.2273995900E-17   0.0000000000E+00   0.1122750000E-02   0.1247398792E-17   0.0000000000E+00  -0.4731236960E-01  -0.3521394692E-17   0.2375000003E+01  -0.6530559865E-11  -0.6530160665E-11   0.1383414410E-14   0.9844488047E-15   0.1076470947E-16   0.9238873934E-01  -0.4618961967E-01  -0.4618961967E-01  -0.1624562995E-16  -0.3688348349E-16  -0.2183618776E-17   0.2375000003E+01
   0.0000000000E+00   0.0000000000E+00   0.9538103804E+00   0.0000000000E+00   0.0000000000E+00   0.1122750000E-02   0.0000000000E+00   0.0000000000E+00  -0.4731236960E-01   0.2375000003E+01   0.1540925233E-11   0.1541823108E-11   0.3859051972E-16   0.1460928583E-14   0.1617931228E-15   0.9238873934E-01  -0.4618961967E-01  -0.4618961967E-01  -0.2814828277E-17  -0.2506729306E-15  -0.8099343158E-16   0.2375000003E+01
   0.1092388739E+01   0.0000000000E+00   0.9538103804E+00  -0.2250000000E-02   0.0000000000E+00   0.1122750000E-02   0.9463873920E-01   0.0000000000E+00  -0.4731236960E-01   0.2375000003E+01   0.8293053089E-12   0.8288280199E-12  -0.1414132847E-14   0.6114947226E-15   0.5213808807E-17   0.9238873933E-01  -0.4618961967E-01  -0.4618961967E-01   0.1014482408E-16  -0.6927722334E-16   0.3739029548E-16   0.2375000003E+01
   0.1092388739E+01   0.9538103804E+00   0.9538103804E+00  -0.2250000000E-02   0.1122750000E-02   0.1122750000E-02   0.9463873920E-01  -0.4731236960E-01  -0.4731236960E-01   0.2375000003E+01  -0.4698729780E-12  -0.4686780297E-12   0.4768075957E-15  -0.6964986387E-15  -0.1548570247E-15   0.9238873932E-01  -0.4618961966E-01  -0.4618961966E-01   0.6929417663E-16   0.8688600374E-16   0.1674192311E-15   0.2375000003E+01
   0.0000000000E+00   0.9538103804E+00   0.9538103804E+00   0.0000000000E+00   0.1122750000E-02   0.1122750000E-02   0.0000000000E+00  -0.4731236960E-01  -0.4731236960E-01   0.2375000003E+01   0.1299035820E-11   0.1296749775E-11   0.7680978225E-15   0.1736843616E-14   0.4315141249E-15   0.9238873933E-01  -0.4618961966E-01  -0.4618961966E-01   0.1997562096E-15  -0.9726161867E-16  -0.1470928136E-15   0.2375000003E+01
   0.2184777478E+01   0.0000000000E+00  -0.1062017457E-15  -0.4500000000E-02   0.0000000000E+00  -0.9289385207E-17   0.1892774784E+00   0.0000000000E+00  -0.9691236054E-16   0.2375000004E+01  -0.9886913854E-12  -0.9878544658E-12  -0.1039244240E-14  -0.1878575987E-14  -0.5413221129E-15   0.9238873934E-01  -0.4618961967E-01  -0.4618961967E-01   0.1853038272E-15   0.1425494838E-15  -0.3412953115E-16   0.2375000004E+01
   0.2184777478E+01   0.9538103804E+00  -0.1186550380E-15  -0.4500000000E-02   0.1122750000E-02  -0.1012956469E-16   0.1892774784E+00  -0.4731236960E-01  -0.1085254733E-15   0.2375000003E+01   0.2907465410E-11   0.2906688521E-11   0.6722236639E-15  -0.2884580207E-15  -0.1677287995E-15   0.9238873933E-01  -0.4618961967E-01  -0.4618961967E-01   0.3014590458E-15  -0.7620205269E-16   0.4199900214E-16   0.2375000003E+01
   0.2184777478E+01   0.0000000000E+00   0.9538103804E+00  -0.4500000000E-02   0.0000000000E+00   0.1122750000E-02   0.1892774784E+00   0.0000000000E+00  -0.4731236960E-01   0.2375000003E+01   0.3747948872E-11   0.3748235590E-11  -0.3701637762E-15   0.1414734154E-14  -0.1338956731E-15   0.9238873933E-01  -0.4618961967E-01  -0.4618961967E-01  -0.1833427538E-15   0.3114820587E-15  -0.7089395238E-19   0.2375000003E+01
   0.2184777478E+01   0.9538103804E+00   0.9538103804E+00  -0.4500000000E-02   0.1122750000E-02   0.1122750000E-02   0.1892774784E+00  -0.4731236960E-01  -0.4731236960E-01   0.2375000003E+01   0.2372109313E-11   0.2370288601E-11   0.1590499683E-14   0.2835086787E-14   0.3863691559E-15   0.9238873932E-01  -0.4618961966E-01  -0.4618961966E-01  -0.2433709609E-15  -0.1683090020E-15   0.8567962314E-16   0.2375000003E+01
     1     2     3     4     5     6     7     8
     2     9    10     3     6    11    12     7
 VARIABLES = X,Y,Z,DU1,DU2,DU3,U1,U2,U3,S11,S22,S33,S12,S13,S23,E11,E22,E33,E12,E13,E23,SMISES
 ZONE, T="0.9500D+01" F=FEPOINT, I=   12 J=    2 ET=BRICK
   0.0000000000E+00   0.0000000000E+00   0.0000000000E+00   0.0000000000E+00   0.0000000000E+00   0.0000000000E+00   0.0000000000E+00   0.0000000000E+00   0.0000000000E+00   0.1250000002E+01  -0.9937015635E-12  -0.9945211311E-12  -0.8767680694E-16   0.2270011254E-15  -0.5233462338E-15   0.9013873934E-01  -0.4506686967E-01  -0.4506686967E-01  -0.3318177202E-17  -0.5950996329E-16  -0.3291930235E-16   0.1250000002E+01
   0.1090138739E+01   0.0000000000E+00  -0.3286401975E-16  -0.2250000000E-02   0.0000000000E+00  -0.1346603008E-17   0.9238873920E-01   0.0000000000E+00  -0.3151741674E-16   0.1250000002E+01  -0.2077833944E-12  -0.2082469749E-12  -0.6643331297E-16  -0.1295817614E-14  -0.7837968211E-16   0.9013873934E-01  -0.4506686967E-01  -0.4506686967E-01  -0.4354556065E-16   0.7774280860E-17  -0.5137663621E-17   0.1250000002E+01
   0.1090138739E+01   0.9549331304E+00  -0.3449237588E-16  -0.2250000000E-02   0.1122750000E-02  -0.9436293680E-18   0.9238873920E-01  -0.4618961960E-01  -0.3354874652E-16   0.1250000002E+01  -0.2016952217E-11  -0.2015760356E-11   0.1446447202E-14  -0.1515925832E-14   0.4591419968E-15   0.9013873933E-01  -0.4506686967E-01  -0.4506686967E-01  -0.3210808288E-16   0.7758879702E-17   0.1464750350E-15   0.1250000002E+01
   0.0000000000E+00   0.9549331304E+00  -0.4041573271E-17   0.0000000000E+00   0.1122750000E-02  -0.1767577371E-17   0.0000000000E+00  -0.4618961960E-01  -0.2273995900E-17   0.1250000002E+01  -0.6141816267E-11  -0.6141329900E-11   0.1065746747E-14   0.1077564861E-14  -0.2419963813E-15   0.9013873933E-01  -0.4506686967E-01  -0.4506686967E-01  -0.2883975115E-16  -0.5560322064E-16  -0.1702006327E-16   0.1250000002E+01
   0.0000000000E+00   0.0000000000E+00   0.9549331304E+00   0.0000000000E+00   0.0000000000E+00   0.1122750000E-02   0.0000000000E+00   0.0000000000E+00  -0.4618961960E-01   0.1250000002E+01   0.1810198579E-11   0.1810829507E-11   0.1464912101E-16   0.1161415163E-14   0.1373602665E-15   0.9013873933E-01  -0.4506686967E-01  -0.4506686967E-01   0.1297485114E-16  -0.2646657046E-15  -0.2552840095E-16   0.1250000002E+01
   0.1090138739E+01   0.0000000000E+00   0.9549331304E+00  -0.2250000000E-02   0.0000000000E+00   0.1122750000E-02   0.9238873920E-01   0.0000000000E+00  -0.4618961960E-01   0.1250000002E+01   0.6687135827E-12   0.6683199251E-12  -0.1699470411E-14   0.1432702613E-14   0.2648665594E-16   0.9013873933E-01  -0.4506686967E-01  -0.4506686967E-01  -0.2216463456E-16  -0.3879871611E-17   0.2783613151E-16   0.1250000002E+01
   0.1090138739E+01   0.9549331304E+00   0.9549331304E+00  -0.2250000000E-02   0.1122750000E-02   0.1122750000E-02   0.9238873920E-01  -0.4618961960E-01  -0.4618961960E-01   0.1250000002E+01  -0.5617686497E-12  -0.5605492996E-12   0.2176502832E-16  -0.1128622460E-14  -0.7447456314E-16   0.9013873932E-01  -0.4506686966E-01  -0.4506686966E-01   0.8357298396E-16   0.1790447964E-16   0.1760304171E-15   0.1250000002E+01
   0.0000000000E+00   0.9549331304E+00   0.9549331304E+00   0.0000000000E+00   0.1122750000E-02   0.1122750000E-02   0.0000000000E+00  -0.4618961960E-01  -0.4618961960E-01   0.1250000002E+01   0.1389447497E-11   0.1387451209E-11   0.6567859570E-15   0.1566230427E-14   0.3863272114E-15   0.9013873932E-01  -0.4506686966E-01  -0.4506686966E-01   0.1896554488E-15  -0.8420269939E-16  -0.2054458382E-15   0.1250000002E+01
   0.2180277478E+01   0.0000000000E+00  -0.1062730986E-15  -0.4500000000E-02   0.0000000000E+00  -0.7135290161E-19   0.1847774784E+00   0.0000000000E+00  -0.1062017457E-15   0.1250000002E+01   0.1236734193E-13   0.1288538831E-13  -0.1894151045E-14  -0.2865499243E-14  -0.3876422209E-15   0.9013873934E-01  -0.4506686967E-01  -0.4506686967E-01   0.9741158761E-16  -0.2733177608E-16  -0.7038241084E-17   0.1250000002E+01
   0.2180277478E+01   0.9549331304E+00  -0.1177727294E-15  -0.4500000000E-02   0.1122750000E-02   0.8823086128E-18   0.1847774784E+00  -0.4618961960E-01  -0.1186550380E-15   0.1250000002E+01   0.2573285241E-11   0.2572059633E-11   0.1710643616E-15  -0.1345788849E-16  -0.2163270927E-15   0.9013873933E-01  -0.4506686966E-01  -0.4506686966E-01   0.1916303492E-15  -0.2127728847E-15   0.6981341594E-17   0.1250000002E+01
   0.2180277478E+01   0.0000000000E+00   0.9549331304E+00  -0.4500000000E-02   0.0000000000E+00   0.1122750000E-02   0.1847774784E+00   0.0000000000E+00  -0.4618961960E-01   0.1250000002E+01   0.3256990270E-11   0.3257445066E-11  -0.2693502948E-15   0.5101613017E-15  -0.6080383038E-16   0.9013873933E-01  -0.4506686966E-01  -0.4506686966E-01  -0.1261218753E-15   0.3506396573E-15   0.8590485536E-18   0.1250000002E+01
   0.2180277478E+01   0.9549331304E+00   0.9549331304E+00  -0.4500000000E-02   0.1122750000E-02   0.1122750000E-02   0.1847774784E+00  -0.4618961960E-01  -0.4618961960E-01   0.1250000002E+01   0.2305606596E-11   0.2303839353E-11   0.1866619235E-14   0.3234734374E-14   0.1110876216E-15   0.9013873932E-01  -0.4506686966E-01  -0.4506686966E-01  -0.2071211554E-15  -0.2057107042E-15   0.8787512561E-16   0.1250000002E+01
     1     2     3     4     5     6     7     8
     2     9    10     3     6    11    12     7
 VARIABLES = X,Y,Z,DU1,DU2,DU3,U1,U2,U3,S11,S22,S33,S12,S13,S23,E11,E22,E33,E12,E13,E23,SMISES
 ZONE, T="0.9550D+01" F=FEPOINT, I=   12 J=    2 ET=BRICK
   0.0000000000E+00   0.0000000000E+00   0.0000000000E+00   0.0000000000E+00   0.0000000000E+00   0.0000000000E+00   0.0000000000E+00   0.0000000000E+00   0.0000000000E+00   0.1250000002E+00  -0.1134014348E-11  -0.1134595604E-11  -0.8289875085E-16   0.1360778338E-15  -0.5900546495E-15   0.8788873934E-01  -0.4394411967E-01  -0.4394411967E-01   0.1208743097E-16  -0.5937868254E-16   0.1556611342E-16   0.1250000002E+00
   0.1087888739E+01   0.0000000000E+00  -0.3401604500E-16  -0.2250000000E-02   0.0000000000E+00  -0.1152025254E-17   0.9013873920E-01   0.0000000000E+00  -0.3286401975E-16   0.1250000002E+00  -0.3226898493E-12  -0.3229272442E-12  -0.3021603012E-15  -0.1532136679E-14  -0.1259785290E-15   0.8788873934E-01  -0.4394411967E-01  -0.4394411967E-01  -0.7010057446E-16  -0.3053950940E-16  -0.1495078105E-16   0.1250000002E+00
   0.1087888739E+01   0.9560558804E+00  -0.3601806762E-16  -0.2250000000E-02   0.1122750000E-02  -0.1525691731E-17   0.9013873920E-01  -0.4506686960E-01  -0.3449237588E-16   0.1250000002E+00  -0.2015192935E-11  -0.2013985254E-11   0.1309324020E-14  -0.1314260579E-14   0.5362666303E-15   0.8788873933E-01  -0.4394411966E-01  -0.4394411966E-01   0.9735751092E-17   0.9772706886E-17   0.1320940505E-15   0.1250000002E+00
   0.0000000000E+00   0.9560558804E+00  -0.4626690036E-17   0.0000000000E+00   0.1122750000E-02  -0.5851167648E-18   0.0000000000E+00  -0.4506686960E-01  -0.4041573271E-17   0.1250000002E+00  -0.6478390425E-11  -0.6477579237E-11   0.1201736072E-14   0.9625916613E-15  -0.1842039721E-15   0.8788873933E-01  -0.4394411967E-01  -0.4394411967E-01  -0.7943112492E-16  -0.4696051562E-16  -0.7065737555E-16   0.1250000002E+00
   0.0000000000E+00   0.0000000000E+00   0.9560558804E+00   0.0000000000E+00   0.0000000000E+00   0.1122750000E-02   0.0000000000E+00   0.0000000000E+00  -0.4506686960E-01   0.1250000002E+00   0.1839430907E-11   0.1839737728E-11   0.1353650648E-16   0.1147977400E-14   0.8183019636E-16   0.8788873933E-01  -0.4394411967E-01  -0.4394411967E-01  -0.8722017842E-17  -0.2555185859E-15  -0.1267233269E-15   0.1250000002E+00
   0.1087888739E+01   0.0000000000E+00   0.9560558804E+00  -0.2250000000E-02   0.0000000000E+00   0.1122750000E-02   0.9013873920E-01   0.0000000000E+00  -0.4506686960E-01   0.1250000002E+00   0.8581780043E-12   0.8578483247E-12  -0.1607681890E-14   0.1327055541E-14  -0.1157595836E-15   0.8788873933E-01  -0.4394411966E-01  -0.4394411966E-01   0.2012642167E-16  -0.2120882815E-16   0.3719812417E-16   0.1250000002E+00
   0.1087888739E+01   0.9560558804E+00   0.9560558804E+00  -0.2250000000E-02   0.1122750000E-02   0.1122750000E-02   0.9013873920E-01  -0.4506686960E-01  -0.4506686960E-01   0.1250000002E+00  -0.4722987554E-12  -0.4712362020E-12   0.2913464938E-16  -0.1023277502E-14  -0.1954141353E-16   0.8788873932E-01  -0.4394411966E-01  -0.4394411966E-01   0.5261672531E-16   0.9554862919E-16   0.1522526558E-15   0.1250000002E+00
   0.0000000000E+00   0.9560558804E+00   0.9560558804E+00   0.0000000000E+00   0.1122750000E-02   0.1122750000E-02   0.0000000000E+00  -0.4506686960E-01  -0.4506686960E-01   0.1250000002E+00   0.1493056221E-11   0.1490802912E-11   0.6947101106E-15   0.1515822915E-14   0.6395512749E-15   0.8788873932E-01  -0.4394411966E-01  -0.4394411966E-01   0.2069165415E-15  -0.1279474374E-15  -0.9756759147E-16   0.1250000002E+00
   0.2175777478E+01   0.0000000000E+00  -0.1097683751E-15  -0.4500000000E-02   0.0000000000E+00  -0.3495276504E-17   0.1802774784E+00   0.0000000000E+00  -0.1062730986E-15   0.1250000002E+00  -0.4194832459E-12  -0.4187719570E-12  -0.1438980412E-14  -0.2560340104E-14  -0.4906942524E-15   0.8788873934E-01  -0.4394411967E-01  -0.4394411967E-01   0.1611368765E-15   0.8914525538E-16  -0.6698528560E-17   0.1250000002E+00
   0.2175777478E+01   0.9560558804E+00  -0.1218862508E-15  -0.4500000000E-02   0.1122750000E-02  -0.4113521443E-17   0.1802774784E+00  -0.4506686960E-01  -0.1177727294E-15   0.1250000002E+00   0.2787562045E-11   0.2786896739E-11   0.4894445383E-15  -0.2115677915E-15  -0.9022573497E-16   0.8788873933E-01  -0.4394411966E-01  -0.4394411966E-01   0.2421226136E-15  -0.1858050936E-15   0.1340292906E-16   0.1250000002E+00
   0.2175777478E+01   0.0000000000E+00   0.9560558804E+00  -0.4500000000E-02   0.0000000000E+00   0.1122750000E-02   0.1802774784E+00   0.0000000000E+00  -0.4506686960E-01   0.1250000002E+00   0.3481724351E-11   0.3481777725E-11  -0.4132774568E-15   0.8023012233E-15  -0.6119448859E-16   0.8788873933E-01  -0.4394411966E-01  -0.4394411966E-01  -0.2322702398E-15   0.3019882797E-15  -0.2556432666E-19   0.1250000002E+00
   0.2175777478E+01   0.9560558804E+00   0.9560558804E+00  -0.4500000000E-02   0.1122750000E-02   0.1122750000E-02   0.1802774784E+00  -0.4506686960E-01  -0.4506686960E-01   0.1250000002E+00   0.2472906382E-11   0.2471103383E-11   0.1758236031E-14   0.3193274305E-14   0.2887469973E-15   0.8788873932E-01  -0.4394411966E-01  -0.4394411966E-01  -0.1632831103E-15  -0.2680341253E-15   0.5535921950E-16   0.1250000002E+00
     1     2     3     4     5     6     7     8
     2     9    10     3     6    11    12     7
 VARIABLES = X,Y,Z,DU1,DU2,DU3,U1,U2,U3,S11,S22,S33,S12,S13,S23,E11,E22,E33,E12,E13,E23,SMISES
 ZONE, T="0.9600D+01" F=FEPOINT, I=   12 J=    2 ET=BRICK
   0.0000000000E+00   0.0000000000E+00   0.0000000000E+00   0.0000000000E+00   0.0000000000E+00   0.0000000000E+00   0.0000000000E+00   0.0000000000E+00   0.0000000000E+00  -0.1000000002E+01  -0.1190760945E-11  -0.1191445951E-11  -0.6064256956E-16   0.2015073794E-15  -0.5669496695E-15   0.8563873934E-01  -0.4282136967E-01  -0.4282136967E-01   0.8617994864E-17  -0.6347964967E-16  -0.8767450130E-17   0.1000000002E+01
   0.1085638739E+01   0.0000000000E+00  -0.3439301206E-16  -0.2250000000E-02   0.0000000000E+00  -0.3769670552E-18   0.8788873920E-01   0.0000000000E+00  -0.3401604500E-16  -0.1000000002E+01  -0.3766053395E-12  -0.3769663312E-12  -0.2063488491E-15  -0.1440805024E-14  -0.1665297441E-15   0.8563873933E-01  -0.4282136967E-01  -0.4282136967E-01  -0.6548892737E-16  -0.2814999377E-16  -0.8775059906E-17   0.1000000002E+01
   0.1085638739E+01   0.9571786304E+00  -0.3662121973E-16  -0.2250000000E-02   0.1122750000E-02  -0.6031521120E-18   0.8788873920E-01  -0.4394411960E-01  -0.3601806762E-16  -0.1000000001E+01  -0.2083222202E-11  -0.2081897274E-11   0.1396621535E-14  -0.1404993374E-14   0.5371853908E-15   0.8563873933E-01  -0.4282136966E-01  -0.4282136966E-01  -0.2877711660E-16  -0.5549726698E-16   0.1530719083E-15   0.1000000001E+01
   0.0000000000E+00   0.9571786304E+00  -0.4498676695E-17   0.0000000000E+00   0.1122750000E-02   0.1280133411E-18   0.0000000000E+00  -0.4394411960E-01  -0.4626690036E-17  -0.1000000001E+01  -0.6449613692E-11  -0.6448810992E-11   0.1166185801E-14   0.8814359743E-15  -0.2125044364E-15   0.8563873933E-01  -0.4282136966E-01  -0.4282136966E-01  -0.5834098504E-16  -0.1621871420E-16  -0.2041362140E-16   0.1000000001E+01
   0.0000000000E+00   0.0000000000E+00   0.9571786304E+00   0.0000000000E+00   0.0000000000E+00   0.1122750000E-02   0.0000000000E+00   0.0000000000E+00  -0.4394411960E-01  -0.1000000001E+01   0.2049494192E-11   0.2049975320E-11  -0.2410088051E-17   0.9311060166E-15   0.3659992057E-16   0.8563873933E-01  -0.4282136966E-01  -0.4282136966E-01   0.1098465855E-18  -0.2451784268E-15  -0.1010343393E-15   0.1000000001E+01
   0.1085638739E+01   0.0000000000E+00   0.9571786304E+00  -0.2250000000E-02   0.0000000000E+00   0.1122750000E-02   0.8788873920E-01   0.0000000000E+00  -0.4394411960E-01  -0.1000000001E+01   0.8766390617E-12   0.8762788710E-12  -0.1811063066E-14   0.1682463568E-14  -0.6290197109E-16   0.8563873933E-01  -0.4282136966E-01  -0.4282136966E-01  -0.2941017528E-17  -0.4017142083E-16   0.2214852648E-16   0.1000000001E+01
   0.1085638739E+01   0.9571786304E+00   0.9571786304E+00  -0.2250000000E-02   0.1122750000E-02   0.1122750000E-02   0.8788873920E-01  -0.4394411960E-01  -0.4394411960E-01  -0.1000000001E+01  -0.4678984128E-12  -0.4666983848E-12  -0.2017213241E-15  -0.1212952573E-14   0.6452243142E-16   0.8563873932E-01  -0.4282136966E-01  -0.4282136966E-01   0.5398432746E-16   0.1068646420E-15   0.1816679296E-15   0.1000000001E+01
   0.0000000000E+00   0.9571786304E+00   0.9571786304E+00   0.0000000000E+00   0.1122750000E-02   0.1122750000E-02   0.0000000000E+00  -0.4394411960E-01  -0.4394411960E-01  -0.1000000001E+01   0.1463794350E-11   0.1461621867E-11   0.7094476876E-15   0.1507154089E-14   0.5181244568E-15   0.8563873932E-01  -0.4282136966E-01  -0.4282136966E-01   0.2058727929E-15  -0.1310755082E-15  -0.1268027445E-15   0.1000000001E+01
   0.2171277478E+01   0.0000000000E+00  -0.1121621831E-15  -0.4500000000E-02   0.0000000000E+00  -0.2393807960E-17   0.1757774784E+00   0.0000000000E+00  -0.1097683751E-15  -0.1000000002E+01  -0.3852381888E-12  -0.3843164590E-12  -0.1755520210E-14  -0.2671301128E-14  -0.4705665815E-15   0.8563873933E-01  -0.4282136967E-01  -0.4282136967E-01   0.1940518959E-15   0.2310494966E-16  -0.1442450591E-16   0.1000000002E+01
   0.2171277478E+01   0.9571786304E+00  -0.1242073039E-15  -0.4500000000E-02   0.1122750000E-02  -0.2321053051E-17   0.1757774784E+00  -0.4394411960E-01  -0.1218862508E-15  -0.1000000001E+01   0.2545584084E-11   0.2544974409E-11   0.1932002598E-15  -0.7728752395E-16  -0.5121774005E-16   0.8563873932E-01  -0.4282136966E-01  -0.4282136966E-01   0.2588628825E-15  -0.9532064745E-16   0.1941951340E-16   0.1000000001E+01
   0.2171277478E+01   0.0000000000E+00   0.9571786304E+00  -0.4500000000E-02   0.0000000000E+00   0.1122750000E-02   0.1757774784E+00   0.0000000000E+00  -0.4394411960E-01  -0.1000000001E+01   0.3448246194E-11   0.3448251590E-11  -0.5730991189E-15   0.7932382812E-15  -0.1952504361E-15   0.8563873932E-01  -0.4282136966E-01  -0.4282136966E-01  -0.1905954323E-15   0.2947202594E-15   0.4451921953E-17   0.1000000001E+01
   0.2171277478E+01   0.9571786304E+00   0.9571786304E+00  -0.4500000000E-02   0.1122750000E-02   0.1122750000E-02   0.1757774784E+00  -0.4394411960E-01  -0.4394411960E-01  -0.1000000001E+01   0.2488051650E-11   0.2486088891E-11   0.1621374108E-14   0.3006271178E-14   0.3070434492E-15   0.8563873931E-01  -0.4282136966E-01  -0.4282136966E-01  -0.1970969406E-15  -0.9374029848E-16   0.8114258997E-16   0.1000000001E+01
     1     2     3     4     5     6     7     8
     2     9    10     3     6    11    12     7
 VARIABLES = X,Y,Z,DU1,DU2,DU3,U1,U2,U3,S11,S22,S33,S12,S13,S23,E11,E22,E33,E12,E13,E23,SMISES
 ZONE, T="0.9650D+01" F=FEPOINT, I=   12 J=    2 ET=BRICK
   0.0000000000E+00   0.0000000000E+00   0.0000000000E+00   0.0000000000E+00   0.0000000000E+00   0.0000000000E+00   0.0000000000E+00   0.0000000000E+00   0.0000000000E+00  -0.2125000003E+01  -0.1205334396E-11  -0.1206025661E-11  -0.8472208349E-16   0.1992588887E-15  -0.4939153018E-15   0.8338873933E-01  -0.4169861967E-01  -0.4169861967E-01  -0.1360359234E-17  -0.4853060721E-16  -0.9405175371E-17   0.2125000003E+01
   0.1083388739E+01   0.0000000000E+00  -0.3509437910E-16  -0.2250000000E-02   0.0000000000E+00  -0.7013670444E-18   0.8563873920E-01   0.0000000000E+00  -0.3439301206E-16  -0.2125000003E+01  -0.5099546075E-12  -0.5101764567E-12  -0.3800016693E-15  -0.1688064849E-14  -0.2537888627E-15   0.8338873933E-01  -0.4169861967E-01  -0.4169861967E-01  -0.6186595727E-16  -0.5387964538E-16  -0.8869350733E-17   0.2125000003E+01
   0.1083388739E+01   0.9583013804E+00  -0.3781334914E-16  -0.2250000000E-02   0.1122750000E-02  -0.1192129416E-17   0.8563873920E-01  -0.4282136960E-01  -0.3662121973E-16  -0.2125000003E+01  -0.2098360247E-11  -0.2096920213E-11   0.1178930019E-14  -0.1141265983E-14   0.5227251363E-15   0.8338873932E-01  -0.4169861966E-01  -0.4169861966E-01  -0.9159950928E-17  -0.3449852735E-16   0.1384240036E-15   0.2125000003E+01
   0.0000000000E+00   0.9583013804E+00  -0.4034421859E-17   0.0000000000E+00   0.1122750000E-02   0.4642548353E-18   0.0000000000E+00  -0.4282136960E-01  -0.4498676695E-17  -0.2125000003E+01  -0.6757234059E-11  -0.6756414442E-11   0.1223846345E-14   0.6483789626E-15   0.4778400994E-17   0.8338873932E-01  -0.4169861966E-01  -0.4169861966E-01  -0.9301083591E-16  -0.4221945748E-16  -0.3377103150E-16   0.2125000003E+01
   0.0000000000E+00   0.0000000000E+00   0.9583013804E+00   0.0000000000E+00   0.0000000000E+00   0.1122750000E-02   0.0000000000E+00   0.0000000000E+00  -0.4282136960E-01  -0.2125000003E+01   0.1988839134E-11   0.1989313140E-11   0.1837543429E-16   0.8277294481E-15   0.7910357661E-16   0.8338873932E-01  -0.4169861966E-01  -0.4169861966E-01  -0.4175213693E-17  -0.2815457166E-15  -0.1217853601E-15   0.2125000003E+01
   0.1083388739E+01   0.0000000000E+00   0.9583013804E+00  -0.2250000000E-02   0.0000000000E+00   0.1122750000E-02   0.8563873920E-01   0.0000000000E+00  -0.4282136960E-01  -0.2125000003E+01   0.9850702655E-12   0.9845848100E-12  -0.1478211322E-14   0.1447590224E-14  -0.1611030780E-15   0.8338873932E-01  -0.4169861966E-01  -0.4169861966E-01   0.1821283045E-16  -0.7194491428E-16   0.4418175444E-16   0.2125000003E+01
   0.1083388739E+01   0.9583013804E+00   0.9583013804E+00  -0.2250000000E-02   0.1122750000E-02   0.1122750000E-02   0.8563873920E-01  -0.4282136960E-01  -0.4282136960E-01  -0.2125000003E+01  -0.4035956011E-12  -0.4023701750E-12   0.1081243138E-15  -0.1012589626E-14   0.1107955746E-16   0.8338873931E-01  -0.4169861966E-01  -0.4169861966E-01   0.5561250692E-16   0.5716693368E-16   0.1734354895E-15   0.2125000003E+01
   0.0000000000E+00   0.9583013804E+00   0.9583013804E+00   0.0000000000E+00   0.1122750000E-02   0.1122750000E-02   0.0000000000E+00  -0.4282136960E-01  -0.4282136960E-01  -0.2125000003E+01   0.1678675042E-11   0.1676378474E-11   0.6197097398E-15   0.1375087557E-14   0.6118845603E-15   0.8338873931E-01  -0.4169861966E-01  -0.4169861966E-01   0.1951158164E-15  -0.1034299025E-15  -0.1197147204E-15   0.2125000003E+01
   0.2166777478E+01   0.0000000000E+00  -0.1156050096E-15  -0.4500000000E-02   0.0000000000E+00  -0.3442826514E-17   0.1712774784E+00   0.0000000000E+00  -0.1121621831E-15  -0.2125000003E+01  -0.7114061972E-12  -0.7106677832E-12  -0.1345338961E-14  -0.2258892224E-14  -0.5474724027E-15   0.8338873933E-01  -0.4169861966E-01  -0.4169861966E-01   0.1724539592E-15   0.6635344637E-17  -0.2586074507E-16   0.2125000003E+01
   0.2166777478E+01   0.9583013804E+00  -0.1280493335E-15  -0.4500000000E-02   0.1122750000E-02  -0.3842029603E-17   0.1712774784E+00  -0.4282136960E-01  -0.1242073039E-15  -0.2125000003E+01   0.2694656495E-11   0.2694308189E-11   0.5496715499E-15  -0.2542655963E-15   0.3189792768E-16   0.8338873932E-01  -0.4169861966E-01  -0.4169861966E-01   0.2862288426E-15  -0.2206818589E-15   0.7482598562E-16   0.2125000003E+01
   0.2166777478E+01   0.0000000000E+00   0.9583013804E+00  -0.4500000000E-02   0.0000000000E+00   0.1122750000E-02   0.1712774784E+00   0.0000000000E+00  -0.4282136960E-01  -0.2125000003E+01   0.3760194954E-11   0.3760005016E-11  -0.8139507925E-15   0.1251785934E-14  -0.1952852569E-15   0.8338873932E-01  -0.4169861966E-01  -0.4169861966E-01  -0.1908661588E-15   0.3514657927E-15   0.3386257829E-17   0.2125000003E+01
   0.2166777478E+01   0.9583013804E+00   0.9583013804E+00  -0.4500000000E-02   0.1122750000E-02   0.1122750000E-02   0.1712774784E+00  -0.4282136960E-01  -0.4282136960E-01  -0.2125000003E+01   0.2381690488E-11   0.2379601285E-11   0.1396727412E-14   0.2915200207E-14   0.4804744961E-15   0.8338873931E-01  -0.4169861965E-01  -0.4169861965E-01  -0.1878754455E-15  -0.1473425016E-15   0.8261268601E-16   0.2125000003E+01
     1     2     3     4     5     6     7     8
     2     9    10     3     6    11    12     7
 VARIABLES = X,Y,Z,DU1,DU2,DU3,U1,U2,U3,S11,S22,S33,S12,S13,S23,E11,E22,E33,E12,E13,E23,SMISES
 ZONE, T="0.9700D+01" F=FEPOINT, I=   12 J=    2 ET=BRICK
   0.0000000000E+00   0.0000000000E+00   0.0000000000E+00   0.0000000000E+00   0.0000000000E+00   0.0000000000E+00   0.0000000000E+00   0.0000000000E+00   0.0000000000E+00  -0.3250000005E+01  -0.1338829648E-11  -0.1339700959E-11  -0.7706471381E-16  -0.1572544551E-15  -0.8064467332E-15   0.8113873933E-01  -0.4057586967E-01  -0.4057586967E-01   0.2312903130E-17  -0.7124255803E-16  -0.1490957432E-16   0.3250000005E+01
   0.1081138739E+01   0.0000000000E+00  -0.3728257402E-16  -0.2250000000E-02   0.0000000000E+00  -0.2188194917E-17   0.8338873920E-01   0.0000000000E+00  -0.3509437910E-16  -0.3250000005E+01  -0.5573554719E-12  -0.5571047469E-12  -0.5458960607E-15  -0.1940675449E-14  -0.1709144265E-15   0.8113873933E-01  -0.4057586966E-01  -0.4057586966E-01  -0.5889453004E-16  -0.2937730772E-16  -0.6708761926E-17   0.3250000005E+01
   0.1081138739E+01   0.9594241304E+00  -0.3939753294E-16  -0.2250000000E-02   0.1122750000E-02  -0.1584183796E-17   0.8338873920E-01  -0.4169861960E-01  -0.3781334914E-16  -0.3250000005E+01  -0.2232660249E-11  -0.2231321078E-11   0.1194725263E-14  -0.1122659915E-14   0.7348870414E-15   0.8113873932E-01  -0.4057586966E-01  -0.4057586966E-01  -0.3700443605E-16  -0.6145958654E-16   0.1810756294E-15   0.3250000005E+01
   0.0000000000E+00   0.9594241304E+00  -0.5864050144E-17   0.0000000000E+00   0.1122750000E-02  -0.1829628285E-17   0.0000000000E+00  -0.4169861960E-01  -0.4034421859E-17  -0.3250000005E+01  -0.6793073110E-11  -0.6791836066E-11   0.1397832945E-14   0.8527416367E-15   0.6580318741E-17   0.8113873932E-01  -0.4057586966E-01  -0.4057586966E-01  -0.7605371232E-16  -0.6150593418E-17   0.7221526831E-17   0.3250000005E+01
   0.0000000000E+00   0.0000000000E+00   0.9594241304E+00   0.0000000000E+00   0.0000000000E+00   0.1122750000E-02   0.0000000000E+00   0.0000000000E+00  -0.4169861960E-01  -0.3250000005E+01   0.2115344706E-11   0.2115737803E-11   0.2964402073E-17   0.8004988397E-15  -0.4499083848E-17   0.8113873932E-01  -0.4057586966E-01  -0.4057586966E-01   0.6741081749E-17  -0.3009885754E-15  -0.8684225842E-16   0.3250000005E+01
   0.1081138739E+01   0.0000000000E+00   0.9594241304E+00  -0.2250000000E-02   0.0000000000E+00   0.1122750000E-02   0.8338873920E-01   0.0000000000E+00  -0.4169861960E-01  -0.3250000005E+01   0.1129655464E-11   0.1128912042E-11  -0.1413445010E-14   0.1235604585E-14  -0.2649751464E-15   0.8113873932E-01  -0.4057586966E-01  -0.4057586966E-01  -0.1763129424E-16  -0.4134546541E-16   0.2666595355E-16   0.3250000005E+01
   0.1081138739E+01   0.9594241304E+00   0.9594241304E+00  -0.2250000000E-02   0.1122750000E-02   0.1122750000E-02   0.8338873920E-01  -0.4169861960E-01  -0.4169861960E-01  -0.3250000004E+01  -0.2918307981E-12  -0.2907543091E-12   0.9303461321E-16  -0.8530243162E-15  -0.3242665323E-16   0.8113873931E-01  -0.4057586965E-01  -0.4057586965E-01   0.1020394478E-15   0.4848502293E-16   0.1870237670E-15   0.3250000004E+01
   0.0000000000E+00   0.9594241304E+00   0.9594241304E+00   0.0000000000E+00   0.1122750000E-02   0.1122750000E-02   0.0000000000E+00  -0.4169861960E-01  -0.4169861960E-01  -0.3250000004E+01   0.1875691867E-11   0.1872888164E-11   0.5649364824E-15   0.1290473615E-14   0.8256400465E-15   0.8113873931E-01  -0.4057586966E-01  -0.4057586966E-01   0.1799569669E-15  -0.1484089530E-15  -0.1432917291E-15   0.3250000004E+01
   0.2162277478E+01   0.0000000000E+00  -0.1203868845E-15  -0.4500000000E-02   0.0000000000E+00  -0.4781874919E-17   0.1667774784E+00   0.0000000000E+00  -0.1156050096E-15  -0.3250000005E+01  -0.7614725100E-12  -0.7607557755E-12  -0.1434723029E-14  -0.2107408259E-14  -0.5774112631E-15   0.8113873933E-01  -0.4057586966E-01  -0.4057586966E-01   0.1570073376E-15   0.2775426214E-16  -0.4620101648E-16   0.3250000005E+01
   0.2162277478E+01   0.9594241304E+00  -0.1331560438E-15  -0.4500000000E-02   0.1122750000E-02  -0.5106710319E-17   0.1667774784E+00  -0.4169861960E-01  -0.1280493335E-15  -0.3250000005E+01   0.2644495951E-11   0.2644079618E-11   0.4591775130E-15  -0.1838093902E-15  -0.1802860792E-15   0.8113873932E-01  -0.4057586966E-01  -0.4057586966E-01   0.2923466370E-15  -0.1030538690E-15   0.8662257434E-16   0.3250000005E+01
   0.2162277478E+01   0.0000000000E+00   0.9594241304E+00  -0.4500000000E-02   0.0000000000E+00   0.1122750000E-02   0.1667774784E+00   0.0000000000E+00  -0.4169861960E-01  -0.3250000005E+01   0.3834676832E-11   0.3834269928E-11  -0.6436322280E-15   0.1281917969E-14  -0.2037568722E-15   0.8113873932E-01  -0.4057586966E-01  -0.4057586966E-01  -0.1429903795E-15   0.4619716019E-15   0.1202421207E-16   0.3250000005E+01
   0.2162277478E+01   0.9594241304E+00   0.9594241304E+00  -0.4500000000E-02   0.1122750000E-02   0.1122750000E-02   0.1667774784E+00  -0.4169861960E-01  -0.4169861960E-01  -0.3250000004E+01   0.2590226789E-11   0.2588532240E-11   0.1448206856E-14   0.3436697766E-14   0.4038517299E-15   0.8113873931E-01  -0.4057586965E-01  -0.4057586965E-01  -0.2197955996E-15  -0.2660735713E-15   0.8991498332E-16   0.3250000004E+01
     1     2     3     4     5     6     7     8
     2     9    10     3     6    11    12     7
 VARIABLES = X,Y,Z,DU1,DU2,DU3,U1,U2,U3,S11,S22,S33,S12,S13,S23,E11,E22,E33,E12,E13,E23,SMISES
 ZONE, T="0.9750D+01" F=FEPOINT, I=   12 J=    2 ET=BRICK
   0.0000000000E+00   0.0000000000E+00   0.0000000000E+00   0.0000000000E+00   0.0000000000E+00   0.0000000000E+00   0.0000000000E+00   0.0000000000E+00   0.0000000000E+00  -0.4375000007E+01  -0.2311647649E-11  -0.2312169561E-11  -0.7945603507E-16  -0.9344806967E-15  -0.1343843985E-14   0.7888873933E-01  -0.3945311966E-01  -0.3945311966E-01   0.7426870141E-17  -0.6071523966E-16  -0.3023282529E-17   0.4375000007E+01
   0.1078888739E+01   0.0000000000E+00  -0.4481285992E-16  -0.2250000000E-02   0.0000000000E+00  -0.7530285899E-17   0.8113873920E-01   0.0000000000E+00  -0.3728257402E-16  -0.4375000007E+01  -0.1133474423E-11  -0.1132839106E-11  -0.3892985841E-15  -0.2022804116E-14  -0.5302602581E-15   0.7888873932E-01  -0.3945311966E-01  -0.3945311966E-01  -0.7020898180E-16  -0.5656986867E-16  -0.1393390450E-16   0.4375000007E+01
   0.1078888739E+01   0.9605468804E+00  -0.4891506179E-16  -0.2250000000E-02   0.1122750000E-02  -0.9517528850E-17   0.8113873920E-01  -0.4057586960E-01  -0.3939753294E-16  -0.4375000006E+01  -0.2879744549E-11  -0.2877636193E-11   0.1434130259E-14  -0.6145496320E-15   0.9486784820E-15   0.7888873932E-01  -0.3945311966E-01  -0.3945311966E-01  -0.5882077847E-16  -0.2252078749E-16   0.1810805904E-15   0.4375000006E+01
   0.0000000000E+00   0.9605468804E+00  -0.9157229367E-17   0.0000000000E+00   0.1122750000E-02  -0.3293179223E-17   0.0000000000E+00  -0.4057586960E-01  -0.5864050144E-17  -0.4375000006E+01  -0.7511238128E-11  -0.7508767491E-11   0.1356906597E-14   0.2452423852E-15   0.2305731978E-15   0.7888873932E-01  -0.3945311966E-01  -0.3945311966E-01  -0.5934845175E-16  -0.3472920980E-16  -0.4500762943E-16   0.4375000006E+01
   0.0000000000E+00   0.0000000000E+00   0.9605468804E+00   0.0000000000E+00   0.0000000000E+00   0.1122750000E-02   0.0000000000E+00   0.0000000000E+00  -0.4057586960E-01  -0.4375000006E+01   0.2610229084E-11   0.2609170530E-11   0.9179361570E-17   0.2288712593E-15  -0.1557185067E-15   0.7888873932E-01  -0.3945311966E-01  -0.3945311966E-01  -0.4854523430E-17  -0.3189766265E-15  -0.1009360977E-15   0.4375000006E+01
   0.1078888739E+01   0.0000000000E+00   0.9605468804E+00  -0.2250000000E-02   0.0000000000E+00   0.1122750000E-02   0.8113873920E-01   0.0000000000E+00  -0.4057586960E-01  -0.4375000006E+01   0.1738067995E-11   0.1737273047E-11  -0.9960221084E-15   0.1349058539E-14  -0.5384991830E-15   0.7888873932E-01  -0.3945311966E-01  -0.3945311966E-01   0.1345603136E-16  -0.5310310495E-16   0.2880724754E-16   0.4375000006E+01
   0.1078888739E+01   0.9605468804E+00   0.9605468804E+00  -0.2250000000E-02   0.1122750000E-02   0.1122750000E-02   0.8113873920E-01  -0.4057586960E-01  -0.4057586960E-01  -0.4375000006E+01   0.1377027217E-12   0.1382023220E-12   0.3505891841E-15  -0.5081310351E-15   0.6861279456E-16   0.7888873931E-01  -0.3945311965E-01  -0.3945311965E-01   0.9015619948E-16   0.4029289996E-16   0.2069959741E-15   0.4375000006E+01
   0.0000000000E+00   0.9605468804E+00   0.9605468804E+00   0.0000000000E+00   0.1122750000E-02   0.1122750000E-02   0.0000000000E+00  -0.4057586960E-01  -0.4057586960E-01  -0.4375000006E+01   0.3005136596E-11   0.3002009255E-11   0.2017237699E-15   0.5437032986E-15   0.1498557468E-14   0.7888873931E-01  -0.3945311965E-01  -0.3945311965E-01   0.1832905749E-15  -0.1395535255E-15  -0.6002370202E-16   0.4375000006E+01
   0.2157777478E+01   0.0000000000E+00  -0.1463779710E-15  -0.4500000000E-02   0.0000000000E+00  -0.2599108650E-16   0.1622774784E+00   0.0000000000E+00  -0.1203868845E-15  -0.4375000007E+01  -0.9321606638E-12  -0.9306395516E-12  -0.1472177912E-14  -0.1533398838E-14  -0.5088202639E-15   0.7888873932E-01  -0.3945311966E-01  -0.3945311966E-01   0.1564102751E-15   0.2997663220E-16  -0.1168001351E-16   0.4375000007E+01
   0.2157777478E+01   0.9605468804E+00  -0.1587987020E-15  -0.4500000000E-02   0.1122750000E-02  -0.2564265815E-16   0.1622774784E+00  -0.4057586960E-01  -0.1331560438E-15  -0.4375000006E+01   0.2076557982E-11   0.2076343375E-11   0.4495581639E-15  -0.3547090949E-16   0.3348835768E-15   0.7888873931E-01  -0.3945311966E-01  -0.3945311966E-01   0.2706109306E-15  -0.2451469190E-15   0.1129039251E-16   0.4375000006E+01
   0.2157777478E+01   0.0000000000E+00   0.9605468804E+00  -0.4500000000E-02   0.0000000000E+00   0.1122750000E-02   0.1622774784E+00   0.0000000000E+00  -0.4057586960E-01  -0.4375000006E+01   0.4673929059E-11   0.4673435437E-11  -0.1369963758E-14   0.1495036658E-14  -0.5637533000E-15   0.7888873931E-01  -0.3945311966E-01  -0.3945311966E-01  -0.1642999921E-15   0.4890829011E-15   0.9777602685E-17   0.4375000006E+01
   0.2157777478E+01   0.9605468804E+00   0.9605468804E+00  -0.4500000000E-02   0.1122750000E-02   0.1122750000E-02   0.1622774784E+00  -0.4057586960E-01  -0.4057586960E-01  -0.4375000006E+01   0.2436494510E-11   0.2434354413E-11   0.8359714576E-15   0.3303493645E-14   0.5942948173E-15   0.7888873930E-01  -0.3945311965E-01  -0.3945311965E-01  -0.2596756353E-15  -0.2660557372E-15   0.1158432109E-15   0.4375000006E+01
     1     2     3     4     5     6     7     8
     2     9    10     3     6    11    12     7
 VARIABLES = X,Y,Z,DU1,DU2,DU3,U1,U2,U3,S11,S22,S33,S12,S13,S23,E11,E22,E33,E12,E13,E23,SMISES
 ZONE, T="0.9800D+01" F=FEPOINT, I=   12 J=    2 ET=BRICK
   0.0000000000E+00   0.0000000000E+00   0.0000000000E+00   0.0000000000E+00   0.0000000000E+00   0.0000000000E+00   0.0000000000E+00   0.0000000000E+00   0.0000000000E+00  -0.5500000009E+01  -0.7034738612E-12  -0.7045835501E-12  -0.5731506283E-16   0.6831409110E-15  -0.3083569909E-15   0.7663873932E-01  -0.3833036966E-01  -0.3833036966E-01  -0.6940462263E-17  -0.4044493218E-16  -0.1454533417E-16   0.5500000009E+01
   0.1076638739E+01   0.0000000000E+00  -0.3133173198E-16  -0.2250000000E-02   0.0000000000E+00   0.1348112793E-16   0.7888873920E-01   0.0000000000E+00  -0.4481285992E-16  -0.5500000008E+01  -0.1343691961E-12  -0.1350581750E-12  -0.3354355907E-15  -0.1863763302E-14  -0.3194046234E-16   0.7663873932E-01  -0.3833036966E-01  -0.3833036966E-01  -0.3795688194E-16  -0.6857292492E-16   0.1883142490E-17   0.5500000008E+01
   0.1076638739E+01   0.9616696304E+00  -0.3240478811E-16  -0.2250000000E-02   0.1122750000E-02   0.1651027368E-16   0.7888873920E-01  -0.3945311960E-01  -0.4891506179E-16  -0.5500000008E+01  -0.1941537588E-11  -0.1940734669E-11   0.1441331412E-14  -0.1539045720E-14   0.4806906647E-15   0.7663873931E-01  -0.3833036966E-01  -0.3833036966E-01  -0.1917310140E-16  -0.2496189767E-16   0.1666161685E-15   0.5500000008E+01
   0.0000000000E+00   0.9616696304E+00  -0.2935864635E-17   0.0000000000E+00   0.1122750000E-02   0.6221364732E-17   0.0000000000E+00  -0.3945311960E-01  -0.9157229367E-17  -0.5500000008E+01  -0.6169258983E-11  -0.6168872398E-11   0.1002087879E-14   0.1235883515E-14  -0.2632080448E-15   0.7663873931E-01  -0.3833036966E-01  -0.3833036966E-01  -0.7632183081E-16  -0.2129028456E-16  -0.1730183913E-16   0.5500000008E+01
   0.0000000000E+00   0.0000000000E+00   0.9616696304E+00   0.0000000000E+00   0.0000000000E+00   0.1122750000E-02   0.0000000000E+00   0.0000000000E+00  -0.3945311960E-01  -0.5500000008E+01   0.1687845527E-11   0.1688891343E-11   0.7663330441E-18   0.1327995604E-14   0.2606114510E-15   0.7663873931E-01  -0.3833036966E-01  -0.3833036966E-01   0.1753744057E-17  -0.2773832948E-15  -0.1002160010E-15   0.5500000008E+01
   0.1076638739E+01   0.0000000000E+00   0.9616696304E+00  -0.2250000000E-02   0.0000000000E+00   0.1122750000E-02   0.7888873920E-01   0.0000000000E+00  -0.3945311960E-01  -0.5500000008E+01   0.6670470125E-12   0.6673760939E-12  -0.1726046379E-14   0.1268344909E-14  -0.3707027289E-16   0.7663873931E-01  -0.3833036966E-01  -0.3833036966E-01  -0.1119163724E-16  -0.7180605571E-16   0.2935506615E-16   0.5500000008E+01
   0.1076638739E+01   0.9616696304E+00   0.9616696304E+00  -0.2250000000E-02   0.1122750000E-02   0.1122750000E-02   0.7888873920E-01  -0.3945311960E-01  -0.3945311960E-01  -0.5500000007E+01  -0.7773900019E-12  -0.7760805797E-12  -0.1047826338E-15  -0.1366827072E-14  -0.3786416905E-15   0.7663873930E-01  -0.3833036965E-01  -0.3833036965E-01   0.7858398319E-16   0.6719210492E-16   0.2191218351E-15   0.5500000007E+01
   0.0000000000E+00   0.9616696304E+00   0.9616696304E+00   0.0000000000E+00   0.1122750000E-02   0.1122750000E-02   0.0000000000E+00  -0.3945311960E-01  -0.3945311960E-01  -0.5500000007E+01   0.1221323310E-11   0.1218970599E-11   0.3913095557E-15   0.1799662910E-14   0.4302381867E-15   0.7663873931E-01  -0.3833036965E-01  -0.3833036965E-01   0.1903705401E-15  -0.1461695557E-15  -0.1115944445E-15   0.5500000007E+01
   0.2153277478E+01   0.0000000000E+00  -0.1044047791E-15  -0.4500000000E-02   0.0000000000E+00   0.4197319189E-16   0.1577774784E+00   0.0000000000E+00  -0.1463779710E-15  -0.5500000008E+01  -0.1461557796E-12  -0.1458885787E-12  -0.1930143503E-14  -0.1909970647E-14  -0.5535239781E-16   0.7663873932E-01  -0.3833036966E-01  -0.3833036966E-01   0.1686805192E-15  -0.2586376180E-16  -0.3823932657E-16   0.5500000008E+01
   0.2153277478E+01   0.9616696304E+00  -0.1140374663E-15  -0.4500000000E-02   0.1122750000E-02   0.4476123566E-16   0.1577774784E+00  -0.3945311960E-01  -0.1587987020E-15  -0.5500000008E+01   0.2410771302E-11   0.2409504509E-11   0.5954842513E-16   0.6033864589E-16   0.1693672252E-15   0.7663873931E-01  -0.3833036966E-01  -0.3833036966E-01   0.2543684369E-15  -0.2132001275E-15   0.8518393349E-16   0.5500000008E+01
   0.2153277478E+01   0.0000000000E+00   0.9616696304E+00  -0.4500000000E-02   0.0000000000E+00   0.1122750000E-02   0.1577774784E+00   0.0000000000E+00  -0.3945311960E-01  -0.5500000008E+01   0.3904861833E-11   0.3904652670E-11  -0.1062351839E-14   0.9768875772E-15  -0.4193170269E-15   0.7663873931E-01  -0.3833036966E-01  -0.3833036966E-01  -0.1858596612E-15   0.3627734239E-15   0.3750698339E-16   0.5500000008E+01
   0.2153277478E+01   0.9616696304E+00   0.9616696304E+00  -0.4500000000E-02   0.1122750000E-02   0.1122750000E-02   0.1577774784E+00  -0.3945311960E-01  -0.3945311960E-01  -0.5500000007E+01   0.2244523855E-11   0.2242037276E-11   0.1449575695E-14   0.2832463109E-14   0.3990261621E-16   0.7663873930E-01  -0.3833036965E-01  -0.3833036965E-01  -0.1754124802E-15  -0.3774273307E-16   0.7793265400E-16   0.5500000007E+01
     1     2     3     4     5     6     7     8
     2     9    10     3     6    11    12     7
 VARIABLES = X,Y,Z,DU1,DU2,DU3,U1,U2,U3,S11,S22,S33,S12,S13,S23,E11,E22,E33,E12,E13,E23,SMISES
 ZONE, T="0.9850D+01" F=FEPOINT, I=   12 J=    2 ET=BRICK
   0.0000000000E+00   0.0000000000E+00   0.0000000000E+00   0.0000000000E+00   0.0000000000E+00   0.0000000000E+00   0.0000000000E+00   0.0000000000E+00   0.0000000000E+00  -0.6625000010E+01  -0.8582497193E-12  -0.8574968672E-12  -0.6005504284E-16   0.3709821653E-15  -0.3956023583E-15   0.7438873932E-01  -0.3720761966E-01  -0.3720761966E-01   0.5028556772E-17  -0.6397863265E-16   0.1087026439E-16   0.6625000010E+01
   0.1074388739E+01   0.0000000000E+00  -0.3428065395E-16  -0.2250000000E-02   0.0000000000E+00  -0.2948921970E-17   0.7663873920E-01   0.0000000000E+00  -0.3133173198E-16  -0.6625000010E+01  -0.3725390259E-12  -0.3731724937E-12  -0.1266147980E-14  -0.2106968796E-14  -0.2507766072E-15   0.7438873932E-01  -0.3720761966E-01  -0.3720761966E-01  -0.8674106323E-16  -0.6280262028E-16  -0.3179062867E-17   0.6625000010E+01
   0.1074388739E+01   0.9627923804E+00  -0.3671560075E-16  -0.2250000000E-02   0.1122750000E-02  -0.4310812639E-17   0.7663873920E-01  -0.3833036960E-01  -0.3240478811E-16  -0.6625000009E+01  -0.2366577552E-11  -0.2364598010E-11   0.7698540120E-15  -0.6457078471E-15   0.7427619896E-15   0.7438873931E-01  -0.3720761965E-01  -0.3720761965E-01  -0.5079360753E-16  -0.7619855910E-16   0.1599959929E-15   0.6625000009E+01
   0.0000000000E+00   0.9627923804E+00  -0.3327480001E-17   0.0000000000E+00   0.1122750000E-02  -0.3916153660E-18   0.0000000000E+00  -0.3833036960E-01  -0.2935864635E-17  -0.6625000010E+01  -0.6969773939E-11  -0.6968995324E-11   0.1021316384E-14   0.7481695234E-15   0.2801935282E-15   0.7438873931E-01  -0.3720761966E-01  -0.3720761966E-01  -0.7676857970E-16  -0.8569712550E-17  -0.2926902651E-16   0.6625000010E+01
   0.0000000000E+00   0.0000000000E+00   0.9627923804E+00   0.0000000000E+00   0.0000000000E+00   0.1122750000E-02   0.0000000000E+00   0.0000000000E+00  -0.3833036960E-01  -0.6625000010E+01   0.2169579721E-11   0.2170747982E-11  -0.3304399369E-16   0.5558722309E-15  -0.3016841448E-18   0.7438873931E-01  -0.3720761966E-01  -0.3720761966E-01   0.2421988312E-18  -0.3271654873E-15  -0.1315370111E-15   0.6625000010E+01
   0.1074388739E+01   0.0000000000E+00   0.9627923804E+00  -0.2250000000E-02   0.0000000000E+00   0.1122750000E-02   0.7663873920E-01   0.0000000000E+00  -0.3833036960E-01  -0.6625000009E+01   0.7905252113E-12   0.7902625298E-12  -0.1234948306E-14   0.9051500161E-15  -0.1348423509E-15   0.7438873931E-01  -0.3720761965E-01  -0.3720761965E-01   0.1047999125E-16  -0.4479870580E-16   0.3827099065E-16   0.6625000009E+01
   0.1074388739E+01   0.9627923804E+00   0.9627923804E+00  -0.2250000000E-02   0.1122750000E-02   0.1122750000E-02   0.7663873920E-01  -0.3833036960E-01  -0.3833036960E-01  -0.6625000009E+01  -0.5152537060E-12  -0.5146579576E-12   0.3133019238E-15  -0.3321867724E-15   0.1168085296E-15   0.7438873930E-01  -0.3720761965E-01  -0.3720761965E-01   0.7787484877E-16   0.2627508687E-17   0.2300019641E-15   0.6625000009E+01
   0.0000000000E+00   0.9627923804E+00   0.9627923804E+00   0.0000000000E+00   0.1122750000E-02   0.1122750000E-02   0.0000000000E+00  -0.3833036960E-01  -0.3833036960E-01  -0.6625000009E+01   0.1868774844E-11   0.1866849355E-11   0.5081628973E-15   0.1355250544E-14   0.5534440444E-15   0.7438873930E-01  -0.3720761965E-01  -0.3720761965E-01   0.1883232006E-15  -0.1179727409E-15  -0.1152911754E-15   0.6625000009E+01
   0.2148777478E+01   0.0000000000E+00  -0.1152966049E-15  -0.4500000000E-02   0.0000000000E+00  -0.1089182578E-16   0.1532774784E+00   0.0000000000E+00  -0.1044047791E-15  -0.6625000010E+01   0.3157633481E-13   0.3163038712E-13  -0.2972579541E-14  -0.2748284251E-14  -0.3837655276E-15   0.7438873932E-01  -0.3720761966E-01  -0.3720761966E-01   0.8607009855E-16  -0.1492746442E-15  -0.6952417822E-17   0.6625000010E+01
   0.2148777478E+01   0.9627923804E+00  -0.1267921166E-15  -0.4500000000E-02   0.1122750000E-02  -0.1275465034E-16   0.1532774784E+00  -0.3833036960E-01  -0.1140374663E-15  -0.6625000009E+01   0.2644252609E-11   0.2643333224E-11  -0.3107133098E-15   0.1250704439E-15  -0.1909183239E-15   0.7438873931E-01  -0.3720761965E-01  -0.3720761965E-01   0.2436291187E-15  -0.8399713717E-16   0.3650048973E-16   0.6625000009E+01
   0.2148777478E+01   0.0000000000E+00   0.9627923804E+00  -0.4500000000E-02   0.0000000000E+00   0.1122750000E-02   0.1532774784E+00   0.0000000000E+00  -0.3833036960E-01  -0.6625000009E+01   0.3950465782E-11   0.3951333642E-11  -0.7174373375E-15   0.4759767648E-15  -0.6723544051E-15   0.7438873931E-01  -0.3720761965E-01  -0.3720761965E-01  -0.1361127013E-15   0.3645646588E-15  -0.1179068311E-16   0.6625000009E+01
   0.2148777478E+01   0.9627923804E+00   0.9627923804E+00  -0.4500000000E-02   0.1122750000E-02   0.1122750000E-02   0.1532774784E+00  -0.3833036960E-01  -0.3833036960E-01  -0.6625000008E+01   0.2184323244E-11   0.2181520465E-11   0.1708591594E-14   0.3500530016E-14  -0.4197714663E-15   0.7438873930E-01  -0.3720761965E-01  -0.3720761965E-01  -0.2209587692E-15  -0.1264407162E-15   0.8400751252E-16   0.6625000008E+01
     1     2     3     4     5     6     7     8
     2     9    10     3     6    11    12     7
 VARIABLES = X,Y,Z,DU1,DU2,DU3,U1,U2,U3,S11,S22,S33,S12,S13,S23,E11,E22,E33,E12,E13,E23,SMISES
 ZONE, T="0.9900D+01" F=FEPOINT, I=   12 J=    2 ET=BRICK
   0.0000000000E+00   0.0000000000E+00   0.0000000000E+00   0.0000000000E+00   0.0000000000E+00   0.0000000000E+00   0.0000000000E+00   0.0000000000E+00   0.0000000000E+00  -0.7749966911E+01  -0.1655083039E-04  -0.1655083039E-04  -0.6143346742E-16   0.3436963036E-16  -0.2454349301E-15   0.6773480584E-01  -0.3388290292E-01  -0.3388290292E-01   0.4170921895E-17  -0.5062562970E-16  -0.2620426890E-17   0.7749950360E+01
   0.1067734806E+01   0.0000000000E+00  -0.4118926801E-16  -0.6653933474E-02   0.0000000000E+00  -0.6908614055E-17   0.7438873920E-01   0.0000000000E+00  -0.3428065395E-16  -0.7749966910E+01  -0.1655082920E-04  -0.1655082920E-04   0.1490048450E-14   0.7869918247E-15  -0.9378005688E-16   0.6773480583E-01  -0.3388290292E-01  -0.3388290292E-01  -0.5492829627E-16  -0.7210174608E-16  -0.6434922598E-17   0.7749950359E+01
   0.1067734806E+01   0.9661170971E+00  -0.4226364966E-16  -0.6653933474E-02   0.3324716737E-02  -0.5548048912E-17   0.7438873920E-01  -0.3720761960E-01  -0.3671560075E-16  -0.7749966909E+01  -0.1655083097E-04  -0.1655083097E-04   0.4437260303E-15   0.1872320859E-15   0.8541383366E-15   0.6773480583E-01  -0.3388290291E-01  -0.3388290291E-01  -0.5068292959E-16   0.2693709574E-16   0.2157297007E-15   0.7749950359E+01
   0.0000000000E+00   0.9661170971E+00  -0.2609921439E-17   0.0000000000E+00   0.3324716737E-02   0.7175585620E-18   0.0000000000E+00  -0.3720761960E-01  -0.3327480001E-17  -0.7749966910E+01  -0.1655083464E-04  -0.1655083464E-04  -0.1343775665E-14   0.6061167553E-15  -0.2121421719E-15   0.6773480583E-01  -0.3388290291E-01  -0.3388290291E-01  -0.1240884635E-15  -0.3936527468E-16  -0.1413799770E-16   0.7749950359E+01
   0.0000000000E+00   0.0000000000E+00   0.9661170971E+00   0.0000000000E+00   0.0000000000E+00   0.3324716737E-02   0.0000000000E+00   0.0000000000E+00  -0.3720761960E-01  -0.7749966910E+01  -0.1655082423E-04  -0.1655082422E-04   0.1391018462E-16  -0.2121084838E-14   0.1376690231E-15   0.6773480583E-01  -0.3388290291E-01  -0.3388290291E-01  -0.2484752313E-17  -0.3481577391E-15  -0.1194891047E-15   0.7749950359E+01
   0.1067734806E+01   0.0000000000E+00   0.9661170971E+00  -0.6653933474E-02   0.0000000000E+00   0.3324716737E-02   0.7438873920E-01   0.0000000000E+00  -0.3720761960E-01  -0.7749966909E+01  -0.1655082644E-04  -0.1655082644E-04  -0.1505745173E-15   0.1044987320E-14   0.4176525392E-16   0.6773480583E-01  -0.3388290291E-01  -0.3388290291E-01   0.1452543248E-16  -0.8050121372E-16   0.2820314794E-16   0.7749950359E+01
   0.1067734806E+01   0.9661170971E+00   0.9661170971E+00  -0.6653933474E-02   0.3324716737E-02   0.3324716737E-02   0.7438873920E-01  -0.3720761960E-01  -0.3720761960E-01  -0.7749966908E+01  -0.1655082720E-04  -0.1655082719E-04  -0.1173976929E-14  -0.1535100548E-14   0.1908543501E-16   0.6773480582E-01  -0.3388290291E-01  -0.3388290291E-01   0.3905194310E-16   0.3239261515E-16   0.2269833120E-15   0.7749950358E+01
   0.0000000000E+00   0.9661170971E+00   0.9661170971E+00   0.0000000000E+00   0.3324716737E-02   0.3324716737E-02   0.0000000000E+00  -0.3720761960E-01  -0.3720761960E-01  -0.7749966909E+01  -0.1655082380E-04  -0.1655082380E-04  -0.1138206568E-14  -0.1441761110E-14  -0.4872329826E-15   0.6773480582E-01  -0.3388290291E-01  -0.3388290291E-01   0.1748778799E-15  -0.1702783613E-15  -0.1023578911E-15   0.7749950358E+01
   0.2135469611E+01   0.0000000000E+00  -0.1485429181E-15  -0.1330786695E-01   0.0000000000E+00  -0.3324631315E-16   0.1487774784E+00   0.0000000000E+00  -0.1152966049E-15  -0.7749966910E+01  -0.1655082895E-04  -0.1655082895E-04  -0.9495503786E-15  -0.1251161297E-14  -0.4641368954E-15   0.6773480583E-01  -0.3388290292E-01  -0.3388290292E-01   0.1199823321E-15  -0.6276597640E-16  -0.3219139219E-16   0.7749950359E+01
   0.2135469611E+01   0.9661170971E+00  -0.1616588138E-15  -0.1330786695E-01   0.3324716737E-02  -0.3486669715E-16   0.1487774784E+00  -0.3720761960E-01  -0.1267921166E-15  -0.7749966909E+01  -0.1655082697E-04  -0.1655082697E-04  -0.2144130106E-14   0.1599282039E-14  -0.4205852306E-15   0.6773480582E-01  -0.3388290291E-01  -0.3388290291E-01   0.2262832657E-15  -0.2455311600E-15   0.4138019431E-16   0.7749950358E+01
   0.2135469611E+01   0.0000000000E+00   0.9661170971E+00  -0.1330786695E-01   0.0000000000E+00   0.3324716737E-02   0.1487774784E+00   0.0000000000E+00  -0.3720761960E-01  -0.7749966909E+01  -0.1655082529E-04  -0.1655082529E-04   0.1377198135E-14  -0.1709855069E-14  -0.1490727747E-16   0.6773480582E-01  -0.3388290291E-01  -0.3388290291E-01  -0.1278945548E-15   0.4013277114E-15   0.2938909640E-16   0.7749950358E+01
   0.2135469611E+01   0.9661170971E+00   0.9661170971E+00  -0.1330786695E-01   0.3324716737E-02   0.3324716737E-02   0.1487774784E+00  -0.3720761960E-01  -0.3720761960E-01  -0.7749966908E+01  -0.1655082592E-04  -0.1655082592E-04   0.5578478668E-15   0.2189919778E-14   0.3512687381E-15   0.6773480582E-01  -0.3388290291E-01  -0.3388290291E-01  -0.2703156833E-15  -0.1685100583E-15   0.9571048983E-16   0.7749950357E+01
     1     2     3     4     5     6     7     8
     2     9    10     3     6    11    12     7
 VARIABLES = X,Y,Z,DU1,DU2,DU3,U1,U2,U3,S11,S22,S33,S12,S13,S23,E11,E22,E33,E12,E13,E23,SMISES
 ZONE, T="0.9950D+01" F=FEPOINT, I=   12 J=    2 ET=BRICK
   0.0000000000E+00   0.0000000000E+00   0.0000000000E+00   0.0000000000E+00   0.0000000000E+00   0.0000000000E+00   0.0000000000E+00   0.0000000000E+00   0.0000000000E+00  -0.8875012697E+01   0.6341592213E-05   0.6341592212E-05  -0.1328821538E-15   0.1806460542E-14  -0.1806572673E-15   0.4440607593E-01  -0.2222078796E-01  -0.2222078796E-01  -0.2703795746E-17  -0.2113296159E-16  -0.1989606044E-16   0.8875019039E+01
   0.1044406076E+01   0.0000000000E+00  -0.1077379479E-17  -0.2332872987E-01   0.0000000000E+00   0.4011188853E-16   0.6773480573E-01   0.0000000000E+00  -0.4118926801E-16  -0.8875012697E+01   0.6341593144E-05   0.6341593144E-05   0.1515245001E-14   0.9137149498E-15  -0.2059302230E-15   0.4440607593E-01  -0.2222078796E-01  -0.2222078796E-01  -0.4391323716E-16  -0.4246866179E-17  -0.8844886429E-17   0.8875019038E+01
   0.1044406076E+01   0.9777792121E+00  -0.2807207922E-17  -0.2332872987E-01   0.1166211494E-01   0.3945644174E-16   0.6773480573E-01  -0.3388290286E-01  -0.4226364966E-16  -0.8875012696E+01   0.6341592240E-05   0.6341592239E-05   0.2353416560E-15  -0.5631164541E-15   0.5340334511E-15   0.4440607592E-01  -0.2222078796E-01  -0.2222078796E-01  -0.9330266790E-16  -0.2221687935E-16   0.1952601511E-15   0.8875019037E+01
   0.0000000000E+00   0.9777792121E+00  -0.3018668542E-17   0.0000000000E+00   0.1166211494E-01  -0.4087471037E-18   0.0000000000E+00  -0.3388290286E-01  -0.2609921439E-17  -0.8875012696E+01   0.6341589120E-05   0.6341589120E-05  -0.7213328212E-15   0.2080279399E-14  -0.5006611006E-15   0.4440607592E-01  -0.2222078796E-01  -0.2222078796E-01  -0.8404076873E-16   0.9447031718E-17  -0.9124038377E-17   0.8875019038E+01
   0.0000000000E+00   0.0000000000E+00   0.9777792121E+00   0.0000000000E+00   0.0000000000E+00   0.1166211494E-01   0.0000000000E+00   0.0000000000E+00  -0.3388290286E-01  -0.8875012696E+01   0.6341592822E-05   0.6341592824E-05   0.1189984781E-15   0.4184951740E-15   0.1989301389E-15   0.4440607592E-01  -0.2222078796E-01  -0.2222078796E-01   0.4622046230E-17  -0.3244972600E-15  -0.8104225292E-16   0.8875019038E+01
   0.1044406076E+01   0.0000000000E+00   0.9777792121E+00  -0.2332872987E-01   0.0000000000E+00   0.1166211494E-01   0.6773480573E-01   0.0000000000E+00  -0.3388290286E-01  -0.8875012696E+01   0.6341590220E-05   0.6341590219E-05  -0.6595696984E-15   0.4314360251E-15   0.2328253417E-15   0.4440607592E-01  -0.2222078796E-01  -0.2222078796E-01  -0.1369832966E-16  -0.9073733029E-16   0.5238212589E-16   0.8875019037E+01
   0.1044406076E+01   0.9777792121E+00   0.9777792121E+00  -0.2332872987E-01   0.1166211494E-01   0.1166211494E-01   0.6773480573E-01  -0.3388290286E-01  -0.3388290286E-01  -0.8875012695E+01   0.6341590767E-05   0.6341590767E-05  -0.1971655902E-14  -0.1722011168E-14  -0.9357243888E-16   0.4440607592E-01  -0.2222078796E-01  -0.2222078796E-01   0.1705940480E-16   0.1984617229E-16   0.2232763921E-15   0.8875019036E+01
   0.0000000000E+00   0.9777792121E+00   0.9777792121E+00   0.0000000000E+00   0.1166211494E-01   0.1166211494E-01   0.0000000000E+00  -0.3388290286E-01  -0.3388290286E-01  -0.8875012695E+01   0.6341591587E-05   0.6341591588E-05   0.4747236327E-16   0.5023716749E-15  -0.2776893307E-15   0.4440607592E-01  -0.2222078796E-01  -0.2222078796E-01   0.1730663220E-15  -0.1358866961E-15  -0.1463236687E-15   0.8875019037E+01
   0.2088812152E+01   0.0000000000E+00   0.2063447994E-17  -0.4665745974E-01   0.0000000000E+00   0.1506063661E-15   0.1354696115E+00   0.0000000000E+00  -0.1485429181E-15  -0.8875012697E+01   0.6341591146E-05   0.6341591147E-05   0.9093788930E-15  -0.2053851256E-14  -0.1308849614E-15   0.4440607592E-01  -0.2222078796E-01  -0.2222078796E-01   0.1774437933E-15   0.3548255492E-16  -0.1552856218E-16   0.8875019038E+01
   0.2088812152E+01   0.9777792121E+00  -0.1011616852E-16  -0.4665745974E-01   0.1166211494E-01   0.1515426453E-15   0.1354696115E+00  -0.3388290286E-01  -0.1616588138E-15  -0.8875012696E+01   0.6341594113E-05   0.6341594113E-05  -0.1598071710E-14   0.2781187462E-15  -0.4885452835E-15   0.4440607592E-01  -0.2222078796E-01  -0.2222078796E-01   0.2087534475E-15  -0.2085738907E-15   0.9742980883E-17   0.8875019037E+01
   0.2088812152E+01   0.0000000000E+00   0.9777792121E+00  -0.4665745974E-01   0.0000000000E+00   0.1166211494E-01   0.1354696115E+00   0.0000000000E+00  -0.3388290286E-01  -0.8875012696E+01   0.6341588555E-05   0.6341588556E-05   0.3865413009E-14  -0.3538502828E-14   0.8084789295E-16   0.4440607592E-01  -0.2222078796E-01  -0.2222078796E-01  -0.9019673649E-16   0.1782816916E-15   0.1795014056E-16   0.8875019037E+01
   0.2088812152E+01   0.9777792121E+00   0.9777792121E+00  -0.4665745974E-01   0.1166211494E-01   0.1166211494E-01   0.1354696115E+00  -0.3388290286E-01  -0.3388290286E-01  -0.8875012695E+01   0.6341592606E-05   0.6341592606E-05   0.1608680767E-14   0.3237700936E-15   0.4332274981E-15   0.4440607591E-01  -0.2222078796E-01  -0.2222078796E-01  -0.2497802134E-15  -0.5007673472E-16   0.1024299495E-15   0.8875019036E+01
     1     2     3     4     5     6     7     8
     2     9    10     3     6    11    12     7
 VARIABLES = X,Y,Z,DU1,DU2,DU3,U1,U2,U3,S11,S22,S33,S12,S13,S23,E11,E22,E33,E12,E13,E23,SMISES
 ZONE, T="0.1000D+02" F=FEPOINT, I=   12 J=    2 ET=BRICK
   0.0000000000E+00   0.0000000000E+00   0.0000000000E+00   0.0000000000E+00   0.0000000000E+00   0.0000000000E+00   0.0000000000E+00   0.0000000000E+00   0.0000000000E+00  -0.1000000668E+02   0.3330853383E-05   0.3330853385E-05  -0.4906564418E-16   0.2234885300E-14   0.3743824263E-15   0.1965626107E-01  -0.9848130537E-02  -0.9848130537E-02   0.2893154495E-17   0.5481720386E-16   0.1047382422E-16   0.1000001001E+02
   0.1019656261E+01   0.0000000000E+00   0.1716937136E-16  -0.2474981481E-01   0.0000000000E+00   0.1824675084E-16   0.4440607586E-01   0.0000000000E+00  -0.1077379479E-17  -0.1000000668E+02   0.3330852119E-05   0.3330852118E-05   0.1816063058E-15  -0.2240286028E-14  -0.1004663421E-15   0.1965626107E-01  -0.9848130537E-02  -0.9848130537E-02  -0.6069921566E-16  -0.1455280277E-15  -0.1069427523E-16   0.1000001001E+02
   0.1019656261E+01   0.9901518695E+00   0.1411291692E-16  -0.2474981481E-01   0.1237265741E-01   0.1692012485E-16   0.4440607586E-01  -0.2222078793E-01  -0.2807207922E-17  -0.1000000668E+02   0.3330849336E-05   0.3330849337E-05   0.8722264190E-15  -0.9155926854E-15  -0.3128360848E-16   0.1965626107E-01  -0.9848130536E-02  -0.9848130536E-02  -0.4825214772E-16   0.2347319774E-16   0.1613734314E-15   0.1000001001E+02
   0.0000000000E+00   0.9901518695E+00   0.3095035884E-17   0.0000000000E+00   0.1237265741E-01   0.6113704427E-17   0.0000000000E+00  -0.2222078793E-01  -0.3018668542E-17  -0.1000000668E+02   0.3330849459E-05   0.3330849457E-05  -0.5004535056E-15   0.2121829192E-14   0.6216966363E-15   0.1965626107E-01  -0.9848130536E-02  -0.9848130536E-02  -0.1221292090E-15   0.1212059836E-16  -0.2878674326E-16   0.1000001001E+02
   0.0000000000E+00   0.0000000000E+00   0.9901518695E+00   0.0000000000E+00   0.0000000000E+00   0.1237265741E-01   0.0000000000E+00   0.0000000000E+00  -0.2222078793E-01  -0.1000000668E+02   0.3330847322E-05   0.3330847322E-05   0.4456412608E-16   0.1961954346E-14  -0.5659377469E-16   0.1965626107E-01  -0.9848130536E-02  -0.9848130536E-02  -0.3636534844E-17  -0.2816587238E-15  -0.1182083325E-15   0.1000001001E+02
   0.1019656261E+01   0.0000000000E+00   0.9901518695E+00  -0.2474981481E-01   0.0000000000E+00   0.1237265741E-01   0.4440607586E-01   0.0000000000E+00  -0.2222078793E-01  -0.1000000668E+02   0.3330848760E-05   0.3330848761E-05   0.1806271321E-14  -0.1627597142E-14   0.5470594824E-16   0.1965626107E-01  -0.9848130536E-02  -0.9848130536E-02   0.5057314469E-16  -0.1586530007E-15   0.5336965081E-16   0.1000001001E+02
   0.1019656261E+01   0.9901518695E+00   0.9901518695E+00  -0.2474981481E-01   0.1237265741E-01   0.1237265741E-01   0.4440607586E-01  -0.2222078793E-01  -0.2222078793E-01  -0.1000000667E+02   0.3330847865E-05   0.3330847866E-05   0.2247371083E-14   0.1869777245E-15  -0.4879129828E-15   0.1965626107E-01  -0.9848130535E-02  -0.9848130535E-02   0.8071265890E-16   0.2338050485E-16   0.2289451656E-15   0.1000001001E+02
   0.0000000000E+00   0.9901518695E+00   0.9901518695E+00   0.0000000000E+00   0.1237265741E-01   0.1237265741E-01   0.0000000000E+00  -0.2222078793E-01  -0.2222078793E-01  -0.1000000668E+02   0.3330850241E-05   0.3330850240E-05  -0.9596237315E-15   0.1801331664E-14   0.2654606325E-15   0.1965626107E-01  -0.9848130535E-02  -0.9848130535E-02   0.1538625134E-15  -0.9321409185E-16  -0.1239032574E-15   0.1000001001E+02
   0.2039312522E+01   0.0000000000E+00   0.3259238809E-16  -0.4949962963E-01   0.0000000000E+00   0.3052894010E-16   0.8881215172E-01   0.0000000000E+00   0.2063447994E-17  -0.1000000668E+02   0.3330851176E-05   0.3330851177E-05  -0.3478136263E-14  -0.1647373372E-14  -0.4652841440E-16   0.1965626107E-01  -0.9848130537E-02  -0.9848130537E-02   0.4098723981E-16   0.1902504043E-15  -0.2297425981E-16   0.1000001001E+02
   0.2039312522E+01   0.9901518695E+00   0.2060586244E-16  -0.4949962963E-01   0.1237265741E-01   0.3072203095E-16   0.8881215172E-01  -0.2222078793E-01  -0.1011616852E-16  -0.1000000668E+02   0.3330850357E-05   0.3330850355E-05  -0.1326406396E-14   0.3323572938E-15  -0.3969837883E-15   0.1965626107E-01  -0.9848130536E-02  -0.9848130536E-02   0.1415871495E-15  -0.3123377582E-15   0.5648820030E-16   0.1000001001E+02
   0.2039312522E+01   0.0000000000E+00   0.9901518695E+00  -0.4949962963E-01   0.0000000000E+00   0.1237265741E-01   0.8881215172E-01   0.0000000000E+00  -0.2222078793E-01  -0.1000000668E+02   0.3330855262E-05   0.3330855262E-05  -0.1285004451E-14   0.2114794440E-14  -0.1365103002E-15   0.1965626107E-01  -0.9848130536E-02  -0.9848130536E-02  -0.1955885123E-15   0.3171499856E-15   0.2596337361E-16   0.1000001001E+02
   0.2039312522E+01   0.9901518695E+00   0.9901518695E+00  -0.4949962963E-01   0.1237265741E-01   0.1237265741E-01   0.8881215172E-01  -0.2222078793E-01  -0.2222078793E-01  -0.1000000667E+02   0.3330851401E-05   0.3330851400E-05  -0.9534321578E-15   0.2644241405E-14  -0.3010932239E-15   0.1965626107E-01  -0.9848130534E-02  -0.9848130534E-02  -0.3026893722E-15  -0.6297981020E-17   0.5183415072E-16   0.1000001001E+02
     1     2     3     4     5     6     7     8
     2     9    10     3     6    11    12     7
