 VARIABLES = X,Y,Z,DU1,DU2,DU3,U1,U2,U3,S11,S22,S33,S12,S13,S23,E11,E22,E33,E12,E13,E23,SMISES
 ZONE, T="0.5000D-01" F=FEPOINT, I=   12 J=    2 ET=BRICK
   0.0000000000E+00   0.0000000000E+00   0.0000000000E+00   0.0000000000E+00   0.0000000000E+00   0.0000000000E+00   0.0000000000E+00   0.0000000000E+00   0.0000000000E+00   0.6250000010E+00   0.2756055314E-10   0.2757662483E-10  -0.2962324765E-17   0.6232952135E-13   0.3945563284E-13   0.1250000002E-02  -0.6237500010E-03  -0.6237500010E-03   0.3828441933E-19   0.7478400722E-15   0.4730988526E-15   0.6250000010E+00
   0.1001250000E+01   0.0000000000E+00   0.3302824189E-15   0.1250000000E-02   0.0000000000E+00   0.3302824189E-15   0.0000000000E+00   0.0000000000E+00   0.0000000000E+00   0.6250000010E+00   0.2216958344E-11   0.2178383508E-11   0.7747638455E-14   0.6323129296E-14   0.3060412334E-15   0.1250000002E-02  -0.6237500010E-03  -0.6237500010E-03   0.9276206311E-16   0.7437547517E-16   0.3699909316E-17   0.6250000010E+00
   0.1001250000E+01   0.9993762500E+00   0.3321177011E-15   0.1250000000E-02  -0.6237500000E-03   0.3321177011E-15   0.0000000000E+00   0.0000000000E+00   0.0000000000E+00   0.6250000009E+00   0.1246325188E-10   0.1246736419E-10   0.1508622616E-13  -0.1150527552E-13  -0.1643632081E-13   0.1250000002E-02  -0.6237500009E-03  -0.6237500009E-03   0.1814759200E-15  -0.1370038662E-15  -0.1972863651E-15   0.6250000009E+00
   0.0000000000E+00   0.9993762500E+00   0.2366257212E-15   0.0000000000E+00  -0.6237500000E-03   0.2366257212E-15   0.0000000000E+00   0.0000000000E+00   0.0000000000E+00   0.6250000009E+00   0.1973508699E-10   0.1969613645E-10  -0.1466237961E-13   0.1130758806E-14   0.1321287659E-13   0.1250000002E-02  -0.6237500009E-03  -0.6237500009E-03  -0.1761122043E-15   0.1340591731E-16   0.1585033718E-15   0.6250000009E+00
   0.0000000000E+00   0.0000000000E+00   0.9993762500E+00   0.0000000000E+00   0.0000000000E+00  -0.6237500000E-03   0.0000000000E+00   0.0000000000E+00   0.0000000000E+00   0.6250000009E+00  -0.5380534581E-11  -0.5311991243E-11   0.4786319936E-17   0.9693617219E-14   0.1193446443E-13   0.1250000002E-02  -0.6237500009E-03  -0.6237500009E-03   0.4600154433E-19   0.1168258885E-15   0.1432112662E-15   0.6250000009E+00
   0.1001250000E+01   0.0000000000E+00   0.9993762500E+00   0.1250000000E-02   0.0000000000E+00  -0.6237500000E-03   0.0000000000E+00   0.0000000000E+00   0.0000000000E+00   0.6250000009E+00  -0.1808557304E-10  -0.1809068344E-10  -0.1498166731E-13   0.7667885895E-14   0.2163745406E-13   0.1250000002E-02  -0.6237500009E-03  -0.6237500009E-03  -0.1796373623E-15   0.9108720311E-16   0.2592864554E-15   0.6250000009E+00
   0.1001250000E+01   0.9993762500E+00   0.9993762500E+00   0.1250000000E-02  -0.6237500000E-03  -0.6237500000E-03   0.0000000000E+00   0.0000000000E+00   0.0000000000E+00   0.6250000008E+00  -0.1309067662E-10  -0.1305315675E-10  -0.1327852961E-13  -0.1451040609E-13   0.4868873585E-14   0.1250000002E-02  -0.6237500008E-03  -0.6237500008E-03  -0.1593677317E-15  -0.1727734296E-15   0.5907627136E-16   0.6250000008E+00
   0.0000000000E+00   0.9993762500E+00   0.9993762500E+00   0.0000000000E+00  -0.6237500000E-03  -0.6237500000E-03   0.0000000000E+00   0.0000000000E+00   0.0000000000E+00   0.6250000008E+00  -0.2739000459E-10  -0.2737648144E-10   0.2432944126E-14   0.2397564979E-13  -0.1433258061E-13   0.1250000002E-02  -0.6237500008E-03  -0.6237500008E-03   0.2924166828E-16   0.2867951261E-15  -0.1720599250E-15   0.6250000008E+00
   0.2002500000E+01   0.0000000000E+00   0.4862041423E-15   0.2500000000E-02   0.0000000000E+00   0.4862041423E-15   0.0000000000E+00   0.0000000000E+00   0.0000000000E+00   0.6250000010E+00   0.2757251184E-10   0.2756468098E-10  -0.1617890012E-14  -0.2913663056E-13   0.4948735979E-13   0.1250000002E-02  -0.6237500009E-03  -0.6237500009E-03  -0.1943800440E-16  -0.3461040221E-15   0.5934832161E-15   0.6250000009E+00
   0.2002500000E+01   0.9993762500E+00   0.7829628457E-15   0.2500000000E-02  -0.6237500000E-03   0.7829628457E-15   0.0000000000E+00   0.0000000000E+00   0.0000000000E+00   0.6250000009E+00   0.2700256969E-11   0.2619546107E-11   0.2785417078E-13   0.2127284295E-13   0.1176305528E-13   0.1250000002E-02  -0.6237500009E-03  -0.6237500009E-03   0.3341383473E-15   0.2516187854E-15   0.1411302862E-15   0.6250000009E+00
   0.2002500000E+01   0.0000000000E+00   0.9993762500E+00   0.2500000000E-02   0.0000000000E+00  -0.6237500000E-03   0.0000000000E+00   0.0000000000E+00   0.0000000000E+00   0.6250000009E+00   0.4607581377E-11   0.4675211780E-11  -0.2270729710E-13   0.2649611234E-13   0.1302276523E-13   0.1250000002E-02  -0.6237500009E-03  -0.6237500009E-03  -0.2721624011E-15   0.3202658157E-15   0.1561076745E-15   0.6250000009E+00
   0.2002500000E+01   0.9993762500E+00   0.9993762500E+00   0.2500000000E-02  -0.6237500000E-03  -0.6237500000E-03   0.0000000000E+00   0.0000000000E+00   0.0000000000E+00   0.6250000008E+00  -0.1658331965E-10  -0.1658854082E-10  -0.2182562831E-13  -0.7870967749E-14  -0.2470620948E-13   0.1250000002E-02  -0.6237500008E-03  -0.6237500008E-03  -0.2621586560E-15  -0.9609555767E-16  -0.2965525195E-15   0.6250000008E+00
     1     2     3     4     5     6     7     8
     2     9    10     3     6    11    12     7
 VARIABLES = X,Y,Z,DU1,DU2,DU3,U1,U2,U3,S11,S22,S33,S12,S13,S23,E11,E22,E33,E12,E13,E23,SMISES
 ZONE, T="0.1000D+00" F=FEPOINT, I=   12 J=    2 ET=BRICK
   0.0000000000E+00   0.0000000000E+00   0.0000000000E+00   0.0000000000E+00   0.0000000000E+00   0.0000000000E+00   0.0000000000E+00   0.0000000000E+00   0.0000000000E+00   0.1250000002E+01   0.1905261446E-12   0.1905728576E-12  -0.4417299647E-17   0.1462831656E-15   0.1029353000E-15   0.2500000004E-02  -0.1247500002E-02  -0.1247500002E-02  -0.1474041999E-19   0.2293715425E-17   0.7526611200E-18   0.1250000002E+01
   0.1002500000E+01   0.0000000000E+00   0.1487433980E-17   0.1250000000E-02   0.0000000000E+00  -0.3287949849E-15   0.1250000000E-02   0.0000000000E+00   0.3302824189E-15   0.1250000002E+01   0.9507296215E-13   0.9498425110E-13  -0.1010272594E-15  -0.6665369719E-16   0.5220803353E-16   0.2500000004E-02  -0.1247500002E-02  -0.1247500002E-02  -0.1287982573E-17  -0.2114256948E-17   0.7075297860E-18   0.1250000002E+01
   0.1002500000E+01   0.9987525000E+00   0.1782477331E-17   0.1250000000E-02  -0.6237500000E-03  -0.3303352238E-15   0.1250000000E-02  -0.6237500000E-03   0.3321177011E-15   0.1250000002E+01   0.1475918689E-12   0.1475160392E-12  -0.6739807092E-16  -0.7052198365E-16  -0.9888399084E-16   0.2500000004E-02  -0.1247500002E-02  -0.1247500002E-02  -0.2680901737E-18   0.9213366339E-18  -0.1106653370E-17   0.1250000002E+01
   0.0000000000E+00   0.9987525000E+00   0.4911593116E-18   0.0000000000E+00  -0.6237500000E-03  -0.2361345619E-15   0.0000000000E+00  -0.6237500000E-03   0.2366257212E-15   0.1250000002E+01   0.7825799818E-13   0.7811241492E-13   0.7244045543E-16   0.1291331635E-15  -0.3366515425E-16   0.2500000004E-02  -0.1247500002E-02  -0.1247500002E-02   0.5986322067E-18   0.9942949571E-18  -0.3933502127E-18   0.1250000002E+01
   0.0000000000E+00   0.0000000000E+00   0.9987525000E+00   0.0000000000E+00   0.0000000000E+00  -0.6237500000E-03   0.0000000000E+00   0.0000000000E+00  -0.6237500000E-03   0.1250000002E+01  -0.1845534556E-12  -0.1845395778E-12  -0.1519134468E-16   0.1173642708E-15  -0.1281145783E-16   0.2500000004E-02  -0.1247500002E-02  -0.1247500002E-02  -0.1808509592E-18   0.2245492973E-17   0.6462427008E-18   0.1250000002E+01
   0.1002500000E+01   0.0000000000E+00   0.9987525000E+00   0.1250000000E-02   0.0000000000E+00  -0.6237500000E-03   0.1250000000E-02   0.0000000000E+00  -0.6237500000E-03   0.1250000002E+01  -0.1146866416E-12  -0.1145045046E-12   0.4320467312E-16  -0.8040127809E-16   0.6188604583E-16   0.2500000004E-02  -0.1247500002E-02  -0.1247500002E-02   0.5154631474E-18  -0.2235854629E-17   0.3778483598E-18   0.1250000002E+01
   0.1002500000E+01   0.9987525000E+00   0.9987525000E+00   0.1250000000E-02  -0.6237500000E-03  -0.6237500000E-03   0.1250000000E-02  -0.6237500000E-03  -0.6237500000E-03   0.1250000002E+01  -0.1161163994E-12  -0.1160656031E-12   0.2429816007E-16   0.4893704624E-17  -0.7881038313E-16   0.2500000003E-02  -0.1247500002E-02  -0.1247500002E-02   0.2107988568E-18   0.1985271421E-17  -0.3736476578E-18   0.1250000002E+01
   0.0000000000E+00   0.9987525000E+00   0.9987525000E+00   0.0000000000E+00  -0.6237500000E-03  -0.6237500000E-03   0.0000000000E+00  -0.6237500000E-03  -0.6237500000E-03   0.1250000002E+01  -0.1076214021E-12  -0.1073864762E-12  -0.1547676139E-16   0.2017590063E-15  -0.1021033327E-16   0.2500000003E-02  -0.1247500002E-02  -0.1247500002E-02  -0.1453049849E-18   0.1116058678E-17  -0.4023793118E-18   0.1250000002E+01
   0.2005000000E+01   0.0000000000E+00   0.4923265261E-17   0.2500000000E-02   0.0000000000E+00  -0.4812808770E-15   0.2500000000E-02   0.0000000000E+00   0.4862041423E-15   0.1250000002E+01  -0.6205905900E-15  -0.1046451756E-14   0.1152996095E-15  -0.1810581609E-15   0.9083612280E-16   0.2500000004E-02  -0.1247500002E-02  -0.1247500002E-02   0.1369198457E-17   0.2596300576E-17   0.1126217123E-17   0.1250000002E+01
   0.2005000000E+01   0.9987525000E+00   0.5558606177E-17   0.2500000000E-02  -0.6237500000E-03  -0.7774042396E-15   0.2500000000E-02  -0.6237500000E-03   0.7829628457E-15   0.1250000002E+01   0.2713246669E-12   0.2711614873E-12   0.2186526914E-15   0.1250442162E-15  -0.9461945840E-16   0.2500000003E-02  -0.1247500002E-02  -0.1247500002E-02   0.2638818535E-17  -0.5694872555E-17  -0.1060354475E-17   0.1250000002E+01
   0.2005000000E+01   0.0000000000E+00   0.9987525000E+00   0.2500000000E-02   0.0000000000E+00  -0.6237500000E-03   0.2500000000E-02   0.0000000000E+00  -0.6237500000E-03   0.1250000002E+01  -0.9883416243E-13  -0.9880740325E-13  -0.1592497208E-15   0.1723000330E-16   0.1427685732E-15   0.2500000003E-02  -0.1247500002E-02  -0.1247500002E-02  -0.1763749179E-17   0.3734413436E-17   0.1736543412E-17   0.1250000002E+01
   0.2005000000E+01   0.9987525000E+00   0.9987525000E+00   0.2500000000E-02  -0.6237500000E-03  -0.6237500000E-03   0.2500000000E-02  -0.6237500000E-03  -0.6237500000E-03   0.1250000002E+01  -0.1248517669E-12  -0.1246872262E-12  -0.8084856233E-16  -0.2106196058E-15  -0.6708563674E-16   0.2500000003E-02  -0.1247500002E-02  -0.1247500002E-02  -0.1438680131E-17  -0.5489414589E-17  -0.1168461491E-17   0.1250000002E+01
     1     2     3     4     5     6     7     8
     2     9    10     3     6    11    12     7
 VARIABLES = X,Y,Z,DU1,DU2,DU3,U1,U2,U3,S11,S22,S33,S12,S13,S23,E11,E22,E33,E12,E13,E23,SMISES
 ZONE, T="0.1500D+00" F=FEPOINT, I=   12 J=    2 ET=BRICK
   0.0000000000E+00   0.0000000000E+00   0.0000000000E+00   0.0000000000E+00   0.0000000000E+00   0.0000000000E+00   0.0000000000E+00   0.0000000000E+00   0.0000000000E+00   0.1875000003E+01  -0.2387109511E-13  -0.2376478773E-13  -0.9957988524E-19  -0.2519019569E-16  -0.8985843359E-17   0.3750000006E-02  -0.1871250003E-02  -0.1871250003E-02   0.1426747635E-18  -0.6548769156E-19   0.5392007587E-18   0.1875000003E+01
   0.1003750000E+01   0.0000000000E+00   0.4911529692E-19   0.1250000000E-02   0.0000000000E+00  -0.1438318684E-17   0.2500000000E-02   0.0000000000E+00   0.1487433980E-17   0.1875000003E+01   0.4330922639E-13   0.4351639680E-13   0.1145110860E-15   0.2566638914E-15   0.6913680722E-16   0.3750000006E-02  -0.1871250003E-02  -0.1871250003E-02   0.1562742926E-17   0.2954621914E-17   0.5906445705E-18   0.1875000003E+01
   0.1003750000E+01   0.9981287500E+00   0.4333408632E-18   0.1250000000E-02  -0.6237500000E-03  -0.1349136467E-17   0.2500000000E-02  -0.1247500000E-02   0.1782477331E-17   0.1875000003E+01  -0.1134206129E-12  -0.1133447833E-12   0.1373173700E-15  -0.1783937743E-15   0.1539057554E-15   0.3750000005E-02  -0.1871250003E-02  -0.1871250003E-02   0.2273908179E-17  -0.2378336677E-17   0.1916737102E-17   0.1875000003E+01
   0.0000000000E+00   0.9981287500E+00  -0.9189783069E-19   0.0000000000E+00  -0.6237500000E-03  -0.5830571423E-18   0.0000000000E+00  -0.1247500000E-02   0.4911593116E-18   0.1875000003E+01   0.1995437818E-13   0.1992117829E-13  -0.9140951776E-16   0.1617230720E-15  -0.6044162222E-16   0.3750000005E-02  -0.1871250003E-02  -0.1871250003E-02  -0.1000711577E-17   0.1023960147E-17  -0.6872918577E-18   0.1875000003E+01
   0.0000000000E+00   0.0000000000E+00   0.9981287500E+00   0.0000000000E+00   0.0000000000E+00  -0.6237500000E-03   0.0000000000E+00   0.0000000000E+00  -0.1247500000E-02   0.1875000003E+01   0.1135260865E-12   0.1137203755E-12  -0.2975635804E-16  -0.1366843481E-15  -0.8646435865E-16   0.3750000005E-02  -0.1871250003E-02  -0.1871250003E-02  -0.2225007123E-18  -0.2071258824E-17  -0.1885174583E-17   0.1875000003E+01
   0.1003750000E+01   0.0000000000E+00   0.9981287500E+00   0.1250000000E-02   0.0000000000E+00  -0.6237500000E-03   0.2500000000E-02   0.0000000000E+00  -0.1247500000E-02   0.1875000003E+01  -0.4647570845E-13  -0.4639987882E-13  -0.1984142983E-15   0.2680919790E-15   0.3113940079E-16   0.3750000005E-02  -0.1871250003E-02  -0.1871250003E-02  -0.2490551615E-17   0.4465332359E-17   0.5050204256E-18   0.1875000003E+01
   0.1003750000E+01   0.9981287500E+00   0.9981287500E+00   0.1250000000E-02  -0.6237500000E-03  -0.6237500000E-03   0.2500000000E-02  -0.1247500000E-02  -0.1247500000E-02   0.1875000002E+01   0.6769971872E-13   0.6764420758E-13  -0.2578397709E-15  -0.2474577759E-15   0.1087891744E-15   0.3750000005E-02  -0.1871250002E-02  -0.1871250002E-02  -0.3308801820E-17  -0.2051206119E-17   0.1203090788E-17   0.1875000002E+01
   0.0000000000E+00   0.9981287500E+00   0.9981287500E+00   0.0000000000E+00  -0.6237500000E-03  -0.6237500000E-03   0.0000000000E+00  -0.1247500000E-02  -0.1247500000E-02   0.1875000003E+01  -0.5943033535E-13  -0.5948113157E-13   0.3993849244E-16   0.1656361093E-15  -0.3280991222E-16   0.3750000005E-02  -0.1871250003E-02  -0.1871250003E-02   0.5498692439E-18   0.1590225077E-17   0.6797065404E-18   0.1875000003E+01
   0.2007500000E+01   0.0000000000E+00   0.4992818952E-18   0.2500000000E-02   0.0000000000E+00  -0.4423983366E-17   0.5000000000E-02   0.0000000000E+00   0.4923265261E-17   0.1875000003E+01   0.1902302296E-12   0.1900128999E-12  -0.5857411308E-15  -0.6319475215E-15  -0.1012325863E-15   0.3750000006E-02  -0.1871250003E-02  -0.1871250003E-02  -0.6683805711E-17  -0.5832923583E-17  -0.8141748849E-18   0.1875000003E+01
   0.2007500000E+01   0.9981287500E+00   0.6613023190E-19   0.2500000000E-02  -0.6237500000E-03  -0.5492475946E-17   0.5000000000E-02  -0.1247500000E-02   0.5558606177E-17   0.1875000003E+01  -0.1125212026E-12  -0.1125286397E-12  -0.4015316583E-15   0.7869978447E-15  -0.1566449151E-15   0.3750000005E-02  -0.1871250003E-02  -0.1871250003E-02  -0.5470969207E-17   0.6768232003E-17  -0.2826505142E-17   0.1875000003E+01
   0.2007500000E+01   0.0000000000E+00   0.9981287500E+00   0.2500000000E-02   0.0000000000E+00  -0.6237500000E-03   0.5000000000E-02   0.0000000000E+00  -0.1247500000E-02   0.1875000003E+01  -0.2617181442E-12  -0.2619530702E-12   0.3689838749E-15  -0.4067504385E-15  -0.2359389804E-16   0.3750000005E-02  -0.1871250003E-02  -0.1871250003E-02   0.4875948661E-17  -0.4340307704E-17  -0.2373461815E-18   0.1875000003E+01
   0.2007500000E+01   0.9981287500E+00   0.9981287500E+00   0.2500000000E-02  -0.6237500000E-03  -0.6237500000E-03   0.5000000000E-02  -0.1247500000E-02  -0.1247500000E-02   0.1875000002E+01   0.1929690742E-12   0.1930496188E-12   0.3569335092E-15   0.2336849382E-15  -0.1631122192E-15   0.3750000005E-02  -0.1871250002E-02  -0.1871250002E-02   0.3860616214E-17   0.6772280117E-17  -0.1064837688E-17   0.1875000002E+01
     1     2     3     4     5     6     7     8
     2     9    10     3     6    11    12     7
 VARIABLES = X,Y,Z,DU1,DU2,DU3,U1,U2,U3,S11,S22,S33,S12,S13,S23,E11,E22,E33,E12,E13,E23,SMISES
 ZONE, T="0.2000D+00" F=FEPOINT, I=   12 J=    2 ET=BRICK
   0.0000000000E+00   0.0000000000E+00   0.0000000000E+00   0.0000000000E+00   0.0000000000E+00   0.0000000000E+00   0.0000000000E+00   0.0000000000E+00   0.0000000000E+00   0.2500000004E+01  -0.3648897844E-12  -0.3648982178E-12  -0.1377288512E-16  -0.3187608601E-15  -0.2002247711E-15   0.5000000008E-02  -0.2495000004E-02  -0.2495000004E-02  -0.1539311136E-18  -0.3599474925E-17  -0.3292915052E-17   0.2500000004E+01
   0.1005000000E+01   0.0000000000E+00  -0.2351201679E-17   0.1250000000E-02   0.0000000000E+00  -0.2400316976E-17   0.3750000000E-02   0.0000000000E+00   0.4911529692E-19   0.2500000004E+01  -0.1562497369E-12  -0.1561813444E-12   0.5078583498E-15   0.4373501868E-15  -0.5584283909E-16   0.5000000008E-02  -0.2495000004E-02  -0.2495000004E-02   0.6019745982E-17   0.5216789028E-17  -0.3181384964E-18   0.2500000004E+01
   0.1005000000E+01   0.9975050000E+00  -0.2645493969E-17   0.1250000000E-02  -0.6237500000E-03  -0.3078834832E-17   0.3750000000E-02  -0.1871250000E-02   0.4333408632E-18   0.2500000004E+01  -0.1431059584E-12  -0.1430375659E-12   0.4362908288E-15  -0.3811831873E-15   0.1314651409E-15   0.5000000007E-02  -0.2495000004E-02  -0.2495000004E-02   0.5763338729E-17  -0.1912630420E-17   0.8278880490E-18   0.2500000004E+01
   0.0000000000E+00   0.9975050000E+00  -0.1214297427E-17   0.0000000000E+00  -0.6237500000E-03  -0.1122399597E-17   0.0000000000E+00  -0.1871250000E-02  -0.9189783069E-19   0.2500000004E+01  -0.3063095877E-13  -0.3053381429E-13   0.4039891143E-16  -0.6451841194E-16  -0.1277500413E-15   0.5000000007E-02  -0.2495000004E-02  -0.2495000004E-02   0.9596606482E-18  -0.1751937894E-17  -0.2221239754E-18   0.2500000004E+01
   0.0000000000E+00   0.0000000000E+00   0.9975050000E+00   0.0000000000E+00   0.0000000000E+00  -0.6237500000E-03   0.0000000000E+00   0.0000000000E+00  -0.1871250000E-02   0.2500000004E+01   0.2657807895E-12   0.2657114005E-12  -0.2325769394E-16  -0.2423902274E-15  -0.1584964413E-15   0.5000000007E-02  -0.2495000004E-02  -0.2495000004E-02  -0.8387017752E-18  -0.3457463089E-17  -0.5070700295E-18   0.2500000004E+01
   0.1005000000E+01   0.0000000000E+00   0.9975050000E+00   0.1250000000E-02   0.0000000000E+00  -0.6237500000E-03   0.3750000000E-02   0.0000000000E+00  -0.1871250000E-02   0.2500000004E+01   0.1478017735E-12   0.1477482551E-12  -0.3275775098E-15   0.5350745709E-15  -0.7970371990E-16   0.5000000007E-02  -0.2495000004E-02  -0.2495000004E-02  -0.2548849774E-17   0.7527571722E-17  -0.1601915876E-17   0.2500000004E+01
   0.1005000000E+01   0.9975050000E+00   0.9975050000E+00   0.1250000000E-02  -0.6237500000E-03  -0.6237500000E-03   0.3750000000E-02  -0.1871250000E-02  -0.1871250000E-02   0.2500000003E+01   0.2155238941E-12   0.2153038423E-12  -0.2954118201E-15  -0.3059298073E-15   0.6334926470E-16   0.5000000007E-02  -0.2495000003E-02  -0.2495000003E-02  -0.2569959088E-17  -0.4337307541E-17   0.1532096303E-17   0.2500000003E+01
   0.0000000000E+00   0.9975050000E+00   0.9975050000E+00   0.0000000000E+00  -0.6237500000E-03  -0.6237500000E-03   0.0000000000E+00  -0.1871250000E-02  -0.1871250000E-02   0.2500000003E+01   0.8613977251E-13   0.8575962795E-13   0.9701549298E-16  -0.1004207552E-15   0.6542944586E-16   0.5000000007E-02  -0.2495000003E-02  -0.2495000003E-02   0.9833463650E-18  -0.4510229788E-18  -0.1170279398E-17   0.2500000003E+01
   0.2010000000E+01   0.0000000000E+00  -0.7088086404E-17   0.2500000000E-02   0.0000000000E+00  -0.7587368300E-17   0.7500000000E-02   0.0000000000E+00   0.4992818952E-18   0.2500000004E+01  -0.3362846929E-13  -0.3329095445E-13  -0.2743775808E-16  -0.3706801131E-15  -0.7791676596E-16   0.5000000008E-02  -0.2495000004E-02  -0.2495000004E-02  -0.1453951298E-17  -0.5308954772E-17  -0.2795204692E-18   0.2500000004E+01
   0.2010000000E+01   0.9975050000E+00  -0.7430865497E-17   0.2500000000E-02  -0.6237500000E-03  -0.7496995729E-17   0.7500000000E-02  -0.1871250000E-02   0.6613023190E-19   0.2500000003E+01  -0.2054646380E-12  -0.2048996343E-12  -0.1915298903E-16   0.4872487844E-15   0.9731597154E-16   0.5000000007E-02  -0.2495000003E-02  -0.2495000003E-02  -0.1080943547E-17   0.2382515530E-17   0.1936552569E-18   0.2500000003E+01
   0.2010000000E+01   0.0000000000E+00   0.9975050000E+00   0.2500000000E-02   0.0000000000E+00  -0.6237500000E-03   0.7500000000E-02   0.0000000000E+00  -0.1871250000E-02   0.2500000003E+01  -0.8259754910E-13  -0.8277596755E-13   0.1833231749E-15  -0.3686035558E-16   0.4021458792E-16   0.5000000007E-02  -0.2495000003E-02  -0.2495000003E-02   0.1121265929E-18  -0.7280791117E-17  -0.4236526519E-18   0.2500000003E+01
   0.2010000000E+01   0.9975050000E+00   0.9975050000E+00   0.2500000000E-02  -0.6237500000E-03  -0.6237500000E-03   0.7500000000E-02  -0.1871250000E-02  -0.1871250000E-02   0.2500000003E+01   0.3674690316E-12   0.3676013688E-12   0.9811991853E-16   0.1690046790E-15   0.2338457575E-15   0.5000000006E-02  -0.2495000003E-02  -0.2495000003E-02  -0.2287881478E-17   0.7033996840E-17   0.3182131014E-17   0.2500000003E+01
     1     2     3     4     5     6     7     8
     2     9    10     3     6    11    12     7
 VARIABLES = X,Y,Z,DU1,DU2,DU3,U1,U2,U3,S11,S22,S33,S12,S13,S23,E11,E22,E33,E12,E13,E23,SMISES
 ZONE, T="0.2500D+00" F=FEPOINT, I=   12 J=    2 ET=BRICK
   0.0000000000E+00   0.0000000000E+00   0.0000000000E+00   0.0000000000E+00   0.0000000000E+00   0.0000000000E+00   0.0000000000E+00   0.0000000000E+00   0.0000000000E+00   0.3125000005E+01  -0.1999514532E-12  -0.1996020534E-12  -0.1483598604E-16  -0.1771731936E-15  -0.8008395848E-16   0.6250000010E-02  -0.3118750005E-02  -0.3118750005E-02  -0.5161606018E-18  -0.1984847012E-17  -0.1089845480E-17   0.3125000005E+01
   0.1006250000E+01   0.0000000000E+00  -0.2050428404E-17   0.1250000000E-02   0.0000000000E+00   0.3007732756E-18   0.5000000000E-02   0.0000000000E+00  -0.2351201679E-17   0.3125000005E+01  -0.2442228608E-12  -0.2440305645E-12   0.1398798036E-15   0.1687631069E-15  -0.7659093514E-16   0.6250000010E-02  -0.3118750005E-02  -0.3118750005E-02   0.1912666092E-17   0.1928220651E-17  -0.7782365513E-18   0.3125000005E+01
   0.1006250000E+01   0.9968812500E+00  -0.2493001800E-17   0.1250000000E-02  -0.6237500000E-03   0.1524921683E-18   0.5000000000E-02  -0.2495000000E-02  -0.2645493969E-17   0.3125000004E+01  -0.2376740498E-12  -0.2374817535E-12   0.5172296758E-16  -0.9009234135E-16   0.1556309149E-15   0.6250000009E-02  -0.3118750004E-02  -0.3118750004E-02   0.3770538760E-18  -0.2083199932E-17   0.1285060979E-17   0.3125000004E+01
   0.0000000000E+00   0.9968812500E+00  -0.4824925310E-18   0.0000000000E+00  -0.6237500000E-03   0.7318048962E-18   0.0000000000E+00  -0.2495000000E-02  -0.1214297427E-17   0.3125000005E+01  -0.1946130879E-12  -0.1940971546E-12  -0.4049525647E-16  -0.1111381809E-15  -0.2020129241E-17   0.6250000009E-02  -0.3118750005E-02  -0.3118750005E-02  -0.6702744319E-18  -0.1838385353E-17  -0.1196638894E-17   0.3125000005E+01
   0.0000000000E+00   0.0000000000E+00   0.9968812500E+00   0.0000000000E+00   0.0000000000E+00  -0.6237500000E-03   0.0000000000E+00   0.0000000000E+00  -0.2495000000E-02   0.3125000005E+01   0.2125118757E-12   0.2121624759E-12  -0.2744308343E-16  -0.2128468961E-15  -0.8156472455E-16   0.6250000009E-02  -0.3118750005E-02  -0.3118750005E-02   0.3831654280E-18  -0.2592814151E-17  -0.1007611634E-17   0.3125000005E+01
   0.1006250000E+01   0.0000000000E+00   0.9968812500E+00   0.1250000000E-02   0.0000000000E+00  -0.6237500000E-03   0.5000000000E-02   0.0000000000E+00  -0.2495000000E-02   0.3125000004E+01   0.2173585354E-12   0.2169739429E-12  -0.6421802788E-16   0.2162364758E-15  -0.9375113943E-16   0.6250000009E-02  -0.3118750004E-02  -0.3118750004E-02  -0.2928337610E-17   0.2754886316E-17  -0.9919602787E-18   0.3125000004E+01
   0.1006250000E+01   0.9968812500E+00   0.9968812500E+00   0.1250000000E-02  -0.6237500000E-03  -0.6237500000E-03   0.5000000000E-02  -0.2495000000E-02  -0.2495000000E-02   0.3125000004E+01   0.2778641773E-12   0.2774795848E-12  -0.6211100594E-16  -0.2003632489E-15   0.1153060754E-15   0.6250000008E-02  -0.3118750004E-02  -0.3118750004E-02  -0.3429606738E-17  -0.2473711815E-17   0.1122211689E-17   0.3125000004E+01
   0.0000000000E+00   0.9968812500E+00   0.9968812500E+00   0.0000000000E+00  -0.6237500000E-03  -0.6237500000E-03   0.0000000000E+00  -0.2495000000E-02  -0.2495000000E-02   0.3125000004E+01   0.1910829826E-12   0.1906889602E-12   0.1102485819E-15  -0.1033589850E-15   0.2004902970E-15   0.6250000008E-02  -0.3118750004E-02  -0.3118750004E-02   0.1974381903E-17  -0.1013118351E-17   0.3681037749E-17   0.3125000004E+01
   0.2012500000E+01   0.0000000000E+00  -0.8683963315E-17   0.2500000000E-02   0.0000000000E+00  -0.1595876910E-17   0.1000000000E-01   0.0000000000E+00  -0.7088086404E-17   0.3125000005E+01  -0.2769510788E-12  -0.2765312937E-12  -0.1220821593E-15  -0.3312781631E-15  -0.1217139977E-15   0.6250000009E-02  -0.3118750005E-02  -0.3118750005E-02  -0.2133495910E-17  -0.1414037760E-16  -0.1886334884E-17   0.3125000005E+01
   0.2012500000E+01   0.9968812500E+00  -0.9362620836E-17   0.2500000000E-02  -0.6237500000E-03  -0.1931755339E-17   0.1000000000E-01  -0.2495000000E-02  -0.7430865497E-17   0.3125000004E+01  -0.2152349911E-12  -0.2149817394E-12  -0.2348471440E-16   0.5313876122E-15  -0.3136420722E-17   0.6250000009E-02  -0.3118750004E-02  -0.3118750004E-02  -0.2551482081E-17   0.1235978393E-16   0.2126358185E-18   0.3125000004E+01
   0.2012500000E+01   0.0000000000E+00   0.9968812500E+00   0.2500000000E-02   0.0000000000E+00  -0.6237500000E-03   0.1000000000E-01   0.0000000000E+00  -0.2495000000E-02   0.3125000004E+01   0.1251685888E-12   0.1251333962E-12   0.1528968681E-15   0.7853883115E-16  -0.6980156614E-16   0.6250000009E-02  -0.3118750004E-02  -0.3118750004E-02   0.5071543452E-17   0.6771300501E-17  -0.1142524354E-17   0.3125000004E+01
   0.2012500000E+01   0.9968812500E+00   0.9968812500E+00   0.2500000000E-02  -0.6237500000E-03  -0.6237500000E-03   0.1000000000E-01  -0.2495000000E-02  -0.2495000000E-02   0.3125000004E+01   0.3215655969E-12   0.3215750267E-12  -0.4311965159E-17   0.2797750796E-15   0.9788989739E-16   0.6250000008E-02  -0.3118750004E-02  -0.3118750004E-02   0.3251599111E-17  -0.5172828921E-17   0.2063273681E-18   0.3125000004E+01
     1     2     3     4     5     6     7     8
     2     9    10     3     6    11    12     7
 VARIABLES = X,Y,Z,DU1,DU2,DU3,U1,U2,U3,S11,S22,S33,S12,S13,S23,E11,E22,E33,E12,E13,E23,SMISES
 ZONE, T="0.3000D+00" F=FEPOINT, I=   12 J=    2 ET=BRICK
   0.0000000000E+00   0.0000000000E+00   0.0000000000E+00   0.0000000000E+00   0.0000000000E+00   0.0000000000E+00   0.0000000000E+00   0.0000000000E+00   0.0000000000E+00   0.3750000006E+01   0.4248940722E-12   0.4250450020E-12  -0.2816087835E-16   0.3718908636E-15   0.2439113595E-15   0.7500000012E-02  -0.3742500006E-02  -0.3742500006E-02  -0.2857482324E-18   0.4958681621E-17   0.2894490913E-17   0.3750000006E+01
   0.1007500000E+01   0.0000000000E+00   0.2910076471E-17   0.1250000000E-02   0.0000000000E+00   0.4960504874E-17   0.6250000000E-02   0.0000000000E+00  -0.2050428404E-17   0.3750000006E+01  -0.6887171414E-14  -0.7432853010E-14  -0.1197051673E-15  -0.1537120793E-15  -0.8843055236E-16   0.7500000012E-02  -0.3742500006E-02  -0.3742500006E-02  -0.3478802476E-17  -0.1880100813E-17  -0.3242180818E-18   0.3750000006E+01
   0.1007500000E+01   0.9962575000E+00   0.2394206052E-17   0.1250000000E-02  -0.6237500000E-03   0.4887207852E-17   0.6250000000E-02  -0.3118750000E-02  -0.2493001800E-17   0.3750000005E+01   0.4607492553E-12   0.4607546997E-12  -0.4926095353E-15   0.7340829860E-16  -0.2788232150E-15   0.7500000011E-02  -0.3742500005E-02  -0.3742500005E-02  -0.6814750334E-17  -0.4020973512E-17  -0.3240538447E-17   0.3750000005E+01
   0.0000000000E+00   0.9962575000E+00   0.1602245640E-17   0.0000000000E+00  -0.6237500000E-03   0.2084738171E-17   0.0000000000E+00  -0.3118750000E-02  -0.4824925310E-18   0.3750000005E+01   0.3808096375E-13   0.3762326378E-13   0.1381824655E-15  -0.3141241451E-16  -0.1171582450E-15   0.7500000011E-02  -0.3742500005E-02  -0.3742500005E-02   0.1202906582E-17   0.3858455933E-18  -0.3272832205E-17   0.3750000005E+01
   0.0000000000E+00   0.0000000000E+00   0.9962575000E+00   0.0000000000E+00   0.0000000000E+00  -0.6237500000E-03   0.0000000000E+00   0.0000000000E+00  -0.3118750000E-02   0.3750000005E+01  -0.4409594624E-12  -0.4409012291E-12  -0.1046972624E-16   0.2932735184E-15   0.2006820853E-15   0.7500000011E-02  -0.3742500005E-02  -0.3742500005E-02   0.1147905165E-18   0.2034366416E-17   0.3717833387E-17   0.3750000005E+01
   0.1007500000E+01   0.0000000000E+00   0.9962575000E+00   0.1250000000E-02   0.0000000000E+00  -0.6237500000E-03   0.6250000000E-02   0.0000000000E+00  -0.3118750000E-02   0.3750000005E+01  -0.8338823451E-13  -0.8350470114E-13   0.2262203785E-15  -0.2562453357E-15   0.2676914095E-16   0.7500000011E-02  -0.3742500005E-02  -0.3742500005E-02  -0.1061642824E-17  -0.2859913879E-17   0.3356614273E-18   0.3750000005E+01
   0.1007500000E+01   0.9962575000E+00   0.9962575000E+00   0.1250000000E-02  -0.6237500000E-03  -0.6237500000E-03   0.6250000000E-02  -0.3118750000E-02  -0.3118750000E-02   0.3750000005E+01  -0.7605020550E-13  -0.7573745712E-13   0.3064142589E-15  -0.5511597271E-16  -0.2013697103E-15   0.7500000010E-02  -0.3742500005E-02  -0.3742500005E-02  -0.3137586567E-18  -0.3416064920E-17  -0.1396852864E-17   0.3750000005E+01
   0.0000000000E+00   0.9962575000E+00   0.9962575000E+00   0.0000000000E+00  -0.6237500000E-03  -0.6237500000E-03   0.0000000000E+00  -0.3118750000E-02  -0.3118750000E-02   0.3750000005E+01  -0.2718839992E-12  -0.2717965515E-12   0.2022721508E-15   0.2596717585E-15  -0.8712336401E-16   0.7500000010E-02  -0.3742500005E-02  -0.3742500005E-02   0.2697857907E-17   0.5405492002E-17  -0.2317850998E-17   0.3750000005E+01
   0.2015000000E+01   0.0000000000E+00   0.7814317567E-17   0.2500000000E-02   0.0000000000E+00   0.1649828088E-16   0.1250000000E-01   0.0000000000E+00  -0.8683963315E-17   0.3750000006E+01  -0.7965968058E-12  -0.7959299427E-12   0.1453948818E-14   0.6085106809E-15  -0.7905999965E-16   0.7500000011E-02  -0.3742500006E-02  -0.3742500006E-02   0.1361396041E-16   0.2654570663E-17  -0.1716900660E-17   0.3750000006E+01
   0.2015000000E+01   0.9962575000E+00   0.7442562767E-17   0.2500000000E-02  -0.6237500000E-03   0.1680518360E-16   0.1250000000E-01  -0.3118750000E-02  -0.9362620836E-17   0.3750000005E+01   0.4981776737E-12   0.4989793292E-12   0.8600466970E-15  -0.4776317059E-15   0.1862738871E-15   0.7500000010E-02  -0.3742500005E-02  -0.3742500005E-02   0.8528007846E-17   0.9951088399E-18   0.3302875674E-17   0.3750000005E+01
   0.2015000000E+01   0.0000000000E+00   0.9962575000E+00   0.2500000000E-02   0.0000000000E+00  -0.6237500000E-03   0.1250000000E-01   0.0000000000E+00  -0.3118750000E-02   0.3750000005E+01   0.7945736292E-13   0.7883312953E-13  -0.2490290512E-15   0.7184101012E-15   0.1721587571E-15   0.7500000010E-02  -0.3742500005E-02  -0.3742500005E-02   0.2663799683E-17   0.1378466476E-16   0.2278929317E-17   0.3750000005E+01
   0.2015000000E+01   0.9962575000E+00   0.9962575000E+00   0.2500000000E-02  -0.6237500000E-03  -0.6237500000E-03   0.1250000000E-01  -0.3118750000E-02  -0.3118750000E-02   0.3750000005E+01  -0.1022535246E-12  -0.1024708542E-12  -0.4382273127E-15  -0.8570737913E-15   0.5176766948E-15   0.7500000010E-02  -0.3742500005E-02  -0.3742500005E-02  -0.2783700801E-18  -0.2285991624E-16   0.4006632049E-17   0.3750000005E+01
     1     2     3     4     5     6     7     8
     2     9    10     3     6    11    12     7
 VARIABLES = X,Y,Z,DU1,DU2,DU3,U1,U2,U3,S11,S22,S33,S12,S13,S23,E11,E22,E33,E12,E13,E23,SMISES
 ZONE, T="0.3500D+00" F=FEPOINT, I=   12 J=    2 ET=BRICK
   0.0000000000E+00   0.0000000000E+00   0.0000000000E+00   0.0000000000E+00   0.0000000000E+00   0.0000000000E+00   0.0000000000E+00   0.0000000000E+00   0.0000000000E+00   0.4375000007E+01   0.5372986528E-12   0.5375132603E-12  -0.2988060498E-16   0.3494916763E-15   0.1954270094E-15   0.8750000014E-02  -0.4366250007E-02  -0.4366250007E-02   0.3677040994E-18   0.3518796070E-17   0.2318671890E-17   0.4375000007E+01
   0.1008750000E+01   0.0000000000E+00   0.4250804052E-17   0.1250000000E-02   0.0000000000E+00   0.1340727581E-17   0.7500000000E-02   0.0000000000E+00   0.2910076471E-17   0.4375000007E+01   0.3590184608E-12   0.3584158092E-12  -0.1159298251E-15  -0.2912259564E-16   0.2149236500E-15   0.8750000013E-02  -0.4366250007E-02  -0.4366250007E-02  -0.4438546010E-17   0.4548936222E-18   0.2742410452E-17   0.4375000007E+01
   0.1008750000E+01   0.9956337500E+00   0.5589551703E-17   0.1250000000E-02  -0.6237500000E-03   0.3195345652E-17   0.7500000000E-02  -0.3742500000E-02   0.2394206052E-17   0.4375000006E+01   0.5368476482E-12   0.5367515001E-12  -0.2547794375E-15   0.4038161452E-16  -0.1419345962E-15   0.8750000012E-02  -0.4366250006E-02  -0.4366250006E-02  -0.5355363156E-17   0.4442867995E-18  -0.1892193764E-17   0.4375000006E+01
   0.0000000000E+00   0.9956337500E+00   0.1280396983E-17   0.0000000000E+00  -0.6237500000E-03  -0.3218486566E-18   0.0000000000E+00  -0.3742500000E-02   0.1602245640E-17   0.4375000006E+01   0.3370810342E-12   0.3365427897E-12   0.1277042456E-15   0.4543055207E-15  -0.2454712736E-15   0.8750000013E-02  -0.4366250006E-02  -0.4366250006E-02   0.3341302591E-17   0.5991453205E-17  -0.4461755956E-17   0.4375000006E+01
   0.0000000000E+00   0.0000000000E+00   0.9956337500E+00   0.0000000000E+00   0.0000000000E+00  -0.6237500000E-03   0.0000000000E+00   0.0000000000E+00  -0.3742500000E-02   0.4375000006E+01  -0.4245150531E-12  -0.4245279345E-12  -0.7930622242E-17   0.2632066782E-15   0.2444152179E-15   0.8750000013E-02  -0.4366250006E-02  -0.4366250006E-02  -0.3616596012E-18   0.2158851688E-17   0.3750318783E-17   0.4375000006E+01
   0.1008750000E+01   0.0000000000E+00   0.9956337500E+00   0.1250000000E-02   0.0000000000E+00  -0.6237500000E-03   0.7500000000E-02   0.0000000000E+00  -0.3742500000E-02   0.4375000006E+01  -0.4745655893E-12  -0.4748025081E-12  -0.8158763473E-16  -0.1104075171E-15   0.2971619930E-15   0.8750000012E-02  -0.4366250006E-02  -0.4366250006E-02  -0.3708060868E-18   0.1517543242E-17   0.4358598517E-17   0.4375000006E+01
   0.1008750000E+01   0.9956337500E+00   0.9956337500E+00   0.1250000000E-02  -0.6237500000E-03  -0.6237500000E-03   0.7500000000E-02  -0.3742500000E-02  -0.3742500000E-02   0.4375000006E+01  -0.2161342222E-12  -0.2157753925E-12  -0.1096671139E-15  -0.1839168142E-15  -0.3921020131E-16   0.8750000011E-02  -0.4366250006E-02  -0.4366250006E-02   0.1770414044E-18  -0.5497268131E-17   0.1118047358E-17   0.4375000006E+01
   0.0000000000E+00   0.9956337500E+00   0.9956337500E+00   0.0000000000E+00  -0.6237500000E-03  -0.6237500000E-03   0.0000000000E+00  -0.3742500000E-02  -0.3742500000E-02   0.4375000006E+01  -0.5833104697E-12  -0.5827558922E-12   0.2494658497E-15   0.5810571875E-15  -0.1362446484E-15   0.8750000012E-02  -0.4366250006E-02  -0.4366250006E-02   0.1172466360E-17   0.8436741939E-17  -0.1892984620E-17   0.4375000006E+01
   0.2017500000E+01   0.0000000000E+00   0.1645504286E-16   0.2500000000E-02   0.0000000000E+00   0.8640725292E-17   0.1500000000E-01   0.0000000000E+00   0.7814317567E-17   0.4375000007E+01   0.3152720370E-13   0.3126107055E-13   0.2083232204E-15  -0.6892190870E-15   0.2541302784E-16   0.8750000013E-02  -0.4366250007E-02  -0.4366250007E-02   0.2045568796E-17  -0.2674165524E-18   0.6121768326E-18   0.4375000007E+01
   0.2017500000E+01   0.9956337500E+00   0.1667000751E-16   0.2500000000E-02  -0.6237500000E-03   0.9227444743E-17   0.1500000000E-01  -0.3742500000E-02   0.7442562767E-17   0.4375000006E+01   0.6686715104E-12   0.6683513250E-12   0.1417336616E-15  -0.7171656053E-16  -0.6143941912E-15   0.8750000012E-02  -0.4366250006E-02  -0.4366250006E-02   0.3604709410E-17  -0.4176995133E-17  -0.5492065771E-17   0.4375000006E+01
   0.2017500000E+01   0.0000000000E+00   0.9956337500E+00   0.2500000000E-02   0.0000000000E+00  -0.6237500000E-03   0.1500000000E-01   0.0000000000E+00  -0.3742500000E-02   0.4375000006E+01  -0.8643414334E-12  -0.8641362557E-12   0.7516202225E-15  -0.5406106938E-15   0.4157692394E-15   0.8750000012E-02  -0.4366250006E-02  -0.4366250006E-02   0.1475601606E-16  -0.1657510483E-16   0.1772286187E-17   0.4375000006E+01
   0.2017500000E+01   0.9956337500E+00   0.9956337500E+00   0.2500000000E-02  -0.6237500000E-03  -0.6237500000E-03   0.1500000000E-01  -0.3742500000E-02  -0.3742500000E-02   0.4375000006E+01  -0.1074149693E-12  -0.1060981099E-12   0.1931294996E-15  -0.2432151467E-17  -0.1964632853E-15   0.8750000011E-02  -0.4366250006E-02  -0.4366250006E-02   0.7548208324E-18   0.1803845925E-16  -0.3561237009E-17   0.4375000006E+01
     1     2     3     4     5     6     7     8
     2     9    10     3     6    11    12     7
 VARIABLES = X,Y,Z,DU1,DU2,DU3,U1,U2,U3,S11,S22,S33,S12,S13,S23,E11,E22,E33,E12,E13,E23,SMISES
 ZONE, T="0.4000D+00" F=FEPOINT, I=   12 J=    2 ET=BRICK
   0.0000000000E+00   0.0000000000E+00   0.0000000000E+00   0.0000000000E+00   0.0000000000E+00   0.0000000000E+00   0.0000000000E+00   0.0000000000E+00   0.0000000000E+00   0.5000000008E+01  -0.1500672565E-12  -0.1493441528E-12  -0.3097621233E-16  -0.1015784330E-15  -0.7327642515E-16   0.1000000002E-01  -0.4990000008E-02  -0.4990000008E-02  -0.1494711288E-18  -0.1290703503E-17  -0.1272084388E-17   0.5000000008E+01
   0.1010000000E+01   0.0000000000E+00  -0.3386105946E-18   0.1250000000E-02   0.0000000000E+00  -0.4589414647E-17   0.8750000000E-02   0.0000000000E+00   0.4250804052E-17   0.5000000008E+01   0.9976471350E-13   0.1003307136E-12   0.5250845554E-15   0.6460282689E-15   0.1193774383E-15   0.1000000002E-01  -0.4990000008E-02  -0.4990000008E-02   0.5097254010E-17   0.1138579947E-16   0.2655661282E-17   0.5000000008E+01
   0.1010000000E+01   0.9950100000E+00   0.4599794236E-18   0.1250000000E-02  -0.6237500000E-03  -0.5129572280E-17   0.8750000000E-02  -0.4366250000E-02   0.5589551703E-17   0.5000000007E+01  -0.1933111565E-12  -0.1928155417E-12   0.5277101831E-15  -0.3067454732E-15   0.1571016596E-15   0.1000000001E-01  -0.4990000007E-02  -0.4990000007E-02   0.4138789045E-17  -0.6220759671E-17  -0.7596958105E-18   0.5000000007E+01
   0.0000000000E+00   0.9950100000E+00  -0.3147426863E-18   0.0000000000E+00  -0.6237500000E-03  -0.1595139669E-17   0.0000000000E+00  -0.4366250000E-02   0.1280396983E-17   0.5000000007E+01   0.2424049466E-12   0.2421313764E-12  -0.2534360706E-15   0.1105379719E-15  -0.1187283589E-15   0.1000000001E-01  -0.4990000007E-02  -0.4990000007E-02  -0.2571272318E-17   0.4376371624E-18   0.1457766959E-17   0.5000000007E+01
   0.0000000000E+00   0.0000000000E+00   0.9950100000E+00   0.0000000000E+00   0.0000000000E+00  -0.6237500000E-03   0.0000000000E+00   0.0000000000E+00  -0.4366250000E-02   0.5000000007E+01   0.3596358625E-12   0.3595382556E-12  -0.1364442341E-16  -0.9502483639E-16  -0.1392481314E-15   0.1000000001E-01  -0.4990000007E-02  -0.4990000007E-02  -0.6145865953E-18  -0.3949029942E-17  -0.5103202303E-17   0.5000000007E+01
   0.1010000000E+01   0.0000000000E+00   0.9950100000E+00   0.1250000000E-02   0.0000000000E+00  -0.6237500000E-03   0.8750000000E-02   0.0000000000E+00  -0.4366250000E-02   0.5000000007E+01   0.6308887264E-13   0.6298873900E-13  -0.7471500399E-15   0.6821374026E-15  -0.1632015056E-15   0.1000000001E-01  -0.4990000007E-02  -0.4990000007E-02  -0.1015075702E-16   0.1060464707E-16  -0.9008653438E-18   0.5000000007E+01
   0.1010000000E+01   0.9950100000E+00   0.9950100000E+00   0.1250000000E-02  -0.6237500000E-03  -0.6237500000E-03   0.8750000000E-02  -0.4366250000E-02  -0.4366250000E-02   0.5000000007E+01  -0.2307750419E-12  -0.2308563158E-12  -0.5552396719E-15  -0.7132166031E-15  -0.1639201896E-15   0.1000000001E-01  -0.4990000007E-02  -0.4990000007E-02  -0.9741159561E-17  -0.7532103183E-17   0.4296353228E-17   0.5000000007E+01
   0.0000000000E+00   0.9950100000E+00   0.9950100000E+00   0.0000000000E+00  -0.6237500000E-03  -0.6237500000E-03   0.0000000000E+00  -0.4366250000E-02  -0.4366250000E-02   0.5000000007E+01  -0.2211415692E-12  -0.2211266951E-12  -0.1849045952E-15   0.6060715499E-16  -0.1421290859E-15   0.1000000001E-01  -0.4990000007E-02  -0.4990000007E-02  -0.1633184541E-17   0.2995618646E-17  -0.4520017412E-17   0.5000000007E+01
   0.2020000000E+01   0.0000000000E+00  -0.1032160245E-18   0.2500000000E-02   0.0000000000E+00  -0.1655825888E-16   0.1750000000E-01   0.0000000000E+00   0.1645504286E-16   0.5000000008E+01   0.5959631976E-12   0.5958467310E-12  -0.7884968061E-15  -0.5719281392E-15   0.2366855734E-15   0.1000000002E-01  -0.4990000008E-02  -0.4990000008E-02  -0.2764830715E-17  -0.8948634001E-17   0.3846920220E-17   0.5000000008E+01
   0.2020000000E+01   0.9950100000E+00   0.1426893227E-17   0.2500000000E-02  -0.6237500000E-03  -0.1524311428E-16   0.1750000000E-01  -0.4366250000E-02   0.1667000751E-16   0.5000000007E+01  -0.1937225918E-12  -0.1948030664E-12  -0.1272382318E-15  -0.3009388269E-15   0.1157479886E-15   0.1000000001E-01  -0.4990000007E-02  -0.4990000007E-02   0.7145973144E-17  -0.3024769169E-17   0.3867881834E-17   0.5000000007E+01
   0.2020000000E+01   0.0000000000E+00   0.9950100000E+00   0.2500000000E-02   0.0000000000E+00  -0.6237500000E-03   0.1750000000E-01   0.0000000000E+00  -0.4366250000E-02   0.5000000007E+01  -0.1518704527E-12  -0.1523199862E-12  -0.7567398163E-15  -0.2572916702E-15   0.1691375485E-15   0.1000000001E-01  -0.4990000007E-02  -0.4990000007E-02  -0.4118113952E-17  -0.1003588218E-16  -0.6079526863E-18   0.5000000007E+01
   0.2020000000E+01   0.9950100000E+00   0.9950100000E+00   0.2500000000E-02  -0.6237500000E-03  -0.6237500000E-03   0.1750000000E-01  -0.4366250000E-02  -0.4366250000E-02   0.5000000006E+01   0.3127108076E-13   0.3123442924E-13  -0.4639882851E-15   0.2448337216E-15   0.5194167458E-16   0.1000000001E-01  -0.4990000006E-02  -0.4990000006E-02  -0.4388218899E-17   0.6195433553E-17  -0.3468203311E-17   0.5000000006E+01
     1     2     3     4     5     6     7     8
     2     9    10     3     6    11    12     7
 VARIABLES = X,Y,Z,DU1,DU2,DU3,U1,U2,U3,S11,S22,S33,S12,S13,S23,E11,E22,E33,E12,E13,E23,SMISES
 ZONE, T="0.4500D+00" F=FEPOINT, I=   12 J=    2 ET=BRICK
   0.0000000000E+00   0.0000000000E+00   0.0000000000E+00   0.0000000000E+00   0.0000000000E+00   0.0000000000E+00   0.0000000000E+00   0.0000000000E+00   0.0000000000E+00   0.5625000009E+01   0.1368769674E-12   0.1372385192E-12  -0.4388782019E-16   0.3952532543E-15   0.1425508221E-15   0.1125000002E-01  -0.5613750009E-02  -0.5613750009E-02  -0.9254385063E-19   0.4734822867E-17   0.9196496447E-18   0.5625000009E+01
   0.1011250000E+01   0.0000000000E+00   0.2186543850E-17   0.1250000000E-02   0.0000000000E+00   0.2525154445E-17   0.1000000000E-01   0.0000000000E+00  -0.3386105946E-18   0.5625000009E+01   0.6923509071E-13   0.6980653515E-13   0.5345278616E-15  -0.5139750474E-16   0.1299964144E-15   0.1125000002E-01  -0.5613750009E-02  -0.5613750009E-02   0.3860480915E-17  -0.3508045552E-17   0.1050855198E-17   0.5625000009E+01
   0.1011250000E+01   0.9943862500E+00   0.2982311113E-17   0.1250000000E-02  -0.6237500000E-03   0.2522331689E-17   0.1000000000E-01  -0.4990000000E-02   0.4599794236E-18   0.5625000008E+01  -0.2833293537E-12  -0.2828540574E-12   0.3799498677E-15  -0.2435783521E-15   0.8537794664E-16   0.1125000002E-01  -0.5613750008E-02  -0.5613750008E-02   0.2831228300E-17  -0.5567690070E-17   0.4646075881E-17   0.5625000008E+01
   0.0000000000E+00   0.9943862500E+00   0.1047525273E-17   0.0000000000E+00  -0.6237500000E-03   0.1362267959E-17   0.0000000000E+00  -0.4990000000E-02  -0.3147426863E-18   0.5625000008E+01   0.5481591899E-12   0.5475369493E-12  -0.5330586522E-15   0.3376699323E-15  -0.1028992942E-15   0.1125000002E-01  -0.5613750008E-02  -0.5613750008E-02  -0.7457268598E-17   0.4213249999E-17  -0.1891202958E-19   0.5625000008E+01
   0.0000000000E+00   0.0000000000E+00   0.9943862500E+00   0.0000000000E+00   0.0000000000E+00  -0.6237500000E-03   0.0000000000E+00   0.0000000000E+00  -0.4990000000E-02   0.5625000008E+01  -0.1936967362E-12  -0.1936528431E-12  -0.1611289290E-17   0.2433750329E-15   0.7804436739E-17   0.1125000002E-01  -0.5613750008E-02  -0.5613750008E-02   0.5785782228E-18   0.4646978541E-17  -0.2346151158E-17   0.5625000008E+01
   0.1011250000E+01   0.0000000000E+00   0.9943862500E+00   0.1250000000E-02   0.0000000000E+00  -0.6237500000E-03   0.1000000000E-01   0.0000000000E+00  -0.4990000000E-02   0.5625000008E+01   0.9557006723E-13   0.9537922981E-13   0.1128537839E-15   0.2939286505E-17  -0.7117814989E-16   0.1125000002E-01  -0.5613750008E-02  -0.5613750008E-02  -0.2302641536E-17  -0.1812851165E-17   0.1508370174E-18   0.5625000008E+01
   0.1011250000E+01   0.9943862500E+00   0.9943862500E+00   0.1250000000E-02  -0.6237500000E-03  -0.6237500000E-03   0.1000000000E-01  -0.4990000000E-02  -0.4990000000E-02   0.5625000007E+01  -0.1767579302E-12  -0.1765006930E-12   0.3292781384E-15  -0.6462446786E-15  -0.1409141499E-15   0.1125000001E-01  -0.5613750007E-02  -0.5613750007E-02   0.1991608674E-17  -0.3306485661E-17  -0.7129228415E-17   0.5625000007E+01
   0.0000000000E+00   0.9943862500E+00   0.9943862500E+00   0.0000000000E+00  -0.6237500000E-03  -0.6237500000E-03   0.0000000000E+00  -0.4990000000E-02  -0.4990000000E-02   0.5625000008E+01  -0.1451199394E-12  -0.1451781727E-12  -0.3345700491E-15   0.3742202061E-15  -0.1749311036E-15   0.1125000002E-01  -0.5613750008E-02  -0.5613750008E-02  -0.1799284564E-17   0.4960355443E-17   0.3627110810E-17   0.5625000008E+01
   0.2022500000E+01   0.0000000000E+00   0.3194862355E-17   0.2500000000E-02   0.0000000000E+00   0.3298078379E-17   0.2000000000E-01   0.0000000000E+00  -0.1032160245E-18   0.5625000009E+01   0.4028232742E-12   0.4031684931E-12  -0.9904722092E-15   0.2088006552E-16   0.1782736101E-15   0.1125000002E-01  -0.5613750008E-02  -0.5613750008E-02  -0.1104986845E-16   0.4415262984E-17   0.2266056781E-17   0.5625000009E+01
   0.2022500000E+01   0.9943862500E+00   0.4407357386E-17   0.2500000000E-02  -0.6237500000E-03   0.2980464159E-17   0.2000000000E-01  -0.4990000000E-02   0.1426893227E-17   0.5625000008E+01  -0.7156515699E-12  -0.7167570779E-12  -0.3745993962E-15   0.1898874742E-15   0.2571434930E-15   0.1125000002E-01  -0.5613750008E-02  -0.5613750008E-02  -0.9507484983E-18  -0.1303836790E-16   0.1837870819E-17   0.5625000008E+01
   0.2022500000E+01   0.0000000000E+00   0.9943862500E+00   0.2500000000E-02   0.0000000000E+00  -0.6237500000E-03   0.2000000000E-01   0.0000000000E+00  -0.4990000000E-02   0.5625000008E+01   0.6740911347E-12   0.6736517605E-12  -0.9933429407E-15   0.5065889162E-15  -0.5370352514E-16   0.1125000002E-01  -0.5613750008E-02  -0.5613750008E-02  -0.7544953265E-17   0.1599890401E-17  -0.1890538019E-17   0.5625000008E+01
   0.2022500000E+01   0.9943862500E+00   0.9943862500E+00   0.2500000000E-02  -0.6237500000E-03  -0.6237500000E-03   0.2000000000E-01  -0.4990000000E-02  -0.4990000000E-02   0.5625000007E+01   0.8225594217E-13   0.8172639804E-13  -0.4904503623E-15   0.5772095916E-15  -0.5854779618E-16   0.1125000001E-01  -0.5613750007E-02  -0.5613750007E-02  -0.4461466222E-17   0.1056951378E-16   0.1623794392E-17   0.5625000007E+01
     1     2     3     4     5     6     7     8
     2     9    10     3     6    11    12     7
 VARIABLES = X,Y,Z,DU1,DU2,DU3,U1,U2,U3,S11,S22,S33,S12,S13,S23,E11,E22,E33,E12,E13,E23,SMISES
 ZONE, T="0.5000D+00" F=FEPOINT, I=   12 J=    2 ET=BRICK
   0.0000000000E+00   0.0000000000E+00   0.0000000000E+00   0.0000000000E+00   0.0000000000E+00   0.0000000000E+00   0.0000000000E+00   0.0000000000E+00   0.0000000000E+00   0.6250000010E+01  -0.3676251611E-12  -0.3673976723E-12  -0.3933180607E-16  -0.9570546412E-16  -0.1907919988E-15   0.1250000002E-01  -0.6237500010E-02  -0.6237500010E-02   0.1703458149E-18   0.2070192848E-17  -0.2394957547E-17   0.6250000010E+01
   0.1012500000E+01   0.0000000000E+00   0.7578913012E-18   0.1250000000E-02   0.0000000000E+00  -0.1428652549E-17   0.1125000000E-01   0.0000000000E+00   0.2186543850E-17   0.6250000010E+01   0.2596792319E-12   0.2598903878E-12   0.9581095056E-15   0.1000399806E-14   0.7628237684E-16   0.1250000002E-01  -0.6237500010E-02  -0.6237500010E-02   0.8994997381E-17   0.1016024704E-16   0.2093035991E-17   0.6250000010E+01
   0.1012500000E+01   0.9937625000E+00   0.1115123809E-17   0.1250000000E-02  -0.6237500000E-03  -0.1867187304E-17   0.1125000000E-01  -0.5613750000E-02   0.2982311113E-17   0.6250000009E+01   0.9139663776E-13   0.9190314119E-13   0.8272662613E-15   0.5606376953E-16  -0.1697553463E-16   0.1250000002E-01  -0.6237500009E-02  -0.6237500009E-02   0.7820448607E-17  -0.1864079210E-17   0.1789927558E-17   0.6250000009E+01
   0.0000000000E+00   0.9937625000E+00  -0.8895089746E-18   0.0000000000E+00  -0.6237500000E-03  -0.1937034247E-17   0.0000000000E+00  -0.5613750000E-02   0.1047525273E-17   0.6250000009E+01   0.5080383682E-12   0.5076958716E-12  -0.4258131868E-15   0.1004751030E-15  -0.4327870713E-15   0.1250000002E-01  -0.6237500009E-02  -0.6237500009E-02  -0.5654090598E-17  -0.4607449493E-18  -0.9096002661E-18   0.6250000009E+01
   0.0000000000E+00   0.0000000000E+00   0.9937625000E+00   0.0000000000E+00   0.0000000000E+00  -0.6237500000E-03   0.0000000000E+00   0.0000000000E+00  -0.5613750000E-02   0.6250000009E+01   0.1661503329E-12   0.1651278962E-12  -0.1097960402E-16  -0.2422880813E-15   0.1176980588E-15   0.1250000002E-01  -0.6237500009E-02  -0.6237500009E-02   0.1204647298E-17  -0.3196930282E-17   0.2563207715E-17   0.6250000009E+01
   0.1012500000E+01   0.0000000000E+00   0.9937625000E+00   0.1250000000E-02   0.0000000000E+00  -0.6237500000E-03   0.1125000000E-01   0.0000000000E+00  -0.5613750000E-02   0.6250000009E+01  -0.2616753480E-12  -0.2626041633E-12  -0.4547789057E-15   0.9956389465E-15   0.4955868783E-16   0.1250000002E-01  -0.6237500009E-02  -0.6237500009E-02  -0.1061403318E-16   0.7974965932E-17  -0.1729755754E-17   0.6250000009E+01
   0.1012500000E+01   0.9937625000E+00   0.9937625000E+00   0.1250000000E-02  -0.6237500000E-03  -0.6237500000E-03   0.1125000000E-01  -0.5613750000E-02  -0.5613750000E-02   0.6250000008E+01  -0.2419297441E-12  -0.2414747662E-12  -0.5194945443E-15  -0.6126784484E-15  -0.3113165444E-16   0.1250000002E-01  -0.6237500008E-02  -0.6237500008E-02  -0.7690867810E-17   0.2268561684E-17  -0.3612530686E-18   0.6250000008E+01
   0.0000000000E+00   0.9937625000E+00   0.9937625000E+00   0.0000000000E+00  -0.6237500000E-03  -0.6237500000E-03   0.0000000000E+00  -0.5613750000E-02  -0.5613750000E-02   0.6250000008E+01  -0.1062022464E-12  -0.1051867129E-12  -0.1214698662E-15  -0.8989505512E-16  -0.5579267781E-16   0.1250000002E-01  -0.6237500008E-02  -0.6237500008E-02  -0.5372246363E-18  -0.1211933582E-17  -0.1017978582E-16   0.6250000008E+01
   0.2025000000E+01   0.0000000000E+00   0.6446021401E-17   0.2500000000E-02   0.0000000000E+00   0.3251159046E-17   0.2250000000E-01   0.0000000000E+00   0.3194862355E-17   0.6250000009E+01   0.1057542010E-11   0.1057070699E-11  -0.6381834749E-15  -0.1037814129E-14   0.2214155093E-15   0.1250000002E-01  -0.6237500009E-02  -0.6237500009E-02   0.8284677788E-18  -0.1178093962E-16   0.1267623105E-17   0.6250000009E+01
   0.2025000000E+01   0.9937625000E+00   0.7978476679E-17   0.2500000000E-02  -0.6237500000E-03   0.3571119293E-17   0.2250000000E-01  -0.5613750000E-02   0.4407357386E-17   0.6250000009E+01   0.3085544598E-13   0.2972490460E-13  -0.2047477547E-15  -0.4018348260E-15  -0.1285349301E-15   0.1250000002E-01  -0.6237500009E-02  -0.6237500009E-02   0.6197846746E-17  -0.5373104803E-18  -0.7130060527E-18   0.6250000009E+01
   0.2025000000E+01   0.0000000000E+00   0.9937625000E+00   0.2500000000E-02   0.0000000000E+00  -0.6237500000E-03   0.2250000000E-01   0.0000000000E+00  -0.5613750000E-02   0.6250000009E+01  -0.7663874056E-12  -0.7670441095E-12  -0.1191947553E-15  -0.8375843274E-15   0.2993418648E-15   0.1250000002E-01  -0.6237500009E-02  -0.6237500009E-02   0.1420102549E-17   0.7402868281E-17   0.9176171765E-18   0.6250000009E+01
   0.2025000000E+01   0.9937625000E+00   0.9937625000E+00   0.2500000000E-02  -0.6237500000E-03  -0.6237500000E-03   0.2250000000E-01  -0.5613750000E-02  -0.5613750000E-02   0.6250000008E+01  -0.2643863558E-12  -0.2638258001E-12  -0.2551929884E-15   0.1965333790E-15  -0.1646235074E-15   0.1250000002E-01  -0.6237500008E-02  -0.6237500008E-02  -0.9026792330E-17  -0.2590848692E-16  -0.2293840882E-17   0.6250000008E+01
     1     2     3     4     5     6     7     8
     2     9    10     3     6    11    12     7
 VARIABLES = X,Y,Z,DU1,DU2,DU3,U1,U2,U3,S11,S22,S33,S12,S13,S23,E11,E22,E33,E12,E13,E23,SMISES
 ZONE, T="0.5500D+00" F=FEPOINT, I=   12 J=    2 ET=BRICK
   0.0000000000E+00   0.0000000000E+00   0.0000000000E+00   0.0000000000E+00   0.0000000000E+00   0.0000000000E+00   0.0000000000E+00   0.0000000000E+00   0.0000000000E+00   0.6875000011E+01   0.4707130950E-12   0.4700211984E-12  -0.4137166114E-16   0.1292307778E-15   0.1053554526E-15   0.1375000002E-01  -0.6861250011E-02  -0.6861250011E-02   0.6418864538E-18  -0.3422413787E-17   0.2035207661E-17   0.6875000011E+01
   0.1013750000E+01   0.0000000000E+00   0.3255814091E-17   0.1250000000E-02   0.0000000000E+00   0.2497922790E-17   0.1250000000E-01   0.0000000000E+00   0.7578913012E-18   0.6875000011E+01   0.7183720323E-12   0.7184612773E-12   0.1194219435E-15  -0.2125798050E-15   0.6758914556E-15   0.1375000002E-01  -0.6861250011E-02  -0.6861250011E-02  -0.4937366413E-17   0.3121029635E-17   0.6328370784E-17   0.6875000011E+01
   0.1013750000E+01   0.9931387500E+00   0.7241181331E-17   0.1250000000E-02  -0.6237500000E-03   0.6126057522E-17   0.1250000000E-01  -0.6237500000E-02   0.1115123809E-17   0.6875000010E+01  -0.2803503794E-13  -0.2745814922E-13  -0.1905830709E-16   0.2593592481E-16   0.3024457973E-15   0.1375000002E-01  -0.6861250010E-02  -0.6861250010E-02  -0.1336243299E-17  -0.6230183237E-17   0.1056005320E-16   0.6875000010E+01
   0.0000000000E+00   0.9931387500E+00   0.8168447781E-18   0.0000000000E+00  -0.6237500000E-03   0.1706353753E-17   0.0000000000E+00  -0.6237500000E-02  -0.8895089746E-18   0.6875000010E+01   0.7377340763E-12   0.7373752467E-12  -0.2465923094E-15   0.9029166998E-15  -0.5600019151E-15   0.1375000002E-01  -0.6861250010E-02  -0.6861250010E-02  -0.5581069208E-17   0.1341614411E-16  -0.5752547129E-17   0.6875000010E+01
   0.0000000000E+00   0.0000000000E+00   0.9931387500E+00   0.0000000000E+00   0.0000000000E+00  -0.6237500000E-03   0.0000000000E+00   0.0000000000E+00  -0.6237500000E-02   0.6875000010E+01  -0.5394964667E-12  -0.5407463922E-12  -0.2529406118E-16   0.3432392980E-15   0.2897606791E-15   0.1375000002E-01  -0.6861250010E-02  -0.6861250010E-02   0.1681341912E-17   0.2375563646E-17   0.1533126849E-17   0.6875000010E+01
   0.1013750000E+01   0.0000000000E+00   0.9931387500E+00   0.1250000000E-02   0.0000000000E+00  -0.6237500000E-03   0.1250000000E-01   0.0000000000E+00  -0.6237500000E-02   0.6875000010E+01  -0.4672449173E-12  -0.4671933916E-12   0.1598385911E-15   0.1647315167E-16   0.1965727057E-15   0.1375000002E-01  -0.6861250010E-02  -0.6861250010E-02  -0.3366004722E-17  -0.5411887579E-17   0.1209454139E-17   0.6875000010E+01
   0.1013750000E+01   0.9931387500E+00   0.9931387500E+00   0.1250000000E-02  -0.6237500000E-03  -0.6237500000E-03   0.1250000000E-01  -0.6237500000E-02  -0.6237500000E-02   0.6875000009E+01  -0.2668974869E-12  -0.2668459612E-12   0.1187418581E-15  -0.6083242960E-15  -0.1709273178E-15   0.1375000002E-01  -0.6861250009E-02  -0.6861250009E-02  -0.4956569676E-17  -0.2013834337E-17   0.1346340619E-17   0.6875000009E+01
   0.0000000000E+00   0.9931387500E+00   0.9931387500E+00   0.0000000000E+00  -0.6237500000E-03  -0.6237500000E-03   0.0000000000E+00  -0.6237500000E-02  -0.6237500000E-02   0.6875000009E+01  -0.5808300460E-12  -0.5787732161E-12   0.7987766983E-16   0.6887848706E-15  -0.2225684111E-15   0.1375000002E-01  -0.6861250009E-02  -0.6861250009E-02   0.2565259771E-17   0.6507968431E-17  -0.6984976218E-17   0.6875000009E+01
   0.2027500000E+01   0.0000000000E+00   0.1678897678E-16   0.2500000000E-02   0.0000000000E+00   0.1034295538E-16   0.2500000000E-01   0.0000000000E+00   0.6446021401E-17   0.6875000010E+01   0.7953848732E-12   0.7946414510E-12  -0.1812133588E-14  -0.1222937577E-14  -0.1307904798E-15   0.1375000002E-01  -0.6861250010E-02  -0.6861250010E-02  -0.1801713539E-16  -0.2548966881E-16   0.1842170741E-17   0.6875000010E+01
   0.2027500000E+01   0.9931387500E+00   0.1613102722E-16   0.2500000000E-02  -0.6237500000E-03   0.8152550537E-17   0.2500000000E-01  -0.6237500000E-02   0.7978476679E-17   0.6875000010E+01  -0.4538348420E-12  -0.4549113311E-12  -0.1656827329E-14   0.5868733640E-15  -0.6174364202E-15   0.1375000002E-01  -0.6861250010E-02  -0.6861250010E-02  -0.1494758586E-16   0.3370975611E-17  -0.1569024525E-16   0.6875000010E+01
   0.2027500000E+01   0.0000000000E+00   0.9931387500E+00   0.2500000000E-02   0.0000000000E+00  -0.6237500000E-03   0.2500000000E-01   0.0000000000E+00  -0.6237500000E-02   0.6875000010E+01  -0.7065028319E-12  -0.7064066838E-12   0.1343178352E-14  -0.1505371397E-14  -0.2550271008E-15   0.1375000002E-01  -0.6861250010E-02  -0.6861250010E-02   0.1137939503E-16  -0.1013533119E-16  -0.6712446194E-17   0.6875000010E+01
   0.2027500000E+01   0.9931387500E+00   0.9931387500E+00   0.2500000000E-02  -0.6237500000E-03  -0.6237500000E-03   0.2500000000E-01  -0.6237500000E-02  -0.6237500000E-02   0.6875000009E+01   0.2507561240E-12   0.2511853389E-12   0.1327181092E-14   0.1633723712E-14  -0.7303187149E-15   0.1375000002E-01  -0.6861250009E-02  -0.6861250009E-02   0.5655686076E-17  -0.3385571732E-17  -0.1103554782E-16   0.6875000009E+01
     1     2     3     4     5     6     7     8
     2     9    10     3     6    11    12     7
 VARIABLES = X,Y,Z,DU1,DU2,DU3,U1,U2,U3,S11,S22,S33,S12,S13,S23,E11,E22,E33,E12,E13,E23,SMISES
 ZONE, T="0.6000D+00" F=FEPOINT, I=   12 J=    2 ET=BRICK
   0.0000000000E+00   0.0000000000E+00   0.0000000000E+00   0.0000000000E+00   0.0000000000E+00   0.0000000000E+00   0.0000000000E+00   0.0000000000E+00   0.0000000000E+00   0.7500000012E+01   0.1386631037E-12   0.1391939110E-12  -0.4308774232E-16   0.5043856197E-16   0.4740595451E-15   0.1500000002E-01  -0.7485000012E-02  -0.7485000012E-02   0.8627100725E-19  -0.4977497605E-18   0.7109646015E-17   0.7500000012E+01
   0.1015000000E+01   0.0000000000E+00  -0.6967445364E-18   0.1250000000E-02   0.0000000000E+00  -0.3952558627E-17   0.1375000000E-01   0.0000000000E+00   0.3255814091E-17   0.7500000012E+01  -0.1438670170E-12  -0.1444032688E-12   0.5780840017E-16   0.2163121570E-16   0.1866454929E-16   0.1500000002E-01  -0.7485000012E-02  -0.7485000012E-02  -0.3419814885E-17   0.5917718825E-17  -0.1218296368E-17   0.7500000012E+01
   0.1015000000E+01   0.9925150000E+00  -0.7315715152E-18   0.1250000000E-02  -0.6237500000E-03  -0.7972752846E-17   0.1375000000E-01  -0.6861250000E-02   0.7241181331E-17   0.7500000011E+01   0.4026624898E-12   0.4036130824E-12  -0.2395271587E-15   0.4947181994E-15  -0.4248890942E-15   0.1500000002E-01  -0.7485000011E-02  -0.7485000011E-02  -0.3877106684E-17   0.2507500488E-17  -0.3665730291E-17   0.7500000011E+01
   0.0000000000E+00   0.9925150000E+00   0.3074877838E-17   0.0000000000E+00  -0.6237500000E-03   0.2258033060E-17   0.0000000000E+00  -0.6861250000E-02   0.8168447781E-18   0.7500000011E+01  -0.6572048323E-12  -0.6584166476E-12   0.5218047754E-15  -0.7718187805E-15   0.3437229453E-15   0.1500000002E-01  -0.7485000011E-02  -0.7485000011E-02   0.3283213954E-17  -0.8120888115E-17   0.1255778928E-16   0.7500000011E+01
   0.0000000000E+00   0.0000000000E+00   0.9925150000E+00   0.0000000000E+00   0.0000000000E+00  -0.6237500000E-03   0.0000000000E+00   0.0000000000E+00  -0.6861250000E-02   0.7500000011E+01   0.2862957818E-12   0.2855062783E-12  -0.2611597284E-16  -0.6050341469E-15  -0.2398896661E-15   0.1500000002E-01  -0.7485000011E-02  -0.7485000011E-02   0.9224964350E-19  -0.6619675161E-17  -0.8652949882E-17   0.7500000011E+01
   0.1015000000E+01   0.0000000000E+00   0.9925150000E+00   0.1250000000E-02   0.0000000000E+00  -0.6237500000E-03   0.1375000000E-01   0.0000000000E+00  -0.6861250000E-02   0.7500000011E+01  -0.1318524398E-13  -0.1405456264E-13   0.2213071552E-15   0.2041373628E-15   0.3047442573E-17   0.1500000002E-01  -0.7485000011E-02  -0.7485000011E-02  -0.2157438629E-18  -0.5772589337E-17   0.3942264535E-17   0.7500000011E+01
   0.1015000000E+01   0.9925150000E+00   0.9925150000E+00   0.1250000000E-02  -0.6237500000E-03  -0.6237500000E-03   0.1375000000E-01  -0.6861250000E-02  -0.6861250000E-02   0.7500000010E+01   0.4615669461E-13   0.4653039848E-13   0.3688182647E-16   0.1548675323E-15  -0.3661497039E-15   0.1500000002E-01  -0.7485000010E-02  -0.7485000010E-02  -0.5618089255E-17   0.1302853249E-16  -0.4742086292E-17   0.7500000010E+01
   0.0000000000E+00   0.9925150000E+00   0.9925150000E+00   0.0000000000E+00  -0.6237500000E-03  -0.6237500000E-03   0.0000000000E+00  -0.6861250000E-02  -0.6861250000E-02   0.7500000010E+01   0.6133709129E-13   0.6165674273E-13   0.5851242129E-16   0.6561918341E-16  -0.3369032425E-15   0.1500000002E-01  -0.7485000010E-02  -0.7485000010E-02   0.6526047139E-17   0.3870255370E-18  -0.9561523746E-17   0.7500000010E+01
   0.2030000000E+01   0.0000000000E+00  -0.4482063087E-17   0.2500000000E-02   0.0000000000E+00  -0.2127103987E-16   0.2750000000E-01   0.0000000000E+00   0.1678897678E-16   0.7500000011E+01  -0.7805368142E-12  -0.7807048064E-12   0.2316036921E-14   0.7347826520E-15   0.1486274008E-15   0.1500000002E-01  -0.7485000011E-02  -0.7485000011E-02   0.2009268776E-16   0.5565143310E-17   0.4132463487E-17   0.7500000011E+01
   0.2030000000E+01   0.9925150000E+00  -0.3325555646E-17   0.2500000000E-02  -0.6237500000E-03  -0.1945658286E-16   0.2750000000E-01  -0.6861250000E-02   0.1613102722E-16   0.7500000010E+01   0.7535193547E-12   0.7549154954E-12   0.1427520211E-14  -0.1823581613E-14   0.1790906897E-15   0.1500000002E-01  -0.7485000010E-02  -0.7485000010E-02   0.7423552462E-17  -0.1899320014E-16   0.2050982036E-17   0.7500000010E+01
   0.2030000000E+01   0.0000000000E+00   0.9925150000E+00   0.2500000000E-02   0.0000000000E+00  -0.6237500000E-03   0.2750000000E-01   0.0000000000E+00  -0.6861250000E-02   0.7500000010E+01  -0.2636165580E-12  -0.2636180168E-12  -0.3125118452E-15   0.7126490170E-15   0.4025184158E-15   0.1500000002E-01  -0.7485000010E-02  -0.7485000010E-02  -0.6050727094E-17   0.1287290990E-16  -0.2457082547E-17   0.7500000010E+01
   0.2030000000E+01   0.9925150000E+00   0.9925150000E+00   0.2500000000E-02  -0.6237500000E-03  -0.6237500000E-03   0.2750000000E-01  -0.6861250000E-02  -0.6861250000E-02   0.7500000010E+01  -0.2725372161E-12  -0.2720064086E-12  -0.7267805759E-15  -0.8776904505E-15   0.2780638534E-15   0.1500000002E-01  -0.7485000010E-02  -0.7485000010E-02  -0.1501620965E-16  -0.3551816938E-16  -0.1747426565E-17   0.7500000010E+01
     1     2     3     4     5     6     7     8
     2     9    10     3     6    11    12     7
 VARIABLES = X,Y,Z,DU1,DU2,DU3,U1,U2,U3,S11,S22,S33,S12,S13,S23,E11,E22,E33,E12,E13,E23,SMISES
 ZONE, T="0.6500D+00" F=FEPOINT, I=   12 J=    2 ET=BRICK
   0.0000000000E+00   0.0000000000E+00   0.0000000000E+00   0.0000000000E+00   0.0000000000E+00   0.0000000000E+00   0.0000000000E+00   0.0000000000E+00   0.0000000000E+00   0.8125000013E+01  -0.4259357012E-12  -0.4246654572E-12  -0.4954047661E-16   0.2667250016E-16   0.5330115453E-15   0.1625000003E-01  -0.8108750013E-02  -0.8108750013E-02   0.2248297325E-17   0.2172823795E-17   0.9087111770E-17   0.8125000013E+01
   0.1016250000E+01   0.0000000000E+00  -0.2021291379E-17   0.1250000000E-02   0.0000000000E+00  -0.1324546843E-17   0.1500000000E-01   0.0000000000E+00  -0.6967445364E-18   0.8125000013E+01  -0.1681615856E-12  -0.1686383407E-12   0.8642236374E-15   0.1767278874E-14   0.2449251929E-15   0.1625000003E-01  -0.8108750012E-02  -0.8108750012E-02  -0.1045925571E-17   0.1363115763E-16   0.2840825511E-17   0.8125000013E+01
   0.1016250000E+01   0.9918912500E+00  -0.7741652955E-18   0.1250000000E-02  -0.6237500000E-03  -0.4259378029E-19   0.1500000000E-01  -0.7485000000E-02  -0.7315715152E-18   0.8125000012E+01  -0.1009663621E-12  -0.1000970435E-12   0.8106264515E-15  -0.2882935869E-15   0.8849732811E-16   0.1625000002E-01  -0.8108750012E-02  -0.8108750012E-02   0.4575281939E-17  -0.4354327395E-17   0.7624719745E-17   0.8125000012E+01
   0.0000000000E+00   0.9918912500E+00   0.3454028712E-17   0.0000000000E+00  -0.6237500000E-03   0.3791508740E-18   0.0000000000E+00  -0.7485000000E-02   0.3074877838E-17   0.8125000012E+01  -0.5981559943E-12  -0.5997117651E-12   0.1100528003E-15  -0.6371055606E-15   0.2428902327E-15   0.1625000002E-01  -0.8108750012E-02  -0.8108750012E-02  -0.5886007151E-18  -0.4523803713E-17   0.1634808886E-17   0.8125000012E+01
   0.0000000000E+00   0.0000000000E+00   0.9918912500E+00   0.0000000000E+00   0.0000000000E+00  -0.6237500000E-03   0.0000000000E+00   0.0000000000E+00  -0.7485000000E-02   0.8125000012E+01   0.1475770277E-11   0.1475424863E-11  -0.2575011477E-16  -0.1169850460E-14  -0.3889646035E-15   0.1625000002E-01  -0.8108750012E-02  -0.8108750012E-02  -0.2128147009E-17  -0.1140981551E-16  -0.1295397293E-16   0.8125000012E+01
   0.1016250000E+01   0.0000000000E+00   0.9918912500E+00   0.1250000000E-02   0.0000000000E+00  -0.6237500000E-03   0.1500000000E-01   0.0000000000E+00  -0.7485000000E-02   0.8125000012E+01   0.3084852429E-13   0.3014175352E-13  -0.1620430608E-14   0.1786502277E-14  -0.9160919093E-16   0.1625000002E-01  -0.8108750012E-02  -0.8108750012E-02  -0.2199650900E-16   0.1035902239E-16  -0.2044461701E-17   0.8125000012E+01
   0.1016250000E+01   0.9918912500E+00   0.9918912500E+00   0.1250000000E-02  -0.6237500000E-03  -0.6237500000E-03   0.1500000000E-01  -0.7485000000E-02  -0.7485000000E-02   0.8125000011E+01   0.2867380795E-12   0.2859797832E-12  -0.1888031044E-14  -0.7556613352E-15  -0.5611135909E-16   0.1625000002E-01  -0.8108750011E-02  -0.8108750011E-02  -0.2577057765E-16   0.7528916977E-17  -0.1517926921E-17   0.8125000011E+01
   0.0000000000E+00   0.9918912500E+00   0.9918912500E+00   0.0000000000E+00  -0.6237500000E-03  -0.6237500000E-03   0.0000000000E+00  -0.7485000000E-02  -0.7485000000E-02   0.8125000011E+01  -0.4139211986E-12  -0.4125101839E-12   0.5421361617E-15  -0.4038091159E-15  -0.6284812723E-15   0.1625000002E-01  -0.8108750011E-02  -0.8108750011E-02   0.1149162597E-16  -0.9082182159E-17  -0.3239625634E-17   0.8125000011E+01
   0.2032500000E+01   0.0000000000E+00  -0.1152901904E-16   0.2500000000E-02   0.0000000000E+00  -0.7046955955E-17   0.3000000000E-01   0.0000000000E+00  -0.4482063087E-17   0.8125000012E+01   0.3440662246E-12   0.3432023502E-12   0.7925700754E-15  -0.8780835260E-15   0.4398193795E-15   0.1625000002E-01  -0.8108750012E-02  -0.8108750012E-02   0.4692818939E-17  -0.2062098058E-16   0.6582895365E-17   0.8125000012E+01
   0.2032500000E+01   0.9918912500E+00  -0.8628068108E-17   0.2500000000E-02  -0.6237500000E-03  -0.5302512463E-17   0.3000000000E-01  -0.7485000000E-02  -0.3325555646E-17   0.8125000011E+01   0.3752545864E-12   0.3757814084E-12   0.7012217498E-15  -0.6922891327E-15  -0.2433141737E-15   0.1625000002E-01  -0.8108750011E-02  -0.8108750011E-02   0.2316412406E-17  -0.2510916012E-16  -0.8472797155E-17   0.8125000011E+01
   0.2032500000E+01   0.0000000000E+00   0.9918912500E+00   0.2500000000E-02   0.0000000000E+00  -0.6237500000E-03   0.3000000000E-01   0.0000000000E+00  -0.7485000000E-02   0.8125000011E+01  -0.1492329412E-11  -0.1492168323E-11   0.1017667687E-14  -0.7747306487E-15   0.5481501378E-15   0.1625000002E-01  -0.8108750011E-02  -0.8108750011E-02   0.1202400058E-16  -0.2229829090E-16   0.1807296047E-17   0.8125000011E+01
   0.2032500000E+01   0.9918912500E+00   0.9918912500E+00   0.2500000000E-02  -0.6237500000E-03  -0.6237500000E-03   0.3000000000E-01  -0.7485000000E-02  -0.7485000000E-02   0.8125000010E+01   0.6383339054E-12   0.6394307129E-12   0.1378279435E-16   0.6781593145E-15  -0.2541297273E-15   0.1625000002E-01  -0.8108750010E-02  -0.8108750010E-02  -0.2466337012E-17   0.5344859007E-17   0.4003523882E-18   0.8125000010E+01
     1     2     3     4     5     6     7     8
     2     9    10     3     6    11    12     7
 VARIABLES = X,Y,Z,DU1,DU2,DU3,U1,U2,U3,S11,S22,S33,S12,S13,S23,E11,E22,E33,E12,E13,E23,SMISES
 ZONE, T="0.7000D+00" F=FEPOINT, I=   12 J=    2 ET=BRICK
   0.0000000000E+00   0.0000000000E+00   0.0000000000E+00   0.0000000000E+00   0.0000000000E+00   0.0000000000E+00   0.0000000000E+00   0.0000000000E+00   0.0000000000E+00   0.8750000014E+01   0.1507650798E-11   0.1508172175E-11  -0.6249825904E-16   0.8502836402E-15   0.8286156550E-15   0.1750000003E-01  -0.8732500014E-02  -0.8732500014E-02   0.1793601636E-17   0.8695099249E-17   0.9915747687E-17   0.8750000014E+01
   0.1017500000E+01   0.0000000000E+00   0.7976134580E-17   0.1250000000E-02   0.0000000000E+00   0.9997425959E-17   0.1625000000E-01   0.0000000000E+00  -0.2021291379E-17   0.8750000013E+01   0.7192667097E-12   0.7179801326E-12  -0.1679070944E-14  -0.1405809568E-14   0.5331673814E-15   0.1750000003E-01  -0.8732500013E-02  -0.8732500013E-02  -0.3266959561E-16  -0.1759034577E-16   0.6293485520E-17   0.8750000013E+01
   0.1017500000E+01   0.9912675000E+00   0.1111125649E-16   0.1250000000E-02  -0.6237500000E-03   0.1188542178E-16   0.1625000000E-01  -0.8108750000E-02  -0.7741652955E-18   0.8750000012E+01   0.7982758355E-12   0.7987714502E-12  -0.1628747602E-14   0.2060951312E-14  -0.2581420333E-15   0.1750000002E-01  -0.8732500012E-02  -0.8732500012E-02  -0.2447074965E-16   0.2463415459E-16   0.1188880520E-17   0.8750000012E+01
   0.0000000000E+00   0.9912675000E+00   0.4995515464E-17   0.0000000000E+00  -0.6237500000E-03   0.1541486751E-17   0.0000000000E+00  -0.8108750000E-02   0.3454028712E-17   0.8750000013E+01  -0.3679508954E-12  -0.3693198143E-12   0.3169142906E-15   0.3522981888E-15   0.2017723982E-15   0.1750000003E-01  -0.8732500013E-02  -0.8732500013E-02  -0.1876996670E-17   0.5687691768E-17   0.7704730651E-17   0.8750000013E+01
   0.0000000000E+00   0.0000000000E+00   0.9912675000E+00   0.0000000000E+00   0.0000000000E+00  -0.6237500000E-03   0.0000000000E+00   0.0000000000E+00  -0.8108750000E-02   0.8750000013E+01  -0.8230634428E-12  -0.8236769829E-12  -0.1790067442E-16  -0.2004275325E-15   0.2028070856E-15   0.1750000003E-01  -0.8732500013E-02  -0.8732500013E-02  -0.3504450778E-17  -0.2442969530E-17   0.3635941464E-17   0.8750000013E+01
   0.1017500000E+01   0.0000000000E+00   0.9912675000E+00   0.1250000000E-02   0.0000000000E+00  -0.6237500000E-03   0.1625000000E-01   0.0000000000E+00  -0.8108750000E-02   0.8750000012E+01  -0.9658110207E-12  -0.9659815397E-12   0.1466067716E-14  -0.1136420222E-14   0.4371222228E-15   0.1750000002E-01  -0.8732500012E-02  -0.8732500012E-02   0.1913705008E-16  -0.2002831873E-16   0.8080536794E-17   0.8750000012E+01
   0.1017500000E+01   0.9912675000E+00   0.9912675000E+00   0.1250000000E-02  -0.6237500000E-03  -0.6237500000E-03   0.1625000000E-01  -0.8108750000E-02  -0.8108750000E-02   0.8750000011E+01  -0.5890401237E-12  -0.5890698720E-12   0.1194125843E-14   0.1470122502E-14  -0.2963302632E-15   0.1750000002E-01  -0.8732500011E-02  -0.8732500011E-02   0.7021395790E-17   0.2373960359E-16   0.7498389162E-18   0.8750000011E+01
   0.0000000000E+00   0.9912675000E+00   0.9912675000E+00   0.0000000000E+00  -0.6237500000E-03  -0.6237500000E-03   0.0000000000E+00  -0.8108750000E-02  -0.8108750000E-02   0.8750000012E+01  -0.1676901135E-12  -0.1654895954E-12   0.1286678723E-15   0.6413845333E-15  -0.2261639552E-15   0.1750000002E-01  -0.8732500012E-02  -0.8732500012E-02   0.7571387836E-17   0.7024572179E-17  -0.1168202584E-17   0.8750000012E+01
   0.2035000000E+01   0.0000000000E+00   0.2875366829E-16   0.2500000000E-02   0.0000000000E+00   0.4028268733E-16   0.3250000000E-01   0.0000000000E+00  -0.1152901904E-16   0.8750000013E+01   0.1917901076E-12   0.1904400482E-12   0.3013922692E-15  -0.1290370900E-14   0.2641406003E-15   0.1750000003E-01  -0.8732500013E-02  -0.8732500013E-02   0.2733873023E-17   0.9688304066E-17   0.4806319242E-17   0.8750000013E+01
   0.2035000000E+01   0.9912675000E+00   0.3058571803E-16   0.2500000000E-02  -0.6237500000E-03   0.3921378614E-16   0.3250000000E-01  -0.8108750000E-02  -0.8628068108E-17   0.8750000012E+01   0.1843049299E-11   0.1842538810E-11   0.2708325873E-15  -0.9965282065E-15  -0.9714761765E-15   0.1750000002E-01  -0.8732500012E-02  -0.8732500012E-02   0.8485125615E-17  -0.4784521951E-16  -0.1540965639E-16   0.8750000012E+01
   0.2035000000E+01   0.0000000000E+00   0.9912675000E+00   0.2500000000E-02   0.0000000000E+00  -0.6237500000E-03   0.3250000000E-01   0.0000000000E+00  -0.8108750000E-02   0.8750000012E+01  -0.8809577988E-12  -0.8808913989E-12   0.1036420026E-14  -0.7203522392E-15   0.2055089655E-15   0.1750000002E-01  -0.8732500012E-02  -0.8732500012E-02   0.4303646594E-17  -0.2292323296E-16  -0.2495762619E-17   0.8750000012E+01
   0.2035000000E+01   0.9912675000E+00   0.9912675000E+00   0.2500000000E-02  -0.6237500000E-03  -0.6237500000E-03   0.3250000000E-01  -0.8108750000E-02  -0.8108750000E-02   0.8750000011E+01  -0.1165150087E-11  -0.1163001094E-11   0.4944704714E-15  -0.1042725267E-16  -0.1130081007E-14   0.1750000002E-01  -0.8732500011E-02  -0.8732500011E-02  -0.9124153947E-17  -0.1921261773E-16  -0.1773996182E-16   0.8750000011E+01
     1     2     3     4     5     6     7     8
     2     9    10     3     6    11    12     7
 VARIABLES = X,Y,Z,DU1,DU2,DU3,U1,U2,U3,S11,S22,S33,S12,S13,S23,E11,E22,E33,E12,E13,E23,SMISES
 ZONE, T="0.7500D+00" F=FEPOINT, I=   12 J=    2 ET=BRICK
   0.0000000000E+00   0.0000000000E+00   0.0000000000E+00   0.0000000000E+00   0.0000000000E+00   0.0000000000E+00   0.0000000000E+00   0.0000000000E+00   0.0000000000E+00   0.9375000015E+01  -0.4872021319E-12  -0.4877166065E-12  -0.6986561048E-16   0.1409155039E-15  -0.5238938075E-16   0.1875000003E-01  -0.9356250015E-02  -0.9356250015E-02  -0.2188575569E-17   0.4100558359E-17   0.2045146428E-18   0.9375000015E+01
   0.1018750000E+01   0.0000000000E+00   0.1150956652E-17   0.1250000000E-02   0.0000000000E+00  -0.6825177928E-17   0.1750000000E-01   0.0000000000E+00   0.7976134580E-17   0.9375000014E+01   0.1610811840E-12   0.1612001774E-12   0.2454671850E-14   0.8986454846E-15   0.2780206003E-15   0.1875000003E-01  -0.9356250014E-02  -0.9356250014E-02   0.1607075434E-16  -0.1729883884E-17   0.4947780517E-17   0.9375000014E+01
   0.1018750000E+01   0.9906437500E+00   0.2788386452E-17   0.1250000000E-02  -0.6237500000E-03  -0.8322870033E-17   0.1750000000E-01  -0.8732500000E-02   0.1111125649E-16   0.9375000013E+01   0.1573735026E-12   0.1587493246E-12   0.2082668664E-14  -0.5686713823E-15   0.9984236471E-17   0.1875000003E-01  -0.9356250013E-02  -0.9356250013E-02   0.1171640884E-16  -0.2599696004E-17  -0.1441170363E-17   0.9375000013E+01
   0.0000000000E+00   0.9906437500E+00  -0.2018007459E-18   0.0000000000E+00  -0.6237500000E-03  -0.5197316210E-17   0.0000000000E+00  -0.8732500000E-02   0.4995515464E-17   0.9375000014E+01   0.9826360633E-12   0.9814039295E-12  -0.5245932316E-15   0.1822197343E-15  -0.5264946844E-15   0.1875000003E-01  -0.9356250014E-02  -0.9356250014E-02  -0.4914819803E-17   0.8661283725E-18   0.1445160265E-17   0.9375000014E+01
   0.0000000000E+00   0.0000000000E+00   0.9906437500E+00   0.0000000000E+00   0.0000000000E+00  -0.6237500000E-03   0.0000000000E+00   0.0000000000E+00  -0.8732500000E-02   0.9375000014E+01  -0.4005875754E-13  -0.4228503852E-13  -0.1409293585E-16  -0.2673318975E-15  -0.3363422319E-16   0.1875000003E-01  -0.9356250014E-02  -0.9356250014E-02   0.7341377583E-18  -0.5346858143E-17  -0.9953692877E-17   0.9375000014E+01
   0.1018750000E+01   0.0000000000E+00   0.9906437500E+00   0.1250000000E-02   0.0000000000E+00  -0.6237500000E-03   0.1750000000E-01   0.0000000000E+00  -0.8732500000E-02   0.9375000013E+01  -0.1748794130E-12  -0.1747981391E-12  -0.1581986764E-15   0.1623604930E-14  -0.1457766736E-15   0.1875000003E-01  -0.9356250013E-02  -0.9356250013E-02  -0.5867998065E-17   0.1204273711E-16   0.3235067250E-17   0.9375000013E+01
   0.1018750000E+01   0.9906437500E+00   0.9906437500E+00   0.1250000000E-02  -0.6237500000E-03  -0.6237500000E-03   0.1750000000E-01  -0.8732500000E-02  -0.8732500000E-02   0.9375000012E+01  -0.4763488654E-12  -0.4766521838E-12  -0.4896344332E-15  -0.1422036194E-14  -0.4087687904E-15   0.1875000002E-01  -0.9356250012E-02  -0.9356250012E-02  -0.9981730116E-17  -0.1444452639E-16  -0.2758481471E-18   0.9375000012E+01
   0.0000000000E+00   0.9906437500E+00   0.9906437500E+00   0.0000000000E+00  -0.6237500000E-03  -0.6237500000E-03   0.0000000000E+00  -0.8732500000E-02  -0.8732500000E-02   0.9375000013E+01  -0.4404139228E-13  -0.4228097787E-13  -0.3256742888E-15   0.1916833508E-16  -0.3701251870E-15   0.1875000003E-01  -0.9356250013E-02  -0.9356250013E-02  -0.6114636860E-17   0.3425000723E-17  -0.7368833385E-17   0.9375000013E+01
   0.2037500000E+01   0.0000000000E+00   0.4687421765E-17   0.2500000000E-02   0.0000000000E+00  -0.2406624652E-16   0.3500000000E-01   0.0000000000E+00   0.2875366829E-16   0.9375000014E+01   0.1192098115E-11   0.1192775137E-11   0.6282394411E-15  -0.3024506022E-15   0.1097093691E-14   0.1875000003E-01  -0.9356250014E-02  -0.9356250014E-02   0.1297434898E-16  -0.1125990136E-16   0.1703073420E-16   0.9375000014E+01
   0.2037500000E+01   0.9906437500E+00   0.1144560157E-16   0.2500000000E-02  -0.6237500000E-03  -0.1914011646E-16   0.3500000000E-01  -0.8732500000E-02   0.3058571803E-16   0.9375000013E+01  -0.3970659073E-12  -0.3964404104E-12   0.6109838633E-15  -0.9492171813E-15   0.6530534018E-15   0.1875000003E-01  -0.9356250013E-02  -0.9356250013E-02   0.1498585694E-16  -0.2347563703E-16   0.6450775979E-17   0.9375000013E+01
   0.2037500000E+01   0.0000000000E+00   0.9906437500E+00   0.2500000000E-02   0.0000000000E+00  -0.6237500000E-03   0.3500000000E-01   0.0000000000E+00  -0.8732500000E-02   0.9375000013E+01   0.1174924467E-13   0.1211205999E-13  -0.9451819867E-15   0.4826755091E-15   0.2509556457E-15   0.1875000003E-01  -0.9356250013E-02  -0.9356250013E-02  -0.1892012661E-16  -0.1147786290E-16  -0.4836918747E-17   0.9375000013E+01
   0.2037500000E+01   0.9906437500E+00   0.9906437500E+00   0.2500000000E-02  -0.6237500000E-03  -0.6237500000E-03   0.3500000000E-01  -0.8732500000E-02  -0.8732500000E-02   0.9375000012E+01  -0.6991174896E-12  -0.6975631775E-12  -0.1188725113E-14  -0.2452534114E-15  -0.1915970054E-15   0.1875000002E-01  -0.9356250012E-02  -0.9356250012E-02  -0.2512147993E-16  -0.6760503199E-17  -0.6498077075E-17   0.9375000012E+01
     1     2     3     4     5     6     7     8
     2     9    10     3     6    11    12     7
 VARIABLES = X,Y,Z,DU1,DU2,DU3,U1,U2,U3,S11,S22,S33,S12,S13,S23,E11,E22,E33,E12,E13,E23,SMISES
 ZONE, T="0.8000D+00" F=FEPOINT, I=   12 J=    2 ET=BRICK
   0.0000000000E+00   0.0000000000E+00   0.0000000000E+00   0.0000000000E+00   0.0000000000E+00   0.0000000000E+00   0.0000000000E+00   0.0000000000E+00   0.0000000000E+00   0.1000000002E+02  -0.8374182752E-13  -0.8371460599E-13  -0.8585662024E-16   0.1478542196E-15   0.4686568141E-15   0.2000000003E-01  -0.9980000016E-02  -0.9980000016E-02  -0.8630853418E-18  -0.5493900543E-18   0.9462118777E-17   0.1000000002E+02
   0.1020000000E+01   0.0000000000E+00   0.2223413213E-17   0.1250000000E-02   0.0000000000E+00   0.1072456562E-17   0.1875000000E-01   0.0000000000E+00   0.1150956652E-17   0.1000000002E+02   0.8201904191E-12   0.8193290716E-12   0.1609896887E-14   0.2363877402E-14   0.9199042656E-15   0.2000000003E-01  -0.9980000015E-02  -0.9980000015E-02   0.6193271972E-17   0.3629372074E-16   0.1083964567E-16   0.1000000002E+02
   0.1020000000E+01   0.9900200000E+00   0.7674298879E-17   0.1250000000E-02  -0.6237500000E-03   0.4885912427E-17   0.1875000000E-01  -0.9356250000E-02   0.2788386452E-17   0.1000000001E+02  -0.2711881906E-12  -0.2704596427E-12   0.1400538249E-14  -0.1503959195E-14   0.4717788151E-15   0.2000000003E-01  -0.9980000014E-02  -0.9980000014E-02  -0.3850525119E-18  -0.1514026444E-16   0.7121355284E-17   0.1000000001E+02
   0.0000000000E+00   0.9900200000E+00   0.2892587247E-17   0.0000000000E+00  -0.6237500000E-03   0.3094387993E-17   0.0000000000E+00  -0.9356250000E-02  -0.2018007459E-18   0.1000000001E+02   0.9668851056E-12   0.9652966689E-12  -0.6719671669E-15   0.6515840148E-15  -0.1018330468E-14   0.2000000003E-01  -0.9980000015E-02  -0.9980000015E-02  -0.2559519350E-17   0.1104445069E-16  -0.1649359521E-16   0.1000000001E+02
   0.0000000000E+00   0.0000000000E+00   0.9900200000E+00   0.0000000000E+00   0.0000000000E+00  -0.6237500000E-03   0.0000000000E+00   0.0000000000E+00  -0.9356250000E-02   0.1000000001E+02   0.1022029181E-11   0.1022087219E-11   0.3291655410E-17  -0.6874276103E-15   0.5090469002E-16   0.2000000003E-01  -0.9980000015E-02  -0.9980000015E-02   0.1512511341E-17  -0.1167037251E-16  -0.5249944835E-17   0.1000000001E+02
   0.1020000000E+01   0.0000000000E+00   0.9900200000E+00   0.1250000000E-02   0.0000000000E+00  -0.6237500000E-03   0.1875000000E-01   0.0000000000E+00  -0.9356250000E-02   0.1000000001E+02  -0.6272412646E-12  -0.6266534873E-12  -0.2798554987E-14   0.2511568502E-14   0.2779452556E-15   0.2000000003E-01  -0.9980000014E-02  -0.9980000014E-02  -0.4339286934E-16   0.2231752347E-16   0.4525763533E-17   0.1000000001E+02
   0.1020000000E+01   0.9900200000E+00   0.9900200000E+00   0.1250000000E-02  -0.6237500000E-03  -0.6237500000E-03   0.1875000000E-01  -0.9356250000E-02  -0.9356250000E-02   0.1000000001E+02  -0.2276341278E-12  -0.2286739653E-12  -0.2517749982E-14  -0.2425841922E-14  -0.1594270086E-15   0.2000000003E-01  -0.9980000013E-02  -0.9980000013E-02  -0.3249456469E-16  -0.1324003347E-16  -0.3780784796E-17   0.1000000001E+02
   0.0000000000E+00   0.9900200000E+00   0.9900200000E+00   0.0000000000E+00  -0.6237500000E-03  -0.6237500000E-03   0.0000000000E+00  -0.9356250000E-02  -0.9356250000E-02   0.1000000001E+02  -0.1509412539E-11  -0.1506322384E-11   0.5641329448E-15   0.2517728787E-15  -0.1290653821E-14   0.2000000003E-01  -0.9980000013E-02  -0.9980000013E-02   0.8725001858E-17   0.2766474995E-17  -0.1215810932E-16   0.1000000001E+02
   0.2040000000E+01   0.0000000000E+00   0.1130210503E-16   0.2500000000E-02   0.0000000000E+00   0.6614683265E-17   0.3750000000E-01   0.0000000000E+00   0.4687421765E-17   0.1000000002E+02   0.2259855518E-11   0.2258133214E-11  -0.3389640571E-14  -0.3117328551E-14   0.3480224702E-15   0.2000000003E-01  -0.9980000015E-02  -0.9980000015E-02  -0.3867393763E-16  -0.1730255331E-16   0.3492184301E-17   0.1000000002E+02
   0.2040000000E+01   0.9900200000E+00   0.1359699849E-16   0.2500000000E-02  -0.6237500000E-03   0.2151396921E-17   0.3750000000E-01  -0.9356250000E-02   0.1144560157E-16   0.1000000001E+02  -0.9545199098E-12  -0.9552172507E-12  -0.2811096069E-14   0.1605216947E-14  -0.3518146499E-15   0.2000000003E-01  -0.9980000014E-02  -0.9980000014E-02  -0.3511931572E-16  -0.1811014748E-16  -0.4078749758E-17   0.1000000001E+02
   0.2040000000E+01   0.0000000000E+00   0.9900200000E+00   0.2500000000E-02   0.0000000000E+00  -0.6237500000E-03   0.3750000000E-01   0.0000000000E+00  -0.9356250000E-02   0.1000000001E+02  -0.2192060537E-11  -0.2193353626E-11   0.2265337223E-14  -0.3011902178E-14  -0.5479851189E-16   0.2000000003E-01  -0.9980000014E-02  -0.9980000014E-02   0.2612051570E-16  -0.3838671722E-16  -0.4467772087E-18   0.1000000001E+02
   0.2040000000E+01   0.9900200000E+00   0.9900200000E+00   0.2500000000E-02  -0.6237500000E-03  -0.6237500000E-03   0.3750000000E-01  -0.9356250000E-02  -0.9356250000E-02   0.1000000001E+02   0.1162219291E-11   0.1162406142E-11   0.2207608406E-14   0.2439084417E-14  -0.7554283450E-15   0.2000000003E-01  -0.9980000013E-02  -0.9980000013E-02   0.2276245217E-16   0.1541919641E-16  -0.1821400548E-16   0.1000000001E+02
     1     2     3     4     5     6     7     8
     2     9    10     3     6    11    12     7
 VARIABLES = X,Y,Z,DU1,DU2,DU3,U1,U2,U3,S11,S22,S33,S12,S13,S23,E11,E22,E33,E12,E13,E23,SMISES
 ZONE, T="0.8500D+00" F=FEPOINT, I=   12 J=    2 ET=BRICK
   0.0000000000E+00   0.0000000000E+00   0.0000000000E+00   0.0000000000E+00   0.0000000000E+00   0.0000000000E+00   0.0000000000E+00   0.0000000000E+00   0.0000000000E+00   0.1062500002E+02  -0.7028014239E-09  -0.7030272401E-09  -0.8966381772E-16  -0.7072532383E-12  -0.3821785228E-12   0.3375000005E-01  -0.1685375003E-01  -0.1685375003E-01  -0.2770740080E-17  -0.1348230328E-13  -0.7282681637E-14   0.1062500002E+02
   0.1033750000E+01   0.0000000000E+00  -0.7372305775E-14   0.1375000000E-01   0.0000000000E+00  -0.7374529189E-14   0.2000000000E-01   0.0000000000E+00   0.2223413213E-17   0.1062500002E+02  -0.1621009592E-09  -0.1618993635E-09   0.4185503184E-13   0.2768208511E-13   0.6323627844E-13   0.3375000005E-01  -0.1685375003E-01  -0.1685375003E-01   0.7879965125E-15   0.5383415200E-15   0.1201808557E-14   0.1062500002E+02
   0.1033750000E+01   0.9831462500E+00  -0.6769886284E-14   0.1375000000E-01  -0.6873750000E-02  -0.6777560583E-14   0.2000000000E-01  -0.9980000000E-02   0.7674298879E-17   0.1062500001E+02  -0.2310564154E-09  -0.2311550213E-09   0.2989667609E-13   0.2968539234E-12   0.8914060267E-13   0.3375000005E-01  -0.1685375002E-01  -0.1685375002E-01   0.5598092310E-15   0.5652883336E-14   0.1707951463E-14   0.1062500002E+02
   0.0000000000E+00   0.9831462500E+00  -0.3640166614E-14   0.0000000000E+00  -0.6873750000E-02  -0.3643059201E-14   0.0000000000E+00  -0.9980000000E-02   0.2892587247E-17   0.1062500002E+02  -0.3905627015E-09  -0.3900625135E-09   0.5570646771E-13  -0.1628482269E-12  -0.1490702694E-12   0.3375000005E-01  -0.1685375002E-01  -0.1685375002E-01   0.1059484775E-14  -0.3100960891E-14  -0.2846196064E-14   0.1062500002E+02
   0.0000000000E+00   0.0000000000E+00   0.9831462500E+00   0.0000000000E+00   0.0000000000E+00  -0.6873750000E-02   0.0000000000E+00   0.0000000000E+00  -0.9980000000E-02   0.1062500002E+02   0.3541806913E-09   0.3534874447E-09   0.4391980305E-16  -0.3325206995E-12  -0.1925185636E-13   0.3375000005E-01  -0.1685375002E-01  -0.1685375002E-01   0.3509720008E-17  -0.6334868216E-14  -0.3578517530E-15   0.1062500002E+02
   0.1033750000E+01   0.0000000000E+00   0.9831462500E+00   0.1375000000E-01   0.0000000000E+00  -0.6873750000E-02   0.2000000000E-01   0.0000000000E+00  -0.9980000000E-02   0.1062500002E+02   0.3421869158E-09   0.3423370957E-09   0.6334730134E-13   0.1781072275E-13  -0.8716706089E-13   0.3375000005E-01  -0.1685375002E-01  -0.1685375002E-01   0.1195364221E-14   0.3387796419E-15  -0.1652949080E-14   0.1062500002E+02
   0.1033750000E+01   0.9831462500E+00   0.9831462500E+00   0.1375000000E-01  -0.6873750000E-02  -0.6873750000E-02   0.2000000000E-01  -0.9980000000E-02  -0.9980000000E-02   0.1062500001E+02   0.2623625127E-09   0.2622115810E-09  -0.1443813108E-12   0.9915104202E-13  -0.6128260882E-13   0.3375000004E-01  -0.1685375002E-01  -0.1685375002E-01  -0.2758080768E-14   0.1899594173E-14  -0.1171957778E-14   0.1062500001E+02
   0.0000000000E+00   0.9831462500E+00   0.9831462500E+00   0.0000000000E+00  -0.6873750000E-02  -0.6873750000E-02   0.0000000000E+00  -0.9980000000E-02  -0.9980000000E-02   0.1062500001E+02   0.6976378763E-09   0.6976741278E-09  -0.1574796682E-12  -0.4637674161E-12   0.2141652060E-12   0.3375000005E-01  -0.1685375002E-01  -0.1685375002E-01  -0.2999489512E-14  -0.8843041725E-14   0.4070935247E-14   0.1062500001E+02
   0.2067500000E+01   0.0000000000E+00  -0.1728585334E-13   0.2750000000E-01   0.0000000000E+00  -0.1729715545E-13   0.4000000000E-01   0.0000000000E+00   0.1130210503E-16   0.1062500002E+02  -0.1010891399E-09  -0.1013086402E-09   0.1264649543E-12   0.1119071059E-12   0.1125247285E-12   0.3375000005E-01  -0.1685375003E-01  -0.1685375003E-01   0.2418251206E-14   0.2131187703E-14   0.2148747183E-14   0.1062500002E+02
   0.2067500000E+01   0.9831462500E+00  -0.1621342532E-13   0.2750000000E-01  -0.6873750000E-02  -0.1622702232E-13   0.4000000000E-01  -0.9980000000E-02   0.1359699849E-16   0.1062500001E+02  -0.3402519809E-10  -0.3426463927E-10   0.4689416427E-13   0.3414230301E-13  -0.4594282108E-13   0.3375000005E-01  -0.1685375002E-01  -0.1685375002E-01   0.9054314022E-15   0.6349271057E-15  -0.8847024060E-15   0.1062500001E+02
   0.2067500000E+01   0.0000000000E+00   0.9831462500E+00   0.2750000000E-01   0.0000000000E+00  -0.6873750000E-02   0.4000000000E-01   0.0000000000E+00  -0.9980000000E-02   0.1062500001E+02  -0.1304073954E-09  -0.1303094141E-09   0.9881866250E-13  -0.2830520290E-12   0.1013439264E-12   0.3375000005E-01  -0.1685375002E-01  -0.1685375002E-01   0.1884636496E-14  -0.5362053404E-14   0.1921905510E-14   0.1062500001E+02
   0.2067500000E+01   0.9831462500E+00   0.9831462500E+00   0.2750000000E-01  -0.6873750000E-02  -0.6873750000E-02   0.4000000000E-01  -0.9980000000E-02  -0.9980000000E-02   0.1062500001E+02  -0.1162905799E-09  -0.1162155457E-09  -0.1591201735E-12  -0.5886695012E-13  -0.5698095253E-13   0.3375000004E-01  -0.1685375002E-01  -0.1685375002E-01  -0.3045555942E-14  -0.1143856818E-14  -0.1085417838E-14   0.1062500001E+02
     1     2     3     4     5     6     7     8
     2     9    10     3     6    11    12     7
 VARIABLES = X,Y,Z,DU1,DU2,DU3,U1,U2,U3,S11,S22,S33,S12,S13,S23,E11,E22,E33,E12,E13,E23,SMISES
 ZONE, T="0.9000D+00" F=FEPOINT, I=   12 J=    2 ET=BRICK
   0.0000000000E+00   0.0000000000E+00   0.0000000000E+00   0.0000000000E+00   0.0000000000E+00   0.0000000000E+00   0.0000000000E+00   0.0000000000E+00   0.0000000000E+00   0.1125000002E+02  -0.2237826477E-09  -0.2237722830E-09  -0.1141238291E-15   0.8732718564E-14  -0.4515713281E-14   0.4750000007E-01  -0.2372750004E-01  -0.2372750004E-01  -0.5978198493E-17  -0.4541397388E-14  -0.2623821432E-14   0.1125000002E+02
   0.1047500000E+01   0.0000000000E+00  -0.2419807587E-14   0.1375000000E-01   0.0000000000E+00   0.4952498188E-14   0.3375000000E-01   0.0000000000E+00  -0.7372305775E-14   0.1125000002E+02  -0.4771535554E-10  -0.4770653675E-10  -0.1270226601E-13  -0.2162277273E-13  -0.5000507721E-14   0.4750000007E-01  -0.2372750004E-01  -0.2372750004E-01   0.3907696435E-16  -0.2083525646E-15   0.3287812477E-15   0.1125000002E+02
   0.1047500000E+01   0.9762725000E+00  -0.2257467063E-14   0.1375000000E-01  -0.6873750000E-02   0.4512419221E-14   0.3375000000E-01  -0.1685375000E-01  -0.6769886284E-14   0.1125000002E+02  -0.7752610679E-10  -0.7751275202E-10   0.1406092211E-13  -0.2177179945E-13   0.3085401060E-14   0.4750000007E-01  -0.2372750003E-01  -0.2372750003E-01   0.4599770152E-15   0.1587704529E-14   0.6614984145E-15   0.1125000002E+02
   0.0000000000E+00   0.9762725000E+00  -0.1310549045E-14   0.0000000000E+00  -0.6873750000E-02   0.2329617568E-14   0.0000000000E+00  -0.1685375000E-01  -0.3640166614E-14   0.1125000002E+02  -0.1290228858E-09  -0.1290191843E-09   0.1549399650E-13   0.7281037680E-14   0.7195624988E-14   0.4750000007E-01  -0.2372750003E-01  -0.2372750003E-01   0.6659500862E-15  -0.9534590381E-15  -0.8689664407E-15   0.1125000002E+02
   0.0000000000E+00   0.0000000000E+00   0.9762725000E+00   0.0000000000E+00   0.0000000000E+00  -0.6873750000E-02   0.0000000000E+00   0.0000000000E+00  -0.1685375000E-01   0.1125000002E+02   0.1053670233E-09   0.1053525511E-09  -0.1449528501E-15   0.2454343410E-13  -0.6630128491E-14   0.4750000007E-01  -0.2372750003E-01  -0.2372750003E-01  -0.5007723735E-17  -0.1753053682E-14  -0.2422542431E-15   0.1125000002E+02
   0.1047500000E+01   0.0000000000E+00   0.9762725000E+00   0.1375000000E-01   0.0000000000E+00  -0.6873750000E-02   0.3375000000E-01   0.0000000000E+00  -0.1685375000E-01   0.1125000002E+02   0.1073129891E-09   0.1073058474E-09  -0.1377341004E-13   0.3484361363E-14  -0.3354219557E-14   0.4750000007E-01  -0.2372750003E-01  -0.2372750003E-01   0.1682965943E-15   0.2149040373E-15  -0.6605672957E-15   0.1125000002E+02
   0.1047500000E+01   0.9762725000E+00   0.9762725000E+00   0.1375000000E-01  -0.6873750000E-02  -0.6873750000E-02   0.3375000000E-01  -0.1685375000E-01  -0.1685375000E-01   0.1125000001E+02   0.7292159330E-10   0.7291807753E-10   0.9057686362E-14   0.4642245685E-14   0.5143878062E-14   0.4750000006E-01  -0.2372750003E-01  -0.2372750003E-01  -0.7837631518E-15   0.7442011527E-15  -0.2990144255E-15   0.1125000001E+02
   0.0000000000E+00   0.9762725000E+00   0.9762725000E+00   0.0000000000E+00  -0.6873750000E-02  -0.6873750000E-02   0.0000000000E+00  -0.1685375000E-01  -0.1685375000E-01   0.1125000002E+02   0.2106403017E-09   0.2106235048E-09   0.1288730363E-13   0.2924156326E-13   0.3884783390E-14   0.4750000006E-01  -0.2372750003E-01  -0.2372750003E-01  -0.7953847127E-15  -0.2519890234E-14   0.1497468575E-14   0.1125000002E+02
   0.2095000000E+01   0.0000000000E+00  -0.5451749255E-14   0.2750000000E-01   0.0000000000E+00   0.1183410409E-13   0.6750000000E-01   0.0000000000E+00  -0.1728585334E-13   0.1125000002E+02  -0.1807572053E-10  -0.1807350261E-10  -0.1879338938E-13  -0.1650891195E-13  -0.2665616936E-14   0.4750000007E-01  -0.2372750004E-01  -0.2372750004E-01   0.4697840030E-15   0.4113870388E-15   0.6987502575E-15   0.1125000002E+02
   0.2095000000E+01   0.9762725000E+00  -0.5102973265E-14   0.2750000000E-01  -0.6873750000E-02   0.1111045206E-13   0.6750000000E-01  -0.1685375000E-01  -0.1621342532E-13   0.1125000002E+02   0.3652164088E-11   0.3657639087E-11   0.1856425517E-13  -0.1504985990E-13   0.1522979166E-14   0.4750000007E-01  -0.2372750003E-01  -0.2372750003E-01   0.6791655963E-15  -0.1045875915E-15  -0.2877877695E-15   0.1125000002E+02
   0.2095000000E+01   0.0000000000E+00   0.9762725000E+00   0.2750000000E-01   0.0000000000E+00  -0.6873750000E-02   0.6750000000E-01   0.0000000000E+00  -0.1685375000E-01   0.1125000002E+02  -0.3133132462E-10  -0.3133667849E-10  -0.1980908826E-13   0.1685333016E-13  -0.2111922491E-14   0.4750000007E-01  -0.2372750003E-01  -0.2372750003E-01   0.2606570653E-15  -0.1566606153E-14   0.6273639475E-15   0.1125000002E+02
   0.2095000000E+01   0.9762725000E+00   0.9762725000E+00   0.2750000000E-01  -0.6873750000E-02  -0.6873750000E-02   0.6750000000E-01  -0.1685375000E-01  -0.1685375000E-01   0.1125000001E+02  -0.2926901543E-10  -0.2927496320E-10   0.1420459006E-13   0.1593514076E-13   0.2170543763E-14   0.4750000006E-01  -0.2372750003E-01  -0.2372750003E-01  -0.8389272145E-15  -0.6865403420E-16  -0.3376369741E-15   0.1125000001E+02
     1     2     3     4     5     6     7     8
     2     9    10     3     6    11    12     7
 VARIABLES = X,Y,Z,DU1,DU2,DU3,U1,U2,U3,S11,S22,S33,S12,S13,S23,E11,E22,E33,E12,E13,E23,SMISES
 ZONE, T="0.9500D+00" F=FEPOINT, I=   12 J=    2 ET=BRICK
   0.0000000000E+00   0.0000000000E+00   0.0000000000E+00   0.0000000000E+00   0.0000000000E+00   0.0000000000E+00   0.0000000000E+00   0.0000000000E+00   0.0000000000E+00   0.1187500002E+02  -0.2055491998E-09  -0.2055401877E-09   0.1173359032E-15   0.8019472127E-14  -0.3739241386E-14   0.6125000010E-01  -0.3060125005E-01  -0.3060125005E-01  -0.1777243886E-17  -0.4212414999E-14  -0.2474507240E-14   0.1187500002E+02
   0.1061250000E+01   0.0000000000E+00  -0.2225891326E-14   0.1375000000E-01   0.0000000000E+00   0.1939162616E-15   0.4750000000E-01   0.0000000000E+00  -0.2419807587E-14   0.1187500002E+02  -0.4082930660E-10  -0.4082093481E-10  -0.8883955429E-14  -0.1494734334E-13  -0.3488269567E-14   0.6125000009E-01  -0.3060125005E-01  -0.3060125005E-01   0.1481028832E-16  -0.2736119593E-15   0.2951574920E-15   0.1187500002E+02
   0.1061250000E+01   0.9693987500E+00  -0.2077789503E-14   0.1375000000E-01  -0.6873750000E-02   0.1796775600E-15   0.4750000000E-01  -0.2372750000E-01  -0.2257467063E-14   0.1187500002E+02  -0.7231020685E-10  -0.7229931130E-10   0.1151168410E-13  -0.1693598498E-13   0.4088609446E-14   0.6125000009E-01  -0.3060125004E-01  -0.3060125004E-01   0.4832353590E-15   0.1376316817E-14   0.6503188505E-15   0.1187500002E+02
   0.0000000000E+00   0.9693987500E+00  -0.1243248964E-14   0.0000000000E+00  -0.6873750000E-02   0.6730008125E-16   0.0000000000E+00  -0.2372750000E-01  -0.1310549045E-14   0.1187500002E+02  -0.1172331276E-09  -0.1172285056E-09   0.1076486487E-13   0.7810145171E-14   0.5755415541E-14   0.6125000009E-01  -0.3060125004E-01  -0.3060125004E-01   0.6619358762E-15  -0.8070360260E-15  -0.7965690532E-15   0.1187500002E+02
   0.0000000000E+00   0.0000000000E+00   0.9693987500E+00   0.0000000000E+00   0.0000000000E+00  -0.6873750000E-02   0.0000000000E+00   0.0000000000E+00  -0.2372750000E-01   0.1187500002E+02   0.9565857823E-10   0.9564761044E-10  -0.2380723440E-15   0.1955127665E-13  -0.5509181044E-14   0.6125000009E-01  -0.3060125004E-01  -0.3060125004E-01  -0.1258420071E-17  -0.1536845393E-14  -0.2966548582E-15   0.1187500002E+02
   0.1061250000E+01   0.0000000000E+00   0.9693987500E+00   0.1375000000E-01   0.0000000000E+00  -0.6873750000E-02   0.4750000000E-01   0.0000000000E+00  -0.2372750000E-01   0.1187500002E+02   0.9736108860E-10   0.9735652501E-10  -0.1082646908E-13   0.3090094589E-14  -0.3136438198E-14   0.6125000009E-01  -0.3060125004E-01  -0.3060125004E-01   0.9832983825E-16   0.1645073704E-15  -0.6220188740E-15   0.1187500002E+02
   0.1061250000E+01   0.9693987500E+00   0.9693987500E+00   0.1375000000E-01  -0.6873750000E-02  -0.6873750000E-02   0.4750000000E-01  -0.2372750000E-01  -0.2372750000E-01   0.1187500002E+02   0.6433098762E-10   0.6432512949E-10   0.5632758869E-14   0.1827544691E-14   0.4304019541E-14   0.6125000008E-01  -0.3060125004E-01  -0.3060125004E-01  -0.7196923892E-15   0.7169696654E-15  -0.2638686589E-15   0.1187500002E+02
   0.0000000000E+00   0.9693987500E+00   0.9693987500E+00   0.0000000000E+00  -0.6873750000E-02  -0.6873750000E-02   0.0000000000E+00  -0.2372750000E-01  -0.2372750000E-01   0.1187500002E+02   0.1910215832E-09   0.1910080212E-09   0.9538221887E-14   0.2338429295E-13   0.3091524633E-14   0.6125000008E-01  -0.3060125004E-01  -0.3060125004E-01  -0.7132028981E-15  -0.2279120420E-14   0.1440419553E-14   0.1187500002E+02
   0.2122500000E+01   0.0000000000E+00  -0.4931189102E-14   0.2750000000E-01   0.0000000000E+00   0.5205601524E-15   0.9500000000E-01   0.0000000000E+00  -0.5451749255E-14   0.1187500002E+02  -0.1004988672E-10  -0.1004984715E-10  -0.1844336867E-13  -0.1612886514E-13  -0.2667873392E-14   0.6125000009E-01  -0.3060125005E-01  -0.3060125005E-01   0.3620788490E-15   0.2455273307E-15   0.6376015066E-15   0.1187500002E+02
   0.2122500000E+01   0.9693987500E+00  -0.4613682129E-14   0.2750000000E-01  -0.6873750000E-02   0.4892911357E-15   0.9500000000E-01  -0.2372750000E-01  -0.5102973265E-14   0.1187500002E+02   0.5008946648E-11   0.5012119536E-11   0.1049857031E-13  -0.1014845246E-13   0.5272647188E-15   0.6125000009E-01  -0.3060125004E-01  -0.3060125004E-01   0.6588306141E-15  -0.1346256122E-15  -0.2648388201E-15   0.1187500002E+02
   0.2122500000E+01   0.0000000000E+00   0.9693987500E+00   0.2750000000E-01   0.0000000000E+00  -0.6873750000E-02   0.9500000000E-01   0.0000000000E+00  -0.2372750000E-01   0.1187500002E+02  -0.3035070925E-10  -0.3035487123E-10  -0.1191986027E-13   0.7599183341E-14  -0.2285090760E-14   0.6125000009E-01  -0.3060125004E-01  -0.3060125004E-01   0.2139428413E-15  -0.1449831797E-14   0.5828530520E-15   0.1187500002E+02
   0.2122500000E+01   0.9693987500E+00   0.9693987500E+00   0.2750000000E-01  -0.6873750000E-02  -0.6873750000E-02   0.9500000000E-01  -0.2372750000E-01  -0.2372750000E-01   0.1187500002E+02  -0.2541413455E-10  -0.2541998073E-10   0.1234852752E-13   0.1488939555E-13   0.1528238443E-14   0.6125000008E-01  -0.3060125004E-01  -0.3060125004E-01  -0.7428791764E-15  -0.3218986166E-16  -0.3333100370E-15   0.1187500002E+02
     1     2     3     4     5     6     7     8
     2     9    10     3     6    11    12     7
 VARIABLES = X,Y,Z,DU1,DU2,DU3,U1,U2,U3,S11,S22,S33,S12,S13,S23,E11,E22,E33,E12,E13,E23,SMISES
 ZONE, T="0.1000D+01" F=FEPOINT, I=   12 J=    2 ET=BRICK
   0.0000000000E+00   0.0000000000E+00   0.0000000000E+00   0.0000000000E+00   0.0000000000E+00   0.0000000000E+00   0.0000000000E+00   0.0000000000E+00   0.0000000000E+00   0.1250000002E+02  -0.1856040727E-09  -0.1855966058E-09  -0.8202650415E-17   0.1143822857E-13  -0.2667324028E-14   0.7500000012E-01  -0.3747500006E-01  -0.3747500006E-01  -0.6733818317E-17  -0.3869578119E-14  -0.2342947600E-14   0.1250000002E+02
   0.1075000000E+01   0.0000000000E+00  -0.2017122409E-14   0.1375000000E-01   0.0000000000E+00   0.2087689169E-15   0.6125000000E-01   0.0000000000E+00  -0.2225891326E-14   0.1250000002E+02  -0.3664155700E-10  -0.3663515970E-10  -0.6048054453E-14  -0.1500491266E-13  -0.3787963071E-14   0.7500000012E-01  -0.3747500006E-01  -0.3747500006E-01  -0.1373886792E-16  -0.3304530656E-15   0.2523299141E-15   0.1250000002E+02
   0.1075000000E+01   0.9625250000E+00  -0.1893693539E-14   0.1375000000E-01  -0.6873750000E-02   0.1840959640E-15   0.6125000000E-01  -0.3060125000E-01  -0.2077789503E-14   0.1250000002E+02  -0.6564109834E-10  -0.6563116426E-10   0.9288249879E-14  -0.1508749950E-13   0.2304415888E-14   0.7500000011E-01  -0.3747500005E-01  -0.3747500005E-01   0.4881156530E-15   0.1206012283E-14   0.6052888460E-15   0.1250000002E+02
   0.0000000000E+00   0.9625250000E+00  -0.1174569661E-14   0.0000000000E+00  -0.6873750000E-02   0.6867930343E-16   0.0000000000E+00  -0.3060125000E-01  -0.1243248964E-14   0.1250000002E+02  -0.1048486195E-09  -0.1048442533E-09   0.8256608467E-14   0.9129448457E-14   0.6482974645E-14   0.7500000011E-01  -0.3747500005E-01  -0.3747500005E-01   0.6746080552E-15  -0.6768496668E-15  -0.6809430975E-15   0.1250000002E+02
   0.0000000000E+00   0.0000000000E+00   0.9625250000E+00   0.0000000000E+00   0.0000000000E+00  -0.6873750000E-02   0.0000000000E+00   0.0000000000E+00  -0.3060125000E-01   0.1250000002E+02   0.8275338250E-10   0.8274436344E-10  -0.2123595435E-15   0.1778635516E-13  -0.4742328441E-14   0.7500000011E-01  -0.3747500005E-01  -0.3747500005E-01   0.6680869038E-17  -0.1324666485E-14  -0.3065809225E-15   0.1250000002E+02
   0.1075000000E+01   0.0000000000E+00   0.9625250000E+00   0.1375000000E-01   0.0000000000E+00  -0.6873750000E-02   0.6125000000E-01   0.0000000000E+00  -0.3060125000E-01   0.1250000002E+02   0.8860491276E-10   0.8859910615E-10  -0.7069170163E-14  -0.8955454027E-15  -0.2553536707E-14   0.7500000011E-01  -0.3747500005E-01  -0.3747500005E-01   0.7528513025E-16   0.1070211199E-15  -0.5947754220E-15   0.1250000002E+02
   0.1075000000E+01   0.9625250000E+00   0.9625250000E+00   0.1375000000E-01  -0.6873750000E-02  -0.6873750000E-02   0.6125000000E-01  -0.3060125000E-01  -0.3060125000E-01   0.1250000002E+02   0.5589136679E-10   0.5588727705E-10   0.4704303217E-14  -0.7740733908E-15   0.3998223212E-14   0.7500000010E-01  -0.3747500005E-01  -0.3747500005E-01  -0.6376449913E-15   0.6258873463E-15  -0.2454476256E-15   0.1250000002E+02
   0.0000000000E+00   0.9625250000E+00   0.9625250000E+00   0.0000000000E+00  -0.6873750000E-02  -0.6873750000E-02   0.0000000000E+00  -0.3060125000E-01  -0.3060125000E-01   0.1250000002E+02   0.1722880731E-09   0.1722768633E-09   0.5703804910E-14   0.2146257713E-13   0.2621569159E-14   0.7500000010E-01  -0.3747500005E-01  -0.3747500005E-01  -0.6985004234E-15  -0.1999997441E-14   0.1389892808E-14   0.1250000002E+02
   0.2150000000E+01   0.0000000000E+00  -0.4419112537E-14   0.2750000000E-01   0.0000000000E+00   0.5120765649E-15   0.1225000000E+00   0.0000000000E+00  -0.4931189102E-14   0.1250000002E+02  -0.9821074785E-11  -0.9819029911E-11  -0.1165044257E-13  -0.7709794611E-14  -0.2071130247E-14   0.7500000011E-01  -0.3747500006E-01  -0.3747500006E-01   0.2995681205E-15   0.2940716890E-15   0.5909010552E-15   0.1250000002E+02
   0.2150000000E+01   0.9625250000E+00  -0.4125620333E-14   0.2750000000E-01  -0.6873750000E-02   0.4880617957E-15   0.1225000000E+00  -0.3060125000E-01  -0.4613682129E-14   0.1250000002E+02   0.6282540488E-11   0.6285790665E-11   0.9812611761E-14  -0.8262437547E-14   0.1181627995E-14   0.7500000010E-01  -0.3747500005E-01  -0.3747500005E-01   0.6904895701E-15  -0.9115230238E-16  -0.2257553220E-15   0.1250000002E+02
   0.2150000000E+01   0.0000000000E+00   0.9625250000E+00   0.2750000000E-01   0.0000000000E+00  -0.6873750000E-02   0.1225000000E+00   0.0000000000E+00  -0.3060125000E-01   0.1250000002E+02  -0.2250235620E-10  -0.2250654394E-10  -0.1231034664E-13   0.9672869305E-14  -0.1210382314E-14   0.7500000010E-01  -0.3747500005E-01  -0.3747500005E-01   0.8910024768E-16  -0.1224984238E-14   0.5286144096E-15   0.1250000002E+02
   0.2150000000E+01   0.9625250000E+00   0.9625250000E+00   0.2750000000E-01  -0.6873750000E-02  -0.6873750000E-02   0.1225000000E+00  -0.3060125000E-01  -0.3060125000E-01   0.1250000002E+02  -0.2259675733E-10  -0.2259967444E-10   0.6815839329E-14   0.1034392954E-13   0.2349789798E-14   0.7500000010E-01  -0.3747500005E-01  -0.3747500005E-01  -0.6796415663E-15   0.3955838367E-16  -0.2954080286E-15   0.1250000002E+02
     1     2     3     4     5     6     7     8
     2     9    10     3     6    11    12     7
 VARIABLES = X,Y,Z,DU1,DU2,DU3,U1,U2,U3,S11,S22,S33,S12,S13,S23,E11,E22,E33,E12,E13,E23,SMISES
 ZONE, T="0.1050D+01" F=FEPOINT, I=   12 J=    2 ET=BRICK
   0.0000000000E+00   0.0000000000E+00   0.0000000000E+00   0.0000000000E+00   0.0000000000E+00   0.0000000000E+00   0.0000000000E+00   0.0000000000E+00   0.0000000000E+00   0.1137500002E+02   0.3088326542E-09   0.3091239335E-09   0.7931930241E-17   0.1132998745E-11   0.7070613713E-12   0.7275000011E-01  -0.3635225006E-01  -0.3635225006E-01   0.8183953356E-17   0.9600842619E-14   0.6157060870E-14   0.1137500002E+02
   0.1072750000E+01   0.0000000000E+00   0.3918627694E-14  -0.2250000000E-02   0.0000000000E+00   0.5935750103E-14   0.7500000000E-01   0.0000000000E+00  -0.2017122409E-14   0.1137500002E+02   0.1810720081E-11   0.1129683696E-11   0.1356617345E-12   0.9716834754E-13   0.2195928814E-14   0.7275000011E-01  -0.3635225006E-01  -0.3635225006E-01   0.1661321964E-14   0.9978224751E-15   0.3109398411E-15   0.1137500002E+02
   0.1072750000E+01   0.9636477500E+00   0.4077904539E-14  -0.2250000000E-02   0.1122750000E-02   0.5971598077E-14   0.7500000000E-01  -0.3747500000E-01  -0.1893693539E-14   0.1137500002E+02   0.1564850197E-09   0.1565731242E-09   0.2837946973E-12  -0.2235956835E-12  -0.2903215600E-12   0.7275000010E-01  -0.3635225005E-01  -0.3635225005E-01   0.3797805258E-14  -0.1306762180E-14  -0.2902829803E-14   0.1137500002E+02
   0.0000000000E+00   0.9636477500E+00   0.3080954961E-14   0.0000000000E+00   0.1122750000E-02   0.4255524622E-14   0.0000000000E+00  -0.3747500000E-01  -0.1174569661E-14   0.1137500002E+02   0.2531030573E-09   0.2524052170E-09  -0.2607676346E-12   0.2978245499E-13   0.2417925876E-12   0.7275000011E-01  -0.3635225005E-01  -0.3635225005E-01  -0.2583055632E-14  -0.4337637080E-15   0.2179366121E-14   0.1137500002E+02
   0.0000000000E+00   0.0000000000E+00   0.9636477500E+00   0.0000000000E+00   0.0000000000E+00   0.1122750000E-02   0.0000000000E+00   0.0000000000E+00  -0.3747500000E-01   0.1137500002E+02  -0.1362432172E-10  -0.1240016359E-10  -0.2318194179E-15   0.1944501562E-12   0.2113789225E-12   0.7275000011E-01  -0.3635225005E-01  -0.3635225005E-01  -0.9781150960E-17   0.7609320991E-15   0.2269268149E-14   0.1137500002E+02
   0.1072750000E+01   0.0000000000E+00   0.9636477500E+00  -0.2250000000E-02   0.0000000000E+00   0.1122750000E-02   0.7500000000E-01   0.0000000000E+00  -0.3747500000E-01   0.1137500002E+02  -0.2361913479E-09  -0.2362876995E-09  -0.2766637662E-12   0.1378979315E-12   0.3865461484E-12   0.7275000010E-01  -0.3635225005E-01  -0.3635225005E-01  -0.3130484725E-14   0.1814561263E-14   0.4092500247E-14   0.1137500002E+02
   0.1072750000E+01   0.9636477500E+00   0.9636477500E+00  -0.2250000000E-02   0.1122750000E-02   0.1122750000E-02   0.7500000000E-01  -0.3747500000E-01  -0.3747500000E-01   0.1137500001E+02  -0.1788368940E-09  -0.1781654371E-09  -0.2351260135E-12  -0.2640624929E-12   0.9457734942E-13   0.7275000010E-01  -0.3635225005E-01  -0.3635225005E-01  -0.3552982730E-14  -0.2555327927E-14   0.8436109102E-15   0.1137500001E+02
   0.0000000000E+00   0.9636477500E+00   0.9636477500E+00   0.0000000000E+00   0.1122750000E-02   0.1122750000E-02   0.0000000000E+00  -0.3747500000E-01  -0.3747500000E-01   0.1137500001E+02  -0.3217073894E-09  -0.3214732608E-09   0.5198682422E-13   0.4529560351E-12  -0.2557763218E-12   0.7275000010E-01  -0.3635225005E-01  -0.3635225005E-01  -0.1224046656E-15   0.3203163277E-14  -0.1709176342E-14   0.1137500002E+02
   0.2145500000E+01   0.0000000000E+00   0.4297176178E-14  -0.4500000000E-02   0.0000000000E+00   0.8716288715E-14   0.1500000000E+00   0.0000000000E+00  -0.4419112537E-14   0.1137500002E+02   0.4872283951E-09   0.4870885620E-09  -0.4167792597E-13  -0.5315172205E-12   0.8886079629E-12   0.7275000011E-01  -0.3635225005E-01  -0.3635225005E-01  -0.7797002174E-16  -0.6101237382E-14   0.1126478858E-13   0.1137500002E+02
   0.2145500000E+01   0.9636477500E+00   0.9931319954E-14  -0.4500000000E-02   0.1122750000E-02   0.1405694029E-13   0.1500000000E+00  -0.3747500000E-01  -0.4125620333E-14   0.1137500002E+02   0.5125073890E-10   0.4980137681E-10   0.5143661778E-12   0.3742718489E-12   0.2114650762E-12   0.7275000010E-01  -0.3635225005E-01  -0.3635225005E-01   0.6705438407E-14   0.4468088625E-14   0.2292754012E-14   0.1137500002E+02
   0.2145500000E+01   0.0000000000E+00   0.9636477500E+00  -0.4500000000E-02   0.0000000000E+00   0.1122750000E-02   0.1500000000E+00   0.0000000000E+00  -0.3747500000E-01   0.1137500002E+02   0.5947986456E-10   0.6069562676E-10  -0.4173771374E-12   0.4828606486E-12   0.2337343582E-12   0.7275000010E-01  -0.3635225005E-01  -0.3635225005E-01  -0.4773949655E-14   0.4236409587E-14   0.3352826273E-14   0.1137500002E+02
   0.2145500000E+01   0.9636477500E+00   0.9636477500E+00  -0.4500000000E-02   0.1122750000E-02   0.1122750000E-02   0.1500000000E+00  -0.3747500000E-01  -0.3747500000E-01   0.1137500001E+02  -0.3187678595E-09  -0.3188633808E-09  -0.3849247216E-12  -0.1273198289E-12  -0.4431864699E-12   0.7275000009E-01  -0.3635225005E-01  -0.3635225005E-01  -0.5364660014E-14  -0.1638052619E-14  -0.5599122452E-14   0.1137500001E+02
     1     2     3     4     5     6     7     8
     2     9    10     3     6    11    12     7
 VARIABLES = X,Y,Z,DU1,DU2,DU3,U1,U2,U3,S11,S22,S33,S12,S13,S23,E11,E22,E33,E12,E13,E23,SMISES
 ZONE, T="0.1100D+01" F=FEPOINT, I=   12 J=    2 ET=BRICK
   0.0000000000E+00   0.0000000000E+00   0.0000000000E+00   0.0000000000E+00   0.0000000000E+00   0.0000000000E+00   0.0000000000E+00   0.0000000000E+00   0.0000000000E+00   0.1025000002E+02  -0.1867851801E-09  -0.1867772067E-09  -0.3577267051E-18   0.1016689109E-13  -0.3291559749E-14   0.7050000011E-01  -0.3522950006E-01  -0.3522950006E-01   0.7826184113E-17  -0.3852599616E-14  -0.2352842072E-14   0.1025000002E+02
   0.1070500000E+01   0.0000000000E+00  -0.2027058947E-14  -0.2250000000E-02   0.0000000000E+00  -0.5945686641E-14   0.7275000000E-01   0.0000000000E+00   0.3918627694E-14   0.1025000002E+02  -0.3692148892E-10  -0.3691523239E-10  -0.5862917253E-14  -0.1417350579E-13  -0.3776558912E-14   0.7050000011E-01  -0.3522950005E-01  -0.3522950005E-01  -0.3229009213E-16  -0.3289073290E-15   0.2555084992E-15   0.1025000002E+02
   0.1070500000E+01   0.9647705000E+00  -0.1903550628E-14  -0.2250000000E-02   0.1122750000E-02  -0.5981455166E-14   0.7275000000E-01  -0.3635225000E-01   0.4077904539E-14   0.1025000001E+02  -0.6633876630E-10  -0.6632921682E-10   0.9415135581E-14  -0.1463691787E-13   0.2668616208E-14   0.7050000010E-01  -0.3522950005E-01  -0.3522950005E-01   0.4936504340E-15   0.1178957861E-14   0.6024245809E-15   0.1025000001E+02
   0.0000000000E+00   0.9647705000E+00  -0.1178354989E-14   0.0000000000E+00   0.1122750000E-02  -0.4259309950E-14   0.0000000000E+00  -0.3635225000E-01   0.3080954961E-14   0.1025000001E+02  -0.1056610901E-09  -0.1056545194E-09   0.8421676655E-14   0.8697140234E-14   0.6462849056E-14   0.7050000010E-01  -0.3522950005E-01  -0.3522950005E-01   0.6489159045E-15  -0.6706490835E-15  -0.6735492500E-15   0.1025000001E+02
   0.0000000000E+00   0.0000000000E+00   0.9647705000E+00   0.0000000000E+00   0.0000000000E+00   0.1122750000E-02   0.0000000000E+00   0.0000000000E+00  -0.3635225000E-01   0.1025000001E+02   0.8417986607E-10   0.8417118007E-10  -0.2124674296E-15   0.1603072141E-13  -0.5406482963E-14   0.7050000010E-01  -0.3522950005E-01  -0.3522950005E-01  -0.1513399598E-16  -0.1374650748E-14  -0.3102374749E-15   0.1025000001E+02
   0.1070500000E+01   0.0000000000E+00   0.9647705000E+00  -0.2250000000E-02   0.0000000000E+00   0.1122750000E-02   0.7275000000E-01   0.0000000000E+00  -0.3635225000E-01   0.1025000001E+02   0.8877155952E-10   0.8876498373E-10  -0.7642897927E-14  -0.1673614155E-15  -0.2383654250E-14   0.7050000010E-01  -0.3522950005E-01  -0.3522950005E-01   0.8336515701E-16   0.1407084767E-15  -0.5976200024E-15   0.1025000001E+02
   0.1070500000E+01   0.9647705000E+00   0.9647705000E+00  -0.2250000000E-02   0.1122750000E-02   0.1122750000E-02   0.7275000000E-01  -0.3635225000E-01  -0.3635225000E-01   0.1025000001E+02   0.5688479379E-10   0.5688017867E-10   0.3608479548E-14  -0.7689110686E-15   0.4509804230E-14   0.7050000009E-01  -0.3522950005E-01  -0.3522950005E-01  -0.6814636898E-15   0.6294426813E-15  -0.1949647221E-15   0.1025000001E+02
   0.0000000000E+00   0.9647705000E+00   0.9647705000E+00   0.0000000000E+00   0.1122750000E-02   0.1122750000E-02   0.0000000000E+00  -0.3635225000E-01  -0.3635225000E-01   0.1025000001E+02   0.1729749016E-09   0.1729623269E-09   0.5669316034E-14   0.2091458052E-13   0.2622695851E-14   0.7050000009E-01  -0.3522950005E-01  -0.3522950005E-01  -0.6902622309E-15  -0.1988266450E-14   0.1362022432E-14   0.1025000001E+02
   0.2141000000E+01   0.0000000000E+00  -0.4446422034E-14  -0.4500000000E-02   0.0000000000E+00  -0.8743598212E-14   0.1455000000E+00   0.0000000000E+00   0.4297176178E-14   0.1025000002E+02  -0.9374489996E-11  -0.9373233167E-11  -0.1379625519E-13  -0.9427271638E-14  -0.2467814016E-14   0.7050000011E-01  -0.3522950005E-01  -0.3522950005E-01   0.3002103918E-15   0.3935277299E-15   0.5705847903E-15   0.1025000002E+02
   0.2141000000E+01   0.9647705000E+00  -0.4155221662E-14  -0.4500000000E-02   0.1122750000E-02  -0.1408654162E-13   0.1455000000E+00  -0.3635225000E-01   0.9931319954E-14   0.1025000001E+02   0.5361504494E-11   0.5364088537E-11   0.7363899075E-14  -0.5396012490E-14   0.4483818144E-15   0.7050000010E-01  -0.3522950005E-01  -0.3522950005E-01   0.6641977378E-15  -0.1343655384E-15  -0.2009810387E-15   0.1025000001E+02
   0.2141000000E+01   0.0000000000E+00   0.9647705000E+00  -0.4500000000E-02   0.0000000000E+00   0.1122750000E-02   0.1455000000E+00   0.0000000000E+00  -0.3635225000E-01   0.1025000001E+02  -0.2382580326E-10  -0.2382955489E-10  -0.8973516586E-14   0.7138653951E-14  -0.1570737030E-14   0.7050000010E-01  -0.3522950005E-01  -0.3522950005E-01   0.1607866507E-15  -0.1413024959E-14   0.5486089849E-15   0.1025000001E+02
   0.2141000000E+01   0.9647705000E+00   0.9647705000E+00  -0.4500000000E-02   0.1122750000E-02   0.1122750000E-02   0.1455000000E+00  -0.3635225000E-01  -0.3635225000E-01   0.1025000001E+02  -0.2168588564E-10  -0.2168848854E-10   0.9219524336E-14   0.1233300486E-13   0.1546108823E-14   0.7050000009E-01  -0.3522950005E-01  -0.3522950005E-01  -0.5987189377E-15   0.8835186645E-16  -0.3073987986E-15   0.1025000001E+02
     1     2     3     4     5     6     7     8
     2     9    10     3     6    11    12     7
 VARIABLES = X,Y,Z,DU1,DU2,DU3,U1,U2,U3,S11,S22,S33,S12,S13,S23,E11,E22,E33,E12,E13,E23,SMISES
 ZONE, T="0.1150D+01" F=FEPOINT, I=   12 J=    2 ET=BRICK
   0.0000000000E+00   0.0000000000E+00   0.0000000000E+00   0.0000000000E+00   0.0000000000E+00   0.0000000000E+00   0.0000000000E+00   0.0000000000E+00   0.0000000000E+00   0.9125000014E+01  -0.1878595419E-09  -0.1878512286E-09   0.7507663050E-17   0.8886263391E-14  -0.3918366487E-14   0.6825000011E-01  -0.3410675005E-01  -0.3410675005E-01   0.1049873666E-16  -0.3900633240E-14  -0.2354415068E-14   0.9125000014E+01
   0.1068250000E+01   0.0000000000E+00  -0.2035325491E-14  -0.2250000000E-02   0.0000000000E+00  -0.8266543623E-17   0.7050000000E-01   0.0000000000E+00  -0.2027058947E-14   0.9125000014E+01  -0.3726005879E-10  -0.3725336615E-10  -0.5063032758E-14  -0.1343403685E-13  -0.3963611846E-14   0.6825000011E-01  -0.3410675005E-01  -0.3410675005E-01  -0.5809398523E-16  -0.3171179488E-15   0.2499893669E-15   0.9125000014E+01
   0.1068250000E+01   0.9658932500E+00  -0.1913036771E-14  -0.2250000000E-02   0.1122750000E-02  -0.9486143492E-17   0.7050000000E-01  -0.3522950000E-01  -0.1903550628E-14   0.9125000013E+01  -0.6658781789E-10  -0.6657744770E-10   0.1014844333E-13  -0.1443327847E-13   0.2786304839E-14   0.6825000010E-01  -0.3410675005E-01  -0.3410675005E-01   0.4439153144E-15   0.1260413823E-14   0.6020402645E-15   0.9125000013E+01
   0.0000000000E+00   0.9658932500E+00  -0.1182001799E-14   0.0000000000E+00   0.1122750000E-02  -0.3646809933E-17   0.0000000000E+00  -0.3522950000E-01  -0.1178354989E-14   0.9125000013E+01  -0.1061770501E-09  -0.1061702424E-09   0.8451920901E-14   0.7915495194E-14   0.6741480244E-14   0.6825000010E-01  -0.3410675005E-01  -0.3410675005E-01   0.6617649509E-15  -0.6876684242E-15  -0.6705538880E-15   0.9125000013E+01
   0.0000000000E+00   0.0000000000E+00   0.9658932500E+00   0.0000000000E+00   0.0000000000E+00   0.1122750000E-02   0.0000000000E+00   0.0000000000E+00  -0.3522950000E-01   0.9125000013E+01   0.8493379113E-10   0.8492325946E-10  -0.2087336987E-15   0.1540787440E-13  -0.5873076813E-14   0.6825000010E-01  -0.3410675005E-01  -0.3410675005E-01  -0.3307238014E-17  -0.1358633667E-14  -0.3346046026E-15   0.9125000013E+01
   0.1068250000E+01   0.0000000000E+00   0.9658932500E+00  -0.2250000000E-02   0.0000000000E+00   0.1122750000E-02   0.7050000000E-01   0.0000000000E+00  -0.3522950000E-01   0.9125000013E+01   0.8929050957E-10   0.8928479221E-10  -0.7637749899E-14   0.6891073351E-15  -0.2891481889E-14   0.6825000010E-01  -0.3410675005E-01  -0.3410675005E-01   0.5929905614E-16   0.1530246622E-15  -0.6032237533E-15   0.9125000013E+01
   0.1068250000E+01   0.9658932500E+00   0.9658932500E+00  -0.2250000000E-02   0.1122750000E-02   0.1122750000E-02   0.7050000000E-01  -0.3522950000E-01  -0.3522950000E-01   0.9125000012E+01   0.5684402556E-10   0.5683883356E-10   0.3610676495E-14  -0.4636582323E-15   0.4356183094E-14   0.6825000009E-01  -0.3410675004E-01  -0.3410675004E-01  -0.6706810149E-15   0.6511967288E-15  -0.1812190073E-15   0.9125000012E+01
   0.0000000000E+00   0.9658932500E+00   0.9658932500E+00   0.0000000000E+00   0.1122750000E-02   0.1122750000E-02   0.0000000000E+00  -0.3522950000E-01  -0.3522950000E-01   0.9125000012E+01   0.1739627887E-09   0.1739487529E-09   0.4958739622E-14   0.2010313340E-13   0.3002431322E-14   0.6825000009E-01  -0.3410675005E-01  -0.3410675005E-01  -0.6964070945E-15  -0.2011184003E-14   0.1365873754E-14   0.9125000012E+01
   0.2136500000E+01   0.0000000000E+00  -0.4465014840E-14  -0.4500000000E-02   0.0000000000E+00  -0.1859280628E-16   0.1410000000E+00   0.0000000000E+00  -0.4446422034E-14   0.9125000014E+01  -0.9445832118E-11  -0.9443761482E-11  -0.1299259660E-13  -0.8563912796E-14  -0.2706831120E-14   0.6825000010E-01  -0.3410675005E-01  -0.3410675005E-01   0.3335067534E-15   0.1464130582E-15   0.5767431118E-15   0.9125000014E+01
   0.2136500000E+01   0.9658932500E+00  -0.4175174346E-14  -0.4500000000E-02   0.1122750000E-02  -0.1995268392E-16   0.1410000000E+00  -0.3522950000E-01  -0.4155221662E-14   0.9125000013E+01   0.5508140555E-11   0.5511435355E-11   0.8065270763E-14  -0.7084486934E-14   0.1079167546E-14   0.6825000010E-01  -0.3410675005E-01  -0.3410675005E-01   0.6909375640E-15   0.9042767237E-16  -0.2128558125E-15   0.9125000013E+01
   0.2136500000E+01   0.0000000000E+00   0.9658932500E+00  -0.4500000000E-02   0.0000000000E+00   0.1122750000E-02   0.1410000000E+00   0.0000000000E+00  -0.3522950000E-01   0.9125000013E+01  -0.2357292103E-10  -0.2357780067E-10  -0.1029804028E-13   0.7016839522E-14  -0.1477398038E-14   0.6825000010E-01  -0.3410675005E-01  -0.3410675005E-01   0.1880077366E-15  -0.1311246524E-14   0.5350979464E-15   0.9125000013E+01
   0.2136500000E+01   0.9658932500E+00   0.9658932500E+00  -0.4500000000E-02   0.1122750000E-02   0.1122750000E-02   0.1410000000E+00  -0.3522950000E-01  -0.3522950000E-01   0.9125000012E+01  -0.2219136609E-10  -0.2219471242E-10   0.8468773917E-14   0.1107957007E-13   0.2455890987E-14   0.6825000009E-01  -0.3410675004E-01  -0.3410675004E-01  -0.6324826957E-15  -0.1008489838E-15  -0.2714890525E-15   0.9125000012E+01
     1     2     3     4     5     6     7     8
     2     9    10     3     6    11    12     7
 VARIABLES = X,Y,Z,DU1,DU2,DU3,U1,U2,U3,S11,S22,S33,S12,S13,S23,E11,E22,E33,E12,E13,E23,SMISES
 ZONE, T="0.1200D+01" F=FEPOINT, I=   12 J=    2 ET=BRICK
   0.0000000000E+00   0.0000000000E+00   0.0000000000E+00   0.0000000000E+00   0.0000000000E+00   0.0000000000E+00   0.0000000000E+00   0.0000000000E+00   0.0000000000E+00   0.8000000012E+01  -0.1861785568E-09  -0.1861715826E-09   0.1344499995E-16   0.1026462123E-13  -0.2864232425E-14   0.6600000010E-01  -0.3298400005E-01  -0.3298400005E-01  -0.1581483312E-16  -0.3853279833E-14  -0.2350641264E-14   0.8000000013E+01
   0.1066000000E+01   0.0000000000E+00  -0.2025716145E-14  -0.2250000000E-02   0.0000000000E+00   0.9609346213E-17   0.6825000000E-01   0.0000000000E+00  -0.2035325491E-14   0.8000000012E+01  -0.3694777903E-10  -0.3694257322E-10  -0.6960864036E-14  -0.1553731648E-13  -0.3953269587E-14   0.6600000010E-01  -0.3298400005E-01  -0.3298400005E-01  -0.4545561122E-16  -0.3783717655E-15   0.2532680374E-15   0.8000000012E+01
   0.1066000000E+01   0.9670160000E+00  -0.1903393088E-14  -0.2250000000E-02   0.1122750000E-02   0.9643682704E-17   0.6825000000E-01  -0.3410675000E-01  -0.1913036771E-14   0.8000000011E+01  -0.6580014344E-10  -0.6579020936E-10   0.8149994866E-14  -0.1327197901E-13   0.2150696448E-14   0.6600000009E-01  -0.3298400005E-01  -0.3298400005E-01   0.4207590934E-15   0.1289588217E-14   0.6013376467E-15   0.8000000011E+01
   0.0000000000E+00   0.9670160000E+00  -0.1175656059E-14   0.0000000000E+00   0.1122750000E-02   0.6345740222E-17   0.0000000000E+00  -0.3410675000E-01  -0.1182001799E-14   0.8000000012E+01  -0.1061924918E-09  -0.1061872156E-09   0.8555544439E-14   0.8020498173E-14   0.6775896264E-14   0.6600000010E-01  -0.3298400005E-01  -0.3298400005E-01   0.6756418822E-15  -0.7128521391E-15  -0.7015207876E-15   0.8000000012E+01
   0.0000000000E+00   0.0000000000E+00   0.9670160000E+00   0.0000000000E+00   0.0000000000E+00   0.1122750000E-02   0.0000000000E+00   0.0000000000E+00  -0.3410675000E-01   0.8000000012E+01   0.8320690205E-10   0.8319756877E-10  -0.1779472393E-15   0.1634803639E-13  -0.4992448379E-14   0.6600000010E-01  -0.3298400005E-01  -0.3298400005E-01   0.1194798534E-16  -0.1352900938E-14  -0.2469675408E-15   0.8000000012E+01
   0.1066000000E+01   0.0000000000E+00   0.9670160000E+00  -0.2250000000E-02   0.0000000000E+00   0.1122750000E-02   0.6825000000E-01   0.0000000000E+00  -0.3410675000E-01   0.8000000011E+01   0.8878800610E-10   0.8878234027E-10  -0.5716958695E-14  -0.1231956519E-14  -0.2484158425E-14   0.6600000009E-01  -0.3298400005E-01  -0.3298400005E-01   0.6338037049E-16   0.5217925811E-16  -0.6073859192E-15   0.8000000011E+01
   0.1066000000E+01   0.9670160000E+00   0.9670160000E+00  -0.2250000000E-02   0.1122750000E-02   0.1122750000E-02   0.6825000000E-01  -0.3410675000E-01  -0.3410675000E-01   0.8000000011E+01   0.5638417369E-10   0.5637941781E-10   0.5829604747E-14   0.8956728787E-15   0.4182733534E-14   0.6600000009E-01  -0.3298400004E-01  -0.3298400004E-01  -0.6424755206E-15   0.6769329917E-15  -0.2161095083E-15   0.8000000010E+01
   0.0000000000E+00   0.9670160000E+00   0.9670160000E+00   0.0000000000E+00   0.1122750000E-02   0.1122750000E-02   0.0000000000E+00  -0.3410675000E-01  -0.3410675000E-01   0.8000000011E+01   0.1736779290E-09   0.1736648101E-09   0.5482196316E-14   0.2065374651E-13   0.2809381670E-14   0.6600000009E-01  -0.3298400004E-01  -0.3298400004E-01  -0.7156334722E-15  -0.1997861573E-14   0.1364970405E-14   0.8000000011E+01
   0.2132000000E+01   0.0000000000E+00  -0.4440714469E-14  -0.4500000000E-02   0.0000000000E+00   0.2430037073E-16   0.1365000000E+00   0.0000000000E+00  -0.4465014840E-14   0.8000000012E+01  -0.1029393294E-10  -0.1029272764E-10  -0.1166989500E-13  -0.7766357456E-14  -0.2773256677E-14   0.6600000010E-01  -0.3298400005E-01  -0.3298400005E-01   0.3678269248E-15   0.2784203687E-15   0.5772202785E-15   0.8000000012E+01
   0.2132000000E+01   0.9670160000E+00  -0.4151230906E-14  -0.4500000000E-02   0.1122750000E-02   0.2394344032E-16   0.1365000000E+00  -0.3410675000E-01  -0.4175174346E-14   0.8000000011E+01   0.6928047376E-11   0.6931438324E-11   0.9231641889E-14  -0.8054345867E-14   0.4640603754E-15   0.6600000009E-01  -0.3298400005E-01  -0.3298400005E-01   0.7159502833E-15  -0.1561365515E-15  -0.2271412858E-15   0.8000000011E+01
   0.2132000000E+01   0.0000000000E+00   0.9670160000E+00  -0.4500000000E-02   0.0000000000E+00   0.1122750000E-02   0.1365000000E+00   0.0000000000E+00  -0.3410675000E-01   0.8000000011E+01  -0.2280476307E-10  -0.2280863661E-10  -0.1124176743E-13   0.8336171826E-14  -0.1372729402E-14   0.6600000009E-01  -0.3298400005E-01  -0.3298400005E-01   0.1491860475E-15  -0.1345588633E-14   0.5890451954E-15   0.8000000011E+01
   0.2132000000E+01   0.9670160000E+00   0.9670160000E+00  -0.4500000000E-02   0.1122750000E-02   0.1122750000E-02   0.1365000000E+00  -0.3410675000E-01  -0.3410675000E-01   0.8000000010E+01  -0.2316145052E-10  -0.2316407228E-10   0.7401261002E-14   0.1004944107E-13   0.1996476742E-14   0.6600000008E-01  -0.3298400004E-01  -0.3298400004E-01  -0.5989165967E-15  -0.5467168259E-17  -0.2857300380E-15   0.8000000010E+01
     1     2     3     4     5     6     7     8
     2     9    10     3     6    11    12     7
 VARIABLES = X,Y,Z,DU1,DU2,DU3,U1,U2,U3,S11,S22,S33,S12,S13,S23,E11,E22,E33,E12,E13,E23,SMISES
 ZONE, T="0.1250D+01" F=FEPOINT, I=   12 J=    2 ET=BRICK
   0.0000000000E+00   0.0000000000E+00   0.0000000000E+00   0.0000000000E+00   0.0000000000E+00   0.0000000000E+00   0.0000000000E+00   0.0000000000E+00   0.0000000000E+00   0.6875000011E+01  -0.1862345853E-09  -0.1862261554E-09   0.1572799149E-16   0.1037166754E-13  -0.3014621677E-14   0.6375000010E-01  -0.3186125005E-01  -0.3186125005E-01   0.1170231526E-16  -0.3834843054E-14  -0.2360413963E-14   0.6875000011E+01
   0.1063750000E+01   0.0000000000E+00  -0.2024374741E-14  -0.2250000000E-02   0.0000000000E+00   0.1341403527E-17   0.6600000000E-01   0.0000000000E+00  -0.2025716145E-14   0.6875000011E+01  -0.3694307551E-10  -0.3693805112E-10  -0.6192613910E-14  -0.1486310056E-13  -0.3935468166E-14   0.6375000010E-01  -0.3186125005E-01  -0.3186125005E-01  -0.9337891122E-16  -0.4260895863E-15   0.2406329183E-15   0.6875000011E+01
   0.1063750000E+01   0.9681387500E+00  -0.1901734504E-14  -0.2250000000E-02   0.1122750000E-02   0.1658584076E-17   0.6600000000E-01  -0.3298400000E-01  -0.1903393088E-14   0.6875000010E+01  -0.6574904500E-10  -0.6573829313E-10   0.8642744821E-14  -0.1388379823E-13   0.2327990097E-14   0.6375000009E-01  -0.3186125005E-01  -0.3186125005E-01   0.4284508598E-15   0.1269093570E-14   0.6044941540E-15   0.6875000010E+01
   0.0000000000E+00   0.9681387500E+00  -0.1176695746E-14   0.0000000000E+00   0.1122750000E-02  -0.1039687175E-17   0.0000000000E+00  -0.3298400000E-01  -0.1175656059E-14   0.6875000010E+01  -0.1058656200E-09  -0.1058599646E-09   0.8665861578E-14   0.8563921809E-14   0.6790579333E-14   0.6375000009E-01  -0.3186125005E-01  -0.3186125005E-01   0.6632206761E-15  -0.7000206915E-15  -0.6797045417E-15   0.6875000010E+01
   0.0000000000E+00   0.0000000000E+00   0.9681387500E+00   0.0000000000E+00   0.0000000000E+00   0.1122750000E-02   0.0000000000E+00   0.0000000000E+00  -0.3298400000E-01   0.6875000010E+01   0.8349422994E-10   0.8348529468E-10  -0.1795532440E-15   0.1626986040E-13  -0.5346569568E-14   0.6375000009E-01  -0.3186125005E-01  -0.3186125005E-01   0.6378930603E-17  -0.1377887930E-14  -0.2576456816E-15   0.6875000010E+01
   0.1063750000E+01   0.0000000000E+00   0.9681387500E+00  -0.2250000000E-02   0.0000000000E+00   0.1122750000E-02   0.6600000000E-01   0.0000000000E+00  -0.3298400000E-01   0.6875000010E+01   0.8876821752E-10   0.8876284411E-10  -0.6113410258E-14  -0.9835777296E-15  -0.2585397195E-14   0.6375000009E-01  -0.3186125005E-01  -0.3186125005E-01   0.6757935267E-16   0.9807835504E-16  -0.5829599794E-15   0.6875000010E+01
   0.1063750000E+01   0.9681387500E+00   0.9681387500E+00  -0.2250000000E-02   0.1122750000E-02   0.1122750000E-02   0.6600000000E-01  -0.3298400000E-01  -0.3298400000E-01   0.6875000009E+01   0.5641078003E-10   0.5640573969E-10   0.5379123230E-14   0.2301685735E-15   0.4076326491E-14   0.6375000008E-01  -0.3186125004E-01  -0.3186125004E-01  -0.6409044608E-15   0.6570885670E-15  -0.2003802993E-15   0.6875000009E+01
   0.0000000000E+00   0.9681387500E+00   0.9681387500E+00   0.0000000000E+00   0.1122750000E-02   0.1122750000E-02   0.0000000000E+00  -0.3298400000E-01  -0.3298400000E-01   0.6875000009E+01   0.1735348079E-09   0.1735213763E-09   0.5209135538E-14   0.2088446320E-13   0.2693881803E-14   0.6375000009E-01  -0.3186125004E-01  -0.3186125004E-01  -0.7299468137E-15  -0.1995264513E-14   0.1369891954E-14   0.6875000009E+01
   0.2127500000E+01   0.0000000000E+00  -0.4436917850E-14  -0.4500000000E-02   0.0000000000E+00   0.3796619771E-17   0.1320000000E+00   0.0000000000E+00  -0.4440714469E-14   0.6875000010E+01  -0.1043544610E-10  -0.1043357321E-10  -0.1111479773E-13  -0.7536883493E-14  -0.2789777187E-14   0.6375000010E-01  -0.3186125005E-01  -0.3186125005E-01   0.3390011358E-15   0.3731253465E-15   0.5843706092E-15   0.6875000010E+01
   0.2127500000E+01   0.9681387500E+00  -0.4147650362E-14  -0.4500000000E-02   0.1122750000E-02   0.3580543970E-17   0.1320000000E+00  -0.3298400000E-01  -0.4151230906E-14   0.6875000010E+01   0.6497756049E-11   0.6501737301E-11   0.9278548303E-14  -0.7705594993E-14   0.9027504474E-15   0.6375000009E-01  -0.3186125004E-01  -0.3186125004E-01   0.7050095887E-15  -0.1411472640E-15  -0.2337639004E-15   0.6875000010E+01
   0.2127500000E+01   0.0000000000E+00   0.9681387500E+00  -0.4500000000E-02   0.0000000000E+00   0.1122750000E-02   0.1320000000E+00   0.0000000000E+00  -0.3298400000E-01   0.6875000010E+01  -0.2295758832E-10  -0.2296060888E-10  -0.1079493699E-13   0.8716366497E-14  -0.1515585330E-14   0.6375000009E-01  -0.3186125004E-01  -0.3186125004E-01   0.2010065052E-15  -0.1273834630E-14   0.5382527249E-15   0.6875000010E+01
   0.2127500000E+01   0.9681387500E+00   0.9681387500E+00  -0.4500000000E-02   0.1122750000E-02   0.1122750000E-02   0.1320000000E+00  -0.3298400000E-01  -0.3298400000E-01   0.6875000009E+01  -0.2278970468E-10  -0.2279276110E-10   0.7833605623E-14   0.9799858022E-14   0.2469659192E-14   0.6375000008E-01  -0.3186125004E-01  -0.3186125004E-01  -0.6175966237E-15   0.9272288114E-16  -0.2311735951E-15   0.6875000009E+01
     1     2     3     4     5     6     7     8
     2     9    10     3     6    11    12     7
 VARIABLES = X,Y,Z,DU1,DU2,DU3,U1,U2,U3,S11,S22,S33,S12,S13,S23,E11,E22,E33,E12,E13,E23,SMISES
 ZONE, T="0.1300D+01" F=FEPOINT, I=   12 J=    2 ET=BRICK
   0.0000000000E+00   0.0000000000E+00   0.0000000000E+00   0.0000000000E+00   0.0000000000E+00   0.0000000000E+00   0.0000000000E+00   0.0000000000E+00   0.0000000000E+00   0.5750000009E+01  -0.1864039177E-09  -0.1863958541E-09   0.3783867980E-16   0.9735588020E-14  -0.3283216368E-14   0.6150000010E-01  -0.3073850005E-01  -0.3073850005E-01  -0.9497131978E-17  -0.3871010316E-14  -0.2353067733E-14   0.5750000009E+01
   0.1061500000E+01   0.0000000000E+00  -0.2027537401E-14  -0.2250000000E-02   0.0000000000E+00  -0.3162659829E-17   0.6375000000E-01   0.0000000000E+00  -0.2024374741E-14   0.5750000009E+01  -0.3678740890E-10  -0.3678236963E-10  -0.7023182059E-14  -0.1536009528E-13  -0.3797021484E-14   0.6150000009E-01  -0.3073850005E-01  -0.3073850005E-01  -0.7510647859E-16  -0.3650328048E-15   0.2409510273E-15   0.5750000009E+01
   0.1061500000E+01   0.9692615000E+00  -0.1904085790E-14  -0.2250000000E-02   0.1122750000E-02  -0.2351285541E-17   0.6375000000E-01  -0.3186125000E-01  -0.1901734504E-14   0.5750000008E+01  -0.6597081045E-10  -0.6596018448E-10   0.8324713866E-14  -0.1328395486E-13   0.2476832528E-14   0.6150000009E-01  -0.3073850004E-01  -0.3073850004E-01   0.4368754852E-15   0.1255240132E-14   0.6074867939E-15   0.5750000008E+01
   0.0000000000E+00   0.9692615000E+00  -0.1178293598E-14   0.0000000000E+00   0.1122750000E-02  -0.1597851852E-17   0.0000000000E+00  -0.3186125000E-01  -0.1176695746E-14   0.5750000008E+01  -0.1062921543E-09  -0.1062858849E-09   0.8855816964E-14   0.8494292262E-14   0.6797208504E-14   0.6150000009E-01  -0.3073850004E-01  -0.3073850004E-01   0.6707059639E-15  -0.6892943085E-15  -0.6897837796E-15   0.5750000008E+01
   0.0000000000E+00   0.0000000000E+00   0.9692615000E+00   0.0000000000E+00   0.0000000000E+00   0.1122750000E-02   0.0000000000E+00   0.0000000000E+00  -0.3186125000E-01   0.5750000008E+01   0.8341068007E-10   0.8340086260E-10  -0.1686511599E-15   0.1623625023E-13  -0.5261992147E-14   0.6150000009E-01  -0.3073850004E-01  -0.3073850004E-01   0.5935990693E-17  -0.1360646828E-14  -0.3036647165E-15   0.5750000008E+01
   0.1061500000E+01   0.0000000000E+00   0.9692615000E+00  -0.2250000000E-02   0.0000000000E+00   0.1122750000E-02   0.6375000000E-01   0.0000000000E+00  -0.3186125000E-01   0.5750000008E+01   0.8867175089E-10   0.8866651427E-10  -0.6004101187E-14  -0.1239613998E-14  -0.2479322234E-14   0.6150000009E-01  -0.3073850004E-01  -0.3073850004E-01   0.7569737746E-16   0.8336596367E-16  -0.5672239790E-15   0.5750000008E+01
   0.1061500000E+01   0.9692615000E+00   0.9692615000E+00  -0.2250000000E-02   0.1122750000E-02   0.1122750000E-02   0.6375000000E-01  -0.3186125000E-01  -0.3186125000E-01   0.5750000008E+01   0.5647844805E-10   0.5647340373E-10   0.5600042402E-14   0.9733239604E-15   0.4207666985E-14   0.6150000008E-01  -0.3073850004E-01  -0.3073850004E-01  -0.6490004273E-15   0.6751101558E-15  -0.2454680576E-15   0.5750000008E+01
   0.0000000000E+00   0.9692615000E+00   0.9692615000E+00   0.0000000000E+00   0.1122750000E-02   0.1122750000E-02   0.0000000000E+00  -0.3186125000E-01  -0.3186125000E-01   0.5750000008E+01   0.1737354117E-09   0.1737220781E-09   0.5290128892E-14   0.2078251229E-13   0.3095515961E-14   0.6150000008E-01  -0.3073850004E-01  -0.3073850004E-01  -0.7149609990E-15  -0.1981000173E-14   0.1412673518E-14   0.5750000008E+01
   0.2123000000E+01   0.0000000000E+00  -0.4440957492E-14  -0.4500000000E-02   0.0000000000E+00  -0.4039642904E-17   0.1275000000E+00   0.0000000000E+00  -0.4436917850E-14   0.5750000009E+01  -0.9911175333E-11  -0.9910482512E-11  -0.1276930845E-13  -0.9034112280E-14  -0.2792940956E-14   0.6150000009E-01  -0.3073850005E-01  -0.3073850005E-01   0.3032076350E-15   0.3090875817E-15   0.5905948611E-15   0.5750000009E+01
   0.2123000000E+01   0.9692615000E+00  -0.4151637411E-14  -0.4500000000E-02   0.1122750000E-02  -0.3987049602E-17   0.1275000000E+00  -0.3186125000E-01  -0.4147650362E-14   0.5750000008E+01   0.6794814941E-11   0.6797686504E-11   0.8525292604E-14  -0.6823838864E-14   0.2093209466E-15   0.6150000009E-01  -0.3073850004E-01  -0.3073850004E-01   0.6389380518E-15  -0.1594561978E-15  -0.2640261780E-15   0.5750000008E+01
   0.2123000000E+01   0.0000000000E+00   0.9692615000E+00  -0.4500000000E-02   0.0000000000E+00   0.1122750000E-02   0.1275000000E+00   0.0000000000E+00  -0.3186125000E-01   0.5750000008E+01  -0.2334910595E-10  -0.2335188069E-10  -0.1002568672E-13   0.7415817619E-14  -0.1468369329E-14   0.6150000009E-01  -0.3073850004E-01  -0.3073850004E-01   0.1598140674E-15  -0.1274030080E-14   0.5603486781E-15   0.5750000008E+01
   0.2123000000E+01   0.9692615000E+00   0.9692615000E+00  -0.4500000000E-02   0.1122750000E-02   0.1122750000E-02   0.1275000000E+00  -0.3186125000E-01  -0.3186125000E-01   0.5750000007E+01  -0.2286665631E-10  -0.2286939653E-10   0.8383051789E-14   0.1079522335E-13   0.1673614644E-14   0.6150000008E-01  -0.3073850004E-01  -0.3073850004E-01  -0.5562224618E-15   0.7518287667E-16  -0.2370315877E-15   0.5750000007E+01
     1     2     3     4     5     6     7     8
     2     9    10     3     6    11    12     7
 VARIABLES = X,Y,Z,DU1,DU2,DU3,U1,U2,U3,S11,S22,S33,S12,S13,S23,E11,E22,E33,E12,E13,E23,SMISES
 ZONE, T="0.1350D+01" F=FEPOINT, I=   12 J=    2 ET=BRICK
   0.0000000000E+00   0.0000000000E+00   0.0000000000E+00   0.0000000000E+00   0.0000000000E+00   0.0000000000E+00   0.0000000000E+00   0.0000000000E+00   0.0000000000E+00   0.4625000007E+01  -0.1856690118E-09  -0.1856614438E-09   0.5469077084E-16   0.1077478805E-13  -0.2776918111E-14   0.5925000009E-01  -0.2961575005E-01  -0.2961575005E-01  -0.1522415885E-17  -0.3836953554E-14  -0.2353576847E-14   0.4625000007E+01
   0.1059250000E+01   0.0000000000E+00  -0.2021336228E-14  -0.2250000000E-02   0.0000000000E+00   0.6201173198E-17   0.6150000000E-01   0.0000000000E+00  -0.2027537401E-14   0.4625000007E+01  -0.3696913983E-10  -0.3696428196E-10  -0.6822207082E-14  -0.1545790117E-13  -0.4009693445E-14   0.5925000009E-01  -0.2961575005E-01  -0.2961575005E-01  -0.8560116090E-16  -0.4411393625E-15   0.2432810377E-15   0.4625000007E+01
   0.1059250000E+01   0.9703842500E+00  -0.1899201849E-14  -0.2250000000E-02   0.1122750000E-02   0.4883941305E-17   0.6150000000E-01  -0.3073850000E-01  -0.1904085790E-14   0.4625000007E+01  -0.6560965715E-10  -0.6559926412E-10   0.8030535812E-14  -0.1393820963E-13   0.2224614114E-14   0.5925000008E-01  -0.2961575004E-01  -0.2961575004E-01   0.4206577748E-15   0.1272383018E-14   0.5946432379E-15   0.4625000007E+01
   0.0000000000E+00   0.9703842500E+00  -0.1175392614E-14   0.0000000000E+00   0.1122750000E-02   0.2900984263E-17   0.0000000000E+00  -0.3073850000E-01  -0.1178293598E-14   0.4625000007E+01  -0.1058021671E-09  -0.1057966560E-09   0.8567618942E-14   0.8619354113E-14   0.6669728426E-14   0.5925000009E-01  -0.2961575004E-01  -0.2961575004E-01   0.6650604128E-15  -0.6990533363E-15  -0.6564716024E-15   0.4625000007E+01
   0.0000000000E+00   0.0000000000E+00   0.9703842500E+00   0.0000000000E+00   0.0000000000E+00   0.1122750000E-02   0.0000000000E+00   0.0000000000E+00  -0.3073850000E-01   0.4625000007E+01   0.8285117265E-10   0.8284257391E-10  -0.1620793166E-15   0.1700226478E-13  -0.5013197308E-14   0.5925000009E-01  -0.2961575004E-01  -0.2961575004E-01   0.6006899025E-17  -0.1355476232E-14  -0.2938037104E-15   0.4625000007E+01
   0.1059250000E+01   0.0000000000E+00   0.9703842500E+00  -0.2250000000E-02   0.0000000000E+00   0.1122750000E-02   0.6150000000E-01   0.0000000000E+00  -0.3073850000E-01   0.4625000007E+01   0.8880510343E-10   0.8879956349E-10  -0.5999214885E-14  -0.1704544491E-14  -0.2626769900E-14   0.5925000008E-01  -0.2961575004E-01  -0.2961575004E-01   0.7831567953E-16   0.7870991222E-16  -0.5687551366E-15   0.4625000007E+01
   0.1059250000E+01   0.9703842500E+00   0.9703842500E+00  -0.2250000000E-02   0.1122750000E-02   0.1122750000E-02   0.6150000000E-01  -0.3073850000E-01  -0.3073850000E-01   0.4625000006E+01   0.5639592584E-10   0.5639110356E-10   0.5723158300E-14   0.1786463391E-15   0.4085613693E-14   0.5925000008E-01  -0.2961575004E-01  -0.2961575004E-01  -0.6413711793E-15   0.5981556168E-15  -0.2041727089E-15   0.4625000006E+01
   0.0000000000E+00   0.9703842500E+00   0.9703842500E+00   0.0000000000E+00   0.1122750000E-02   0.1122750000E-02   0.0000000000E+00  -0.3073850000E-01  -0.3073850000E-01   0.4625000006E+01   0.1731490714E-09   0.1731356175E-09   0.5585115432E-14   0.2112816677E-13   0.2618171211E-14   0.5925000008E-01  -0.2961575004E-01  -0.2961575004E-01  -0.6975389765E-15  -0.1950693831E-14   0.1321476517E-14   0.4625000006E+01
   0.2118500000E+01   0.0000000000E+00  -0.4429312116E-14  -0.4500000000E-02   0.0000000000E+00   0.1164537635E-16   0.1230000000E+00   0.0000000000E+00  -0.4440957492E-14   0.4625000007E+01  -0.1121744764E-10  -0.1121581512E-10  -0.1076591997E-13  -0.7039621551E-14  -0.2888995707E-14   0.5925000009E-01  -0.2961575004E-01  -0.2961575004E-01   0.3595726815E-15   0.3715453873E-15   0.5770421375E-15   0.4625000007E+01
   0.2118500000E+01   0.9703842500E+00  -0.4140428545E-14  -0.4500000000E-02   0.1122750000E-02   0.1120886603E-16   0.1230000000E+00  -0.3073850000E-01  -0.4151637411E-14   0.4625000006E+01   0.6601338690E-11   0.6605131097E-11   0.9634357914E-14  -0.7452027538E-14   0.9447325850E-15   0.5925000008E-01  -0.2961575004E-01  -0.2961575004E-01   0.7084339440E-15  -0.9094737077E-16  -0.2046865555E-15   0.4625000006E+01
   0.2118500000E+01   0.0000000000E+00   0.9703842500E+00  -0.4500000000E-02   0.0000000000E+00   0.1122750000E-02   0.1230000000E+00   0.0000000000E+00  -0.3073850000E-01   0.4625000006E+01  -0.2256899286E-10  -0.2257229841E-10  -0.1120295223E-13   0.9494725076E-14  -0.1383358275E-14   0.5925000008E-01  -0.2961575004E-01  -0.2961575004E-01   0.1723067500E-15  -0.1254128304E-14   0.5587268684E-15   0.4625000006E+01
   0.2118500000E+01   0.9703842500E+00   0.9703842500E+00  -0.4500000000E-02   0.1122750000E-02   0.1122750000E-02   0.1230000000E+00  -0.3073850000E-01  -0.3073850000E-01   0.4625000006E+01  -0.2270588964E-10  -0.2270925681E-10   0.7244240918E-14   0.9811689543E-14   0.2518661149E-14   0.5925000008E-01  -0.2961575004E-01  -0.2961575004E-01  -0.5892562118E-15   0.6565769461E-16  -0.2662118837E-15   0.4625000006E+01
     1     2     3     4     5     6     7     8
     2     9    10     3     6    11    12     7
 VARIABLES = X,Y,Z,DU1,DU2,DU3,U1,U2,U3,S11,S22,S33,S12,S13,S23,E11,E22,E33,E12,E13,E23,SMISES
 ZONE, T="0.1400D+01" F=FEPOINT, I=   12 J=    2 ET=BRICK
   0.0000000000E+00   0.0000000000E+00   0.0000000000E+00   0.0000000000E+00   0.0000000000E+00   0.0000000000E+00   0.0000000000E+00   0.0000000000E+00   0.0000000000E+00   0.3500000005E+01  -0.1862923284E-09  -0.1862841456E-09   0.5626269099E-16   0.1033473375E-13  -0.3072328615E-14   0.5700000009E-01  -0.2849300004E-01  -0.2849300004E-01  -0.6846395391E-17  -0.3871238816E-14  -0.2353393440E-14   0.3500000005E+01
   0.1057000000E+01   0.0000000000E+00  -0.2025289826E-14  -0.2250000000E-02   0.0000000000E+00  -0.3953598109E-17   0.5925000000E-01   0.0000000000E+00  -0.2021336228E-14   0.3500000005E+01  -0.3712955498E-10  -0.3712451026E-10  -0.6314285054E-14  -0.1510509259E-13  -0.4032794106E-14   0.5700000009E-01  -0.2849300004E-01  -0.2849300004E-01  -0.5792564593E-16  -0.3421490336E-15   0.2419143957E-15   0.3500000005E+01
   0.1057000000E+01   0.9715070000E+00  -0.1903212292E-14  -0.2250000000E-02   0.1122750000E-02  -0.4010443389E-17   0.5925000000E-01  -0.2961575000E-01  -0.1899201849E-14   0.3500000005E+01  -0.6603384488E-10  -0.6602297655E-10   0.8756041448E-14  -0.1403526895E-13   0.2470438510E-14   0.5700000008E-01  -0.2849300004E-01  -0.2849300004E-01   0.4510899498E-15   0.1200941128E-14   0.6205022544E-15   0.3500000005E+01
   0.0000000000E+00   0.9715070000E+00  -0.1177087843E-14   0.0000000000E+00   0.1122750000E-02  -0.1695229389E-17   0.0000000000E+00  -0.2961575000E-01  -0.1175392614E-14   0.3500000005E+01  -0.1059998417E-09  -0.1059940265E-09   0.8516745694E-14   0.8516238059E-14   0.6877757468E-14   0.5700000008E-01  -0.2849300004E-01  -0.2849300004E-01   0.6359761181E-15  -0.6814038930E-15  -0.6886782011E-15   0.3500000005E+01
   0.0000000000E+00   0.0000000000E+00   0.9715070000E+00   0.0000000000E+00   0.0000000000E+00   0.1122750000E-02   0.0000000000E+00   0.0000000000E+00  -0.2961575000E-01   0.3500000005E+01   0.8338853012E-10   0.8337908165E-10  -0.1495219751E-15   0.1654732197E-13  -0.5231966897E-14   0.5700000008E-01  -0.2849300004E-01  -0.2849300004E-01   0.8661145286E-17  -0.1370558284E-14  -0.3177127137E-15   0.3500000005E+01
   0.1057000000E+01   0.0000000000E+00   0.9715070000E+00  -0.2250000000E-02   0.0000000000E+00   0.1122750000E-02   0.5925000000E-01   0.0000000000E+00  -0.2961575000E-01   0.3500000005E+01   0.8895702996E-10   0.8895105536E-10  -0.6132112402E-14  -0.1300043712E-14  -0.2718640967E-14   0.5700000008E-01  -0.2849300004E-01  -0.2849300004E-01   0.7421072576E-16   0.7438014071E-16  -0.5722638317E-15   0.3500000005E+01
   0.1057000000E+01   0.9715070000E+00   0.9715070000E+00  -0.2250000000E-02   0.1122750000E-02   0.1122750000E-02   0.5925000000E-01  -0.2961575000E-01  -0.2961575000E-01   0.3500000005E+01   0.5666323179E-10   0.5665814139E-10   0.5489280801E-14   0.3320049182E-15   0.4241089937E-14   0.5700000007E-01  -0.2849300004E-01  -0.2849300004E-01  -0.6696195170E-15   0.6545474925E-15  -0.2303060921E-15   0.3500000005E+01
   0.0000000000E+00   0.9715070000E+00   0.9715070000E+00   0.0000000000E+00   0.1122750000E-02   0.1122750000E-02   0.0000000000E+00  -0.2961575000E-01  -0.2961575000E-01   0.3500000005E+01   0.1735961787E-09   0.1735824132E-09   0.5352319382E-14   0.2064421353E-13   0.2941432823E-14   0.5700000008E-01  -0.2849300004E-01  -0.2849300004E-01  -0.6999251368E-15  -0.1951958332E-14   0.1385418462E-14   0.3500000005E+01
   0.2114000000E+01   0.0000000000E+00  -0.4441789902E-14  -0.4500000000E-02   0.0000000000E+00  -0.1247778579E-16   0.1185000000E+00   0.0000000000E+00  -0.4429312116E-14   0.3500000005E+01  -0.1062237027E-10  -0.1062092732E-10  -0.1181807382E-13  -0.8100252963E-14  -0.2971202695E-14   0.5700000009E-01  -0.2849300004E-01  -0.2849300004E-01   0.3532470824E-15   0.2908106672E-15   0.5768487884E-15   0.3500000005E+01
   0.2114000000E+01   0.9715070000E+00  -0.4153341190E-14  -0.4500000000E-02   0.1122750000E-02  -0.1291264418E-16   0.1185000000E+00  -0.2961575000E-01  -0.4140428545E-14   0.3500000005E+01   0.6352718625E-11   0.6356299147E-11   0.8996047193E-14  -0.6969555435E-14   0.7384874955E-15   0.5700000008E-01  -0.2849300004E-01  -0.2849300004E-01   0.7188038695E-15  -0.5136580693E-16  -0.2303837814E-15   0.3500000005E+01
   0.2114000000E+01   0.0000000000E+00   0.9715070000E+00  -0.4500000000E-02   0.0000000000E+00   0.1122750000E-02   0.1185000000E+00   0.0000000000E+00  -0.2961575000E-01   0.3500000005E+01  -0.2267153288E-10  -0.2267438417E-10  -0.1052888003E-13   0.8578550232E-14  -0.1363534221E-14   0.5700000008E-01  -0.2849300004E-01  -0.2849300004E-01   0.1265872100E-15  -0.1262425635E-14   0.5555889068E-15   0.3500000005E+01
   0.2114000000E+01   0.9715070000E+00   0.9715070000E+00  -0.4500000000E-02   0.1122750000E-02   0.1122750000E-02   0.1185000000E+00  -0.2961575000E-01  -0.2961575000E-01   0.3500000004E+01  -0.2237908462E-10  -0.2238195890E-10   0.7964277578E-14   0.1077325792E-13   0.2344438879E-14   0.5700000007E-01  -0.2849300004E-01  -0.2849300004E-01  -0.6103090421E-15   0.2811588080E-16  -0.2407873317E-15   0.3500000004E+01
     1     2     3     4     5     6     7     8
     2     9    10     3     6    11    12     7
 VARIABLES = X,Y,Z,DU1,DU2,DU3,U1,U2,U3,S11,S22,S33,S12,S13,S23,E11,E22,E33,E12,E13,E23,SMISES
 ZONE, T="0.1450D+01" F=FEPOINT, I=   12 J=    2 ET=BRICK
   0.0000000000E+00   0.0000000000E+00   0.0000000000E+00   0.0000000000E+00   0.0000000000E+00   0.0000000000E+00   0.0000000000E+00   0.0000000000E+00   0.0000000000E+00   0.2375000004E+01  -0.1862701557E-09  -0.1862621574E-09   0.6659700028E-16   0.1029168072E-13  -0.2867615790E-14   0.5475000009E-01  -0.2737025004E-01  -0.2737025004E-01   0.8236602881E-17  -0.3848490160E-14  -0.2362837873E-14   0.2375000004E+01
   0.1054750000E+01   0.0000000000E+00  -0.2024836527E-14  -0.2250000000E-02   0.0000000000E+00   0.4532992051E-18   0.5700000000E-01   0.0000000000E+00  -0.2025289826E-14   0.2375000004E+01  -0.3703493983E-10  -0.3702984977E-10  -0.6099028891E-14  -0.1484768407E-13  -0.3923020643E-14   0.5475000008E-01  -0.2737025004E-01  -0.2737025004E-01  -0.7943298356E-16  -0.4064154027E-15   0.2520052589E-15   0.2375000004E+01
   0.1054750000E+01   0.9726297500E+00  -0.1902045132E-14  -0.2250000000E-02   0.1122750000E-02   0.1167160381E-17   0.5700000000E-01  -0.2849300000E-01  -0.1903212292E-14   0.2375000003E+01  -0.6585075834E-10  -0.6583989273E-10   0.8922687378E-14  -0.1419981337E-13   0.2426682723E-14   0.5475000008E-01  -0.2737025004E-01  -0.2737025004E-01   0.4359007835E-15   0.1294735685E-14   0.5967754494E-15   0.2375000003E+01
   0.0000000000E+00   0.9726297500E+00  -0.1176048449E-14   0.0000000000E+00   0.1122750000E-02   0.1039394250E-17   0.0000000000E+00  -0.2849300000E-01  -0.1177087843E-14   0.2375000003E+01  -0.1058623024E-09  -0.1058571414E-09   0.8489361078E-14   0.8459359233E-14   0.6735408262E-14   0.5475000008E-01  -0.2737025004E-01  -0.2737025004E-01   0.6536381095E-15  -0.7014542773E-15  -0.6538205580E-15   0.2375000003E+01
   0.0000000000E+00   0.0000000000E+00   0.9726297500E+00   0.0000000000E+00   0.0000000000E+00   0.1122750000E-02   0.0000000000E+00   0.0000000000E+00  -0.2849300000E-01   0.2375000004E+01   0.8342900644E-10   0.8341991816E-10  -0.1267503415E-15   0.1660842129E-13  -0.5286622183E-14   0.5475000008E-01  -0.2737025004E-01  -0.2737025004E-01  -0.4488585295E-17  -0.1356860701E-14  -0.3037968210E-15   0.2375000003E+01
   0.1054750000E+01   0.0000000000E+00   0.9726297500E+00  -0.2250000000E-02   0.0000000000E+00   0.1122750000E-02   0.5700000000E-01   0.0000000000E+00  -0.2849300000E-01   0.2375000003E+01   0.8888407132E-10   0.8887870608E-10  -0.6285163299E-14  -0.8307266542E-15  -0.2679685779E-14   0.5475000008E-01  -0.2737025004E-01  -0.2737025004E-01   0.8882639313E-16   0.1027385394E-15  -0.5797385300E-15   0.2375000003E+01
   0.1054750000E+01   0.9726297500E+00   0.9726297500E+00  -0.2250000000E-02   0.1122750000E-02   0.1122750000E-02   0.5700000000E-01  -0.2849300000E-01  -0.2849300000E-01   0.2375000003E+01   0.5640812773E-10   0.5640308267E-10   0.5465449170E-14   0.2083198005E-15   0.4091591635E-14   0.5475000007E-01  -0.2737025004E-01  -0.2737025004E-01  -0.6504696857E-15   0.6331319143E-15  -0.2002145455E-15   0.2375000003E+01
   0.0000000000E+00   0.9726297500E+00   0.9726297500E+00   0.0000000000E+00   0.1122750000E-02   0.1122750000E-02   0.0000000000E+00  -0.2849300000E-01  -0.2849300000E-01   0.2375000003E+01   0.1734002197E-09   0.1733864972E-09   0.5381915023E-14   0.2081938466E-13   0.2649308751E-14   0.5475000007E-01  -0.2737025004E-01  -0.2737025004E-01  -0.7040458142E-15  -0.1969834682E-14   0.1350819541E-14   0.2375000003E+01
   0.2109500000E+01   0.0000000000E+00  -0.4438229910E-14  -0.4500000000E-02   0.0000000000E+00   0.3559991856E-17   0.1140000000E+00   0.0000000000E+00  -0.4441789902E-14   0.2375000004E+01  -0.1052901906E-10  -0.1052720476E-10  -0.1137101844E-13  -0.7762933702E-14  -0.2907462794E-14   0.5475000008E-01  -0.2737025004E-01  -0.2737025004E-01   0.3869977143E-15   0.3066158487E-15   0.5687030683E-15   0.2375000004E+01
   0.2109500000E+01   0.9726297500E+00  -0.4149401896E-14  -0.4500000000E-02   0.1122750000E-02   0.3939293949E-17   0.1140000000E+00  -0.2849300000E-01  -0.4153341190E-14   0.2375000003E+01   0.6507313016E-11   0.6510939521E-11   0.9328386950E-14  -0.7723022155E-14   0.9035018677E-15   0.5475000008E-01  -0.2737025004E-01  -0.2737025004E-01   0.7629781315E-15  -0.1358626757E-15  -0.2152207392E-15   0.2375000003E+01
   0.2109500000E+01   0.0000000000E+00   0.9726297500E+00  -0.4500000000E-02   0.0000000000E+00   0.1122750000E-02   0.1140000000E+00   0.0000000000E+00  -0.2849300000E-01   0.2375000003E+01  -0.2287734297E-10  -0.2288027146E-10  -0.1082220248E-13   0.8531216773E-14  -0.1360350795E-14   0.5475000008E-01  -0.2737025004E-01  -0.2737025004E-01   0.1657188743E-15  -0.1288576646E-14   0.5645433036E-15   0.2375000003E+01
   0.2109500000E+01   0.9726297500E+00   0.9726297500E+00  -0.4500000000E-02   0.1122750000E-02   0.1122750000E-02   0.1140000000E+00  -0.2849300000E-01  -0.2849300000E-01   0.2375000003E+01  -0.2271308331E-10  -0.2271581374E-10   0.7920034496E-14   0.1007537649E-13   0.2375231542E-14   0.5475000007E-01  -0.2737025004E-01  -0.2737025004E-01  -0.5844334929E-15   0.2095303416E-16  -0.2654682118E-15   0.2375000003E+01
     1     2     3     4     5     6     7     8
     2     9    10     3     6    11    12     7
 VARIABLES = X,Y,Z,DU1,DU2,DU3,U1,U2,U3,S11,S22,S33,S12,S13,S23,E11,E22,E33,E12,E13,E23,SMISES
 ZONE, T="0.1500D+01" F=FEPOINT, I=   12 J=    2 ET=BRICK
   0.0000000000E+00   0.0000000000E+00   0.0000000000E+00   0.0000000000E+00   0.0000000000E+00   0.0000000000E+00   0.0000000000E+00   0.0000000000E+00   0.0000000000E+00   0.1250000002E+01  -0.1866604546E-09  -0.1866520865E-09   0.9792608146E-16   0.9934923794E-14  -0.3135291873E-14   0.5250000008E-01  -0.2624750004E-01  -0.2624750004E-01  -0.1162038373E-17  -0.3872267062E-14  -0.2344093959E-14   0.1250000002E+01
   0.1052500000E+01   0.0000000000E+00  -0.2028241613E-14  -0.2250000000E-02   0.0000000000E+00  -0.3405085799E-17   0.5475000000E-01   0.0000000000E+00  -0.2024836527E-14   0.1250000002E+01  -0.3729134036E-10  -0.3728620321E-10  -0.6314375797E-14  -0.1476351091E-13  -0.4091289802E-14   0.5250000008E-01  -0.2624750004E-01  -0.2624750004E-01  -0.5801113020E-16  -0.3462609183E-15   0.2421816314E-15   0.1250000002E+01
   0.1052500000E+01   0.9737525000E+00  -0.1906423864E-14  -0.2250000000E-02   0.1122750000E-02  -0.4378732513E-17   0.5475000000E-01  -0.2737025000E-01  -0.1902045132E-14   0.1250000002E+01  -0.6623218191E-10  -0.6622104173E-10   0.8953959138E-14  -0.1374807665E-13   0.2445155932E-14   0.5250000007E-01  -0.2624750004E-01  -0.2624750004E-01   0.4398714539E-15   0.1204841695E-14   0.5959316078E-15   0.1250000002E+01
   0.0000000000E+00   0.9737525000E+00  -0.1177728716E-14   0.0000000000E+00   0.1122750000E-02  -0.1680266747E-17   0.0000000000E+00  -0.2737025000E-01  -0.1176048449E-14   0.1250000002E+01  -0.1061971968E-09  -0.1061912525E-09   0.8404880354E-14   0.8191986900E-14   0.6798708523E-14   0.5250000008E-01  -0.2624750004E-01  -0.2624750004E-01   0.6587161353E-15  -0.6839330060E-15  -0.6797629552E-15   0.1250000002E+01
   0.0000000000E+00   0.0000000000E+00   0.9737525000E+00   0.0000000000E+00   0.0000000000E+00   0.1122750000E-02   0.0000000000E+00   0.0000000000E+00  -0.2737025000E-01   0.1250000002E+01   0.8387129635E-10   0.8386173662E-10  -0.1507622191E-15   0.1604705983E-13  -0.5321976504E-14   0.5250000008E-01  -0.2624750004E-01  -0.2624750004E-01  -0.2629315257E-17  -0.1367757456E-14  -0.3330136487E-15   0.1250000002E+01
   0.1052500000E+01   0.0000000000E+00   0.9737525000E+00  -0.2250000000E-02   0.0000000000E+00   0.1122750000E-02   0.5475000000E-01   0.0000000000E+00  -0.2737025000E-01   0.1250000002E+01   0.8910681412E-10   0.8910107617E-10  -0.6168032805E-14  -0.7901511545E-15  -0.2761028057E-14   0.5250000007E-01  -0.2624750004E-01  -0.2624750004E-01   0.7298355085E-16   0.8622540356E-16  -0.5582769960E-15   0.1250000002E+01
   0.1052500000E+01   0.9737525000E+00   0.9737525000E+00  -0.2250000000E-02   0.1122750000E-02   0.1122750000E-02   0.5475000000E-01  -0.2737025000E-01  -0.2737025000E-01   0.1250000002E+01   0.5656003180E-10   0.5655469731E-10   0.5375504329E-14   0.4827303199E-15   0.4212722904E-14   0.5250000007E-01  -0.2624750003E-01  -0.2624750003E-01  -0.6331807859E-15   0.6649768479E-15  -0.2260578386E-15   0.1250000002E+01
   0.0000000000E+00   0.9737525000E+00   0.9737525000E+00   0.0000000000E+00   0.1122750000E-02   0.1122750000E-02   0.0000000000E+00  -0.2737025000E-01  -0.2737025000E-01   0.1250000002E+01   0.1740330479E-09   0.1740192866E-09   0.5150220553E-14   0.2017632141E-13   0.3052673112E-14   0.5250000007E-01  -0.2624750004E-01  -0.2624750004E-01  -0.7162232720E-15  -0.1970054590E-14   0.1417160526E-14   0.1250000002E+01
   0.2105000000E+01   0.0000000000E+00  -0.4451073045E-14  -0.4500000000E-02   0.0000000000E+00  -0.1284313469E-16   0.1095000000E+00   0.0000000000E+00  -0.4438229910E-14   0.1250000002E+01  -0.1024152239E-10  -0.1023988764E-10  -0.1203505378E-13  -0.8127900063E-14  -0.2731709884E-14   0.5250000008E-01  -0.2624750004E-01  -0.2624750004E-01   0.3547135898E-15   0.3458471326E-15   0.5807144941E-15   0.1250000002E+01
   0.2105000000E+01   0.9737525000E+00  -0.4161193090E-14  -0.4500000000E-02   0.1122750000E-02  -0.1179119465E-16   0.1095000000E+00  -0.2737025000E-01  -0.4149401896E-14   0.1250000002E+01   0.6381400718E-11   0.6384267797E-11   0.9028867064E-14  -0.7223779507E-14   0.1003995324E-14   0.5250000007E-01  -0.2624750004E-01  -0.2624750004E-01   0.7268834159E-15  -0.8968700360E-16  -0.2336983356E-15   0.1250000002E+01
   0.2105000000E+01   0.0000000000E+00   0.9737525000E+00  -0.4500000000E-02   0.0000000000E+00   0.1122750000E-02   0.1095000000E+00   0.0000000000E+00  -0.2737025000E-01   0.1250000002E+01  -0.2251814997E-10  -0.2252121166E-10  -0.1134442731E-13   0.8320766651E-14  -0.1401491941E-14   0.5250000007E-01  -0.2624750004E-01  -0.2624750004E-01   0.1514375371E-15  -0.1249855068E-14   0.5504472238E-15   0.1250000002E+01
   0.2105000000E+01   0.9737525000E+00   0.9737525000E+00  -0.4500000000E-02   0.1122750000E-02   0.1122750000E-02   0.1095000000E+00  -0.2737025000E-01  -0.2737025000E-01   0.1250000002E+01  -0.2279464123E-10  -0.2279781562E-10   0.7686815227E-14   0.1010427791E-13   0.2194261214E-14   0.5250000007E-01  -0.2624750003E-01  -0.2624750003E-01  -0.5951674205E-15   0.4103524327E-16  -0.2497045606E-15   0.1250000002E+01
     1     2     3     4     5     6     7     8
     2     9    10     3     6    11    12     7
 VARIABLES = X,Y,Z,DU1,DU2,DU3,U1,U2,U3,S11,S22,S33,S12,S13,S23,E11,E22,E33,E12,E13,E23,SMISES
 ZONE, T="0.1550D+01" F=FEPOINT, I=   12 J=    2 ET=BRICK
   0.0000000000E+00   0.0000000000E+00   0.0000000000E+00   0.0000000000E+00   0.0000000000E+00   0.0000000000E+00   0.0000000000E+00   0.0000000000E+00   0.0000000000E+00   0.1250000000E+00  -0.1865263286E-09  -0.1865180962E-09   0.1348625629E-15   0.1005196165E-13  -0.3134798284E-14   0.5025000008E-01  -0.2512475004E-01  -0.2512475004E-01  -0.3257589368E-17  -0.3848323519E-14  -0.2363838969E-14   0.1250000002E+00
   0.1050250000E+01   0.0000000000E+00  -0.2027320525E-14  -0.2250000000E-02   0.0000000000E+00   0.9210876422E-18   0.5250000000E-01   0.0000000000E+00  -0.2028241613E-14   0.1250000002E+00  -0.3726279362E-10  -0.3725770972E-10  -0.6375369243E-14  -0.1489371124E-13  -0.4026556382E-14   0.5025000008E-01  -0.2512475004E-01  -0.2512475004E-01  -0.8798270118E-16  -0.4134179401E-15   0.2426344299E-15   0.1250000002E+00
   0.1050250000E+01   0.9748752500E+00  -0.1905073478E-14  -0.2250000000E-02   0.1122750000E-02   0.1350385776E-17   0.5250000000E-01  -0.2624750000E-01  -0.1906423864E-14   0.1250000001E+00  -0.6617226529E-10  -0.6616136115E-10   0.8785889519E-14  -0.1381032249E-13   0.2476288365E-14   0.5025000007E-01  -0.2512475004E-01  -0.2512475004E-01   0.4311515955E-15   0.1266491323E-14   0.6038326456E-15   0.1250000002E+00
   0.0000000000E+00   0.9748752500E+00  -0.1177754827E-14   0.0000000000E+00   0.1122750000E-02  -0.2611172710E-19   0.0000000000E+00  -0.2624750000E-01  -0.1177728716E-14   0.1250000001E+00  -0.1061229134E-09  -0.1061170605E-09   0.8473626810E-14   0.8441959238E-14   0.6683994219E-14   0.5025000007E-01  -0.2512475004E-01  -0.2512475004E-01   0.6576527856E-15  -0.6872734718E-15  -0.6724358002E-15   0.1250000002E+00
   0.0000000000E+00   0.0000000000E+00   0.9748752500E+00   0.0000000000E+00   0.0000000000E+00   0.1122750000E-02   0.0000000000E+00   0.0000000000E+00  -0.2624750000E-01   0.1250000003E+00   0.8364976152E-10   0.8364031231E-10  -0.1927686618E-15   0.1610869026E-13  -0.5273469628E-14   0.5025000007E-01  -0.2512475004E-01  -0.2512475004E-01   0.3715704101E-17  -0.1358604755E-14  -0.2910197024E-15   0.1250000002E+00
   0.1050250000E+01   0.0000000000E+00   0.9748752500E+00  -0.2250000000E-02   0.0000000000E+00   0.1122750000E-02   0.5250000000E-01   0.0000000000E+00  -0.2624750000E-01   0.1250000003E+00   0.8904729296E-10   0.8904164395E-10  -0.5946181145E-14  -0.7453535661E-15  -0.2731885279E-14   0.5025000007E-01  -0.2512475004E-01  -0.2512475004E-01   0.9368248302E-16   0.4386874578E-16  -0.5600821365E-15   0.1250000002E+00
   0.1050250000E+01   0.9748752500E+00   0.9748752500E+00  -0.2250000000E-02   0.1122750000E-02   0.1122750000E-02   0.5250000000E-01  -0.2624750000E-01  -0.2624750000E-01   0.1250000002E+00   0.5647750708E-10   0.5647208914E-10   0.5589398756E-14   0.5157088090E-15   0.4207568003E-14   0.5025000007E-01  -0.2512475003E-01  -0.2512475003E-01  -0.6441989760E-15   0.6873776121E-15  -0.2174456398E-15   0.1250000002E+00
   0.0000000000E+00   0.9748752500E+00   0.9748752500E+00   0.0000000000E+00   0.1122750000E-02   0.1122750000E-02   0.0000000000E+00  -0.2624750000E-01  -0.2624750000E-01   0.1250000003E+00   0.1739410676E-09   0.1739274806E-09   0.5129938194E-14   0.2031685347E-13   0.3014106506E-14   0.5025000007E-01  -0.2512475003E-01  -0.2512475003E-01  -0.7043653740E-15  -0.1996779124E-14   0.1367879135E-14   0.1250000002E+00
   0.2100500000E+01   0.0000000000E+00  -0.4448021051E-14  -0.4500000000E-02   0.0000000000E+00   0.3051993988E-17   0.1050000000E+00   0.0000000000E+00  -0.4451073045E-14   0.1250000002E+00  -0.1035297465E-10  -0.1035110674E-10  -0.1185386865E-13  -0.7878052674E-14  -0.2796505460E-14   0.5025000008E-01  -0.2512475004E-01  -0.2512475004E-01   0.3330627084E-15   0.4337389505E-15   0.5782710513E-15   0.1250000002E+00
   0.2100500000E+01   0.9748752500E+00  -0.4158572122E-14  -0.4500000000E-02   0.1122750000E-02   0.2620968405E-17   0.1050000000E+00  -0.2624750000E-01  -0.4161193090E-14   0.1250000002E+00   0.6500610494E-11   0.6503758826E-11   0.9100703077E-14  -0.7241278559E-14   0.1026530091E-14   0.5025000007E-01  -0.2512475004E-01  -0.2512475004E-01   0.7040056918E-15  -0.3320422234E-15  -0.2375003555E-15   0.1250000002E+00
   0.2100500000E+01   0.0000000000E+00   0.9748752500E+00  -0.4500000000E-02   0.0000000000E+00   0.1122750000E-02   0.1050000000E+00   0.0000000000E+00  -0.2624750000E-01   0.1250000002E+00  -0.2239593355E-10  -0.2239895286E-10  -0.1125392244E-13   0.8357082011E-14  -0.1496427507E-14   0.5025000007E-01  -0.2512475004E-01  -0.2512475004E-01   0.1801516553E-15  -0.1234908198E-14   0.5563128659E-15   0.1250000002E+00
   0.2100500000E+01   0.9748752500E+00   0.9748752500E+00  -0.4500000000E-02   0.1122750000E-02   0.1122750000E-02   0.1050000000E+00  -0.2624750000E-01  -0.2624750000E-01   0.1250000001E+00  -0.2273951019E-10  -0.2274259271E-10   0.7823443794E-14   0.1022586600E-13   0.2227676442E-14   0.5025000006E-01  -0.2512475003E-01  -0.2512475003E-01  -0.5412705257E-15   0.5833254229E-16  -0.2430921961E-15   0.1250000002E+00
     1     2     3     4     5     6     7     8
     2     9    10     3     6    11    12     7
 VARIABLES = X,Y,Z,DU1,DU2,DU3,U1,U2,U3,S11,S22,S33,S12,S13,S23,E11,E22,E33,E12,E13,E23,SMISES
 ZONE, T="0.1600D+01" F=FEPOINT, I=   12 J=    2 ET=BRICK
   0.0000000000E+00   0.0000000000E+00   0.0000000000E+00   0.0000000000E+00   0.0000000000E+00   0.0000000000E+00   0.0000000000E+00   0.0000000000E+00   0.0000000000E+00  -0.1000000002E+01  -0.1865195634E-09  -0.1865113042E-09   0.1194128863E-15   0.9986770152E-14  -0.3120254856E-14   0.4800000008E-01  -0.2400200004E-01  -0.2400200004E-01  -0.3162130681E-17  -0.3871035321E-14  -0.2359526740E-14   0.1000000002E+01
   0.1048000000E+01   0.0000000000E+00  -0.2027541984E-14  -0.2250000000E-02   0.0000000000E+00  -0.2214592734E-18   0.5025000000E-01   0.0000000000E+00  -0.2027320525E-14  -0.1000000002E+01  -0.3730947842E-10  -0.3730443879E-10  -0.6335096265E-14  -0.1487550777E-13  -0.4116629980E-14   0.4800000007E-01  -0.2400200004E-01  -0.2400200004E-01  -0.6904520187E-16  -0.3634508820E-15   0.2464844394E-15   0.1000000002E+01
   0.1048000000E+01   0.9759980000E+00  -0.1905766101E-14  -0.2250000000E-02   0.1122750000E-02  -0.6926224264E-18   0.5025000000E-01  -0.2512475000E-01  -0.1905073478E-14  -0.1000000001E+01  -0.6616619410E-10  -0.6615521066E-10   0.8863310479E-14  -0.1385798195E-13   0.2467851841E-14   0.4800000007E-01  -0.2400200003E-01  -0.2400200003E-01   0.4216934825E-15   0.1246469490E-14   0.6023996811E-15   0.1000000001E+01
   0.0000000000E+00   0.9759980000E+00  -0.1177848112E-14   0.0000000000E+00   0.1122750000E-02  -0.9328513626E-19   0.0000000000E+00  -0.2512475000E-01  -0.1177754827E-14  -0.1000000002E+01  -0.1061669109E-09  -0.1061610348E-09   0.8505153665E-14   0.8334347909E-14   0.6684321095E-14   0.4800000007E-01  -0.2400200003E-01  -0.2400200003E-01   0.6494886244E-15  -0.6810952257E-15  -0.6614366557E-15   0.1000000001E+01
   0.0000000000E+00   0.0000000000E+00   0.9759980000E+00   0.0000000000E+00   0.0000000000E+00   0.1122750000E-02   0.0000000000E+00   0.0000000000E+00  -0.2512475000E-01  -0.1000000001E+01   0.8364877767E-10   0.8363919545E-10  -0.2071796348E-15   0.1614188843E-13  -0.5296767127E-14   0.4800000007E-01  -0.2400200003E-01  -0.2400200003E-01  -0.2556540795E-17  -0.1378808196E-14  -0.2875954296E-15   0.1000000001E+01
   0.1048000000E+01   0.0000000000E+00   0.9759980000E+00  -0.2250000000E-02   0.0000000000E+00   0.1122750000E-02   0.5025000000E-01   0.0000000000E+00  -0.2512475000E-01  -0.1000000001E+01   0.8902201735E-10   0.8901631967E-10  -0.5832460861E-14  -0.8546304173E-15  -0.2756918278E-14   0.4800000007E-01  -0.2400200003E-01  -0.2400200003E-01   0.8955722074E-16   0.9082949152E-16  -0.5756607574E-15   0.1000000001E+01
   0.1048000000E+01   0.9759980000E+00   0.9759980000E+00  -0.2250000000E-02   0.1122750000E-02   0.1122750000E-02   0.5025000000E-01  -0.2512475000E-01  -0.2512475000E-01  -0.1000000001E+01   0.5650481304E-10   0.5649934585E-10   0.5601769323E-14   0.5602085603E-15   0.4222168622E-14   0.4800000006E-01  -0.2400200003E-01  -0.2400200003E-01  -0.6202658024E-15   0.6695097792E-15  -0.2007921217E-15   0.1000000001E+01
   0.0000000000E+00   0.9759980000E+00   0.9759980000E+00   0.0000000000E+00   0.1122750000E-02   0.1122750000E-02   0.0000000000E+00  -0.2512475000E-01  -0.2512475000E-01  -0.1000000001E+01   0.1740516882E-09   0.1740380935E-09   0.5102177233E-14   0.2033688221E-13   0.3044573873E-14   0.4800000006E-01  -0.2400200003E-01  -0.2400200003E-01  -0.7090086973E-15  -0.1983604008E-14   0.1352930767E-14   0.1000000001E+01
   0.2096000000E+01   0.0000000000E+00  -0.4448787512E-14  -0.4500000000E-02   0.0000000000E+00  -0.7664613326E-18   0.1005000000E+00   0.0000000000E+00  -0.4448021051E-14  -0.1000000002E+01  -0.1043021070E-10  -0.1042839585E-10  -0.1172757422E-13  -0.8248256750E-14  -0.2795049885E-14   0.4800000007E-01  -0.2400200004E-01  -0.2400200004E-01   0.3638231148E-15   0.3288071348E-15   0.5792178718E-15   0.1000000002E+01
   0.2096000000E+01   0.9759980000E+00  -0.4159263366E-14  -0.4500000000E-02   0.1122750000E-02  -0.6912440160E-18   0.1005000000E+00  -0.2512475000E-01  -0.4158572122E-14  -0.1000000001E+01   0.6525010408E-11   0.6528170464E-11   0.9315812738E-14  -0.7178992964E-14   0.1022015762E-14   0.4800000007E-01  -0.2400200003E-01  -0.2400200003E-01   0.7238132543E-15  -0.9957211885E-16  -0.2439502659E-15   0.1000000001E+01
   0.2096000000E+01   0.0000000000E+00   0.9759980000E+00  -0.4500000000E-02   0.0000000000E+00   0.1122750000E-02   0.1005000000E+00   0.0000000000E+00  -0.2512475000E-01  -0.1000000001E+01  -0.2247676206E-10  -0.2247968206E-10  -0.1130390705E-13   0.8593240066E-14  -0.1546672379E-14   0.4800000007E-01  -0.2400200003E-01  -0.2400200003E-01   0.1560407852E-15  -0.1215653052E-14   0.5608267463E-15   0.1000000001E+01
   0.2096000000E+01   0.9759980000E+00   0.9759980000E+00  -0.4500000000E-02   0.1122750000E-02   0.1122750000E-02   0.1005000000E+00  -0.2512475000E-01  -0.2512475000E-01  -0.1000000001E+01  -0.2288095003E-10  -0.2288395720E-10   0.7739585753E-14   0.9795387987E-14   0.2160380581E-14   0.4800000006E-01  -0.2400200003E-01  -0.2400200003E-01  -0.5859178335E-15   0.4281622335E-17  -0.2573616771E-15   0.1000000001E+01
     1     2     3     4     5     6     7     8
     2     9    10     3     6    11    12     7
 VARIABLES = X,Y,Z,DU1,DU2,DU3,U1,U2,U3,S11,S22,S33,S12,S13,S23,E11,E22,E33,E12,E13,E23,SMISES
 ZONE, T="0.1650D+01" F=FEPOINT, I=   12 J=    2 ET=BRICK
   0.0000000000E+00   0.0000000000E+00   0.0000000000E+00   0.0000000000E+00   0.0000000000E+00   0.0000000000E+00   0.0000000000E+00   0.0000000000E+00   0.0000000000E+00  -0.2125000004E+01  -0.1863958696E-09  -0.1863878497E-09   0.1374437530E-15   0.1003734083E-13  -0.3068092373E-14   0.4575000007E-01  -0.2287925004E-01  -0.2287925004E-01  -0.7064015371E-17  -0.3858369698E-14  -0.2373892894E-14   0.2125000003E+01
   0.1045750000E+01   0.0000000000E+00  -0.2026626861E-14  -0.2250000000E-02   0.0000000000E+00   0.9151234862E-18   0.4800000000E-01   0.0000000000E+00  -0.2027541984E-14  -0.2125000003E+01  -0.3721591429E-10  -0.3721067529E-10  -0.6431135672E-14  -0.1477876367E-13  -0.4025459962E-14   0.4575000007E-01  -0.2287925004E-01  -0.2287925004E-01  -0.6838600707E-16  -0.3961125400E-15   0.2425592516E-15   0.2125000003E+01
   0.1045750000E+01   0.9771207500E+00  -0.1904380336E-14  -0.2250000000E-02   0.1122750000E-02   0.1385764650E-17   0.4800000000E-01  -0.2400200000E-01  -0.1905766101E-14  -0.2125000003E+01  -0.6614246239E-10  -0.6613160150E-10   0.8710849238E-14  -0.1402897863E-13   0.2497109060E-14   0.4575000007E-01  -0.2287925003E-01  -0.2287925003E-01   0.4291951903E-15   0.1277705916E-14   0.6110888513E-15   0.2125000003E+01
   0.0000000000E+00   0.9771207500E+00  -0.1177537088E-14   0.0000000000E+00   0.1122750000E-02   0.3110247773E-18   0.0000000000E+00  -0.2400200000E-01  -0.1177848112E-14  -0.2125000003E+01  -0.1061221443E-09  -0.1061162022E-09   0.8418663987E-14   0.8502715053E-14   0.6710768213E-14   0.4575000007E-01  -0.2287925003E-01  -0.2287925003E-01   0.6575784279E-15  -0.6795187991E-15  -0.6434253003E-15   0.2125000003E+01
   0.0000000000E+00   0.0000000000E+00   0.9771207500E+00   0.0000000000E+00   0.0000000000E+00   0.1122750000E-02   0.0000000000E+00   0.0000000000E+00  -0.2400200000E-01  -0.2125000003E+01   0.8360122774E-10   0.8359171731E-10  -0.2092393209E-15   0.1630090591E-13  -0.5258608168E-14   0.4575000007E-01  -0.2287925003E-01  -0.2287925003E-01   0.9299623463E-17  -0.1361450088E-14  -0.2857622813E-15   0.2125000003E+01
   0.1045750000E+01   0.0000000000E+00   0.9771207500E+00  -0.2250000000E-02   0.0000000000E+00   0.1122750000E-02   0.4800000000E-01   0.0000000000E+00  -0.2400200000E-01  -0.2125000003E+01   0.8896889836E-10   0.8896353784E-10  -0.5908961097E-14  -0.9437274261E-15  -0.2791122143E-14   0.4575000007E-01  -0.2287925003E-01  -0.2287925003E-01   0.8411468453E-16   0.6389551269E-16  -0.5705453403E-15   0.2125000003E+01
   0.1045750000E+01   0.9771207500E+00   0.9771207500E+00  -0.2250000000E-02   0.1122750000E-02   0.1122750000E-02   0.4800000000E-01  -0.2400200000E-01  -0.2400200000E-01  -0.2125000003E+01   0.5638211960E-10   0.5637669812E-10   0.5552616383E-14   0.6129601955E-15   0.4225222595E-14   0.4575000006E-01  -0.2287925003E-01  -0.2287925003E-01  -0.6183881996E-15   0.6706533863E-15  -0.2081171911E-15   0.2125000003E+01
   0.0000000000E+00   0.9771207500E+00   0.9771207500E+00   0.0000000000E+00   0.1122750000E-02   0.1122750000E-02   0.0000000000E+00  -0.2400200000E-01  -0.2400200000E-01  -0.2125000003E+01   0.1739250821E-09   0.1739118105E-09   0.5044447427E-14   0.2034565959E-13   0.3007555139E-14   0.4575000006E-01  -0.2287925003E-01  -0.2287925003E-01  -0.7136523517E-15  -0.1997521525E-14   0.1343497086E-14   0.2125000003E+01
   0.2091500000E+01   0.0000000000E+00  -0.4445342046E-14  -0.4500000000E-02   0.0000000000E+00   0.3445466311E-17   0.9600000000E-01   0.0000000000E+00  -0.4448787512E-14  -0.2125000003E+01  -0.1048656955E-10  -0.1048485675E-10  -0.1191286115E-13  -0.8341042283E-14  -0.2821673341E-14   0.4575000007E-01  -0.2287925003E-01  -0.2287925003E-01   0.3231116035E-15   0.2977446029E-15   0.5772113824E-15   0.2125000003E+01
   0.2091500000E+01   0.9771207500E+00  -0.4155824770E-14  -0.4500000000E-02   0.1122750000E-02   0.3438595847E-17   0.9600000000E-01  -0.2400200000E-01  -0.4159263366E-14  -0.2125000003E+01   0.6624423670E-11   0.6627759374E-11   0.9189701220E-14  -0.6907000084E-14   0.9215810408E-15   0.4575000006E-01  -0.2287925003E-01  -0.2287925003E-01   0.7245327762E-15  -0.9906702768E-16  -0.2220220593E-15   0.2125000003E+01
   0.2091500000E+01   0.0000000000E+00   0.9771207500E+00  -0.4500000000E-02   0.0000000000E+00   0.1122750000E-02   0.9600000000E-01   0.0000000000E+00  -0.2400200000E-01  -0.2125000003E+01  -0.2260043762E-10  -0.2260343414E-10  -0.1109979769E-13   0.8504395292E-14  -0.1428611039E-14   0.4575000006E-01  -0.2287925003E-01  -0.2287925003E-01   0.2069569365E-15  -0.1201065811E-14   0.5712536576E-15   0.2125000003E+01
   0.2091500000E+01   0.9771207500E+00   0.9771207500E+00  -0.4500000000E-02   0.1122750000E-02   0.1122750000E-02   0.9600000000E-01  -0.2400200000E-01  -0.2400200000E-01  -0.2125000003E+01  -0.2284907390E-10  -0.2285205349E-10   0.7898444219E-14   0.9702187740E-14   0.2123526433E-14   0.4575000006E-01  -0.2287925003E-01  -0.2287925003E-01  -0.6279230923E-15  -0.6517159355E-16  -0.2822811565E-15   0.2125000003E+01
     1     2     3     4     5     6     7     8
     2     9    10     3     6    11    12     7
 VARIABLES = X,Y,Z,DU1,DU2,DU3,U1,U2,U3,S11,S22,S33,S12,S13,S23,E11,E22,E33,E12,E13,E23,SMISES
 ZONE, T="0.1700D+01" F=FEPOINT, I=   12 J=    2 ET=BRICK
   0.0000000000E+00   0.0000000000E+00   0.0000000000E+00   0.0000000000E+00   0.0000000000E+00   0.0000000000E+00   0.0000000000E+00   0.0000000000E+00   0.0000000000E+00  -0.3250000005E+01  -0.1860486432E-09  -0.1860409506E-09   0.1697837153E-15   0.1025485527E-13  -0.2967739332E-14   0.4350000007E-01  -0.2175650003E-01  -0.2175650003E-01  -0.4596100170E-17  -0.3864241320E-14  -0.2359846219E-14   0.3250000005E+01
   0.1043500000E+01   0.0000000000E+00  -0.2023718971E-14  -0.2250000000E-02   0.0000000000E+00   0.2907889752E-17   0.4575000000E-01   0.0000000000E+00  -0.2026626861E-14  -0.3250000005E+01  -0.3685563193E-10  -0.3685025415E-10  -0.6652848310E-14  -0.1500300730E-13  -0.3905180245E-14   0.4350000007E-01  -0.2175650003E-01  -0.2175650003E-01  -0.8024621155E-16  -0.3684274014E-15   0.2471223803E-15   0.3250000005E+01
   0.1043500000E+01   0.9782435000E+00  -0.1900813560E-14  -0.2250000000E-02   0.1122750000E-02   0.3566776022E-17   0.4575000000E-01  -0.2287925000E-01  -0.1904380336E-14  -0.3250000005E+01  -0.6582416100E-10  -0.6581374765E-10   0.8652092777E-14  -0.1405729874E-13   0.2414580838E-14   0.4350000006E-01  -0.2175650003E-01  -0.2175650003E-01   0.4329347913E-15   0.1262902717E-14   0.5983709992E-15   0.3250000005E+01
   0.0000000000E+00   0.9782435000E+00  -0.1176786242E-14   0.0000000000E+00   0.1122750000E-02   0.7508456435E-18   0.0000000000E+00  -0.2287925000E-01  -0.1177537088E-14  -0.3250000005E+01  -0.1058006330E-09  -0.1057952025E-09   0.8487167541E-14   0.8714846843E-14   0.6644399531E-14   0.4350000006E-01  -0.2175650003E-01  -0.2175650003E-01   0.6538688228E-15  -0.6895383214E-15  -0.6443678980E-15   0.3250000005E+01
   0.0000000000E+00   0.0000000000E+00   0.9782435000E+00   0.0000000000E+00   0.0000000000E+00   0.1122750000E-02   0.0000000000E+00   0.0000000000E+00  -0.2287925000E-01  -0.3250000005E+01   0.8323102762E-10   0.8322179720E-10  -0.2310214022E-15   0.1662809984E-13  -0.5219297335E-14   0.4350000006E-01  -0.2175650003E-01  -0.2175650003E-01   0.4195279635E-17  -0.1365651689E-14  -0.3010321868E-15   0.3250000005E+01
   0.1043500000E+01   0.0000000000E+00   0.9782435000E+00  -0.2250000000E-02   0.0000000000E+00   0.1122750000E-02   0.4575000000E-01   0.0000000000E+00  -0.2287925000E-01  -0.3250000005E+01   0.8871959815E-10   0.8871427082E-10  -0.5800351453E-14  -0.1108570931E-14  -0.2651754944E-14   0.4350000006E-01  -0.2175650003E-01  -0.2175650003E-01   0.9656340037E-16   0.7867177404E-16  -0.5736292311E-15   0.3250000005E+01
   0.1043500000E+01   0.9782435000E+00   0.9782435000E+00  -0.2250000000E-02   0.1122750000E-02   0.1122750000E-02   0.4575000000E-01  -0.2287925000E-01  -0.2287925000E-01  -0.3250000004E+01   0.5614427931E-10   0.5613904813E-10   0.5634199213E-14   0.7030513836E-15   0.4202871566E-14   0.4350000006E-01  -0.2175650003E-01  -0.2175650003E-01  -0.6384486953E-15   0.6773508814E-15  -0.1922208381E-15   0.3250000004E+01
   0.0000000000E+00   0.9782435000E+00   0.9782435000E+00   0.0000000000E+00   0.1122750000E-02   0.1122750000E-02   0.0000000000E+00  -0.2287925000E-01  -0.2287925000E-01  -0.3250000004E+01   0.1735018412E-09   0.1734886105E-09   0.5262503269E-14   0.2084146318E-13   0.2729135369E-14   0.4350000006E-01  -0.2175650003E-01  -0.2175650003E-01  -0.7031837799E-15  -0.1978306461E-14   0.1374938790E-14   0.3250000004E+01
   0.2087000000E+01   0.0000000000E+00  -0.4433401575E-14  -0.4500000000E-02   0.0000000000E+00   0.1194047091E-16   0.9150000000E-01   0.0000000000E+00  -0.4445342046E-14  -0.3250000005E+01  -0.1012002810E-10  -0.1011914571E-10  -0.1213776452E-13  -0.8734236229E-14  -0.2766594160E-14   0.4350000007E-01  -0.2175650003E-01  -0.2175650003E-01   0.3626459661E-15   0.3846789284E-15   0.5678475449E-15   0.3250000005E+01
   0.2087000000E+01   0.9782435000E+00  -0.4143489950E-14  -0.4500000000E-02   0.1122750000E-02   0.1233482029E-16   0.9150000000E-01  -0.2287925000E-01  -0.4155824770E-14  -0.3250000005E+01   0.6930687293E-11   0.6934023992E-11   0.9102332828E-14  -0.6896833193E-14   0.7363478359E-15   0.4350000006E-01  -0.2175650003E-01  -0.2175650003E-01   0.7259925294E-15  -0.1126745626E-15  -0.2173860935E-15   0.3250000005E+01
   0.2087000000E+01   0.0000000000E+00   0.9782435000E+00  -0.4500000000E-02   0.0000000000E+00   0.1122750000E-02   0.9150000000E-01   0.0000000000E+00  -0.2287925000E-01  -0.3250000005E+01  -0.2284557950E-10  -0.2284840503E-10  -0.1113682624E-13   0.8690966681E-14  -0.1370683745E-14   0.4350000006E-01  -0.2175650003E-01  -0.2175650003E-01   0.1616896464E-15  -0.1214675086E-14   0.5696158923E-15   0.3250000005E+01
   0.2087000000E+01   0.9782435000E+00   0.9782435000E+00  -0.4500000000E-02   0.1122750000E-02   0.1122750000E-02   0.9150000000E-01  -0.2287925000E-01  -0.2287925000E-01  -0.3250000004E+01  -0.2301855551E-10  -0.2302129845E-10   0.7814754950E-14   0.9461082731E-14   0.2009967487E-14   0.4350000006E-01  -0.2175650003E-01  -0.2175650003E-01  -0.5970554871E-15   0.1312569426E-16  -0.2915616228E-15   0.3250000004E+01
     1     2     3     4     5     6     7     8
     2     9    10     3     6    11    12     7
 VARIABLES = X,Y,Z,DU1,DU2,DU3,U1,U2,U3,S11,S22,S33,S12,S13,S23,E11,E22,E33,E12,E13,E23,SMISES
 ZONE, T="0.1750D+01" F=FEPOINT, I=   12 J=    2 ET=BRICK
   0.0000000000E+00   0.0000000000E+00   0.0000000000E+00   0.0000000000E+00   0.0000000000E+00   0.0000000000E+00   0.0000000000E+00   0.0000000000E+00   0.0000000000E+00  -0.4375000007E+01  -0.1860223804E-09  -0.1860145295E-09   0.1790305196E-15   0.1056696809E-13  -0.2950486371E-14   0.4125000006E-01  -0.2063375003E-01  -0.2063375003E-01   0.1897469437E-17  -0.3861147631E-14  -0.2357472291E-14   0.4375000007E+01
   0.1041250000E+01   0.0000000000E+00  -0.2023090492E-14  -0.2250000000E-02   0.0000000000E+00   0.6284792112E-18   0.4350000000E-01   0.0000000000E+00  -0.2023718971E-14  -0.4375000007E+01  -0.3714647251E-10  -0.3714139260E-10  -0.6678558648E-14  -0.1504763610E-13  -0.4105827743E-14   0.4125000006E-01  -0.2063375003E-01  -0.2063375003E-01  -0.8536469086E-16  -0.3833103822E-15   0.2450170132E-15   0.4375000007E+01
   0.1041250000E+01   0.9793662500E+00  -0.1901338805E-14  -0.2250000000E-02   0.1122750000E-02  -0.5252448880E-18   0.4350000000E-01  -0.2175650000E-01  -0.1900813560E-14  -0.4375000006E+01  -0.6590313564E-10  -0.6589292402E-10   0.8457351974E-14  -0.1437436209E-13   0.2222947930E-14   0.4125000006E-01  -0.2063375003E-01  -0.2063375003E-01   0.4198875599E-15   0.1253184120E-14   0.6058422918E-15   0.4375000006E+01
   0.0000000000E+00   0.9793662500E+00  -0.1176836335E-14   0.0000000000E+00   0.1122750000E-02  -0.5009345934E-19   0.0000000000E+00  -0.2175650000E-01  -0.1176786242E-14  -0.4375000006E+01  -0.1057420218E-09  -0.1057357375E-09   0.8535876066E-14   0.8834466543E-14   0.6635266938E-14   0.4125000006E-01  -0.2063375003E-01  -0.2063375003E-01   0.6623804491E-15  -0.6773270069E-15  -0.6693289554E-15   0.4375000006E+01
   0.0000000000E+00   0.0000000000E+00   0.9793662500E+00   0.0000000000E+00   0.0000000000E+00   0.1122750000E-02   0.0000000000E+00   0.0000000000E+00  -0.2175650000E-01  -0.4375000006E+01   0.8329490535E-10   0.8328606424E-10  -0.2322927010E-15   0.1671020830E-13  -0.5081201569E-14   0.4125000006E-01  -0.2063375003E-01  -0.2063375003E-01  -0.3105751173E-17  -0.1382320129E-14  -0.2951232101E-15   0.4375000006E+01
   0.1041250000E+01   0.0000000000E+00   0.9793662500E+00  -0.2250000000E-02   0.0000000000E+00   0.1122750000E-02   0.4350000000E-01   0.0000000000E+00  -0.2175650000E-01  -0.4375000006E+01   0.8887162545E-10   0.8886611526E-10  -0.5926245943E-14  -0.1326766075E-14  -0.2713061802E-14   0.4125000006E-01  -0.2063375003E-01  -0.2063375003E-01   0.9429687044E-16   0.8708636756E-16  -0.5642358040E-15   0.4375000006E+01
   0.1041250000E+01   0.9793662500E+00   0.9793662500E+00  -0.2250000000E-02   0.1122750000E-02   0.1122750000E-02   0.4350000000E-01  -0.2175650000E-01  -0.2175650000E-01  -0.4375000006E+01   0.5634609090E-10   0.5634122798E-10   0.5440028023E-14   0.3262778622E-15   0.4175643315E-14   0.4125000005E-01  -0.2063375003E-01  -0.2063375003E-01  -0.6368334795E-15   0.6515993868E-15  -0.2091893100E-15   0.4375000006E+01
   0.0000000000E+00   0.9793662500E+00   0.9793662500E+00   0.0000000000E+00   0.1122750000E-02   0.1122750000E-02   0.0000000000E+00  -0.2175650000E-01  -0.2175650000E-01  -0.4375000006E+01   0.1735164496E-09   0.1735032881E-09   0.5115106060E-14   0.2072471391E-13   0.2901223935E-14   0.4125000006E-01  -0.2063375003E-01  -0.2063375003E-01  -0.6970380166E-15  -0.1980558060E-14   0.1375163250E-14   0.4375000006E+01
   0.2082500000E+01   0.0000000000E+00  -0.4437358776E-14  -0.4500000000E-02   0.0000000000E+00  -0.3957201529E-17   0.8700000000E-01   0.0000000000E+00  -0.4433401575E-14  -0.4375000007E+01  -0.1083779484E-10  -0.1083614199E-10  -0.1147559776E-13  -0.8100154473E-14  -0.2874059461E-14   0.4125000006E-01  -0.2063375003E-01  -0.2063375003E-01   0.3372733088E-15   0.4053477569E-15   0.5723261244E-15   0.4375000007E+01
   0.2082500000E+01   0.9793662500E+00  -0.4147930106E-14  -0.4500000000E-02   0.1122750000E-02  -0.4440155967E-17   0.8700000000E-01  -0.2175650000E-01  -0.4143489950E-14  -0.4375000006E+01   0.6550590951E-11   0.6554438869E-11   0.9238729491E-14  -0.6435966547E-14   0.1096374995E-14   0.4125000006E-01  -0.2063375003E-01  -0.2063375003E-01   0.7019386934E-15  -0.1623982104E-15  -0.2330108427E-15   0.4375000006E+01
   0.2082500000E+01   0.0000000000E+00   0.9793662500E+00  -0.4500000000E-02   0.0000000000E+00   0.1122750000E-02   0.8700000000E-01   0.0000000000E+00  -0.2175650000E-01  -0.4375000006E+01  -0.2244186679E-10  -0.2244567738E-10  -0.1137727056E-13   0.9327722640E-14  -0.1267897995E-14   0.4125000006E-01  -0.2063375003E-01  -0.2063375003E-01   0.1751725007E-15  -0.1246903277E-14   0.5599656511E-15   0.4375000006E+01
   0.2082500000E+01   0.9793662500E+00   0.9793662500E+00  -0.4500000000E-02   0.1122750000E-02   0.1122750000E-02   0.8700000000E-01  -0.2175650000E-01  -0.2175650000E-01  -0.4375000006E+01  -0.2252087177E-10  -0.2252408729E-10   0.7864441939E-14   0.9319049127E-14   0.2429047988E-14   0.4125000005E-01  -0.2063375003E-01  -0.2063375003E-01  -0.6104831964E-15   0.1334395039E-15  -0.2499872620E-15   0.4375000006E+01
     1     2     3     4     5     6     7     8
     2     9    10     3     6    11    12     7
 VARIABLES = X,Y,Z,DU1,DU2,DU3,U1,U2,U3,S11,S22,S33,S12,S13,S23,E11,E22,E33,E12,E13,E23,SMISES
 ZONE, T="0.1800D+01" F=FEPOINT, I=   12 J=    2 ET=BRICK
   0.0000000000E+00   0.0000000000E+00   0.0000000000E+00   0.0000000000E+00   0.0000000000E+00   0.0000000000E+00   0.0000000000E+00   0.0000000000E+00   0.0000000000E+00  -0.5500000009E+01  -0.1862706071E-09  -0.1862618915E-09   0.1654932413E-15   0.1018646380E-13  -0.2650929122E-14   0.3900000006E-01  -0.1951100003E-01  -0.1951100003E-01   0.1438138538E-17  -0.3861213679E-14  -0.2347335096E-14   0.5500000009E+01
   0.1039000000E+01   0.0000000000E+00  -0.2026634615E-14  -0.2250000000E-02   0.0000000000E+00  -0.3544122884E-17   0.4125000000E-01   0.0000000000E+00  -0.2023090492E-14  -0.5500000009E+01  -0.3726083566E-10  -0.3725482548E-10  -0.7172111391E-14  -0.1474935559E-13  -0.4073968129E-14   0.3900000006E-01  -0.1951100003E-01  -0.1951100003E-01  -0.8807720353E-16  -0.3906836750E-15   0.2434831820E-15   0.5500000008E+01
   0.1039000000E+01   0.9804890000E+00  -0.1904660750E-14  -0.2250000000E-02   0.1122750000E-02  -0.3321945303E-17   0.4125000000E-01  -0.2063375000E-01  -0.1901338805E-14  -0.5500000008E+01  -0.6646217586E-10  -0.6645204006E-10   0.8255313512E-14  -0.1350405084E-13   0.2592690109E-14   0.3900000006E-01  -0.1951100003E-01  -0.1951100003E-01   0.4155132349E-15   0.1266908129E-14   0.6045637082E-15   0.5500000008E+01
   0.0000000000E+00   0.9804890000E+00  -0.1175088500E-14   0.0000000000E+00   0.1122750000E-02   0.1747835255E-17   0.0000000000E+00  -0.2063375000E-01  -0.1176836335E-14  -0.5500000008E+01  -0.1065952464E-09  -0.1065895809E-09   0.8156639381E-14   0.8080146264E-14   0.7137266440E-14   0.3900000006E-01  -0.1951100003E-01  -0.1951100003E-01   0.6591925469E-15  -0.6915113596E-15  -0.6617805216E-15   0.5500000008E+01
   0.0000000000E+00   0.0000000000E+00   0.9804890000E+00   0.0000000000E+00   0.0000000000E+00   0.1122750000E-02   0.0000000000E+00   0.0000000000E+00  -0.2063375000E-01  -0.5500000008E+01   0.8379354368E-10   0.8378454819E-10  -0.2436270725E-15   0.1609883227E-13  -0.5237032227E-14   0.3900000006E-01  -0.1951100003E-01  -0.1951100003E-01   0.5350594220E-17  -0.1372393868E-14  -0.2985897661E-15   0.5500000008E+01
   0.1039000000E+01   0.0000000000E+00   0.9804890000E+00  -0.2250000000E-02   0.0000000000E+00   0.1122750000E-02   0.4125000000E-01   0.0000000000E+00  -0.2063375000E-01  -0.5500000008E+01   0.8911940889E-10   0.8911380401E-10  -0.5665064356E-14  -0.9372646541E-15  -0.2954275094E-14   0.3900000006E-01  -0.1951100003E-01  -0.1951100003E-01   0.9255981321E-16   0.5160909255E-16  -0.5700290746E-15   0.5500000008E+01
   0.1039000000E+01   0.9804890000E+00   0.9804890000E+00  -0.2250000000E-02   0.1122750000E-02   0.1122750000E-02   0.4125000000E-01  -0.2063375000E-01  -0.2063375000E-01  -0.5500000007E+01   0.5625665596E-10   0.5625123648E-10   0.5698105868E-14   0.1384402129E-14   0.4210223935E-14   0.3900000005E-01  -0.1951100003E-01  -0.1951100003E-01  -0.6257099467E-15   0.6948991302E-15  -0.1857729385E-15   0.5500000007E+01
   0.0000000000E+00   0.9804890000E+00   0.9804890000E+00   0.0000000000E+00   0.1122750000E-02   0.1122750000E-02   0.0000000000E+00  -0.2063375000E-01  -0.2063375000E-01  -0.5500000007E+01   0.1741669235E-09   0.1741536393E-09   0.5012605298E-14   0.1993147917E-13   0.3051468004E-14   0.3900000005E-01  -0.1951100003E-01  -0.1951100003E-01  -0.6973988768E-15  -0.2001613039E-14   0.1355085448E-14   0.5500000007E+01
   0.2078000000E+01   0.0000000000E+00  -0.4448860855E-14  -0.4500000000E-02   0.0000000000E+00  -0.1150207891E-16   0.8250000000E-01   0.0000000000E+00  -0.4437358776E-14  -0.5500000008E+01  -0.1017366573E-10  -0.1017187538E-10  -0.1252065577E-13  -0.8684244913E-14  -0.2849458305E-14   0.3900000006E-01  -0.1951100003E-01  -0.1951100003E-01   0.3118084702E-15   0.2189559400E-15   0.5878907102E-15   0.5500000008E+01
   0.2078000000E+01   0.9804890000E+00  -0.4159177674E-14  -0.4500000000E-02   0.1122750000E-02  -0.1124756825E-16   0.8250000000E-01  -0.2063375000E-01  -0.4147930106E-14  -0.5500000008E+01   0.6930786219E-11   0.6933332881E-11   0.9174139776E-14  -0.6987303679E-14   0.1011220307E-14   0.3900000005E-01  -0.1951100003E-01  -0.1951100003E-01   0.6801858142E-15  -0.4704778848E-16  -0.2336062890E-15   0.5500000008E+01
   0.2078000000E+01   0.0000000000E+00   0.9804890000E+00  -0.4500000000E-02   0.0000000000E+00   0.1122750000E-02   0.8250000000E-01   0.0000000000E+00  -0.2063375000E-01  -0.5500000008E+01  -0.2218158181E-10  -0.2218519738E-10  -0.1221630261E-13   0.9208251705E-14  -0.1609673954E-14   0.3900000005E-01  -0.1951100003E-01  -0.1951100003E-01   0.1660776549E-15  -0.1290495224E-14   0.5296269504E-15   0.5500000008E+01
   0.2078000000E+01   0.9804890000E+00   0.9804890000E+00  -0.4500000000E-02   0.1122750000E-02   0.1122750000E-02   0.8250000000E-01  -0.2063375000E-01  -0.2063375000E-01  -0.5500000007E+01  -0.2308528295E-10  -0.2308901513E-10   0.7376956448E-14   0.9151242569E-14   0.1984519316E-14   0.3900000005E-01  -0.1951100002E-01  -0.1951100002E-01  -0.6136192419E-15  -0.4018947482E-16  -0.2496245911E-15   0.5500000007E+01
     1     2     3     4     5     6     7     8
     2     9    10     3     6    11    12     7
 VARIABLES = X,Y,Z,DU1,DU2,DU3,U1,U2,U3,S11,S22,S33,S12,S13,S23,E11,E22,E33,E12,E13,E23,SMISES
 ZONE, T="0.1850D+01" F=FEPOINT, I=   12 J=    2 ET=BRICK
   0.0000000000E+00   0.0000000000E+00   0.0000000000E+00   0.0000000000E+00   0.0000000000E+00   0.0000000000E+00   0.0000000000E+00   0.0000000000E+00   0.0000000000E+00  -0.6625000011E+01  -0.1860576654E-09  -0.1860493019E-09   0.1406813699E-15   0.1007890816E-13  -0.3111646923E-14   0.3675000006E-01  -0.1838825003E-01  -0.1838825003E-01   0.1868333015E-17  -0.3853028054E-14  -0.2353627521E-14   0.6625000010E+01
   0.1036750000E+01   0.0000000000E+00  -0.2025394902E-14  -0.2250000000E-02   0.0000000000E+00   0.1239712589E-17   0.3900000000E-01   0.0000000000E+00  -0.2026634615E-14  -0.6625000010E+01  -0.3686881875E-10  -0.3686299542E-10  -0.6602663836E-14  -0.1504674801E-13  -0.3875904941E-14   0.3675000006E-01  -0.1838825003E-01  -0.1838825003E-01  -0.9436349764E-16  -0.3776627733E-15   0.2472215063E-15   0.6625000010E+01
   0.1036750000E+01   0.9816117500E+00  -0.1902157754E-14  -0.2250000000E-02   0.1122750000E-02   0.2502996579E-17   0.3900000000E-01  -0.1951100000E-01  -0.1904660750E-14  -0.6625000010E+01  -0.6624230664E-10  -0.6623257575E-10   0.8790238392E-14  -0.1460521325E-13   0.2545331246E-14   0.3675000005E-01  -0.1838825003E-01  -0.1838825003E-01   0.4208786903E-15   0.1266881110E-14   0.6037554478E-15   0.6625000009E+01
   0.0000000000E+00   0.9816117500E+00  -0.1177799392E-14   0.0000000000E+00   0.1122750000E-02  -0.2710892221E-17   0.0000000000E+00  -0.1951100000E-01  -0.1175088500E-14  -0.6625000010E+01  -0.1058122167E-09  -0.1058063839E-09   0.8499901700E-14   0.8899847693E-14   0.6617869001E-14   0.3675000005E-01  -0.1838825003E-01  -0.1838825003E-01   0.6681327500E-15  -0.6890237327E-15  -0.6645468293E-15   0.6625000010E+01
   0.0000000000E+00   0.0000000000E+00   0.9816117500E+00   0.0000000000E+00   0.0000000000E+00   0.1122750000E-02   0.0000000000E+00   0.0000000000E+00  -0.1951100000E-01  -0.6625000010E+01   0.8334598703E-10   0.8333708841E-10  -0.2281552699E-15   0.1647590223E-13  -0.5282257130E-14   0.3675000005E-01  -0.1838825003E-01  -0.1838825003E-01   0.5914081051E-17  -0.1361495708E-14  -0.3025802268E-15   0.6625000010E+01
   0.1036750000E+01   0.0000000000E+00   0.9816117500E+00  -0.2250000000E-02   0.0000000000E+00   0.1122750000E-02   0.3900000000E-01   0.0000000000E+00  -0.1951100000E-01  -0.6625000009E+01   0.8881807143E-10   0.8881244623E-10  -0.6219157848E-14  -0.1039255787E-14  -0.2722509161E-14   0.3675000005E-01  -0.1838825003E-01  -0.1838825003E-01   0.7677667611E-16   0.2951722543E-16  -0.5662260509E-15   0.6625000009E+01
   0.1036750000E+01   0.9816117500E+00   0.9816117500E+00  -0.2250000000E-02   0.1122750000E-02   0.1122750000E-02   0.3900000000E-01  -0.1951100000E-01  -0.1951100000E-01  -0.6625000009E+01   0.5621594656E-10   0.5621132057E-10   0.5151599888E-14   0.3887681597E-15   0.4204340090E-14   0.3675000005E-01  -0.1838825002E-01  -0.1838825002E-01  -0.6394710615E-15   0.6754143386E-15  -0.1975473043E-15   0.6625000009E+01
   0.0000000000E+00   0.9816117500E+00   0.9816117500E+00   0.0000000000E+00   0.1122750000E-02   0.1122750000E-02   0.0000000000E+00  -0.1951100000E-01  -0.1951100000E-01  -0.6625000009E+01   0.1734217994E-09   0.1734082498E-09   0.5102912903E-14   0.2076820322E-13   0.2851592156E-14   0.3675000005E-01  -0.1838825002E-01  -0.1838825002E-01  -0.6961917313E-15  -0.1986743940E-14   0.1380562494E-14   0.6625000009E+01
   0.2073500000E+01   0.0000000000E+00  -0.4438920326E-14  -0.4500000000E-02   0.0000000000E+00   0.9940528840E-17   0.7800000000E-01   0.0000000000E+00  -0.4448860855E-14  -0.6625000010E+01  -0.1012477742E-10  -0.1012277863E-10  -0.1295622499E-13  -0.8840550523E-14  -0.2947692055E-14   0.3675000006E-01  -0.1838825003E-01  -0.1838825003E-01   0.3224995417E-15   0.2153145557E-15   0.5802909519E-15   0.6625000010E+01
   0.2073500000E+01   0.9816117500E+00  -0.4149890525E-14  -0.4500000000E-02   0.1122750000E-02   0.9287148785E-17   0.7800000000E-01  -0.1951100000E-01  -0.4159177674E-14  -0.6625000009E+01   0.6390608151E-11   0.6393139210E-11   0.8520753996E-14  -0.6575185242E-14   0.7314359930E-15   0.3675000005E-01  -0.1838825003E-01  -0.1838825003E-01   0.6827417740E-15  -0.2403757901E-16  -0.2202673813E-15   0.6625000009E+01
   0.2073500000E+01   0.0000000000E+00   0.9816117500E+00  -0.4500000000E-02   0.0000000000E+00   0.1122750000E-02   0.7800000000E-01   0.0000000000E+00  -0.1951100000E-01  -0.6625000009E+01  -0.2264016821E-10  -0.2264295981E-10  -0.1136061283E-13   0.8403694403E-14  -0.1353333420E-14   0.3675000005E-01  -0.1838825003E-01  -0.1838825003E-01   0.1917963818E-15  -0.1258713619E-14   0.5355127244E-15   0.6625000009E+01
   0.2073500000E+01   0.9816117500E+00   0.9816117500E+00  -0.4500000000E-02   0.1122750000E-02   0.1122750000E-02   0.7800000000E-01  -0.1951100000E-01  -0.1951100000E-01  -0.6625000009E+01  -0.2240088251E-10  -0.2240453069E-10   0.8269015373E-14   0.1007784055E-13   0.2065180545E-14   0.3675000005E-01  -0.1838825002E-01  -0.1838825002E-01  -0.5903164328E-15   0.2291332399E-16  -0.2766480903E-15   0.6625000008E+01
     1     2     3     4     5     6     7     8
     2     9    10     3     6    11    12     7
 VARIABLES = X,Y,Z,DU1,DU2,DU3,U1,U2,U3,S11,S22,S33,S12,S13,S23,E11,E22,E33,E12,E13,E23,SMISES
 ZONE, T="0.1900D+01" F=FEPOINT, I=   12 J=    2 ET=BRICK
   0.0000000000E+00   0.0000000000E+00   0.0000000000E+00   0.0000000000E+00   0.0000000000E+00   0.0000000000E+00   0.0000000000E+00   0.0000000000E+00   0.0000000000E+00  -0.7750000013E+01  -0.4083441317E-09  -0.4085193772E-09   0.8335675896E-16  -0.2863654858E-12  -0.1905871924E-12   0.2950000005E-01  -0.1476550002E-01  -0.1476550002E-01  -0.2337257167E-17  -0.8155583146E-14  -0.5109180327E-14   0.7750000012E+01
   0.1029500000E+01   0.0000000000E+00  -0.4229548722E-14  -0.7250000000E-02   0.0000000000E+00  -0.2204153820E-14   0.3675000000E-01   0.0000000000E+00  -0.2025394902E-14  -0.7750000012E+01  -0.9038793468E-10  -0.9032211847E-10   0.6923495278E-14  -0.2583305320E-13  -0.1029961503E-13   0.2950000005E-01  -0.1476550002E-01  -0.1476550002E-01   0.8679239358E-16  -0.5793906107E-15   0.1360843723E-15   0.7750000012E+01
   0.1029500000E+01   0.9852345000E+00  -0.4163634488E-14  -0.7250000000E-02   0.3622750000E-02  -0.2261476735E-14   0.3675000000E-01  -0.1838825000E-01  -0.1902157754E-14  -0.7750000011E+01  -0.1017109851E-09  -0.1017099850E-09   0.1624377349E-13   0.9437659437E-13   0.2810910498E-13   0.2950000004E-01  -0.1476550002E-01  -0.1476550002E-01   0.5577733174E-15   0.2821532249E-14   0.9768811081E-15   0.7750000011E+01
   0.0000000000E+00   0.9852345000E+00  -0.2552198351E-14   0.0000000000E+00   0.3622750000E-02  -0.1374398959E-14   0.0000000000E+00  -0.1838825000E-01  -0.1177799392E-14  -0.7750000011E+01  -0.2179469806E-09  -0.2177347697E-09   0.5496902564E-13  -0.6567537216E-13  -0.6054707840E-13   0.2950000004E-01  -0.1476550002E-01  -0.1476550002E-01   0.1364369754E-14  -0.1757104753E-14  -0.1620013815E-14   0.7750000011E+01
   0.0000000000E+00   0.0000000000E+00   0.9852345000E+00   0.0000000000E+00   0.0000000000E+00   0.3622750000E-02   0.0000000000E+00   0.0000000000E+00  -0.1838825000E-01  -0.7750000011E+01   0.1413339498E-09   0.1409003913E-09  -0.1671888506E-15  -0.6359965018E-13   0.1058924172E-14   0.2950000004E-01  -0.1476550002E-01  -0.1476550002E-01   0.5552925056E-17  -0.2468836750E-14  -0.2187114873E-15   0.7750000011E+01
   0.1029500000E+01   0.0000000000E+00   0.9852345000E+00  -0.7250000000E-02   0.0000000000E+00   0.3622750000E-02   0.3675000000E-01   0.0000000000E+00  -0.1838825000E-01  -0.7750000011E+01   0.1983533136E-09   0.1983429593E-09   0.2763291622E-13   0.6534103488E-14  -0.4297512666E-13   0.2950000004E-01  -0.1476550002E-01  -0.1476550002E-01   0.5624346504E-15   0.1498522244E-15  -0.1159301529E-14   0.7750000011E+01
   0.1029500000E+01   0.9852345000E+00   0.9852345000E+00  -0.7250000000E-02   0.3622750000E-02   0.3622750000E-02   0.3675000000E-01  -0.1838825000E-01  -0.1838825000E-01  -0.7750000010E+01   0.1353414214E-09   0.1352651625E-09  -0.4431643736E-13   0.5828016679E-13  -0.4066746583E-14   0.2950000004E-01  -0.1476550002E-01  -0.1476550002E-01  -0.1371454566E-14   0.1529206633E-14  -0.3053658901E-15   0.7750000010E+01
   0.0000000000E+00   0.9852345000E+00   0.9852345000E+00   0.0000000000E+00   0.3622750000E-02   0.3622750000E-02   0.0000000000E+00  -0.1838825000E-01  -0.1838825000E-01  -0.7750000010E+01   0.3846552055E-09   0.3846064954E-09  -0.4209030355E-13  -0.1443627552E-12   0.1298308920E-12   0.2950000004E-01  -0.1476550002E-01  -0.1476550002E-01  -0.1358470318E-14  -0.4344362213E-14   0.3227877613E-14   0.7750000010E+01
   0.2059000000E+01   0.0000000000E+00  -0.9071207683E-14  -0.1450000000E-01   0.0000000000E+00  -0.4632287357E-14   0.7350000000E-01   0.0000000000E+00  -0.4438920326E-14  -0.7750000012E+01  -0.9709955377E-10  -0.9718412730E-10   0.1126514381E-12   0.1193213374E-12   0.7988939831E-14   0.2950000004E-01  -0.1476550002E-01  -0.1476550002E-01   0.2149018624E-14   0.2149796755E-14   0.7123367394E-15   0.7750000012E+01
   0.2059000000E+01   0.9852345000E+00  -0.8712444439E-14  -0.1450000000E-01   0.3622750000E-02  -0.4562553914E-14   0.7350000000E-01  -0.1838825000E-01  -0.4149890525E-14  -0.7750000011E+01   0.3803290525E-10   0.3806189321E-10   0.7567210685E-13  -0.5829931691E-13  -0.2324552681E-13   0.2950000004E-01  -0.1476550002E-01  -0.1476550002E-01   0.1680410519E-14  -0.9323741053E-15  -0.5800918071E-15   0.7750000011E+01
   0.2059000000E+01   0.0000000000E+00   0.9852345000E+00  -0.1450000000E-01   0.0000000000E+00   0.3622750000E-02   0.7350000000E-01   0.0000000000E+00  -0.1838825000E-01  -0.7750000011E+01  -0.5041996568E-10  -0.5043937988E-10  -0.4240727708E-13  -0.4237421334E-13   0.6515678664E-13   0.2950000004E-01  -0.1476550002E-01  -0.1476550002E-01  -0.3439180807E-15  -0.2021914186E-14   0.1525603663E-14   0.7750000011E+01
   0.2059000000E+01   0.9852345000E+00   0.9852345000E+00  -0.1450000000E-01   0.3622750000E-02   0.3622750000E-02   0.7350000000E-01  -0.1838825000E-01  -0.1838825000E-01  -0.7750000010E+01  -0.7156852671E-10  -0.7147625591E-10  -0.1424601700E-12  -0.5222508339E-13   0.3365325985E-13   0.2950000004E-01  -0.1476550002E-01  -0.1476550002E-01  -0.2807876087E-14  -0.8937810198E-15   0.1907651823E-15   0.7750000010E+01
     1     2     3     4     5     6     7     8
     2     9    10     3     6    11    12     7
 VARIABLES = X,Y,Z,DU1,DU2,DU3,U1,U2,U3,S11,S22,S33,S12,S13,S23,E11,E22,E33,E12,E13,E23,SMISES
 ZONE, T="0.1950D+01" F=FEPOINT, I=   12 J=    2 ET=BRICK
   0.0000000000E+00   0.0000000000E+00   0.0000000000E+00   0.0000000000E+00   0.0000000000E+00   0.0000000000E+00   0.0000000000E+00   0.0000000000E+00   0.0000000000E+00  -0.8875000014E+01   0.2221043263E-10   0.2231407856E-10  -0.1845277117E-16   0.2852575813E-12   0.1303640999E-12   0.4750000007E-02  -0.2392750004E-02  -0.2392750004E-02   0.1948998617E-17   0.2636209120E-14   0.6079239583E-15   0.8875000014E+01
   0.1004750000E+01   0.0000000000E+00   0.2022810553E-14  -0.2475000000E-01   0.0000000000E+00   0.6252359275E-14   0.2950000000E-01   0.0000000000E+00  -0.4229548722E-14  -0.8875000014E+01   0.1283288802E-09   0.1286050547E-09   0.2479931009E-12   0.2240304778E-12   0.3894260006E-13   0.4750000007E-02  -0.2392750004E-02  -0.2392750004E-02   0.5967173646E-14   0.5164250163E-14   0.1168954462E-14   0.8875000014E+01
   0.1004750000E+01   0.9976072500E+00   0.2607945012E-14  -0.2475000000E-01   0.1237275000E-01   0.6771579500E-14   0.2950000000E-01  -0.1476550000E-01  -0.4163634488E-14  -0.8875000013E+01   0.2400094578E-10   0.2390916785E-10   0.9542868268E-14  -0.9874588083E-13   0.1325305576E-12   0.4750000007E-02  -0.2392750003E-02  -0.2392750003E-02   0.5320638252E-15  -0.8606362055E-15   0.3771888708E-14   0.8875000013E+01
   0.0000000000E+00   0.9976072500E+00   0.3087050694E-15   0.0000000000E+00   0.1237275000E-01   0.2860903420E-14   0.0000000000E+00  -0.1476550000E-01  -0.2552198351E-14  -0.8875000013E+01   0.2862909337E-09   0.2860925844E-09  -0.2517331605E-12   0.1712334299E-12   0.1086695758E-12   0.4750000007E-02  -0.2392750003E-02  -0.2392750003E-02  -0.5430407630E-14   0.3262066239E-14   0.1814134623E-14   0.8875000013E+01
   0.0000000000E+00   0.0000000000E+00   0.9976072500E+00   0.0000000000E+00   0.0000000000E+00   0.1237275000E-01   0.0000000000E+00   0.0000000000E+00  -0.1476550000E-01  -0.8875000013E+01   0.2766389736E-10   0.2781119647E-10   0.1747686767E-16   0.1922490381E-12  -0.2085739251E-13   0.4750000007E-02  -0.2392750003E-02  -0.2392750003E-02  -0.2754238510E-17   0.3090031748E-14  -0.7134125447E-15   0.8875000013E+01
   0.1004750000E+01   0.0000000000E+00   0.9976072500E+00  -0.2475000000E-01   0.0000000000E+00   0.1237275000E-01   0.2950000000E-01   0.0000000000E+00  -0.1476550000E-01  -0.8875000013E+01   0.1148535498E-09   0.1149450549E-09  -0.2819583273E-13  -0.7154758294E-13  -0.1457570377E-12   0.4750000007E-02  -0.2392750003E-02  -0.2392750003E-02  -0.4555147817E-15  -0.1651301999E-14  -0.4103232365E-14   0.8875000013E+01
   0.1004750000E+01   0.9976072500E+00   0.9976072500E+00  -0.2475000000E-01   0.1237275000E-01   0.1237275000E-01   0.2950000000E-01  -0.1476550000E-01  -0.1476550000E-01  -0.8875000012E+01  -0.6901287224E-11  -0.7180464485E-11  -0.2201531796E-12  -0.3064015728E-12  -0.5235137437E-13   0.4750000006E-02  -0.2392750003E-02  -0.2392750003E-02  -0.6049130548E-14  -0.6641712385E-14  -0.1492306721E-14   0.8875000012E+01
   0.0000000000E+00   0.9976072500E+00   0.9976072500E+00   0.0000000000E+00   0.1237275000E-01   0.1237275000E-01   0.0000000000E+00  -0.1476550000E-01  -0.1476550000E-01  -0.8875000012E+01  -0.1056593377E-09  -0.1058135134E-09  -0.1015323738E-12  -0.1502638194E-13  -0.4361327064E-13   0.4750000006E-02  -0.2392750003E-02  -0.2392750003E-02  -0.3220283907E-14  -0.2704764008E-14   0.4696843943E-15   0.8875000012E+01
   0.2009500000E+01   0.0000000000E+00   0.6857508614E-14  -0.4950000000E-01   0.0000000000E+00   0.1592871630E-13   0.5900000000E-01   0.0000000000E+00  -0.9071207683E-14  -0.8875000014E+01  -0.1695358344E-09  -0.1696613283E-09   0.2036463101E-12   0.1904778382E-12   0.3616685552E-13   0.4750000007E-02  -0.2392750004E-02  -0.2392750004E-02   0.5613244805E-14   0.5177228181E-14   0.1432132211E-14   0.8875000013E+01
   0.2009500000E+01   0.9976072500E+00   0.7574256010E-14  -0.4950000000E-01   0.1237275000E-01   0.1628670045E-13   0.5900000000E-01  -0.1476550000E-01  -0.8712444439E-14  -0.8875000013E+01  -0.2263506593E-09  -0.2264265805E-09  -0.2154727263E-13   0.1965772979E-12   0.1068280101E-12   0.4750000007E-02  -0.2392750003E-02  -0.2392750003E-02   0.1746845659E-15   0.4577245164E-14   0.2320717391E-14   0.8875000012E+01
   0.2009500000E+01   0.0000000000E+00   0.9976072500E+00  -0.4950000000E-01   0.0000000000E+00   0.1237275000E-01   0.5900000000E-01   0.0000000000E+00  -0.1476550000E-01  -0.8875000013E+01  -0.3337055626E-09  -0.3339737290E-09   0.1913937657E-12  -0.3116594767E-12   0.6166688930E-13   0.4750000007E-02  -0.2392750003E-02  -0.2392750003E-02   0.4770087102E-14  -0.8856285920E-14   0.2142057345E-14   0.8875000012E+01
   0.2009500000E+01   0.9976072500E+00   0.9976072500E+00  -0.4950000000E-01   0.1237275000E-01   0.1237275000E-01   0.5900000000E-01  -0.1476550000E-01  -0.1476550000E-01  -0.8875000011E+01  -0.2797507189E-10  -0.2819272298E-10  -0.9164088274E-13  -0.3293833602E-13   0.1323730454E-12   0.4750000006E-02  -0.2392750003E-02  -0.2392750003E-02  -0.3209325874E-14  -0.1025254355E-14   0.3015655734E-14   0.8875000011E+01
     1     2     3     4     5     6     7     8
     2     9    10     3     6    11    12     7
 VARIABLES = X,Y,Z,DU1,DU2,DU3,U1,U2,U3,S11,S22,S33,S12,S13,S23,E11,E22,E33,E12,E13,E23,SMISES
 ZONE, T="0.2000D+01" F=FEPOINT, I=   12 J=    2 ET=BRICK
   0.0000000000E+00   0.0000000000E+00   0.0000000000E+00   0.0000000000E+00   0.0000000000E+00   0.0000000000E+00   0.0000000000E+00   0.0000000000E+00   0.0000000000E+00  -0.1000000002E+02  -0.7853576246E-10  -0.7855023727E-10  -0.1541521362E-15  -0.3225322800E-13   0.1490823192E-14  -0.2000000003E-01   0.9980000016E-02   0.9980000016E-02  -0.2825134032E-17  -0.1478839308E-14  -0.8165109731E-15   0.1000000002E+02
   0.9800000000E+00   0.0000000000E+00  -0.5076435971E-15  -0.2475000000E-01   0.0000000000E+00  -0.2530454150E-14   0.4750000000E-02   0.0000000000E+00   0.2022810553E-14  -0.1000000002E+02   0.3684881834E-10   0.3685017025E-10  -0.5023171615E-13  -0.4490196939E-13  -0.1204527130E-14  -0.2000000003E-01   0.9980000015E-02   0.9980000015E-02   0.1475125114E-14   0.1134493818E-14   0.6032644461E-15   0.1000000002E+02
   0.9800000000E+00   0.1009980000E+01  -0.2072281707E-15  -0.2475000000E-01   0.1237275000E-01  -0.2815173183E-14   0.4750000000E-02  -0.2392750000E-02   0.2607945012E-14  -0.1000000001E+02  -0.4356656460E-10  -0.4355362709E-10   0.3484854687E-13  -0.4307731203E-13  -0.3013164517E-14  -0.2000000003E-01   0.9980000014E-02   0.9980000014E-02   0.1212930393E-14  -0.7488915222E-15   0.1890773546E-14   0.1000000001E+02
   0.0000000000E+00   0.1009980000E+01  -0.4056444693E-15   0.0000000000E+00   0.1237275000E-01  -0.7143495386E-15   0.0000000000E+00  -0.2392750000E-02   0.3087050694E-15  -0.1000000001E+02   0.2132164585E-10   0.2130481566E-10   0.5466879478E-13  -0.3636215215E-13   0.6517262610E-16  -0.2000000003E-01   0.9980000015E-02   0.9980000015E-02  -0.8489859812E-15   0.2102620049E-15   0.4499058018E-15   0.1000000001E+02
   0.0000000000E+00   0.0000000000E+00   0.1009980000E+01   0.0000000000E+00   0.0000000000E+00   0.1237275000E-01   0.0000000000E+00   0.0000000000E+00  -0.2392750000E-02  -0.1000000001E+02   0.5206833534E-10   0.5205669345E-10   0.1275887524E-15   0.3456979481E-13   0.1446156066E-14  -0.2000000003E-01   0.9980000015E-02   0.9980000015E-02   0.3195403041E-17   0.1536208010E-14  -0.3883419663E-15   0.1000000001E+02
   0.9800000000E+00   0.0000000000E+00   0.1009980000E+01  -0.2475000000E-01   0.0000000000E+00   0.1237275000E-01   0.4750000000E-02   0.0000000000E+00  -0.2392750000E-02  -0.1000000001E+02   0.9150149101E-10   0.9150889335E-10  -0.4810039865E-13   0.4278098562E-13   0.2986234711E-14  -0.2000000003E-01   0.9980000014E-02   0.9980000014E-02  -0.1267041728E-14   0.3109165313E-15  -0.2045074551E-14   0.1000000001E+02
   0.9800000000E+00   0.1009980000E+01   0.1009980000E+01  -0.2475000000E-01   0.1237275000E-01   0.1237275000E-01   0.4750000000E-02  -0.2392750000E-02  -0.2392750000E-02  -0.1000000001E+02  -0.2439314714E-11  -0.2425120375E-11   0.3727702073E-13   0.4538947986E-13   0.1248172988E-14  -0.2000000003E-01   0.9980000013E-02   0.9980000013E-02  -0.2164419097E-14  -0.1578332939E-14  -0.7455603431E-15   0.1000000001E+02
   0.0000000000E+00   0.1009980000E+01   0.1009980000E+01   0.0000000000E+00   0.1237275000E-01   0.1237275000E-01   0.0000000000E+00  -0.2392750000E-02  -0.2392750000E-02  -0.1000000001E+02  -0.1847433676E-10  -0.1848520577E-10   0.5537378189E-13   0.3767364354E-13  -0.1571817742E-14  -0.2000000003E-01   0.9980000013E-02   0.9980000013E-02  -0.4705339371E-15  -0.1356035916E-14   0.8442314118E-15   0.1000000001E+02
   0.1960000000E+01   0.0000000000E+00  -0.7964896835E-16  -0.4950000000E-01   0.0000000000E+00  -0.6937157582E-14   0.9500000000E-02   0.0000000000E+00   0.6857508614E-14  -0.1000000002E+02  -0.3000708564E-10  -0.3001344999E-10  -0.5752368163E-13  -0.5217397896E-13  -0.8009662737E-15  -0.2000000003E-01   0.9980000015E-02   0.9980000015E-02   0.1459525884E-14   0.1350504567E-14   0.8752778482E-15   0.1000000002E+02
   0.1960000000E+01   0.1009980000E+01   0.3587969493E-15  -0.4950000000E-01   0.1237275000E-01  -0.7215459061E-14   0.9500000000E-02  -0.2392750000E-02   0.7574256010E-14  -0.1000000001E+02  -0.3326437613E-10  -0.3326812377E-10   0.5759045028E-13  -0.5290581896E-13  -0.2539727212E-14  -0.2000000003E-01   0.9980000014E-02   0.9980000014E-02   0.1765390274E-14   0.7052265970E-15   0.8704992033E-15   0.1000000001E+02
   0.1960000000E+01   0.0000000000E+00   0.1009980000E+01  -0.4950000000E-01   0.0000000000E+00   0.1237275000E-01   0.9500000000E-02   0.0000000000E+00  -0.2392750000E-02  -0.1000000001E+02  -0.1079037107E-09  -0.1079077298E-09  -0.5760531395E-13   0.5148306991E-13   0.1543195199E-14  -0.2000000003E-01   0.9980000014E-02   0.9980000014E-02   0.8311979191E-15  -0.3368302971E-14   0.1306580729E-14   0.1000000001E+02
   0.1960000000E+01   0.1009980000E+01   0.1009980000E+01  -0.4950000000E-01   0.1237275000E-01   0.1237275000E-01   0.9500000000E-02  -0.2392750000E-02  -0.2392750000E-02  -0.1000000001E+02   0.3219054113E-10   0.3219026863E-10   0.5769476271E-13   0.4974928656E-13   0.6831532535E-15  -0.2000000003E-01   0.9980000013E-02   0.9980000013E-02  -0.4958755562E-15   0.6599774041E-15   0.1295290919E-14   0.1000000001E+02
     1     2     3     4     5     6     7     8
     2     9    10     3     6    11    12     7
 VARIABLES = X,Y,Z,DU1,DU2,DU3,U1,U2,U3,S11,S22,S33,S12,S13,S23,E11,E22,E33,E12,E13,E23,SMISES
 ZONE, T="0.2050D+01" F=FEPOINT, I=   12 J=    2 ET=BRICK
   0.0000000000E+00   0.0000000000E+00   0.0000000000E+00   0.0000000000E+00   0.0000000000E+00   0.0000000000E+00   0.0000000000E+00   0.0000000000E+00   0.0000000000E+00  -0.8875000015E+01  -0.5763457353E-09  -0.5766478572E-09  -0.1608314690E-15  -0.1156025313E-11  -0.7088823320E-12  -0.1775000003E-01   0.8857250014E-02   0.8857250014E-02  -0.1718568201E-18  -0.1495446019E-13  -0.9328478888E-14   0.8875000014E+01
   0.9822500000E+00   0.0000000000E+00  -0.6463835257E-14   0.2250000000E-02   0.0000000000E+00  -0.5956191660E-14  -0.2000000000E-01   0.0000000000E+00  -0.5076435971E-15  -0.8875000014E+01  -0.2438535362E-11  -0.1747859469E-11  -0.1861800350E-12  -0.1571600460E-12  -0.6901357500E-14  -0.1775000003E-01   0.8857250014E-02   0.8857250014E-02  -0.1584820147E-15  -0.2158857581E-15   0.5336422261E-15   0.8875000014E+01
   0.9822500000E+00   0.1008857250E+01  -0.6197610659E-14   0.2250000000E-02  -0.1122750000E-02  -0.5990382488E-14  -0.2000000000E-01   0.9980000000E-02  -0.2072281707E-15  -0.8875000013E+01  -0.2665776994E-09  -0.2666454371E-09  -0.2343844321E-12   0.1611486631E-12   0.2883757241E-12  -0.1775000003E-01   0.8857250013E-02   0.8857250013E-02  -0.2017957745E-14   0.1705821188E-14   0.5379365252E-14   0.8875000013E+01
   0.0000000000E+00   0.1008857250E+01  -0.4665230715E-14   0.0000000000E+00  -0.1122750000E-02  -0.4259586246E-14   0.0000000000E+00   0.9980000000E-02  -0.4056444693E-15  -0.8875000013E+01  -0.3351529236E-09  -0.3344655205E-09   0.3261358677E-12  -0.5790431306E-13  -0.2352851975E-12  -0.1775000003E-01   0.8857250013E-02   0.8857250013E-02   0.2407955706E-14  -0.4641353210E-16  -0.2377442963E-14   0.8875000013E+01
   0.0000000000E+00   0.0000000000E+00   0.1008857250E+01   0.0000000000E+00   0.0000000000E+00  -0.1122750000E-02   0.0000000000E+00   0.0000000000E+00   0.9980000000E-02  -0.8875000013E+01   0.1482094938E-09   0.1469612831E-09   0.1075390381E-15  -0.1397122973E-12  -0.2135343459E-12  -0.1775000003E-01   0.8857250013E-02   0.8857250013E-02   0.1465399677E-17  -0.5611585582E-15  -0.2982702160E-14   0.8875000013E+01
   0.9822500000E+00   0.0000000000E+00   0.1008857250E+01   0.2250000000E-02   0.0000000000E+00  -0.1122750000E-02  -0.2000000000E-01   0.0000000000E+00   0.9980000000E-02  -0.8875000012E+01   0.4178966833E-09   0.4179986086E-09   0.2227480442E-12  -0.9497419738E-13  -0.3875606865E-12  -0.1775000003E-01   0.8857250013E-02   0.8857250013E-02   0.1984548470E-14  -0.1339813316E-14  -0.6720277476E-14   0.8875000013E+01
   0.9822500000E+00   0.1008857250E+01   0.1008857250E+01   0.2250000000E-02  -0.1122750000E-02  -0.1122750000E-02  -0.2000000000E-01   0.9980000000E-02   0.9980000000E-02  -0.8875000011E+01   0.2323210859E-09   0.2316600478E-09   0.2780647887E-12   0.3046120920E-12  -0.9217135692E-13  -0.1775000002E-01   0.8857250012E-02   0.8857250012E-02   0.7216850130E-15   0.1530627567E-14  -0.1868092671E-14   0.8875000012E+01
   0.0000000000E+00   0.1008857250E+01   0.1008857250E+01   0.0000000000E+00  -0.1122750000E-02  -0.1122750000E-02   0.0000000000E+00   0.9980000000E-02   0.9980000000E-02  -0.8875000011E+01   0.4773222164E-09   0.4770645385E-09   0.8320193445E-14  -0.3951360670E-12   0.2584948005E-12  -0.1775000002E-01   0.8857250012E-02   0.8857250012E-02  -0.1035556221E-14  -0.6549234009E-14   0.3992634739E-14   0.8875000012E+01
   0.1964500000E+01   0.0000000000E+00  -0.8864824939E-14   0.4500000000E-02   0.0000000000E+00  -0.8785175970E-14  -0.4000000000E-01   0.0000000000E+00  -0.7964896835E-16  -0.8875000014E+01  -0.5299028870E-09  -0.5297648333E-09  -0.2394289968E-13   0.4754925178E-12  -0.8915875085E-12  -0.1775000003E-01   0.8857250013E-02   0.8857250013E-02   0.1856048945E-14   0.7713109044E-14  -0.9804945665E-14   0.8875000013E+01
   0.1964500000E+01   0.1008857250E+01  -0.1376751118E-13   0.4500000000E-02  -0.1122750000E-02  -0.1412630813E-13  -0.4000000000E-01   0.9980000000E-02   0.3587969493E-15  -0.8875000012E+01  -0.8311027225E-10  -0.8165740139E-10  -0.4471523833E-12  -0.4385708078E-12  -0.2113751902E-12  -0.1775000002E-01   0.8857250012E-02   0.8857250012E-02  -0.4287556858E-14  -0.3925626084E-14  -0.1639275537E-14   0.8875000012E+01
   0.1964500000E+01   0.0000000000E+00   0.1008857250E+01   0.4500000000E-02   0.0000000000E+00  -0.1122750000E-02  -0.4000000000E-01   0.0000000000E+00   0.9980000000E-02  -0.8875000013E+01  -0.1883938299E-09  -0.1896167250E-09   0.3451463817E-12  -0.4210183469E-12  -0.2331168778E-12  -0.1775000002E-01   0.8857250012E-02   0.8857250012E-02   0.5655082717E-14  -0.8995881937E-14  -0.1503289875E-14   0.8875000012E+01
   0.1964500000E+01   0.1008857250E+01   0.1008857250E+01   0.4500000000E-02  -0.1122750000E-02  -0.1122750000E-02  -0.4000000000E-01   0.9980000000E-02   0.9980000000E-02  -0.8875000011E+01   0.3276083146E-09   0.3277016670E-09   0.4475714489E-12   0.1851914891E-12   0.4479275298E-12  -0.1775000002E-01   0.8857250011E-02   0.8857250011E-02   0.4169568519E-14   0.2214464648E-14   0.6646988837E-14   0.8875000011E+01
     1     2     3     4     5     6     7     8
     2     9    10     3     6    11    12     7
 VARIABLES = X,Y,Z,DU1,DU2,DU3,U1,U2,U3,S11,S22,S33,S12,S13,S23,E11,E22,E33,E12,E13,E23,SMISES
 ZONE, T="0.2100D+01" F=FEPOINT, I=   12 J=    2 ET=BRICK
   0.0000000000E+00   0.0000000000E+00   0.0000000000E+00   0.0000000000E+00   0.0000000000E+00   0.0000000000E+00   0.0000000000E+00   0.0000000000E+00   0.0000000000E+00  -0.7750000012E+01  -0.8139242302E-10  -0.8140700594E-10  -0.1694753375E-15  -0.3505415019E-13  -0.2228320885E-15  -0.1550000002E-01   0.7734500012E-02   0.7734500012E-02  -0.2294212436E-18  -0.1523781624E-14  -0.8307079311E-15   0.7750000012E+01
   0.9845000000E+00   0.0000000000E+00  -0.5309045682E-15   0.2250000000E-02   0.0000000000E+00   0.5932930689E-14  -0.1775000000E-01   0.0000000000E+00  -0.6463835257E-14  -0.7750000012E+01   0.3510511685E-10   0.3510800713E-10  -0.4959249798E-13  -0.4490134992E-13  -0.1967354763E-14  -0.1550000002E-01   0.7734500012E-02   0.7734500012E-02   0.1478703398E-14   0.1155214594E-14   0.5884559867E-15   0.7750000012E+01
   0.9845000000E+00   0.1007734500E+01  -0.2351628608E-15   0.2250000000E-02  -0.1122750000E-02   0.5962447798E-14  -0.1775000000E-01   0.8857250000E-02  -0.6197610659E-14  -0.7750000011E+01  -0.4537834962E-10  -0.4536482141E-10   0.3565082821E-13  -0.4159651219E-13  -0.2586574135E-14  -0.1550000002E-01   0.7734500011E-02   0.7734500011E-02   0.1214082552E-14  -0.7360680912E-15   0.1904440385E-14   0.7750000011E+01
   0.0000000000E+00   0.1007734500E+01  -0.4160145374E-15   0.0000000000E+00  -0.1122750000E-02   0.4249216178E-14   0.0000000000E+00   0.8857250000E-02  -0.4665230715E-14  -0.7750000011E+01   0.1970781782E-10   0.1969417247E-10   0.5476550706E-13  -0.3799415895E-13   0.3431502570E-15  -0.1550000002E-01   0.7734500011E-02   0.7734500011E-02  -0.8417012255E-15   0.1969952522E-15   0.4436612109E-15   0.7750000011E+01
   0.0000000000E+00   0.0000000000E+00   0.1007734500E+01   0.0000000000E+00   0.0000000000E+00  -0.1122750000E-02   0.0000000000E+00   0.0000000000E+00   0.8857250000E-02  -0.7750000011E+01   0.5343557120E-10   0.5341983450E-10   0.7584886830E-16   0.3303038206E-13   0.1279137338E-14  -0.1550000002E-01   0.7734500011E-02   0.7734500011E-02   0.7695279432E-19   0.1511734549E-14  -0.3993579309E-15   0.7750000011E+01
   0.9845000000E+00   0.0000000000E+00   0.1007734500E+01   0.2250000000E-02   0.0000000000E+00  -0.1122750000E-02  -0.1775000000E-01   0.0000000000E+00   0.8857250000E-02  -0.7750000011E+01   0.9333353359E-10   0.9334006369E-10  -0.4656244432E-13   0.4313825895E-13   0.1778772341E-14  -0.1550000002E-01   0.7734500011E-02   0.7734500011E-02  -0.1245288218E-14   0.3180134459E-15  -0.2052345949E-14   0.7750000011E+01
   0.9845000000E+00   0.1007734500E+01   0.1007734500E+01   0.2250000000E-02  -0.1122750000E-02  -0.1122750000E-02  -0.1775000000E-01   0.8857250000E-02   0.8857250000E-02  -0.7750000010E+01  -0.1594132541E-11  -0.1581758113E-11   0.3846597090E-13   0.4651210165E-13   0.1290586322E-14  -0.1550000002E-01   0.7734500010E-02   0.7734500010E-02  -0.2140162759E-14  -0.1572433920E-14  -0.7541792600E-15   0.7750000010E+01
   0.0000000000E+00   0.1007734500E+01   0.1007734500E+01   0.0000000000E+00  -0.1122750000E-02  -0.1122750000E-02   0.0000000000E+00   0.8857250000E-02   0.8857250000E-02  -0.7750000010E+01  -0.1491684777E-10  -0.1492894094E-10   0.5454359042E-13   0.3465883374E-13   0.1865729249E-15  -0.1550000002E-01   0.7734500010E-02   0.7734500010E-02  -0.4881266477E-15  -0.1387746968E-14   0.8836576139E-15   0.7750000010E+01
   0.1969000000E+01   0.0000000000E+00  -0.1532421956E-15   0.4500000000E-02   0.0000000000E+00   0.8711582743E-14  -0.3550000000E-01   0.0000000000E+00  -0.8864824939E-14  -0.7750000012E+01  -0.3134278775E-10  -0.3134806871E-10  -0.5689373154E-13  -0.4998754081E-13  -0.1184860963E-14  -0.1550000002E-01   0.7734500012E-02   0.7734500012E-02   0.1458650313E-14   0.1356061543E-14   0.8707724549E-15   0.7750000012E+01
   0.1969000000E+01   0.1007734500E+01   0.2827976518E-15   0.4500000000E-02  -0.1122750000E-02   0.1405030883E-13  -0.3550000000E-01   0.8857250000E-02  -0.1376751118E-13  -0.7750000011E+01  -0.3467914177E-10  -0.3468166525E-10   0.5810431908E-13  -0.5385755609E-13  -0.1296737103E-14  -0.1550000002E-01   0.7734500011E-02   0.7734500011E-02   0.1775063824E-14   0.7135091899E-15   0.8799848941E-15   0.7750000011E+01
   0.1969000000E+01   0.0000000000E+00   0.1007734500E+01   0.4500000000E-02   0.0000000000E+00  -0.1122750000E-02  -0.3550000000E-01   0.0000000000E+00   0.8857250000E-02  -0.7750000011E+01  -0.1056034118E-09  -0.1056098466E-09  -0.6051768859E-13   0.5312922155E-13   0.1219805578E-14  -0.1550000002E-01   0.7734500011E-02   0.7734500011E-02   0.7872555715E-15  -0.3312290764E-14   0.1308056779E-14   0.7750000011E+01
   0.1969000000E+01   0.1007734500E+01   0.1007734500E+01   0.4500000000E-02  -0.1122750000E-02  -0.1122750000E-02  -0.3550000000E-01   0.8857250000E-02   0.8857250000E-02  -0.7750000010E+01   0.3162218701E-10   0.3162006193E-10   0.5526085106E-13   0.4953062342E-13   0.2115127107E-14  -0.1550000002E-01   0.7734500010E-02   0.7734500010E-02  -0.5364439579E-15   0.6246924817E-15   0.1308479570E-14   0.7750000010E+01
     1     2     3     4     5     6     7     8
     2     9    10     3     6    11    12     7
 VARIABLES = X,Y,Z,DU1,DU2,DU3,U1,U2,U3,S11,S22,S33,S12,S13,S23,E11,E22,E33,E12,E13,E23,SMISES
 ZONE, T="0.2150D+01" F=FEPOINT, I=   12 J=    2 ET=BRICK
   0.0000000000E+00   0.0000000000E+00   0.0000000000E+00   0.0000000000E+00   0.0000000000E+00   0.0000000000E+00   0.0000000000E+00   0.0000000000E+00   0.0000000000E+00  -0.6625000010E+01  -0.8159339987E-10  -0.8160792183E-10  -0.1824348721E-15  -0.3507584812E-13  -0.4552158022E-15  -0.1325000002E-01   0.6611750010E-02   0.6611750010E-02   0.8142492620E-18  -0.1513380137E-14  -0.8372179947E-15   0.6625000010E+01
   0.9867500000E+00   0.0000000000E+00  -0.5321212490E-15   0.2250000000E-02   0.0000000000E+00  -0.1216680747E-17  -0.1550000000E-01   0.0000000000E+00  -0.5309045682E-15  -0.6625000010E+01   0.3489897151E-10   0.3490264983E-10  -0.4935414128E-13  -0.4475549161E-13  -0.1913398418E-14  -0.1325000002E-01   0.6611750010E-02   0.6611750010E-02   0.1477977038E-14   0.1135079511E-14   0.5940952669E-15   0.6625000010E+01
   0.9867500000E+00   0.1006611750E+01  -0.2360100998E-15   0.2250000000E-02  -0.1122750000E-02  -0.8472389475E-18  -0.1550000000E-01   0.7734500000E-02  -0.2351628608E-15  -0.6625000009E+01  -0.4584349924E-10  -0.4582965683E-10   0.3580321830E-13  -0.4218394670E-13  -0.2308787403E-14  -0.1325000002E-01   0.6611750009E-02   0.6611750009E-02   0.1211929467E-14  -0.7357750201E-15   0.1900150174E-14   0.6625000009E+01
   0.0000000000E+00   0.1006611750E+01  -0.4173504678E-15   0.0000000000E+00  -0.1122750000E-02  -0.1335930339E-17   0.0000000000E+00   0.7734500000E-02  -0.4160145374E-15  -0.6625000010E+01   0.1988494209E-10   0.1987126155E-10   0.5443657628E-13  -0.3759658091E-13   0.3932515183E-15  -0.1325000002E-01   0.6611750010E-02   0.6611750010E-02  -0.8449432411E-15   0.1972572750E-15   0.4444102806E-15   0.6625000010E+01
   0.0000000000E+00   0.0000000000E+00   0.1006611750E+01   0.0000000000E+00   0.0000000000E+00  -0.1122750000E-02   0.0000000000E+00   0.0000000000E+00   0.7734500000E-02  -0.6625000010E+01   0.5380731003E-10   0.5379057666E-10   0.7190963155E-16   0.3295463825E-13   0.1188887844E-14  -0.1325000002E-01   0.6611750010E-02   0.6611750010E-02  -0.2345214068E-17   0.1516303389E-14  -0.4033901561E-15   0.6625000010E+01
   0.9867500000E+00   0.0000000000E+00   0.1006611750E+01   0.2250000000E-02   0.0000000000E+00  -0.1122750000E-02  -0.1550000000E-01   0.0000000000E+00   0.7734500000E-02  -0.6625000009E+01   0.9355243868E-10   0.9355889840E-10  -0.4705614263E-13   0.4324015480E-13   0.1683844475E-14  -0.1325000002E-01   0.6611750009E-02   0.6611750009E-02  -0.1246715877E-14   0.3171699114E-15  -0.2057384053E-14   0.6625000009E+01
   0.9867500000E+00   0.1006611750E+01   0.1006611750E+01   0.2250000000E-02  -0.1122750000E-02  -0.1122750000E-02  -0.1550000000E-01   0.7734500000E-02   0.7734500000E-02  -0.6625000009E+01  -0.1471451287E-11  -0.1459198770E-11   0.3792861172E-13   0.4603844201E-13   0.1451035047E-14  -0.1325000002E-01   0.6611750009E-02   0.6611750009E-02  -0.2151649628E-14  -0.1573444098E-14  -0.7490175023E-15   0.6625000009E+01
   0.0000000000E+00   0.1006611750E+01   0.1006611750E+01   0.0000000000E+00  -0.1122750000E-02  -0.1122750000E-02   0.0000000000E+00   0.7734500000E-02   0.7734500000E-02  -0.6625000009E+01  -0.1489945449E-10  -0.1491127555E-10   0.5412782070E-13   0.3458090173E-13   0.3203586551E-15  -0.1325000002E-01   0.6611750009E-02   0.6611750009E-02  -0.4863299023E-15  -0.1394198011E-14   0.8887659030E-15   0.6625000009E+01
   0.1973500000E+01   0.0000000000E+00  -0.1610442655E-15   0.4500000000E-02   0.0000000000E+00  -0.7802069912E-17  -0.3100000000E-01   0.0000000000E+00  -0.1532421956E-15  -0.6625000010E+01  -0.3114758730E-10  -0.3115201926E-10  -0.5761536733E-13  -0.4997342096E-13  -0.1125303848E-14  -0.1325000002E-01   0.6611750010E-02   0.6611750010E-02   0.1459875629E-14   0.1376862200E-14   0.8681527636E-15   0.6625000010E+01
   0.1973500000E+01   0.1006611750E+01   0.2753931385E-15   0.4500000000E-02  -0.1122750000E-02  -0.7404513297E-17  -0.3100000000E-01   0.7734500000E-02   0.2827976518E-15  -0.6625000009E+01  -0.3532494041E-10  -0.3532795406E-10   0.5765708319E-13  -0.5340340379E-13  -0.1051900884E-14  -0.1325000002E-01   0.6611750009E-02   0.6611750009E-02   0.1770884895E-14   0.7072057356E-15   0.8850576795E-15   0.6625000009E+01
   0.1973500000E+01   0.0000000000E+00   0.1006611750E+01   0.4500000000E-02   0.0000000000E+00  -0.1122750000E-02  -0.3100000000E-01   0.0000000000E+00   0.7734500000E-02  -0.6625000009E+01  -0.1051836293E-09  -0.1051903619E-09  -0.6062981000E-13   0.5374074335E-13   0.9906827749E-15  -0.1325000002E-01   0.6611750009E-02   0.6611750009E-02   0.7715103723E-15  -0.3310862780E-14   0.1305083242E-14   0.6625000009E+01
   0.1973500000E+01   0.1006611750E+01   0.1006611750E+01   0.4500000000E-02  -0.1122750000E-02  -0.1122750000E-02  -0.3100000000E-01   0.7734500000E-02   0.7734500000E-02  -0.6625000008E+01   0.3225667052E-10   0.3225469564E-10   0.5540388368E-13   0.4996833147E-13   0.2087026141E-14  -0.1325000002E-01   0.6611750008E-02   0.6611750008E-02  -0.5227305073E-15   0.6152552282E-15   0.1313830190E-14   0.6625000008E+01
     1     2     3     4     5     6     7     8
     2     9    10     3     6    11    12     7
 VARIABLES = X,Y,Z,DU1,DU2,DU3,U1,U2,U3,S11,S22,S33,S12,S13,S23,E11,E22,E33,E12,E13,E23,SMISES
 ZONE, T="0.2200D+01" F=FEPOINT, I=   12 J=    2 ET=BRICK
   0.0000000000E+00   0.0000000000E+00   0.0000000000E+00   0.0000000000E+00   0.0000000000E+00   0.0000000000E+00   0.0000000000E+00   0.0000000000E+00   0.0000000000E+00  -0.5500000009E+01  -0.8077669345E-10  -0.8079127092E-10  -0.1999247679E-15  -0.3445716480E-13  -0.1069998243E-15  -0.1100000002E-01   0.5489000009E-02   0.5489000009E-02  -0.1235047799E-17  -0.1509498382E-14  -0.8302487186E-15   0.5500000009E+01
   0.9890000000E+00   0.0000000000E+00  -0.5262819560E-15   0.2250000000E-02   0.0000000000E+00   0.5839292930E-17  -0.1325000000E-01   0.0000000000E+00  -0.5321212490E-15  -0.5500000008E+01   0.3527224857E-10   0.3527553142E-10  -0.4983326718E-13  -0.4506159622E-13  -0.1793507922E-14  -0.1100000002E-01   0.5489000008E-02   0.5489000008E-02   0.1478977759E-14   0.1138320552E-14   0.5921995265E-15   0.5500000008E+01
   0.9890000000E+00   0.1005489000E+01  -0.2293969820E-15   0.2250000000E-02  -0.1122750000E-02   0.6613117818E-17  -0.1325000000E-01   0.6611750000E-02  -0.2360100998E-15  -0.5500000008E+01  -0.4520561179E-10  -0.4519249793E-10   0.3529985174E-13  -0.4191405848E-13  -0.2447641263E-14  -0.1100000002E-01   0.5489000008E-02   0.5489000008E-02   0.1214239541E-14  -0.7323575143E-15   0.1903711402E-14   0.5500000008E+01
   0.0000000000E+00   0.1005489000E+01  -0.4153998138E-15   0.0000000000E+00  -0.1122750000E-02   0.1950653965E-17   0.0000000000E+00   0.6611750000E-02  -0.4173504678E-15  -0.5500000008E+01   0.2012371378E-10   0.2010997772E-10   0.5453682338E-13  -0.3723968468E-13   0.1056988041E-15  -0.1100000002E-01   0.5489000008E-02   0.5489000008E-02  -0.8508430163E-15   0.2028915388E-15   0.4413861910E-15   0.5500000008E+01
   0.0000000000E+00   0.0000000000E+00   0.1005489000E+01   0.0000000000E+00   0.0000000000E+00  -0.1122750000E-02   0.0000000000E+00   0.0000000000E+00   0.6611750000E-02  -0.5500000008E+01   0.5317941458E-10   0.5316345584E-10   0.8706935902E-16   0.3345597322E-13   0.1470458142E-14  -0.1100000002E-01   0.5489000008E-02   0.5489000008E-02   0.1896955155E-17   0.1525017967E-14  -0.3929040787E-15   0.5500000008E+01
   0.9890000000E+00   0.0000000000E+00   0.1005489000E+01   0.2250000000E-02   0.0000000000E+00  -0.1122750000E-02  -0.1325000000E-01   0.0000000000E+00   0.6611750000E-02  -0.5500000008E+01   0.9301474342E-10   0.9302112186E-10  -0.4688408803E-13   0.4280358244E-13   0.1849041997E-14  -0.1100000002E-01   0.5489000008E-02   0.5489000008E-02  -0.1254077130E-14   0.3141260241E-15  -0.2058653580E-14   0.5500000008E+01
   0.9890000000E+00   0.1005489000E+01   0.1005489000E+01   0.2250000000E-02  -0.1122750000E-02  -0.1122750000E-02  -0.1325000000E-01   0.6611750000E-02   0.6611750000E-02  -0.5500000007E+01  -0.1691156223E-11  -0.1678741158E-11   0.3812904244E-13   0.4631065116E-13   0.1330091173E-14  -0.1100000001E-01   0.5489000007E-02   0.5489000007E-02  -0.2152705345E-14  -0.1568503268E-14  -0.7438642472E-15   0.5500000007E+01
   0.0000000000E+00   0.1005489000E+01   0.1005489000E+01   0.0000000000E+00  -0.1122750000E-02  -0.1122750000E-02   0.0000000000E+00   0.6611750000E-02   0.6611750000E-02  -0.5500000007E+01  -0.1548249429E-10  -0.1549361801E-10   0.5465847767E-13   0.3495089017E-13   0.1081911503E-15  -0.1100000001E-01   0.5489000007E-02   0.5489000007E-02  -0.4770732099E-15  -0.1392281720E-14   0.8764228552E-15   0.5500000007E+01
   0.1978000000E+01   0.0000000000E+00  -0.1402672749E-15   0.4500000000E-02   0.0000000000E+00   0.2077699059E-16  -0.2650000000E-01   0.0000000000E+00  -0.1610442655E-15  -0.5500000008E+01  -0.3133992072E-10  -0.3134551044E-10  -0.5673636203E-13  -0.5018266261E-13  -0.1158166973E-14  -0.1100000002E-01   0.5489000008E-02   0.5489000008E-02   0.1467521107E-14   0.1358357584E-14   0.8753450886E-15   0.5500000008E+01
   0.1978000000E+01   0.1005489000E+01   0.2957794268E-15   0.4500000000E-02  -0.1122750000E-02   0.2038628825E-16  -0.2650000000E-01   0.6611750000E-02   0.2753931385E-15  -0.5500000008E+01  -0.3435731526E-10  -0.3435966676E-10   0.5829145147E-13  -0.5350987208E-13  -0.1597638050E-14  -0.1100000002E-01   0.5489000008E-02   0.5489000008E-02   0.1775688626E-14   0.6868805980E-15   0.8685766672E-15   0.5500000008E+01
   0.1978000000E+01   0.0000000000E+00   0.1005489000E+01   0.4500000000E-02   0.0000000000E+00  -0.1122750000E-02  -0.2650000000E-01   0.0000000000E+00   0.6611750000E-02  -0.5500000008E+01  -0.1059709527E-09  -0.1059772249E-09  -0.5967664606E-13   0.5330255495E-13   0.1351839110E-14  -0.1100000002E-01   0.5489000008E-02   0.5489000008E-02   0.7965943801E-15  -0.3304256619E-14   0.1307161167E-14   0.5500000008E+01
   0.1978000000E+01   0.1005489000E+01   0.1005489000E+01   0.4500000000E-02  -0.1122750000E-02  -0.1122750000E-02  -0.2650000000E-01   0.6611750000E-02   0.6611750000E-02  -0.5500000007E+01   0.3211558270E-10   0.3211481166E-10   0.5590211948E-13   0.4997945713E-13   0.2126057244E-14  -0.1100000001E-01   0.5489000007E-02   0.5489000007E-02  -0.5259095900E-15   0.6090680994E-15   0.1308058478E-14   0.5500000007E+01
     1     2     3     4     5     6     7     8
     2     9    10     3     6    11    12     7
 VARIABLES = X,Y,Z,DU1,DU2,DU3,U1,U2,U3,S11,S22,S33,S12,S13,S23,E11,E22,E33,E12,E13,E23,SMISES
 ZONE, T="0.2250D+01" F=FEPOINT, I=   12 J=    2 ET=BRICK
   0.0000000000E+00   0.0000000000E+00   0.0000000000E+00   0.0000000000E+00   0.0000000000E+00   0.0000000000E+00   0.0000000000E+00   0.0000000000E+00   0.0000000000E+00  -0.4375000007E+01  -0.8059383209E-10  -0.8060699728E-10  -0.1811845685E-15  -0.3399530688E-13   0.4341327493E-15  -0.8750000014E-02   0.4366250007E-02   0.4366250007E-02  -0.4956670885E-18  -0.1501057680E-14  -0.8246529252E-15   0.4375000007E+01
   0.9912500000E+00   0.0000000000E+00  -0.5266158708E-15   0.2250000000E-02   0.0000000000E+00  -0.3339147937E-18  -0.1100000000E-01   0.0000000000E+00  -0.5262819560E-15  -0.4375000007E+01   0.3472013110E-10   0.3472358194E-10  -0.5058832865E-13  -0.4584926093E-13  -0.2100871803E-14  -0.8750000013E-02   0.4366250007E-02   0.4366250007E-02   0.1470672966E-14   0.1127257156E-14   0.5917221771E-15   0.4375000007E+01
   0.9912500000E+00   0.1004366250E+01  -0.2316803376E-15   0.2250000000E-02  -0.1122750000E-02  -0.2283355663E-17  -0.1100000000E-01   0.5489000000E-02  -0.2293969820E-15  -0.4375000006E+01  -0.4528846324E-10  -0.4527513676E-10   0.3448451304E-13  -0.4178400081E-13  -0.2690109415E-14  -0.8750000012E-02   0.4366250006E-02   0.4366250006E-02   0.1206633678E-14  -0.7324387006E-15   0.1894748575E-14   0.4375000006E+01
   0.0000000000E+00   0.1004366250E+01  -0.4120388943E-15   0.0000000000E+00  -0.1122750000E-02   0.3360919470E-17   0.0000000000E+00   0.5489000000E-02  -0.4153998138E-15  -0.4375000006E+01   0.1922650281E-10   0.1921204837E-10   0.5486321136E-13  -0.3801385259E-13   0.1051910821E-14  -0.8750000013E-02   0.4366250006E-02   0.4366250006E-02  -0.8463626967E-15   0.1937029849E-15   0.4564618864E-15   0.4375000006E+01
   0.0000000000E+00   0.0000000000E+00   0.1004366250E+01   0.0000000000E+00   0.0000000000E+00  -0.1122750000E-02   0.0000000000E+00   0.0000000000E+00   0.5489000000E-02  -0.4375000006E+01   0.5332788398E-10   0.5331237006E-10   0.7817989967E-16   0.3357780630E-13   0.1183044724E-14  -0.8750000013E-02   0.4366250006E-02   0.4366250006E-02   0.1047508416E-17   0.1522779480E-14  -0.4004290649E-15   0.4375000006E+01
   0.9912500000E+00   0.0000000000E+00   0.1004366250E+01   0.2250000000E-02   0.0000000000E+00  -0.1122750000E-02  -0.1100000000E-01   0.0000000000E+00   0.5489000000E-02  -0.4375000006E+01   0.9360469019E-10   0.9361101856E-10  -0.4644118682E-13   0.4188788066E-13   0.1502565141E-14  -0.8750000012E-02   0.4366250006E-02   0.4366250006E-02  -0.1245638418E-14   0.3014987098E-15  -0.2061269414E-14   0.4375000006E+01
   0.9912500000E+00   0.1004366250E+01   0.1004366250E+01   0.2250000000E-02  -0.1122750000E-02  -0.1122750000E-02  -0.1100000000E-01   0.5489000000E-02   0.5489000000E-02  -0.4375000006E+01  -0.1444293496E-11  -0.1431672719E-11   0.3867783123E-13   0.4653069166E-13   0.1216795034E-14  -0.8750000011E-02   0.4366250006E-02   0.4366250006E-02  -0.2143412509E-14  -0.1561336593E-14  -0.7456534004E-15   0.4375000006E+01
   0.0000000000E+00   0.1004366250E+01   0.1004366250E+01   0.0000000000E+00  -0.1122750000E-02  -0.1122750000E-02   0.0000000000E+00   0.5489000000E-02   0.5489000000E-02  -0.4375000006E+01  -0.1535765378E-10  -0.1536978088E-10   0.5456443183E-13   0.3511466277E-13   0.1097819989E-15  -0.8750000012E-02   0.4366250006E-02   0.4366250006E-02  -0.4788082358E-15  -0.1390674789E-14   0.8758417904E-15   0.4375000006E+01
   0.1982500000E+01   0.0000000000E+00  -0.1527528290E-15   0.4500000000E-02   0.0000000000E+00  -0.1248555405E-16  -0.2200000000E-01   0.0000000000E+00  -0.1402672749E-15  -0.4375000007E+01  -0.3284317949E-10  -0.3284803940E-10  -0.5530873840E-13  -0.4840168274E-13  -0.1156286720E-14  -0.8750000013E-02   0.4366250007E-02   0.4366250007E-02   0.1483924652E-14   0.1384024532E-14   0.8730765223E-15   0.4375000007E+01
   0.1982500000E+01   0.1004366250E+01   0.2832511312E-15   0.4500000000E-02  -0.1122750000E-02  -0.1252829557E-16  -0.2200000000E-01   0.5489000000E-02   0.2957794268E-15  -0.4375000006E+01  -0.3443815933E-10  -0.3444046947E-10   0.5935706006E-13  -0.5380763298E-13  -0.9490406091E-15  -0.8750000012E-02   0.4366250006E-02   0.4366250006E-02   0.1790796938E-14   0.6675164756E-15   0.8797048142E-15   0.4375000006E+01
   0.1982500000E+01   0.0000000000E+00   0.1004366250E+01   0.4500000000E-02   0.0000000000E+00  -0.1122750000E-02  -0.2200000000E-01   0.0000000000E+00   0.5489000000E-02  -0.4375000006E+01  -0.1047213719E-09  -0.1047286251E-09  -0.6108506883E-13   0.5481416171E-13   0.1204258736E-14  -0.8750000012E-02   0.4366250006E-02   0.4366250006E-02   0.7790279458E-15  -0.3314680228E-14   0.1304673139E-14   0.4375000006E+01
   0.1982500000E+01   0.1004366250E+01   0.1004366250E+01   0.4500000000E-02  -0.1122750000E-02  -0.1122750000E-02  -0.2200000000E-01   0.5489000000E-02   0.5489000000E-02  -0.4375000006E+01   0.3210643468E-10   0.3210488776E-10   0.5470411195E-13   0.4908724288E-13   0.2608092954E-14  -0.8750000011E-02   0.4366250006E-02   0.4366250006E-02  -0.5465243444E-15   0.6044794047E-15   0.1308367598E-14   0.4375000006E+01
     1     2     3     4     5     6     7     8
     2     9    10     3     6    11    12     7
 VARIABLES = X,Y,Z,DU1,DU2,DU3,U1,U2,U3,S11,S22,S33,S12,S13,S23,E11,E22,E33,E12,E13,E23,SMISES
 ZONE, T="0.2300D+01" F=FEPOINT, I=   12 J=    2 ET=BRICK
   0.0000000000E+00   0.0000000000E+00   0.0000000000E+00   0.0000000000E+00   0.0000000000E+00   0.0000000000E+00   0.0000000000E+00   0.0000000000E+00   0.0000000000E+00  -0.3250000005E+01  -0.8052051349E-10  -0.8053420677E-10  -0.2053693586E-15  -0.3417774032E-13   0.2768865929E-15  -0.6500000010E-02   0.3243500005E-02   0.3243500005E-02  -0.1010400296E-17  -0.1506039360E-14  -0.8251958852E-15   0.3250000005E+01
   0.9935000000E+00   0.0000000000E+00  -0.5267168803E-15   0.2250000000E-02   0.0000000000E+00  -0.1010094774E-18  -0.8750000000E-02   0.0000000000E+00  -0.5266158708E-15  -0.3250000005E+01   0.3495293730E-10   0.3495672665E-10  -0.5042204889E-13  -0.4581768485E-13  -0.1952323184E-14  -0.6500000010E-02   0.3243500005E-02   0.3243500005E-02   0.1473601512E-14   0.1129380533E-14   0.5917493585E-15   0.3250000005E+01
   0.9935000000E+00   0.1003243500E+01  -0.2307280820E-15   0.2250000000E-02  -0.1122750000E-02   0.9522556073E-18  -0.8750000000E-02   0.4366250000E-02  -0.2316803376E-15  -0.3250000005E+01  -0.4536470035E-10  -0.4535139419E-10   0.3470378038E-13  -0.4181264396E-13  -0.2474916211E-14  -0.6500000009E-02   0.3243500005E-02   0.3243500005E-02   0.1209533992E-14  -0.7347284254E-15   0.1902051801E-14   0.3250000005E+01
   0.0000000000E+00   0.1003243500E+01  -0.4128326986E-15   0.0000000000E+00  -0.1122750000E-02  -0.7938042827E-18   0.0000000000E+00   0.4366250000E-02  -0.4120388943E-15  -0.3250000005E+01   0.1957456630E-10   0.1956021817E-10   0.5452479377E-13  -0.3775209822E-13   0.8609160208E-15  -0.6500000009E-02   0.3243500005E-02   0.3243500005E-02  -0.8484866627E-15   0.1966425522E-15   0.4498278985E-15   0.3250000005E+01
   0.0000000000E+00   0.0000000000E+00   0.1003243500E+01   0.0000000000E+00   0.0000000000E+00  -0.1122750000E-02   0.0000000000E+00   0.0000000000E+00   0.4366250000E-02  -0.3250000005E+01   0.5325433654E-10   0.5323896412E-10   0.1114085316E-15   0.3343731775E-13   0.1135729458E-14  -0.6500000009E-02   0.3243500005E-02   0.3243500005E-02   0.3353328728E-18   0.1523610691E-14  -0.4015789472E-15   0.3250000005E+01
   0.9935000000E+00   0.0000000000E+00   0.1003243500E+01   0.2250000000E-02   0.0000000000E+00  -0.1122750000E-02  -0.8750000000E-02   0.0000000000E+00   0.4366250000E-02  -0.3250000005E+01   0.9347339679E-10   0.9347963446E-10  -0.4641139593E-13   0.4199742462E-13   0.1606618402E-14  -0.6500000009E-02   0.3243500005E-02   0.3243500005E-02  -0.1242204829E-14   0.2951494841E-15  -0.2058096023E-14   0.3250000005E+01
   0.9935000000E+00   0.1003243500E+01   0.1003243500E+01   0.2250000000E-02  -0.1122750000E-02  -0.1122750000E-02  -0.8750000000E-02   0.4366250000E-02   0.4366250000E-02  -0.3250000004E+01  -0.1613635702E-11  -0.1601009481E-11   0.3878685910E-13   0.4647918681E-13   0.1285489296E-14  -0.6500000009E-02   0.3243500004E-02   0.3243500004E-02  -0.2144326712E-14  -0.1564592932E-14  -0.7454696217E-15   0.3250000004E+01
   0.0000000000E+00   0.1003243500E+01   0.1003243500E+01   0.0000000000E+00  -0.1122750000E-02  -0.1122750000E-02   0.0000000000E+00   0.4366250000E-02   0.4366250000E-02  -0.3250000004E+01  -0.1529095438E-10  -0.1530310997E-10   0.5445639690E-13   0.3514007172E-13   0.1750857479E-16  -0.6500000009E-02   0.3243500004E-02   0.3243500004E-02  -0.4776856381E-15  -0.1388972635E-14   0.8768358661E-15   0.3250000004E+01
   0.1987000000E+01   0.0000000000E+00  -0.1492609223E-15   0.4500000000E-02   0.0000000000E+00   0.3491906691E-17  -0.1750000000E-01   0.0000000000E+00  -0.1527528290E-15  -0.3250000005E+01  -0.3228504789E-10  -0.3228994572E-10  -0.5631687614E-13  -0.4907745755E-13  -0.1157920895E-14  -0.6500000010E-02   0.3243500005E-02   0.3243500005E-02   0.1470482739E-14   0.1378242662E-14   0.8735841806E-15   0.3250000005E+01
   0.1987000000E+01   0.1003243500E+01   0.2865115798E-15   0.4500000000E-02  -0.1122750000E-02   0.3260448547E-17  -0.1750000000E-01   0.4366250000E-02   0.2832511312E-15  -0.3250000005E+01  -0.3461056646E-10  -0.3461335660E-10   0.5883465757E-13  -0.5351266717E-13  -0.1328914858E-14  -0.6500000009E-02   0.3243500005E-02   0.3243500005E-02   0.1784166358E-14   0.6971943624E-15   0.8747948471E-15   0.3250000005E+01
   0.1987000000E+01   0.0000000000E+00   0.1003243500E+01   0.4500000000E-02   0.0000000000E+00  -0.1122750000E-02  -0.1750000000E-01   0.0000000000E+00   0.4366250000E-02  -0.3250000005E+01  -0.1048001063E-09  -0.1048073494E-09  -0.6101155522E-13   0.5448195389E-13   0.1014455901E-14  -0.6500000009E-02   0.3243500005E-02   0.3243500005E-02   0.7785573361E-15  -0.3308577059E-14   0.1301116438E-14   0.3250000005E+01
   0.1987000000E+01   0.1003243500E+01   0.1003243500E+01   0.4500000000E-02  -0.1122750000E-02  -0.1122750000E-02  -0.1750000000E-01   0.4366250000E-02   0.4366250000E-02  -0.3250000004E+01   0.3197480232E-10   0.3197338402E-10   0.5478471264E-13   0.4937388729E-13   0.2234854847E-14  -0.6500000008E-02   0.3243500004E-02   0.3243500004E-02  -0.5407881269E-15   0.5990216312E-15   0.1312949983E-14   0.3250000004E+01
     1     2     3     4     5     6     7     8
     2     9    10     3     6    11    12     7
 VARIABLES = X,Y,Z,DU1,DU2,DU3,U1,U2,U3,S11,S22,S33,S12,S13,S23,E11,E22,E33,E12,E13,E23,SMISES
 ZONE, T="0.2350D+01" F=FEPOINT, I=   12 J=    2 ET=BRICK
   0.0000000000E+00   0.0000000000E+00   0.0000000000E+00   0.0000000000E+00   0.0000000000E+00   0.0000000000E+00   0.0000000000E+00   0.0000000000E+00   0.0000000000E+00  -0.2125000003E+01  -0.8077282163E-10  -0.8078644788E-10  -0.2047226668E-15  -0.3455157357E-13   0.1996220754E-15  -0.4250000007E-02   0.2120750003E-02   0.2120750003E-02   0.3848378291E-18  -0.1508917554E-14  -0.8254603231E-15   0.2125000003E+01
   0.9957500000E+00   0.0000000000E+00  -0.5284054209E-15   0.2250000000E-02   0.0000000000E+00  -0.1688540539E-17  -0.6500000000E-02   0.0000000000E+00  -0.5267168803E-15  -0.2125000003E+01   0.3509790437E-10   0.3510140255E-10  -0.5043941125E-13  -0.4555465086E-13  -0.1850038202E-14  -0.4250000007E-02   0.2120750003E-02   0.2120750003E-02   0.1471644128E-14   0.1132174001E-14   0.5928424327E-15   0.2125000003E+01
   0.9957500000E+00   0.1002120750E+01  -0.2317737023E-15   0.2250000000E-02  -0.1122750000E-02  -0.1045620260E-17  -0.6500000000E-02   0.3243500000E-02  -0.2307280820E-15  -0.2125000003E+01  -0.4521430661E-10  -0.4520144526E-10   0.3486063670E-13  -0.4157577977E-13  -0.2477474181E-14  -0.4250000006E-02   0.2120750003E-02   0.2120750003E-02   0.1209113809E-14  -0.7266519986E-15   0.1899843507E-14   0.2125000003E+01
   0.0000000000E+00   0.1002120750E+01  -0.4131994262E-15   0.0000000000E+00  -0.1122750000E-02  -0.3667275847E-18   0.0000000000E+00   0.3243500000E-02  -0.4128326986E-15  -0.2125000003E+01   0.1936387666E-10   0.1934965007E-10   0.5474998326E-13  -0.3790811581E-13   0.8248212078E-15  -0.4250000006E-02   0.2120750003E-02   0.2120750003E-02  -0.8442284400E-15   0.1937250764E-15   0.4519053755E-15   0.2125000003E+01
   0.0000000000E+00   0.0000000000E+00   0.1002120750E+01   0.0000000000E+00   0.0000000000E+00  -0.1122750000E-02   0.0000000000E+00   0.0000000000E+00   0.3243500000E-02  -0.2125000003E+01   0.5345962229E-10   0.5344425295E-10   0.1209578800E-15   0.3313137926E-13   0.1109625131E-14  -0.4250000006E-02   0.2120750003E-02   0.2120750003E-02  -0.1411218906E-17   0.1515453819E-14  -0.4030975719E-15   0.2125000003E+01
   0.9957500000E+00   0.0000000000E+00   0.1002120750E+01   0.2250000000E-02   0.0000000000E+00  -0.1122750000E-02  -0.6500000000E-02   0.0000000000E+00   0.3243500000E-02  -0.2125000003E+01   0.9327527532E-10   0.9328142700E-10  -0.4650710983E-13   0.4231182527E-13   0.1746083565E-14  -0.4250000006E-02   0.2120750003E-02   0.2120750003E-02  -0.1241490632E-14   0.3059844574E-15  -0.2055554749E-14   0.2125000003E+01
   0.9957500000E+00   0.1002120750E+01   0.1002120750E+01   0.2250000000E-02  -0.1122750000E-02  -0.1122750000E-02  -0.6500000000E-02   0.3243500000E-02   0.3243500000E-02  -0.2125000003E+01  -0.1589776072E-11  -0.1576995470E-11   0.3852511817E-13   0.4677767009E-13   0.1251325433E-14  -0.4250000006E-02   0.2120750003E-02   0.2120750003E-02  -0.2147800786E-14  -0.1564786457E-14  -0.7473793746E-15   0.2125000003E+01
   0.0000000000E+00   0.1002120750E+01   0.1002120750E+01   0.0000000000E+00  -0.1122750000E-02  -0.1122750000E-02   0.0000000000E+00   0.3243500000E-02   0.3243500000E-02  -0.2125000003E+01  -0.1531509145E-10  -0.1532728087E-10   0.5462358467E-13   0.3507882586E-13   0.1055022640E-15  -0.4250000006E-02   0.2120750003E-02   0.2120750003E-02  -0.4748998328E-15  -0.1387663274E-14   0.8728856258E-15   0.2125000003E+01
   0.1991500000E+01   0.0000000000E+00  -0.1502245330E-15   0.4500000000E-02   0.0000000000E+00  -0.9636107333E-18  -0.1300000000E-01   0.0000000000E+00  -0.1492609223E-15  -0.2125000003E+01  -0.3198492434E-10  -0.3199025347E-10  -0.5667048917E-13  -0.5004307891E-13  -0.1223628850E-14  -0.4250000006E-02   0.2120750003E-02   0.2120750003E-02   0.1465521153E-14   0.1380068057E-14   0.8711424043E-15   0.2125000003E+01
   0.1991500000E+01   0.1002120750E+01   0.2852550103E-15   0.4500000000E-02  -0.1122750000E-02  -0.1256569470E-17  -0.1300000000E-01   0.3243500000E-02   0.2865115798E-15  -0.2125000003E+01  -0.3423317247E-10  -0.3423596769E-10   0.5835452086E-13  -0.5343056289E-13  -0.1792109274E-14  -0.4250000006E-02   0.2120750003E-02   0.2120750003E-02   0.1780808373E-14   0.6755856181E-15   0.8736316350E-15   0.2125000003E+01
   0.1991500000E+01   0.0000000000E+00   0.1002120750E+01   0.4500000000E-02   0.0000000000E+00  -0.1122750000E-02  -0.1300000000E-01   0.0000000000E+00   0.3243500000E-02  -0.2125000003E+01  -0.1056432988E-09  -0.1056503770E-09  -0.5996455161E-13   0.5348634173E-13   0.1277331949E-14  -0.4250000006E-02   0.2120750003E-02   0.2120750003E-02   0.7909538803E-15  -0.3321543508E-14   0.1304863069E-14   0.2125000003E+01
   0.1991500000E+01   0.1002120750E+01   0.1002120750E+01   0.4500000000E-02  -0.1122750000E-02  -0.1122750000E-02  -0.1300000000E-01   0.3243500000E-02   0.3243500000E-02  -0.2125000003E+01   0.3191245360E-10   0.3191192901E-10   0.5542638570E-13   0.4950179543E-13   0.1995388561E-14  -0.4250000005E-02   0.2120750003E-02   0.2120750003E-02  -0.5389928272E-15   0.6207720904E-15   0.1307280667E-14   0.2125000003E+01
     1     2     3     4     5     6     7     8
     2     9    10     3     6    11    12     7
 VARIABLES = X,Y,Z,DU1,DU2,DU3,U1,U2,U3,S11,S22,S33,S12,S13,S23,E11,E22,E33,E12,E13,E23,SMISES
 ZONE, T="0.2400D+01" F=FEPOINT, I=   12 J=    2 ET=BRICK
   0.0000000000E+00   0.0000000000E+00   0.0000000000E+00   0.0000000000E+00   0.0000000000E+00   0.0000000000E+00   0.0000000000E+00   0.0000000000E+00   0.0000000000E+00  -0.1000000002E+01  -0.8047697703E-10  -0.8049111735E-10  -0.1966772650E-15  -0.3417284056E-13   0.2257749111E-15  -0.2000000003E-02   0.9980000016E-03   0.9980000016E-03   0.1202846013E-17  -0.1505609404E-14  -0.8261154607E-15   0.1000000002E+01
   0.9980000000E+00   0.0000000000E+00  -0.5255225508E-15   0.2250000000E-02   0.0000000000E+00   0.2882870036E-17  -0.4250000000E-02   0.0000000000E+00  -0.5284054209E-15  -0.1000000002E+01   0.3514426511E-10   0.3514756728E-10  -0.5023989498E-13  -0.4560635160E-13  -0.1904529683E-14  -0.2000000003E-02   0.9980000015E-03   0.9980000015E-03   0.1471743566E-14   0.1132571879E-14   0.5928336784E-15   0.1000000002E+01
   0.9980000000E+00   0.1000998000E+01  -0.2292793814E-15   0.2250000000E-02  -0.1122750000E-02   0.2494320937E-17  -0.4250000000E-02   0.2120750000E-02  -0.2317737023E-15  -0.1000000001E+01  -0.4502422290E-10  -0.4501137816E-10   0.3497641088E-13  -0.4187743174E-13  -0.2597784785E-14  -0.2000000003E-02   0.9980000014E-03   0.9980000014E-03   0.1209798815E-14  -0.7359956708E-15   0.1898906196E-14   0.1000000001E+01
   0.0000000000E+00   0.1000998000E+01  -0.4129817534E-15   0.0000000000E+00  -0.1122750000E-02   0.2176727938E-18   0.0000000000E+00   0.2120750000E-02  -0.4131994262E-15  -0.1000000001E+01   0.1977519325E-10   0.1976079555E-10   0.5466672810E-13  -0.3764122341E-13   0.6072442292E-15  -0.2000000003E-02   0.9980000015E-03   0.9980000015E-03  -0.8445891724E-15   0.1996794851E-15   0.4489768022E-15   0.1000000001E+01
   0.0000000000E+00   0.0000000000E+00   0.1000998000E+01   0.0000000000E+00   0.0000000000E+00  -0.1122750000E-02   0.0000000000E+00   0.0000000000E+00   0.2120750000E-02  -0.1000000001E+01   0.5303166289E-10   0.5301637396E-10   0.1113603873E-15   0.3361492402E-13   0.1261372318E-14  -0.2000000003E-02   0.9980000015E-03   0.9980000015E-03  -0.1535242981E-17   0.1523507617E-14  -0.3998966567E-15   0.1000000001E+01
   0.9980000000E+00   0.0000000000E+00   0.1000998000E+01   0.2250000000E-02   0.0000000000E+00  -0.1122750000E-02  -0.4250000000E-02   0.0000000000E+00   0.2120750000E-02  -0.1000000001E+01   0.9311983444E-10   0.9312592145E-10  -0.4649929637E-13   0.4238445967E-13   0.1715350973E-14  -0.2000000003E-02   0.9980000014E-03   0.9980000014E-03  -0.1239660143E-14   0.3048563252E-15  -0.2056347934E-14   0.1000000001E+01
   0.9980000000E+00   0.1000998000E+01   0.1000998000E+01   0.2250000000E-02  -0.1122750000E-02  -0.1122750000E-02  -0.4250000000E-02   0.2120750000E-02   0.2120750000E-02  -0.1000000001E+01  -0.1709687925E-11  -0.1696648360E-11   0.3856985958E-13   0.4659026515E-13   0.1205702412E-14  -0.2000000003E-02   0.9980000013E-03   0.9980000013E-03  -0.2146965809E-14  -0.1562049885E-14  -0.7487411791E-15   0.1000000001E+01
   0.0000000000E+00   0.1000998000E+01   0.1000998000E+01   0.0000000000E+00  -0.1122750000E-02  -0.1122750000E-02   0.0000000000E+00   0.2120750000E-02   0.2120750000E-02  -0.1000000001E+01  -0.1557342910E-10  -0.1558526726E-10   0.5471432371E-13   0.3533044050E-13   0.6727526443E-16  -0.2000000003E-02   0.9980000013E-03   0.9980000013E-03  -0.4746666325E-15  -0.1386852649E-14   0.8747727607E-15   0.1000000001E+01
   0.1996000000E+01   0.0000000000E+00  -0.1427378709E-15   0.4500000000E-02   0.0000000000E+00   0.7486662172E-17  -0.8500000000E-02   0.0000000000E+00  -0.1502245330E-15  -0.1000000002E+01  -0.3214527844E-10  -0.3215005631E-10  -0.5642788669E-13  -0.4973397459E-13  -0.1139331701E-14  -0.2000000003E-02   0.9980000015E-03   0.9980000015E-03   0.1470782112E-14   0.1383405646E-14   0.8721295208E-15   0.1000000002E+01
   0.1996000000E+01   0.1000998000E+01   0.2932664273E-15   0.4500000000E-02  -0.1122750000E-02   0.8011417001E-17  -0.8500000000E-02   0.2120750000E-02   0.2852550103E-15  -0.1000000001E+01  -0.3433035991E-10  -0.3433263263E-10   0.5837302543E-13  -0.5335447897E-13  -0.1511911043E-14  -0.2000000003E-02   0.9980000014E-03   0.9980000014E-03   0.1781590719E-14   0.6770343567E-15   0.8748604814E-15   0.1000000001E+01
   0.1996000000E+01   0.0000000000E+00   0.1000998000E+01   0.4500000000E-02   0.0000000000E+00  -0.1122750000E-02  -0.8500000000E-02   0.0000000000E+00   0.2120750000E-02  -0.1000000002E+01  -0.1054292232E-09  -0.1054361265E-09  -0.6010512255E-13   0.5381463873E-13   0.1331160336E-14  -0.2000000003E-02   0.9980000014E-03   0.9980000014E-03   0.7851710802E-15  -0.3323977672E-14   0.1306280923E-14   0.1000000001E+01
   0.1996000000E+01   0.1000998000E+01   0.1000998000E+01   0.4500000000E-02  -0.1122750000E-02  -0.1122750000E-02  -0.8500000000E-02   0.2120750000E-02   0.2120750000E-02  -0.1000000001E+01   0.3191944667E-10   0.3191885183E-10   0.5552257470E-13   0.4935635576E-13   0.2164057207E-14  -0.2000000003E-02   0.9980000013E-03   0.9980000013E-03  -0.5339528063E-15   0.6237629408E-15   0.1309334258E-14   0.1000000001E+01
     1     2     3     4     5     6     7     8
     2     9    10     3     6    11    12     7
 VARIABLES = X,Y,Z,DU1,DU2,DU3,U1,U2,U3,S11,S22,S33,S12,S13,S23,E11,E22,E33,E12,E13,E23,SMISES
 ZONE, T="0.2450D+01" F=FEPOINT, I=   12 J=    2 ET=BRICK
   0.0000000000E+00   0.0000000000E+00   0.0000000000E+00   0.0000000000E+00   0.0000000000E+00   0.0000000000E+00   0.0000000000E+00   0.0000000000E+00   0.0000000000E+00   0.1250000001E+00  -0.8062008374E-10  -0.8063427868E-10  -0.2067616909E-15  -0.3427485571E-13   0.1955498543E-15   0.2500000004E-03  -0.1247500002E-03  -0.1247500002E-03  -0.4289987011E-18  -0.1505164078E-14  -0.8262240751E-15   0.1250000002E+00
   0.1000250000E+01   0.0000000000E+00  -0.5263665734E-15   0.2250000000E-02   0.0000000000E+00  -0.8440225333E-18  -0.2000000000E-02   0.0000000000E+00  -0.5255225508E-15   0.1250000002E+00   0.3509719567E-10   0.3510058877E-10  -0.5007178181E-13  -0.4548301960E-13  -0.1830613256E-14   0.2500000004E-03  -0.1247500002E-03  -0.1247500002E-03   0.1476531576E-14   0.1132305136E-14   0.5930241047E-15   0.1250000002E+00
   0.1000250000E+01   0.9998752500E+00  -0.2298440201E-15   0.2250000000E-02  -0.1122750000E-02  -0.5646387768E-18  -0.2000000000E-02   0.9980000000E-03  -0.2292793814E-15   0.1250000001E+00  -0.4507703921E-10  -0.4506412853E-10   0.3520340294E-13  -0.4190066294E-13  -0.2621230635E-14   0.2500000004E-03  -0.1247500002E-03  -0.1247500002E-03   0.1210897591E-14  -0.7325934157E-15   0.1900339267E-14   0.1250000002E+00
   0.0000000000E+00   0.9998752500E+00  -0.4131929644E-15   0.0000000000E+00  -0.1122750000E-02  -0.2112110095E-18   0.0000000000E+00   0.9980000000E-03  -0.4129817534E-15   0.1250000002E+00   0.1980009588E-10   0.1978581767E-10   0.5458421342E-13  -0.3766443879E-13   0.6489262232E-15   0.2500000004E-03  -0.1247500002E-03  -0.1247500002E-03  -0.8439386394E-15   0.1955478805E-15   0.4495826228E-15   0.1250000002E+00
   0.0000000000E+00   0.0000000000E+00   0.9998752500E+00   0.0000000000E+00   0.0000000000E+00  -0.1122750000E-02   0.0000000000E+00   0.0000000000E+00   0.9980000000E-03   0.1250000002E+00   0.5308424708E-10   0.5306889149E-10   0.1313656474E-15   0.3355137353E-13   0.1239240739E-14   0.2500000004E-03  -0.1247500002E-03  -0.1247500002E-03   0.1926551312E-18   0.1522163870E-14  -0.4013804277E-15   0.1250000002E+00
   0.1000250000E+01   0.0000000000E+00   0.9998752500E+00   0.2250000000E-02   0.0000000000E+00  -0.1122750000E-02  -0.2000000000E-02   0.0000000000E+00   0.9980000000E-03   0.1250000003E+00   0.9312531610E-10   0.9313152092E-10  -0.4664212587E-13   0.4245315652E-13   0.1678071296E-14   0.2500000004E-03  -0.1247500002E-03  -0.1247500002E-03  -0.1243985799E-14   0.3030761990E-15  -0.2055937808E-14   0.1250000002E+00
   0.1000250000E+01   0.9998752500E+00   0.9998752500E+00   0.2250000000E-02  -0.1122750000E-02  -0.1122750000E-02  -0.2000000000E-02   0.9980000000E-03   0.9980000000E-03   0.1250000002E+00  -0.1709900824E-11  -0.1696764634E-11   0.3855913094E-13   0.4646088309E-13   0.1299907379E-14   0.2500000003E-03  -0.1247500002E-03  -0.1247500002E-03  -0.2144282184E-14  -0.1562109436E-14  -0.7479831610E-15   0.1250000002E+00
   0.0000000000E+00   0.9998752500E+00   0.9998752500E+00   0.0000000000E+00  -0.1122750000E-02  -0.1122750000E-02   0.0000000000E+00   0.9980000000E-03   0.9980000000E-03   0.1250000002E+00  -0.1551548162E-10  -0.1552723887E-10   0.5458490735E-13   0.3527492778E-13   0.5204832253E-16   0.2500000003E-03  -0.1247500002E-03  -0.1247500002E-03  -0.4779670264E-15  -0.1386754793E-14   0.8764042152E-15   0.1250000002E+00
   0.2000500000E+01   0.0000000000E+00  -0.1447415192E-15   0.4500000000E-02   0.0000000000E+00  -0.2003648390E-17  -0.4000000000E-02   0.0000000000E+00  -0.1427378709E-15   0.1250000002E+00  -0.3203346708E-10  -0.3203861604E-10  -0.5644549792E-13  -0.4967660999E-13  -0.1089565384E-14   0.2500000004E-03  -0.1247500002E-03  -0.1247500002E-03   0.1470743052E-14   0.1381320967E-14   0.8729173832E-15   0.1250000002E+00
   0.2000500000E+01   0.9998752500E+00   0.2917006295E-15   0.4500000000E-02  -0.1122750000E-02  -0.1565797808E-17  -0.4000000000E-02   0.9980000000E-03   0.2932664273E-15   0.1250000001E+00  -0.3434374037E-10  -0.3434637168E-10   0.5864289046E-13  -0.5329860079E-13  -0.1585273121E-14   0.2500000003E-03  -0.1247500002E-03  -0.1247500002E-03   0.1786396544E-14   0.6808333368E-15   0.8740033892E-15   0.1250000002E+00
   0.2000500000E+01   0.0000000000E+00   0.9998752500E+00   0.4500000000E-02   0.0000000000E+00  -0.1122750000E-02  -0.4000000000E-02   0.0000000000E+00   0.9980000000E-03   0.1250000001E+00  -0.1054621650E-09  -0.1054691162E-09  -0.6021238070E-13   0.5403655494E-13   0.1452186730E-14   0.2500000003E-03  -0.1247500002E-03  -0.1247500002E-03   0.7840679968E-15  -0.3313165156E-14   0.1306525008E-14   0.1250000002E+00
   0.2000500000E+01   0.9998752500E+00   0.9998752500E+00   0.4500000000E-02  -0.1122750000E-02  -0.1122750000E-02  -0.4000000000E-02   0.9980000000E-03   0.9980000000E-03   0.1250000002E+00   0.3192366711E-10   0.3192303501E-10   0.5532140104E-13   0.4904541396E-13   0.2026910360E-14   0.2500000003E-03  -0.1247500002E-03  -0.1247500002E-03  -0.5405165284E-15   0.6111779680E-15   0.1309517613E-14   0.1250000002E+00
     1     2     3     4     5     6     7     8
     2     9    10     3     6    11    12     7
 VARIABLES = X,Y,Z,DU1,DU2,DU3,U1,U2,U3,S11,S22,S33,S12,S13,S23,E11,E22,E33,E12,E13,E23,SMISES
 ZONE, T="0.2500D+01" F=FEPOINT, I=   12 J=    2 ET=BRICK
   0.0000000000E+00   0.0000000000E+00   0.0000000000E+00   0.0000000000E+00   0.0000000000E+00   0.0000000000E+00   0.0000000000E+00   0.0000000000E+00   0.0000000000E+00   0.1250000002E+01  -0.8041634954E-10  -0.8043057499E-10  -0.2168589610E-15  -0.3415016362E-13   0.2686966559E-15   0.2500000004E-02  -0.1247500002E-02  -0.1247500002E-02  -0.7003013496E-19  -0.1505926428E-14  -0.8259288593E-15   0.1250000002E+01
   0.1002500000E+01   0.0000000000E+00  -0.5256393219E-15   0.2250000000E-02   0.0000000000E+00   0.7272514046E-18   0.2500000000E-03   0.0000000000E+00  -0.5263665734E-15   0.1250000002E+01   0.3518570575E-10   0.3518904682E-10  -0.5005196959E-13  -0.4561774980E-13  -0.1852878380E-14   0.2500000004E-02  -0.1247500002E-02  -0.1247500002E-02   0.1475507415E-14   0.1133990843E-14   0.5930580893E-15   0.1250000002E+01
   0.1002500000E+01   0.9987525000E+00  -0.2291070169E-15   0.2250000000E-02  -0.1122750000E-02   0.7370032623E-18   0.2500000000E-03  -0.1247500000E-03  -0.2298440201E-15   0.1250000002E+01  -0.4509961180E-10  -0.4508681142E-10   0.3517830884E-13  -0.4191494969E-13  -0.2620035158E-14   0.2500000004E-02  -0.1247500002E-02  -0.1247500002E-02   0.1210907732E-14  -0.7360546375E-15   0.1899711727E-14   0.1250000002E+01
   0.0000000000E+00   0.9987525000E+00  -0.4128832608E-15   0.0000000000E+00  -0.1122750000E-02   0.3097035838E-18   0.0000000000E+00  -0.1247500000E-03  -0.4131929644E-15   0.1250000002E+01   0.1992145257E-10   0.1990709464E-10   0.5456110381E-13  -0.3769511257E-13   0.6122309367E-15   0.2500000004E-02  -0.1247500002E-02  -0.1247500002E-02  -0.8445965207E-15   0.1974305153E-15   0.4489222063E-15   0.1250000002E+01
   0.0000000000E+00   0.0000000000E+00   0.9987525000E+00   0.0000000000E+00   0.0000000000E+00  -0.1122750000E-02   0.0000000000E+00   0.0000000000E+00  -0.1247500000E-03   0.1250000002E+01   0.5297708226E-10   0.5296175456E-10   0.1398038161E-15   0.3357510581E-13   0.1330214418E-14   0.2500000004E-02  -0.1247500002E-02  -0.1247500002E-02  -0.7298271430E-19   0.1524628537E-14  -0.3983818275E-15   0.1250000002E+01
   0.1002500000E+01   0.0000000000E+00   0.9987525000E+00   0.2250000000E-02   0.0000000000E+00  -0.1122750000E-02   0.2500000000E-03   0.0000000000E+00  -0.1247500000E-03   0.1250000002E+01   0.9312995782E-10   0.9313615757E-10  -0.4674520717E-13   0.4254013149E-13   0.1635977625E-14   0.2500000004E-02  -0.1247500002E-02  -0.1247500002E-02  -0.1243819820E-14   0.3001417991E-15  -0.2056240400E-14   0.1250000002E+01
   0.1002500000E+01   0.9987525000E+00   0.9987525000E+00   0.2250000000E-02  -0.1122750000E-02  -0.1122750000E-02   0.2500000000E-03  -0.1247500000E-03  -0.1247500000E-03   0.1250000002E+01  -0.1761982284E-11  -0.1749057460E-11   0.3854633615E-13   0.4632909845E-13   0.1226635506E-14   0.2500000003E-02  -0.1247500002E-02  -0.1247500002E-02  -0.2145662126E-14  -0.1563104953E-14  -0.7493588864E-15   0.1250000002E+01
   0.0000000000E+00   0.9987525000E+00   0.9987525000E+00   0.0000000000E+00  -0.1122750000E-02  -0.1122750000E-02   0.0000000000E+00  -0.1247500000E-03  -0.1247500000E-03   0.1250000002E+01  -0.1556978082E-10  -0.1558146075E-10   0.5463099722E-13   0.3522580399E-13   0.5408133306E-16   0.2500000003E-02  -0.1247500002E-02  -0.1247500002E-02  -0.4771010988E-15  -0.1388423128E-14   0.8755388906E-15   0.1250000002E+01
   0.2005000000E+01   0.0000000000E+00  -0.1429738568E-15   0.4500000000E-02   0.0000000000E+00   0.1767662436E-17   0.5000000000E-03   0.0000000000E+00  -0.1447415192E-15   0.1250000002E+01  -0.3196609205E-10  -0.3197111042E-10  -0.5675394249E-13  -0.4983441967E-13  -0.1000330618E-14   0.2500000004E-02  -0.1247500002E-02  -0.1247500002E-02   0.1467685579E-14   0.1379405429E-14   0.8737498415E-15   0.1250000002E+01
   0.2005000000E+01   0.9987525000E+00   0.2939151398E-15   0.4500000000E-02  -0.1122750000E-02   0.2214510286E-17   0.5000000000E-03  -0.1247500000E-03   0.2917006295E-15   0.1250000002E+01  -0.3436147428E-10  -0.3436423431E-10   0.5845515604E-13  -0.5334748512E-13  -0.1572911171E-14   0.2500000003E-02  -0.1247500002E-02  -0.1247500002E-02   0.1783190465E-14   0.6812976838E-15   0.8747277218E-15   0.1250000002E+01
   0.2005000000E+01   0.0000000000E+00   0.9987525000E+00   0.4500000000E-02   0.0000000000E+00  -0.1122750000E-02   0.5000000000E-03   0.0000000000E+00  -0.1247500000E-03   0.1250000002E+01  -0.1053062987E-09  -0.1053129636E-09  -0.6037572457E-13   0.5422224297E-13   0.1408543971E-14   0.2500000003E-02  -0.1247500002E-02  -0.1247500002E-02   0.7814725264E-15  -0.3314160432E-14   0.1307086213E-14   0.1250000002E+01
   0.2005000000E+01   0.9987525000E+00   0.9987525000E+00   0.4500000000E-02  -0.1122750000E-02  -0.1122750000E-02   0.5000000000E-03  -0.1247500000E-03  -0.1247500000E-03   0.1250000002E+01   0.3196714307E-10   0.3196675626E-10   0.5509326375E-13   0.4916058679E-13   0.1940600857E-14   0.2500000003E-02  -0.1247500002E-02  -0.1247500002E-02  -0.5425766857E-15   0.6160477853E-15   0.1307293550E-14   0.1250000002E+01
     1     2     3     4     5     6     7     8
     2     9    10     3     6    11    12     7
 VARIABLES = X,Y,Z,DU1,DU2,DU3,U1,U2,U3,S11,S22,S33,S12,S13,S23,E11,E22,E33,E12,E13,E23,SMISES
 ZONE, T="0.2550D+01" F=FEPOINT, I=   12 J=    2 ET=BRICK
   0.0000000000E+00   0.0000000000E+00   0.0000000000E+00   0.0000000000E+00   0.0000000000E+00   0.0000000000E+00   0.0000000000E+00   0.0000000000E+00   0.0000000000E+00   0.2375000004E+01  -0.8047016871E-10  -0.8048415787E-10  -0.1928444893E-15  -0.3436104871E-13   0.3093184388E-15   0.4750000007E-02  -0.2370250004E-02  -0.2370250004E-02   0.6890600305E-19  -0.1507828045E-14  -0.8254641680E-15   0.2375000004E+01
   0.1004750000E+01   0.0000000000E+00  -0.5269518256E-15   0.2250000000E-02   0.0000000000E+00  -0.1312503675E-17   0.2500000000E-02   0.0000000000E+00  -0.5256393219E-15   0.2375000004E+01   0.3512940023E-10   0.3513262757E-10  -0.5032274269E-13  -0.4550815765E-13  -0.1970704430E-14   0.4750000007E-02  -0.2370250004E-02  -0.2370250004E-02   0.1472158965E-14   0.1134651971E-14   0.5917483705E-15   0.2375000004E+01
   0.1004750000E+01   0.9976297500E+00  -0.2310382874E-15   0.2250000000E-02  -0.1122750000E-02  -0.1931270582E-17   0.2500000000E-02  -0.1247500000E-02  -0.2291070169E-15   0.2375000003E+01  -0.4502827708E-10  -0.4501531487E-10   0.3496296123E-13  -0.4166137659E-13  -0.2599912214E-14   0.4750000007E-02  -0.2370250003E-02  -0.2370250003E-02   0.1208594869E-14  -0.7345860416E-15   0.1899186062E-14   0.2375000003E+01
   0.0000000000E+00   0.9976297500E+00  -0.4126915653E-15   0.0000000000E+00  -0.1122750000E-02   0.1916954897E-18   0.0000000000E+00  -0.1247500000E-02  -0.4128832608E-15   0.2375000003E+01   0.1948335122E-10   0.1946884200E-10   0.5462021772E-13  -0.3802919635E-13   0.6485887650E-15   0.4750000007E-02  -0.2370250003E-02  -0.2370250003E-02  -0.8437033471E-15   0.1941470909E-15   0.4499850906E-15   0.2375000003E+01
   0.0000000000E+00   0.0000000000E+00   0.9976297500E+00   0.0000000000E+00   0.0000000000E+00  -0.1122750000E-02   0.0000000000E+00   0.0000000000E+00  -0.1247500000E-02   0.2375000004E+01   0.5316863508E-10   0.5315355655E-10   0.9526449678E-16   0.3337880882E-13   0.1267179092E-14   0.4750000007E-02  -0.2370250003E-02  -0.2370250003E-02  -0.4063754701E-18   0.1522019599E-14  -0.3993841053E-15   0.2375000003E+01
   0.1004750000E+01   0.0000000000E+00   0.9976297500E+00   0.2250000000E-02   0.0000000000E+00  -0.1122750000E-02   0.2500000000E-02   0.0000000000E+00  -0.1247500000E-02   0.2375000003E+01   0.9310197353E-10   0.9310786725E-10  -0.4659706434E-13   0.4244003901E-13   0.1701719445E-14   0.4750000007E-02  -0.2370250003E-02  -0.2370250003E-02  -0.1242243075E-14   0.3003201668E-15  -0.2054742343E-14   0.2375000003E+01
   0.1004750000E+01   0.9976297500E+00   0.9976297500E+00   0.2250000000E-02  -0.1122750000E-02  -0.1122750000E-02   0.2500000000E-02  -0.1247500000E-02  -0.1247500000E-02   0.2375000003E+01  -0.1500069980E-11  -0.1487114678E-11   0.3848821333E-13   0.4671501567E-13   0.1401973850E-14   0.4750000006E-02  -0.2370250003E-02  -0.2370250003E-02  -0.2145178783E-14  -0.1556948463E-14  -0.7470496682E-15   0.2375000003E+01
   0.0000000000E+00   0.9976297500E+00   0.9976297500E+00   0.0000000000E+00  -0.1122750000E-02  -0.1122750000E-02   0.0000000000E+00  -0.1247500000E-02  -0.1247500000E-02   0.2375000003E+01  -0.1551885953E-10  -0.1553060276E-10   0.5490548565E-13   0.3508414355E-13  -0.8044349449E-16   0.4750000006E-02  -0.2370250003E-02  -0.2370250003E-02  -0.4746285453E-15  -0.1390611396E-14   0.8744786156E-15   0.2375000003E+01
   0.2009500000E+01   0.0000000000E+00  -0.1460568242E-15   0.4500000000E-02   0.0000000000E+00  -0.3082967376E-17   0.5000000000E-02   0.0000000000E+00  -0.1429738568E-15   0.2375000004E+01  -0.3223267691E-10  -0.3223815906E-10  -0.5645433121E-13  -0.5029539221E-13  -0.1155446706E-14   0.4750000007E-02  -0.2370250004E-02  -0.2370250004E-02   0.1471638533E-14   0.1372226382E-14   0.8714016124E-15   0.2375000004E+01
   0.2009500000E+01   0.9976297500E+00   0.2898178784E-15   0.4500000000E-02  -0.1122750000E-02  -0.4097261356E-17   0.5000000000E-02  -0.1247500000E-02   0.2939151398E-15   0.2375000003E+01  -0.3404284733E-10  -0.3404501052E-10   0.5856649325E-13  -0.5328503872E-13  -0.1737361691E-14   0.4750000007E-02  -0.2370250003E-02  -0.2370250003E-02   0.1784552915E-14   0.6880715769E-15   0.8731342649E-15   0.2375000003E+01
   0.2009500000E+01   0.0000000000E+00   0.9976297500E+00   0.4500000000E-02   0.0000000000E+00  -0.1122750000E-02   0.5000000000E-02   0.0000000000E+00  -0.1247500000E-02   0.2375000003E+01  -0.1057618406E-09  -0.1057689117E-09  -0.5948855574E-13   0.5369779744E-13   0.1529655320E-14   0.4750000007E-02  -0.2370250003E-02  -0.2370250003E-02   0.7919627328E-15  -0.3315703350E-14   0.1307553479E-14   0.2375000003E+01
   0.2009500000E+01   0.9976297500E+00   0.9976297500E+00   0.4500000000E-02  -0.1122750000E-02  -0.1122750000E-02   0.5000000000E-02  -0.1247500000E-02  -0.1247500000E-02   0.2375000003E+01   0.3217796348E-10   0.3217770095E-10   0.5580105592E-13   0.4943679598E-13   0.2074579959E-14   0.4750000006E-02  -0.2370250003E-02  -0.2370250003E-02  -0.5325009406E-15   0.6122788730E-15   0.1308777058E-14   0.2375000003E+01
     1     2     3     4     5     6     7     8
     2     9    10     3     6    11    12     7
 VARIABLES = X,Y,Z,DU1,DU2,DU3,U1,U2,U3,S11,S22,S33,S12,S13,S23,E11,E22,E33,E12,E13,E23,SMISES
 ZONE, T="0.2600D+01" F=FEPOINT, I=   12 J=    2 ET=BRICK
   0.0000000000E+00   0.0000000000E+00   0.0000000000E+00   0.0000000000E+00   0.0000000000E+00   0.0000000000E+00   0.0000000000E+00   0.0000000000E+00   0.0000000000E+00   0.3500000005E+01  -0.8032373067E-10  -0.8033777063E-10  -0.2074972651E-15  -0.3424042071E-13   0.2013968300E-15   0.7000000011E-02  -0.3493000005E-02  -0.3493000005E-02  -0.1290177416E-18  -0.1507262372E-14  -0.8266746004E-15   0.3500000005E+01
   0.1007000000E+01   0.0000000000E+00  -0.5254301193E-15   0.2250000000E-02   0.0000000000E+00   0.1521706335E-17   0.4750000000E-02   0.0000000000E+00  -0.5269518256E-15   0.3500000005E+01   0.3524982213E-10   0.3525276646E-10  -0.5017472588E-13  -0.4552652199E-13  -0.1780264473E-14   0.7000000011E-02  -0.3493000005E-02  -0.3493000005E-02   0.1476501314E-14   0.1133483678E-14   0.5940356839E-15   0.3500000005E+01
   0.1007000000E+01   0.9965070000E+00  -0.2284426461E-15   0.2250000000E-02  -0.1122750000E-02   0.2595641343E-17   0.4750000000E-02  -0.2370250000E-02  -0.2310382874E-15   0.3500000005E+01  -0.4512115365E-10  -0.4510821176E-10   0.3509568802E-13  -0.4196758423E-13  -0.2587979827E-14   0.7000000010E-02  -0.3493000005E-02  -0.3493000005E-02   0.1212499095E-14  -0.7398727008E-15   0.1902076919E-14   0.3500000005E+01
   0.0000000000E+00   0.9965070000E+00  -0.4133982697E-15   0.0000000000E+00  -0.1122750000E-02  -0.7067043360E-18   0.0000000000E+00  -0.2370250000E-02  -0.4126915653E-15   0.3500000005E+01   0.1983503792E-10   0.1982067962E-10   0.5451244359E-13  -0.3747661406E-13   0.5115888975E-15   0.7000000010E-02  -0.3493000005E-02  -0.3493000005E-02  -0.8452803841E-15   0.2019238152E-15   0.4470745787E-15   0.3500000005E+01
   0.0000000000E+00   0.0000000000E+00   0.9965070000E+00   0.0000000000E+00   0.0000000000E+00  -0.1122750000E-02   0.0000000000E+00   0.0000000000E+00  -0.2370250000E-02   0.3500000005E+01   0.5293133115E-10   0.5291620182E-10   0.9564643702E-16   0.3372643573E-13   0.1382095879E-14   0.7000000010E-02  -0.3493000005E-02  -0.3493000005E-02  -0.3250438550E-18   0.1524043547E-14  -0.3975610389E-15   0.3500000005E+01
   0.1007000000E+01   0.0000000000E+00   0.9965070000E+00   0.2250000000E-02   0.0000000000E+00  -0.1122750000E-02   0.4750000000E-02   0.0000000000E+00  -0.2370250000E-02   0.3500000005E+01   0.9308107401E-10   0.9308759468E-10  -0.4667471214E-13   0.4247496063E-13   0.1632797397E-14   0.7000000010E-02  -0.3493000005E-02  -0.3493000005E-02  -0.1243306388E-14   0.3019959440E-15  -0.2057762397E-14   0.3500000005E+01
   0.1007000000E+01   0.9965070000E+00   0.9965070000E+00   0.2250000000E-02  -0.1122750000E-02  -0.1122750000E-02   0.4750000000E-02  -0.2370250000E-02  -0.2370250000E-02   0.3500000005E+01  -0.1842348159E-11  -0.1829413175E-11   0.3844245265E-13   0.4621044334E-13   0.1235358770E-14   0.7000000009E-02  -0.3493000005E-02  -0.3493000005E-02  -0.2143535671E-14  -0.1568259708E-14  -0.7498275752E-15   0.3500000005E+01
   0.0000000000E+00   0.9965070000E+00   0.9965070000E+00   0.0000000000E+00  -0.1122750000E-02  -0.1122750000E-02   0.0000000000E+00  -0.2370250000E-02  -0.2370250000E-02   0.3500000005E+01  -0.1565953324E-10  -0.1567088173E-10   0.5463366031E-13   0.3529603910E-13   0.1062636730E-15   0.7000000009E-02  -0.3493000005E-02  -0.3493000005E-02  -0.4788054440E-15  -0.1387323966E-14   0.8762183470E-15   0.3500000005E+01
   0.2014000000E+01   0.0000000000E+00  -0.1406953202E-15   0.4500000000E-02   0.0000000000E+00   0.5361503979E-17   0.9500000000E-02   0.0000000000E+00  -0.1460568242E-15   0.3500000005E+01  -0.3212488099E-10  -0.3213016068E-10  -0.5701491871E-13  -0.5002737238E-13  -0.1067998201E-14   0.7000000011E-02  -0.3493000005E-02  -0.3493000005E-02   0.1463335739E-14   0.1384826661E-14   0.8719272913E-15   0.3500000005E+01
   0.2014000000E+01   0.9965070000E+00   0.2957694533E-15   0.4500000000E-02  -0.1122750000E-02   0.5951574854E-17   0.9500000000E-02  -0.2370250000E-02   0.2898178784E-15   0.3500000005E+01  -0.3440402730E-10  -0.3440681818E-10   0.5818820777E-13  -0.5329603383E-13  -0.1574417208E-14   0.7000000010E-02  -0.3493000005E-02  -0.3493000005E-02   0.1780447066E-14   0.6953715032E-15   0.8736081510E-15   0.3500000005E+01
   0.2014000000E+01   0.0000000000E+00   0.9965070000E+00   0.4500000000E-02   0.0000000000E+00  -0.1122750000E-02   0.9500000000E-02   0.0000000000E+00  -0.2370250000E-02   0.3500000005E+01  -0.1053351198E-09  -0.1053419885E-09  -0.6017478831E-13   0.5363429503E-13   0.1328697815E-14   0.7000000010E-02  -0.3493000005E-02  -0.3493000005E-02   0.7819554992E-15  -0.3321739725E-14   0.1308710141E-14   0.3500000005E+01
   0.2014000000E+01   0.9965070000E+00   0.9965070000E+00   0.4500000000E-02  -0.1122750000E-02  -0.1122750000E-02   0.9500000000E-02  -0.2370250000E-02  -0.2370250000E-02   0.3500000005E+01   0.3202816643E-10   0.3202752003E-10   0.5545303869E-13   0.4980461929E-13   0.1951144099E-14   0.7000000009E-02  -0.3493000004E-02  -0.3493000004E-02  -0.5410441626E-15   0.6202080550E-15   0.1306345233E-14   0.3500000004E+01
     1     2     3     4     5     6     7     8
     2     9    10     3     6    11    12     7
 VARIABLES = X,Y,Z,DU1,DU2,DU3,U1,U2,U3,S11,S22,S33,S12,S13,S23,E11,E22,E33,E12,E13,E23,SMISES
 ZONE, T="0.2650D+01" F=FEPOINT, I=   12 J=    2 ET=BRICK
   0.0000000000E+00   0.0000000000E+00   0.0000000000E+00   0.0000000000E+00   0.0000000000E+00   0.0000000000E+00   0.0000000000E+00   0.0000000000E+00   0.0000000000E+00   0.4625000007E+01  -0.8113908957E-10  -0.8115245450E-10  -0.1933007301E-15  -0.3517923248E-13  -0.3278724448E-15   0.9250000015E-02  -0.4615750007E-02  -0.4615750007E-02  -0.2803190763E-18  -0.1517076933E-14  -0.8335336914E-15   0.4625000007E+01
   0.1009250000E+01   0.0000000000E+00  -0.5329042815E-15   0.2250000000E-02   0.0000000000E+00  -0.7474162175E-17   0.7000000000E-02   0.0000000000E+00  -0.5254301193E-15   0.4625000007E+01   0.3478689666E-10   0.3479036237E-10  -0.4999378845E-13  -0.4562511549E-13  -0.2043957098E-14   0.9250000014E-02  -0.4615750007E-02  -0.4615750007E-02   0.1478142091E-14   0.1132065260E-14   0.5925899043E-15   0.4625000007E+01
   0.1009250000E+01   0.9953842500E+00  -0.2373604657E-15   0.2250000000E-02  -0.1122750000E-02  -0.8917819625E-17   0.7000000000E-02  -0.3493000000E-02  -0.2284426461E-15   0.4625000007E+01  -0.4545646740E-10  -0.4544333720E-10   0.3538142776E-13  -0.4161419655E-13  -0.2302411136E-14   0.9250000013E-02  -0.4615750007E-02  -0.4615750007E-02   0.1215537177E-14  -0.7309332771E-15   0.1901406630E-14   0.4625000007E+01
   0.0000000000E+00   0.9953842500E+00  -0.4165287945E-15   0.0000000000E+00  -0.1122750000E-02  -0.3130524841E-17   0.0000000000E+00  -0.3493000000E-02  -0.4133982697E-15   0.4625000007E+01   0.1918653897E-10   0.1917268917E-10   0.5471174473E-13  -0.3807845123E-13   0.7871363444E-15   0.9250000013E-02  -0.4615750007E-02  -0.4615750007E-02  -0.8453089929E-15   0.1919745906E-15   0.4495683050E-15   0.4625000007E+01
   0.0000000000E+00   0.0000000000E+00   0.9953842500E+00   0.0000000000E+00   0.0000000000E+00  -0.1122750000E-02   0.0000000000E+00   0.0000000000E+00  -0.3493000000E-02   0.4625000007E+01   0.5333637049E-10   0.5331992975E-10   0.7639761181E-16   0.3316720825E-13   0.1157759650E-14   0.9250000013E-02  -0.4615750007E-02  -0.4615750007E-02  -0.6498107365E-18   0.1513870359E-14  -0.4014761799E-15   0.4625000007E+01
   0.1009250000E+01   0.0000000000E+00   0.9953842500E+00   0.2250000000E-02   0.0000000000E+00  -0.1122750000E-02   0.7000000000E-02   0.0000000000E+00  -0.3493000000E-02   0.4625000007E+01   0.9366286992E-10   0.9366909125E-10  -0.4613313671E-13   0.4262665600E-13   0.1360979316E-14   0.9250000013E-02  -0.4615750007E-02  -0.4615750007E-02  -0.1237120610E-14   0.3067572978E-15  -0.2061887666E-14   0.4625000007E+01
   0.1009250000E+01   0.9953842500E+00   0.9953842500E+00   0.2250000000E-02  -0.1122750000E-02  -0.1122750000E-02   0.7000000000E-02  -0.3493000000E-02  -0.3493000000E-02   0.4625000006E+01  -0.1402570122E-11  -0.1389934471E-11   0.3895287517E-13   0.4667322450E-13   0.1393953001E-14   0.9250000012E-02  -0.4615750006E-02  -0.4615750006E-02  -0.2142177346E-14  -0.1568296386E-14  -0.7451433140E-15   0.4625000006E+01
   0.0000000000E+00   0.9953842500E+00   0.9953842500E+00   0.0000000000E+00  -0.1122750000E-02  -0.1122750000E-02   0.0000000000E+00  -0.3493000000E-02  -0.3493000000E-02   0.4625000006E+01  -0.1462965506E-10  -0.1464164883E-10   0.5448132684E-13   0.3465620050E-13   0.5472286264E-15   0.9250000012E-02  -0.4615750006E-02  -0.4615750006E-02  -0.4801035283E-15  -0.1390424750E-14   0.8797231476E-15   0.4625000006E+01
   0.2018500000E+01   0.0000000000E+00  -0.1621269890E-15   0.4500000000E-02   0.0000000000E+00  -0.2143166881E-16   0.1400000000E-01   0.0000000000E+00  -0.1406953202E-15   0.4625000007E+01  -0.3252791815E-10  -0.3253216398E-10  -0.5630167362E-13  -0.4917221435E-13  -0.1364495435E-14   0.9250000014E-02  -0.4615750007E-02  -0.4615750007E-02   0.1473682641E-14   0.1377865333E-14   0.8690109861E-15   0.4625000007E+01
   0.2018500000E+01   0.9953842500E+00   0.2723234363E-15   0.4500000000E-02  -0.1122750000E-02  -0.2344601699E-16   0.1400000000E-01  -0.3493000000E-02   0.2957694533E-15   0.4625000006E+01  -0.3449989998E-10  -0.3450149046E-10   0.5877442285E-13  -0.5384519801E-13  -0.1265663109E-14   0.9250000013E-02  -0.4615750006E-02  -0.4615750006E-02   0.1787894288E-14   0.6864637776E-15   0.8782262528E-15   0.4625000006E+01
   0.2018500000E+01   0.0000000000E+00   0.9953842500E+00   0.4500000000E-02   0.0000000000E+00  -0.1122750000E-02   0.1400000000E-01   0.0000000000E+00  -0.3493000000E-02   0.4625000006E+01  -0.1045943563E-09  -0.1046018445E-09  -0.6066262290E-13   0.5437559976E-13   0.1027111263E-14   0.9250000013E-02  -0.4615750006E-02  -0.4615750006E-02   0.7742018111E-15  -0.3320565033E-14   0.1302432965E-14   0.4625000006E+01
   0.2018500000E+01   0.9953842500E+00   0.9953842500E+00   0.4500000000E-02  -0.1122750000E-02  -0.1122750000E-02   0.1400000000E-01  -0.3493000000E-02  -0.3493000000E-02   0.4625000006E+01   0.3207424134E-10   0.3207297542E-10   0.5524860618E-13   0.4926572092E-13   0.2415060544E-14   0.9250000012E-02  -0.4615750006E-02  -0.4615750006E-02  -0.5378403237E-15   0.6293812760E-15   0.1311519224E-14   0.4625000006E+01
     1     2     3     4     5     6     7     8
     2     9    10     3     6    11    12     7
 VARIABLES = X,Y,Z,DU1,DU2,DU3,U1,U2,U3,S11,S22,S33,S12,S13,S23,E11,E22,E33,E12,E13,E23,SMISES
 ZONE, T="0.2700D+01" F=FEPOINT, I=   12 J=    2 ET=BRICK
   0.0000000000E+00   0.0000000000E+00   0.0000000000E+00   0.0000000000E+00   0.0000000000E+00   0.0000000000E+00   0.0000000000E+00   0.0000000000E+00   0.0000000000E+00   0.5750000009E+01  -0.8004150190E-10  -0.8005624664E-10  -0.1753930150E-15  -0.3384497657E-13   0.3799534905E-15   0.1150000002E-01  -0.5738500009E-02  -0.5738500009E-02   0.1035565898E-17  -0.1500341925E-14  -0.8257148601E-15   0.5750000009E+01
   0.1011500000E+01   0.0000000000E+00  -0.5218284461E-15   0.2250000000E-02   0.0000000000E+00   0.1107583536E-16   0.9250000000E-02   0.0000000000E+00  -0.5329042815E-15   0.5750000009E+01   0.3543056283E-10   0.3543264183E-10  -0.4986602870E-13  -0.4573143784E-13  -0.1829858697E-14   0.1150000002E-01  -0.5738500009E-02  -0.5738500009E-02   0.1477663032E-14   0.1131256409E-14   0.5931390210E-15   0.5750000009E+01
   0.1011500000E+01   0.9942615000E+00  -0.2248403758E-15   0.2250000000E-02  -0.1122750000E-02   0.1252008990E-16   0.9250000000E-02  -0.4615750000E-02  -0.2373604657E-15   0.5750000008E+01  -0.4430679773E-10  -0.4429447736E-10   0.3525381355E-13  -0.4192819039E-13  -0.2907773265E-14   0.1150000002E-01  -0.5738500008E-02  -0.5738500008E-02   0.1207466506E-14  -0.7326303368E-15   0.1898163838E-14   0.5750000008E+01
   0.0000000000E+00   0.9942615000E+00  -0.4123683200E-15   0.0000000000E+00  -0.1122750000E-02   0.4160474482E-17   0.0000000000E+00  -0.4615750000E-02  -0.4165287945E-15   0.5750000008E+01   0.2014180642E-10   0.2012645490E-10   0.5485700786E-13  -0.3744170669E-13   0.3326764406E-15   0.1150000002E-01  -0.5738500008E-02  -0.5738500008E-02  -0.8404482555E-15   0.2020068934E-15   0.4478278736E-15   0.5750000008E+01
   0.0000000000E+00   0.0000000000E+00   0.9942615000E+00   0.0000000000E+00   0.0000000000E+00  -0.1122750000E-02   0.0000000000E+00   0.0000000000E+00  -0.4615750000E-02   0.5750000008E+01   0.5220854685E-10   0.5219305272E-10   0.8775120681E-16   0.3436975466E-13   0.1707884191E-14   0.1150000002E-01  -0.5738500008E-02  -0.5738500008E-02   0.3989402695E-18   0.1533227423E-14  -0.3951523701E-15   0.5750000008E+01
   0.1011500000E+01   0.0000000000E+00   0.9942615000E+00   0.2250000000E-02   0.0000000000E+00  -0.1122750000E-02   0.9250000000E-02   0.0000000000E+00  -0.4615750000E-02   0.5750000008E+01   0.9276343069E-10   0.9277038058E-10  -0.4616365105E-13   0.4224437190E-13   0.1822927026E-14   0.1150000002E-01  -0.5738500008E-02  -0.5738500008E-02  -0.1238376186E-14   0.2977418745E-15  -0.2054454963E-14   0.5750000008E+01
   0.1011500000E+01   0.9942615000E+00   0.9942615000E+00   0.2250000000E-02  -0.1122750000E-02  -0.1122750000E-02   0.9250000000E-02  -0.4615750000E-02  -0.4615750000E-02   0.5750000008E+01  -0.2066001155E-11  -0.2052970023E-11   0.3876238594E-13   0.4652124981E-13   0.8344783827E-15   0.1150000002E-01  -0.5738500008E-02  -0.5738500008E-02  -0.2138518992E-14  -0.1559885769E-14  -0.7507226785E-15   0.5750000008E+01
   0.0000000000E+00   0.9942615000E+00   0.9942615000E+00   0.0000000000E+00  -0.1122750000E-02  -0.1122750000E-02   0.0000000000E+00  -0.4615750000E-02  -0.4615750000E-02   0.5750000008E+01  -0.1592667177E-10  -0.1593759702E-10   0.5488515081E-13   0.3560265966E-13  -0.6676839130E-16   0.1150000002E-01  -0.5738500008E-02  -0.5738500008E-02  -0.4778641554E-15  -0.1385186544E-14   0.8697262551E-15   0.5750000008E+01
   0.2023000000E+01   0.0000000000E+00  -0.1270115399E-15   0.4500000000E-02   0.0000000000E+00   0.3511544910E-16   0.1850000000E-01   0.0000000000E+00  -0.1621269890E-15   0.5750000009E+01  -0.3263692869E-10  -0.3264169590E-10  -0.5469150485E-13  -0.4903514348E-13  -0.8177603252E-15   0.1150000002E-01  -0.5738500009E-02  -0.5738500009E-02   0.1491345705E-14   0.1370272224E-14   0.8757459242E-15   0.5750000009E+01
   0.2023000000E+01   0.9942615000E+00   0.3106163916E-15   0.4500000000E-02  -0.1122750000E-02   0.3829295533E-16   0.1850000000E-01  -0.4615750000E-02   0.2723234363E-15   0.5750000008E+01  -0.3356291927E-10  -0.3356424309E-10   0.5968695535E-13  -0.5457511524E-13  -0.1613078182E-14   0.1150000002E-01  -0.5738500008E-02  -0.5738500008E-02   0.1800557170E-14   0.6935172256E-15   0.8757333662E-15   0.5750000008E+01
   0.2023000000E+01   0.0000000000E+00   0.9942615000E+00   0.4500000000E-02   0.0000000000E+00  -0.1122750000E-02   0.1850000000E-01   0.0000000000E+00  -0.4615750000E-02   0.5750000008E+01  -0.1056725022E-09  -0.1056790953E-09  -0.6020004951E-13   0.5426383114E-13   0.1809764533E-14   0.1150000002E-01  -0.5738500008E-02  -0.5738500008E-02   0.7869054273E-15  -0.3308199619E-14   0.1309323364E-14   0.5750000008E+01
   0.2023000000E+01   0.9942615000E+00   0.9942615000E+00   0.4500000000E-02  -0.1122750000E-02  -0.1122750000E-02   0.1850000000E-01  -0.4615750000E-02  -0.4615750000E-02   0.5750000007E+01   0.3152781505E-10   0.3152847608E-10   0.5498028689E-13   0.4826350599E-13   0.2465271043E-14   0.1150000001E-01  -0.5738500007E-02  -0.5738500007E-02  -0.5379116438E-15   0.5990316844E-15   0.1313770165E-14   0.5750000007E+01
     1     2     3     4     5     6     7     8
     2     9    10     3     6    11    12     7
 VARIABLES = X,Y,Z,DU1,DU2,DU3,U1,U2,U3,S11,S22,S33,S12,S13,S23,E11,E22,E33,E12,E13,E23,SMISES
 ZONE, T="0.2750D+01" F=FEPOINT, I=   12 J=    2 ET=BRICK
   0.0000000000E+00   0.0000000000E+00   0.0000000000E+00   0.0000000000E+00   0.0000000000E+00   0.0000000000E+00   0.0000000000E+00   0.0000000000E+00   0.0000000000E+00   0.6875000011E+01  -0.7970821719E-10  -0.7972309400E-10  -0.1890426428E-15  -0.3351611489E-13   0.7520770697E-15   0.1375000002E-01  -0.6861250011E-02  -0.6861250011E-02   0.5805562006E-18  -0.1497555318E-14  -0.8219422398E-15   0.6875000011E+01
   0.1013750000E+01   0.0000000000E+00  -0.5199372119E-15   0.2250000000E-02   0.0000000000E+00   0.1891234185E-17   0.1150000000E-01   0.0000000000E+00  -0.5218284461E-15   0.6875000011E+01   0.3555047645E-10   0.3555269768E-10  -0.4976340071E-13  -0.4556555971E-13  -0.1712090146E-14   0.1375000002E-01  -0.6861250011E-02  -0.6861250011E-02   0.1481592877E-14   0.1136629843E-14   0.5960531161E-15   0.6875000011E+01
   0.1013750000E+01   0.9931387500E+00  -0.2221565822E-15   0.2250000000E-02  -0.1122750000E-02   0.2683793630E-17   0.1150000000E-01  -0.5738500000E-02  -0.2248403758E-15   0.6875000010E+01  -0.4442299535E-10  -0.4441089158E-10   0.3520437168E-13  -0.4205928653E-13  -0.2861590366E-14   0.1375000002E-01  -0.6861250010E-02  -0.6861250010E-02   0.1211051382E-14  -0.7391548004E-15   0.1896489427E-14   0.6875000010E+01
   0.0000000000E+00   0.9931387500E+00  -0.4102017151E-15   0.0000000000E+00  -0.1122750000E-02   0.2166604917E-17   0.0000000000E+00  -0.5738500000E-02  -0.4123683200E-15   0.6875000010E+01   0.2036603683E-10   0.2035065537E-10   0.5452968939E-13  -0.3737312618E-13   0.3574093999E-15   0.1375000002E-01  -0.6861250010E-02  -0.6861250010E-02  -0.8449480609E-15   0.2036496095E-15   0.4450127882E-15   0.6875000010E+01
   0.0000000000E+00   0.0000000000E+00   0.9931387500E+00   0.0000000000E+00   0.0000000000E+00  -0.1122750000E-02   0.0000000000E+00   0.0000000000E+00  -0.5738500000E-02   0.6875000010E+01   0.5231789244E-10   0.5230268947E-10   0.1092600466E-15   0.3420552152E-13   0.1678956831E-14   0.1375000002E-01  -0.6861250010E-02  -0.6861250010E-02  -0.4852599099E-18   0.1530866706E-14  -0.3949475403E-15   0.6875000010E+01
   0.1013750000E+01   0.0000000000E+00   0.9931387500E+00   0.2250000000E-02   0.0000000000E+00  -0.1122750000E-02   0.1150000000E-01   0.0000000000E+00  -0.5738500000E-02   0.6875000010E+01   0.9278305911E-10   0.9279103542E-10  -0.4634239631E-13   0.4253458455E-13   0.1742097125E-14   0.1375000002E-01  -0.6861250010E-02  -0.6861250010E-02  -0.1239635190E-14   0.3037716683E-15  -0.2056713523E-14   0.6875000010E+01
   0.1013750000E+01   0.9931387500E+00   0.9931387500E+00   0.2250000000E-02  -0.1122750000E-02  -0.1122750000E-02   0.1150000000E-01  -0.5738500000E-02  -0.5738500000E-02   0.6875000009E+01  -0.2390121150E-11  -0.2377121225E-11   0.3894679314E-13   0.4627215193E-13   0.6822930061E-15   0.1375000002E-01  -0.6861250009E-02  -0.6861250009E-02  -0.2140004451E-14  -0.1560873152E-14  -0.7514206536E-15   0.6875000009E+01
   0.0000000000E+00   0.9931387500E+00   0.9931387500E+00   0.0000000000E+00  -0.1122750000E-02  -0.1122750000E-02   0.0000000000E+00  -0.5738500000E-02  -0.5738500000E-02   0.6875000009E+01  -0.1603600846E-10  -0.1604697907E-10   0.5465048168E-13   0.3550316252E-13  -0.4453822161E-15   0.1375000002E-01  -0.6861250009E-02  -0.6861250009E-02  -0.4776494233E-15  -0.1387199140E-14   0.8756575544E-15   0.6875000009E+01
   0.2027500000E+01   0.0000000000E+00  -0.1229568221E-15   0.4500000000E-02   0.0000000000E+00   0.4054717853E-17   0.2300000000E-01   0.0000000000E+00  -0.1270115399E-15   0.6875000010E+01  -0.3233718344E-10  -0.3234053492E-10  -0.5538798126E-13  -0.4875391321E-13  -0.8267816794E-15   0.1375000002E-01  -0.6861250010E-02  -0.6861250010E-02   0.1487428746E-14   0.1385150594E-14   0.8714847585E-15   0.6875000010E+01
   0.2027500000E+01   0.9931387500E+00   0.3145143666E-15   0.4500000000E-02  -0.1122750000E-02   0.3897974972E-17   0.2300000000E-01  -0.5738500000E-02   0.3106163916E-15   0.6875000010E+01  -0.3383961816E-10  -0.3384174363E-10   0.5912240883E-13  -0.5488734654E-13  -0.1116774247E-14   0.1375000002E-01  -0.6861250010E-02  -0.6861250010E-02   0.1801541337E-14   0.6822444320E-15   0.8895158793E-15   0.6875000010E+01
   0.2027500000E+01   0.0000000000E+00   0.9931387500E+00   0.4500000000E-02   0.0000000000E+00  -0.1122750000E-02   0.2300000000E-01   0.0000000000E+00  -0.5738500000E-02   0.6875000009E+01  -0.1050737221E-09  -0.1050816164E-09  -0.6102904434E-13   0.5443993709E-13   0.1359843532E-14   0.1375000002E-01  -0.6861250010E-02  -0.6861250010E-02   0.7804409192E-15  -0.3287433120E-14   0.1309134136E-14   0.6875000010E+01
   0.2027500000E+01   0.9931387500E+00   0.9931387500E+00   0.4500000000E-02  -0.1122750000E-02  -0.1122750000E-02   0.2300000000E-01  -0.5738500000E-02  -0.5738500000E-02   0.6875000009E+01   0.3143873583E-10   0.3143838060E-10   0.5499783908E-13   0.4831658277E-13   0.2617388810E-14   0.1375000002E-01  -0.6861250009E-02  -0.6861250009E-02  -0.5372692098E-15   0.6092402321E-15   0.1304003598E-14   0.6875000009E+01
     1     2     3     4     5     6     7     8
     2     9    10     3     6    11    12     7
 VARIABLES = X,Y,Z,DU1,DU2,DU3,U1,U2,U3,S11,S22,S33,S12,S13,S23,E11,E22,E33,E12,E13,E23,SMISES
 ZONE, T="0.2800D+01" F=FEPOINT, I=   12 J=    2 ET=BRICK
   0.0000000000E+00   0.0000000000E+00   0.0000000000E+00   0.0000000000E+00   0.0000000000E+00   0.0000000000E+00   0.0000000000E+00   0.0000000000E+00   0.0000000000E+00   0.8000000012E+01  -0.7954616774E-10  -0.7956083193E-10  -0.2334690366E-15  -0.3313281163E-13   0.8398366072E-15   0.1600000003E-01  -0.7984000013E-02  -0.7984000013E-02   0.1666739610E-17  -0.1487343787E-14  -0.8202871846E-15   0.8000000013E+01
   0.1016000000E+01   0.0000000000E+00  -0.5186950307E-15   0.2250000000E-02   0.0000000000E+00   0.1242181242E-17   0.1375000000E-01   0.0000000000E+00  -0.5199372119E-15   0.8000000012E+01   0.3535169783E-10   0.3535387842E-10  -0.5012610314E-13  -0.4617592461E-13  -0.1929315146E-14   0.1600000002E-01  -0.7984000012E-02  -0.7984000012E-02   0.1471879189E-14   0.1125682602E-14   0.5970971434E-15   0.8000000012E+01
   0.1016000000E+01   0.9920160000E+00  -0.2221480806E-15   0.2250000000E-02  -0.1122750000E-02   0.8501601802E-20   0.1375000000E-01  -0.6861250000E-02  -0.2221565822E-15   0.8000000011E+01  -0.4459785876E-10  -0.4458469337E-10   0.3502947930E-13  -0.4156349395E-13  -0.2930213809E-14   0.1600000002E-01  -0.7984000011E-02  -0.7984000011E-02   0.1208553910E-14  -0.7239793722E-15   0.1893257503E-14   0.8000000011E+01
   0.0000000000E+00   0.9920160000E+00  -0.4095182565E-15   0.0000000000E+00  -0.1122750000E-02   0.6834586375E-18   0.0000000000E+00  -0.6861250000E-02  -0.4102017151E-15   0.8000000012E+01   0.2007825848E-10   0.2006253850E-10   0.5432199891E-13  -0.3742289366E-13   0.8175678527E-15   0.1600000002E-01  -0.7984000012E-02  -0.7984000012E-02  -0.8504436757E-15   0.1961719923E-15   0.4507977263E-15   0.8000000012E+01
   0.0000000000E+00   0.0000000000E+00   0.9920160000E+00   0.0000000000E+00   0.0000000000E+00  -0.1122750000E-02   0.0000000000E+00   0.0000000000E+00  -0.6861250000E-02   0.8000000012E+01   0.5219843711E-10   0.5218252990E-10   0.1258906548E-15   0.3397020380E-13   0.1592641002E-14   0.1600000002E-01  -0.7984000012E-02  -0.7984000012E-02  -0.2052434352E-17   0.1524838419E-14  -0.3986628899E-15   0.8000000012E+01
   0.1016000000E+01   0.0000000000E+00   0.9920160000E+00   0.2250000000E-02   0.0000000000E+00  -0.1122750000E-02   0.1375000000E-01   0.0000000000E+00  -0.6861250000E-02   0.8000000011E+01   0.9269743452E-10   0.9270489635E-10  -0.4562428375E-13   0.4199565650E-13   0.1884662434E-14   0.1600000002E-01  -0.7984000011E-02  -0.7984000011E-02  -0.1223925647E-14   0.2971266131E-15  -0.2058909375E-14   0.8000000011E+01
   0.1016000000E+01   0.9920160000E+00   0.9920160000E+00   0.2250000000E-02  -0.1122750000E-02  -0.1122750000E-02   0.1375000000E-01  -0.6861250000E-02  -0.6861250000E-02   0.8000000010E+01  -0.2341853140E-11  -0.2328509260E-11   0.3955908212E-13   0.4685078945E-13   0.9157582718E-15   0.1600000002E-01  -0.7984000010E-02  -0.7984000010E-02  -0.2126551893E-14  -0.1556534065E-14  -0.7454302334E-15   0.8000000010E+01
   0.0000000000E+00   0.9920160000E+00   0.9920160000E+00   0.0000000000E+00  -0.1122750000E-02  -0.1122750000E-02   0.0000000000E+00  -0.6861250000E-02  -0.6861250000E-02   0.8000000011E+01  -0.1568621434E-10  -0.1569716462E-10   0.5430746675E-13   0.3562266851E-13  -0.2695748149E-15   0.1600000002E-01  -0.7984000011E-02  -0.7984000011E-02  -0.4799736075E-15  -0.1378617606E-14   0.8739356381E-15   0.8000000011E+01
   0.2032000000E+01   0.0000000000E+00  -0.1251275864E-15   0.4500000000E-02   0.0000000000E+00  -0.2170764345E-17   0.2750000000E-01   0.0000000000E+00  -0.1229568221E-15   0.8000000012E+01  -0.3224693691E-10  -0.3225096687E-10  -0.5604715921E-13  -0.4947745459E-13  -0.6592841321E-15   0.1600000002E-01  -0.7984000012E-02  -0.7984000012E-02   0.1465795804E-14   0.1410906535E-14   0.8759289239E-15   0.8000000012E+01
   0.2032000000E+01   0.9920160000E+00   0.3131784525E-15   0.4500000000E-02  -0.1122750000E-02  -0.1335914101E-17   0.2750000000E-01  -0.6861250000E-02   0.3145143666E-15   0.8000000011E+01  -0.3384577401E-10  -0.3384897451E-10   0.5912287844E-13  -0.5425357893E-13  -0.1361423222E-14   0.1600000002E-01  -0.7984000011E-02  -0.7984000011E-02   0.1785792873E-14   0.6798473620E-15   0.8778237186E-15   0.8000000011E+01
   0.2032000000E+01   0.0000000000E+00   0.9920160000E+00   0.4500000000E-02   0.0000000000E+00  -0.1122750000E-02   0.2750000000E-01   0.0000000000E+00  -0.6861250000E-02   0.8000000011E+01  -0.1045821134E-09  -0.1045898725E-09  -0.6104507348E-13   0.5484941034E-13   0.1184486735E-14   0.1600000002E-01  -0.7984000011E-02  -0.7984000011E-02   0.7848181430E-15  -0.3306134924E-14   0.1304472234E-14   0.8000000011E+01
   0.2032000000E+01   0.9920160000E+00   0.9920160000E+00   0.4500000000E-02  -0.1122750000E-02  -0.1122750000E-02   0.2750000000E-01  -0.6861250000E-02  -0.6861250000E-02   0.8000000010E+01   0.3112789696E-10   0.3112782472E-10   0.5483948566E-13   0.4855496410E-13   0.2153846008E-14   0.1600000002E-01  -0.7984000010E-02  -0.7984000010E-02  -0.5400183931E-15   0.6359331505E-15   0.1306604378E-14   0.8000000010E+01
     1     2     3     4     5     6     7     8
     2     9    10     3     6    11    12     7
 VARIABLES = X,Y,Z,DU1,DU2,DU3,U1,U2,U3,S11,S22,S33,S12,S13,S23,E11,E22,E33,E12,E13,E23,SMISES
 ZONE, T="0.2850D+01" F=FEPOINT, I=   12 J=    2 ET=BRICK
   0.0000000000E+00   0.0000000000E+00   0.0000000000E+00   0.0000000000E+00   0.0000000000E+00   0.0000000000E+00   0.0000000000E+00   0.0000000000E+00   0.0000000000E+00   0.9125000014E+01  -0.8133958471E-10  -0.8135342673E-10  -0.2604119578E-15  -0.3501108541E-13  -0.2474808169E-15   0.1825000003E-01  -0.9106750014E-02  -0.9106750014E-02   0.2790558253E-17  -0.1513753478E-14  -0.8276260674E-15   0.9125000014E+01
   0.1018250000E+01   0.0000000000E+00  -0.5326898911E-15   0.2250000000E-02   0.0000000000E+00  -0.1399486046E-16   0.1600000000E-01   0.0000000000E+00  -0.5186950307E-15   0.9125000014E+01   0.3479274442E-10   0.3479502514E-10  -0.4912635459E-13  -0.4507761081E-13  -0.1970092360E-14   0.1825000003E-01  -0.9106750014E-02  -0.9106750014E-02   0.1484330155E-14   0.1138633366E-14   0.5898395365E-15   0.9125000014E+01
   0.1018250000E+01   0.9908932500E+00  -0.2364027987E-15   0.2250000000E-02  -0.1122750000E-02  -0.1425471815E-16   0.1600000000E-01  -0.7984000000E-02  -0.2221480806E-15   0.9125000013E+01  -0.4548945320E-10  -0.4547498238E-10   0.3583812858E-13  -0.4194841938E-13  -0.2139482101E-14   0.1825000003E-01  -0.9106750013E-02  -0.9106750013E-02   0.1221463439E-14  -0.7270018714E-15   0.1914529346E-14   0.9125000013E+01
   0.0000000000E+00   0.9908932500E+00  -0.4161198807E-15   0.0000000000E+00  -0.1122750000E-02  -0.6601624199E-17   0.0000000000E+00  -0.7984000000E-02  -0.4095182565E-15   0.9125000013E+01   0.1944847688E-10   0.1943339874E-10   0.5457045834E-13  -0.3787964470E-13   0.5108966922E-15   0.1825000003E-01  -0.9106750013E-02  -0.9106750013E-02  -0.8431072638E-15   0.1916243602E-15   0.4348736174E-15   0.9125000013E+01
   0.0000000000E+00   0.0000000000E+00   0.9908932500E+00   0.0000000000E+00   0.0000000000E+00  -0.1122750000E-02   0.0000000000E+00   0.0000000000E+00  -0.7984000000E-02   0.9125000013E+01   0.5382374589E-10   0.5380694214E-10   0.1504885598E-15   0.3239909646E-13   0.8794806371E-15   0.1825000003E-01  -0.9106750013E-02  -0.9106750013E-02  -0.6386447549E-18   0.1510911632E-14  -0.4058222706E-15   0.9125000013E+01
   0.1018250000E+01   0.0000000000E+00   0.9908932500E+00   0.2250000000E-02   0.0000000000E+00  -0.1122750000E-02   0.1600000000E-01   0.0000000000E+00  -0.7984000000E-02   0.9125000013E+01   0.9347352560E-10   0.9348075450E-10  -0.4668991169E-13   0.4313991894E-13   0.1697886216E-14   0.1825000003E-01  -0.9106750013E-02  -0.9106750013E-02  -0.1237042143E-14   0.3058724497E-15  -0.2055144079E-14   0.9125000013E+01
   0.1018250000E+01   0.9908932500E+00   0.9908932500E+00   0.2250000000E-02  -0.1122750000E-02  -0.1122750000E-02   0.1600000000E-01  -0.7984000000E-02  -0.7984000000E-02   0.9125000012E+01  -0.1084988484E-11  -0.1073889744E-11   0.3819464919E-13   0.4614573337E-13   0.1493902673E-14   0.1825000002E-01  -0.9106750012E-02  -0.9106750012E-02  -0.2141446287E-14  -0.1550652874E-14  -0.7445710051E-15   0.9125000012E+01
   0.0000000000E+00   0.9908932500E+00   0.9908932500E+00   0.0000000000E+00  -0.1122750000E-02  -0.1122750000E-02   0.0000000000E+00  -0.7984000000E-02  -0.7984000000E-02   0.9125000012E+01  -0.1492825526E-10  -0.1493951829E-10   0.5453066588E-13   0.3476626151E-13  -0.4230864481E-17   0.1825000002E-01  -0.9106750012E-02  -0.9106750012E-02  -0.4752380692E-15  -0.1404894576E-14   0.8838026231E-15   0.9125000012E+01
   0.2036500000E+01   0.0000000000E+00  -0.1631329273E-15   0.4500000000E-02   0.0000000000E+00  -0.3800534091E-16   0.3200000000E-01   0.0000000000E+00  -0.1251275864E-15   0.9125000014E+01  -0.3225914909E-10  -0.3226195343E-10  -0.5710610929E-13  -0.4994052481E-13  -0.1225504130E-14   0.1825000003E-01  -0.9106750014E-02  -0.9106750014E-02   0.1459939304E-14   0.1370663096E-14   0.8686196261E-15   0.9125000014E+01
   0.2036500000E+01   0.9908932500E+00   0.2716711429E-15   0.4500000000E-02  -0.1122750000E-02  -0.4150730962E-16   0.3200000000E-01  -0.7984000000E-02   0.3131784525E-15   0.9125000013E+01  -0.3519783081E-10  -0.3520098522E-10   0.5758366341E-13  -0.5274638607E-13  -0.1560443395E-14   0.1825000003E-01  -0.9106750013E-02  -0.9106750013E-02   0.1771448400E-14   0.6954079315E-15   0.8773532691E-15   0.9125000013E+01
   0.2036500000E+01   0.0000000000E+00   0.9908932500E+00   0.4500000000E-02   0.0000000000E+00  -0.1122750000E-02   0.3200000000E-01   0.0000000000E+00  -0.7984000000E-02   0.9125000013E+01  -0.1053934579E-09  -0.1054027092E-09  -0.5876825396E-13   0.5352762046E-13   0.8021419898E-15   0.1825000003E-01  -0.9106750013E-02  -0.9106750013E-02   0.8173687733E-15  -0.3315717545E-14   0.1303077643E-14   0.9125000013E+01
   0.2036500000E+01   0.9908932500E+00   0.9908932500E+00   0.4500000000E-02  -0.1122750000E-02  -0.1122750000E-02   0.3200000000E-01  -0.7984000000E-02  -0.7984000000E-02   0.9125000012E+01   0.3262759951E-10   0.3262919407E-10   0.5596309375E-13   0.5021750355E-13   0.2277429891E-14   0.1825000002E-01  -0.9106750012E-02  -0.9106750012E-02  -0.5235940191E-15   0.6248401351E-15   0.1309057078E-14   0.9125000012E+01
     1     2     3     4     5     6     7     8
     2     9    10     3     6    11    12     7
 VARIABLES = X,Y,Z,DU1,DU2,DU3,U1,U2,U3,S11,S22,S33,S12,S13,S23,E11,E22,E33,E12,E13,E23,SMISES
 ZONE, T="0.2900D+01" F=FEPOINT, I=   12 J=    2 ET=BRICK
   0.0000000000E+00   0.0000000000E+00   0.0000000000E+00   0.0000000000E+00   0.0000000000E+00   0.0000000000E+00   0.0000000000E+00   0.0000000000E+00   0.0000000000E+00   0.1025000002E+02   0.5163918774E-10   0.5176347673E-10  -0.2466084303E-15   0.1783890665E-12   0.1801037877E-12   0.2550000004E-01  -0.1272950002E-01  -0.1272950002E-01   0.5141062860E-18   0.1597052434E-14   0.1875883475E-14   0.1025000002E+02
   0.1025500000E+01   0.0000000000E+00   0.8907177720E-15   0.7250000000E-02   0.0000000000E+00   0.1423407663E-14   0.1825000000E-01   0.0000000000E+00  -0.5326898911E-15   0.1025000002E+02   0.5391395869E-10   0.5388409276E-10  -0.3272286843E-13   0.1663257174E-13  -0.1480023727E-13   0.2550000004E-01  -0.1272950002E-01  -0.1272950002E-01   0.1538966904E-14   0.1885682433E-14   0.3828956406E-15   0.1025000002E+02
   0.1025500000E+01   0.9872705000E+00   0.1080810937E-14   0.7250000000E-02  -0.3622750000E-02   0.1317213736E-14   0.1825000000E-01  -0.9106750000E-02  -0.2364027987E-15   0.1025000001E+02  -0.3635617973E-10  -0.3633349608E-10   0.1375393916E-13  -0.8900109975E-13  -0.2317596615E-13   0.2550000004E-01  -0.1272950002E-01  -0.1272950002E-01   0.9836358648E-15  -0.1556399926E-14   0.1531956978E-14   0.1025000001E+02
   0.0000000000E+00   0.9872705000E+00   0.9391902661E-15   0.0000000000E+00  -0.3622750000E-02   0.1355310147E-14   0.0000000000E+00  -0.9106750000E-02  -0.4161198807E-15   0.1025000001E+02   0.5749370833E-10   0.5725998244E-10  -0.1930982550E-14  -0.7237339703E-13   0.6399000826E-13   0.2550000004E-01  -0.1272950002E-01  -0.1272950002E-01  -0.1489930738E-14  -0.4432104294E-15   0.1392947759E-14   0.1025000001E+02
   0.0000000000E+00   0.0000000000E+00   0.9872705000E+00   0.0000000000E+00   0.0000000000E+00  -0.3622750000E-02   0.0000000000E+00   0.0000000000E+00  -0.9106750000E-02   0.1025000001E+02   0.4653451409E-10   0.4688861989E-10   0.1251335577E-15   0.5204744063E-13   0.2504917064E-14   0.2550000004E-01  -0.1272950002E-01  -0.1272950002E-01  -0.1564974841E-17   0.1872981751E-14  -0.3690040413E-15   0.1025000001E+02
   0.1025500000E+01   0.0000000000E+00   0.9872705000E+00   0.7250000000E-02   0.0000000000E+00  -0.3622750000E-02   0.1825000000E-01   0.0000000000E+00  -0.9106750000E-02   0.1025000001E+02   0.4211330620E-10   0.4210523508E-10  -0.5519946095E-13   0.8565342711E-13   0.9452601866E-14   0.2550000004E-01  -0.1272950002E-01  -0.1272950002E-01  -0.1485380366E-14   0.1072471714E-14  -0.1884320445E-14   0.1025000001E+02
   0.1025500000E+01   0.9872705000E+00   0.9872705000E+00   0.7250000000E-02  -0.3622750000E-02  -0.3622750000E-02   0.1825000000E-01  -0.9106750000E-02  -0.9106750000E-02   0.1025000001E+02  -0.4238167920E-10  -0.4234503336E-10   0.9652818665E-13   0.1157455748E-13   0.1319602034E-14   0.2550000003E-01  -0.1272950002E-01  -0.1272950002E-01  -0.1102413619E-14  -0.1894429251E-14  -0.7174997801E-15   0.1025000001E+02
   0.0000000000E+00   0.9872705000E+00   0.9872705000E+00   0.0000000000E+00  -0.3622750000E-02  -0.3622750000E-02   0.0000000000E+00  -0.9106750000E-02  -0.9106750000E-02   0.1025000001E+02  -0.1460445119E-09  -0.1460434641E-09   0.1083282667E-12   0.8960869844E-13  -0.1155187165E-12   0.2550000003E-01  -0.1272950002E-01  -0.1272950002E-01   0.5223352102E-15  -0.4311946981E-15  -0.8720278245E-15   0.1025000001E+02
   0.2051000000E+01   0.0000000000E+00   0.2156088138E-14   0.1450000000E-01   0.0000000000E+00   0.2319221066E-14   0.3650000000E-01   0.0000000000E+00  -0.1631329273E-15   0.1025000002E+02   0.4664579689E-10   0.4686055300E-10  -0.1255368504E-12  -0.1398024303E-12   0.1301944714E-13   0.2550000004E-01  -0.1272950002E-01  -0.1272950002E-01   0.2102846694E-15  -0.1375126443E-15   0.1054719771E-14   0.1025000002E+02
   0.2051000000E+01   0.9872705000E+00   0.2684185412E-14   0.1450000000E-01  -0.3622750000E-02   0.2412514269E-14   0.3650000000E-01  -0.9106750000E-02   0.2716711429E-15   0.1025000001E+02  -0.9806813429E-10  -0.9808938258E-10  -0.3101007773E-13   0.3570513375E-14   0.1064061095E-12   0.2550000004E-01  -0.1272950002E-01  -0.1272950002E-01   0.5876692677E-15   0.1365927126E-14   0.2466008380E-14   0.1025000001E+02
   0.2051000000E+01   0.0000000000E+00   0.9872705000E+00   0.1450000000E-01   0.0000000000E+00  -0.3622750000E-02   0.3650000000E-01   0.0000000000E+00  -0.9106750000E-02   0.1025000001E+02  -0.2967835494E-10  -0.2965749766E-10  -0.6402280738E-13   0.1218411867E-12  -0.1030568352E-12   0.2550000004E-01  -0.1272950002E-01  -0.1272950002E-01   0.5181642776E-15  -0.2067629604E-14  -0.2779531589E-15   0.1025000001E+02
   0.2051000000E+01   0.9872705000E+00   0.9872705000E+00   0.1450000000E-01  -0.3622750000E-02  -0.3622750000E-02   0.3650000000E-01  -0.9106750000E-02  -0.9106750000E-02   0.1025000001E+02   0.3556849095E-10   0.3536271988E-10   0.1309919814E-12   0.4007809698E-13  -0.8213276846E-14   0.2550000003E-01  -0.1272950002E-01  -0.1272950002E-01   0.7814608689E-15   0.6506499068E-15   0.1130915285E-14   0.1025000001E+02
     1     2     3     4     5     6     7     8
     2     9    10     3     6    11    12     7
 VARIABLES = X,Y,Z,DU1,DU2,DU3,U1,U2,U3,S11,S22,S33,S12,S13,S23,E11,E22,E33,E12,E13,E23,SMISES
 ZONE, T="0.2950D+01" F=FEPOINT, I=   12 J=    2 ET=BRICK
   0.0000000000E+00   0.0000000000E+00   0.0000000000E+00   0.0000000000E+00   0.0000000000E+00   0.0000000000E+00   0.0000000000E+00   0.0000000000E+00   0.0000000000E+00   0.1137500002E+02  -0.7308380293E-09  -0.7312547421E-09  -0.1364989494E-15  -0.6656369738E-12  -0.5307890606E-12   0.5025000008E-01  -0.2510225004E-01  -0.2510225004E-01   0.2036376869E-17  -0.1654242867E-13  -0.1306000415E-13   0.1137500002E+02
   0.1050250000E+01   0.0000000000E+00  -0.6460627255E-14   0.2475000000E-01   0.0000000000E+00  -0.7351345027E-14   0.2550000000E-01   0.0000000000E+00   0.8907177720E-15   0.1137500002E+02   0.2121146189E-09   0.2122906574E-09   0.3069381760E-13   0.1711334043E-13   0.3304687272E-13   0.5025000008E-01  -0.2510225004E-01  -0.2510225004E-01   0.2466266141E-14   0.1931812788E-14   0.1298519189E-14   0.1137500002E+02
   0.1050250000E+01   0.9748977500E+00  -0.5813014462E-14   0.2475000000E-01  -0.1237275000E-01  -0.6893825399E-14   0.2550000000E-01  -0.1272950000E-01   0.1080810937E-14   0.1137500002E+02  -0.1764009164E-09  -0.1762867081E-09   0.2209330383E-12  -0.1892845404E-12  -0.7040900630E-14   0.5025000007E-01  -0.2510225004E-01  -0.2510225004E-01   0.6044054538E-14  -0.4973791048E-14   0.1467006655E-14   0.1137500002E+02
   0.0000000000E+00   0.9748977500E+00  -0.6527641653E-14   0.0000000000E+00  -0.1237275000E-01  -0.7466831919E-14   0.0000000000E+00  -0.1272950000E-01   0.9391902661E-15   0.1137500002E+02   0.7875384643E-10   0.7938153816E-10   0.3505847503E-12   0.1354264469E-12  -0.3232703753E-12   0.5025000007E-01  -0.2510225004E-01  -0.2510225004E-01   0.7149733024E-14   0.3633358524E-14  -0.7244607731E-14   0.1137500002E+02
   0.0000000000E+00   0.0000000000E+00   0.9748977500E+00   0.0000000000E+00   0.0000000000E+00  -0.1237275000E-01   0.0000000000E+00   0.0000000000E+00  -0.1272950000E-01   0.1137500002E+02   0.2703381772E-10   0.2620146183E-10   0.1073949219E-15   0.8874392207E-13  -0.7718406346E-14   0.5025000007E-01  -0.2510225004E-01  -0.2510225004E-01   0.6537406888E-18   0.3255513438E-14  -0.5505141059E-15   0.1137500002E+02
   0.1050250000E+01   0.0000000000E+00   0.9748977500E+00   0.2475000000E-01   0.0000000000E+00  -0.1237275000E-01   0.2550000000E-01   0.0000000000E+00  -0.1272950000E-01   0.1137500002E+02   0.1414860509E-09   0.1417453698E-09  -0.2651488621E-12   0.2912285853E-12   0.6547372325E-15   0.5025000007E-01  -0.2510225004E-01  -0.2510225004E-01  -0.7140431531E-14   0.7074582203E-14  -0.1783635697E-14   0.1137500002E+02
   0.1050250000E+01   0.9748977500E+00   0.9748977500E+00   0.2475000000E-01  -0.1237275000E-01  -0.1237275000E-01   0.2550000000E-01  -0.1272950000E-01  -0.1272950000E-01   0.1137500001E+02  -0.2704153699E-10  -0.2685048334E-10   0.1998898662E-13  -0.2231708953E-13  -0.3902395481E-13   0.5025000007E-01  -0.2510225003E-01  -0.2510225003E-01  -0.1550119364E-14  -0.2378676954E-14  -0.1594558822E-14   0.1137500001E+02
   0.0000000000E+00   0.9748977500E+00   0.9748977500E+00   0.0000000000E+00  -0.1237275000E-01  -0.1237275000E-01   0.0000000000E+00  -0.1272950000E-01  -0.1272950000E-01   0.1137500002E+02   0.1213127599E-09   0.1215279129E-09  -0.6669509899E-13   0.1117810864E-12   0.1986972918E-12   0.5025000007E-01  -0.2510225003E-01  -0.2510225003E-01  -0.2306049999E-14   0.1353443375E-14   0.5270627333E-14   0.1137500002E+02
   0.2100500000E+01   0.0000000000E+00  -0.5653190934E-14   0.4950000000E-01   0.0000000000E+00  -0.7809279073E-14   0.5100000000E-01   0.0000000000E+00   0.2156088138E-14   0.1137500002E+02   0.1402022540E-09   0.1401165114E-09  -0.5824579061E-12   0.8216223570E-14  -0.3545049980E-12   0.5025000008E-01  -0.2510225004E-01  -0.2510225004E-01  -0.1248507359E-13   0.1529642081E-14  -0.7749253796E-14   0.1137500002E+02
   0.2100500000E+01   0.9748977500E+00  -0.9525536067E-14   0.4950000000E-01  -0.1237275000E-01  -0.1220972148E-13   0.5100000000E-01  -0.1272950000E-01   0.2684185412E-14   0.1137500002E+02  -0.3533739636E-09  -0.3528407480E-09  -0.5525105183E-12  -0.1634849692E-12   0.4041995420E-13   0.5025000007E-01  -0.2510225004E-01  -0.2510225004E-01  -0.1244431418E-13  -0.2759020507E-14   0.2051962814E-14   0.1137500002E+02
   0.2100500000E+01   0.0000000000E+00   0.9748977500E+00   0.4950000000E-01   0.0000000000E+00  -0.1237275000E-01   0.5100000000E-01   0.0000000000E+00  -0.1272950000E-01   0.1137500002E+02  -0.1217033118E-09  -0.1225839624E-09  -0.1262177466E-12  -0.2059097357E-12  -0.4375998717E-13   0.5025000007E-01  -0.2510225004E-01  -0.2510225004E-01  -0.1904162863E-14  -0.8112127302E-14  -0.1895103041E-15   0.1137500002E+02
   0.2100500000E+01   0.9748977500E+00   0.9748977500E+00   0.4950000000E-01  -0.1237275000E-01  -0.1237275000E-01   0.5100000000E-01  -0.1272950000E-01  -0.1272950000E-01   0.1137500002E+02   0.5399908381E-09   0.5397362469E-09   0.5093498941E-12   0.1948628483E-12   0.3524279318E-12   0.5025000006E-01  -0.2510225003E-01  -0.2510225003E-01   0.1157435524E-13   0.4818371217E-14   0.9590803311E-14   0.1137500001E+02
     1     2     3     4     5     6     7     8
     2     9    10     3     6    11    12     7
 VARIABLES = X,Y,Z,DU1,DU2,DU3,U1,U2,U3,S11,S22,S33,S12,S13,S23,E11,E22,E33,E12,E13,E23,SMISES
 ZONE, T="0.3000D+01" F=FEPOINT, I=   12 J=    2 ET=BRICK
   0.0000000000E+00   0.0000000000E+00   0.0000000000E+00   0.0000000000E+00   0.0000000000E+00   0.0000000000E+00   0.0000000000E+00   0.0000000000E+00   0.0000000000E+00   0.1250000002E+02  -0.3401059846E-09  -0.3400874197E-09   0.2811548699E-16   0.2419103303E-13   0.4604952004E-14   0.7500000012E-01  -0.3747500006E-01  -0.3747500006E-01   0.4417470688E-17  -0.7113286442E-14  -0.5898992789E-14   0.1250000002E+02
   0.1075000000E+01   0.0000000000E+00  -0.2696089370E-14   0.2475000000E-01   0.0000000000E+00   0.3764537885E-14   0.5025000000E-01   0.0000000000E+00  -0.6460627255E-14   0.1250000002E+02   0.1035193781E-09   0.1035094717E-09   0.1476777895E-13   0.9164744924E-14   0.8119754299E-16   0.7500000012E-01  -0.3747500006E-01  -0.3747500006E-01   0.2220937027E-14   0.1761590319E-14   0.8106578641E-15   0.1250000002E+02
   0.1075000000E+01   0.9625250000E+00  -0.2289782893E-14   0.2475000000E-01  -0.1237275000E-01   0.3523231569E-14   0.5025000000E-01  -0.2510225000E-01  -0.5813014462E-14   0.1250000002E+02  -0.8305307534E-10  -0.8306026944E-10  -0.2450356072E-13   0.2502227081E-13  -0.1698183576E-14   0.7500000011E-01  -0.3747500005E-01  -0.3747500005E-01   0.2460073021E-14  -0.1829288171E-14   0.1350120776E-14   0.1250000002E+02
   0.0000000000E+00   0.9625250000E+00  -0.2951586274E-14   0.0000000000E+00  -0.1237275000E-01   0.3576055379E-14   0.0000000000E+00  -0.2510225000E-01  -0.6527641653E-14   0.1250000002E+02   0.7483504535E-10   0.7483938397E-10  -0.2761835626E-13   0.1720848388E-13   0.5729893938E-14   0.7500000011E-01  -0.3747500005E-01  -0.3747500005E-01   0.1979884675E-14   0.2232455027E-14  -0.2885441661E-14   0.1250000002E+02
   0.0000000000E+00   0.0000000000E+00   0.9625250000E+00   0.0000000000E+00   0.0000000000E+00  -0.1237275000E-01   0.0000000000E+00   0.0000000000E+00  -0.2510225000E-01   0.1250000002E+02   0.3257291446E-10   0.3258677495E-10  -0.2248334254E-16  -0.2016941342E-13  -0.1287074642E-14   0.7500000011E-01  -0.3747500005E-01  -0.3747500005E-01  -0.5881434112E-17   0.1483792362E-14  -0.4553375232E-15   0.1250000002E+02
   0.1075000000E+01   0.0000000000E+00   0.9625250000E+00   0.2475000000E-01   0.0000000000E+00  -0.1237275000E-01   0.5025000000E-01   0.0000000000E+00  -0.2510225000E-01   0.1250000002E+02   0.1015000137E-09   0.1014985406E-09   0.3023351381E-13  -0.3179524530E-13  -0.1913868872E-15   0.7500000011E-01  -0.3747500005E-01  -0.3747500005E-01  -0.2811746613E-14   0.2436884541E-14  -0.1600953120E-14   0.1250000002E+02
   0.1075000000E+01   0.9625250000E+00   0.9625250000E+00   0.2475000000E-01  -0.1237275000E-01  -0.1237275000E-01   0.5025000000E-01  -0.2510225000E-01  -0.2510225000E-01   0.1250000002E+02   0.2222206818E-11   0.2215678852E-11  -0.1129596342E-13  -0.1666687173E-13  -0.2024498494E-14   0.7500000010E-01  -0.3747500005E-01  -0.3747500005E-01  -0.1875460568E-14  -0.2305554641E-14  -0.1051651494E-14   0.1250000002E+02
   0.0000000000E+00   0.9625250000E+00   0.9625250000E+00   0.0000000000E+00  -0.1237275000E-01  -0.1237275000E-01   0.0000000000E+00  -0.2510225000E-01  -0.2510225000E-01   0.1250000002E+02   0.8084253210E-10   0.8084436076E-10  -0.3071045709E-13  -0.1755812511E-13  -0.4616035531E-15   0.7500000010E-01  -0.3747500005E-01  -0.3747500005E-01  -0.2093636467E-14  -0.4247379690E-15   0.2596994253E-14   0.1250000002E+02
   0.2150000000E+01   0.0000000000E+00  -0.1933298100E-14   0.4950000000E-01   0.0000000000E+00   0.3719892835E-14   0.1005000000E+00   0.0000000000E+00  -0.5653190934E-14   0.1250000002E+02   0.6138988460E-11   0.6148134488E-11   0.3583382475E-13   0.3536401620E-13   0.5860671902E-14   0.7500000011E-01  -0.3747500006E-01  -0.3747500006E-01  -0.4097814779E-14   0.2114019578E-14  -0.3004092382E-14   0.1250000002E+02
   0.2150000000E+01   0.9625250000E+00  -0.3433073995E-14   0.4950000000E-01  -0.1237275000E-01   0.6092462073E-14   0.1005000000E+00  -0.2510225000E-01  -0.9525536067E-14   0.1250000002E+02  -0.2158122505E-09  -0.2158203044E-09  -0.1586543987E-13   0.2577933153E-13   0.1771936237E-14   0.7500000010E-01  -0.3747500005E-01  -0.3747500005E-01  -0.5646801066E-14  -0.8839136039E-16   0.1466475910E-14   0.1250000002E+02
   0.2150000000E+01   0.0000000000E+00   0.9625250000E+00   0.4950000000E-01   0.0000000000E+00  -0.1237275000E-01   0.1005000000E+00   0.0000000000E+00  -0.2510225000E-01   0.1250000002E+02  -0.1022563388E-09  -0.1022438207E-09   0.1921964767E-13  -0.8257689743E-14  -0.1774883716E-14   0.7500000010E-01  -0.3747500005E-01  -0.3747500005E-01   0.1432215152E-15  -0.5277576998E-14   0.2635075995E-15   0.1250000002E+02
   0.2150000000E+01   0.9625250000E+00   0.9625250000E+00   0.4950000000E-01  -0.1237275000E-01  -0.1237275000E-01   0.1005000000E+00  -0.2510225000E-01  -0.2510225000E-01   0.1250000002E+02   0.2170485125E-09   0.2170491773E-09  -0.3410943795E-13  -0.2518579911E-13  -0.5457573426E-14   0.7500000010E-01  -0.3747500005E-01  -0.3747500005E-01   0.4084432898E-14   0.1714537387E-14   0.4683424068E-14   0.1250000002E+02
     1     2     3     4     5     6     7     8
     2     9    10     3     6    11    12     7
 VARIABLES = X,Y,Z,DU1,DU2,DU3,U1,U2,U3,S11,S22,S33,S12,S13,S23,E11,E22,E33,E12,E13,E23,SMISES
 ZONE, T="0.3050D+01" F=FEPOINT, I=   12 J=    2 ET=BRICK
   0.0000000000E+00   0.0000000000E+00   0.0000000000E+00   0.0000000000E+00   0.0000000000E+00   0.0000000000E+00   0.0000000000E+00   0.0000000000E+00   0.0000000000E+00   0.1137500002E+02   0.1572218028E-09   0.1575270100E-09   0.3455571088E-16   0.1147664571E-11   0.7147558498E-12   0.7275000011E-01  -0.3635225006E-01  -0.3635225006E-01   0.3579177138E-18   0.6356758324E-14   0.2612498870E-14   0.1137500002E+02
   0.1072750000E+01   0.0000000000E+00   0.3260640933E-14  -0.2250000000E-02   0.0000000000E+00   0.5956730303E-14   0.7500000000E-01   0.0000000000E+00  -0.2696089370E-14   0.1137500002E+02   0.1444899057E-09   0.1437901608E-09   0.1565427998E-12   0.1199261527E-12   0.6831640280E-14   0.7275000011E-01  -0.3635225006E-01  -0.3635225006E-01   0.3956400917E-14   0.3122767631E-14   0.8949946753E-15   0.1137500002E+02
   0.1072750000E+01   0.9636477500E+00   0.3707410839E-14  -0.2250000000E-02   0.1122750000E-02   0.5997193732E-14   0.7500000000E-01  -0.3747500000E-01  -0.2289782893E-14   0.1137500002E+02   0.1410817960E-09   0.1411479191E-09   0.2503662836E-12  -0.1842995684E-12  -0.2961145330E-12   0.7275000010E-01  -0.3635225005E-01  -0.3635225005E-01   0.5775131672E-14  -0.4328308856E-14  -0.2200717052E-14   0.1137500002E+02
   0.0000000000E+00   0.9636477500E+00   0.1306503423E-14   0.0000000000E+00   0.1122750000E-02   0.4258089697E-14   0.0000000000E+00  -0.3747500000E-01  -0.2951586274E-14   0.1137500002E+02   0.4347072844E-09   0.4340077017E-09  -0.2942367456E-12   0.4023625652E-13   0.2405755463E-12   0.7275000011E-01  -0.3635225005E-01  -0.3635225005E-01  -0.1199675903E-14   0.2476457036E-14  -0.6868193823E-16   0.1137500002E+02
   0.0000000000E+00   0.0000000000E+00   0.9636477500E+00   0.0000000000E+00   0.0000000000E+00   0.1122750000E-02   0.0000000000E+00   0.0000000000E+00  -0.3747500000E-01   0.1137500002E+02  -0.6646048142E-10  -0.6520984960E-10  -0.1922379242E-16   0.1588942362E-12   0.2140182511E-12   0.7275000011E-01  -0.3635225005E-01  -0.3635225005E-01   0.2602425970E-17   0.3644741522E-14   0.2151838637E-14   0.1137500002E+02
   0.1072750000E+01   0.0000000000E+00   0.9636477500E+00  -0.2250000000E-02   0.0000000000E+00   0.1122750000E-02   0.7500000000E-01   0.0000000000E+00  -0.3747500000E-01   0.1137500002E+02  -0.2240760632E-09  -0.2241641163E-09  -0.2388197196E-12   0.1053684787E-12   0.3874828906E-12   0.7275000010E-01  -0.3635225005E-01  -0.3635225005E-01  -0.6069728926E-14   0.4095165389E-14   0.3038853510E-14   0.1137500002E+02
   0.1072750000E+01   0.9636477500E+00   0.9636477500E+00  -0.2250000000E-02   0.1122750000E-02   0.1122750000E-02   0.7500000000E-01  -0.3747500000E-01  -0.3747500000E-01   0.1137500001E+02  -0.2355264052E-09  -0.2348581775E-09  -0.2495966145E-12  -0.2806464437E-12   0.8445538347E-13   0.7275000010E-01  -0.3635225005E-01  -0.3635225005E-01  -0.4719683089E-14  -0.5467034745E-14  -0.3817715781E-16   0.1137500001E+02
   0.0000000000E+00   0.9636477500E+00   0.9636477500E+00   0.0000000000E+00   0.1122750000E-02   0.1122750000E-02   0.0000000000E+00  -0.3747500000E-01  -0.3747500000E-01   0.1137500001E+02  -0.4154244155E-09  -0.4151758915E-09   0.1509675003E-13   0.4153349025E-12  -0.2605999146E-12   0.7275000010E-01  -0.3635225005E-01  -0.3635225005E-01  -0.1556319101E-14   0.4764647867E-14  -0.5391327199E-15   0.1137500002E+02
   0.2145500000E+01   0.0000000000E+00   0.6861414889E-14  -0.4500000000E-02   0.0000000000E+00   0.8794712989E-14   0.1500000000E+00   0.0000000000E+00  -0.1933298100E-14   0.1137500002E+02   0.5036080624E-09   0.5034763028E-09   0.8041273241E-14  -0.4854826151E-12   0.8974166192E-12   0.7275000011E-01  -0.3635225005E-01  -0.3635225005E-01  -0.4436588471E-14  -0.4030030490E-14   0.7690361101E-14   0.1137500002E+02
   0.2145500000E+01   0.9636477500E+00   0.1070745447E-13  -0.4500000000E-02   0.1122750000E-02   0.1414052847E-13   0.1500000000E+00  -0.3747500000E-01  -0.3433073995E-14   0.1137500002E+02  -0.1694426140E-09  -0.1709059426E-09   0.4891075126E-12   0.4041484036E-12   0.2134342385E-12   0.7275000010E-01  -0.3635225005E-01  -0.3635225005E-01   0.4308608283E-15   0.4331908748E-14   0.4004516192E-14   0.1137500002E+02
   0.2145500000E+01   0.0000000000E+00   0.9636477500E+00  -0.4500000000E-02   0.0000000000E+00   0.1122750000E-02   0.1500000000E+00   0.0000000000E+00  -0.3747500000E-01   0.1137500002E+02  -0.1851331999E-10  -0.1728184529E-10  -0.3904594550E-12   0.4674343195E-12   0.2328957136E-12   0.7275000010E-01  -0.3635225005E-01  -0.3635225005E-01  -0.4764657592E-14   0.4341128094E-15   0.3050567674E-14   0.1137500002E+02
   0.2145500000E+01   0.9636477500E+00   0.9636477500E+00  -0.4500000000E-02   0.1122750000E-02   0.1122750000E-02   0.1500000000E+00  -0.3747500000E-01  -0.3747500000E-01   0.1137500001E+02  -0.8119904529E-10  -0.8129330537E-10  -0.4279367056E-12  -0.1655927389E-12  -0.4507854139E-12   0.7275000009E-01  -0.3635225005E-01  -0.3635225005E-01  -0.6582216058E-15   0.9090964672E-16  -0.6160112769E-15   0.1137500001E+02
     1     2     3     4     5     6     7     8
     2     9    10     3     6    11    12     7
 VARIABLES = X,Y,Z,DU1,DU2,DU3,U1,U2,U3,S11,S22,S33,S12,S13,S23,E11,E22,E33,E12,E13,E23,SMISES
 ZONE, T="0.3100D+01" F=FEPOINT, I=   12 J=    2 ET=BRICK
   0.0000000000E+00   0.0000000000E+00   0.0000000000E+00   0.0000000000E+00   0.0000000000E+00   0.0000000000E+00   0.0000000000E+00   0.0000000000E+00   0.0000000000E+00   0.1025000002E+02  -0.3376471654E-09  -0.3376308972E-09  -0.2763814724E-18   0.2695877955E-13   0.5262250971E-14   0.7050000011E-01  -0.3522950006E-01  -0.3522950006E-01  -0.6489191806E-17  -0.7114409364E-14  -0.5895823784E-14   0.1025000002E+02
   0.1070500000E+01   0.0000000000E+00  -0.2670923184E-14  -0.2250000000E-02   0.0000000000E+00  -0.5931564117E-14   0.7275000000E-01   0.0000000000E+00   0.3260640933E-14   0.1025000002E+02   0.1050923638E-09   0.1050791803E-09   0.1461589784E-13   0.7570002635E-14   0.2115821527E-15   0.7050000011E-01  -0.3522950005E-01  -0.3522950005E-01   0.2250905655E-14   0.1806445384E-14   0.8142785427E-15   0.1025000002E+02
   0.1070500000E+01   0.9647705000E+00  -0.2263965927E-14  -0.2250000000E-02   0.1122750000E-02  -0.5971376766E-14   0.7275000000E-01  -0.3635225000E-01   0.3707410839E-14   0.1025000001E+02  -0.8047735588E-10  -0.8048509712E-10  -0.2549101748E-13   0.2499838165E-13  -0.3341788915E-14   0.7050000010E-01  -0.3522950005E-01  -0.3522950005E-01   0.2480263081E-14  -0.1798645366E-14   0.1327750333E-14   0.1025000001E+02
   0.0000000000E+00   0.9647705000E+00  -0.2947733407E-14   0.0000000000E+00   0.1122750000E-02  -0.4254236829E-14   0.0000000000E+00  -0.3635225000E-01   0.1306503423E-14   0.1025000001E+02   0.7713577840E-10   0.7713760920E-10  -0.2780257841E-13   0.1896041450E-13   0.4389249051E-14   0.7050000010E-01  -0.3522950005E-01  -0.3522950005E-01   0.1988365608E-14   0.2232134980E-14  -0.2933913970E-14   0.1025000001E+02
   0.0000000000E+00   0.0000000000E+00   0.9647705000E+00   0.0000000000E+00   0.0000000000E+00   0.1122750000E-02   0.0000000000E+00   0.0000000000E+00  -0.3635225000E-01   0.1025000001E+02   0.2900542249E-10   0.2901915310E-10  -0.2836103769E-17  -0.1708576105E-13   0.3720860930E-15   0.7050000010E-01  -0.3522950005E-01  -0.3522950005E-01   0.9663904690E-17   0.1539675546E-14  -0.4019911098E-15   0.1025000001E+02
   0.1070500000E+01   0.0000000000E+00   0.9647705000E+00  -0.2250000000E-02   0.0000000000E+00   0.1122750000E-02   0.7275000000E-01   0.0000000000E+00  -0.3635225000E-01   0.1025000001E+02   0.9936319370E-10   0.9936334031E-10   0.3115791928E-13  -0.3312295293E-13   0.3690697230E-15   0.7050000010E-01  -0.3522950005E-01  -0.3522950005E-01  -0.2822763308E-14   0.2468252749E-14  -0.1608520199E-14   0.1025000001E+02
   0.1070500000E+01   0.9647705000E+00   0.9647705000E+00  -0.2250000000E-02   0.1122750000E-02   0.1122750000E-02   0.7275000000E-01  -0.3635225000E-01  -0.3635225000E-01   0.1025000001E+02   0.2225691568E-12   0.2174170132E-12  -0.1068653279E-13  -0.1740619407E-13  -0.3158694371E-14   0.7050000009E-01  -0.3522950005E-01  -0.3522950005E-01  -0.1877179065E-14  -0.2374901193E-14  -0.1135672558E-14   0.1025000001E+02
   0.0000000000E+00   0.9647705000E+00   0.9647705000E+00   0.0000000000E+00   0.1122750000E-02   0.1122750000E-02   0.0000000000E+00  -0.3635225000E-01  -0.3635225000E-01   0.1025000001E+02   0.7852652557E-10   0.7853065382E-10  -0.3073567621E-13  -0.1576537290E-13  -0.7248208896E-15   0.7050000009E-01  -0.3522950005E-01  -0.3522950005E-01  -0.2107598773E-14  -0.4198392766E-15   0.2609879365E-14   0.1025000001E+02
   0.2141000000E+01   0.0000000000E+00  -0.1848637302E-14  -0.4500000000E-02   0.0000000000E+00  -0.8710052191E-14   0.1455000000E+00   0.0000000000E+00   0.6861414889E-14   0.1025000002E+02   0.6376264945E-11   0.6385844174E-11   0.3881703789E-13   0.3568251056E-13   0.7110144389E-14   0.7050000011E-01  -0.3522950005E-01  -0.3522950005E-01  -0.4093482479E-14   0.2081035202E-14  -0.2988198305E-14   0.1025000002E+02
   0.2141000000E+01   0.9647705000E+00  -0.3340876752E-14  -0.4500000000E-02   0.1122750000E-02  -0.1404833123E-13   0.1455000000E+00  -0.3635225000E-01   0.1070745447E-13   0.1025000001E+02  -0.2136290675E-09  -0.2136382969E-09  -0.1420071586E-13   0.2347722016E-13   0.2084336895E-14   0.7050000010E-01  -0.3522950005E-01  -0.3522950005E-01  -0.5673911709E-14  -0.6790438276E-16   0.1455750642E-14   0.1025000001E+02
   0.2141000000E+01   0.0000000000E+00   0.9647705000E+00  -0.4500000000E-02   0.0000000000E+00   0.1122750000E-02   0.1455000000E+00   0.0000000000E+00  -0.3635225000E-01   0.1025000001E+02  -0.1031410675E-09  -0.1031264370E-09   0.1889089053E-13  -0.8601043957E-14  -0.1066746271E-14   0.7050000010E-01  -0.3522950005E-01  -0.3522950005E-01   0.1264844367E-15  -0.5231177815E-14   0.2313064234E-15   0.1025000001E+02
   0.2141000000E+01   0.9647705000E+00   0.9647705000E+00  -0.4500000000E-02   0.1122750000E-02   0.1122750000E-02   0.1455000000E+00  -0.3635225000E-01  -0.3635225000E-01   0.1025000001E+02   0.2149713233E-09   0.2149731339E-09  -0.3495575247E-13  -0.2800159414E-13  -0.5744477956E-14   0.7050000009E-01  -0.3522950005E-01  -0.3522950005E-01   0.4113583555E-14   0.1780723568E-14   0.4709958241E-14   0.1025000001E+02
     1     2     3     4     5     6     7     8
     2     9    10     3     6    11    12     7
 VARIABLES = X,Y,Z,DU1,DU2,DU3,U1,U2,U3,S11,S22,S33,S12,S13,S23,E11,E22,E33,E12,E13,E23,SMISES
 ZONE, T="0.3150D+01" F=FEPOINT, I=   12 J=    2 ET=BRICK
   0.0000000000E+00   0.0000000000E+00   0.0000000000E+00   0.0000000000E+00   0.0000000000E+00   0.0000000000E+00   0.0000000000E+00   0.0000000000E+00   0.0000000000E+00   0.9125000014E+01  -0.3389842781E-09  -0.3389675114E-09   0.2438111157E-16   0.2555650312E-13   0.4109354193E-14   0.6825000011E-01  -0.3410675005E-01  -0.3410675005E-01  -0.1284821645E-16  -0.7108914810E-14  -0.5906029530E-14   0.9125000014E+01
   0.1068250000E+01   0.0000000000E+00  -0.2685691839E-14  -0.2250000000E-02   0.0000000000E+00  -0.1476865447E-16   0.7050000000E-01   0.0000000000E+00  -0.2670923184E-14   0.9125000014E+01   0.1034348559E-09   0.1034231891E-09   0.1456422083E-13   0.7052750126E-14  -0.3841944534E-15   0.6825000011E-01  -0.3410675005E-01  -0.3410675005E-01   0.2272981791E-14   0.1767345720E-14   0.8096899587E-15   0.9125000014E+01
   0.1068250000E+01   0.9658932500E+00  -0.2282216842E-14  -0.2250000000E-02   0.1122750000E-02  -0.1825091489E-16   0.7050000000E-01  -0.3522950000E-01  -0.2263965927E-14   0.9125000013E+01  -0.8186405632E-10  -0.8187108787E-10  -0.2517486881E-13   0.2372066073E-13  -0.2546892119E-14   0.6825000010E-01  -0.3410675005E-01  -0.3410675005E-01   0.2491443644E-14  -0.1862982218E-14   0.1310634729E-14   0.9125000013E+01
   0.0000000000E+00   0.9658932500E+00  -0.2954664405E-14   0.0000000000E+00   0.1122750000E-02  -0.6930998388E-17   0.0000000000E+00  -0.3522950000E-01  -0.2947733407E-14   0.9125000013E+01   0.7582749181E-10   0.7583113455E-10  -0.2680207903E-13   0.1848292087E-13   0.4483574388E-14   0.6825000010E-01  -0.3410675005E-01  -0.3410675005E-01   0.2001209370E-14   0.2239494132E-14  -0.2903296866E-14   0.9125000013E+01
   0.0000000000E+00   0.0000000000E+00   0.9658932500E+00   0.0000000000E+00   0.0000000000E+00   0.1122750000E-02   0.0000000000E+00   0.0000000000E+00  -0.3522950000E-01   0.9125000013E+01   0.2998798790E-10   0.3000012065E-10   0.9742718981E-17  -0.1697178150E-13  -0.1514721434E-15   0.6825000010E-01  -0.3410675005E-01  -0.3410675005E-01   0.6232508119E-17   0.1550167491E-14  -0.4085037951E-15   0.9125000013E+01
   0.1068250000E+01   0.0000000000E+00   0.9658932500E+00  -0.2250000000E-02   0.0000000000E+00   0.1122750000E-02   0.7050000000E-01   0.0000000000E+00  -0.3522950000E-01   0.9125000013E+01   0.1011966542E-09   0.1011950999E-09   0.3040648566E-13  -0.3332890604E-13  -0.7061376263E-15   0.6825000010E-01  -0.3410675005E-01  -0.3410675005E-01  -0.2813621703E-14   0.2434503899E-14  -0.1624299748E-14   0.9125000013E+01
   0.1068250000E+01   0.9658932500E+00   0.9658932500E+00  -0.2250000000E-02   0.1122750000E-02   0.1122750000E-02   0.7050000000E-01  -0.3522950000E-01  -0.3522950000E-01   0.9125000012E+01   0.1786180267E-11   0.1778520302E-11  -0.1075450446E-13  -0.1803141466E-13  -0.2850334346E-14   0.6825000009E-01  -0.3410675004E-01  -0.3410675004E-01  -0.1840981373E-14  -0.2323857165E-14  -0.1118448853E-14   0.9125000012E+01
   0.0000000000E+00   0.9658932500E+00   0.9658932500E+00   0.0000000000E+00   0.1122750000E-02   0.1122750000E-02   0.0000000000E+00  -0.3522950000E-01  -0.3522950000E-01   0.9125000012E+01   0.7932105787E-10   0.7932490166E-10  -0.2989704389E-13  -0.1657016283E-13   0.1995788521E-18   0.6825000009E-01  -0.3410675005E-01  -0.3410675005E-01  -0.2099256804E-14  -0.4421493435E-15   0.2612410248E-14   0.9125000012E+01
   0.2136500000E+01   0.0000000000E+00  -0.1904984987E-14  -0.4500000000E-02   0.0000000000E+00  -0.5634768447E-16   0.1410000000E+00   0.0000000000E+00  -0.1848637302E-14   0.9125000014E+01   0.3518343056E-11   0.3529330772E-11   0.4054328369E-13   0.3844033032E-13   0.6081094732E-14   0.6825000010E-01  -0.3410675005E-01  -0.3410675005E-01  -0.4112526087E-14   0.2193874112E-14  -0.2994026830E-14   0.9125000014E+01
   0.2136500000E+01   0.9658932500E+00  -0.3403507093E-14  -0.4500000000E-02   0.1122750000E-02  -0.6263034058E-16   0.1410000000E+00  -0.3522950000E-01  -0.3340876752E-14   0.9125000013E+01  -0.2149438703E-09  -0.2149506217E-09  -0.1265808093E-13   0.2401062889E-13   0.2891645245E-14   0.6825000010E-01  -0.3410675005E-01  -0.3410675005E-01  -0.5662298695E-14  -0.1689461119E-15   0.1460672335E-14   0.9125000013E+01
   0.2136500000E+01   0.0000000000E+00   0.9658932500E+00  -0.4500000000E-02   0.0000000000E+00   0.1122750000E-02   0.1410000000E+00   0.0000000000E+00  -0.3522950000E-01   0.9125000013E+01  -0.1011723743E-09  -0.1011593417E-09   0.1866303213E-13  -0.5783804456E-14  -0.1352050439E-14   0.6825000010E-01  -0.3410675005E-01  -0.3410675005E-01   0.1424884356E-15  -0.5137566881E-14   0.2313807721E-15   0.9125000013E+01
   0.2136500000E+01   0.9658932500E+00   0.9658932500E+00  -0.4500000000E-02   0.1122750000E-02   0.1122750000E-02   0.1410000000E+00  -0.3522950000E-01  -0.3522950000E-01   0.9125000012E+01   0.2176163737E-09   0.2176176560E-09  -0.3495022235E-13  -0.2628038018E-13  -0.4173827599E-14   0.6825000009E-01  -0.3410675004E-01  -0.3410675004E-01   0.4063440047E-14   0.1777085061E-14   0.4758835777E-14   0.9125000012E+01
     1     2     3     4     5     6     7     8
     2     9    10     3     6    11    12     7
 VARIABLES = X,Y,Z,DU1,DU2,DU3,U1,U2,U3,S11,S22,S33,S12,S13,S23,E11,E22,E33,E12,E13,E23,SMISES
 ZONE, T="0.3200D+01" F=FEPOINT, I=   12 J=    2 ET=BRICK
   0.0000000000E+00   0.0000000000E+00   0.0000000000E+00   0.0000000000E+00   0.0000000000E+00   0.0000000000E+00   0.0000000000E+00   0.0000000000E+00   0.0000000000E+00   0.8000000012E+01  -0.3392940865E-09  -0.3392776488E-09   0.3584285786E-16   0.2498999850E-13   0.4336456082E-14   0.6600000010E-01  -0.3298400005E-01  -0.3298400005E-01   0.6178924751E-17  -0.7123661740E-14  -0.5896480902E-14   0.8000000013E+01
   0.1066000000E+01   0.0000000000E+00  -0.2686512714E-14  -0.2250000000E-02   0.0000000000E+00  -0.8208755071E-18   0.6825000000E-01   0.0000000000E+00  -0.2685691839E-14   0.8000000012E+01   0.1040685377E-09   0.1040569006E-09   0.1513758087E-13   0.8833115341E-14   0.7148341666E-16   0.6600000010E-01  -0.3298400005E-01  -0.3298400005E-01   0.2235346825E-14   0.1804993636E-14   0.8095637216E-15   0.8000000012E+01
   0.1066000000E+01   0.9670160000E+00  -0.2280191317E-14  -0.2250000000E-02   0.1122750000E-02   0.2025524559E-17   0.6825000000E-01  -0.3410675000E-01  -0.2282216842E-14   0.8000000011E+01  -0.8157186056E-10  -0.8157886236E-10  -0.2416368063E-13   0.2358975625E-13  -0.2555544378E-14   0.6600000009E-01  -0.3298400005E-01  -0.3298400005E-01   0.2468832039E-14  -0.1896383294E-14   0.1326249728E-14   0.8000000011E+01
   0.0000000000E+00   0.9670160000E+00  -0.2953428729E-14   0.0000000000E+00   0.1122750000E-02   0.1235676302E-17   0.0000000000E+00  -0.3410675000E-01  -0.2954664405E-14   0.8000000012E+01   0.7582150210E-10   0.7582514883E-10  -0.2667478879E-13   0.1826378376E-13   0.4539596200E-14   0.6600000010E-01  -0.3298400005E-01  -0.3298400005E-01   0.1990836760E-14   0.2249034990E-14  -0.2912909249E-14   0.8000000012E+01
   0.0000000000E+00   0.0000000000E+00   0.9670160000E+00   0.0000000000E+00   0.0000000000E+00   0.1122750000E-02   0.0000000000E+00   0.0000000000E+00  -0.3410675000E-01   0.8000000012E+01   0.3092616755E-10   0.3093914385E-10  -0.2064648468E-16  -0.1777102242E-13  -0.3754573003E-15   0.6600000010E-01  -0.3298400005E-01  -0.3298400005E-01   0.1762286150E-17   0.1533745388E-14  -0.3933494037E-15   0.8000000012E+01
   0.1066000000E+01   0.0000000000E+00   0.9670160000E+00  -0.2250000000E-02   0.0000000000E+00   0.1122750000E-02   0.6825000000E-01   0.0000000000E+00  -0.3410675000E-01   0.8000000012E+01   0.1005276394E-09   0.1005267433E-09   0.2900178620E-13  -0.3151531005E-13  -0.1373676223E-15   0.6600000009E-01  -0.3298400005E-01  -0.3298400005E-01  -0.2848614581E-14   0.2455839023E-14  -0.1621043661E-14   0.8000000011E+01
   0.1066000000E+01   0.9670160000E+00   0.9670160000E+00  -0.2250000000E-02   0.1122750000E-02   0.1122750000E-02   0.6825000000E-01  -0.3410675000E-01  -0.3410675000E-01   0.8000000010E+01   0.1317246159E-11   0.1310244356E-11  -0.1212826024E-13  -0.1803172358E-13  -0.2795706543E-14   0.6600000009E-01  -0.3298400004E-01  -0.3298400004E-01  -0.1887960967E-14  -0.2332304492E-14  -0.1119427153E-14   0.8000000010E+01
   0.0000000000E+00   0.9670160000E+00   0.9670160000E+00   0.0000000000E+00   0.1122750000E-02   0.1122750000E-02   0.0000000000E+00  -0.3410675000E-01  -0.3410675000E-01   0.8000000011E+01   0.7883144164E-10   0.7883488596E-10  -0.3014422525E-13  -0.1629657517E-13  -0.3936366987E-15   0.6600000009E-01  -0.3298400004E-01  -0.3298400004E-01  -0.2101058011E-14  -0.4519777849E-15   0.2595511061E-14   0.8000000011E+01
   0.2132000000E+01   0.0000000000E+00  -0.1896121837E-14  -0.4500000000E-02   0.0000000000E+00   0.8863149668E-17   0.1365000000E+00   0.0000000000E+00  -0.1904984987E-14   0.8000000012E+01   0.5299370708E-11   0.5308927091E-11   0.3893114297E-13   0.3577702104E-13   0.6351575431E-14   0.6600000010E-01  -0.3298400005E-01  -0.3298400005E-01  -0.4083879256E-14   0.2097361291E-14  -0.2999582295E-14   0.8000000012E+01
   0.2132000000E+01   0.9670160000E+00  -0.3393241173E-14  -0.4500000000E-02   0.1122750000E-02   0.1026591952E-16   0.1365000000E+00  -0.3410675000E-01  -0.3403507093E-14   0.8000000011E+01  -0.2143667930E-09  -0.2143753088E-09  -0.1353588350E-13   0.2398221554E-13   0.2124151504E-14   0.6600000009E-01  -0.3298400005E-01  -0.3298400005E-01  -0.5647136479E-14  -0.8651030775E-16   0.1465117927E-14   0.8000000011E+01
   0.2132000000E+01   0.0000000000E+00   0.9670160000E+00  -0.4500000000E-02   0.0000000000E+00   0.1122750000E-02   0.1365000000E+00   0.0000000000E+00  -0.3410675000E-01   0.8000000011E+01  -0.1032460601E-09  -0.1032330424E-09   0.1936807482E-13  -0.7844188835E-14  -0.9694789544E-15   0.6600000009E-01  -0.3298400005E-01  -0.3298400005E-01   0.1455255737E-15  -0.5154696502E-14   0.2633931929E-15   0.8000000011E+01
   0.2132000000E+01   0.9670160000E+00   0.9670160000E+00  -0.4500000000E-02   0.1122750000E-02   0.1122750000E-02   0.1365000000E+00  -0.3410675000E-01  -0.3410675000E-01   0.8000000010E+01   0.2171534855E-09   0.2171559960E-09  -0.3407993708E-13  -0.2675934075E-13  -0.4683422860E-14   0.6600000008E-01  -0.3298400004E-01  -0.3298400004E-01   0.4140209688E-14   0.1610337922E-14   0.4660976162E-14   0.8000000010E+01
     1     2     3     4     5     6     7     8
     2     9    10     3     6    11    12     7
 VARIABLES = X,Y,Z,DU1,DU2,DU3,U1,U2,U3,S11,S22,S33,S12,S13,S23,E11,E22,E33,E12,E13,E23,SMISES
 ZONE, T="0.3250D+01" F=FEPOINT, I=   12 J=    2 ET=BRICK
   0.0000000000E+00   0.0000000000E+00   0.0000000000E+00   0.0000000000E+00   0.0000000000E+00   0.0000000000E+00   0.0000000000E+00   0.0000000000E+00   0.0000000000E+00   0.6875000010E+01  -0.3396693899E-09  -0.3396527843E-09   0.4437058030E-16   0.2504014771E-13   0.4279563917E-14   0.6375000010E-01  -0.3186125005E-01  -0.3186125005E-01  -0.6006230759E-17  -0.7087276793E-14  -0.5927075351E-14   0.6875000011E+01
   0.1063750000E+01   0.0000000000E+00  -0.2686230767E-14  -0.2250000000E-02   0.0000000000E+00   0.2819471796E-18   0.6600000000E-01   0.0000000000E+00  -0.2686512714E-14   0.6875000011E+01   0.1038401583E-09   0.1038286728E-09   0.1612557538E-13   0.9697766382E-14  -0.1910510279E-15   0.6375000010E-01  -0.3186125005E-01  -0.3186125005E-01   0.2280606297E-14   0.1775965789E-14   0.8099836920E-15   0.6875000011E+01
   0.1063750000E+01   0.9681387500E+00  -0.2281523958E-14  -0.2250000000E-02   0.1122750000E-02  -0.1332640604E-17   0.6600000000E-01  -0.3298400000E-01  -0.2280191317E-14   0.6875000010E+01  -0.8152507469E-10  -0.8153211713E-10  -0.2356513965E-13   0.2339326395E-13  -0.2466362575E-14   0.6375000009E-01  -0.3186125005E-01  -0.3186125005E-01   0.2472153356E-14  -0.1807708714E-14   0.1305273913E-14   0.6875000010E+01
   0.0000000000E+00   0.9681387500E+00  -0.2953893429E-14   0.0000000000E+00   0.1122750000E-02  -0.4647006288E-18   0.0000000000E+00  -0.3298400000E-01  -0.2953428729E-14   0.6875000010E+01   0.7590798216E-10   0.7591098307E-10  -0.2708592233E-13   0.1811711564E-13   0.4584932752E-14   0.6375000009E-01  -0.3186125005E-01  -0.3186125005E-01   0.1980361718E-14   0.2206037776E-14  -0.2855303460E-14   0.6875000010E+01
   0.0000000000E+00   0.0000000000E+00   0.9681387500E+00   0.0000000000E+00   0.0000000000E+00   0.1122750000E-02   0.0000000000E+00   0.0000000000E+00  -0.3298400000E-01   0.6875000010E+01   0.3123826940E-10   0.3125172100E-10   0.3119263717E-17  -0.1848772458E-13  -0.8562856797E-15   0.6375000009E-01  -0.3186125005E-01  -0.3186125005E-01   0.7607575337E-17   0.1530814192E-14  -0.3821058783E-15   0.6875000010E+01
   0.1063750000E+01   0.0000000000E+00   0.9681387500E+00  -0.2250000000E-02   0.0000000000E+00   0.1122750000E-02   0.6600000000E-01   0.0000000000E+00  -0.3298400000E-01   0.6875000010E+01   0.1004598140E-09   0.1004579673E-09   0.2905201598E-13  -0.3091768465E-13  -0.1690418500E-15   0.6375000009E-01  -0.3186125005E-01  -0.3186125005E-01  -0.2869388017E-14   0.2464127507E-14  -0.1607387406E-14   0.6875000010E+01
   0.1063750000E+01   0.9681387500E+00   0.9681387500E+00  -0.2250000000E-02   0.1122750000E-02   0.1122750000E-02   0.6600000000E-01  -0.3298400000E-01  -0.3298400000E-01   0.6875000009E+01   0.1363447014E-11   0.1356212277E-11  -0.1224731256E-13  -0.1830028573E-13  -0.2504853431E-14   0.6375000008E-01  -0.3186125004E-01  -0.3186125004E-01  -0.1904644713E-14  -0.2315745034E-14  -0.1113115800E-14   0.6875000009E+01
   0.0000000000E+00   0.9681387500E+00   0.9681387500E+00   0.0000000000E+00   0.1122750000E-02   0.1122750000E-02   0.0000000000E+00  -0.3298400000E-01  -0.3298400000E-01   0.6875000009E+01   0.7903484003E-10   0.7903749086E-10  -0.3027078528E-13  -0.1661477662E-13  -0.5287632331E-15   0.6375000009E-01  -0.3186125004E-01  -0.3186125004E-01  -0.2099708092E-14  -0.4509873080E-15   0.2563306110E-14   0.6875000009E+01
   0.2127500000E+01   0.0000000000E+00  -0.1896951813E-14  -0.4500000000E-02   0.0000000000E+00  -0.8299753538E-18   0.1320000000E+00   0.0000000000E+00  -0.1896121837E-14   0.6875000010E+01   0.5671312305E-11   0.5681388607E-11   0.3927092651E-13   0.3495811927E-13   0.6207634108E-14   0.6375000010E-01  -0.3186125005E-01  -0.3186125005E-01  -0.4100902510E-14   0.2112446412E-14  -0.2999375283E-14   0.6875000010E+01
   0.2127500000E+01   0.9681387500E+00  -0.3395074385E-14  -0.4500000000E-02   0.1122750000E-02  -0.1833211456E-17   0.1320000000E+00  -0.3298400000E-01  -0.3393241173E-14   0.6875000009E+01  -0.2141193364E-09  -0.2141264154E-09  -0.1331448143E-13   0.2367106948E-13   0.2213338444E-14   0.6375000009E-01  -0.3186125004E-01  -0.3186125004E-01  -0.5632775036E-14  -0.1607954198E-16   0.1476601369E-14   0.6875000010E+01
   0.2127500000E+01   0.0000000000E+00   0.9681387500E+00  -0.4500000000E-02   0.0000000000E+00   0.1122750000E-02   0.1320000000E+00   0.0000000000E+00  -0.3298400000E-01   0.6875000009E+01  -0.1033988249E-09  -0.1033859791E-09   0.1970850640E-13  -0.7973133973E-14  -0.9755100237E-15   0.6375000009E-01  -0.3186125004E-01  -0.3186125004E-01   0.1048097379E-15  -0.5199235147E-14   0.2431551605E-15   0.6875000010E+01
   0.2127500000E+01   0.9681387500E+00   0.9681387500E+00  -0.4500000000E-02   0.1122750000E-02   0.1122750000E-02   0.1320000000E+00  -0.3298400000E-01  -0.3298400000E-01   0.6875000009E+01   0.2171175219E-09   0.2171207446E-09  -0.3423305217E-13  -0.2709680638E-13  -0.4417661758E-14   0.6375000008E-01  -0.3186125004E-01  -0.3186125004E-01   0.4106395951E-14   0.1703406319E-14   0.4707260307E-14   0.6875000009E+01
     1     2     3     4     5     6     7     8
     2     9    10     3     6    11    12     7
 VARIABLES = X,Y,Z,DU1,DU2,DU3,U1,U2,U3,S11,S22,S33,S12,S13,S23,E11,E22,E33,E12,E13,E23,SMISES
 ZONE, T="0.3300D+01" F=FEPOINT, I=   12 J=    2 ET=BRICK
   0.0000000000E+00   0.0000000000E+00   0.0000000000E+00   0.0000000000E+00   0.0000000000E+00   0.0000000000E+00   0.0000000000E+00   0.0000000000E+00   0.0000000000E+00   0.5750000009E+01  -0.3393315992E-09  -0.3393140578E-09   0.4505553815E-16   0.2512149525E-13   0.4481705403E-14   0.6150000010E-01  -0.3073850005E-01  -0.3073850005E-01  -0.4383076975E-17  -0.7109758062E-14  -0.5905311831E-14   0.5750000009E+01
   0.1061500000E+01   0.0000000000E+00  -0.2688550426E-14  -0.2250000000E-02   0.0000000000E+00  -0.2319659442E-17   0.6375000000E-01   0.0000000000E+00  -0.2686230767E-14   0.5750000009E+01   0.1033727788E-09   0.1033620110E-09   0.1482031942E-13   0.8860080229E-14  -0.2892594541E-15   0.6150000009E-01  -0.3073850005E-01  -0.3073850005E-01   0.2236454979E-14   0.1780298097E-14   0.8020285331E-15   0.5750000009E+01
   0.1061500000E+01   0.9692615000E+00  -0.2284510310E-14  -0.2250000000E-02   0.1122750000E-02  -0.2986352196E-17   0.6375000000E-01  -0.3186125000E-01  -0.2281523958E-14   0.5750000008E+01  -0.8211992618E-10  -0.8212658403E-10  -0.2461253532E-13   0.2374090518E-13  -0.2376377004E-14   0.6150000009E-01  -0.3073850004E-01  -0.3073850004E-01   0.2440000901E-14  -0.1864185166E-14   0.1331140765E-14   0.5750000008E+01
   0.0000000000E+00   0.9692615000E+00  -0.2952595403E-14   0.0000000000E+00   0.1122750000E-02   0.1298026330E-17   0.0000000000E+00  -0.3186125000E-01  -0.2953893429E-14   0.5750000008E+01   0.7500348449E-10   0.7500688885E-10  -0.2702291165E-13   0.1783456886E-13   0.5068319311E-14   0.6150000009E-01  -0.3073850004E-01  -0.3073850004E-01   0.2003050824E-14   0.2240931164E-14  -0.2901353339E-14   0.5750000008E+01
   0.0000000000E+00   0.0000000000E+00   0.9692615000E+00   0.0000000000E+00   0.0000000000E+00   0.1122750000E-02   0.0000000000E+00   0.0000000000E+00  -0.3186125000E-01   0.5750000008E+01   0.3150454303E-10   0.3151845903E-10   0.3708490727E-16  -0.1836225019E-13  -0.8693768508E-15   0.6150000009E-01  -0.3073850004E-01  -0.3073850004E-01   0.7503699019E-17   0.1550912871E-14  -0.4039016175E-15   0.5750000008E+01
   0.1061500000E+01   0.0000000000E+00   0.9692615000E+00  -0.2250000000E-02   0.0000000000E+00   0.1122750000E-02   0.6375000000E-01   0.0000000000E+00  -0.3186125000E-01   0.5750000008E+01   0.1011071883E-09   0.1011056042E-09   0.2914899146E-13  -0.3189603520E-13  -0.5291248616E-15   0.6150000009E-01  -0.3073850004E-01  -0.3073850004E-01  -0.2875219214E-14   0.2453655912E-14  -0.1617730821E-14   0.5750000008E+01
   0.1061500000E+01   0.9692615000E+00   0.9692615000E+00  -0.2250000000E-02   0.1122750000E-02   0.1122750000E-02   0.6375000000E-01  -0.3186125000E-01  -0.3186125000E-01   0.5750000008E+01   0.1666733957E-11   0.1658851946E-11  -0.1183378861E-13  -0.1772384909E-13  -0.2513990769E-14   0.6150000008E-01  -0.3073850004E-01  -0.3073850004E-01  -0.1889802889E-14  -0.2345468932E-14  -0.1126721434E-14   0.5750000008E+01
   0.0000000000E+00   0.9692615000E+00   0.9692615000E+00   0.0000000000E+00   0.1122750000E-02   0.1122750000E-02   0.0000000000E+00  -0.3186125000E-01  -0.3186125000E-01   0.5750000008E+01   0.7946688170E-10   0.7946975312E-10  -0.3017031144E-13  -0.1697473585E-13  -0.4252256244E-15   0.6150000008E-01  -0.3073850004E-01  -0.3073850004E-01  -0.2102070684E-14  -0.4628587397E-15   0.2635089068E-14   0.5750000008E+01
   0.2123000000E+01   0.0000000000E+00  -0.1913427217E-14  -0.4500000000E-02   0.0000000000E+00  -0.1647540423E-16   0.1275000000E+00   0.0000000000E+00  -0.1896951813E-14   0.5750000009E+01   0.4470375182E-11   0.4480144180E-11   0.3903880757E-13   0.3582532540E-13   0.6135638642E-14   0.6150000009E-01  -0.3073850005E-01  -0.3073850005E-01  -0.4132456176E-14   0.2146783998E-14  -0.2985125845E-14   0.5750000009E+01
   0.2123000000E+01   0.9692615000E+00  -0.3412000791E-14  -0.4500000000E-02   0.1122750000E-02  -0.1692640576E-16   0.1275000000E+00  -0.3186125000E-01  -0.3395074385E-14   0.5750000008E+01  -0.2141713024E-09  -0.2141786441E-09  -0.1298101075E-13   0.2423720552E-13   0.2308848845E-14   0.6150000009E-01  -0.3073850004E-01  -0.3073850004E-01  -0.5655577497E-14  -0.2277401012E-16   0.1432891099E-14   0.5750000008E+01
   0.2123000000E+01   0.0000000000E+00   0.9692615000E+00  -0.4500000000E-02   0.0000000000E+00   0.1122750000E-02   0.1275000000E+00   0.0000000000E+00  -0.3186125000E-01   0.5750000008E+01  -0.1023536041E-09  -0.1023419919E-09   0.1895194414E-13  -0.6896443609E-14  -0.9400706853E-15   0.6150000009E-01  -0.3073850004E-01  -0.3073850004E-01   0.1376018790E-15  -0.5143523266E-14   0.2459709821E-15   0.5750000008E+01
   0.2123000000E+01   0.9692615000E+00   0.9692615000E+00  -0.4500000000E-02   0.1122750000E-02   0.1122750000E-02   0.1275000000E+00  -0.3186125000E-01  -0.3186125000E-01   0.5750000008E+01   0.2174715804E-09   0.2174744794E-09  -0.3474554392E-13  -0.2650010668E-13  -0.4206133698E-14   0.6150000008E-01  -0.3073850004E-01  -0.3073850004E-01   0.4064107987E-14   0.1750053967E-14   0.4717887241E-14   0.5750000007E+01
     1     2     3     4     5     6     7     8
     2     9    10     3     6    11    12     7
 VARIABLES = X,Y,Z,DU1,DU2,DU3,U1,U2,U3,S11,S22,S33,S12,S13,S23,E11,E22,E33,E12,E13,E23,SMISES
 ZONE, T="0.3350D+01" F=FEPOINT, I=   12 J=    2 ET=BRICK
   0.0000000000E+00   0.0000000000E+00   0.0000000000E+00   0.0000000000E+00   0.0000000000E+00   0.0000000000E+00   0.0000000000E+00   0.0000000000E+00   0.0000000000E+00   0.4625000007E+01  -0.3392305201E-09  -0.3392133470E-09   0.5781354025E-16   0.2528518950E-13   0.4532243428E-14   0.5925000009E-01  -0.2961575005E-01  -0.2961575005E-01   0.3112699638E-17  -0.7085163048E-14  -0.5905048961E-14   0.4625000007E+01
   0.1059250000E+01   0.0000000000E+00  -0.2687726246E-14  -0.2250000000E-02   0.0000000000E+00   0.8241802662E-18   0.6150000000E-01   0.0000000000E+00  -0.2688550426E-14   0.4625000007E+01   0.1031047074E-09   0.1030928373E-09   0.1470321461E-13   0.8254378098E-14  -0.4968400494E-15   0.5925000009E-01  -0.2961575005E-01  -0.2961575005E-01   0.2216125148E-14   0.1755342065E-14   0.8131440427E-15   0.4625000007E+01
   0.1059250000E+01   0.9703842500E+00  -0.2284750849E-14  -0.2250000000E-02   0.1122750000E-02  -0.2405392692E-18   0.6150000000E-01  -0.3073850000E-01  -0.2284510310E-14   0.4625000007E+01  -0.8154835561E-10  -0.8155508385E-10  -0.2492336854E-13   0.2385890693E-13  -0.2820745777E-14   0.5925000008E-01  -0.2961575004E-01  -0.2961575004E-01   0.2442406815E-14  -0.1831319037E-14   0.1307359337E-14   0.4625000007E+01
   0.0000000000E+00   0.9703842500E+00  -0.2952482357E-14   0.0000000000E+00   0.1122750000E-02   0.1130463792E-18   0.0000000000E+00  -0.3073850000E-01  -0.2952595403E-14   0.4625000007E+01   0.7482901293E-10   0.7483227652E-10  -0.2637536372E-13   0.1776289641E-13   0.5105939505E-14   0.5925000009E-01  -0.2961575004E-01  -0.2961575004E-01   0.2005046960E-14   0.2225273693E-14  -0.2895247442E-14   0.4625000007E+01
   0.0000000000E+00   0.0000000000E+00   0.9703842500E+00   0.0000000000E+00   0.0000000000E+00   0.1122750000E-02   0.0000000000E+00   0.0000000000E+00  -0.3073850000E-01   0.4625000007E+01   0.3088157172E-10   0.3089479583E-10   0.2779078099E-16  -0.1784580278E-13  -0.6083970511E-15   0.5925000009E-01  -0.2961575004E-01  -0.2961575004E-01  -0.5417826807E-17   0.1538228271E-14  -0.3914409781E-15   0.4625000007E+01
   0.1059250000E+01   0.0000000000E+00   0.9703842500E+00  -0.2250000000E-02   0.0000000000E+00   0.1122750000E-02   0.6150000000E-01   0.0000000000E+00  -0.3073850000E-01   0.4625000007E+01   0.1011832736E-09   0.1011815676E-09   0.2999114645E-13  -0.3254246231E-13  -0.4767671189E-15   0.5925000008E-01  -0.2961575004E-01  -0.2961575004E-01  -0.2852727554E-14   0.2455064093E-14  -0.1639168693E-14   0.4625000007E+01
   0.1059250000E+01   0.9703842500E+00   0.9703842500E+00  -0.2250000000E-02   0.1122750000E-02   0.1122750000E-02   0.6150000000E-01  -0.3073850000E-01  -0.3073850000E-01   0.4625000006E+01   0.1716154319E-11   0.1708272308E-11  -0.1132482681E-13  -0.1749113262E-13  -0.2947119391E-14   0.5925000008E-01  -0.2961575004E-01  -0.2961575004E-01  -0.1906050291E-14  -0.2354468744E-14  -0.1109386472E-14   0.4625000006E+01
   0.0000000000E+00   0.9703842500E+00   0.9703842500E+00   0.0000000000E+00   0.1122750000E-02   0.1122750000E-02   0.0000000000E+00  -0.3073850000E-01  -0.3073850000E-01   0.4625000006E+01   0.7965099360E-10   0.7965364444E-10  -0.3014629694E-13  -0.1691511372E-13   0.1749907285E-16   0.5925000008E-01  -0.2961575004E-01  -0.2961575004E-01  -0.2089421860E-14  -0.4366184457E-15   0.2605441447E-14   0.4625000006E+01
   0.2118500000E+01   0.0000000000E+00  -0.1913088140E-14  -0.4500000000E-02   0.0000000000E+00   0.3390764021E-18   0.1230000000E+00   0.0000000000E+00  -0.1913427217E-14   0.4625000007E+01   0.3092064876E-11   0.3102202134E-11   0.4175673155E-13   0.3740330780E-13   0.6191914563E-14   0.5925000009E-01  -0.2961575004E-01  -0.2961575004E-01  -0.4084011409E-14   0.2157720105E-14  -0.2990997261E-14   0.4625000007E+01
   0.2118500000E+01   0.9703842500E+00  -0.3411331972E-14  -0.4500000000E-02   0.1122750000E-02   0.6688183022E-18   0.1230000000E+00  -0.3073850000E-01  -0.3412000791E-14   0.4625000006E+01  -0.2135954444E-09  -0.2136017353E-09  -0.1135684164E-13   0.2320589193E-13   0.2516880109E-14   0.5925000008E-01  -0.2961575004E-01  -0.2961575004E-01  -0.5632718974E-14  -0.1365742580E-15   0.1459731710E-14   0.4625000006E+01
   0.2118500000E+01   0.0000000000E+00   0.9703842500E+00  -0.4500000000E-02   0.0000000000E+00   0.1122750000E-02   0.1230000000E+00   0.0000000000E+00  -0.3073850000E-01   0.4625000006E+01  -0.1017766517E-09  -0.1017648730E-09   0.1834543462E-13  -0.5231001242E-14  -0.6491094957E-15   0.5925000008E-01  -0.2961575004E-01  -0.2961575004E-01   0.1400890947E-15  -0.5188554392E-14   0.2590576027E-15   0.4625000006E+01
   0.2118500000E+01   0.9703842500E+00   0.9703842500E+00  -0.4500000000E-02   0.1122750000E-02   0.1122750000E-02   0.1230000000E+00  -0.3073850000E-01  -0.3073850000E-01   0.4625000006E+01   0.2171874536E-09   0.2171914455E-09  -0.3568864680E-13  -0.2748708771E-13  -0.3609860750E-14   0.5925000008E-01  -0.2961575004E-01  -0.2961575004E-01   0.4068605065E-14   0.1771822912E-14   0.4704264030E-14   0.4625000006E+01
     1     2     3     4     5     6     7     8
     2     9    10     3     6    11    12     7
 VARIABLES = X,Y,Z,DU1,DU2,DU3,U1,U2,U3,S11,S22,S33,S12,S13,S23,E11,E22,E33,E12,E13,E23,SMISES
 ZONE, T="0.3400D+01" F=FEPOINT, I=   12 J=    2 ET=BRICK
   0.0000000000E+00   0.0000000000E+00   0.0000000000E+00   0.0000000000E+00   0.0000000000E+00   0.0000000000E+00   0.0000000000E+00   0.0000000000E+00   0.0000000000E+00   0.3500000005E+01  -0.3390310754E-09  -0.3390146261E-09   0.5874737109E-16   0.2506482768E-13   0.4323800339E-14   0.5700000009E-01  -0.2849300004E-01  -0.2849300004E-01   0.2177883985E-18  -0.7118529443E-14  -0.5909958140E-14   0.3500000005E+01
   0.1057000000E+01   0.0000000000E+00  -0.2685692602E-14  -0.2250000000E-02   0.0000000000E+00   0.2033643664E-17   0.5925000000E-01   0.0000000000E+00  -0.2687726246E-14   0.3500000005E+01   0.1038716699E-09   0.1038602345E-09   0.1514437421E-13   0.8721411709E-14  -0.3868221198E-16   0.5700000009E-01  -0.2849300004E-01  -0.2849300004E-01   0.2225099884E-14   0.1784955464E-14   0.8079237701E-15   0.3500000005E+01
   0.1057000000E+01   0.9715070000E+00  -0.2279879435E-14  -0.2250000000E-02   0.1122750000E-02   0.4871414219E-17   0.5925000000E-01  -0.2961575000E-01  -0.2284750849E-14   0.3500000005E+01  -0.8153449375E-10  -0.8154126807E-10  -0.2445501635E-13   0.2364704162E-13  -0.2469360774E-14   0.5700000008E-01  -0.2849300004E-01  -0.2849300004E-01   0.2439747241E-14  -0.1873385855E-14   0.1305010553E-14   0.3500000005E+01
   0.0000000000E+00   0.9715070000E+00  -0.2953791527E-14   0.0000000000E+00   0.1122750000E-02  -0.1309170564E-17   0.0000000000E+00  -0.2961575000E-01  -0.2952482357E-14   0.3500000005E+01   0.7573991139E-10   0.7574314650E-10  -0.2701288244E-13   0.1851117774E-13   0.4479002736E-14   0.5700000008E-01  -0.2849300004E-01  -0.2849300004E-01   0.2003700303E-14   0.2262764577E-14  -0.2886405247E-14   0.3500000005E+01
   0.0000000000E+00   0.0000000000E+00   0.9715070000E+00   0.0000000000E+00   0.0000000000E+00   0.1122750000E-02   0.0000000000E+00   0.0000000000E+00  -0.2961575000E-01   0.3500000005E+01   0.3072411132E-10   0.3073756962E-10   0.2512712137E-16  -0.1791963059E-13  -0.4693266000E-15   0.5700000008E-01  -0.2849300004E-01  -0.2849300004E-01  -0.1267967749E-17   0.1559044758E-14  -0.3951938188E-15   0.3500000005E+01
   0.1057000000E+01   0.0000000000E+00   0.9715070000E+00  -0.2250000000E-02   0.0000000000E+00   0.1122750000E-02   0.5925000000E-01   0.0000000000E+00  -0.2961575000E-01   0.3500000005E+01   0.1005630047E-09   0.1005618811E-09   0.2953972909E-13  -0.3187292998E-13  -0.1147094883E-15   0.5700000008E-01  -0.2849300004E-01  -0.2849300004E-01  -0.2831683728E-14   0.2412142110E-14  -0.1614121279E-14   0.3500000005E+01
   0.1057000000E+01   0.9715070000E+00   0.9715070000E+00  -0.2250000000E-02   0.1122750000E-02   0.1122750000E-02   0.5925000000E-01  -0.2961575000E-01  -0.2961575000E-01   0.3500000005E+01   0.1317671556E-11   0.1310346116E-11  -0.1176698863E-13  -0.1801714024E-13  -0.2813135488E-14   0.5700000007E-01  -0.2849300004E-01  -0.2849300004E-01  -0.1885198018E-14  -0.2282916314E-14  -0.1129660095E-14   0.3500000005E+01
   0.0000000000E+00   0.9715070000E+00   0.9715070000E+00   0.0000000000E+00   0.1122750000E-02   0.1122750000E-02   0.0000000000E+00  -0.2961575000E-01  -0.2961575000E-01   0.3500000005E+01   0.7923014486E-10   0.7923349775E-10  -0.3038702874E-13  -0.1657354951E-13  -0.1779543802E-15   0.5700000008E-01  -0.2849300004E-01  -0.2849300004E-01  -0.2118902530E-14  -0.4893553619E-15   0.2568821672E-14   0.3500000005E+01
   0.2114000000E+01   0.0000000000E+00  -0.1895691284E-14  -0.4500000000E-02   0.0000000000E+00   0.1739685632E-16   0.1185000000E+00   0.0000000000E+00  -0.1913088140E-14   0.3500000005E+01   0.4786263795E-11   0.4796122768E-11   0.3914972750E-13   0.3518983589E-13   0.6281615637E-14   0.5700000009E-01  -0.2849300004E-01  -0.2849300004E-01  -0.4097214338E-14   0.2152464859E-14  -0.2988618368E-14   0.3500000005E+01
   0.2114000000E+01   0.9715070000E+00  -0.3393258731E-14  -0.4500000000E-02   0.1122750000E-02   0.1807324128E-16   0.1185000000E+00  -0.2961575000E-01  -0.3411331972E-14   0.3500000005E+01  -0.2141189004E-09  -0.2141268826E-09  -0.1329616954E-13   0.2436142066E-13   0.2214022277E-14   0.5700000008E-01  -0.2849300004E-01  -0.2849300004E-01  -0.5640762408E-14  -0.9801127416E-16   0.1452571278E-14   0.3500000005E+01
   0.2114000000E+01   0.0000000000E+00   0.9715070000E+00  -0.4500000000E-02   0.0000000000E+00   0.1122750000E-02   0.1185000000E+00   0.0000000000E+00  -0.2961575000E-01   0.3500000005E+01  -0.1027171698E-09  -0.1027047560E-09   0.1929360352E-13  -0.6933841710E-14  -0.1172257561E-14   0.5700000008E-01  -0.2849300004E-01  -0.2849300004E-01   0.1131322107E-15  -0.5138930466E-14   0.2320063691E-15   0.3500000005E+01
   0.2114000000E+01   0.9715070000E+00   0.9715070000E+00  -0.4500000000E-02   0.1122750000E-02   0.1122750000E-02   0.1185000000E+00  -0.2961575000E-01  -0.2961575000E-01   0.3500000005E+01   0.2169538959E-09   0.2169570936E-09  -0.3437395079E-13  -0.2696466938E-13  -0.4570359200E-14   0.5700000007E-01  -0.2849300004E-01  -0.2849300004E-01   0.4136561411E-14   0.1690028452E-14   0.4696144440E-14   0.3500000004E+01
     1     2     3     4     5     6     7     8
     2     9    10     3     6    11    12     7
 VARIABLES = X,Y,Z,DU1,DU2,DU3,U1,U2,U3,S11,S22,S33,S12,S13,S23,E11,E22,E33,E12,E13,E23,SMISES
 ZONE, T="0.3450D+01" F=FEPOINT, I=   12 J=    2 ET=BRICK
   0.0000000000E+00   0.0000000000E+00   0.0000000000E+00   0.0000000000E+00   0.0000000000E+00   0.0000000000E+00   0.0000000000E+00   0.0000000000E+00   0.0000000000E+00   0.2375000003E+01  -0.3395358243E-09  -0.3395188093E-09   0.7049500023E-16   0.2456881952E-13   0.4302307781E-14   0.5475000009E-01  -0.2737025004E-01  -0.2737025004E-01  -0.3094805435E-17  -0.7116116715E-14  -0.5907400282E-14   0.2375000004E+01
   0.1054750000E+01   0.0000000000E+00  -0.2688171984E-14  -0.2250000000E-02   0.0000000000E+00  -0.2479381900E-17   0.5700000000E-01   0.0000000000E+00  -0.2685692602E-14   0.2375000004E+01   0.1039758682E-09   0.1039642886E-09   0.1541935806E-13   0.9632565113E-14  -0.5334089178E-17   0.5475000008E-01  -0.2737025004E-01  -0.2737025004E-01   0.2222601073E-14   0.1766288684E-14   0.8179871204E-15   0.2375000004E+01
   0.1054750000E+01   0.9726297500E+00  -0.2282110259E-14  -0.2250000000E-02   0.1122750000E-02  -0.2230824106E-17   0.5700000000E-01  -0.2849300000E-01  -0.2279879435E-14   0.2375000003E+01  -0.8159019557E-10  -0.8159714930E-10  -0.2406766285E-13   0.2388985321E-13  -0.2385570997E-14   0.5475000008E-01  -0.2737025004E-01  -0.2737025004E-01   0.2438999995E-14  -0.1813217640E-14   0.1331027997E-14   0.2375000003E+01
   0.0000000000E+00   0.9726297500E+00  -0.2953801195E-14   0.0000000000E+00   0.1122750000E-02  -0.9667717324E-20   0.0000000000E+00  -0.2849300000E-01  -0.2953791527E-14   0.2375000004E+01   0.7534688502E-10   0.7535012656E-10  -0.2678470840E-13   0.1816238103E-13   0.4742212953E-14   0.5475000008E-01  -0.2737025004E-01  -0.2737025004E-01   0.1992061853E-14   0.2233824706E-14  -0.2938453096E-14   0.2375000003E+01
   0.0000000000E+00   0.0000000000E+00   0.9726297500E+00   0.0000000000E+00   0.0000000000E+00   0.1122750000E-02   0.0000000000E+00   0.0000000000E+00  -0.2849300000E-01   0.2375000003E+01   0.3125046485E-10   0.3126392487E-10   0.2860213527E-16  -0.1842384320E-13  -0.6841749487E-15   0.5475000008E-01  -0.2737025004E-01  -0.2737025004E-01   0.3989751703E-17   0.1547619182E-14  -0.4087947820E-15   0.2375000003E+01
   0.1054750000E+01   0.0000000000E+00   0.9726297500E+00  -0.2250000000E-02   0.0000000000E+00   0.1122750000E-02   0.5700000000E-01   0.0000000000E+00  -0.2849300000E-01   0.2375000003E+01   0.1005049643E-09   0.1005037926E-09   0.2928400113E-13  -0.3127522893E-13  -0.1235604020E-15   0.5475000008E-01  -0.2737025004E-01  -0.2737025004E-01  -0.2860799277E-14   0.2419845486E-14  -0.1643621498E-14   0.2375000003E+01
   0.1054750000E+01   0.9726297500E+00   0.9726297500E+00  -0.2250000000E-02   0.1122750000E-02   0.1122750000E-02   0.5700000000E-01  -0.2849300000E-01  -0.2849300000E-01   0.2375000003E+01   0.1478761075E-11   0.1470897390E-11  -0.1212615046E-13  -0.1758007199E-13  -0.2757976560E-14   0.5475000007E-01  -0.2737025004E-01  -0.2737025004E-01  -0.1893913525E-14  -0.2307485724E-14  -0.1135917438E-14   0.2375000003E+01
   0.0000000000E+00   0.9726297500E+00   0.9726297500E+00   0.0000000000E+00   0.1122750000E-02   0.1122750000E-02   0.0000000000E+00  -0.2849300000E-01  -0.2849300000E-01   0.2375000003E+01   0.7935396569E-10   0.7935698851E-10  -0.3031643758E-13  -0.1699106902E-13  -0.1704447111E-15   0.5475000007E-01  -0.2737025004E-01  -0.2737025004E-01  -0.2093835200E-14  -0.4684641978E-15   0.2629193998E-14   0.2375000003E+01
   0.2109500000E+01   0.0000000000E+00  -0.1900186610E-14  -0.4500000000E-02   0.0000000000E+00  -0.4495326424E-17   0.1140000000E+00   0.0000000000E+00  -0.1895691284E-14   0.2375000004E+01   0.5362629708E-11   0.5372000235E-11   0.3898836335E-13   0.3425904286E-13   0.6233475048E-14   0.5475000008E-01  -0.2737025004E-01  -0.2737025004E-01  -0.4121817286E-14   0.2043362224E-14  -0.2988005318E-14   0.2375000004E+01
   0.2109500000E+01   0.9726297500E+00  -0.3398173429E-14  -0.4500000000E-02   0.1122750000E-02  -0.4914698346E-17   0.1140000000E+00  -0.2849300000E-01  -0.3393258731E-14   0.2375000003E+01  -0.2138111875E-09  -0.2138190800E-09  -0.1345649750E-13   0.2418502077E-13   0.1860008125E-14   0.5475000008E-01  -0.2737025004E-01  -0.2737025004E-01  -0.5650254936E-14  -0.4679860047E-16   0.1425553903E-14   0.2375000003E+01
   0.2109500000E+01   0.0000000000E+00   0.9726297500E+00  -0.4500000000E-02   0.0000000000E+00   0.1122750000E-02   0.1140000000E+00   0.0000000000E+00  -0.2849300000E-01   0.2375000003E+01  -0.1036052967E-09  -0.1035928589E-09   0.2017445042E-13  -0.7954413317E-14  -0.9080103178E-15   0.5475000008E-01  -0.2737025004E-01  -0.2737025004E-01   0.1589727373E-15  -0.5174383099E-14   0.2475022746E-15   0.2375000003E+01
   0.2109500000E+01   0.9726297500E+00   0.9726297500E+00  -0.4500000000E-02   0.1122750000E-02   0.1122750000E-02   0.1140000000E+00  -0.2849300000E-01  -0.2849300000E-01   0.2375000003E+01   0.2170694314E-09   0.2170732476E-09  -0.3386831027E-13  -0.2663640812E-13  -0.4522504387E-14   0.5475000007E-01  -0.2737025004E-01  -0.2737025004E-01   0.4075902084E-14   0.1619638028E-14   0.4706695612E-14   0.2375000003E+01
     1     2     3     4     5     6     7     8
     2     9    10     3     6    11    12     7
 VARIABLES = X,Y,Z,DU1,DU2,DU3,U1,U2,U3,S11,S22,S33,S12,S13,S23,E11,E22,E33,E12,E13,E23,SMISES
 ZONE, T="0.3500D+01" F=FEPOINT, I=   12 J=    2 ET=BRICK
   0.0000000000E+00   0.0000000000E+00   0.0000000000E+00   0.0000000000E+00   0.0000000000E+00   0.0000000000E+00   0.0000000000E+00   0.0000000000E+00   0.0000000000E+00   0.1250000002E+01  -0.3390513715E-09  -0.3390348356E-09   0.8928811177E-16   0.2495527760E-13   0.4321237468E-14   0.5250000008E-01  -0.2624750004E-01  -0.2624750004E-01   0.1072053949E-16  -0.7105449019E-14  -0.5898771775E-14   0.1250000002E+01
   0.1052500000E+01   0.0000000000E+00  -0.2685813939E-14  -0.2250000000E-02   0.0000000000E+00   0.2358045650E-17   0.5475000000E-01   0.0000000000E+00  -0.2688171984E-14   0.1250000002E+01   0.1038927449E-09   0.1038811314E-09   0.1514140887E-13   0.8931263946E-14  -0.1173679363E-15   0.5250000008E-01  -0.2624750004E-01  -0.2624750004E-01   0.2189042574E-14   0.1763342110E-14   0.8042464051E-15   0.1250000002E+01
   0.1052500000E+01   0.9737525000E+00  -0.2280406185E-14  -0.2250000000E-02   0.1122750000E-02   0.1704073861E-17   0.5475000000E-01  -0.2737025000E-01  -0.2282110259E-14   0.1250000002E+01  -0.8150226145E-10  -0.8150884383E-10  -0.2433569732E-13   0.2367841369E-13  -0.2510866930E-14   0.5250000007E-01  -0.2624750004E-01  -0.2624750004E-01   0.2425538098E-14  -0.1865247714E-14   0.1333578101E-14   0.1250000002E+01
   0.0000000000E+00   0.9737525000E+00  -0.2953713428E-14   0.0000000000E+00   0.1122750000E-02   0.8776716287E-19   0.0000000000E+00  -0.2737025000E-01  -0.2953801195E-14   0.1250000002E+01   0.7559610092E-10   0.7559927933E-10  -0.2692567603E-13   0.1837701052E-13   0.4513663695E-14   0.5250000008E-01  -0.2624750004E-01  -0.2624750004E-01   0.2003848355E-14   0.2247547774E-14  -0.2933699230E-14   0.1250000002E+01
   0.0000000000E+00   0.0000000000E+00   0.9737525000E+00   0.0000000000E+00   0.0000000000E+00   0.1122750000E-02   0.0000000000E+00   0.0000000000E+00  -0.2737025000E-01   0.1250000002E+01   0.3068160514E-10   0.3069510117E-10   0.3223368164E-16  -0.1787136739E-13  -0.5817104906E-15   0.5250000008E-01  -0.2624750004E-01  -0.2624750004E-01  -0.1151496030E-17   0.1545122081E-14  -0.4091337988E-15   0.1250000002E+01
   0.1052500000E+01   0.0000000000E+00   0.9737525000E+00  -0.2250000000E-02   0.0000000000E+00   0.1122750000E-02   0.5475000000E-01   0.0000000000E+00  -0.2737025000E-01   0.1250000002E+01   0.1005800117E-09   0.1005788302E-09   0.2955093750E-13  -0.3194670611E-13  -0.6457576798E-16   0.5250000007E-01  -0.2624750004E-01  -0.2624750004E-01  -0.2827829562E-14   0.2410374475E-14  -0.1624345999E-14   0.1250000002E+01
   0.1052500000E+01   0.9737525000E+00   0.9737525000E+00  -0.2250000000E-02   0.1122750000E-02   0.1122750000E-02   0.5475000000E-01  -0.2737025000E-01  -0.2737025000E-01   0.1250000002E+01   0.1346063350E-11   0.1338625527E-11  -0.1174150956E-13  -0.1791203109E-13  -0.2821025296E-14   0.5250000007E-01  -0.2624750003E-01  -0.2624750003E-01  -0.1882907356E-14  -0.2309339942E-14  -0.1146617552E-14   0.1250000002E+01
   0.0000000000E+00   0.9737525000E+00   0.9737525000E+00   0.0000000000E+00   0.1122750000E-02   0.1122750000E-02   0.0000000000E+00  -0.2737025000E-01  -0.2737025000E-01   0.1250000002E+01   0.7922628927E-10   0.7922955177E-10  -0.3022895653E-13  -0.1654664590E-13  -0.1092205319E-15   0.5250000007E-01  -0.2624750004E-01  -0.2624750004E-01  -0.2109712722E-14  -0.4376661905E-15   0.2592148795E-14   0.1250000002E+01
   0.2105000000E+01   0.0000000000E+00  -0.1896476905E-14  -0.4500000000E-02   0.0000000000E+00   0.3709705401E-17   0.1095000000E+00   0.0000000000E+00  -0.1900186610E-14   0.1250000002E+01   0.4831710801E-11   0.4841402559E-11   0.3908793417E-13   0.3495571845E-13   0.6332723074E-14   0.5250000008E-01  -0.2624750004E-01  -0.2624750004E-01  -0.4086399584E-14   0.2102715646E-14  -0.3002464857E-14   0.1250000002E+01
   0.2105000000E+01   0.9737525000E+00  -0.3393746080E-14  -0.4500000000E-02   0.1122750000E-02   0.4427349455E-17   0.1095000000E+00  -0.2737025000E-01  -0.3398173429E-14   0.1250000002E+01  -0.2140349165E-09  -0.2140431982E-09  -0.1322335505E-13   0.2394477354E-13   0.2100568560E-14   0.5250000007E-01  -0.2624750004E-01  -0.2624750004E-01  -0.5649974058E-14   0.1392627848E-16   0.1445155624E-14   0.1250000002E+01
   0.2105000000E+01   0.0000000000E+00   0.9737525000E+00  -0.4500000000E-02   0.0000000000E+00   0.1122750000E-02   0.1095000000E+00   0.0000000000E+00  -0.2737025000E-01   0.1250000002E+01  -0.1027664398E-09  -0.1027539202E-09   0.1926771014E-13  -0.7170332185E-14  -0.1068415179E-14   0.5250000007E-01  -0.2624750004E-01  -0.2624750004E-01   0.6998510051E-16  -0.5165842929E-14   0.2591082643E-15   0.1250000002E+01
   0.2105000000E+01   0.9737525000E+00   0.9737525000E+00  -0.4500000000E-02   0.1122750000E-02   0.1122750000E-02   0.1095000000E+00  -0.2737025000E-01  -0.2737025000E-01   0.1250000002E+01   0.2167808760E-09   0.2167840483E-09  -0.3462828856E-13  -0.2688344803E-13  -0.4577758419E-14   0.5250000007E-01  -0.2624750003E-01  -0.2624750003E-01   0.4100444323E-14   0.1653768144E-14   0.4684563130E-14   0.1250000002E+01
     1     2     3     4     5     6     7     8
     2     9    10     3     6    11    12     7
 VARIABLES = X,Y,Z,DU1,DU2,DU3,U1,U2,U3,S11,S22,S33,S12,S13,S23,E11,E22,E33,E12,E13,E23,SMISES
 ZONE, T="0.3550D+01" F=FEPOINT, I=   12 J=    2 ET=BRICK
   0.0000000000E+00   0.0000000000E+00   0.0000000000E+00   0.0000000000E+00   0.0000000000E+00   0.0000000000E+00   0.0000000000E+00   0.0000000000E+00   0.0000000000E+00   0.1249999999E+00  -0.3391070921E-09  -0.3390905154E-09   0.1096922604E-15   0.2511997126E-13   0.4443022266E-14   0.5025000008E-01  -0.2512475004E-01  -0.2512475004E-01  -0.2526609284E-17  -0.7097169595E-14  -0.5908336607E-14   0.1250000002E+00
   0.1050250000E+01   0.0000000000E+00  -0.2685286072E-14  -0.2250000000E-02   0.0000000000E+00   0.5278661597E-18   0.5250000000E-01   0.0000000000E+00  -0.2685813939E-14   0.1250000003E+00   0.1039336661E-09   0.1039219790E-09   0.1530817890E-13   0.8971131685E-14  -0.1152603042E-15   0.5025000008E-01  -0.2512475004E-01  -0.2512475004E-01   0.2230386794E-14   0.1770364641E-14   0.8059246791E-15   0.1250000002E+00
   0.1050250000E+01   0.9748752500E+00  -0.2279773506E-14  -0.2250000000E-02   0.1122750000E-02   0.6326798581E-18   0.5250000000E-01  -0.2624750000E-01  -0.2280406185E-14   0.1250000001E+00  -0.8154270990E-10  -0.8154941474E-10  -0.2420826378E-13   0.2363788688E-13  -0.2471872255E-14   0.5025000007E-01  -0.2512475004E-01  -0.2512475004E-01   0.2465120896E-14  -0.1806437326E-14   0.1320468347E-14   0.1250000002E+00
   0.0000000000E+00   0.9748752500E+00  -0.2953145579E-14   0.0000000000E+00   0.1122750000E-02   0.5678490863E-18   0.0000000000E+00  -0.2624750000E-01  -0.2953713428E-14   0.1250000003E+00   0.7562795228E-10   0.7563102080E-10  -0.2696975047E-13   0.1834083659E-13   0.4474517871E-14   0.5025000007E-01  -0.2512475004E-01  -0.2512475004E-01   0.1995294533E-14   0.2221716428E-14  -0.2912029172E-14   0.1250000002E+00
   0.0000000000E+00   0.0000000000E+00   0.9748752500E+00   0.0000000000E+00   0.0000000000E+00   0.1122750000E-02   0.0000000000E+00   0.0000000000E+00  -0.2624750000E-01   0.1250000002E+00   0.3067510358E-10   0.3068863700E-10   0.1236286187E-16  -0.1803480646E-13  -0.6217079905E-15   0.5025000007E-01  -0.2512475004E-01  -0.2512475004E-01  -0.1123232389E-17   0.1556938855E-14  -0.3960269536E-15   0.1250000002E+00
   0.1050250000E+01   0.0000000000E+00   0.9748752500E+00  -0.2250000000E-02   0.0000000000E+00   0.1122750000E-02   0.5250000000E-01   0.0000000000E+00  -0.2624750000E-01   0.1250000003E+00   0.1005025395E-09   0.1005013777E-09   0.2969413782E-13  -0.3169529535E-13  -0.7029517368E-16   0.5025000007E-01  -0.2512475004E-01  -0.2512475004E-01  -0.2838267148E-14   0.2429430633E-14  -0.1611712543E-14   0.1250000002E+00
   0.1050250000E+01   0.9748752500E+00   0.9748752500E+00  -0.2250000000E-02   0.1122750000E-02   0.1122750000E-02   0.5250000000E-01  -0.2624750000E-01  -0.2624750000E-01   0.1250000002E+00   0.1349952538E-11   0.1342471335E-11  -0.1170394356E-13  -0.1801208819E-13  -0.2849488806E-14   0.5025000007E-01  -0.2512475003E-01  -0.2512475003E-01  -0.1893050462E-14  -0.2316744207E-14  -0.1152190775E-14   0.1250000002E+00
   0.0000000000E+00   0.9748752500E+00   0.9748752500E+00   0.0000000000E+00   0.1122750000E-02   0.1122750000E-02   0.0000000000E+00  -0.2624750000E-01  -0.2624750000E-01   0.1250000002E+00   0.7922606665E-10   0.7922921642E-10  -0.3028367555E-13  -0.1649790040E-13  -0.1349596561E-15   0.5025000007E-01  -0.2512475003E-01  -0.2512475003E-01  -0.2105734871E-14  -0.4524992546E-15   0.2561105824E-14   0.1250000002E+00
   0.2100500000E+01   0.0000000000E+00  -0.1895905248E-14  -0.4500000000E-02   0.0000000000E+00   0.5716566282E-18   0.1050000000E+00   0.0000000000E+00  -0.1896476905E-14   0.1250000002E+00   0.5020148208E-11   0.5029958847E-11   0.3912911188E-13   0.3460853905E-13   0.6342446739E-14   0.5025000008E-01  -0.2512475004E-01  -0.2512475004E-01  -0.4100415082E-14   0.2038432658E-14  -0.2995836100E-14   0.1250000002E+00
   0.2100500000E+01   0.9748752500E+00  -0.3393092631E-14  -0.4500000000E-02   0.1122750000E-02   0.6534491386E-18   0.1050000000E+00  -0.2624750000E-01  -0.3393746080E-14   0.1250000000E+00  -0.2140964014E-09  -0.2141045397E-09  -0.1317127280E-13   0.2423026094E-13   0.2119510094E-14   0.5025000007E-01  -0.2512475004E-01  -0.2512475004E-01  -0.5641532953E-14  -0.4702168657E-16   0.1453254010E-14   0.1250000002E+00
   0.2100500000E+01   0.0000000000E+00   0.9748752500E+00  -0.4500000000E-02   0.0000000000E+00   0.1122750000E-02   0.1050000000E+00   0.0000000000E+00  -0.2624750000E-01   0.1250000001E+00  -0.1028094127E-09  -0.1027968209E-09   0.1957178675E-13  -0.7218541087E-14  -0.1038596437E-14   0.5025000007E-01  -0.2512475004E-01  -0.2512475004E-01   0.5664793280E-16  -0.5179202980E-14   0.2356576837E-15   0.1250000002E+00
   0.2100500000E+01   0.9748752500E+00   0.9748752500E+00  -0.4500000000E-02   0.1122750000E-02   0.1122750000E-02   0.1050000000E+00  -0.2624750000E-01  -0.2624750000E-01   0.1250000004E+00   0.2168939789E-09   0.2168972550E-09  -0.3436969386E-13  -0.2676667082E-13  -0.4621774953E-14   0.5025000006E-01  -0.2512475003E-01  -0.2512475003E-01   0.4083363647E-14   0.1549713661E-14   0.4720003067E-14   0.1250000002E+00
     1     2     3     4     5     6     7     8
     2     9    10     3     6    11    12     7
 VARIABLES = X,Y,Z,DU1,DU2,DU3,U1,U2,U3,S11,S22,S33,S12,S13,S23,E11,E22,E33,E12,E13,E23,SMISES
 ZONE, T="0.3600D+01" F=FEPOINT, I=   12 J=    2 ET=BRICK
   0.0000000000E+00   0.0000000000E+00   0.0000000000E+00   0.0000000000E+00   0.0000000000E+00   0.0000000000E+00   0.0000000000E+00   0.0000000000E+00   0.0000000000E+00  -0.1000000002E+01  -0.3389934510E-09  -0.3389765800E-09   0.1213488047E-15   0.2517071515E-13   0.4511503492E-14   0.4800000008E-01  -0.2400200004E-01  -0.2400200004E-01   0.4299490531E-17  -0.7115358143E-14  -0.5913077578E-14   0.1000000002E+01
   0.1048000000E+01   0.0000000000E+00  -0.2684942697E-14  -0.2250000000E-02   0.0000000000E+00   0.3433755286E-18   0.5025000000E-01   0.0000000000E+00  -0.2685286072E-14  -0.1000000001E+01   0.1039417830E-09   0.1039301289E-09   0.1514728846E-13   0.8935494486E-14  -0.1063315919E-15   0.4800000007E-01  -0.2400200004E-01  -0.2400200004E-01   0.2217212372E-14   0.1768298094E-14   0.8175134608E-15   0.1000000002E+01
   0.1048000000E+01   0.9759980000E+00  -0.2279369651E-14  -0.2250000000E-02   0.1122750000E-02   0.4038549211E-18   0.5025000000E-01  -0.2512475000E-01  -0.2279773506E-14  -0.1000000002E+01  -0.8151898769E-10  -0.8152580773E-10  -0.2438350422E-13   0.2362353365E-13  -0.2412647169E-14   0.4800000007E-01  -0.2400200003E-01  -0.2400200003E-01   0.2435305870E-14  -0.1833050196E-14   0.1320746734E-14   0.1000000001E+01
   0.0000000000E+00   0.9759980000E+00  -0.2952593655E-14   0.0000000000E+00   0.1122750000E-02   0.5519237521E-18   0.0000000000E+00  -0.2512475000E-01  -0.2953145579E-14  -0.1000000001E+01   0.7548751378E-10   0.7549042407E-10  -0.2691285642E-13   0.1831697096E-13   0.4613249196E-14   0.4800000007E-01  -0.2400200003E-01  -0.2400200003E-01   0.1995095427E-14   0.2254179054E-14  -0.2909429173E-14   0.1000000001E+01
   0.0000000000E+00   0.0000000000E+00   0.9759980000E+00   0.0000000000E+00   0.0000000000E+00   0.1122750000E-02   0.0000000000E+00   0.0000000000E+00  -0.2512475000E-01  -0.1000000001E+01   0.3059005659E-10   0.3060385024E-10   0.1949691492E-16  -0.1790282618E-13  -0.5906849002E-15   0.4800000007E-01  -0.2400200003E-01  -0.2400200003E-01   0.2668426663E-17   0.1558255983E-14  -0.4133100011E-15   0.1000000001E+01
   0.1048000000E+01   0.0000000000E+00   0.9759980000E+00  -0.2250000000E-02   0.0000000000E+00   0.1122750000E-02   0.5025000000E-01   0.0000000000E+00  -0.2512475000E-01  -0.1000000001E+01   0.1005631717E-09   0.1005620633E-09   0.2973985422E-13  -0.3199191354E-13  -0.1750329434E-15   0.4800000007E-01  -0.2400200003E-01  -0.2400200003E-01  -0.2841226319E-14   0.2422161230E-14  -0.1626096556E-14   0.1000000001E+01
   0.1048000000E+01   0.9759980000E+00   0.9759980000E+00  -0.2250000000E-02   0.1122750000E-02   0.1122750000E-02   0.5025000000E-01  -0.2512475000E-01  -0.2512475000E-01  -0.1000000001E+01   0.1372130160E-11   0.1364568433E-11  -0.1165532904E-13  -0.1787811725E-13  -0.2899891052E-14   0.4800000006E-01  -0.2400200003E-01  -0.2400200003E-01  -0.1894885202E-14  -0.2302434751E-14  -0.1149564759E-14   0.1000000001E+01
   0.0000000000E+00   0.9759980000E+00   0.9759980000E+00   0.0000000000E+00   0.1122750000E-02   0.1122750000E-02   0.0000000000E+00  -0.2512475000E-01  -0.2512475000E-01  -0.1000000001E+01   0.7923874326E-10   0.7924189710E-10  -0.3014415912E-13  -0.1652031135E-13  -0.2710778866E-15   0.4800000006E-01  -0.2400200003E-01  -0.2400200003E-01  -0.2091874153E-14  -0.4674543698E-15   0.2614869917E-14   0.1000000001E+01
   0.2096000000E+01   0.0000000000E+00  -0.1895687199E-14  -0.4500000000E-02   0.0000000000E+00   0.2180491559E-18   0.1005000000E+00   0.0000000000E+00  -0.1895905248E-14  -0.1000000002E+01   0.4731842998E-11   0.4741336384E-11   0.3939993137E-13   0.3482100689E-13   0.6291134278E-14   0.4800000007E-01  -0.2400200004E-01  -0.2400200004E-01  -0.4087099207E-14   0.2140013681E-14  -0.2992132743E-14   0.1000000002E+01
   0.2096000000E+01   0.9759980000E+00  -0.3393328465E-14  -0.4500000000E-02   0.1122750000E-02  -0.2358339271E-18   0.1005000000E+00  -0.2512475000E-01  -0.3393092631E-14  -0.1000000002E+01  -0.2139912095E-09  -0.2139989806E-09  -0.1296082793E-13   0.2405630525E-13   0.2000407284E-14   0.4800000007E-01  -0.2400200003E-01  -0.2400200003E-01  -0.5644364930E-14  -0.9539631986E-16   0.1444727156E-14   0.1000000001E+01
   0.2096000000E+01   0.0000000000E+00   0.9759980000E+00  -0.4500000000E-02   0.0000000000E+00   0.1122750000E-02   0.1005000000E+00   0.0000000000E+00  -0.2512475000E-01  -0.1000000001E+01  -0.1027398322E-09  -0.1027274125E-09   0.1940209790E-13  -0.7105449540E-14  -0.9394371209E-15   0.4800000007E-01  -0.2400200003E-01  -0.2400200003E-01   0.6352984471E-16  -0.5227513581E-14   0.2432620577E-15   0.1000000001E+01
   0.2096000000E+01   0.9759980000E+00   0.9759980000E+00  -0.4500000000E-02   0.1122750000E-02   0.1122750000E-02   0.1005000000E+00  -0.2512475000E-01  -0.2512475000E-01  -0.1000000001E+01   0.2168970254E-09   0.2169006097E-09  -0.3465247481E-13  -0.2672891258E-13  -0.4415375553E-14   0.4800000006E-01  -0.2400200003E-01  -0.2400200003E-01   0.4079716894E-14   0.1698011411E-14   0.4699438863E-14   0.1000000001E+01
     1     2     3     4     5     6     7     8
     2     9    10     3     6    11    12     7
 VARIABLES = X,Y,Z,DU1,DU2,DU3,U1,U2,U3,S11,S22,S33,S12,S13,S23,E11,E22,E33,E12,E13,E23,SMISES
 ZONE, T="0.3650D+01" F=FEPOINT, I=   12 J=    2 ET=BRICK
   0.0000000000E+00   0.0000000000E+00   0.0000000000E+00   0.0000000000E+00   0.0000000000E+00   0.0000000000E+00   0.0000000000E+00   0.0000000000E+00   0.0000000000E+00  -0.2125000004E+01  -0.3389720151E-09  -0.3389551992E-09   0.1341066914E-15   0.2514868438E-13   0.4368089712E-14   0.4575000007E-01  -0.2287925004E-01  -0.2287925004E-01   0.4134896542E-18  -0.7107182423E-14  -0.5911275416E-14   0.2125000003E+01
   0.1045750000E+01   0.0000000000E+00  -0.2684676230E-14  -0.2250000000E-02   0.0000000000E+00   0.2664670520E-18   0.4800000000E-01   0.0000000000E+00  -0.2684942697E-14  -0.2125000003E+01   0.1038958102E-09   0.1038840261E-09   0.1491461524E-13   0.8712888805E-14  -0.1493143911E-15   0.4575000007E-01  -0.2287925004E-01  -0.2287925004E-01   0.2206183290E-14   0.1744584449E-14   0.8035763771E-15   0.2125000003E+01
   0.1045750000E+01   0.9771207500E+00  -0.2279357664E-14  -0.2250000000E-02   0.1122750000E-02   0.1198663956E-19   0.4800000000E-01  -0.2400200000E-01  -0.2279369651E-14  -0.2125000003E+01  -0.8149935792E-10  -0.8150607401E-10  -0.2452688813E-13   0.2381316948E-13  -0.2449464223E-14   0.4575000007E-01  -0.2287925003E-01  -0.2287925003E-01   0.2435201935E-14  -0.1828667403E-14   0.1332021135E-14   0.2125000003E+01
   0.0000000000E+00   0.9771207500E+00  -0.2953492237E-14   0.0000000000E+00   0.1122750000E-02  -0.8985819983E-18   0.0000000000E+00  -0.2400200000E-01  -0.2952593655E-14  -0.2125000003E+01   0.7544447857E-10   0.7544787686E-10  -0.2689337484E-13   0.1849147984E-13   0.4744509789E-14   0.4575000007E-01  -0.2287925003E-01  -0.2287925003E-01   0.1984876792E-14   0.2250562705E-14  -0.2897319551E-14   0.2125000003E+01
   0.0000000000E+00   0.0000000000E+00   0.9771207500E+00   0.0000000000E+00   0.0000000000E+00   0.1122750000E-02   0.0000000000E+00   0.0000000000E+00  -0.2400200000E-01  -0.2125000003E+01   0.3050950611E-10   0.3052263742E-10  -0.8308520356E-17  -0.1782288582E-13  -0.5353177720E-15   0.4575000007E-01  -0.2287925003E-01  -0.2287925003E-01   0.2476670221E-17   0.1555423870E-14  -0.3783862404E-15   0.2125000003E+01
   0.1045750000E+01   0.0000000000E+00   0.9771207500E+00  -0.2250000000E-02   0.0000000000E+00   0.1122750000E-02   0.4800000000E-01   0.0000000000E+00  -0.2400200000E-01  -0.2125000003E+01   0.1005055660E-09   0.1005045710E-09   0.3003913311E-13  -0.3225666289E-13  -0.1380785520E-15   0.4575000007E-01  -0.2287925003E-01  -0.2287925003E-01  -0.2847747256E-14   0.2404341109E-14  -0.1623844180E-14   0.2125000003E+01
   0.1045750000E+01   0.9771207500E+00   0.9771207500E+00  -0.2250000000E-02   0.1122750000E-02   0.1122750000E-02   0.4800000000E-01  -0.2400200000E-01  -0.2400200000E-01  -0.2125000003E+01   0.1271910782E-11   0.1264438398E-11  -0.1142556138E-13  -0.1765171092E-13  -0.2880497596E-14   0.4575000006E-01  -0.2287925003E-01  -0.2287925003E-01  -0.1887180234E-14  -0.2285186936E-14  -0.1133825810E-14   0.2125000003E+01
   0.0000000000E+00   0.9771207500E+00   0.9771207500E+00   0.0000000000E+00   0.1122750000E-02   0.1122750000E-02   0.0000000000E+00  -0.2400200000E-01  -0.2400200000E-01  -0.2125000003E+01   0.7947276691E-10   0.7947593059E-10  -0.3034983472E-13  -0.1646625593E-13  -0.6400068383E-16   0.4575000006E-01  -0.2287925003E-01  -0.2287925003E-01  -0.2101684368E-14  -0.4711497877E-15   0.2558847882E-14   0.2125000003E+01
   0.2091500000E+01   0.0000000000E+00  -0.1894631075E-14  -0.4500000000E-02   0.0000000000E+00   0.1056124719E-17   0.9600000000E-01   0.0000000000E+00  -0.1895687199E-14  -0.2125000003E+01   0.4634816619E-11   0.4644880405E-11   0.3973570798E-13   0.3493159285E-13   0.6355079760E-14   0.4575000007E-01  -0.2287925003E-01  -0.2287925003E-01  -0.4121557801E-14   0.2155103165E-14  -0.2996811030E-14   0.2125000003E+01
   0.2091500000E+01   0.9771207500E+00  -0.3391956012E-14  -0.4500000000E-02   0.1122750000E-02   0.1372452272E-17   0.9600000000E-01  -0.2400200000E-01  -0.3393328465E-14  -0.2125000003E+01  -0.2140007452E-09  -0.2140085372E-09  -0.1257361177E-13   0.2386319999E-13   0.2064227733E-14   0.4575000006E-01  -0.2287925003E-01  -0.2287925003E-01  -0.5676002091E-14  -0.1402720459E-15   0.1457649679E-14   0.2125000003E+01
   0.2091500000E+01   0.0000000000E+00   0.9771207500E+00  -0.4500000000E-02   0.0000000000E+00   0.1122750000E-02   0.9600000000E-01   0.0000000000E+00  -0.2400200000E-01  -0.2125000003E+01  -0.1024320045E-09  -0.1024194357E-09   0.1911768875E-13  -0.6508584927E-14  -0.1135907079E-14   0.4575000006E-01  -0.2287925003E-01  -0.2287925003E-01   0.8042650515E-16  -0.5173651554E-14   0.2605239951E-15   0.2125000003E+01
   0.2091500000E+01   0.9771207500E+00   0.9771207500E+00  -0.4500000000E-02   0.1122750000E-02   0.1122750000E-02   0.9600000000E-01  -0.2400200000E-01  -0.2400200000E-01  -0.2125000003E+01   0.2166965775E-09   0.2166999400E-09  -0.3486577106E-13  -0.2695988243E-13  -0.4536516955E-14   0.4575000006E-01  -0.2287925003E-01  -0.2287925003E-01   0.4100238021E-14   0.1652599454E-14   0.4695276635E-14   0.2125000003E+01
     1     2     3     4     5     6     7     8
     2     9    10     3     6    11    12     7
 VARIABLES = X,Y,Z,DU1,DU2,DU3,U1,U2,U3,S11,S22,S33,S12,S13,S23,E11,E22,E33,E12,E13,E23,SMISES
 ZONE, T="0.3700D+01" F=FEPOINT, I=   12 J=    2 ET=BRICK
   0.0000000000E+00   0.0000000000E+00   0.0000000000E+00   0.0000000000E+00   0.0000000000E+00   0.0000000000E+00   0.0000000000E+00   0.0000000000E+00   0.0000000000E+00  -0.3250000005E+01  -0.3392213184E-09  -0.3392047797E-09   0.1186938511E-15   0.2487474859E-13   0.4402250616E-14   0.4350000007E-01  -0.2175650003E-01  -0.2175650003E-01  -0.6571866971E-17  -0.7105322323E-14  -0.5908691696E-14   0.3250000005E+01
   0.1043500000E+01   0.0000000000E+00  -0.2686429073E-14  -0.2250000000E-02   0.0000000000E+00  -0.1752843314E-17   0.4575000000E-01   0.0000000000E+00  -0.2684676230E-14  -0.3250000005E+01   0.1039678379E-09   0.1039562047E-09   0.1507526668E-13   0.9003115718E-14  -0.1605024975E-15   0.4350000007E-01  -0.2175650003E-01  -0.2175650003E-01   0.2222463803E-14   0.1742739135E-14   0.8111639919E-15   0.3250000005E+01
   0.1043500000E+01   0.9782435000E+00  -0.2281056020E-14  -0.2250000000E-02   0.1122750000E-02  -0.1698356353E-17   0.4575000000E-01  -0.2287925000E-01  -0.2279357664E-14  -0.3250000005E+01  -0.8147973713E-10  -0.8148629883E-10  -0.2456962091E-13   0.2390916927E-13  -0.2390239106E-14   0.4350000006E-01  -0.2175650003E-01  -0.2175650003E-01   0.2433603982E-14  -0.1838147045E-14   0.1298244807E-14   0.3250000005E+01
   0.0000000000E+00   0.9782435000E+00  -0.2953207807E-14   0.0000000000E+00   0.1122750000E-02   0.2844298763E-18   0.0000000000E+00  -0.2287925000E-01  -0.2953492237E-14  -0.3250000005E+01   0.7533966677E-10   0.7534283076E-10  -0.2682910047E-13   0.1821459567E-13   0.4700219586E-14   0.4350000006E-01  -0.2175650003E-01  -0.2175650003E-01   0.1988937525E-14   0.2240782257E-14  -0.2907877312E-14   0.3250000005E+01
   0.0000000000E+00   0.0000000000E+00   0.9782435000E+00   0.0000000000E+00   0.0000000000E+00   0.1122750000E-02   0.0000000000E+00   0.0000000000E+00  -0.2287925000E-01  -0.3250000005E+01   0.3064219302E-10   0.3065544886E-10   0.1932316098E-16  -0.1784508906E-13  -0.4343658288E-15   0.4350000006E-01  -0.2175650003E-01  -0.2175650003E-01   0.5228419164E-17   0.1557564596E-14  -0.3978407572E-15   0.3250000005E+01
   0.1043500000E+01   0.0000000000E+00   0.9782435000E+00  -0.2250000000E-02   0.0000000000E+00   0.1122750000E-02   0.4575000000E-01   0.0000000000E+00  -0.2287925000E-01  -0.3250000005E+01   0.1007455218E-09   0.1007448735E-09   0.3009680885E-13  -0.3215689365E-13  -0.2150816247E-15   0.4350000006E-01  -0.2175650003E-01  -0.2175650003E-01  -0.2834895368E-14   0.2380062616E-14  -0.1628507291E-14   0.3250000005E+01
   0.1043500000E+01   0.9782435000E+00   0.9782435000E+00  -0.2250000000E-02   0.1122750000E-02   0.1122750000E-02   0.4575000000E-01  -0.2287925000E-01  -0.2287925000E-01  -0.3250000004E+01   0.1405397288E-11   0.1397348745E-11  -0.1140871521E-13  -0.1760574152E-13  -0.3019490582E-14   0.4350000006E-01  -0.2175650003E-01  -0.2175650003E-01  -0.1887521898E-14  -0.2283615133E-14  -0.1121909438E-14   0.3250000004E+01
   0.0000000000E+00   0.9782435000E+00   0.9782435000E+00   0.0000000000E+00   0.1122750000E-02   0.1122750000E-02   0.0000000000E+00  -0.2287925000E-01  -0.2287925000E-01  -0.3250000004E+01   0.7961439527E-10   0.7961797837E-10  -0.3023369884E-13  -0.1678895509E-13  -0.1124317663E-15   0.4350000006E-01  -0.2175650003E-01  -0.2175650003E-01  -0.2094589458E-14  -0.4611322236E-15   0.2591638019E-14   0.3250000004E+01
   0.2087000000E+01   0.0000000000E+00  -0.1899131832E-14  -0.4500000000E-02   0.0000000000E+00  -0.4500757514E-17   0.9150000000E-01   0.0000000000E+00  -0.1894631075E-14  -0.3250000005E+01   0.4650065032E-11   0.4660503615E-11   0.4015308498E-13   0.3505250982E-13   0.6424850387E-14   0.4350000007E-01  -0.2175650003E-01  -0.2175650003E-01  -0.4123662196E-14   0.2153853386E-14  -0.2997842844E-14   0.3250000005E+01
   0.2087000000E+01   0.9782435000E+00  -0.3396043834E-14  -0.4500000000E-02   0.1122750000E-02  -0.4087821922E-17   0.9150000000E-01  -0.2287925000E-01  -0.3391956012E-14  -0.3250000005E+01  -0.2140728097E-09  -0.2140811163E-09  -0.1247861645E-13   0.2374845550E-13   0.2239918167E-14   0.4350000006E-01  -0.2175650003E-01  -0.2175650003E-01  -0.5684651812E-14  -0.1161156925E-15   0.1475637081E-14   0.3250000005E+01
   0.2087000000E+01   0.0000000000E+00   0.9782435000E+00  -0.4500000000E-02   0.0000000000E+00   0.1122750000E-02   0.9150000000E-01   0.0000000000E+00  -0.2287925000E-01  -0.3250000005E+01  -0.1024634343E-09  -0.1024513543E-09   0.1896249690E-13  -0.6220125463E-14  -0.1106650737E-14   0.4350000006E-01  -0.2175650003E-01  -0.2175650003E-01   0.4831745079E-16  -0.5188249360E-14   0.2356153684E-15   0.3250000005E+01
   0.2087000000E+01   0.9782435000E+00   0.9782435000E+00  -0.4500000000E-02   0.1122750000E-02   0.1122750000E-02   0.9150000000E-01  -0.2287925000E-01  -0.2287925000E-01  -0.3250000004E+01   0.2166046832E-09   0.2166086012E-09  -0.3533822840E-13  -0.2729162974E-13  -0.4336867049E-14   0.4350000006E-01  -0.2175650003E-01  -0.2175650003E-01   0.4070121356E-14   0.1643114656E-14   0.4701156403E-14   0.3250000004E+01
     1     2     3     4     5     6     7     8
     2     9    10     3     6    11    12     7
 VARIABLES = X,Y,Z,DU1,DU2,DU3,U1,U2,U3,S11,S22,S33,S12,S13,S23,E11,E22,E33,E12,E13,E23,SMISES
 ZONE, T="0.3750D+01" F=FEPOINT, I=   12 J=    2 ET=BRICK
   0.0000000000E+00   0.0000000000E+00   0.0000000000E+00   0.0000000000E+00   0.0000000000E+00   0.0000000000E+00   0.0000000000E+00   0.0000000000E+00   0.0000000000E+00  -0.4375000007E+01  -0.3390915878E-09  -0.3390748927E-09   0.1248095896E-15   0.2505662887E-13   0.4478671930E-14   0.4125000006E-01  -0.2063375003E-01  -0.2063375003E-01   0.2441911375E-17  -0.7108614515E-14  -0.5916719950E-14   0.4375000007E+01
   0.1041250000E+01   0.0000000000E+00  -0.2686231216E-14  -0.2250000000E-02   0.0000000000E+00   0.1978572872E-18   0.4350000000E-01   0.0000000000E+00  -0.2686429073E-14  -0.4375000007E+01   0.1038294804E-09   0.1038177972E-09   0.1493188246E-13   0.8957426150E-14  -0.1589632283E-15   0.4125000006E-01  -0.2063375003E-01  -0.2063375003E-01   0.2202454706E-14   0.1746836743E-14   0.8221542124E-15   0.4375000007E+01
   0.1041250000E+01   0.9793662500E+00  -0.2280870988E-14  -0.2250000000E-02   0.1122750000E-02   0.1850323384E-18   0.4350000000E-01  -0.2175650000E-01  -0.2281056020E-14  -0.4375000006E+01  -0.8172591312E-10  -0.8173255065E-10  -0.2471985519E-13   0.2363614322E-13  -0.2550989940E-14   0.4125000006E-01  -0.2063375003E-01  -0.2063375003E-01   0.2431851767E-14  -0.1835535647E-14   0.1306858976E-14   0.4375000006E+01
   0.0000000000E+00   0.9793662500E+00  -0.2952652876E-14   0.0000000000E+00   0.1122750000E-02   0.5549313687E-18   0.0000000000E+00  -0.2175650000E-01  -0.2953207807E-14  -0.4375000006E+01   0.7538023291E-10   0.7538282274E-10  -0.2694426516E-13   0.1827214421E-13   0.4812723272E-14   0.4125000006E-01  -0.2063375003E-01  -0.2063375003E-01   0.1987708988E-14   0.2241118874E-14  -0.2900400349E-14   0.4375000006E+01
   0.0000000000E+00   0.0000000000E+00   0.9793662500E+00   0.0000000000E+00   0.0000000000E+00   0.1122750000E-02   0.0000000000E+00   0.0000000000E+00  -0.2175650000E-01  -0.4375000006E+01   0.3086845513E-10   0.3088164331E-10   0.2606128522E-16  -0.1803674241E-13  -0.4818452091E-15   0.4125000006E-01  -0.2063375003E-01  -0.2063375003E-01   0.4897972911E-17   0.1534712626E-14  -0.4010409439E-15   0.4375000006E+01
   0.1041250000E+01   0.0000000000E+00   0.9793662500E+00  -0.2250000000E-02   0.0000000000E+00   0.1122750000E-02   0.4350000000E-01   0.0000000000E+00  -0.2175650000E-01  -0.4375000006E+01   0.1007444665E-09   0.1007441269E-09   0.2980399383E-13  -0.3218821203E-13  -0.1838579708E-15   0.4125000006E-01  -0.2063375003E-01  -0.2063375003E-01  -0.2845174570E-14   0.2426384466E-14  -0.1650826793E-14   0.4375000006E+01
   0.1041250000E+01   0.9793662500E+00   0.9793662500E+00  -0.2250000000E-02   0.1122750000E-02   0.1122750000E-02   0.4350000000E-01  -0.2175650000E-01  -0.2175650000E-01  -0.4375000006E+01   0.1350813335E-11   0.1342592813E-11  -0.1149549362E-13  -0.1792785301E-13  -0.3055666704E-14   0.4125000005E-01  -0.2063375003E-01  -0.2063375003E-01  -0.1864490462E-14  -0.2277441717E-14  -0.1119583443E-14   0.4375000006E+01
   0.0000000000E+00   0.9793662500E+00   0.9793662500E+00   0.0000000000E+00   0.1122750000E-02   0.1122750000E-02   0.0000000000E+00  -0.2175650000E-01  -0.2175650000E-01  -0.4375000006E+01   0.7956147827E-10   0.7956527871E-10  -0.3063475872E-13  -0.1675560813E-13  -0.2717097708E-15   0.4125000006E-01  -0.2063375003E-01  -0.2063375003E-01  -0.2118004200E-14  -0.4465106266E-15   0.2566437856E-14   0.4375000006E+01
   0.2082500000E+01   0.0000000000E+00  -0.1903256708E-14  -0.4500000000E-02   0.0000000000E+00  -0.4124876325E-17   0.8700000000E-01   0.0000000000E+00  -0.1899131832E-14  -0.4375000007E+01   0.4661920833E-11   0.4672435975E-11   0.3955487027E-13   0.3470228425E-13   0.6531567200E-14   0.4125000006E-01  -0.2063375003E-01  -0.2063375003E-01  -0.4096221106E-14   0.2138713335E-14  -0.3001155381E-14   0.4375000007E+01
   0.2082500000E+01   0.9793662500E+00  -0.3399622919E-14  -0.4500000000E-02   0.1122750000E-02  -0.3579084422E-17   0.8700000000E-01  -0.2175650000E-01  -0.3396043834E-14  -0.4375000006E+01  -0.2144585429E-09  -0.2144670039E-09  -0.1293284113E-13   0.2416265041E-13   0.2521529952E-14   0.4125000006E-01  -0.2063375003E-01  -0.2063375003E-01  -0.5660191562E-14  -0.1018937518E-15   0.1453865335E-14   0.4375000006E+01
   0.2082500000E+01   0.0000000000E+00   0.9793662500E+00  -0.4500000000E-02   0.0000000000E+00   0.1122750000E-02   0.8700000000E-01   0.0000000000E+00  -0.2175650000E-01  -0.4375000006E+01  -0.1020563461E-09  -0.1020441578E-09   0.1880699209E-13  -0.6050328843E-14  -0.1433806927E-14   0.4125000006E-01  -0.2063375003E-01  -0.2063375003E-01   0.7287759885E-16  -0.5159857699E-14   0.2579681460E-15   0.4375000006E+01
   0.2082500000E+01   0.9793662500E+00   0.9793662500E+00  -0.4500000000E-02   0.1122750000E-02   0.1122750000E-02   0.8700000000E-01  -0.2175650000E-01  -0.2175650000E-01  -0.4375000005E+01   0.2169127767E-09   0.2169158004E-09  -0.3488996247E-13  -0.2684539114E-13  -0.4503898171E-14   0.4125000005E-01  -0.2063375003E-01  -0.2063375003E-01   0.4052750552E-14   0.1608642346E-14   0.4663995553E-14   0.4375000006E+01
     1     2     3     4     5     6     7     8
     2     9    10     3     6    11    12     7
 VARIABLES = X,Y,Z,DU1,DU2,DU3,U1,U2,U3,S11,S22,S33,S12,S13,S23,E11,E22,E33,E12,E13,E23,SMISES
 ZONE, T="0.3800D+01" F=FEPOINT, I=   12 J=    2 ET=BRICK
   0.0000000000E+00   0.0000000000E+00   0.0000000000E+00   0.0000000000E+00   0.0000000000E+00   0.0000000000E+00   0.0000000000E+00   0.0000000000E+00   0.0000000000E+00  -0.5500000009E+01  -0.3387033381E-09  -0.3386865605E-09   0.1102716814E-15   0.2532438159E-13   0.4534106224E-14   0.3900000006E-01  -0.1951100003E-01  -0.1951100003E-01  -0.3089934986E-17  -0.7103480362E-14  -0.5898812381E-14   0.5500000009E+01
   0.1039000000E+01   0.0000000000E+00  -0.2681333990E-14  -0.2250000000E-02   0.0000000000E+00   0.4897226143E-17   0.4125000000E-01   0.0000000000E+00  -0.2686231216E-14  -0.5500000008E+01   0.1044049380E-09   0.1043920064E-09   0.1505995599E-13   0.9465694547E-14   0.1483583891E-16   0.3900000006E-01  -0.1951100003E-01  -0.1951100003E-01   0.2214268201E-14   0.1761966038E-14   0.8143874460E-15   0.5500000008E+01
   0.1039000000E+01   0.9804890000E+00  -0.2275044496E-14  -0.2250000000E-02   0.1122750000E-02   0.5826492264E-17   0.4125000000E-01  -0.2063375000E-01  -0.2280870988E-14  -0.5500000008E+01  -0.8085147134E-10  -0.8085866544E-10  -0.2454739716E-13   0.2374206438E-13  -0.2968104578E-14   0.3900000006E-01  -0.1951100003E-01  -0.1951100003E-01   0.2426972732E-14  -0.1818380669E-14   0.1305121152E-14   0.5500000008E+01
   0.0000000000E+00   0.9804890000E+00  -0.2952198992E-14   0.0000000000E+00   0.1122750000E-02   0.4538833900E-18   0.0000000000E+00  -0.2063375000E-01  -0.2952652876E-14  -0.5500000008E+01   0.7555222451E-10   0.7555483937E-10  -0.2626464945E-13   0.1859230076E-13   0.4863812815E-14   0.3900000006E-01  -0.1951100003E-01  -0.1951100003E-01   0.2008859663E-14   0.2244085141E-14  -0.2907613239E-14   0.5500000008E+01
   0.0000000000E+00   0.0000000000E+00   0.9804890000E+00   0.0000000000E+00   0.0000000000E+00   0.1122750000E-02   0.0000000000E+00   0.0000000000E+00  -0.2063375000E-01  -0.5500000008E+01   0.3055778330E-10   0.3057182665E-10   0.5503264887E-16  -0.1786168504E-13  -0.5060773955E-15   0.3900000006E-01  -0.1951100003E-01  -0.1951100003E-01  -0.1830299050E-17   0.1549852846E-14  -0.4073104168E-15   0.5500000008E+01
   0.1039000000E+01   0.0000000000E+00   0.9804890000E+00  -0.2250000000E-02   0.0000000000E+00   0.1122750000E-02   0.4125000000E-01   0.0000000000E+00  -0.2063375000E-01  -0.5500000008E+01   0.9996618415E-10   0.9996593527E-10   0.2929266677E-13  -0.3182976066E-13   0.2509771721E-15   0.3900000006E-01  -0.1951100003E-01  -0.1951100003E-01  -0.2846356266E-14   0.2454127752E-14  -0.1626672094E-14   0.5500000008E+01
   0.1039000000E+01   0.9804890000E+00   0.9804890000E+00  -0.2250000000E-02   0.1122750000E-02   0.1122750000E-02   0.4125000000E-01  -0.2063375000E-01  -0.2063375000E-01  -0.5500000007E+01   0.8708163590E-12   0.8631672818E-12  -0.1188615530E-13  -0.1771223281E-13  -0.3173293593E-14   0.3900000005E-01  -0.1951100003E-01  -0.1951100003E-01  -0.1887434814E-14  -0.2288340402E-14  -0.1122707266E-14   0.5500000007E+01
   0.0000000000E+00   0.9804890000E+00   0.9804890000E+00   0.0000000000E+00   0.1122750000E-02   0.1122750000E-02   0.0000000000E+00  -0.2063375000E-01  -0.2063375000E-01  -0.5500000007E+01   0.7887281611E-10   0.7887673174E-10  -0.3059956087E-13  -0.1602298284E-13  -0.5143675825E-15   0.3900000005E-01  -0.1951100003E-01  -0.1951100003E-01  -0.2107696123E-14  -0.4471018322E-15   0.2581701261E-14   0.5500000007E+01
   0.2078000000E+01   0.0000000000E+00  -0.1879844280E-14  -0.4500000000E-02   0.0000000000E+00   0.2341242831E-16   0.8250000000E-01   0.0000000000E+00  -0.1903256708E-14  -0.5500000008E+01   0.5065688367E-11   0.5075533194E-11   0.4045301393E-13   0.3443724471E-13   0.6576902821E-14   0.3900000006E-01  -0.1951100003E-01  -0.1951100003E-01  -0.4104950354E-14   0.2099600769E-14  -0.2987749131E-14   0.5500000008E+01
   0.2078000000E+01   0.9804890000E+00  -0.3375784189E-14  -0.4500000000E-02   0.1122750000E-02   0.2383872926E-16   0.8250000000E-01  -0.2063375000E-01  -0.3399622919E-14  -0.5500000008E+01  -0.2134051493E-09  -0.2134132616E-09  -0.1241576753E-13   0.2300126575E-13   0.2250622222E-14   0.3900000005E-01  -0.1951100003E-01  -0.1951100003E-01  -0.5646652451E-14  -0.8389146994E-16   0.1443242457E-14   0.5500000008E+01
   0.2078000000E+01   0.0000000000E+00   0.9804890000E+00  -0.4500000000E-02   0.0000000000E+00   0.1122750000E-02   0.8250000000E-01   0.0000000000E+00  -0.2063375000E-01  -0.5500000008E+01  -0.1032821722E-09  -0.1032698370E-09   0.1929029053E-13  -0.6349641167E-14  -0.9471534254E-15   0.3900000005E-01  -0.1951100003E-01  -0.1951100003E-01   0.7647910982E-16  -0.5132202233E-14   0.2480563858E-15   0.5500000008E+01
   0.2078000000E+01   0.9804890000E+00   0.9804890000E+00  -0.4500000000E-02   0.1122750000E-02   0.1122750000E-02   0.8250000000E-01  -0.2063375000E-01  -0.2063375000E-01  -0.5500000007E+01   0.2165003727E-09   0.2165036687E-09  -0.3457553860E-13  -0.2807412477E-13  -0.4406571054E-14   0.3900000005E-01  -0.1951100002E-01  -0.1951100002E-01   0.4064253409E-14   0.1623176157E-14   0.4706570944E-14   0.5500000007E+01
     1     2     3     4     5     6     7     8
     2     9    10     3     6    11    12     7
 VARIABLES = X,Y,Z,DU1,DU2,DU3,U1,U2,U3,S11,S22,S33,S12,S13,S23,E11,E22,E33,E12,E13,E23,SMISES
 ZONE, T="0.3850D+01" F=FEPOINT, I=   12 J=    2 ET=BRICK
   0.0000000000E+00   0.0000000000E+00   0.0000000000E+00   0.0000000000E+00   0.0000000000E+00   0.0000000000E+00   0.0000000000E+00   0.0000000000E+00   0.0000000000E+00  -0.6625000011E+01  -0.3387571867E-09  -0.3387412120E-09   0.1089294197E-15   0.2509681220E-13   0.4498169837E-14   0.3675000006E-01  -0.1838825003E-01  -0.1838825003E-01  -0.6689922814E-19  -0.7112829349E-14  -0.5898642463E-14   0.6625000010E+01
   0.1036750000E+01   0.0000000000E+00  -0.2681978833E-14  -0.2250000000E-02   0.0000000000E+00  -0.6448437012E-18   0.3900000000E-01   0.0000000000E+00  -0.2681333990E-14  -0.6625000010E+01   0.1046333572E-09   0.1046207883E-09   0.1505852149E-13   0.9409204513E-14   0.2072341017E-15   0.3675000006E-01  -0.1838825003E-01  -0.1838825003E-01   0.2200767384E-14   0.1772788125E-14   0.8181835004E-15   0.6625000010E+01
   0.1036750000E+01   0.9816117500E+00  -0.2274625732E-14  -0.2250000000E-02   0.1122750000E-02   0.4187640647E-18   0.3900000000E-01  -0.1951100000E-01  -0.2275044496E-14  -0.6625000010E+01  -0.8104642700E-10  -0.8105320676E-10  -0.2461740789E-13   0.2365325646E-13  -0.2552225000E-14   0.3675000005E-01  -0.1838825003E-01  -0.1838825003E-01   0.2419295990E-14  -0.1812007245E-14   0.1321857556E-14   0.6625000009E+01
   0.0000000000E+00   0.9816117500E+00  -0.2952235023E-14   0.0000000000E+00   0.1122750000E-02  -0.3603106345E-19   0.0000000000E+00  -0.1951100000E-01  -0.2952198992E-14  -0.6625000010E+01   0.7587441323E-10   0.7587619941E-10  -0.2683427771E-13   0.1865246589E-13   0.4460188997E-14   0.3675000005E-01  -0.1838825003E-01  -0.1838825003E-01   0.1999846779E-14   0.2243344218E-14  -0.2928501068E-14   0.6625000010E+01
   0.0000000000E+00   0.0000000000E+00   0.9816117500E+00   0.0000000000E+00   0.0000000000E+00   0.1122750000E-02   0.0000000000E+00   0.0000000000E+00  -0.1951100000E-01  -0.6625000010E+01   0.3050332710E-10   0.3051710233E-10   0.6553699457E-16  -0.1784303678E-13  -0.3475417921E-15   0.3675000005E-01  -0.1838825003E-01  -0.1838825003E-01   0.8831282344E-17   0.1545951681E-14  -0.4037250241E-15   0.6625000010E+01
   0.1036750000E+01   0.0000000000E+00   0.9816117500E+00  -0.2250000000E-02   0.0000000000E+00   0.1122750000E-02   0.3900000000E-01   0.0000000000E+00  -0.1951100000E-01  -0.6625000009E+01   0.9981802172E-10   0.9981797603E-10   0.2917498671E-13  -0.3166977949E-13   0.2906293964E-15   0.3675000005E-01  -0.1838825003E-01  -0.1838825003E-01  -0.2861438855E-14   0.2446453571E-14  -0.1622888388E-14   0.6625000009E+01
   0.1036750000E+01   0.9816117500E+00   0.9816117500E+00  -0.2250000000E-02   0.1122750000E-02   0.1122750000E-02   0.3900000000E-01  -0.1951100000E-01  -0.1951100000E-01  -0.6625000009E+01   0.1111873008E-11   0.1103901753E-11  -0.1218931113E-13  -0.1782621293E-13  -0.2778266979E-14   0.3675000005E-01  -0.1838825002E-01  -0.1838825002E-01  -0.1893968691E-14  -0.2284330259E-14  -0.1117264514E-14   0.6625000009E+01
   0.0000000000E+00   0.9816117500E+00   0.9816117500E+00   0.0000000000E+00   0.1122750000E-02   0.1122750000E-02   0.0000000000E+00  -0.1951100000E-01  -0.1951100000E-01  -0.6625000009E+01   0.7862759472E-10   0.7863150491E-10  -0.3002515420E-13  -0.1603722718E-13  -0.7036120457E-15   0.3675000005E-01  -0.1838825002E-01  -0.1838825002E-01  -0.2092693469E-14  -0.4455068358E-15   0.2570982349E-14   0.6625000009E+01
   0.2073500000E+01   0.0000000000E+00  -0.1877824932E-14  -0.4500000000E-02   0.0000000000E+00   0.2019347570E-17   0.7800000000E-01   0.0000000000E+00  -0.1879844280E-14  -0.6625000010E+01   0.5788946793E-11   0.5797796405E-11   0.3888856359E-13   0.3314844876E-13   0.6494064188E-14   0.3675000006E-01  -0.1838825003E-01  -0.1838825003E-01  -0.4090368759E-14   0.2140473774E-14  -0.2998979530E-14   0.6625000010E+01
   0.2073500000E+01   0.9816117500E+00  -0.3374117481E-14  -0.4500000000E-02   0.1122750000E-02   0.1666708922E-17   0.7800000000E-01  -0.1951100000E-01  -0.3375784189E-14  -0.6625000009E+01  -0.2137409874E-09  -0.2137497876E-09  -0.1343427071E-13   0.2445022910E-13   0.1444806104E-14   0.3675000005E-01  -0.1838825003E-01  -0.1838825003E-01  -0.5664811850E-14  -0.4169994821E-17   0.1453460551E-14   0.6625000009E+01
   0.2073500000E+01   0.0000000000E+00   0.9816117500E+00  -0.4500000000E-02   0.0000000000E+00   0.1122750000E-02   0.7800000000E-01   0.0000000000E+00  -0.1951100000E-01  -0.6625000009E+01  -0.1041802862E-09  -0.1041676233E-09   0.2101891634E-13  -0.8353768811E-14  -0.9158041341E-15   0.3675000005E-01  -0.1838825003E-01  -0.1838825003E-01   0.6237693273E-16  -0.5099533447E-14   0.2421666833E-15   0.6625000009E+01
   0.2073500000E+01   0.9816117500E+00   0.9816117500E+00  -0.4500000000E-02   0.1122750000E-02   0.1122750000E-02   0.7800000000E-01  -0.1951100000E-01  -0.1951100000E-01  -0.6625000008E+01   0.2167328449E-09   0.2167376411E-09  -0.3376094474E-13  -0.2665177965E-13  -0.5300520052E-14   0.3675000005E-01  -0.1838825002E-01  -0.1838825002E-01   0.4089368015E-14   0.1645214008E-14   0.4699151573E-14   0.6625000008E+01
     1     2     3     4     5     6     7     8
     2     9    10     3     6    11    12     7
 VARIABLES = X,Y,Z,DU1,DU2,DU3,U1,U2,U3,S11,S22,S33,S12,S13,S23,E11,E22,E33,E12,E13,E23,SMISES
 ZONE, T="0.3900D+01" F=FEPOINT, I=   12 J=    2 ET=BRICK
   0.0000000000E+00   0.0000000000E+00   0.0000000000E+00   0.0000000000E+00   0.0000000000E+00   0.0000000000E+00   0.0000000000E+00   0.0000000000E+00   0.0000000000E+00  -0.7750000013E+01  -0.3413064886E-09  -0.3413582070E-09   0.1084922045E-15   0.2835968376E-14  -0.1111840766E-12   0.2950000005E-01  -0.1476550002E-01  -0.1476550002E-01  -0.2617490297E-18  -0.7190194548E-14  -0.7477236093E-14   0.7750000012E+01
   0.1029500000E+01   0.0000000000E+00  -0.2392629242E-14  -0.7250000000E-02   0.0000000000E+00   0.2893495913E-15   0.3675000000E-01   0.0000000000E+00  -0.2681978833E-14  -0.7750000012E+01   0.1185097626E-09   0.1185756956E-09   0.1528979136E-13  -0.3183330034E-13  -0.3960556743E-13   0.2950000005E-01  -0.1476550002E-01  -0.1476550002E-01   0.2202088689E-14   0.1163051583E-14   0.2075243046E-15   0.7750000012E+01
   0.1029500000E+01   0.9852345000E+00  -0.2291853840E-14  -0.7250000000E-02   0.3622750000E-02  -0.1722810860E-16   0.3675000000E-01  -0.1838825000E-01  -0.2274625732E-14  -0.7750000011E+01  -0.4923619084E-10  -0.4919406722E-10   0.2670192284E-14   0.5191777314E-13   0.3082234554E-13   0.2950000004E-01  -0.1476550002E-01  -0.1476550002E-01   0.2699530701E-14  -0.1283095397E-14   0.1766368005E-14   0.7750000011E+01
   0.0000000000E+00   0.9852345000E+00  -0.3735527926E-14   0.0000000000E+00   0.3622750000E-02  -0.7832929031E-15   0.0000000000E+00  -0.1838825000E-01  -0.2952235023E-14  -0.7750000011E+01   0.1201186963E-09   0.1202669040E-09  -0.3077528187E-13   0.8468846124E-13  -0.1113974669E-13   0.2950000004E-01  -0.1476550002E-01  -0.1476550002E-01   0.1796952379E-14   0.3232238479E-14  -0.3065625744E-14   0.7750000011E+01
   0.0000000000E+00   0.0000000000E+00   0.9852345000E+00   0.0000000000E+00   0.0000000000E+00   0.3622750000E-02   0.0000000000E+00   0.0000000000E+00  -0.1838825000E-01  -0.7750000011E+01  -0.3818418769E-10  -0.3843700195E-10   0.6627471775E-16   0.6354724406E-13  -0.1065869861E-13   0.2950000004E-01  -0.1476550002E-01  -0.1476550002E-01  -0.2537402039E-17   0.2683918225E-14  -0.5404960780E-15   0.7750000011E+01
   0.1029500000E+01   0.0000000000E+00   0.9852345000E+00  -0.7250000000E-02   0.0000000000E+00   0.3622750000E-02   0.3675000000E-01   0.0000000000E+00  -0.1838825000E-01  -0.7750000011E+01   0.9371790489E-10   0.9364879645E-10   0.4805602414E-13  -0.4696385758E-13  -0.5328997504E-13   0.2950000004E-01  -0.1476550002E-01  -0.1476550002E-01  -0.2393269411E-14   0.2029944165E-14  -0.2381195176E-14   0.7750000011E+01
   0.1029500000E+01   0.9852345000E+00   0.9852345000E+00  -0.7250000000E-02   0.3622750000E-02   0.3622750000E-02   0.3675000000E-01  -0.1838825000E-01  -0.1838825000E-01  -0.7750000010E+01  -0.3097233478E-10  -0.3107623748E-10  -0.3213071504E-13   0.5552682449E-14   0.1674802551E-13   0.2950000004E-01  -0.1476550002E-01  -0.1476550002E-01  -0.2185632757E-14  -0.1886840350E-14  -0.8188398134E-15   0.7750000010E+01
   0.0000000000E+00   0.9852345000E+00   0.9852345000E+00   0.0000000000E+00   0.3622750000E-02   0.3622750000E-02   0.0000000000E+00  -0.1838825000E-01  -0.1838825000E-01  -0.7750000010E+01   0.1069917569E-09   0.1069406734E-09  -0.4151047169E-13  -0.9565682321E-14   0.8919455808E-13   0.2950000004E-01  -0.1476550002E-01  -0.1476550002E-01  -0.2314183550E-14  -0.4086559733E-15   0.3848996033E-14   0.7750000010E+01
   0.2059000000E+01   0.0000000000E+00   0.1252287075E-16  -0.1450000000E-01   0.0000000000E+00   0.1890347803E-14   0.7350000000E-01   0.0000000000E+00  -0.1877824932E-14  -0.7750000012E+01   0.8851370554E-11   0.8791816243E-11   0.1021165801E-12   0.7999481884E-13  -0.7166859208E-14   0.2950000004E-01  -0.1476550002E-01  -0.1476550002E-01  -0.2940979822E-14   0.2897333954E-14  -0.3110656270E-14   0.7750000012E+01
   0.2059000000E+01   0.9852345000E+00  -0.1539346695E-14  -0.1450000000E-01   0.3622750000E-02   0.1834770785E-14   0.7350000000E-01  -0.1838825000E-01  -0.3374117481E-14  -0.7750000011E+01  -0.1275778326E-09  -0.1275685055E-09   0.1075979616E-12  -0.4535067888E-13  -0.4398235605E-13   0.2950000004E-01  -0.1476550002E-01  -0.1476550002E-01  -0.3778763941E-14  -0.1035173179E-14   0.7583125638E-15   0.7750000011E+01
   0.2059000000E+01   0.0000000000E+00   0.9852345000E+00  -0.1450000000E-01   0.0000000000E+00   0.3622750000E-02   0.7350000000E-01   0.0000000000E+00  -0.1838825000E-01  -0.7750000011E+01  -0.1296736823E-09  -0.1296669858E-09  -0.4766213866E-13  -0.1164050421E-13   0.2863098419E-13   0.2950000004E-01  -0.1476550002E-01  -0.1476550002E-01  -0.8939439514E-15  -0.5063399508E-14   0.6855371220E-15   0.7750000011E+01
   0.2059000000E+01   0.9852345000E+00   0.9852345000E+00  -0.1450000000E-01   0.3622750000E-02   0.3622750000E-02   0.7350000000E-01  -0.1838825000E-01  -0.1838825000E-01  -0.7750000010E+01   0.1362877805E-09   0.1363741974E-09  -0.1680441231E-12  -0.4726891148E-13  -0.7234315360E-14   0.2950000004E-01  -0.1476550002E-01  -0.1476550002E-01   0.1883716767E-14   0.1230509232E-14   0.4518860213E-14   0.7750000010E+01
     1     2     3     4     5     6     7     8
     2     9    10     3     6    11    12     7
 VARIABLES = X,Y,Z,DU1,DU2,DU3,U1,U2,U3,S11,S22,S33,S12,S13,S23,E11,E22,E33,E12,E13,E23,SMISES
 ZONE, T="0.3950D+01" F=FEPOINT, I=   12 J=    2 ET=BRICK
   0.0000000000E+00   0.0000000000E+00   0.0000000000E+00   0.0000000000E+00   0.0000000000E+00   0.0000000000E+00   0.0000000000E+00   0.0000000000E+00   0.0000000000E+00  -0.8875000012E+01   0.1890671661E-08   0.1891313150E-08   0.7798438803E-16   0.1798264626E-11   0.7686293632E-12   0.4750000007E-02  -0.2392750004E-02  -0.2392750004E-02   0.3045347606E-17   0.3691044674E-13   0.1303461218E-13   0.8875000014E+01
   0.1004750000E+01   0.0000000000E+00   0.2155694799E-13  -0.2475000000E-01   0.0000000000E+00   0.2394957723E-13   0.2950000000E-01   0.0000000000E+00  -0.2392629242E-14  -0.8875000013E+01   0.7401915425E-09   0.7401507756E-09   0.2428444574E-13  -0.2567726090E-12  -0.8946205021E-13   0.4750000007E-02  -0.2392750004E-02  -0.2392750004E-02   0.2387445149E-14  -0.4863709535E-14  -0.1552697424E-14   0.8875000014E+01
   0.1004750000E+01   0.9976072500E+00   0.2078050722E-13  -0.2475000000E-01   0.1237275000E-01   0.2307236106E-13   0.2950000000E-01  -0.1476550000E-01  -0.2291853840E-14  -0.8875000012E+01   0.5892350583E-09   0.5893071774E-09  -0.1167441076E-12  -0.2613504446E-12  -0.1539809711E-13   0.4750000007E-02  -0.2392750003E-02  -0.2392750003E-02  -0.4435822338E-15  -0.7992069715E-14   0.8839517641E-15   0.8875000013E+01
   0.0000000000E+00   0.9976072500E+00   0.6516394711E-14   0.0000000000E+00   0.1237275000E-01   0.1025192264E-13   0.0000000000E+00  -0.1476550000E-01  -0.3735527926E-14  -0.8875000011E+01   0.1497624845E-08   0.1496633178E-08  -0.4618694219E-12   0.6209370489E-12   0.4555364256E-12   0.4750000007E-02  -0.2392750003E-02  -0.2392750003E-02  -0.9186208811E-14   0.1696911500E-13   0.8340560614E-14   0.8875000013E+01
   0.0000000000E+00   0.0000000000E+00   0.9976072500E+00   0.0000000000E+00   0.0000000000E+00   0.1237275000E-01   0.0000000000E+00   0.0000000000E+00  -0.1476550000E-01  -0.8875000014E+01  -0.1293679642E-08  -0.1292410064E-08   0.1295969734E-15   0.8491579166E-12  -0.4786893372E-13   0.4750000007E-02  -0.2392750003E-02  -0.2392750003E-02   0.7049339452E-17   0.2219182119E-13  -0.1543091086E-14   0.8875000013E+01
   0.1004750000E+01   0.0000000000E+00   0.9976072500E+00  -0.2475000000E-01   0.0000000000E+00   0.1237275000E-01   0.2950000000E-01   0.0000000000E+00  -0.1476550000E-01  -0.8875000013E+01  -0.7181652874E-09  -0.7183508975E-09   0.2405199230E-12  -0.4472443721E-12  -0.3439515184E-13   0.4750000007E-02  -0.2392750003E-02  -0.2392750003E-02   0.3118092052E-14  -0.8417480974E-14  -0.2396282865E-14   0.8875000013E+01
   0.1004750000E+01   0.9976072500E+00   0.9976072500E+00  -0.2475000000E-01   0.1237275000E-01   0.1237275000E-01   0.2950000000E-01  -0.1476550000E-01  -0.1476550000E-01  -0.8875000013E+01  -0.9296985915E-09  -0.9297776852E-09   0.2165405718E-12  -0.3270308578E-12   0.3963788366E-13   0.4750000006E-02  -0.2392750003E-02  -0.2392750003E-02   0.3613481215E-14  -0.9711821652E-14   0.4718199051E-16   0.8875000012E+01
   0.0000000000E+00   0.9976072500E+00   0.9976072500E+00   0.0000000000E+00   0.1237275000E-01   0.1237275000E-01   0.0000000000E+00  -0.1476550000E-01  -0.1476550000E-01  -0.8875000013E+01  -0.1618133881E-08  -0.1618498694E-08   0.6099303634E-13   0.9186915339E-12  -0.3619418659E-12   0.4750000006E-02  -0.2392750003E-02  -0.2392750003E-02  -0.1607205568E-15   0.2192498644E-13  -0.6218147948E-14   0.8875000012E+01
   0.2009500000E+01   0.0000000000E+00   0.5553262059E-13  -0.4950000000E-01   0.0000000000E+00   0.5552009772E-13   0.5900000000E-01   0.0000000000E+00   0.1252287075E-16  -0.8875000013E+01   0.5613331751E-09   0.5617853472E-09  -0.7655280070E-13  -0.1013839555E-12   0.3297764126E-12   0.4750000007E-02  -0.2392750004E-02  -0.2392750004E-02  -0.5586550177E-14  -0.6399016711E-15   0.5239901471E-14   0.8875000013E+01
   0.2009500000E+01   0.9976072500E+00   0.5815487655E-13  -0.4950000000E-01   0.1237275000E-01   0.5969422324E-13   0.5900000000E-01  -0.1476550000E-01  -0.1539346695E-14  -0.8875000013E+01  -0.3343300459E-09  -0.3350252895E-09   0.1030157642E-12   0.3728069850E-12   0.2493317261E-12   0.4750000007E-02  -0.2392750003E-02  -0.2392750003E-02  -0.2059665209E-14   0.8507671676E-14   0.7181812209E-14   0.8875000012E+01
   0.2009500000E+01   0.0000000000E+00   0.9976072500E+00  -0.4950000000E-01   0.0000000000E+00   0.1237275000E-01   0.5900000000E-01   0.0000000000E+00  -0.1476550000E-01  -0.8875000012E+01   0.5109733330E-09   0.5115821209E-09  -0.3421704436E-12   0.4710163673E-12  -0.2433255590E-12   0.4750000007E-02  -0.2392750003E-02  -0.2392750003E-02  -0.8527098145E-14   0.6865493433E-14  -0.5567219675E-14   0.8875000012E+01
   0.2009500000E+01   0.9976072500E+00   0.9976072500E+00  -0.4950000000E-01   0.1237275000E-01   0.1237275000E-01   0.5900000000E-01  -0.1476550000E-01  -0.1476550000E-01  -0.8875000012E+01  -0.5744176447E-09  -0.5749516248E-09  -0.4518264208E-12  -0.6098546281E-13  -0.3225184453E-12   0.4750000006E-02  -0.2392750003E-02  -0.2392750003E-02  -0.7398159473E-14   0.1835063014E-15  -0.3652080279E-14   0.8875000011E+01
     1     2     3     4     5     6     7     8
     2     9    10     3     6    11    12     7
 VARIABLES = X,Y,Z,DU1,DU2,DU3,U1,U2,U3,S11,S22,S33,S12,S13,S23,E11,E22,E33,E12,E13,E23,SMISES
 ZONE, T="0.4000D+01" F=FEPOINT, I=   12 J=    2 ET=BRICK
   0.0000000000E+00   0.0000000000E+00   0.0000000000E+00   0.0000000000E+00   0.0000000000E+00   0.0000000000E+00   0.0000000000E+00   0.0000000000E+00   0.0000000000E+00  -0.1000000002E+02   0.6216191595E-09   0.6215614043E-09  -0.7058628140E-18  -0.8283357671E-13   0.1962226078E-13  -0.2000000003E-01   0.9980000016E-02   0.9980000016E-02  -0.1151154875E-17   0.1179247862E-13   0.3905501591E-14   0.1000000002E+02
   0.9800000000E+00   0.0000000000E+00   0.7271208961E-14  -0.2475000000E-01   0.0000000000E+00  -0.1428573903E-13   0.4750000000E-02   0.0000000000E+00   0.2155694799E-13  -0.1000000002E+02   0.3285032374E-09   0.3284685101E-09  -0.2481313438E-13   0.2699961430E-13   0.1867063117E-13  -0.2000000003E-01   0.9980000015E-02   0.9980000015E-02   0.1281090199E-14  -0.9409925090E-15   0.1952178812E-16   0.1000000002E+02
   0.9800000000E+00   0.1009980000E+01   0.7280794142E-14  -0.2475000000E-01   0.1237275000E-01  -0.1349971308E-13   0.4750000000E-02  -0.2392750000E-02   0.2078050722E-13  -0.1000000001E+02   0.1882050406E-09   0.1881669689E-09  -0.1393128377E-13   0.2958331737E-13  -0.1710898101E-13  -0.2000000003E-01   0.9980000014E-02   0.9980000014E-02   0.5180483588E-15  -0.3653821807E-14   0.5405285812E-15   0.1000000001E+02
   0.0000000000E+00   0.1009980000E+01   0.1951941497E-14   0.0000000000E+00   0.1237275000E-01  -0.4564453214E-14   0.0000000000E+00  -0.2392750000E-02   0.6516394711E-14  -0.1000000001E+02   0.5794153442E-09   0.5793751529E-09   0.1706253117E-13  -0.8301068780E-13  -0.3008327550E-13  -0.2000000003E-01   0.9980000015E-02   0.9980000015E-02  -0.2868721447E-14   0.6562714736E-14   0.1859470747E-14   0.1000000001E+02
   0.0000000000E+00   0.0000000000E+00   0.1009980000E+01   0.0000000000E+00   0.0000000000E+00   0.1237275000E-01   0.0000000000E+00   0.0000000000E+00  -0.2392750000E-02  -0.1000000002E+02  -0.4761503677E-09  -0.4761087817E-09  -0.2267518459E-16  -0.5376799521E-13   0.2833671151E-13  -0.2000000003E-01   0.9980000015E-02   0.9980000015E-02  -0.9050553650E-18   0.9492758344E-14  -0.1882829480E-15   0.1000000001E+02
   0.9800000000E+00   0.0000000000E+00   0.1009980000E+01  -0.2475000000E-01   0.0000000000E+00   0.1237275000E-01   0.4750000000E-02   0.0000000000E+00  -0.2392750000E-02  -0.1000000001E+02  -0.2325502248E-09  -0.2325115087E-09  -0.2043486285E-13   0.4935990959E-13   0.1622332457E-13  -0.2000000003E-01   0.9980000014E-02   0.9980000014E-02  -0.2738676686E-15  -0.1549899323E-14  -0.1385913706E-14   0.1000000001E+02
   0.9800000000E+00   0.1009980000E+01   0.1009980000E+01  -0.2475000000E-01   0.1237275000E-01   0.1237275000E-01   0.4750000000E-02  -0.2392750000E-02  -0.2392750000E-02  -0.1000000001E+02  -0.3696795102E-09  -0.3696480223E-09   0.5401261522E-14   0.4407167929E-13  -0.1941758992E-13  -0.2000000003E-01   0.9980000013E-02   0.9980000013E-02   0.1046575119E-14  -0.4141788194E-14  -0.8591467777E-15   0.1000000001E+02
   0.0000000000E+00   0.1009980000E+01   0.1009980000E+01   0.0000000000E+00   0.1237275000E-01   0.1237275000E-01   0.0000000000E+00  -0.2392750000E-02  -0.2392750000E-02  -0.1000000001E+02  -0.6273373600E-09  -0.6272771129E-09   0.3115695481E-13  -0.6690486596E-13  -0.2223599157E-13  -0.2000000003E-01   0.9980000013E-02   0.9980000013E-02  -0.5493490124E-16   0.8192576978E-14  -0.2219375729E-14   0.1000000001E+02
   0.1960000000E+01   0.0000000000E+00   0.2003337943E-13  -0.4950000000E-01   0.0000000000E+00  -0.3549924116E-13   0.9500000000E-02   0.0000000000E+00   0.5553262059E-13  -0.1000000001E+02   0.2461719959E-09   0.2461638885E-09   0.1053255166E-13  -0.6940052190E-14   0.1653850055E-13  -0.2000000003E-01   0.9980000015E-02   0.9980000015E-02  -0.3963188452E-14   0.3512728521E-15   0.1555863953E-14   0.1000000002E+02
   0.1960000000E+01   0.1009980000E+01   0.2081142600E-13  -0.4950000000E-01   0.1237275000E-01  -0.3734345055E-13   0.9500000000E-02  -0.2392750000E-02   0.5815487655E-13  -0.1000000001E+02  -0.2024454956E-09  -0.2024736326E-09   0.1545453201E-13  -0.1394595443E-13  -0.4004834085E-14  -0.2000000003E-01   0.9980000014E-02   0.9980000014E-02  -0.2620008875E-14   0.3331309788E-14   0.3670214284E-14   0.1000000001E+02
   0.1960000000E+01   0.0000000000E+00   0.1009980000E+01  -0.4950000000E-01   0.0000000000E+00   0.1237275000E-01   0.9500000000E-02   0.0000000000E+00  -0.2392750000E-02  -0.1000000001E+02   0.1806531063E-09   0.1806834449E-09   0.7155598554E-14   0.1046766696E-13   0.7088468022E-14  -0.2000000003E-01   0.9980000014E-02   0.9980000014E-02  -0.3804089299E-14   0.1379598616E-14  -0.2220949047E-14   0.1000000001E+02
   0.1960000000E+01   0.1009980000E+01   0.1009980000E+01  -0.4950000000E-01   0.1237275000E-01   0.1237275000E-01   0.9500000000E-02  -0.2392750000E-02  -0.2392750000E-02  -0.1000000001E+02  -0.1526318477E-09  -0.1526188654E-09   0.2684845980E-13  -0.3958906285E-14  -0.1300992972E-13  -0.2000000003E-01   0.9980000013E-02   0.9980000013E-02  -0.1139733722E-14   0.7534813815E-15  -0.1229739687E-15   0.1000000001E+02
     1     2     3     4     5     6     7     8
     2     9    10     3     6    11    12     7
 VARIABLES = X,Y,Z,DU1,DU2,DU3,U1,U2,U3,S11,S22,S33,S12,S13,S23,E11,E22,E33,E12,E13,E23,SMISES
 ZONE, T="0.4050D+01" F=FEPOINT, I=   12 J=    2 ET=BRICK
   0.0000000000E+00   0.0000000000E+00   0.0000000000E+00   0.0000000000E+00   0.0000000000E+00   0.0000000000E+00   0.0000000000E+00   0.0000000000E+00   0.0000000000E+00  -0.8875000014E+01   0.1268325298E-09   0.1264937407E-09  -0.9627924365E-17  -0.1203385098E-11  -0.6893276416E-12  -0.1775000003E-01   0.8857250014E-02   0.8857250014E-02   0.7173595723E-18  -0.1639765592E-14  -0.4602037716E-14   0.8875000014E+01
   0.9822500000E+00   0.0000000000E+00   0.1331181374E-14   0.2250000000E-02   0.0000000000E+00  -0.5940027587E-14  -0.2000000000E-01   0.0000000000E+00   0.7271208961E-14  -0.8875000013E+01   0.2881280407E-09   0.2887827891E-09  -0.1659905301E-12  -0.8531536294E-13   0.1181037290E-13  -0.1775000003E-01   0.8857250014E-02   0.8857250014E-02  -0.4175832824E-15  -0.2277405303E-14  -0.6305536647E-16   0.8875000014E+01
   0.9822500000E+00   0.1008857250E+01   0.1299675422E-14   0.2250000000E-02  -0.1122750000E-02  -0.5981118720E-14  -0.2000000000E-01   0.9980000000E-02   0.7280794142E-14  -0.8875000013E+01  -0.3534752045E-10  -0.3545810837E-10  -0.2876523795E-12   0.2364520375E-12   0.2766482606E-12  -0.1775000003E-01   0.8857250013E-02   0.8857250013E-02  -0.2766892977E-14  -0.1175795541E-14   0.4074927017E-14   0.8875000013E+01
   0.0000000000E+00   0.1008857250E+01  -0.2298825770E-14   0.0000000000E+00  -0.1122750000E-02  -0.4250767267E-14   0.0000000000E+00   0.9980000000E-02   0.1951941497E-14  -0.8875000013E+01   0.2201581988E-09   0.2208187896E-09   0.2834041441E-12  -0.1052468428E-12  -0.2653972404E-12  -0.1775000003E-01   0.8857250013E-02   0.8857250013E-02   0.3292625585E-15   0.6285705411E-14  -0.9484927446E-15   0.8875000013E+01
   0.0000000000E+00   0.0000000000E+00   0.1008857250E+01   0.0000000000E+00   0.0000000000E+00  -0.1122750000E-02   0.0000000000E+00   0.0000000000E+00   0.9980000000E-02  -0.8875000013E+01  -0.3783526948E-09  -0.3795388052E-09  -0.1394048177E-16  -0.2326225964E-12  -0.1900308120E-12  -0.1775000003E-01   0.8857250013E-02   0.8857250013E-02  -0.3308955882E-17   0.7352526134E-14  -0.2795108465E-14   0.8875000013E+01
   0.9822500000E+00   0.0000000000E+00   0.1008857250E+01   0.2250000000E-02   0.0000000000E+00  -0.1122750000E-02  -0.2000000000E-01   0.0000000000E+00   0.9980000000E-02  -0.8875000013E+01   0.9296352771E-10   0.9309129402E-10   0.2480345152E-12  -0.9056753670E-13  -0.3720449403E-12  -0.1775000003E-01   0.8857250013E-02   0.8857250013E-02   0.2954212302E-14  -0.3241141421E-14  -0.6046060127E-14   0.8875000013E+01
   0.9822500000E+00   0.1008857250E+01   0.1008857250E+01   0.2250000000E-02  -0.1122750000E-02  -0.1122750000E-02  -0.2000000000E-01   0.9980000000E-02   0.9980000000E-02  -0.8875000012E+01  -0.1322221359E-09  -0.1328649218E-09   0.2439663320E-12   0.3064254967E-12  -0.1070213824E-12  -0.1775000002E-01   0.8857250012E-02   0.8857250012E-02   0.3903443578E-14  -0.9961514431E-15  -0.1910391514E-14   0.8875000012E+01
   0.0000000000E+00   0.1008857250E+01   0.1008857250E+01   0.0000000000E+00  -0.1122750000E-02  -0.1122750000E-02   0.0000000000E+00   0.9980000000E-02   0.9980000000E-02  -0.8875000012E+01  -0.1349308756E-09  -0.1351178413E-09  -0.1333078850E-13  -0.4968074082E-12   0.2329276136E-12  -0.1775000002E-01   0.8857250012E-02   0.8857250012E-02  -0.5852787187E-15   0.3044500137E-14   0.8244376862E-15   0.8875000012E+01
   0.1964500000E+01   0.0000000000E+00   0.1126806173E-13   0.4500000000E-02   0.0000000000E+00  -0.8765317699E-14  -0.4000000000E-01   0.0000000000E+00   0.2003337943E-13  -0.8875000014E+01  -0.2509436102E-09  -0.2508116109E-09   0.3949062131E-13   0.5148886568E-12  -0.8731524297E-12  -0.1775000003E-01   0.8857250013E-02   0.8857250013E-02  -0.3600244687E-14   0.6548840123E-14  -0.9114085858E-14   0.8875000013E+01
   0.1964500000E+01   0.1008857250E+01   0.6711494228E-14   0.4500000000E-02  -0.1122750000E-02  -0.1409993177E-13  -0.4000000000E-01   0.9980000000E-02   0.2081142600E-13  -0.8875000013E+01  -0.2486760805E-09  -0.2472516321E-09  -0.4869178144E-12  -0.3900321237E-12  -0.2149872637E-12  -0.1775000002E-01   0.8857250012E-02   0.8857250012E-02  -0.8636747008E-14  -0.1131025018E-14   0.1136813475E-14   0.8875000012E+01
   0.1964500000E+01   0.0000000000E+00   0.1008857250E+01   0.4500000000E-02   0.0000000000E+00  -0.1122750000E-02  -0.4000000000E-01   0.0000000000E+00   0.9980000000E-02  -0.8875000012E+01   0.9896160559E-10   0.9777474508E-10   0.4168476235E-12  -0.4636310319E-12  -0.2266915764E-12  -0.1775000002E-01   0.8857250012E-02   0.8857250012E-02   0.1087429589E-14  -0.4316312779E-14  -0.5029737232E-14   0.8875000012E+01
   0.1964500000E+01   0.1008857250E+01   0.1008857250E+01   0.4500000000E-02  -0.1122750000E-02  -0.1122750000E-02  -0.4000000000E-01   0.9980000000E-02   0.9980000000E-02  -0.8875000011E+01   0.1477266255E-09   0.1478335552E-09   0.4211479520E-12   0.1379123886E-12   0.4319294230E-12  -0.1775000002E-01   0.8857250011E-02   0.8857250011E-02   0.3602326018E-14   0.2454010634E-14   0.5215674991E-14   0.8875000011E+01
     1     2     3     4     5     6     7     8
     2     9    10     3     6    11    12     7
 VARIABLES = X,Y,Z,DU1,DU2,DU3,U1,U2,U3,S11,S22,S33,S12,S13,S23,E11,E22,E33,E12,E13,E23,SMISES
 ZONE, T="0.4100D+01" F=FEPOINT, I=   12 J=    2 ET=BRICK
   0.0000000000E+00   0.0000000000E+00   0.0000000000E+00   0.0000000000E+00   0.0000000000E+00   0.0000000000E+00   0.0000000000E+00   0.0000000000E+00   0.0000000000E+00  -0.7750000012E+01   0.6199287303E-09   0.6198717552E-09  -0.2170388304E-17  -0.8355013604E-13   0.1929615925E-13  -0.1550000002E-01   0.7734500012E-02   0.7734500012E-02  -0.2281575397E-17   0.1178268242E-13   0.3898751819E-14   0.7750000012E+01
   0.9845000000E+00   0.0000000000E+00   0.7262612337E-14   0.2250000000E-02   0.0000000000E+00   0.5931430963E-14  -0.1775000000E-01   0.0000000000E+00   0.1331181374E-14  -0.7750000012E+01   0.3276368666E-09   0.3276025674E-09  -0.2348850101E-13   0.2790124294E-13   0.1806933201E-13  -0.1550000002E-01   0.7734500012E-02   0.7734500012E-02   0.1296794556E-14  -0.9151810111E-15   0.1000890824E-16   0.7750000012E+01
   0.9845000000E+00   0.1007734500E+01   0.7268720365E-14   0.2250000000E-02  -0.1122750000E-02   0.5969044943E-14  -0.1775000000E-01   0.8857250000E-02   0.1299675422E-14  -0.7750000011E+01   0.1873828877E-09   0.1873464356E-09  -0.1225668398E-13   0.2807512799E-13  -0.1669064963E-13  -0.1550000002E-01   0.7734500011E-02   0.7734500011E-02   0.5343859261E-15  -0.3690297509E-14   0.5515516184E-15   0.7750000011E+01
   0.0000000000E+00   0.1007734500E+01   0.1950027336E-14   0.0000000000E+00  -0.1122750000E-02   0.4248853107E-14   0.0000000000E+00   0.8857250000E-02  -0.2298825770E-14  -0.7750000011E+01   0.5784903965E-09   0.5784495687E-09   0.1705144840E-13  -0.8417238930E-13  -0.2937492702E-13  -0.1550000002E-01   0.7734500011E-02   0.7734500011E-02  -0.2868114405E-14   0.6550131708E-14   0.1871676686E-14   0.7750000011E+01
   0.0000000000E+00   0.0000000000E+00   0.1007734500E+01   0.0000000000E+00   0.0000000000E+00  -0.1122750000E-02   0.0000000000E+00   0.0000000000E+00   0.8857250000E-02  -0.7750000012E+01  -0.4752074552E-09  -0.4751677812E-09  -0.1769697599E-16  -0.5436383931E-13   0.2751171381E-13  -0.1550000002E-01   0.7734500011E-02   0.7734500011E-02   0.3613583897E-17   0.9499689410E-14  -0.1820642381E-15   0.7750000011E+01
   0.9845000000E+00   0.0000000000E+00   0.1007734500E+01   0.2250000000E-02   0.0000000000E+00  -0.1122750000E-02  -0.1775000000E-01   0.0000000000E+00   0.8857250000E-02  -0.7750000011E+01  -0.2314237830E-09  -0.2313855110E-09  -0.2162689934E-13   0.5020131934E-13   0.1568202820E-13  -0.1550000002E-01   0.7734500011E-02   0.7734500011E-02  -0.2915553258E-15  -0.1572075499E-14  -0.1393250271E-14   0.7750000011E+01
   0.9845000000E+00   0.1007734500E+01   0.1007734500E+01   0.2250000000E-02  -0.1122750000E-02  -0.1122750000E-02  -0.1775000000E-01   0.8857250000E-02   0.8857250000E-02  -0.7750000011E+01  -0.3688298616E-09  -0.3688001123E-09   0.4582614576E-14   0.4313839029E-13  -0.1893950716E-13  -0.1550000002E-01   0.7734500010E-02   0.7734500010E-02   0.1043024296E-14  -0.4124543798E-14  -0.8518443771E-15   0.7750000010E+01
   0.0000000000E+00   0.1007734500E+01   0.1007734500E+01   0.0000000000E+00  -0.1122750000E-02  -0.1122750000E-02   0.0000000000E+00   0.8857250000E-02   0.8857250000E-02  -0.7750000011E+01  -0.6274149031E-09  -0.6273571639E-09   0.3093625896E-13  -0.6720796770E-13  -0.2203515304E-13  -0.1550000002E-01   0.7734500010E-02   0.7734500010E-02  -0.5943717951E-16   0.8178840914E-14  -0.2223247292E-14   0.7750000010E+01
   0.1969000000E+01   0.0000000000E+00   0.1999909097E-13   0.4500000000E-02   0.0000000000E+00   0.8731029243E-14  -0.3550000000E-01   0.0000000000E+00   0.1126806173E-13  -0.7750000011E+01   0.2462761485E-09   0.2462676297E-09   0.1081631785E-13  -0.5203937742E-14   0.1655938348E-13  -0.1550000002E-01   0.7734500012E-02   0.7734500012E-02  -0.3951033181E-14   0.3504523108E-15   0.1556783808E-14   0.7750000012E+01
   0.1969000000E+01   0.1007734500E+01   0.2077721675E-13   0.4500000000E-02  -0.1122750000E-02   0.1406572252E-13  -0.3550000000E-01   0.8857250000E-02   0.6711494228E-14  -0.7750000011E+01  -0.2033939573E-09  -0.2034223460E-09   0.1643366019E-13  -0.1282104008E-13  -0.2963783544E-14  -0.1550000002E-01   0.7734500011E-02   0.7734500011E-02  -0.2594490233E-14   0.3325314539E-14   0.3673040242E-14   0.7750000011E+01
   0.1969000000E+01   0.0000000000E+00   0.1007734500E+01   0.4500000000E-02   0.0000000000E+00  -0.1122750000E-02  -0.3550000000E-01   0.0000000000E+00   0.8857250000E-02  -0.7750000011E+01   0.1823867849E-09   0.1824153521E-09   0.5905718872E-14   0.1209709074E-13   0.6871073416E-14  -0.1550000002E-01   0.7734500011E-02   0.7734500011E-02  -0.3830203915E-14   0.1404643416E-14  -0.2223104308E-14   0.7750000011E+01
   0.1969000000E+01   0.1007734500E+01   0.1007734500E+01   0.4500000000E-02  -0.1122750000E-02  -0.1122750000E-02  -0.3550000000E-01   0.8857250000E-02   0.8857250000E-02  -0.7750000010E+01  -0.1508137912E-09  -0.1508035983E-09   0.2659196341E-13  -0.4023265203E-14  -0.1229297437E-13  -0.1550000002E-01   0.7734500010E-02   0.7734500010E-02  -0.1144014467E-14   0.7645115604E-15  -0.1036471532E-15   0.7750000010E+01
     1     2     3     4     5     6     7     8
     2     9    10     3     6    11    12     7
 VARIABLES = X,Y,Z,DU1,DU2,DU3,U1,U2,U3,S11,S22,S33,S12,S13,S23,E11,E22,E33,E12,E13,E23,SMISES
 ZONE, T="0.4150D+01" F=FEPOINT, I=   12 J=    2 ET=BRICK
   0.0000000000E+00   0.0000000000E+00   0.0000000000E+00   0.0000000000E+00   0.0000000000E+00   0.0000000000E+00   0.0000000000E+00   0.0000000000E+00   0.0000000000E+00  -0.6625000010E+01   0.6205437112E-09   0.6204884827E-09  -0.4092188756E-17  -0.8290419181E-13   0.1968302847E-13  -0.1325000002E-01   0.6611750010E-02   0.6611750010E-02   0.2266473013E-17   0.1179555286E-13   0.3904501023E-14   0.6625000010E+01
   0.9867500000E+00   0.0000000000E+00   0.7265296769E-14   0.2250000000E-02   0.0000000000E+00   0.2684432591E-17  -0.1550000000E-01   0.0000000000E+00   0.7262612337E-14  -0.6625000010E+01   0.3274101370E-09   0.3273751500E-09  -0.2457789266E-13   0.2703762674E-13   0.1776126770E-13  -0.1325000002E-01   0.6611750010E-02   0.6611750010E-02   0.1273921256E-14  -0.9327274510E-15   0.7688142561E-17   0.6625000010E+01
   0.9867500000E+00   0.1006611750E+01   0.7269436501E-14   0.2250000000E-02  -0.1122750000E-02   0.7161364496E-18  -0.1550000000E-01   0.7734500000E-02   0.7268720365E-14  -0.6625000009E+01   0.1876046695E-09   0.1875688241E-09  -0.1313038190E-13   0.2885619861E-13  -0.1720250277E-13  -0.1325000002E-01   0.6611750009E-02   0.6611750009E-02   0.5235369169E-15  -0.3657303493E-14   0.5498410025E-15   0.6625000009E+01
   0.0000000000E+00   0.1006611750E+01   0.1952379064E-14   0.0000000000E+00  -0.1122750000E-02   0.2351727966E-17   0.0000000000E+00   0.7734500000E-02   0.1950027336E-14  -0.6625000009E+01   0.5779635503E-09   0.5779228227E-09   0.1726513215E-13  -0.8453975493E-13  -0.2884718787E-13  -0.1325000002E-01   0.6611750010E-02   0.6611750010E-02  -0.2864309901E-14   0.6532911992E-14   0.1873472060E-14   0.6625000010E+01
   0.0000000000E+00   0.0000000000E+00   0.1006611750E+01   0.0000000000E+00   0.0000000000E+00  -0.1122750000E-02   0.0000000000E+00   0.0000000000E+00   0.7734500000E-02  -0.6625000010E+01  -0.4753711199E-09  -0.4753311535E-09  -0.3042293109E-16  -0.5419995069E-13   0.2766202666E-13  -0.1325000002E-01   0.6611750010E-02   0.6611750010E-02  -0.2265740071E-17   0.9494922544E-14  -0.1849904752E-15   0.6625000010E+01
   0.9867500000E+00   0.0000000000E+00   0.1006611750E+01   0.2250000000E-02   0.0000000000E+00  -0.1122750000E-02  -0.1550000000E-01   0.0000000000E+00   0.7734500000E-02  -0.6625000010E+01  -0.2313550664E-09  -0.2313165724E-09  -0.2097106812E-13   0.4923752632E-13   0.1566371167E-13  -0.1325000002E-01   0.6611750009E-02   0.6611750009E-02  -0.2729735157E-15  -0.1570292754E-14  -0.1396418836E-14   0.6625000009E+01
   0.9867500000E+00   0.1006611750E+01   0.1006611750E+01   0.2250000000E-02  -0.1122750000E-02  -0.1122750000E-02  -0.1550000000E-01   0.7734500000E-02   0.7734500000E-02  -0.6625000009E+01  -0.3689616264E-09  -0.3689308481E-09   0.5319265245E-14   0.4405291864E-13  -0.1908980805E-13  -0.1325000002E-01   0.6611750009E-02   0.6611750009E-02   0.1041947079E-14  -0.4131558574E-14  -0.8597693819E-15   0.6625000009E+01
   0.0000000000E+00   0.1006611750E+01   0.1006611750E+01   0.0000000000E+00  -0.1122750000E-02  -0.1122750000E-02   0.0000000000E+00   0.7734500000E-02   0.7734500000E-02  -0.6625000009E+01  -0.6270985139E-09  -0.6270403089E-09   0.3082263244E-13  -0.6728995325E-13  -0.2186120950E-13  -0.1325000002E-01   0.6611750009E-02   0.6611750009E-02  -0.5555763990E-16   0.8191985980E-14  -0.2213550410E-14   0.6625000009E+01
   0.1973500000E+01   0.0000000000E+00   0.1999883824E-13   0.4500000000E-02   0.0000000000E+00  -0.2527343300E-18  -0.3100000000E-01   0.0000000000E+00   0.1999909097E-13  -0.6625000010E+01   0.2454584036E-09   0.2454509653E-09   0.1194814536E-13  -0.4072068622E-14   0.1673531240E-13  -0.1325000002E-01   0.6611750010E-02   0.6611750010E-02  -0.3931555931E-14   0.3527070560E-15   0.1557195543E-14   0.6625000010E+01
   0.1973500000E+01   0.1006611750E+01   0.2077805187E-13   0.4500000000E-02  -0.1122750000E-02   0.8351190725E-18  -0.3100000000E-01   0.7734500000E-02   0.2077721675E-13  -0.6625000009E+01  -0.2026035316E-09  -0.2026315765E-09   0.1767605769E-13  -0.1387525556E-13  -0.2776840556E-14  -0.1325000002E-01   0.6611750009E-02   0.6611750009E-02  -0.2578642467E-14   0.3341897964E-14   0.3676918908E-14   0.6625000009E+01
   0.1973500000E+01   0.0000000000E+00   0.1006611750E+01   0.4500000000E-02   0.0000000000E+00  -0.1122750000E-02  -0.3100000000E-01   0.0000000000E+00   0.7734500000E-02  -0.6625000009E+01   0.1832140002E-09   0.1832419499E-09   0.4551745015E-14   0.1345971751E-13   0.7147761798E-14  -0.1325000002E-01   0.6611750009E-02   0.6611750009E-02  -0.3849731445E-14   0.1401808383E-14  -0.2223723559E-14   0.6625000009E+01
   0.1973500000E+01   0.1006611750E+01   0.1006611750E+01   0.4500000000E-02  -0.1122750000E-02  -0.1122750000E-02  -0.3100000000E-01   0.7734500000E-02   0.7734500000E-02  -0.6625000009E+01  -0.1513028870E-09  -0.1512922282E-09   0.2546007331E-13  -0.5082328425E-14  -0.1216721426E-13  -0.1325000002E-01   0.6611750008E-02   0.6611750008E-02  -0.1151183354E-14   0.7539718557E-15  -0.1123353024E-15   0.6625000008E+01
     1     2     3     4     5     6     7     8
     2     9    10     3     6    11    12     7
 VARIABLES = X,Y,Z,DU1,DU2,DU3,U1,U2,U3,S11,S22,S33,S12,S13,S23,E11,E22,E33,E12,E13,E23,SMISES
 ZONE, T="0.4200D+01" F=FEPOINT, I=   12 J=    2 ET=BRICK
   0.0000000000E+00   0.0000000000E+00   0.0000000000E+00   0.0000000000E+00   0.0000000000E+00   0.0000000000E+00   0.0000000000E+00   0.0000000000E+00   0.0000000000E+00  -0.5500000008E+01   0.6200067468E-09   0.6199506538E-09  -0.1180305990E-16  -0.8302818230E-13   0.1947154763E-13  -0.1100000002E-01   0.5489000009E-02   0.5489000009E-02  -0.1479551419E-18   0.1179490956E-13   0.3900861959E-14   0.5500000009E+01
   0.9890000000E+00   0.0000000000E+00   0.7265058005E-14   0.2250000000E-02   0.0000000000E+00  -0.2387646076E-18  -0.1325000000E-01   0.0000000000E+00   0.7265296769E-14  -0.5500000008E+01   0.3276022847E-09   0.3275673993E-09  -0.2325980108E-13   0.2761082779E-13   0.1798761742E-13  -0.1100000002E-01   0.5489000008E-02   0.5489000008E-02   0.1292281522E-14  -0.9310669375E-15   0.1105766920E-16   0.5500000008E+01
   0.9890000000E+00   0.1005489000E+01   0.7270706409E-14   0.2250000000E-02  -0.1122750000E-02   0.1269907902E-17  -0.1325000000E-01   0.6611750000E-02   0.7269436501E-14  -0.5500000008E+01   0.1872959906E-09   0.1872598364E-09  -0.1171864485E-13   0.2764578087E-13  -0.1692872720E-13  -0.1100000002E-01   0.5489000008E-02   0.5489000008E-02   0.5402275287E-15  -0.3671028125E-14   0.5405306458E-15   0.5500000008E+01
   0.0000000000E+00   0.1005489000E+01   0.1950982267E-14   0.0000000000E+00  -0.1122750000E-02  -0.1396797264E-17   0.0000000000E+00   0.6611750000E-02   0.1952379064E-14  -0.5500000007E+01   0.5788786628E-09   0.5788378526E-09   0.1699305148E-13  -0.8402687936E-13  -0.2930127739E-13  -0.1100000002E-01   0.5489000008E-02   0.5489000008E-02  -0.2865698595E-14   0.6543625772E-14   0.1875526585E-14   0.5500000008E+01
   0.0000000000E+00   0.0000000000E+00   0.1005489000E+01   0.0000000000E+00   0.0000000000E+00  -0.1122750000E-02   0.0000000000E+00   0.0000000000E+00   0.6611750000E-02  -0.5500000008E+01  -0.4752625928E-09  -0.4752227346E-09  -0.4336137541E-16  -0.5422233876E-13   0.2759121581E-13  -0.1100000002E-01   0.5489000008E-02   0.5489000008E-02  -0.3094547075E-17   0.9491531637E-14  -0.1866495558E-15   0.5500000008E+01
   0.9890000000E+00   0.0000000000E+00   0.1005489000E+01   0.2250000000E-02   0.0000000000E+00  -0.1122750000E-02  -0.1325000000E-01   0.0000000000E+00   0.6611750000E-02  -0.5500000008E+01  -0.2315118963E-09  -0.2314736595E-09  -0.2167641065E-13   0.5014394507E-13   0.1580733894E-13  -0.1100000002E-01   0.5489000008E-02   0.5489000008E-02  -0.2809154683E-15  -0.1554926786E-14  -0.1395992455E-14   0.5500000008E+01
   0.9890000000E+00   0.1005489000E+01   0.1005489000E+01   0.2250000000E-02  -0.1122750000E-02  -0.1122750000E-02  -0.1325000000E-01   0.6611750000E-02   0.6611750000E-02  -0.5500000008E+01  -0.3690237594E-09  -0.3689929499E-09   0.4622878708E-14   0.4292373359E-13  -0.1903745750E-13  -0.1100000001E-01   0.5489000007E-02   0.5489000007E-02   0.1032840185E-14  -0.4143256506E-14  -0.8476586947E-15   0.5500000007E+01
   0.0000000000E+00   0.1005489000E+01   0.1005489000E+01   0.0000000000E+00  -0.1122750000E-02  -0.1122750000E-02   0.0000000000E+00   0.6611750000E-02   0.6611750000E-02  -0.5500000008E+01  -0.6276222423E-09  -0.6275642898E-09   0.3080070403E-13  -0.6700474876E-13  -0.2213745432E-13  -0.1100000001E-01   0.5489000007E-02   0.5489000007E-02  -0.5515383061E-16   0.8193793194E-14  -0.2223913596E-14   0.5500000007E+01
   0.1978000000E+01   0.0000000000E+00   0.2000026955E-13   0.4500000000E-02   0.0000000000E+00   0.1431315579E-17  -0.2650000000E-01   0.0000000000E+00   0.1999883824E-13  -0.5500000008E+01   0.2466845152E-09   0.2466766579E-09   0.1012997676E-13  -0.5108867160E-14   0.1700255633E-13  -0.1100000002E-01   0.5489000008E-02   0.5489000008E-02  -0.3957809885E-14   0.3378119483E-15   0.1560960371E-14   0.5500000008E+01
   0.1978000000E+01   0.1005489000E+01   0.2078093943E-13   0.4500000000E-02  -0.1122750000E-02   0.2887557504E-17  -0.2650000000E-01   0.6611750000E-02   0.2077805187E-13  -0.5500000008E+01  -0.2038311501E-09  -0.2038598191E-09   0.1626850744E-13  -0.1259190898E-13  -0.2849607591E-14  -0.1100000002E-01   0.5489000008E-02   0.5489000008E-02  -0.2599733777E-14   0.3368782169E-14   0.3680916661E-14   0.5500000008E+01
   0.1978000000E+01   0.0000000000E+00   0.1005489000E+01   0.4500000000E-02   0.0000000000E+00  -0.1122750000E-02  -0.2650000000E-01   0.0000000000E+00   0.6611750000E-02  -0.5500000007E+01   0.1829880854E-09   0.1830168720E-09   0.4902192697E-14   0.1259615821E-13   0.7095923011E-14  -0.1100000002E-01   0.5489000008E-02   0.5489000008E-02  -0.3849253069E-14   0.1376728923E-14  -0.2224823118E-14   0.5500000008E+01
   0.1978000000E+01   0.1005489000E+01   0.1005489000E+01   0.4500000000E-02  -0.1122750000E-02  -0.1122750000E-02  -0.2650000000E-01   0.6611750000E-02   0.6611750000E-02  -0.5500000007E+01  -0.1507071523E-09  -0.1506969994E-09   0.2605483189E-13  -0.3888661697E-14  -0.1242726651E-13  -0.1100000001E-01   0.5489000007E-02   0.5489000007E-02  -0.1144035581E-14   0.7798810273E-15  -0.1078914861E-15   0.5500000007E+01
     1     2     3     4     5     6     7     8
     2     9    10     3     6    11    12     7
 VARIABLES = X,Y,Z,DU1,DU2,DU3,U1,U2,U3,S11,S22,S33,S12,S13,S23,E11,E22,E33,E12,E13,E23,SMISES
 ZONE, T="0.4250D+01" F=FEPOINT, I=   12 J=    2 ET=BRICK
   0.0000000000E+00   0.0000000000E+00   0.0000000000E+00   0.0000000000E+00   0.0000000000E+00   0.0000000000E+00   0.0000000000E+00   0.0000000000E+00   0.0000000000E+00  -0.4375000006E+01   0.6197073076E-09   0.6196512348E-09  -0.3288317232E-16  -0.8326111438E-13   0.1956812061E-13  -0.8750000014E-02   0.4366250007E-02   0.4366250007E-02  -0.8305462897E-18   0.1179388414E-13   0.3900918201E-14   0.4375000007E+01
   0.9912500000E+00   0.0000000000E+00   0.7262154251E-14   0.2250000000E-02   0.0000000000E+00  -0.2903754020E-17  -0.1100000000E-01   0.0000000000E+00   0.7265058005E-14  -0.4375000006E+01   0.3273494154E-09   0.3273153289E-09  -0.2365240387E-13   0.2744348308E-13   0.1788836028E-13  -0.8750000013E-02   0.4366250007E-02   0.4366250007E-02   0.1291085863E-14  -0.9278947992E-15   0.1127063569E-16   0.4375000007E+01
   0.9912500000E+00   0.1004366250E+01   0.7267184850E-14   0.2250000000E-02  -0.1122750000E-02  -0.3521559449E-17  -0.1100000000E-01   0.5489000000E-02   0.7270706409E-14  -0.4375000006E+01   0.1870290730E-09   0.1869930704E-09  -0.1219082270E-13   0.2839308060E-13  -0.1681600456E-13  -0.8750000012E-02   0.4366250006E-02   0.4366250006E-02   0.5381572693E-15  -0.3668125894E-14   0.5475629889E-15   0.4375000006E+01
   0.0000000000E+00   0.1004366250E+01   0.1951462467E-14   0.0000000000E+00  -0.1122750000E-02   0.4801995234E-18   0.0000000000E+00   0.5489000000E-02   0.1950982267E-14  -0.4375000006E+01   0.5783354578E-09   0.5782950362E-09   0.1691248451E-13  -0.8451931115E-13  -0.2913238492E-13  -0.8750000013E-02   0.4366250006E-02   0.4366250006E-02  -0.2867606093E-14   0.6536433293E-14   0.1877612654E-14   0.4375000006E+01
   0.0000000000E+00   0.0000000000E+00   0.1004366250E+01   0.0000000000E+00   0.0000000000E+00  -0.1122750000E-02   0.0000000000E+00   0.0000000000E+00   0.5489000000E-02  -0.4375000007E+01  -0.4750793947E-09  -0.4750390871E-09  -0.4073559671E-16  -0.5441227717E-13   0.2769377640E-13  -0.8750000013E-02   0.4366250006E-02   0.4366250006E-02  -0.6430150287E-18   0.9481311507E-14  -0.1918651724E-15   0.4375000006E+01
   0.9912500000E+00   0.0000000000E+00   0.1004366250E+01   0.2250000000E-02   0.0000000000E+00  -0.1122750000E-02  -0.1100000000E-01   0.0000000000E+00   0.5489000000E-02  -0.4375000006E+01  -0.2310891799E-09  -0.2310509134E-09  -0.2110699523E-13   0.4996821341E-13   0.1556736206E-13  -0.8750000012E-02   0.4366250006E-02   0.4366250006E-02  -0.2771869507E-15  -0.1546971516E-14  -0.1395357274E-14   0.4375000006E+01
   0.9912500000E+00   0.1004366250E+01   0.1004366250E+01   0.2250000000E-02  -0.1122750000E-02  -0.1122750000E-02  -0.1100000000E-01   0.5489000000E-02   0.5489000000E-02  -0.4375000006E+01  -0.3687772949E-09  -0.3687465261E-09   0.5288619165E-14   0.4364907817E-13  -0.1904982294E-13  -0.8750000011E-02   0.4366250006E-02   0.4366250006E-02   0.1041999824E-14  -0.4140050541E-14  -0.8582284828E-15   0.4375000006E+01
   0.0000000000E+00   0.1004366250E+01   0.1004366250E+01   0.0000000000E+00  -0.1122750000E-02  -0.1122750000E-02   0.0000000000E+00   0.5489000000E-02   0.5489000000E-02  -0.4375000006E+01  -0.6269512287E-09  -0.6268935348E-09   0.3080409093E-13  -0.6757345138E-13  -0.2190403635E-13  -0.8750000012E-02   0.4366250006E-02   0.4366250006E-02  -0.5586294177E-16   0.8193025560E-14  -0.2222291456E-14   0.4375000006E+01
   0.1982500000E+01   0.0000000000E+00   0.1998941591E-13   0.4500000000E-02   0.0000000000E+00  -0.1085364621E-16  -0.2200000000E-01   0.0000000000E+00   0.2000026955E-13  -0.4375000006E+01   0.2463500273E-09   0.2463424529E-09   0.1021248280E-13  -0.4434188643E-14   0.1676344551E-13  -0.8750000013E-02   0.4366250007E-02   0.4366250007E-02  -0.3955372250E-14   0.3612487895E-15   0.1556665589E-14   0.4375000007E+01
   0.1982500000E+01   0.1004366250E+01   0.2076851331E-13   0.4500000000E-02  -0.1122750000E-02  -0.1242611977E-16  -0.2200000000E-01   0.5489000000E-02   0.2078093943E-13  -0.4375000006E+01  -0.2037874323E-09  -0.2038156613E-09   0.1620475127E-13  -0.1287079685E-13  -0.2667414834E-14  -0.8750000012E-02   0.4366250006E-02   0.4366250006E-02  -0.2598103818E-14   0.3363129950E-14   0.3678528221E-14   0.4375000006E+01
   0.1982500000E+01   0.0000000000E+00   0.1004366250E+01   0.4500000000E-02   0.0000000000E+00  -0.1122750000E-02  -0.2200000000E-01   0.0000000000E+00   0.5489000000E-02  -0.4375000006E+01   0.1835221315E-09   0.1835503873E-09   0.4600215654E-14   0.1284091220E-13   0.6743058121E-14  -0.8750000012E-02   0.4366250006E-02   0.4366250006E-02  -0.3844612973E-14   0.1409255500E-14  -0.2226725606E-14   0.4375000006E+01
   0.1982500000E+01   0.1004366250E+01   0.1004366250E+01   0.4500000000E-02  -0.1122750000E-02  -0.1122750000E-02  -0.2200000000E-01   0.5489000000E-02   0.5489000000E-02  -0.4375000006E+01  -0.1508508891E-09  -0.1508411871E-09   0.2597432457E-13  -0.4053268332E-14  -0.1224514927E-13  -0.8750000011E-02   0.4366250006E-02   0.4366250006E-02  -0.1147979432E-14   0.7656414519E-15  -0.1057170352E-15   0.4375000006E+01
     1     2     3     4     5     6     7     8
     2     9    10     3     6    11    12     7
 VARIABLES = X,Y,Z,DU1,DU2,DU3,U1,U2,U3,S11,S22,S33,S12,S13,S23,E11,E22,E33,E12,E13,E23,SMISES
 ZONE, T="0.4300D+01" F=FEPOINT, I=   12 J=    2 ET=BRICK
   0.0000000000E+00   0.0000000000E+00   0.0000000000E+00   0.0000000000E+00   0.0000000000E+00   0.0000000000E+00   0.0000000000E+00   0.0000000000E+00   0.0000000000E+00  -0.3250000004E+01   0.6203197414E-09   0.6202640071E-09  -0.3079172452E-16  -0.8289478202E-13   0.1981043182E-13  -0.6500000010E-02   0.3243500005E-02   0.3243500005E-02   0.1152885859E-17   0.1179756665E-13   0.3906179987E-14   0.3250000005E+01
   0.9935000000E+00   0.0000000000E+00   0.7266146174E-14   0.2250000000E-02   0.0000000000E+00   0.3991923364E-17  -0.8750000000E-02   0.0000000000E+00   0.7262154251E-14  -0.3250000005E+01   0.3277530641E-09   0.3277181786E-09  -0.2435988441E-13   0.2716541536E-13   0.1811734198E-13  -0.6500000010E-02   0.3243500005E-02   0.3243500005E-02   0.1276022948E-14  -0.9362869781E-15   0.1221779189E-16   0.3250000005E+01
   0.9935000000E+00   0.1003243500E+01   0.7272313882E-14   0.2250000000E-02  -0.1122750000E-02   0.5129032268E-17  -0.8750000000E-02   0.4366250000E-02   0.7267184850E-14  -0.3250000004E+01   0.1874338657E-09   0.1873972565E-09  -0.1285754210E-13   0.2878088025E-13  -0.1697158823E-13  -0.6500000009E-02   0.3243500005E-02   0.3243500005E-02   0.5232483742E-15  -0.3665520447E-14   0.5457539146E-15   0.3250000005E+01
   0.0000000000E+00   0.1003243500E+01   0.1953048934E-14   0.0000000000E+00  -0.1122750000E-02   0.1586467307E-17   0.0000000000E+00   0.4366250000E-02   0.1951462467E-14  -0.3250000004E+01   0.5783609291E-09   0.5783201283E-09   0.1697284463E-13  -0.8425850531E-13  -0.2914919830E-13  -0.6500000009E-02   0.3243500005E-02   0.3243500005E-02  -0.2863912373E-14   0.6542787828E-14   0.1873612156E-14   0.3250000005E+01
   0.0000000000E+00   0.0000000000E+00   0.1003243500E+01   0.0000000000E+00   0.0000000000E+00  -0.1122750000E-02   0.0000000000E+00   0.0000000000E+00   0.4366250000E-02  -0.3250000005E+01  -0.4754017615E-09  -0.4753613875E-09  -0.6257417161E-16  -0.5430741572E-13   0.2781026621E-13  -0.6500000009E-02   0.3243500005E-02   0.3243500005E-02  -0.6100846806E-18   0.9482095062E-14  -0.1874837164E-15   0.3250000005E+01
   0.9935000000E+00   0.0000000000E+00   0.1003243500E+01   0.2250000000E-02   0.0000000000E+00  -0.1122750000E-02  -0.8750000000E-02   0.0000000000E+00   0.4366250000E-02  -0.3250000005E+01  -0.2316241282E-09  -0.2315859618E-09  -0.2100248950E-13   0.4956682465E-13   0.1580181672E-13  -0.6500000009E-02   0.3243500005E-02   0.3243500005E-02  -0.2760642697E-15  -0.1553122858E-14  -0.1392467698E-14   0.3250000005E+01
   0.9935000000E+00   0.1003243500E+01   0.1003243500E+01   0.2250000000E-02  -0.1122750000E-02  -0.1122750000E-02  -0.8750000000E-02   0.4366250000E-02   0.4366250000E-02  -0.3250000005E+01  -0.3689862371E-09  -0.3689552868E-09   0.5189964982E-14   0.4393596866E-13  -0.1907735317E-13  -0.6500000009E-02   0.3243500004E-02   0.3243500004E-02   0.1044443571E-14  -0.4139720431E-14  -0.8577326725E-15   0.3250000004E+01
   0.0000000000E+00   0.1003243500E+01   0.1003243500E+01   0.0000000000E+00  -0.1122750000E-02  -0.1122750000E-02   0.0000000000E+00   0.4366250000E-02   0.4366250000E-02  -0.3250000005E+01  -0.6273735087E-09  -0.6273157226E-09   0.3101792370E-13  -0.6718397240E-13  -0.2208430205E-13  -0.6500000009E-02   0.3243500004E-02   0.3243500004E-02  -0.5436036828E-16   0.8193949946E-14  -0.2220846167E-14   0.3250000004E+01
   0.1987000000E+01   0.0000000000E+00   0.2000484345E-13   0.4500000000E-02   0.0000000000E+00   0.1542753873E-16  -0.1750000000E-01   0.0000000000E+00   0.1998941591E-13  -0.3250000005E+01   0.2465390598E-09   0.2465318944E-09   0.1023537133E-13  -0.5152175050E-14   0.1683275427E-13  -0.6500000010E-02   0.3243500005E-02   0.3243500005E-02  -0.3950936347E-14   0.3296821413E-15   0.1559635238E-14   0.3250000005E+01
   0.1987000000E+01   0.1003243500E+01   0.2078445741E-13   0.4500000000E-02  -0.1122750000E-02   0.1594410330E-16  -0.1750000000E-01   0.4366250000E-02   0.2076851331E-13  -0.3250000005E+01  -0.2032253988E-09  -0.2032546027E-09   0.1605634335E-13  -0.1295662372E-13  -0.3057369061E-14  -0.6500000009E-02   0.3243500005E-02   0.3243500005E-02  -0.2590737815E-14   0.3366784447E-14   0.3672027075E-14   0.3250000005E+01
   0.1987000000E+01   0.0000000000E+00   0.1003243500E+01   0.4500000000E-02   0.0000000000E+00  -0.1122750000E-02  -0.1750000000E-01   0.0000000000E+00   0.4366250000E-02  -0.3250000004E+01   0.1827143914E-09   0.1827429059E-09   0.5587631080E-14   0.1206558670E-13   0.6687961350E-14  -0.6500000009E-02   0.3243500005E-02   0.3243500005E-02  -0.3840391671E-14   0.1411863628E-14  -0.2226981091E-14   0.3250000005E+01
   0.1987000000E+01   0.1003243500E+01   0.1003243500E+01   0.4500000000E-02  -0.1122750000E-02  -0.1122750000E-02  -0.1750000000E-01   0.4366250000E-02   0.4366250000E-02  -0.3250000004E+01  -0.1511241070E-09  -0.1511137875E-09   0.2661261362E-13  -0.3831282949E-14  -0.1277035660E-13  -0.6500000008E-02   0.3243500004E-02   0.3243500004E-02  -0.1146633388E-14   0.7588718154E-15  -0.1213966076E-15   0.3250000004E+01
     1     2     3     4     5     6     7     8
     2     9    10     3     6    11    12     7
 VARIABLES = X,Y,Z,DU1,DU2,DU3,U1,U2,U3,S11,S22,S33,S12,S13,S23,E11,E22,E33,E12,E13,E23,SMISES
 ZONE, T="0.4350D+01" F=FEPOINT, I=   12 J=    2 ET=BRICK
   0.0000000000E+00   0.0000000000E+00   0.0000000000E+00   0.0000000000E+00   0.0000000000E+00   0.0000000000E+00   0.0000000000E+00   0.0000000000E+00   0.0000000000E+00  -0.2125000003E+01   0.6207033368E-09   0.6206469215E-09  -0.2216059490E-16  -0.8283861027E-13   0.1973526217E-13  -0.4250000007E-02   0.2120750003E-02   0.2120750003E-02   0.4366257118E-18   0.1179688919E-13   0.3904496234E-14   0.2125000003E+01
   0.9957500000E+00   0.0000000000E+00   0.7267186934E-14   0.2250000000E-02   0.0000000000E+00   0.1040759702E-17  -0.6500000000E-02   0.0000000000E+00   0.7266146174E-14  -0.2125000003E+01   0.3279335306E-09   0.3278984853E-09  -0.2474371540E-13   0.2643646449E-13   0.1823122544E-13  -0.4250000007E-02   0.2120750003E-02   0.2120750003E-02   0.1274199563E-14  -0.9427434604E-15   0.1411244517E-16   0.2125000003E+01
   0.9957500000E+00   0.1002120750E+01   0.7274029279E-14   0.2250000000E-02  -0.1122750000E-02   0.1715397238E-17  -0.6500000000E-02   0.3243500000E-02   0.7272313882E-14  -0.2125000003E+01   0.1875785527E-09   0.1875418223E-09  -0.1325253756E-13   0.2890755262E-13  -0.1700410664E-13  -0.4250000006E-02   0.2120750003E-02   0.2120750003E-02   0.5206994047E-15  -0.3661442091E-14   0.5445594126E-15   0.2125000003E+01
   0.0000000000E+00   0.1002120750E+01   0.1952423877E-14   0.0000000000E+00  -0.1122750000E-02  -0.6250569701E-18   0.0000000000E+00   0.3243500000E-02   0.1953048934E-14  -0.2125000003E+01   0.5785041071E-09   0.5784633716E-09   0.1704115254E-13  -0.8394383461E-13  -0.2943668234E-13  -0.4250000006E-02   0.2120750003E-02   0.2120750003E-02  -0.2862090649E-14   0.6546797049E-14   0.1872328887E-14   0.2125000003E+01
   0.0000000000E+00   0.0000000000E+00   0.1002120750E+01   0.0000000000E+00   0.0000000000E+00  -0.1122750000E-02   0.0000000000E+00   0.0000000000E+00   0.3243500000E-02  -0.2125000004E+01  -0.4759973601E-09  -0.4759570088E-09  -0.9008039240E-16  -0.5387917405E-13   0.2801295054E-13  -0.4250000006E-02   0.2120750003E-02   0.2120750003E-02   0.1708225630E-18   0.9489473850E-14  -0.1889908323E-15   0.2125000003E+01
   0.9957500000E+00   0.0000000000E+00   0.1002120750E+01   0.2250000000E-02   0.0000000000E+00  -0.1122750000E-02  -0.6500000000E-02   0.0000000000E+00   0.3243500000E-02  -0.2125000003E+01  -0.2317792716E-09  -0.2317409285E-09  -0.2069068250E-13   0.4921319727E-13   0.1595830370E-13  -0.4250000006E-02   0.2120750003E-02   0.2120750003E-02  -0.2760277655E-15  -0.1565151555E-14  -0.1390645512E-14   0.2125000003E+01
   0.9957500000E+00   0.1002120750E+01   0.1002120750E+01   0.2250000000E-02  -0.1122750000E-02  -0.1122750000E-02  -0.6500000000E-02   0.3243500000E-02   0.3243500000E-02  -0.2125000003E+01  -0.3690689132E-09  -0.3690379751E-09   0.5593312528E-14   0.4402746530E-13  -0.1910508940E-13  -0.4250000006E-02   0.2120750003E-02   0.2120750003E-02   0.1049509784E-14  -0.4139722637E-14  -0.8586524879E-15   0.2125000003E+01
   0.0000000000E+00   0.1002120750E+01   0.1002120750E+01   0.0000000000E+00  -0.1122750000E-02  -0.1122750000E-02   0.0000000000E+00   0.3243500000E-02   0.3243500000E-02  -0.2125000003E+01  -0.6274512981E-09  -0.6273927801E-09   0.3113216127E-13  -0.6698857830E-13  -0.2188675123E-13  -0.4250000006E-02   0.2120750003E-02   0.2120750003E-02  -0.5252770931E-16   0.8197939904E-14  -0.2218203950E-14   0.2125000003E+01
   0.1991500000E+01   0.0000000000E+00   0.2001085466E-13   0.4500000000E-02   0.0000000000E+00   0.6011216195E-17  -0.1300000000E-01   0.0000000000E+00   0.2000484345E-13  -0.2125000003E+01   0.2462716338E-09   0.2462644521E-09   0.1039369341E-13  -0.5028586982E-14   0.1674301430E-13  -0.4250000006E-02   0.2120750003E-02   0.2120750003E-02  -0.3947698584E-14   0.3516309804E-15   0.1557805394E-14   0.2125000003E+01
   0.1991500000E+01   0.1002120750E+01   0.2078992679E-13   0.4500000000E-02  -0.1122750000E-02   0.5469379154E-17  -0.1300000000E-01   0.3243500000E-02   0.2078445741E-13  -0.2125000003E+01  -0.2030535162E-09  -0.2030825281E-09   0.1627192399E-13  -0.1336978800E-13  -0.3242220613E-14  -0.4250000006E-02   0.2120750003E-02   0.2120750003E-02  -0.2591829268E-14   0.3352907663E-14   0.3673379383E-14   0.2125000003E+01
   0.1991500000E+01   0.0000000000E+00   0.1002120750E+01   0.4500000000E-02   0.0000000000E+00  -0.1122750000E-02  -0.1300000000E-01   0.0000000000E+00   0.3243500000E-02  -0.2125000003E+01   0.1827546066E-09   0.1827829976E-09   0.5734377024E-14   0.1193950738E-13   0.6689319896E-14  -0.4250000006E-02   0.2120750003E-02   0.2120750003E-02  -0.3833970318E-14   0.1399320250E-14  -0.2231230131E-14   0.2125000003E+01
   0.1991500000E+01   0.1002120750E+01   0.1002120750E+01   0.4500000000E-02  -0.1122750000E-02  -0.1122750000E-02  -0.1300000000E-01   0.3243500000E-02   0.3243500000E-02  -0.2125000003E+01  -0.1511863163E-09  -0.1511757984E-09   0.2674618575E-13  -0.3872426154E-14  -0.1285322493E-13  -0.4250000005E-02   0.2120750003E-02   0.2120750003E-02  -0.1142248424E-14   0.7648705325E-15  -0.1170675194E-15   0.2125000003E+01
     1     2     3     4     5     6     7     8
     2     9    10     3     6    11    12     7
 VARIABLES = X,Y,Z,DU1,DU2,DU3,U1,U2,U3,S11,S22,S33,S12,S13,S23,E11,E22,E33,E12,E13,E23,SMISES
 ZONE, T="0.4400D+01" F=FEPOINT, I=   12 J=    2 ET=BRICK
   0.0000000000E+00   0.0000000000E+00   0.0000000000E+00   0.0000000000E+00   0.0000000000E+00   0.0000000000E+00   0.0000000000E+00   0.0000000000E+00   0.0000000000E+00  -0.1000000001E+01   0.6208124420E-09   0.6207561018E-09  -0.4377704128E-16  -0.8266263396E-13   0.1978608076E-13  -0.2000000003E-02   0.9980000016E-03   0.9980000016E-03  -0.7850825226E-18   0.1179844486E-13   0.3904356910E-14   0.1000000002E+01
   0.9980000000E+00   0.0000000000E+00   0.7268092462E-14   0.2250000000E-02   0.0000000000E+00   0.9055284696E-18  -0.4250000000E-02   0.0000000000E+00   0.7267186934E-14  -0.1000000001E+01   0.3278706298E-09   0.3278356265E-09  -0.2439449596E-13   0.2662306852E-13   0.1816617851E-13  -0.2000000003E-02   0.9980000015E-03   0.9980000015E-03   0.1280306590E-14  -0.9402901023E-15   0.1273670455E-16   0.1000000002E+01
   0.9980000000E+00   0.1000998000E+01   0.7274583587E-14   0.2250000000E-02  -0.1122750000E-02   0.5543072711E-18  -0.4250000000E-02   0.2120750000E-02   0.7274029279E-14  -0.1000000001E+01   0.1876820947E-09   0.1876454480E-09  -0.1300626854E-13   0.2843286414E-13  -0.1704595358E-13  -0.2000000003E-02   0.9980000014E-03   0.9980000014E-03   0.5250502463E-15  -0.3669195445E-14   0.5445730489E-15   0.1000000001E+01
   0.0000000000E+00   0.1000998000E+01   0.1952683609E-14   0.0000000000E+00  -0.1122750000E-02   0.2597319672E-18   0.0000000000E+00   0.2120750000E-02   0.1952423877E-14  -0.1000000001E+01   0.5786427929E-09   0.5786017401E-09   0.1701036128E-13  -0.8396578941E-13  -0.2952070484E-13  -0.2000000003E-02   0.9980000014E-03   0.9980000014E-03  -0.2863663183E-14   0.6545168513E-14   0.1870889443E-14   0.1000000001E+01
   0.0000000000E+00   0.0000000000E+00   0.1000998000E+01   0.0000000000E+00   0.0000000000E+00  -0.1122750000E-02   0.0000000000E+00   0.0000000000E+00   0.2120750000E-02  -0.1000000002E+01  -0.4759537346E-09  -0.4759133313E-09  -0.9782276242E-16  -0.5370527657E-13   0.2789950249E-13  -0.2000000003E-02   0.9980000015E-03   0.9980000015E-03   0.2000491950E-18   0.9493056710E-14  -0.1863222890E-15   0.1000000001E+01
   0.9980000000E+00   0.0000000000E+00   0.1000998000E+01   0.2250000000E-02   0.0000000000E+00  -0.1122750000E-02  -0.4250000000E-02   0.0000000000E+00   0.2120750000E-02  -0.1000000002E+01  -0.2316929083E-09  -0.2316544769E-09  -0.2110097280E-13   0.4947270082E-13   0.1587990551E-13  -0.2000000003E-02   0.9980000014E-03   0.9980000014E-03  -0.2801495616E-15  -0.1566821981E-14  -0.1389173849E-14   0.1000000001E+01
   0.9980000000E+00   0.1000998000E+01   0.1000998000E+01   0.2250000000E-02  -0.1122750000E-02  -0.1122750000E-02  -0.4250000000E-02   0.2120750000E-02   0.2120750000E-02  -0.1000000002E+01  -0.3690865797E-09  -0.3690556254E-09   0.5201648535E-14   0.4375368165E-13  -0.1909024218E-13  -0.2000000003E-02   0.9980000013E-03   0.9980000013E-03   0.1041793250E-14  -0.4141253677E-14  -0.8601302756E-15   0.1000000001E+01
   0.0000000000E+00   0.1000998000E+01   0.1000998000E+01   0.0000000000E+00  -0.1122750000E-02  -0.1122750000E-02   0.0000000000E+00   0.2120750000E-02   0.2120750000E-02  -0.1000000002E+01  -0.6277299130E-09  -0.6276716787E-09   0.3120695261E-13  -0.6677919301E-13  -0.2206302150E-13  -0.2000000003E-02   0.9980000013E-03   0.9980000013E-03  -0.5169401098E-16   0.8200186080E-14  -0.2223475711E-14   0.1000000001E+01
   0.1996000000E+01   0.0000000000E+00   0.2001304540E-13   0.4500000000E-02   0.0000000000E+00   0.2190738098E-17  -0.8500000000E-02   0.0000000000E+00   0.2001085466E-13  -0.1000000001E+01   0.2458767297E-09   0.2458697457E-09   0.1076074537E-13  -0.4384605802E-14   0.1680491042E-13  -0.2000000003E-02   0.9980000015E-03   0.9980000015E-03  -0.3943935501E-14   0.3518058108E-15   0.1559578690E-14   0.1000000002E+01
   0.1996000000E+01   0.1000998000E+01   0.2079244785E-13   0.4500000000E-02  -0.1122750000E-02   0.2521056537E-17  -0.8500000000E-02   0.2120750000E-02   0.2078992679E-13  -0.1000000002E+01  -0.2031446603E-09  -0.2031732263E-09   0.1655372607E-13  -0.1318312340E-13  -0.2951662190E-14  -0.2000000003E-02   0.9980000014E-03   0.9980000014E-03  -0.2587444231E-14   0.3364575334E-14   0.3674863603E-14   0.1000000001E+01
   0.1996000000E+01   0.0000000000E+00   0.1000998000E+01   0.4500000000E-02   0.0000000000E+00  -0.1122750000E-02  -0.8500000000E-02   0.0000000000E+00   0.2120750000E-02  -0.1000000001E+01   0.1828872016E-09   0.1829151790E-09   0.5556401299E-14   0.1245450620E-13   0.6836701324E-14  -0.2000000003E-02   0.9980000014E-03   0.9980000014E-03  -0.3840813953E-14   0.1410136128E-14  -0.2230991488E-14   0.1000000001E+01
   0.1996000000E+01   0.1000998000E+01   0.1000998000E+01   0.4500000000E-02  -0.1122750000E-02  -0.1122750000E-02  -0.8500000000E-02   0.2120750000E-02   0.2120750000E-02  -0.1000000001E+01  -0.1509396624E-09  -0.1509293057E-09   0.2647586362E-13  -0.3733428906E-14  -0.1252651568E-13  -0.2000000003E-02   0.9980000013E-03   0.9980000013E-03  -0.1146964617E-14   0.7663065007E-15  -0.1117612211E-15   0.1000000001E+01
     1     2     3     4     5     6     7     8
     2     9    10     3     6    11    12     7
 VARIABLES = X,Y,Z,DU1,DU2,DU3,U1,U2,U3,S11,S22,S33,S12,S13,S23,E11,E22,E33,E12,E13,E23,SMISES
 ZONE, T="0.4450D+01" F=FEPOINT, I=   12 J=    2 ET=BRICK
   0.0000000000E+00   0.0000000000E+00   0.0000000000E+00   0.0000000000E+00   0.0000000000E+00   0.0000000000E+00   0.0000000000E+00   0.0000000000E+00   0.0000000000E+00   0.1250000008E+00   0.6207854121E-09   0.6207291999E-09  -0.3494112178E-16  -0.8270669216E-13   0.1987020959E-13   0.2500000004E-03  -0.1247500002E-03  -0.1247500002E-03  -0.2192698186E-18   0.1179711738E-13   0.3906556450E-14   0.1250000002E+00
   0.1000250000E+01   0.0000000000E+00   0.7267836557E-14   0.2250000000E-02   0.0000000000E+00  -0.2559048405E-18  -0.2000000000E-02   0.0000000000E+00   0.7268092462E-14   0.1250000005E+00   0.3279187012E-09   0.3278836623E-09  -0.2435886555E-13   0.2675611910E-13   0.1818202287E-13   0.2500000004E-03  -0.1247500002E-03  -0.1247500002E-03   0.1279569996E-14  -0.9387585544E-15   0.1334644562E-16   0.1250000002E+00
   0.1000250000E+01   0.9998752500E+00   0.7274521559E-14   0.2250000000E-02  -0.1122750000E-02  -0.6202795253E-19  -0.2000000000E-02   0.9980000000E-03   0.7274583587E-14   0.1250000004E+00   0.1877102670E-09   0.1876735756E-09  -0.1287582776E-13   0.2840126880E-13  -0.1707220232E-13   0.2500000004E-03  -0.1247500002E-03  -0.1247500002E-03   0.5269000833E-15  -0.3670655582E-14   0.5434703113E-15   0.1250000002E+00
   0.0000000000E+00   0.9998752500E+00   0.1953225916E-14   0.0000000000E+00  -0.1122750000E-02   0.5423066353E-18   0.0000000000E+00   0.9980000000E-03   0.1952683609E-14   0.1250000008E+00   0.5785787450E-09   0.5785376265E-09   0.1691217153E-13  -0.8403121937E-13  -0.2951440156E-13   0.2500000004E-03  -0.1247500002E-03  -0.1247500002E-03  -0.2864742557E-14   0.6544481307E-14   0.1871649633E-14   0.1250000002E+00
   0.0000000000E+00   0.0000000000E+00   0.9998752500E+00   0.0000000000E+00   0.0000000000E+00  -0.1122750000E-02   0.0000000000E+00   0.0000000000E+00   0.9980000000E-03   0.1249999997E+00  -0.4759388769E-09  -0.4758982267E-09  -0.1092983328E-15  -0.5383092426E-13   0.2787927692E-13   0.2500000004E-03  -0.1247500002E-03  -0.1247500002E-03   0.2311763457E-19   0.9490932058E-14  -0.1891555419E-15   0.1250000002E+00
   0.1000250000E+01   0.0000000000E+00   0.9998752500E+00   0.2250000000E-02   0.0000000000E+00  -0.1122750000E-02  -0.2000000000E-02   0.0000000000E+00   0.9980000000E-03   0.1249999999E+00  -0.2316550118E-09  -0.2316164167E-09  -0.2099442677E-13   0.4948247528E-13   0.1594109421E-13   0.2500000004E-03  -0.1247500002E-03  -0.1247500002E-03  -0.2785059315E-15  -0.1562613740E-14  -0.1389063326E-14   0.1250000002E+00
   0.1000250000E+01   0.9998752500E+00   0.9998752500E+00   0.2250000000E-02  -0.1122750000E-02  -0.1122750000E-02  -0.2000000000E-02   0.9980000000E-03   0.9980000000E-03   0.1249999998E+00  -0.3691226467E-09  -0.3690915339E-09   0.5250336121E-14   0.4381937462E-13  -0.1911258363E-13   0.2500000003E-03  -0.1247500002E-03  -0.1247500002E-03   0.1043497720E-14  -0.4141021400E-14  -0.8604495238E-15   0.1250000002E+00
   0.0000000000E+00   0.9998752500E+00   0.9998752500E+00   0.0000000000E+00  -0.1122750000E-02  -0.1122750000E-02   0.0000000000E+00   0.9980000000E-03   0.9980000000E-03   0.1249999995E+00  -0.6277250164E-09  -0.6276667311E-09   0.3117951342E-13  -0.6683139956E-13  -0.2211251893E-13   0.2500000003E-03  -0.1247500002E-03  -0.1247500002E-03  -0.5267738871E-16   0.8198256057E-14  -0.2223567861E-14   0.1250000002E+00
   0.2000500000E+01   0.0000000000E+00   0.2001230532E-13   0.4500000000E-02   0.0000000000E+00  -0.7400826633E-18  -0.4000000000E-02   0.0000000000E+00   0.2001304540E-13   0.1250000004E+00   0.2459255865E-09   0.2459184247E-09   0.1059965893E-13  -0.4409193659E-14   0.1678920605E-13   0.2500000004E-03  -0.1247500002E-03  -0.1247500002E-03  -0.3945487966E-14   0.3553962473E-15   0.1558769442E-14   0.1250000002E+00
   0.2000500000E+01   0.9998752500E+00   0.2079147517E-13   0.4500000000E-02  -0.1122750000E-02  -0.9726735643E-18  -0.4000000000E-02   0.9980000000E-03   0.2079244785E-13   0.1250000000E+00  -0.2030982993E-09  -0.2031268388E-09   0.1637896547E-13  -0.1331639567E-13  -0.3108609383E-14   0.2500000004E-03  -0.1247500002E-03  -0.1247500002E-03  -0.2589485907E-14   0.3356273300E-14   0.3673536406E-14   0.1250000002E+00
   0.2000500000E+01   0.0000000000E+00   0.9998752500E+00   0.4500000000E-02   0.0000000000E+00  -0.1122750000E-02  -0.4000000000E-02   0.0000000000E+00   0.9980000000E-03   0.1250000004E+00   0.1829285202E-09   0.1829564199E-09   0.5449977799E-14   0.1220711747E-13   0.6876648384E-14   0.2500000004E-03  -0.1247500002E-03  -0.1247500002E-03  -0.3842218921E-14   0.1407615192E-14  -0.2229130357E-14   0.1250000002E+00
   0.2000500000E+01   0.9998752500E+00   0.9998752500E+00   0.4500000000E-02  -0.1122750000E-02  -0.1122750000E-02  -0.4000000000E-02   0.9980000000E-03   0.9980000000E-03   0.1250000000E+00  -0.1510363858E-09  -0.1510259291E-09   0.2635290415E-13  -0.4030953201E-14  -0.1255953415E-13   0.2500000003E-03  -0.1247500002E-03  -0.1247500002E-03  -0.1146720726E-14   0.7624121670E-15  -0.1122443380E-15   0.1250000002E+00
     1     2     3     4     5     6     7     8
     2     9    10     3     6    11    12     7
 VARIABLES = X,Y,Z,DU1,DU2,DU3,U1,U2,U3,S11,S22,S33,S12,S13,S23,E11,E22,E33,E12,E13,E23,SMISES
 ZONE, T="0.4500D+01" F=FEPOINT, I=   12 J=    2 ET=BRICK
   0.0000000000E+00   0.0000000000E+00   0.0000000000E+00   0.0000000000E+00   0.0000000000E+00   0.0000000000E+00   0.0000000000E+00   0.0000000000E+00   0.0000000000E+00   0.1250000003E+01   0.6208740280E-09   0.6208176699E-09  -0.3548356757E-16  -0.8260383670E-13   0.1993269893E-13   0.2500000004E-02  -0.1247500002E-02  -0.1247500002E-02  -0.6970081601E-19   0.1179883759E-13   0.3906838417E-14   0.1250000002E+01
   0.1002500000E+01   0.0000000000E+00   0.7269011333E-14   0.2250000000E-02   0.0000000000E+00   0.1174775636E-17   0.2500000000E-03   0.0000000000E+00   0.7267836557E-14   0.1250000002E+01   0.3280329078E-09   0.3279978057E-09  -0.2421967636E-13   0.2703008544E-13   0.1825202340E-13   0.2500000004E-02  -0.1247500002E-02  -0.1247500002E-02   0.1281174751E-14  -0.9360416255E-15   0.1396516834E-16   0.1250000002E+01
   0.1002500000E+01   0.9987525000E+00   0.7276020817E-14   0.2250000000E-02  -0.1122750000E-02   0.1499258057E-17   0.2500000000E-03  -0.1247500000E-03   0.7274521559E-14   0.1250000002E+01   0.1877473537E-09   0.1877106738E-09  -0.1285384328E-13   0.2810508085E-13  -0.1707629331E-13   0.2500000004E-02  -0.1247500002E-02  -0.1247500002E-02   0.5257354084E-15  -0.3673653019E-14   0.5443840990E-15   0.1250000002E+01
   0.0000000000E+00   0.9987525000E+00   0.1953666285E-14   0.0000000000E+00  -0.1122750000E-02   0.4403694142E-18   0.0000000000E+00  -0.1247500000E-03   0.1953225916E-14   0.1250000002E+01   0.5787402265E-09   0.5786989787E-09   0.1690223664E-13  -0.8388719538E-13  -0.2962841823E-13   0.2500000004E-02  -0.1247500002E-02  -0.1247500002E-02  -0.2864043308E-14   0.6545954126E-14   0.1870137651E-14   0.1250000002E+01
   0.0000000000E+00   0.0000000000E+00   0.9987525000E+00   0.0000000000E+00   0.0000000000E+00  -0.1122750000E-02   0.0000000000E+00   0.0000000000E+00  -0.1247500000E-03   0.1250000001E+01  -0.4759568628E-09  -0.4759160336E-09  -0.1184183064E-15  -0.5369288482E-13   0.2794704138E-13   0.2500000004E-02  -0.1247500002E-02  -0.1247500002E-02  -0.8116308859E-19   0.9492709056E-14  -0.1864404975E-15   0.1250000002E+01
   0.1002500000E+01   0.0000000000E+00   0.9987525000E+00   0.2250000000E-02   0.0000000000E+00  -0.1122750000E-02   0.2500000000E-03   0.0000000000E+00  -0.1247500000E-03   0.1250000002E+01  -0.2317824972E-09  -0.2317439594E-09  -0.2117856481E-13   0.4961051922E-13   0.1596489030E-13   0.2500000004E-02  -0.1247500002E-02  -0.1247500002E-02  -0.2806937266E-15  -0.1562420358E-14  -0.1389541497E-14   0.1250000002E+01
   0.1002500000E+01   0.9987525000E+00   0.9987525000E+00   0.2250000000E-02  -0.1122750000E-02  -0.1122750000E-02   0.2500000000E-03  -0.1247500000E-03  -0.1247500000E-03   0.1250000001E+01  -0.3691105900E-09  -0.3690795469E-09   0.5146471488E-14   0.4358366826E-13  -0.1912245830E-13   0.2500000003E-02  -0.1247500002E-02  -0.1247500002E-02   0.1041884062E-14  -0.4145632910E-14  -0.8595880403E-15   0.1250000002E+01
   0.0000000000E+00   0.9987525000E+00   0.9987525000E+00   0.0000000000E+00  -0.1122750000E-02  -0.1122750000E-02   0.0000000000E+00  -0.1247500000E-03  -0.1247500000E-03   0.1250000001E+01  -0.6279410596E-09  -0.6278825349E-09   0.3129706929E-13  -0.6674539252E-13  -0.2215793637E-13   0.2500000003E-02  -0.1247500002E-02  -0.1247500002E-02  -0.5115571853E-16   0.8200989607E-14  -0.2225901104E-14   0.1250000002E+01
   0.2005000000E+01   0.0000000000E+00   0.2001617816E-13   0.4500000000E-02   0.0000000000E+00   0.3872840245E-17   0.5000000000E-03   0.0000000000E+00   0.2001230532E-13   0.1250000002E+01   0.2461427738E-09   0.2461354083E-09   0.1050225241E-13  -0.4717594523E-14   0.1683233169E-13   0.2500000004E-02  -0.1247500002E-02  -0.1247500002E-02  -0.3946064233E-14   0.3536881090E-15   0.1558548687E-14   0.1250000002E+01
   0.2005000000E+01   0.9987525000E+00   0.2079554037E-13   0.4500000000E-02  -0.1122750000E-02   0.4065201679E-17   0.5000000000E-03  -0.1247500000E-03   0.2079147517E-13   0.1250000002E+01  -0.2031082133E-09  -0.2031368524E-09   0.1620344835E-13  -0.1321020412E-13  -0.3139380541E-14   0.2500000003E-02  -0.1247500002E-02  -0.1247500002E-02  -0.2591218683E-14   0.3356528178E-14   0.3673260672E-14   0.1250000002E+01
   0.2005000000E+01   0.0000000000E+00   0.9987525000E+00   0.4500000000E-02   0.0000000000E+00  -0.1122750000E-02   0.5000000000E-03   0.0000000000E+00  -0.1247500000E-03   0.1250000002E+01   0.1825516450E-09   0.1825797070E-09   0.5688047052E-14   0.1190714091E-13   0.6927836360E-14   0.2500000003E-02  -0.1247500002E-02  -0.1247500002E-02  -0.3839177087E-14   0.1400022308E-14  -0.2227708457E-14   0.1250000002E+01
   0.2005000000E+01   0.9987525000E+00   0.9987525000E+00   0.4500000000E-02  -0.1122750000E-02  -0.1122750000E-02   0.5000000000E-03  -0.1247500000E-03  -0.1247500000E-03   0.1250000001E+01  -0.1509363320E-09  -0.1509257904E-09   0.2641352717E-13  -0.3938838151E-14  -0.1265861401E-13   0.2500000003E-02  -0.1247500002E-02  -0.1247500002E-02  -0.1144911034E-14   0.7668161091E-15  -0.1145301807E-15   0.1250000002E+01
     1     2     3     4     5     6     7     8
     2     9    10     3     6    11    12     7
 VARIABLES = X,Y,Z,DU1,DU2,DU3,U1,U2,U3,S11,S22,S33,S12,S13,S23,E11,E22,E33,E12,E13,E23,SMISES
 ZONE, T="0.4550D+01" F=FEPOINT, I=   12 J=    2 ET=BRICK
   0.0000000000E+00   0.0000000000E+00   0.0000000000E+00   0.0000000000E+00   0.0000000000E+00   0.0000000000E+00   0.0000000000E+00   0.0000000000E+00   0.0000000000E+00   0.2375000004E+01   0.6205976742E-09   0.6205416999E-09  -0.1861385204E-16  -0.8300663256E-13   0.1964183343E-13   0.4750000007E-02  -0.2370250004E-02  -0.2370250004E-02  -0.2739504742E-18   0.1179512562E-13   0.3904171048E-14   0.2375000004E+01
   0.1004750000E+01   0.0000000000E+00   0.7266288007E-14   0.2250000000E-02   0.0000000000E+00  -0.2723325662E-17   0.2500000000E-02   0.0000000000E+00   0.7269011333E-14   0.2375000004E+01   0.3279581724E-09   0.3279234176E-09  -0.2426048340E-13   0.2712405136E-13   0.1822034050E-13   0.4750000007E-02  -0.2370250004E-02  -0.2370250004E-02   0.1281598744E-14  -0.9375645229E-15   0.1404613200E-16   0.2375000004E+01
   0.1004750000E+01   0.9976297500E+00   0.7273133531E-14   0.2250000000E-02  -0.1122750000E-02  -0.2887285642E-17   0.2500000000E-02  -0.1247500000E-02   0.7276020817E-14   0.2375000004E+01   0.1875817602E-09   0.1875448911E-09  -0.1272578536E-13   0.2808527892E-13  -0.1688593880E-13   0.4750000007E-02  -0.2370250003E-02  -0.2370250003E-02   0.5281895311E-15  -0.3671751663E-14   0.5445083419E-15   0.2375000003E+01
   0.0000000000E+00   0.9976297500E+00   0.1951861869E-14   0.0000000000E+00  -0.1122750000E-02  -0.1804415723E-17   0.0000000000E+00  -0.1247500000E-02   0.1953666285E-14   0.2375000004E+01   0.5784772121E-09   0.5784363889E-09   0.1693334926E-13  -0.8391958987E-13  -0.2965388470E-13   0.4750000007E-02  -0.2370250003E-02  -0.2370250003E-02  -0.2864216558E-14   0.6545442704E-14   0.1869073895E-14   0.2375000003E+01
   0.0000000000E+00   0.0000000000E+00   0.9976297500E+00   0.0000000000E+00   0.0000000000E+00  -0.1122750000E-02   0.0000000000E+00   0.0000000000E+00  -0.1247500000E-02   0.2375000003E+01  -0.4756603081E-09  -0.4756198135E-09  -0.1350740104E-15  -0.5399141913E-13   0.2776063115E-13   0.4750000007E-02  -0.2370250003E-02  -0.2370250003E-02  -0.4749241551E-18   0.9489925942E-14  -0.1890913811E-15   0.2375000003E+01
   0.1004750000E+01   0.0000000000E+00   0.9976297500E+00   0.2250000000E-02   0.0000000000E+00  -0.1122750000E-02   0.2500000000E-02   0.0000000000E+00  -0.1247500000E-02   0.2375000003E+01  -0.2316396433E-09  -0.2316012021E-09  -0.2136820671E-13   0.4972633859E-13   0.1586694364E-13   0.4750000007E-02  -0.2370250003E-02  -0.2370250003E-02  -0.2830800529E-15  -0.1562484255E-14  -0.1391375449E-14   0.2375000003E+01
   0.1004750000E+01   0.9976297500E+00   0.9976297500E+00   0.2250000000E-02  -0.1122750000E-02  -0.1122750000E-02   0.2500000000E-02  -0.1247500000E-02  -0.1247500000E-02   0.2375000003E+01  -0.3690047207E-09  -0.3689739471E-09   0.4837477823E-14   0.4353586632E-13  -0.1908429282E-13   0.4750000006E-02  -0.2370250003E-02  -0.2370250003E-02   0.1036324327E-14  -0.4143487777E-14  -0.8592526504E-15   0.2375000003E+01
   0.0000000000E+00   0.9976297500E+00   0.9976297500E+00   0.0000000000E+00  -0.1122750000E-02  -0.1122750000E-02   0.0000000000E+00  -0.1247500000E-02  -0.1247500000E-02   0.2375000003E+01  -0.6278211162E-09  -0.6277625675E-09   0.3127517850E-13  -0.6693730284E-13  -0.2204889715E-13   0.4750000006E-02  -0.2370250003E-02  -0.2370250003E-02  -0.5059388807E-16   0.8197102786E-14  -0.2224608264E-14   0.2375000003E+01
   0.2009500000E+01   0.0000000000E+00   0.2000935058E-13   0.4500000000E-02   0.0000000000E+00  -0.6827580247E-17   0.5000000000E-02   0.0000000000E+00   0.2001617816E-13   0.2375000004E+01   0.2461926231E-09   0.2461854404E-09   0.1039878108E-13  -0.5033494685E-14   0.1683329694E-13   0.4750000007E-02  -0.2370250004E-02  -0.2370250004E-02  -0.3948223534E-14   0.3532470506E-15   0.1558808802E-14   0.2375000004E+01
   0.2009500000E+01   0.9976297500E+00   0.2078856489E-13   0.4500000000E-02  -0.1122750000E-02  -0.6975486071E-17   0.5000000000E-02  -0.1247500000E-02   0.2079554037E-13   0.2375000003E+01  -0.2030913826E-09  -0.2031197260E-09   0.1622730240E-13  -0.1302350332E-13  -0.3197153054E-14   0.4750000007E-02  -0.2370250003E-02  -0.2370250003E-02  -0.2592024154E-14   0.3356157715E-14   0.3672733894E-14   0.2375000003E+01
   0.2009500000E+01   0.0000000000E+00   0.9976297500E+00   0.4500000000E-02   0.0000000000E+00  -0.1122750000E-02   0.5000000000E-02   0.0000000000E+00  -0.1247500000E-02   0.2375000003E+01   0.1825183871E-09   0.1825463573E-09   0.5842397092E-14   0.1170966010E-13   0.6897394353E-14   0.4750000007E-02  -0.2370250003E-02  -0.2370250003E-02  -0.3837733564E-14   0.1404762517E-14  -0.2229000763E-14   0.2375000003E+01
   0.2009500000E+01   0.9976297500E+00   0.9976297500E+00   0.4500000000E-02  -0.1122750000E-02  -0.1122750000E-02   0.5000000000E-02  -0.1247500000E-02  -0.1247500000E-02   0.2375000003E+01  -0.1507049106E-09  -0.1506942272E-09   0.2647294699E-13  -0.3851268684E-14  -0.1258564470E-13   0.4750000006E-02  -0.2370250003E-02  -0.2370250003E-02  -0.1143815280E-14   0.7684480139E-15  -0.1128136042E-15   0.2375000003E+01
     1     2     3     4     5     6     7     8
     2     9    10     3     6    11    12     7
 VARIABLES = X,Y,Z,DU1,DU2,DU3,U1,U2,U3,S11,S22,S33,S12,S13,S23,E11,E22,E33,E12,E13,E23,SMISES
 ZONE, T="0.4600D+01" F=FEPOINT, I=   12 J=    2 ET=BRICK
   0.0000000000E+00   0.0000000000E+00   0.0000000000E+00   0.0000000000E+00   0.0000000000E+00   0.0000000000E+00   0.0000000000E+00   0.0000000000E+00   0.0000000000E+00   0.3500000006E+01   0.6211897015E-09   0.6211331656E-09  -0.3942922895E-16  -0.8230041778E-13   0.2003570333E-13   0.7000000011E-02  -0.3493000005E-02  -0.3493000005E-02  -0.5470272935E-18   0.1180325703E-13   0.3907720680E-14   0.3500000005E+01
   0.1007000000E+01   0.0000000000E+00   0.7271304354E-14   0.2250000000E-02   0.0000000000E+00   0.5016346752E-17   0.4750000000E-02   0.0000000000E+00   0.7266288007E-14   0.3500000006E+01   0.3281885958E-09   0.3281537049E-09  -0.2437459845E-13   0.2667012468E-13   0.1837150678E-13   0.7000000011E-02  -0.3493000005E-02  -0.3493000005E-02   0.1279112203E-14  -0.9409452946E-15   0.1586648116E-16   0.3500000005E+01
   0.1007000000E+01   0.9965070000E+00   0.7278913850E-14   0.2250000000E-02  -0.1122750000E-02   0.5780318776E-17   0.4750000000E-02  -0.2370250000E-02   0.7273133531E-14   0.3500000005E+01   0.1876433355E-09   0.1876060993E-09  -0.1289543188E-13   0.2818221800E-13  -0.1707106878E-13   0.7000000010E-02  -0.3493000005E-02  -0.3493000005E-02   0.5262147644E-15  -0.3669680966E-14   0.5426128550E-15   0.3500000005E+01
   0.0000000000E+00   0.9965070000E+00   0.1954282285E-14   0.0000000000E+00  -0.1122750000E-02   0.2420415828E-17   0.0000000000E+00  -0.2370250000E-02   0.1951861869E-14   0.3500000006E+01   0.5790137663E-09   0.5789721862E-09   0.1652528468E-13  -0.8359137122E-13  -0.2970293698E-13   0.7000000010E-02  -0.3493000005E-02  -0.3493000005E-02  -0.2868219996E-14   0.6548343856E-14   0.1871041033E-14   0.3500000005E+01
   0.0000000000E+00   0.0000000000E+00   0.9965070000E+00   0.0000000000E+00   0.0000000000E+00  -0.1122750000E-02   0.0000000000E+00   0.0000000000E+00  -0.2370250000E-02   0.3500000005E+01  -0.4762621659E-09  -0.4762213565E-09  -0.1158009999E-15  -0.5353697142E-13   0.2806763249E-13   0.7000000010E-02  -0.3493000005E-02  -0.3493000005E-02   0.8284272556E-19   0.9495639208E-14  -0.1846362323E-15   0.3500000005E+01
   0.1007000000E+01   0.0000000000E+00   0.9965070000E+00   0.2250000000E-02   0.0000000000E+00  -0.1122750000E-02   0.4750000000E-02   0.0000000000E+00  -0.2370250000E-02   0.3500000005E+01  -0.2319098890E-09  -0.2318713177E-09  -0.2085242170E-13   0.4935240887E-13   0.1597808221E-13   0.7000000010E-02  -0.3493000005E-02  -0.3493000005E-02  -0.2776045806E-15  -0.1564356231E-14  -0.1389791197E-14   0.3500000005E+01
   0.1007000000E+01   0.9965070000E+00   0.9965070000E+00   0.2250000000E-02  -0.1122750000E-02  -0.1122750000E-02   0.4750000000E-02  -0.2370250000E-02  -0.2370250000E-02   0.3500000004E+01  -0.3694435261E-09  -0.3694123374E-09   0.5564440089E-14   0.4352188634E-13  -0.1920284085E-13   0.7000000009E-02  -0.3493000005E-02  -0.3493000005E-02   0.1044607180E-14  -0.4147260505E-14  -0.8580935657E-15   0.3500000005E+01
   0.0000000000E+00   0.9965070000E+00   0.9965070000E+00   0.0000000000E+00  -0.1122750000E-02  -0.1122750000E-02   0.0000000000E+00  -0.2370250000E-02  -0.2370250000E-02   0.3500000004E+01  -0.6279912700E-09  -0.6279324657E-09   0.3105532543E-13  -0.6653060198E-13  -0.2222311134E-13   0.7000000009E-02  -0.3493000005E-02  -0.3493000005E-02  -0.5290836310E-16   0.8202753375E-14  -0.2229240194E-14   0.3500000005E+01
   0.2014000000E+01   0.0000000000E+00   0.2002268955E-13   0.4500000000E-02   0.0000000000E+00   0.1333897576E-16   0.9500000000E-02   0.0000000000E+00   0.2000935058E-13   0.3500000006E+01   0.2465374924E-09   0.2465298747E-09   0.9617181099E-14  -0.5118451903E-14   0.1707207155E-13   0.7000000011E-02  -0.3493000005E-02  -0.3493000005E-02  -0.3958394169E-14   0.3429875469E-15   0.1560876077E-14   0.3500000005E+01
   0.2014000000E+01   0.9965070000E+00   0.2080344533E-13   0.4500000000E-02  -0.1122750000E-02   0.1488044242E-16   0.9500000000E-02  -0.2370250000E-02   0.2078856489E-13   0.3500000005E+01  -0.2033528998E-09  -0.2033822451E-09   0.1589426916E-13  -0.1281746156E-13  -0.3117225908E-14   0.7000000010E-02  -0.3493000005E-02  -0.3493000005E-02  -0.2598900279E-14   0.3364993493E-14   0.3673947684E-14   0.3500000005E+01
   0.2014000000E+01   0.0000000000E+00   0.9965070000E+00   0.4500000000E-02   0.0000000000E+00  -0.1122750000E-02   0.9500000000E-02   0.0000000000E+00  -0.2370250000E-02   0.3500000005E+01   0.1830557143E-09   0.1830842701E-09   0.5177479639E-14   0.1220447454E-13   0.6752724962E-14   0.7000000010E-02  -0.3493000005E-02  -0.3493000005E-02  -0.3844353494E-14   0.1407779747E-14  -0.2228777260E-14   0.3500000005E+01
   0.2014000000E+01   0.9965070000E+00   0.9965070000E+00   0.4500000000E-02  -0.1122750000E-02  -0.1122750000E-02   0.9500000000E-02  -0.2370250000E-02  -0.2370250000E-02   0.3500000004E+01  -0.1512617240E-09  -0.1512518567E-09   0.2613106670E-13  -0.3577842943E-14  -0.1303700744E-13   0.7000000009E-02  -0.3493000004E-02  -0.3493000004E-02  -0.1146506128E-14   0.7803361770E-15  -0.1170333309E-15   0.3500000004E+01
     1     2     3     4     5     6     7     8
     2     9    10     3     6    11    12     7
 VARIABLES = X,Y,Z,DU1,DU2,DU3,U1,U2,U3,S11,S22,S33,S12,S13,S23,E11,E22,E33,E12,E13,E23,SMISES
 ZONE, T="0.4650D+01" F=FEPOINT, I=   12 J=    2 ET=BRICK
   0.0000000000E+00   0.0000000000E+00   0.0000000000E+00   0.0000000000E+00   0.0000000000E+00   0.0000000000E+00   0.0000000000E+00   0.0000000000E+00   0.0000000000E+00   0.4625000008E+01   0.6205978605E-09   0.6205420700E-09  -0.4581558908E-16  -0.8286734681E-13   0.1984033938E-13   0.9250000015E-02  -0.4615750007E-02  -0.4615750007E-02  -0.7030911830E-18   0.1179524611E-13   0.3906203504E-14   0.4625000007E+01
   0.1009250000E+01   0.0000000000E+00   0.7266316056E-14   0.2250000000E-02   0.0000000000E+00  -0.4988298446E-17   0.7000000000E-02   0.0000000000E+00   0.7271304354E-14   0.4625000007E+01   0.3278085730E-09   0.3277742738E-09  -0.2452165454E-13   0.2671616887E-13   0.1814722439E-13   0.9250000014E-02  -0.4615750007E-02  -0.4615750007E-02   0.1277265822E-14  -0.9414314089E-15   0.1215123452E-16   0.4625000007E+01
   0.1009250000E+01   0.9953842500E+00   0.7272692394E-14   0.2250000000E-02  -0.1122750000E-02  -0.6221455795E-17   0.7000000000E-02  -0.3493000000E-02   0.7278913850E-14   0.4625000007E+01   0.1875930374E-09   0.1875559380E-09  -0.1302207919E-13   0.2863921594E-13  -0.1698825533E-13   0.9250000013E-02  -0.4615750007E-02  -0.4615750007E-02   0.5213095131E-15  -0.3659298735E-14   0.5468338735E-15   0.4625000007E+01
   0.0000000000E+00   0.9953842500E+00   0.1953085628E-14   0.0000000000E+00  -0.1122750000E-02  -0.1196656739E-17   0.0000000000E+00  -0.3493000000E-02   0.1954282285E-14   0.4625000007E+01   0.5782692505E-09   0.5782281438E-09   0.1679694984E-13  -0.8415003137E-13  -0.2930779947E-13   0.9250000013E-02  -0.4615750007E-02  -0.4615750007E-02  -0.2863048704E-14   0.6542057113E-14   0.1872573117E-14   0.4625000007E+01
   0.0000000000E+00   0.0000000000E+00   0.9953842500E+00   0.0000000000E+00   0.0000000000E+00  -0.1122750000E-02   0.0000000000E+00   0.0000000000E+00  -0.3493000000E-02   0.4625000006E+01  -0.4757458668E-09  -0.4757054846E-09  -0.1496142083E-15  -0.5401112847E-13   0.2785778134E-13   0.9250000013E-02  -0.4615750007E-02  -0.4615750007E-02  -0.5442782276E-18   0.9488923616E-14  -0.1884949797E-15   0.4625000007E+01
   0.1009250000E+01   0.0000000000E+00   0.9953842500E+00   0.2250000000E-02   0.0000000000E+00  -0.1122750000E-02   0.7000000000E-02   0.0000000000E+00  -0.3493000000E-02   0.4625000006E+01  -0.2314434167E-09  -0.2314052151E-09  -0.2041437811E-13   0.4935054831E-13   0.1569099212E-13   0.9250000013E-02  -0.4615750007E-02  -0.4615750007E-02  -0.2723681295E-15  -0.1561496764E-14  -0.1393777602E-14   0.4625000007E+01
   0.1009250000E+01   0.9953842500E+00   0.9953842500E+00   0.2250000000E-02  -0.1122750000E-02  -0.1122750000E-02   0.7000000000E-02  -0.3493000000E-02  -0.3493000000E-02   0.4625000006E+01  -0.3691344839E-09  -0.3691032100E-09   0.5651561427E-14   0.4412120078E-13  -0.1924924277E-13   0.9250000012E-02  -0.4615750006E-02  -0.4615750006E-02   0.1048879810E-14  -0.4142371668E-14  -0.8605209357E-15   0.4625000006E+01
   0.0000000000E+00   0.9953842500E+00   0.9953842500E+00   0.0000000000E+00  -0.1122750000E-02  -0.1122750000E-02   0.0000000000E+00  -0.3493000000E-02  -0.3493000000E-02   0.4625000006E+01  -0.6272211984E-09  -0.6271633373E-09   0.3097308520E-13  -0.6708062568E-13  -0.2195068743E-13   0.9250000012E-02  -0.4615750006E-02  -0.4615750006E-02  -0.5538623071E-16   0.8196192453E-14  -0.2218849598E-14   0.4625000006E+01
   0.2018500000E+01   0.0000000000E+00   0.2000664578E-13   0.4500000000E-02   0.0000000000E+00  -0.1604377353E-16   0.1400000000E-01   0.0000000000E+00   0.2002268955E-13   0.4625000007E+01   0.2459011815E-09   0.2458937581E-09   0.1116997618E-13  -0.4096260938E-14   0.1695111223E-13   0.9250000014E-02  -0.4615750007E-02  -0.4615750007E-02  -0.3937716016E-14   0.3546007168E-15   0.1560749246E-14   0.4625000007E+01
   0.2018500000E+01   0.9953842500E+00   0.2078660660E-13   0.4500000000E-02  -0.1122750000E-02  -0.1683873152E-16   0.1400000000E-01  -0.3493000000E-02   0.2080344533E-13   0.4625000006E+01  -0.2029590168E-09  -0.2029876520E-09   0.1692201706E-13  -0.1365133833E-13  -0.2924617269E-14   0.9250000013E-02  -0.4615750006E-02  -0.4615750006E-02  -0.2581744470E-14   0.3343114938E-14   0.3675963200E-14   0.4625000006E+01
   0.2018500000E+01   0.0000000000E+00   0.9953842500E+00   0.4500000000E-02   0.0000000000E+00  -0.1122750000E-02   0.1400000000E-01   0.0000000000E+00  -0.3493000000E-02   0.4625000007E+01   0.1832216570E-09   0.1832501445E-09   0.4945295897E-14   0.1235796800E-13   0.6796966868E-14   0.9250000013E-02  -0.4615750006E-02  -0.4615750006E-02  -0.3846001830E-14   0.1412267348E-14  -0.2228678046E-14   0.4625000006E+01
   0.2018500000E+01   0.9953842500E+00   0.9953842500E+00   0.4500000000E-02  -0.1122750000E-02  -0.1122750000E-02   0.1400000000E-01  -0.3493000000E-02  -0.3493000000E-02   0.4625000006E+01  -0.1514474981E-09  -0.1514374271E-09   0.2559761006E-13  -0.4469314368E-14  -0.1249242857E-13   0.9250000012E-02  -0.4615750006E-02  -0.4615750006E-02  -0.1155097015E-14   0.7638849449E-15  -0.1099441304E-15   0.4625000006E+01
     1     2     3     4     5     6     7     8
     2     9    10     3     6    11    12     7
 VARIABLES = X,Y,Z,DU1,DU2,DU3,U1,U2,U3,S11,S22,S33,S12,S13,S23,E11,E22,E33,E12,E13,E23,SMISES
 ZONE, T="0.4700D+01" F=FEPOINT, I=   12 J=    2 ET=BRICK
   0.0000000000E+00   0.0000000000E+00   0.0000000000E+00   0.0000000000E+00   0.0000000000E+00   0.0000000000E+00   0.0000000000E+00   0.0000000000E+00   0.0000000000E+00   0.5750000010E+01   0.6202901698E-09   0.6202348472E-09  -0.7047919060E-16  -0.8302268430E-13   0.1974495447E-13   0.1150000002E-01  -0.5738500009E-02  -0.5738500009E-02  -0.5064151977E-18   0.1179332641E-13   0.3905989982E-14   0.5750000009E+01
   0.1011500000E+01   0.0000000000E+00   0.7265157353E-14   0.2250000000E-02   0.0000000000E+00  -0.1158702333E-17   0.9250000000E-02   0.0000000000E+00   0.7266316056E-14   0.5750000009E+01   0.3277883299E-09   0.3277541973E-09  -0.2418868620E-13   0.2761272280E-13   0.1807193398E-13   0.1150000002E-01  -0.5738500009E-02  -0.5738500009E-02   0.1281103525E-14  -0.9344189199E-15   0.1150692494E-16   0.5750000009E+01
   0.1011500000E+01   0.9942615000E+00   0.7271162311E-14   0.2250000000E-02  -0.1122750000E-02  -0.1530082699E-17   0.9250000000E-02  -0.4615750000E-02   0.7272692394E-14   0.5750000008E+01   0.1874395758E-09   0.1874023803E-09  -0.1268249927E-13   0.2801051681E-13  -0.1672033556E-13   0.1150000002E-01  -0.5738500008E-02  -0.5738500008E-02   0.5261381936E-15  -0.3672956780E-14   0.5494629121E-15   0.5750000008E+01
   0.0000000000E+00   0.9942615000E+00   0.1952574876E-14   0.0000000000E+00  -0.1122750000E-02  -0.5107521516E-18   0.0000000000E+00  -0.4615750000E-02   0.1953085628E-14   0.5750000009E+01   0.5781138228E-09   0.5780726491E-09   0.1694445356E-13  -0.8425952837E-13  -0.2933484016E-13   0.1150000002E-01  -0.5738500008E-02  -0.5738500008E-02  -0.2863986367E-14   0.6541457918E-14   0.1868952804E-14   0.5750000008E+01
   0.0000000000E+00   0.0000000000E+00   0.9942615000E+00   0.0000000000E+00   0.0000000000E+00  -0.1122750000E-02   0.0000000000E+00   0.0000000000E+00  -0.4615750000E-02   0.5750000008E+01  -0.4751114743E-09  -0.4750710792E-09  -0.1393545891E-15  -0.5424199877E-13   0.2769703955E-13   0.1150000002E-01  -0.5738500008E-02  -0.5738500008E-02   0.5271885467E-18   0.9490064622E-14  -0.1886904596E-15   0.5750000008E+01
   0.1011500000E+01   0.0000000000E+00   0.9942615000E+00   0.2250000000E-02   0.0000000000E+00  -0.1122750000E-02   0.9250000000E-02   0.0000000000E+00  -0.4615750000E-02   0.5750000008E+01  -0.2315817544E-09  -0.2315442962E-09  -0.2150821489E-13   0.5006310838E-13   0.1572359052E-13   0.1150000002E-01  -0.5738500008E-02  -0.5738500008E-02  -0.2883419841E-15  -0.1561414024E-14  -0.1396124073E-14   0.5750000008E+01
   0.1011500000E+01   0.9942615000E+00   0.9942615000E+00   0.2250000000E-02  -0.1122750000E-02  -0.1122750000E-02   0.9250000000E-02  -0.4615750000E-02  -0.4615750000E-02   0.5750000007E+01  -0.3687562267E-09  -0.3687250490E-09   0.4566614075E-14   0.4362717965E-13  -0.1893916030E-13   0.1150000002E-01  -0.5738500008E-02  -0.5738500008E-02   0.1030752795E-14  -0.4141974258E-14  -0.8569381034E-15   0.5750000008E+01
   0.0000000000E+00   0.9942615000E+00   0.9942615000E+00   0.0000000000E+00  -0.1122750000E-02  -0.1122750000E-02   0.0000000000E+00  -0.4615750000E-02  -0.4615750000E-02   0.5750000007E+01  -0.6277346693E-09  -0.6276767858E-09   0.3155728596E-13  -0.6707303539E-13  -0.2213872220E-13   0.1150000002E-01  -0.5738500008E-02  -0.5738500008E-02  -0.4555911033E-16   0.8193481980E-14  -0.2226147458E-14   0.5750000008E+01
   0.2023000000E+01   0.0000000000E+00   0.2000400809E-13   0.4500000000E-02   0.0000000000E+00  -0.2637690629E-17   0.1850000000E-01   0.0000000000E+00   0.2000664578E-13   0.5750000009E+01   0.2460885156E-09   0.2460808166E-09   0.1060927848E-13  -0.5351034698E-14   0.1659363124E-13   0.1150000002E-01  -0.5738500009E-02  -0.5738500009E-02  -0.3941161479E-14   0.3649445754E-15   0.1555152197E-14   0.5750000009E+01
   0.2023000000E+01   0.9942615000E+00   0.2078168322E-13   0.4500000000E-02  -0.1122750000E-02  -0.4923373997E-17   0.1850000000E-01  -0.4615750000E-02   0.2078660660E-13   0.5750000008E+01  -0.2030818030E-09  -0.2031095505E-09   0.1633072323E-13  -0.1276660012E-13  -0.3444237670E-14   0.1150000002E-01  -0.5738500008E-02  -0.5738500008E-02  -0.2588001536E-14   0.3359970809E-14   0.3670059696E-14   0.5750000008E+01
   0.2023000000E+01   0.0000000000E+00   0.9942615000E+00   0.4500000000E-02   0.0000000000E+00  -0.1122750000E-02   0.1850000000E-01   0.0000000000E+00  -0.4615750000E-02   0.5750000008E+01   0.1819049790E-09   0.1819336459E-09   0.6804321840E-14   0.1136844032E-13   0.6871669887E-14   0.1150000002E-01  -0.5738500008E-02  -0.5738500008E-02  -0.3820737897E-14   0.1383469884E-14  -0.2226259240E-14   0.5750000008E+01
   0.2023000000E+01   0.9942615000E+00   0.9942615000E+00   0.4500000000E-02  -0.1122750000E-02  -0.1122750000E-02   0.1850000000E-01  -0.4615750000E-02  -0.4615750000E-02   0.5750000007E+01  -0.1504745431E-09  -0.1504641613E-09   0.2693486447E-13  -0.3203411089E-14  -0.1247478991E-13   0.1150000001E-01  -0.5738500007E-02  -0.5738500007E-02  -0.1130583920E-14   0.7913474699E-15  -0.1153027900E-15   0.5750000007E+01
     1     2     3     4     5     6     7     8
     2     9    10     3     6    11    12     7
 VARIABLES = X,Y,Z,DU1,DU2,DU3,U1,U2,U3,S11,S22,S33,S12,S13,S23,E11,E22,E33,E12,E13,E23,SMISES
 ZONE, T="0.4750D+01" F=FEPOINT, I=   12 J=    2 ET=BRICK
   0.0000000000E+00   0.0000000000E+00   0.0000000000E+00   0.0000000000E+00   0.0000000000E+00   0.0000000000E+00   0.0000000000E+00   0.0000000000E+00   0.0000000000E+00   0.6875000011E+01   0.6218727542E-09   0.6218170272E-09  -0.9552654736E-16  -0.8167605674E-13   0.2035588175E-13   0.1375000002E-01  -0.6861250011E-02  -0.6861250011E-02   0.1730309971E-18   0.1181031805E-13   0.3911657907E-14   0.6875000011E+01
   0.1013750000E+01   0.0000000000E+00   0.7276664843E-14   0.2250000000E-02   0.0000000000E+00   0.1150748999E-16   0.1150000000E-01   0.0000000000E+00   0.7265157353E-14   0.6875000011E+01   0.3285444504E-09   0.3285093821E-09  -0.2458277335E-13   0.2656330036E-13   0.1829378020E-13   0.1375000002E-01  -0.6861250011E-02  -0.6861250011E-02   0.1273507388E-14  -0.9434000845E-15   0.1536229512E-16   0.6875000011E+01
   0.1013750000E+01   0.9931387500E+00   0.7283998068E-14   0.2250000000E-02  -0.1122750000E-02   0.1283575676E-16   0.1150000000E-01  -0.5738500000E-02   0.7271162311E-14   0.6875000010E+01   0.1886648919E-09   0.1886266199E-09  -0.1327036426E-13   0.2818645293E-13  -0.1775857683E-13   0.1375000002E-01  -0.6861250010E-02  -0.6861250010E-02   0.5219988899E-15  -0.3668368595E-14   0.5311793405E-15   0.6875000010E+01
   0.0000000000E+00   0.9931387500E+00   0.1956266061E-14   0.0000000000E+00  -0.1122750000E-02   0.3691184543E-17   0.0000000000E+00  -0.5738500000E-02   0.1952574876E-14   0.6875000011E+01   0.5789605299E-09   0.5789175680E-09   0.1727365969E-13  -0.8353703956E-13  -0.2940492733E-13   0.1375000002E-01  -0.6861250010E-02  -0.6861250010E-02  -0.2859467712E-14   0.6548933299E-14   0.1872414879E-14   0.6875000010E+01
   0.0000000000E+00   0.0000000000E+00   0.9931387500E+00   0.0000000000E+00   0.0000000000E+00  -0.1122750000E-02   0.0000000000E+00   0.0000000000E+00  -0.5738500000E-02   0.6875000010E+01  -0.4767497194E-09  -0.4767088401E-09  -0.1391281380E-15  -0.5296280180E-13   0.2817741685E-13   0.1375000002E-01  -0.6861250010E-02  -0.6861250010E-02  -0.6646456173E-18   0.9508507689E-14  -0.1838786000E-15   0.6875000010E+01
   0.1013750000E+01   0.0000000000E+00   0.9931387500E+00   0.2250000000E-02   0.0000000000E+00  -0.1122750000E-02   0.1150000000E-01   0.0000000000E+00  -0.5738500000E-02   0.6875000010E+01  -0.2322620402E-09  -0.2322235244E-09  -0.2072802502E-13   0.4890517462E-13   0.1590285704E-13   0.1375000002E-01  -0.6861250010E-02  -0.6861250010E-02  -0.2768689329E-15  -0.1572788614E-14  -0.1392355806E-14   0.6875000010E+01
   0.1013750000E+01   0.9931387500E+00   0.9931387500E+00   0.2250000000E-02  -0.1122750000E-02  -0.1122750000E-02   0.1150000000E-01  -0.5738500000E-02  -0.5738500000E-02   0.6875000009E+01  -0.3700501172E-09  -0.3700173564E-09   0.5480664342E-14   0.4388406184E-13  -0.1997811575E-13   0.1375000002E-01  -0.6861250009E-02  -0.6861250009E-02   0.1044941879E-14  -0.4137863570E-14  -0.8684745282E-15   0.6875000009E+01
   0.0000000000E+00   0.9931387500E+00   0.9931387500E+00   0.0000000000E+00  -0.1122750000E-02  -0.1122750000E-02   0.0000000000E+00  -0.5738500000E-02  -0.5738500000E-02   0.6875000009E+01  -0.6284313006E-09  -0.6283720745E-09   0.3092250464E-13  -0.6623344671E-13  -0.2226174300E-13   0.1375000002E-01  -0.6861250009E-02  -0.6861250009E-02  -0.5386502077E-16   0.8204581235E-14  -0.2227391211E-14   0.6875000009E+01
   0.2027500000E+01   0.0000000000E+00   0.2004122363E-13   0.4500000000E-02   0.0000000000E+00   0.3721554086E-16   0.2300000000E-01   0.0000000000E+00   0.2000400809E-13   0.6875000011E+01   0.2457983042E-09   0.2457891758E-09   0.1277412348E-13  -0.3326572097E-14   0.1729892289E-13   0.1375000002E-01  -0.6861250010E-02  -0.6861250010E-02  -0.3913715626E-14   0.3803316628E-15   0.1562149801E-14   0.6875000010E+01
   0.2027500000E+01   0.9931387500E+00   0.2082296634E-13   0.4500000000E-02  -0.1122750000E-02   0.4128311443E-16   0.2300000000E-01  -0.5738500000E-02   0.2078168322E-13   0.6875000009E+01  -0.2017523689E-09  -0.2017804435E-09   0.1794961596E-13  -0.1504446859E-13  -0.3038775126E-14   0.1375000002E-01  -0.6861250010E-02  -0.6861250010E-02  -0.2564538988E-14   0.3327868354E-14   0.3674755931E-14   0.6875000010E+01
   0.2027500000E+01   0.0000000000E+00   0.9931387500E+00   0.4500000000E-02   0.0000000000E+00  -0.1122750000E-02   0.2300000000E-01   0.0000000000E+00  -0.5738500000E-02   0.6875000010E+01   0.1826155958E-09   0.1826439330E-09   0.3943014075E-14   0.1338429070E-13   0.7701530637E-14   0.1375000002E-01  -0.6861250010E-02  -0.6861250010E-02  -0.3865887215E-14   0.1414671781E-14  -0.2216568606E-14   0.6875000010E+01
   0.2027500000E+01   0.9931387500E+00   0.9931387500E+00   0.4500000000E-02  -0.1122750000E-02  -0.1122750000E-02   0.2300000000E-01  -0.5738500000E-02  -0.5738500000E-02   0.6875000009E+01  -0.1519873726E-09  -0.1519771282E-09   0.2485499048E-13  -0.5818270984E-14  -0.1182128297E-13   0.1375000002E-01  -0.6861250009E-02  -0.6861250009E-02  -0.1158202870E-14   0.7485508366E-15  -0.1065920870E-15   0.6875000009E+01
     1     2     3     4     5     6     7     8
     2     9    10     3     6    11    12     7
 VARIABLES = X,Y,Z,DU1,DU2,DU3,U1,U2,U3,S11,S22,S33,S12,S13,S23,E11,E22,E33,E12,E13,E23,SMISES
 ZONE, T="0.4800D+01" F=FEPOINT, I=   12 J=    2 ET=BRICK
   0.0000000000E+00   0.0000000000E+00   0.0000000000E+00   0.0000000000E+00   0.0000000000E+00   0.0000000000E+00   0.0000000000E+00   0.0000000000E+00   0.0000000000E+00   0.8000000013E+01   0.6202409809E-09   0.6201850833E-09  -0.1022336841E-15  -0.8326066439E-13   0.1970355853E-13   0.1600000003E-01  -0.7984000013E-02  -0.7984000013E-02  -0.6088789372E-19   0.1178918299E-13   0.3905695561E-14   0.8000000013E+01
   0.1016000000E+01   0.0000000000E+00   0.7262735545E-14   0.2250000000E-02   0.0000000000E+00  -0.1392929774E-16   0.1375000000E-01   0.0000000000E+00   0.7276664843E-14   0.8000000013E+01   0.3275859589E-09   0.3275510532E-09  -0.2464157816E-13   0.2674254541E-13   0.1783192957E-13   0.1600000002E-01  -0.7984000012E-02  -0.7984000012E-02   0.1274995579E-14  -0.9406112330E-15   0.8280345966E-17   0.8000000012E+01
   0.1016000000E+01   0.9920160000E+00   0.7267243347E-14   0.2250000000E-02  -0.1122750000E-02  -0.1675472118E-16   0.1375000000E-01  -0.6861250000E-02   0.7283998068E-14   0.8000000012E+01   0.1880101501E-09   0.1879730914E-09  -0.1339041525E-13   0.2925789045E-13  -0.1751780257E-13   0.1600000002E-01  -0.7984000011E-02  -0.7984000011E-02   0.5138987369E-15  -0.3655946475E-14   0.5421834873E-15   0.8000000011E+01
   0.0000000000E+00   0.9920160000E+00   0.1952301725E-14   0.0000000000E+00  -0.1122750000E-02  -0.3964336061E-17   0.0000000000E+00  -0.6861250000E-02   0.1956266061E-14   0.8000000012E+01   0.5773541163E-09   0.5773131885E-09   0.1785601665E-13  -0.8491853662E-13  -0.2882089319E-13   0.1600000002E-01  -0.7984000012E-02  -0.7984000012E-02  -0.2850852092E-14   0.6530945368E-14   0.1874493015E-14   0.8000000012E+01
   0.0000000000E+00   0.0000000000E+00   0.9920160000E+00   0.0000000000E+00   0.0000000000E+00  -0.1122750000E-02   0.0000000000E+00   0.0000000000E+00  -0.6861250000E-02   0.8000000011E+01  -0.4754816356E-09  -0.4754421133E-09  -0.1188901950E-15  -0.5444958564E-13   0.2770625228E-13   0.1600000002E-01  -0.7984000012E-02  -0.7984000012E-02   0.2126542530E-17   0.9489361331E-14  -0.1930008154E-15   0.8000000012E+01
   0.1016000000E+01   0.0000000000E+00   0.9920160000E+00   0.2250000000E-02   0.0000000000E+00  -0.1122750000E-02   0.1375000000E-01   0.0000000000E+00  -0.6861250000E-02   0.8000000011E+01  -0.2314233905E-09  -0.2313861097E-09  -0.2011712338E-13   0.4927632683E-13   0.1564413555E-13   0.1600000002E-01  -0.7984000011E-02  -0.7984000011E-02  -0.2709348752E-15  -0.1571979756E-14  -0.1391376895E-14   0.8000000011E+01
   0.1016000000E+01   0.9920160000E+00   0.9920160000E+00   0.2250000000E-02  -0.1122750000E-02  -0.1122750000E-02   0.1375000000E-01  -0.6861250000E-02  -0.6861250000E-02   0.8000000010E+01  -0.3689068078E-09  -0.3688748976E-09   0.5687333561E-14   0.4508650508E-13  -0.1951147070E-13   0.1600000002E-01  -0.7984000010E-02  -0.7984000010E-02   0.1050855423E-14  -0.4122384858E-14  -0.8717980126E-15   0.8000000010E+01
   0.0000000000E+00   0.9920160000E+00   0.9920160000E+00   0.0000000000E+00  -0.1122750000E-02  -0.1122750000E-02   0.0000000000E+00  -0.6861250000E-02  -0.6861250000E-02   0.8000000010E+01  -0.6266502798E-09  -0.6265918715E-09   0.3080794248E-13  -0.6748803294E-13  -0.2141592647E-13   0.1600000002E-01  -0.7984000011E-02  -0.7984000011E-02  -0.5741792531E-16   0.8187723828E-14  -0.2209900656E-14   0.8000000011E+01
   0.2032000000E+01   0.0000000000E+00   0.1999612037E-13   0.4500000000E-02   0.0000000000E+00  -0.4510326321E-16   0.2750000000E-01   0.0000000000E+00   0.2004122363E-13   0.8000000012E+01   0.2451481218E-09   0.2451413089E-09   0.1346761476E-13  -0.3141044680E-14   0.1710496667E-13   0.1600000002E-01  -0.7984000012E-02  -0.7984000012E-02  -0.3911868183E-14   0.3573992808E-15   0.1562243062E-14   0.8000000012E+01
   0.2032000000E+01   0.9920160000E+00   0.2077668818E-13   0.4500000000E-02  -0.1122750000E-02  -0.4627816284E-16   0.2750000000E-01  -0.6861250000E-02   0.2082296634E-13   0.8000000011E+01  -0.2020357514E-09  -0.2020629458E-09   0.1798083636E-13  -0.1486636036E-13  -0.2753891841E-14   0.1600000002E-01  -0.7984000011E-02  -0.7984000011E-02  -0.2568891961E-14   0.3327450965E-14   0.3681094133E-14   0.8000000011E+01
   0.2032000000E+01   0.0000000000E+00   0.9920160000E+00   0.4500000000E-02   0.0000000000E+00  -0.1122750000E-02   0.2750000000E-01   0.0000000000E+00  -0.6861250000E-02   0.8000000011E+01   0.1828228628E-09   0.1828519068E-09   0.4768049876E-14   0.1342946314E-13   0.7183699872E-14   0.1600000002E-01  -0.7984000011E-02  -0.7984000011E-02  -0.3844316221E-14   0.1417231361E-14  -0.2225272684E-14   0.8000000011E+01
   0.2032000000E+01   0.9920160000E+00   0.9920160000E+00   0.4500000000E-02  -0.1122750000E-02  -0.1122750000E-02   0.2750000000E-01  -0.6861250000E-02  -0.6861250000E-02   0.8000000010E+01  -0.1519013706E-09  -0.1518915216E-09   0.2483853147E-13  -0.6095867268E-14  -0.1178969553E-13   0.1600000002E-01  -0.7984000010E-02  -0.7984000010E-02  -0.1164839785E-14   0.7300509162E-15  -0.1013457259E-15   0.8000000010E+01
     1     2     3     4     5     6     7     8
     2     9    10     3     6    11    12     7
 VARIABLES = X,Y,Z,DU1,DU2,DU3,U1,U2,U3,S11,S22,S33,S12,S13,S23,E11,E22,E33,E12,E13,E23,SMISES
 ZONE, T="0.4850D+01" F=FEPOINT, I=   12 J=    2 ET=BRICK
   0.0000000000E+00   0.0000000000E+00   0.0000000000E+00   0.0000000000E+00   0.0000000000E+00   0.0000000000E+00   0.0000000000E+00   0.0000000000E+00   0.0000000000E+00   0.9125000015E+01   0.6210542797E-09   0.6209973300E-09  -0.1134162057E-15  -0.8225306152E-13   0.2008283935E-13   0.1825000003E-01  -0.9106750014E-02  -0.9106750014E-02  -0.1782138719E-17   0.1180116460E-13   0.3907593725E-14   0.9125000014E+01
   0.1018250000E+01   0.0000000000E+00   0.7272029261E-14   0.2250000000E-02   0.0000000000E+00   0.9293715839E-17   0.1600000000E-01   0.0000000000E+00   0.7262735545E-14   0.9125000014E+01   0.3285537539E-09   0.3285194142E-09  -0.2439340669E-13   0.2642475804E-13   0.1834521497E-13   0.1825000003E-01  -0.9106750014E-02  -0.9106750014E-02   0.1281913290E-14  -0.9423852282E-15   0.1589303561E-16   0.9125000014E+01
   0.1018250000E+01   0.9908932500E+00   0.7279742228E-14   0.2250000000E-02  -0.1122750000E-02   0.1249888097E-16   0.1600000000E-01  -0.7984000000E-02   0.7267243347E-14   0.9125000013E+01   0.1878242258E-09   0.1877876816E-09  -0.1267581094E-13   0.2771817180E-13  -0.1709903717E-13   0.1825000003E-01  -0.9106750013E-02  -0.9106750013E-02   0.5276619016E-15  -0.3665507735E-14   0.5438160945E-15   0.9125000013E+01
   0.0000000000E+00   0.9908932500E+00   0.1954402892E-14   0.0000000000E+00  -0.1122750000E-02   0.2101167362E-17   0.0000000000E+00  -0.7984000000E-02   0.1952301725E-14   0.9125000014E+01   0.5788888442E-09   0.5788468899E-09   0.1734154131E-13  -0.8351390577E-13  -0.2913623099E-13   0.1825000003E-01  -0.9106750013E-02  -0.9106750013E-02  -0.2859103311E-14   0.6546826280E-14   0.1873090085E-14   0.9125000013E+01
   0.0000000000E+00   0.0000000000E+00   0.9908932500E+00   0.0000000000E+00   0.0000000000E+00  -0.1122750000E-02   0.0000000000E+00   0.0000000000E+00  -0.7984000000E-02   0.9125000013E+01  -0.4762710491E-09  -0.4762307145E-09  -0.1056608754E-15  -0.5329738159E-13   0.2771943320E-13   0.1825000003E-01  -0.9106750013E-02  -0.9106750013E-02   0.2429210051E-17   0.9499878759E-14  -0.1866223534E-15   0.9125000013E+01
   0.1018250000E+01   0.0000000000E+00   0.9908932500E+00   0.2250000000E-02   0.0000000000E+00  -0.1122750000E-02   0.1600000000E-01   0.0000000000E+00  -0.7984000000E-02   0.9125000013E+01  -0.2322481444E-09  -0.2322103869E-09  -0.2087223407E-13   0.4922447512E-13   0.1618835863E-13   0.1825000003E-01  -0.9106750013E-02  -0.9106750013E-02  -0.2806881579E-15  -0.1566194307E-14  -0.1391337185E-14   0.9125000013E+01
   0.1018250000E+01   0.9908932500E+00   0.9908932500E+00   0.2250000000E-02  -0.1122750000E-02  -0.1122750000E-02   0.1600000000E-01  -0.7984000000E-02  -0.7984000000E-02   0.9125000012E+01  -0.3692621571E-09  -0.3692295777E-09   0.5383839648E-14   0.4389940481E-13  -0.1918136759E-13   0.1825000002E-01  -0.9106750012E-02  -0.9106750012E-02   0.1043266199E-14  -0.4142715552E-14  -0.8554739652E-15   0.9125000012E+01
   0.0000000000E+00   0.9908932500E+00   0.9908932500E+00   0.0000000000E+00  -0.1122750000E-02  -0.1122750000E-02   0.0000000000E+00  -0.7984000000E-02  -0.7984000000E-02   0.9125000012E+01  -0.6283431755E-09  -0.6282840510E-09   0.3102991942E-13  -0.6556736860E-13  -0.2189640917E-13   0.1825000002E-01  -0.9106750012E-02  -0.9106750012E-02  -0.5487372140E-16   0.8213493803E-14  -0.2218790305E-14   0.9125000012E+01
   0.2036500000E+01   0.0000000000E+00   0.2002886815E-13   0.4500000000E-02   0.0000000000E+00   0.3274777978E-16   0.3200000000E-01   0.0000000000E+00   0.1999612037E-13   0.9125000014E+01   0.2469420041E-09   0.2469333510E-09   0.8884351521E-14  -0.5501071122E-14   0.1675600045E-13   0.1825000003E-01  -0.9106750014E-02  -0.9106750014E-02  -0.3976544021E-14   0.3306270664E-15   0.1554652570E-14   0.9125000014E+01
   0.2036500000E+01   0.9908932500E+00   0.2080720055E-13   0.4500000000E-02  -0.1122750000E-02   0.3051237742E-16   0.3200000000E-01  -0.7984000000E-02   0.2077668818E-13   0.9125000013E+01  -0.2034350933E-09  -0.2034637691E-09   0.1471993236E-13  -0.1183832668E-13  -0.3776756830E-14   0.1825000003E-01  -0.9106750013E-02  -0.9106750013E-02  -0.2615005698E-14   0.3394348311E-14   0.3670667400E-14   0.9125000013E+01
   0.2036500000E+01   0.0000000000E+00   0.9908932500E+00   0.4500000000E-02   0.0000000000E+00  -0.1122750000E-02   0.3200000000E-01   0.0000000000E+00  -0.7984000000E-02   0.9125000013E+01   0.1821462620E-09   0.1821759072E-09   0.6474696176E-14   0.1126450760E-13   0.6765799469E-14   0.1825000003E-01  -0.9106750013E-02  -0.9106750013E-02  -0.3822092449E-14   0.1391382411E-14  -0.2221595432E-14   0.9125000013E+01
   0.2036500000E+01   0.9908932500E+00   0.9908932500E+00   0.4500000000E-02  -0.1122750000E-02  -0.1122750000E-02   0.3200000000E-01  -0.7984000000E-02  -0.7984000000E-02   0.9125000012E+01  -0.1508977287E-09  -0.1508886177E-09   0.2716705103E-13  -0.2947464752E-14  -0.1286353911E-13   0.1825000002E-01  -0.9106750012E-02  -0.9106750012E-02  -0.1134723583E-14   0.7868315402E-15  -0.1227395159E-15   0.9125000012E+01
     1     2     3     4     5     6     7     8
     2     9    10     3     6    11    12     7
 VARIABLES = X,Y,Z,DU1,DU2,DU3,U1,U2,U3,S11,S22,S33,S12,S13,S23,E11,E22,E33,E12,E13,E23,SMISES
 ZONE, T="0.4900D+01" F=FEPOINT, I=   12 J=    2 ET=BRICK
   0.0000000000E+00   0.0000000000E+00   0.0000000000E+00   0.0000000000E+00   0.0000000000E+00   0.0000000000E+00   0.0000000000E+00   0.0000000000E+00   0.0000000000E+00   0.1025000002E+02   0.7842768918E-09   0.7843198189E-09  -0.4881843033E-16   0.1593532999E-12   0.2300592508E-12   0.2550000004E-01  -0.1272950002E-01  -0.1272950002E-01   0.2406964919E-17   0.1485677184E-13   0.7011729830E-14   0.1025000002E+02
   0.1025500000E+01   0.0000000000E+00   0.8569453096E-14   0.7250000000E-02   0.0000000000E+00   0.1297423835E-14   0.1825000000E-01   0.0000000000E+00   0.7272029261E-14   0.1025000002E+02   0.3496555643E-09   0.3495776877E-09  -0.4078752195E-13   0.3617675991E-13   0.3809019131E-13   0.2550000004E-01  -0.1272950002E-01  -0.1272950002E-01   0.9234642135E-15  -0.6948497698E-15   0.3693883349E-15   0.1025000002E+02
   0.1025500000E+01   0.9872705000E+00   0.8753428318E-14   0.7250000000E-02  -0.3622750000E-02   0.1473686090E-14   0.1825000000E-01  -0.9106750000E-02   0.7279742228E-14   0.1025000001E+02   0.1888256716E-09   0.1887293525E-09  -0.8013120267E-13  -0.1164265547E-13  -0.4449691783E-13   0.2550000004E-01  -0.1272950002E-01  -0.1272950002E-01  -0.5329889899E-15  -0.4073451047E-14   0.6795833578E-16   0.1025000001E+02
   0.0000000000E+00   0.9872705000E+00   0.3505983918E-14   0.0000000000E+00  -0.3622750000E-02   0.1551581026E-14   0.0000000000E+00  -0.9106750000E-02   0.1954402892E-14   0.1025000002E+02   0.6128516994E-09   0.6125253686E-09  -0.7700398232E-13  -0.7869036470E-13   0.2114208843E-13   0.2550000004E-01  -0.1272950002E-01  -0.1272950002E-01  -0.4142710344E-14   0.6187419078E-14   0.2488211942E-14   0.1025000001E+02
   0.0000000000E+00   0.0000000000E+00   0.9872705000E+00   0.0000000000E+00   0.0000000000E+00  -0.3622750000E-02   0.0000000000E+00   0.0000000000E+00  -0.9106750000E-02   0.1025000001E+02  -0.4922461244E-09  -0.4917840023E-09  -0.1287963501E-15  -0.1114031410E-13   0.4476213608E-13   0.2550000004E-01  -0.1272950002E-01  -0.1272950002E-01   0.2767077388E-17   0.9728553889E-14   0.1580876863E-15   0.1025000001E+02
   0.1025500000E+01   0.0000000000E+00   0.9872705000E+00   0.7250000000E-02   0.0000000000E+00  -0.3622750000E-02   0.1825000000E-01   0.0000000000E+00  -0.9106750000E-02   0.1025000001E+02  -0.2744785613E-09  -0.2743881916E-09   0.1143425398E-13   0.4078253213E-14   0.2732891497E-13   0.2550000004E-01  -0.1272950002E-01  -0.1272950002E-01   0.1387666869E-15  -0.2039222940E-14  -0.1137326702E-14   0.1025000001E+02
   0.1025500000E+01   0.9872705000E+00   0.9872705000E+00   0.7250000000E-02  -0.3622750000E-02  -0.3622750000E-02   0.1825000000E-01  -0.9106750000E-02  -0.9106750000E-02   0.1025000001E+02  -0.4176044875E-09  -0.4175379546E-09   0.7878696250E-13   0.2043807506E-13  -0.5480021353E-13   0.2550000003E-01  -0.1272950002E-01  -0.1272950002E-01   0.2140876068E-14  -0.4248821021E-14  -0.1426697981E-14   0.1025000001E+02
   0.0000000000E+00   0.9872705000E+00   0.9872705000E+00   0.0000000000E+00  -0.3622750000E-02  -0.3622750000E-02   0.0000000000E+00  -0.9106750000E-02  -0.9106750000E-02   0.1025000001E+02  -0.7314666759E-09  -0.7313752246E-09   0.6000123447E-13  -0.1867002886E-13  -0.1651267807E-12   0.2550000003E-01  -0.1272950002E-01  -0.1272950002E-01   0.4761976253E-15   0.8500088736E-14  -0.4377439296E-14   0.1025000001E+02
   0.2051000000E+01   0.0000000000E+00   0.2170733763E-13   0.1450000000E-01   0.0000000000E+00   0.1678469478E-14   0.3650000000E-01   0.0000000000E+00   0.2002886815E-13   0.1025000002E+02   0.2744199450E-09   0.2744950846E-09  -0.5003814755E-13  -0.7652500150E-13   0.3160245905E-13   0.2550000004E-01  -0.1272950002E-01  -0.1272950002E-01  -0.4721545235E-14  -0.7262292383E-15   0.1794911372E-14   0.1025000002E+02
   0.2051000000E+01   0.9872705000E+00   0.2260469439E-13   0.1450000000E-01  -0.3622750000E-02   0.1797493833E-14   0.3650000000E-01  -0.9106750000E-02   0.2080720055E-13   0.1025000001E+02  -0.2223131649E-09  -0.2223587539E-09  -0.5194284488E-13   0.5186187274E-14   0.3581846526E-13   0.2550000004E-01  -0.1272950002E-01  -0.1272950002E-01  -0.3494042902E-14   0.3494960182E-14   0.4156480713E-14   0.1025000001E+02
   0.2051000000E+01   0.0000000000E+00   0.9872705000E+00   0.1450000000E-01   0.0000000000E+00  -0.3622750000E-02   0.3650000000E-01   0.0000000000E+00  -0.9106750000E-02   0.1025000001E+02   0.2374058574E-09   0.2374714389E-09  -0.7387768456E-14   0.3027640194E-13  -0.2929202202E-13   0.2550000004E-01  -0.1272950002E-01  -0.1272950002E-01  -0.3918353959E-14   0.1657636999E-14  -0.2690416155E-14   0.1025000001E+02
   0.2051000000E+01   0.9872705000E+00   0.9872705000E+00   0.1450000000E-01  -0.3622750000E-02  -0.3622750000E-02   0.3650000000E-01  -0.9106750000E-02  -0.9106750000E-02   0.1025000001E+02  -0.1561378056E-09  -0.1561954061E-09   0.6713942158E-13   0.4050340196E-14  -0.2476929510E-13   0.2550000003E-01  -0.1272950002E-01  -0.1272950002E-01  -0.4300199618E-15   0.8728444760E-15  -0.3383530733E-15   0.1025000001E+02
     1     2     3     4     5     6     7     8
     2     9    10     3     6    11    12     7
 VARIABLES = X,Y,Z,DU1,DU2,DU3,U1,U2,U3,S11,S22,S33,S12,S13,S23,E11,E22,E33,E12,E13,E23,SMISES
 ZONE, T="0.4950D+01" F=FEPOINT, I=   12 J=    2 ET=BRICK
   0.0000000000E+00   0.0000000000E+00   0.0000000000E+00   0.0000000000E+00   0.0000000000E+00   0.0000000000E+00   0.0000000000E+00   0.0000000000E+00   0.0000000000E+00   0.1137500002E+02  -0.4040699236E-09  -0.4046373023E-09  -0.5130608004E-16  -0.1034660207E-11  -0.2668777676E-12   0.5025000008E-01  -0.2510225004E-01  -0.2510225004E-01   0.2560589306E-17  -0.1333007244E-13  -0.2609528454E-14   0.1137500002E+02
   0.1050250000E+01   0.0000000000E+00  -0.5488696225E-14   0.2475000000E-01   0.0000000000E+00  -0.1405814932E-13   0.2550000000E-01   0.0000000000E+00   0.8569453096E-14   0.1137500002E+02   0.2662828434E-09   0.2662900304E-09  -0.3540238024E-13   0.1199090831E-12   0.2172511031E-12   0.5025000008E-01  -0.2510225004E-01  -0.2510225004E-01   0.4054518121E-15   0.1881967370E-14   0.5158833218E-14   0.1137500002E+02
   0.1050250000E+01   0.9748977500E+00  -0.2907902586E-14   0.2475000000E-01  -0.1237275000E-01  -0.1166133090E-13   0.2550000000E-01  -0.1272950000E-01   0.8753428318E-14   0.1137500002E+02  -0.1154453881E-10  -0.1185709274E-10  -0.5263752180E-13   0.1114405258E-12  -0.3301640413E-14   0.5025000007E-01  -0.2510225004E-01  -0.2510225004E-01  -0.8920495269E-15  -0.8502256917E-15   0.4602996735E-15   0.1137500002E+02
   0.0000000000E+00   0.9748977500E+00  -0.1308416627E-14   0.0000000000E+00  -0.1237275000E-01  -0.4814400545E-14   0.0000000000E+00  -0.1272950000E-01   0.3505983918E-14   0.1137500002E+02  -0.1677376974E-09  -0.1676195395E-09   0.3401922865E-12  -0.3118242280E-12  -0.2582137158E-12   0.5025000007E-01  -0.2510225004E-01  -0.2510225004E-01   0.5320634116E-14  -0.1112484639E-14  -0.4234590026E-14   0.1137500002E+02
   0.0000000000E+00   0.0000000000E+00   0.9748977500E+00   0.0000000000E+00   0.0000000000E+00  -0.1237275000E-01   0.0000000000E+00   0.0000000000E+00  -0.1272950000E-01   0.1137500002E+02   0.1326812787E-10   0.1268318496E-10   0.2807469343E-16  -0.3368370451E-12   0.7493645340E-13   0.5025000007E-01  -0.2510225004E-01  -0.2510225004E-01   0.1144811499E-17   0.7376745434E-15   0.1450644100E-14   0.1137500002E+02
   0.1050250000E+01   0.0000000000E+00   0.9748977500E+00   0.2475000000E-01   0.0000000000E+00  -0.1237275000E-01   0.2550000000E-01   0.0000000000E+00  -0.1272950000E-01   0.1137500002E+02   0.1388760071E-09   0.1393264147E-09  -0.5107436862E-13   0.2504509586E-12   0.5670906301E-13   0.5025000007E-01  -0.2510225004E-01  -0.2510225004E-01  -0.1223578113E-14   0.4172461417E-14   0.5465353159E-16   0.1137500002E+02
   0.1050250000E+01   0.9748977500E+00   0.9748977500E+00   0.2475000000E-01  -0.1237275000E-01  -0.1237275000E-01   0.2550000000E-01  -0.1272950000E-01  -0.1272950000E-01   0.1137500001E+02   0.1360954231E-10   0.1373687828E-10  -0.9972297875E-14   0.1878229117E-12  -0.1638892841E-12   0.5025000007E-01  -0.2510225003E-01  -0.2510225003E-01   0.8369433130E-15   0.4906074879E-15  -0.4636454271E-14   0.1137500001E+02
   0.0000000000E+00   0.9748977500E+00   0.9748977500E+00   0.0000000000E+00  -0.1237275000E-01  -0.1237275000E-01   0.0000000000E+00  -0.1272950000E-01  -0.1272950000E-01   0.1137500002E+02   0.5843527960E-10   0.5853469561E-10  -0.3242931622E-13  -0.3404908389E-12   0.8334311580E-13   0.5025000007E-01  -0.2510225003E-01  -0.2510225003E-01  -0.1000714584E-14  -0.3747791142E-15  -0.1481869822E-15   0.1137500002E+02
   0.2100500000E+01   0.0000000000E+00  -0.6284931061E-14   0.4950000000E-01   0.0000000000E+00  -0.2799226869E-13   0.5100000000E-01   0.0000000000E+00   0.2170733763E-13   0.1137500002E+02  -0.8421494499E-10  -0.8418823164E-10   0.2344706756E-13   0.1631986569E-12  -0.2517319712E-12   0.5025000008E-01  -0.2510225004E-01  -0.2510225004E-01  -0.3143197981E-14   0.4097497944E-14  -0.4802672269E-14   0.1137500002E+02
   0.2100500000E+01   0.9748977500E+00  -0.8686065005E-14   0.4950000000E-01  -0.1237275000E-01  -0.3129075939E-13   0.5100000000E-01  -0.1272950000E-01   0.2260469439E-13   0.1137500002E+02  -0.1894294464E-09  -0.1889398486E-09  -0.3515997485E-12  -0.2528996028E-12  -0.1272156156E-12   0.5025000007E-01  -0.2510225004E-01  -0.2510225004E-01  -0.1107607463E-13  -0.3041849068E-14   0.2918706633E-15   0.1137500002E+02
   0.2100500000E+01   0.0000000000E+00   0.9748977500E+00   0.4950000000E-01   0.0000000000E+00  -0.1237275000E-01   0.5100000000E-01   0.0000000000E+00  -0.1272950000E-01   0.1137500002E+02  -0.2181633147E-09  -0.2183850073E-09   0.3158408581E-12  -0.2722345110E-12  -0.2177133564E-13   0.5025000007E-01  -0.2510225004E-01  -0.2510225004E-01   0.4168240663E-14  -0.5400690095E-14  -0.2631995819E-14   0.1137500002E+02
   0.2100500000E+01   0.9748977500E+00   0.9748977500E+00   0.4950000000E-01  -0.1237275000E-01  -0.1237275000E-01   0.5100000000E-01  -0.1272950000E-01  -0.1272950000E-01   0.1137500001E+02   0.1728998627E-09   0.1731355709E-09   0.4295578194E-12  -0.7501039741E-13   0.1028076473E-12   0.5025000006E-01  -0.2510225003E-01  -0.2510225003E-01   0.9263455310E-14  -0.1055234068E-14   0.2445534425E-14   0.1137500001E+02
     1     2     3     4     5     6     7     8
     2     9    10     3     6    11    12     7
 VARIABLES = X,Y,Z,DU1,DU2,DU3,U1,U2,U3,S11,S22,S33,S12,S13,S23,E11,E22,E33,E12,E13,E23,SMISES
 ZONE, T="0.5000D+01" F=FEPOINT, I=   12 J=    2 ET=BRICK
   0.0000000000E+00   0.0000000000E+00   0.0000000000E+00   0.0000000000E+00   0.0000000000E+00   0.0000000000E+00   0.0000000000E+00   0.0000000000E+00   0.0000000000E+00   0.1250000002E+02   0.7509264171E-10   0.7508734374E-10  -0.1674844429E-15  -0.4339231971E-14   0.4985418029E-14   0.7500000012E-01  -0.3747500006E-01  -0.3747500006E-01  -0.1841064454E-17  -0.9192832884E-15   0.6446820603E-15   0.1250000002E+02
   0.1075000000E+01   0.0000000000E+00   0.5314513687E-15   0.2475000000E-01   0.0000000000E+00   0.6020147594E-14   0.5025000000E-01   0.0000000000E+00  -0.5488696225E-14   0.1250000002E+02   0.2408564991E-09   0.2408433258E-09   0.1720681816E-14   0.7939348324E-14   0.2654359832E-14   0.7500000012E-01  -0.3747500006E-01  -0.3747500006E-01   0.7876303869E-15   0.5769150550E-15   0.2360862540E-14   0.1250000002E+02
   0.1075000000E+01   0.9625250000E+00   0.1711472197E-14   0.2475000000E-01  -0.1237275000E-01   0.4619374783E-14   0.5025000000E-01  -0.2510225000E-01  -0.2907902586E-14   0.1250000002E+02   0.6588893281E-10   0.6588119157E-10  -0.9145461228E-14   0.1171379292E-13  -0.5369497082E-14   0.7500000011E-01  -0.3747500005E-01  -0.3747500005E-01  -0.4461376286E-15  -0.1673340209E-14   0.3344265004E-15   0.1250000002E+02
   0.0000000000E+00   0.9625250000E+00   0.3229786151E-15   0.0000000000E+00  -0.1237275000E-01   0.1631395242E-14   0.0000000000E+00  -0.2510225000E-01  -0.1308416627E-14   0.1250000002E+02   0.1620289646E-09   0.1620244119E-09  -0.9832989748E-14  -0.7732293887E-14  -0.4518065986E-14   0.7500000011E-01  -0.3747500005E-01  -0.3747500005E-01   0.8676902838E-15   0.2158698937E-14  -0.1147331941E-14   0.1250000002E+02
   0.0000000000E+00   0.0000000000E+00   0.9625250000E+00   0.0000000000E+00   0.0000000000E+00  -0.1237275000E-01   0.0000000000E+00   0.0000000000E+00  -0.2510225000E-01   0.1250000002E+02  -0.1759225608E-09  -0.1759086052E-09   0.2896036287E-16  -0.1922889372E-13   0.5666680746E-14   0.7500000011E-01  -0.3747500005E-01  -0.3747500005E-01   0.2913925687E-17   0.3807793992E-14   0.6616010861E-15   0.1250000002E+02
   0.1075000000E+01   0.0000000000E+00   0.9625250000E+00   0.2475000000E-01   0.0000000000E+00  -0.1237275000E-01   0.5025000000E-01   0.0000000000E+00  -0.2510225000E-01   0.1250000002E+02  -0.2861429065E-10  -0.2861120807E-10   0.5350801919E-14  -0.3399661795E-14   0.4340428925E-14   0.7500000011E-01  -0.3747500005E-01  -0.3747500005E-01  -0.4123947689E-15   0.9773713893E-15  -0.4700103760E-15   0.1250000002E+02
   0.1075000000E+01   0.9625250000E+00   0.9625250000E+00   0.2475000000E-01  -0.1237275000E-01  -0.1237275000E-01   0.5025000000E-01  -0.2510225000E-01  -0.2510225000E-01   0.1250000002E+02  -0.1364505903E-09  -0.1364452278E-09  -0.3748355564E-14   0.1211423209E-14  -0.3376412776E-14   0.7500000010E-01  -0.3747500005E-01  -0.3747500005E-01   0.7532806224E-15  -0.1565388405E-14  -0.2492740948E-14   0.1250000002E+02
   0.0000000000E+00   0.9625250000E+00   0.9625250000E+00   0.0000000000E+00  -0.1237275000E-01  -0.1237275000E-01   0.0000000000E+00  -0.2510225000E-01  -0.2510225000E-01   0.1250000002E+02  -0.2114272983E-09  -0.2114118659E-09  -0.7234412584E-14  -0.2106537373E-13  -0.4076078015E-14   0.7500000010E-01  -0.3747500005E-01  -0.3747500005E-01  -0.7188251252E-15   0.2839595125E-14  -0.1135771168E-14   0.1250000002E+02
   0.2150000000E+01   0.0000000000E+00   0.5039120873E-14   0.4950000000E-01   0.0000000000E+00   0.1132405193E-13   0.1005000000E+00   0.0000000000E+00  -0.6284931061E-14   0.1250000002E+02   0.4845336624E-10   0.4845015962E-10   0.1286882344E-13   0.8875947013E-14   0.6183402995E-14   0.7500000011E-01  -0.3747500006E-01  -0.3747500006E-01  -0.2791243948E-14   0.2102606463E-14  -0.1461417119E-14   0.1250000002E+02
   0.2150000000E+01   0.9625250000E+00   0.4311851201E-14   0.4950000000E-01  -0.1237275000E-01   0.1299791621E-13   0.1005000000E+00  -0.2510225000E-01  -0.8686065005E-14   0.1250000002E+02  -0.1778246256E-09  -0.1778346758E-09   0.8829257281E-15   0.7565608927E-14  -0.1894487962E-14   0.7500000010E-01  -0.3747500005E-01  -0.3747500005E-01  -0.6141959756E-14   0.2463626054E-15   0.1583630970E-14   0.1250000002E+02
   0.2150000000E+01   0.0000000000E+00   0.9625250000E+00   0.4950000000E-01   0.0000000000E+00  -0.1237275000E-01   0.1005000000E+00   0.0000000000E+00  -0.2510225000E-01   0.1250000002E+02  -0.1585263631E-10  -0.1583823082E-10   0.4402013550E-14   0.7369355424E-14   0.2443639554E-14   0.7500000010E-01  -0.3747500005E-01  -0.3747500005E-01   0.4212138890E-15  -0.1766047922E-14  -0.2059904763E-14   0.1250000002E+02
   0.2150000000E+01   0.9625250000E+00   0.9625250000E+00   0.4950000000E-01  -0.1237275000E-01  -0.1237275000E-01   0.1005000000E+00  -0.2510225000E-01  -0.2510225000E-01   0.1250000002E+02   0.1456373521E-10   0.1456887646E-10  -0.7407431640E-14  -0.5478158410E-14  -0.4793320884E-14   0.7500000010E-01  -0.3747500005E-01  -0.3747500005E-01   0.3494457364E-14  -0.2670329042E-15   0.9843916846E-15   0.1250000002E+02
     1     2     3     4     5     6     7     8
     2     9    10     3     6    11    12     7
 VARIABLES = X,Y,Z,DU1,DU2,DU3,U1,U2,U3,S11,S22,S33,S12,S13,S23,E11,E22,E33,E12,E13,E23,SMISES
 ZONE, T="0.5050D+01" F=FEPOINT, I=   12 J=    2 ET=BRICK
   0.0000000000E+00   0.0000000000E+00   0.0000000000E+00   0.0000000000E+00   0.0000000000E+00   0.0000000000E+00   0.0000000000E+00   0.0000000000E+00   0.0000000000E+00   0.1137500002E+02   0.5730097877E-09   0.5732996276E-09  -0.1775107473E-15   0.1118944144E-11   0.7174809056E-12   0.7275000011E-01  -0.3635225006E-01  -0.3635225006E-01  -0.3819564360E-17   0.1252623726E-13   0.9186063542E-14   0.1137500002E+02
   0.1072750000E+01   0.0000000000E+00   0.6482032147E-14  -0.2250000000E-02   0.0000000000E+00   0.5950580778E-14   0.7500000000E-01   0.0000000000E+00   0.5314513687E-15   0.1137500002E+02   0.2813752741E-09   0.2806695868E-09   0.1342537537E-12   0.1206462537E-12   0.9303094820E-14   0.7275000011E-01  -0.3635225006E-01  -0.3635225006E-01   0.2384236302E-14   0.1918317763E-14   0.2439633975E-14   0.1137500002E+02
   0.1072750000E+01   0.9636477500E+00   0.7702082360E-14  -0.2250000000E-02   0.1122750000E-02   0.5990610163E-14   0.7500000000E-01  -0.3747500000E-01   0.1711472197E-14   0.1137500002E+02   0.2900278054E-09   0.2900913206E-09   0.2565632889E-12  -0.1886015851E-12  -0.3009585172E-12   0.7275000010E-01  -0.3635225005E-01  -0.3635225005E-01   0.2729203131E-14  -0.4139781066E-14  -0.3210170033E-14   0.1137500002E+02
   0.0000000000E+00   0.9636477500E+00   0.4594957989E-14   0.0000000000E+00   0.1122750000E-02   0.4271979374E-14   0.0000000000E+00  -0.3747500000E-01   0.3229786151E-15   0.1137500002E+02   0.5139828411E-09   0.5132770063E-09  -0.2738924208E-12   0.1202908240E-13   0.2369378252E-12   0.7275000011E-01  -0.3635225005E-01  -0.3635225005E-01  -0.2281154577E-14   0.2437630025E-14   0.1772395875E-14   0.1137500002E+02
   0.0000000000E+00   0.0000000000E+00   0.9636477500E+00   0.0000000000E+00   0.0000000000E+00   0.1122750000E-02   0.0000000000E+00   0.0000000000E+00  -0.3747500000E-01   0.1137500002E+02  -0.2694045576E-09  -0.2681532930E-09   0.6311475717E-16   0.1538366249E-12   0.2200215671E-12   0.7275000011E-01  -0.3635225005E-01  -0.3635225005E-01   0.5075146443E-17   0.5889179815E-14   0.3263140601E-14   0.1137500002E+02
   0.1072750000E+01   0.0000000000E+00   0.9636477500E+00  -0.2250000000E-02   0.0000000000E+00   0.1122750000E-02   0.7500000000E-01   0.0000000000E+00  -0.3747500000E-01   0.1137500002E+02  -0.3538045593E-09  -0.3538895546E-09  -0.2649270191E-12   0.1330895263E-12   0.3929207929E-12   0.7275000010E-01  -0.3635225005E-01  -0.3635225005E-01  -0.3645862205E-14   0.2600569796E-14   0.4174243529E-14   0.1137500002E+02
   0.1072750000E+01   0.9636477500E+00   0.9636477500E+00  -0.2250000000E-02   0.1122750000E-02   0.1122750000E-02   0.7500000000E-01  -0.3747500000E-01  -0.3747500000E-01   0.1137500001E+02  -0.3738451847E-09  -0.3731643736E-09  -0.2453031587E-12  -0.2543275940E-12   0.8275960234E-13   0.7275000010E-01  -0.3635225005E-01  -0.3635225005E-01  -0.2130721149E-14  -0.4680024256E-14  -0.1462360303E-14   0.1137500001E+02
   0.0000000000E+00   0.9636477500E+00   0.9636477500E+00   0.0000000000E+00   0.1122750000E-02   0.1122750000E-02   0.0000000000E+00  -0.3747500000E-01  -0.3747500000E-01   0.1137500001E+02  -0.7044016004E-09  -0.7041451570E-09   0.3396231543E-13   0.4078641323E-12  -0.2606020691E-12   0.7275000010E-01  -0.3635225005E-01  -0.3635225005E-01  -0.2046418193E-15   0.7989574946E-14  -0.4248272402E-14   0.1137500002E+02
   0.2145500000E+01   0.0000000000E+00   0.1380171795E-13  -0.4500000000E-02   0.0000000000E+00   0.8762597076E-14   0.1500000000E+00   0.0000000000E+00   0.5039120873E-14   0.1137500002E+02   0.5450054090E-09   0.5448591869E-09  -0.1492778413E-13  -0.5119265741E-12   0.8978918392E-12   0.7275000011E-01  -0.3635225005E-01  -0.3635225005E-01  -0.3103810835E-14  -0.4181862732E-14   0.9232380583E-14   0.1137500002E+02
   0.2145500000E+01   0.9636477500E+00   0.1842111550E-13  -0.4500000000E-02   0.1122750000E-02   0.1410926430E-13   0.1500000000E+00  -0.3747500000E-01   0.4311851201E-14   0.1137500002E+02  -0.1249537263E-09  -0.1264189169E-09   0.5035638315E-12   0.3855696528E-12   0.2096281106E-12   0.7275000010E-01  -0.3635225005E-01  -0.3635225005E-01  -0.1371320521E-15   0.4764428143E-14   0.4125669457E-14   0.1137500002E+02
   0.2145500000E+01   0.0000000000E+00   0.9636477500E+00  -0.4500000000E-02   0.0000000000E+00   0.1122750000E-02   0.1500000000E+00   0.0000000000E+00  -0.3747500000E-01   0.1137500002E+02   0.6678941409E-10   0.6802080897E-10  -0.4076163452E-12   0.4843515710E-12   0.2385396422E-12   0.7275000010E-01  -0.3635225005E-01  -0.3635225005E-01  -0.4531778654E-14   0.3970696126E-14   0.7629969048E-15   0.1137500002E+02
   0.2145500000E+01   0.9636477500E+00   0.9636477500E+00  -0.4500000000E-02   0.1122750000E-02   0.1122750000E-02   0.1500000000E+00  -0.3747500000E-01  -0.3747500000E-01   0.1137500001E+02  -0.2845974764E-09  -0.2846857727E-09  -0.4033004233E-12  -0.1469698422E-12  -0.4488795794E-12   0.7275000009E-01  -0.3635225005E-01  -0.3635225005E-01  -0.1223779427E-14  -0.1927846228E-14  -0.4336608203E-14   0.1137500001E+02
     1     2     3     4     5     6     7     8
     2     9    10     3     6    11    12     7
 VARIABLES = X,Y,Z,DU1,DU2,DU3,U1,U2,U3,S11,S22,S33,S12,S13,S23,E11,E22,E33,E12,E13,E23,SMISES
 ZONE, T="0.5100D+01" F=FEPOINT, I=   12 J=    2 ET=BRICK
   0.0000000000E+00   0.0000000000E+00   0.0000000000E+00   0.0000000000E+00   0.0000000000E+00   0.0000000000E+00   0.0000000000E+00   0.0000000000E+00   0.0000000000E+00   0.1025000002E+02   0.7475784661E-10   0.7474971573E-10  -0.1859572028E-15  -0.5567918533E-14   0.3927127761E-14   0.7050000011E-01  -0.3522950006E-01  -0.3522950006E-01  -0.1468338279E-16  -0.9415606921E-15   0.6406218869E-15   0.1025000002E+02
   0.1070500000E+01   0.0000000000E+00   0.5309139503E-15  -0.2250000000E-02   0.0000000000E+00  -0.5951118197E-14   0.7275000000E-01   0.0000000000E+00   0.6482032147E-14   0.1025000002E+02   0.2420714662E-09   0.2420592028E-09   0.1630407629E-14   0.7058895248E-14   0.3265479233E-14   0.7050000011E-01  -0.3522950005E-01  -0.3522950005E-01   0.8346172645E-15   0.5811288143E-15   0.2365643452E-14   0.1025000002E+02
   0.1070500000E+01   0.9647705000E+00   0.1714676179E-14  -0.2250000000E-02   0.1122750000E-02  -0.5987406181E-14   0.7275000000E-01  -0.3635225000E-01   0.7702082360E-14   0.1025000001E+02   0.6595206010E-10   0.6594351196E-10  -0.9412022635E-14   0.1273143241E-13  -0.5237976301E-14   0.7050000010E-01  -0.3522950005E-01  -0.3522950005E-01  -0.4389473240E-15  -0.1695098329E-14   0.3019888271E-15   0.1025000001E+02
   0.0000000000E+00   0.9647705000E+00   0.3163581527E-15   0.0000000000E+00   0.1122750000E-02  -0.4278599836E-14   0.0000000000E+00  -0.3635225000E-01   0.4594957989E-14   0.1025000002E+02   0.1630892623E-09   0.1630853758E-09  -0.9812780902E-14  -0.6504142841E-14  -0.5726958575E-14   0.7050000010E-01  -0.3522950005E-01  -0.3522950005E-01   0.9047697648E-15   0.2197406192E-14  -0.1168964512E-14   0.1025000001E+02
   0.0000000000E+00   0.0000000000E+00   0.9647705000E+00   0.0000000000E+00   0.0000000000E+00   0.1122750000E-02   0.0000000000E+00   0.0000000000E+00  -0.3635225000E-01   0.1025000001E+02  -0.1776705527E-09  -0.1776583655E-09   0.6882206614E-16  -0.1834475592E-13   0.6488721228E-14   0.7050000010E-01  -0.3522950005E-01  -0.3522950005E-01   0.3963624022E-17   0.3833594928E-14   0.6407440627E-15   0.1025000001E+02
   0.1070500000E+01   0.0000000000E+00   0.9647705000E+00  -0.2250000000E-02   0.0000000000E+00   0.1122750000E-02   0.7275000000E-01   0.0000000000E+00  -0.3635225000E-01   0.1025000001E+02  -0.2942463214E-10  -0.2942063961E-10   0.6715788840E-14  -0.3560388424E-14   0.4622920448E-14   0.7050000010E-01  -0.3522950005E-01  -0.3522950005E-01  -0.3794469924E-15   0.9659632050E-15  -0.4547719284E-15   0.1025000001E+02
   0.1070500000E+01   0.9647705000E+00   0.9647705000E+00  -0.2250000000E-02   0.1122750000E-02   0.1122750000E-02   0.7275000000E-01  -0.3635225000E-01  -0.3635225000E-01   0.1025000001E+02  -0.1374402163E-09  -0.1374338408E-09  -0.2109452065E-14   0.1711266496E-14  -0.3796581460E-14   0.7050000009E-01  -0.3522950005E-01  -0.3522950005E-01   0.7885260057E-15  -0.1547902994E-14  -0.2532214994E-14   0.1025000001E+02
   0.0000000000E+00   0.9647705000E+00   0.9647705000E+00   0.0000000000E+00   0.1122750000E-02   0.1122750000E-02   0.0000000000E+00  -0.3635225000E-01  -0.3635225000E-01   0.1025000001E+02  -0.2111322277E-09  -0.2111155523E-09  -0.8165201727E-14  -0.2068562277E-13  -0.3171314517E-14   0.7050000009E-01  -0.3522950005E-01  -0.3522950005E-01  -0.7301980904E-15   0.2810441720E-14  -0.1067087113E-14   0.1025000001E+02
   0.2141000000E+01   0.0000000000E+00   0.5064554698E-14  -0.4500000000E-02   0.0000000000E+00  -0.8737163251E-14   0.1455000000E+00   0.0000000000E+00   0.1380171795E-13   0.1025000002E+02   0.5031177785E-10   0.5030804587E-10   0.9154040998E-14   0.7119910231E-14   0.5935900049E-14   0.7050000011E-01  -0.3522950005E-01  -0.3522950005E-01  -0.2839785329E-14   0.2227450666E-14  -0.1454372010E-14   0.1025000002E+02
   0.2141000000E+01   0.9647705000E+00   0.4335758686E-14  -0.4500000000E-02   0.1122750000E-02  -0.1408535682E-13   0.1455000000E+00  -0.3635225000E-01   0.1842111550E-13   0.1025000001E+02  -0.1786910990E-09  -0.1787023029E-09  -0.3101386061E-14   0.8087960583E-14  -0.1776125017E-14   0.7050000010E-01  -0.3522950005E-01  -0.3522950005E-01  -0.6206651029E-14   0.7826855076E-16   0.1593474323E-14   0.1025000001E+02
   0.2141000000E+01   0.0000000000E+00   0.9647705000E+00  -0.4500000000E-02   0.0000000000E+00   0.1122750000E-02   0.1455000000E+00   0.0000000000E+00  -0.3635225000E-01   0.1025000001E+02  -0.1597750167E-10  -0.1596371078E-10   0.4132423228E-14   0.5231396813E-14   0.1420714098E-14   0.7050000010E-01  -0.3522950005E-01  -0.3522950005E-01   0.4557767244E-15  -0.1826538999E-14  -0.2099015307E-14   0.1025000001E+02
   0.2141000000E+01   0.9647705000E+00   0.9647705000E+00  -0.4500000000E-02   0.1122750000E-02   0.1122750000E-02   0.1455000000E+00  -0.3635225000E-01  -0.3635225000E-01   0.1025000001E+02   0.1301112576E-10   0.1301453635E-10  -0.6259902446E-14  -0.5444666235E-14  -0.5366374451E-14   0.7050000009E-01  -0.3522950005E-01  -0.3522950005E-01   0.3541025461E-14  -0.3356386665E-15   0.9909740088E-15   0.1025000001E+02
     1     2     3     4     5     6     7     8
     2     9    10     3     6    11    12     7
 VARIABLES = X,Y,Z,DU1,DU2,DU3,U1,U2,U3,S11,S22,S33,S12,S13,S23,E11,E22,E33,E12,E13,E23,SMISES
 ZONE, T="0.5150D+01" F=FEPOINT, I=   12 J=    2 ET=BRICK
   0.0000000000E+00   0.0000000000E+00   0.0000000000E+00   0.0000000000E+00   0.0000000000E+00   0.0000000000E+00   0.0000000000E+00   0.0000000000E+00   0.0000000000E+00   0.9125000014E+01   0.7427316794E-10   0.7426671221E-10  -0.1938920855E-15  -0.6195222479E-14   0.4395876559E-14   0.6825000011E-01  -0.3410675005E-01  -0.3410675005E-01  -0.8456878540E-19  -0.9319505257E-15   0.6495847281E-15   0.9125000014E+01
   0.1068250000E+01   0.0000000000E+00   0.5198120036E-15  -0.2250000000E-02   0.0000000000E+00  -0.1110194666E-16   0.7050000000E-01   0.0000000000E+00   0.5309139503E-15   0.9125000014E+01   0.2403908180E-09   0.2403789094E-09  -0.3694030911E-15   0.6398885247E-14   0.2414326955E-14   0.6825000011E-01  -0.3410675005E-01  -0.3410675005E-01   0.7698054098E-15   0.5142914986E-15   0.2363265470E-14   0.9125000014E+01
   0.1068250000E+01   0.9658932500E+00   0.1698526967E-14  -0.2250000000E-02   0.1122750000E-02  -0.1614921240E-16   0.7050000000E-01  -0.3522950000E-01   0.1714676179E-14   0.9125000013E+01   0.6589342972E-10   0.6588485183E-10  -0.1190483270E-13   0.1500475820E-13  -0.5668494926E-14   0.6825000010E-01  -0.3410675005E-01  -0.3410675005E-01  -0.4610636571E-15  -0.1605701653E-14   0.2941206621E-15   0.9125000013E+01
   0.0000000000E+00   0.9658932500E+00   0.3191534685E-15   0.0000000000E+00   0.1122750000E-02   0.2795315801E-17   0.0000000000E+00  -0.3522950000E-01   0.3163581527E-15   0.9125000013E+01   0.1598911615E-09   0.1598883217E-09  -0.8702854892E-14  -0.8937337325E-14  -0.3941876151E-14   0.6825000010E-01  -0.3410675005E-01  -0.3410675005E-01   0.9020754684E-15   0.2151294977E-14  -0.1139635589E-14   0.9125000013E+01
   0.0000000000E+00   0.0000000000E+00   0.9658932500E+00   0.0000000000E+00   0.0000000000E+00   0.1122750000E-02   0.0000000000E+00   0.0000000000E+00  -0.3522950000E-01   0.9125000013E+01  -0.1761534434E-09  -0.1761419074E-09   0.6949644090E-16  -0.1954221907E-13   0.6154480859E-14   0.6825000010E-01  -0.3410675005E-01  -0.3410675005E-01  -0.5353516897E-17   0.3788909262E-14   0.6291548511E-15   0.9125000013E+01
   0.1068250000E+01   0.0000000000E+00   0.9658932500E+00  -0.2250000000E-02   0.0000000000E+00   0.1122750000E-02   0.7050000000E-01   0.0000000000E+00  -0.3522950000E-01   0.9125000013E+01  -0.2797257792E-10  -0.2796934660E-10   0.7849180744E-14  -0.4952516360E-14   0.3821525794E-14   0.6825000010E-01  -0.3410675005E-01  -0.3410675005E-01  -0.3649313017E-15   0.1013023416E-14  -0.4583606110E-15   0.9125000013E+01
   0.1068250000E+01   0.9658932500E+00   0.9658932500E+00  -0.2250000000E-02   0.1122750000E-02   0.1122750000E-02   0.7050000000E-01  -0.3522950000E-01  -0.3522950000E-01   0.9125000012E+01  -0.1363712721E-09  -0.1363655547E-09  -0.1572230999E-14   0.4107241775E-14  -0.4245889919E-14   0.6825000009E-01  -0.3410675004E-01  -0.3410675004E-01   0.7736134639E-15  -0.1612536999E-14  -0.2525420854E-14   0.9125000012E+01
   0.0000000000E+00   0.9658932500E+00   0.9658932500E+00   0.0000000000E+00   0.1122750000E-02   0.1122750000E-02   0.0000000000E+00  -0.3522950000E-01  -0.3522950000E-01   0.9125000012E+01  -0.2090506423E-09  -0.2090359128E-09  -0.8380463964E-14  -0.2290536607E-13  -0.2135788389E-14   0.6825000009E-01  -0.3410675005E-01  -0.3410675005E-01  -0.7229836848E-15   0.2832394338E-14  -0.1091600216E-14   0.9125000012E+01
   0.2136500000E+01   0.0000000000E+00   0.5013834573E-14  -0.4500000000E-02   0.0000000000E+00  -0.5072012502E-16   0.1410000000E+00   0.0000000000E+00   0.5064554698E-14   0.9125000014E+01   0.4627358732E-10   0.4626994059E-10   0.1588828509E-13   0.1132111103E-13   0.5657191254E-14   0.6825000010E-01  -0.3410675005E-01  -0.3410675005E-01  -0.2753582741E-14   0.2160634919E-14  -0.1469700476E-14   0.9125000014E+01
   0.2136500000E+01   0.9658932500E+00   0.4283366613E-14  -0.4500000000E-02   0.1122750000E-02  -0.5239207327E-16   0.1410000000E+00  -0.3522950000E-01   0.4335758686E-14   0.9125000013E+01  -0.1767213362E-09  -0.1767289558E-09   0.1578621748E-14   0.4831087525E-14  -0.1132296571E-14   0.6825000010E-01  -0.3410675005E-01  -0.3410675005E-01  -0.6148001052E-14   0.1170822442E-15   0.1604078378E-14   0.9125000013E+01
   0.2136500000E+01   0.0000000000E+00   0.9658932500E+00  -0.4500000000E-02   0.0000000000E+00   0.1122750000E-02   0.1410000000E+00   0.0000000000E+00  -0.3522950000E-01   0.9125000013E+01  -0.1505010109E-10  -0.1503648762E-10   0.2261396417E-14   0.8469752401E-14   0.2072421581E-14   0.6825000010E-01  -0.3410675005E-01  -0.3410675005E-01   0.4453442372E-15  -0.1845038223E-14  -0.2072896133E-14   0.9125000013E+01
   0.2136500000E+01   0.9658932500E+00   0.9658932500E+00  -0.4500000000E-02   0.1122750000E-02   0.1122750000E-02   0.1410000000E+00  -0.3522950000E-01  -0.3522950000E-01   0.9125000012E+01   0.1266524854E-10   0.1266900707E-10  -0.9051815752E-14  -0.8685689356E-14  -0.3783072848E-14   0.6825000009E-01  -0.3410675004E-01  -0.3410675004E-01   0.3501443176E-14  -0.3139911323E-15   0.9741914036E-15   0.9125000012E+01
     1     2     3     4     5     6     7     8
     2     9    10     3     6    11    12     7
 VARIABLES = X,Y,Z,DU1,DU2,DU3,U1,U2,U3,S11,S22,S33,S12,S13,S23,E11,E22,E33,E12,E13,E23,SMISES
 ZONE, T="0.5200D+01" F=FEPOINT, I=   12 J=    2 ET=BRICK
   0.0000000000E+00   0.0000000000E+00   0.0000000000E+00   0.0000000000E+00   0.0000000000E+00   0.0000000000E+00   0.0000000000E+00   0.0000000000E+00   0.0000000000E+00   0.8000000013E+01   0.7547869074E-10   0.7547071842E-10  -0.1936765495E-15  -0.4497262415E-14   0.4795024338E-14   0.6600000010E-01  -0.3298400005E-01  -0.3298400005E-01   0.5334314613E-17  -0.9413348999E-15   0.6502440457E-15   0.8000000013E+01
   0.1066000000E+01   0.0000000000E+00   0.5351983296E-15  -0.2250000000E-02   0.0000000000E+00   0.1538632596E-16   0.6825000000E-01   0.0000000000E+00   0.5198120036E-15   0.8000000013E+01   0.2416257334E-09   0.2416133589E-09   0.1132015975E-14   0.6900454317E-14   0.2938933636E-14   0.6600000010E-01  -0.3298400005E-01  -0.3298400005E-01   0.7886522186E-15   0.5833617687E-15   0.2361262937E-14   0.8000000012E+01
   0.1066000000E+01   0.9670160000E+00   0.1716982874E-14  -0.2250000000E-02   0.1122750000E-02   0.1845590741E-16   0.6825000000E-01  -0.3410675000E-01   0.1698526967E-14   0.8000000011E+01   0.6652439888E-10   0.6651549589E-10  -0.1043176626E-13   0.1276585692E-13  -0.5704965532E-14   0.6600000009E-01  -0.3298400005E-01  -0.3298400005E-01  -0.4580581976E-15  -0.1680463869E-14   0.2962050651E-15   0.8000000011E+01
   0.0000000000E+00   0.9670160000E+00   0.3216147502E-15   0.0000000000E+00   0.1122750000E-02   0.2461281743E-17   0.0000000000E+00  -0.3410675000E-01   0.3191534685E-15   0.8000000012E+01   0.1624378307E-09   0.1624341593E-09  -0.9337701362E-14  -0.7078451141E-14  -0.5136380272E-14   0.6600000010E-01  -0.3298400005E-01  -0.3298400005E-01   0.9257944197E-15   0.2180166151E-14  -0.1161517879E-14   0.8000000012E+01
   0.0000000000E+00   0.0000000000E+00   0.9670160000E+00   0.0000000000E+00   0.0000000000E+00   0.1122750000E-02   0.0000000000E+00   0.0000000000E+00  -0.3410675000E-01   0.8000000011E+01  -0.1775473822E-09  -0.1775332492E-09   0.4921864830E-16  -0.1794085310E-13   0.6406739104E-14   0.6600000010E-01  -0.3298400005E-01  -0.3298400005E-01   0.5311014672E-18   0.3818843459E-14   0.6360899994E-15   0.8000000012E+01
   0.1066000000E+01   0.0000000000E+00   0.9670160000E+00  -0.2250000000E-02   0.0000000000E+00   0.1122750000E-02   0.6825000000E-01   0.0000000000E+00  -0.3410675000E-01   0.8000000011E+01  -0.2908188445E-10  -0.2907758063E-10   0.6580908831E-14  -0.4201113969E-14   0.4410823130E-14   0.6600000009E-01  -0.3298400005E-01  -0.3298400005E-01  -0.3697760918E-15   0.9858833267E-15  -0.4347933380E-15   0.8000000011E+01
   0.1066000000E+01   0.9670160000E+00   0.9670160000E+00  -0.2250000000E-02   0.1122750000E-02   0.1122750000E-02   0.6825000000E-01  -0.3410675000E-01  -0.3410675000E-01   0.8000000010E+01  -0.1373273746E-09  -0.1373211101E-09  -0.2319928244E-14   0.1695006502E-14  -0.4249602111E-14   0.6600000009E-01  -0.3298400004E-01  -0.3298400004E-01   0.8215694023E-15  -0.1556378204E-14  -0.2518095805E-14   0.8000000010E+01
   0.0000000000E+00   0.9670160000E+00   0.9670160000E+00   0.0000000000E+00   0.1122750000E-02   0.1122750000E-02   0.0000000000E+00  -0.3410675000E-01  -0.3410675000E-01   0.8000000010E+01  -0.2115943199E-09  -0.2115783959E-09  -0.7682931279E-14  -0.2070227405E-13  -0.3471946319E-14   0.6600000009E-01  -0.3298400004E-01  -0.3298400004E-01  -0.7636839613E-15   0.2831143864E-14  -0.1078102982E-14   0.8000000011E+01
   0.2132000000E+01   0.0000000000E+00   0.5065270440E-14  -0.4500000000E-02   0.0000000000E+00   0.5143586704E-16   0.1365000000E+00   0.0000000000E+00   0.5013834573E-14   0.8000000012E+01   0.4812979435E-10   0.4812568176E-10   0.1328278541E-13   0.1010960342E-13   0.6010244837E-14   0.6600000010E-01  -0.3298400005E-01  -0.3298400005E-01  -0.2791287293E-14   0.2105930560E-14  -0.1458651447E-14   0.8000000012E+01
   0.2132000000E+01   0.9670160000E+00   0.4336827546E-14  -0.4500000000E-02   0.1122750000E-02   0.5346093337E-16   0.1365000000E+00  -0.3410675000E-01   0.4283366613E-14   0.8000000011E+01  -0.1777956841E-09  -0.1778041731E-09  -0.4293739627E-15   0.6096742464E-14  -0.1334511140E-14   0.6600000009E-01  -0.3298400005E-01  -0.3298400005E-01  -0.6202876256E-14   0.1197388464E-15   0.1611445833E-14   0.8000000011E+01
   0.2132000000E+01   0.0000000000E+00   0.9670160000E+00  -0.4500000000E-02   0.0000000000E+00   0.1122750000E-02   0.1365000000E+00   0.0000000000E+00  -0.3410675000E-01   0.8000000011E+01  -0.1577363831E-10  -0.1576019537E-10   0.2519668552E-14   0.7365834023E-14   0.2032123846E-14   0.6600000009E-01  -0.3298400005E-01  -0.3298400005E-01   0.4566792048E-15  -0.1847892765E-14  -0.2097725286E-14   0.8000000011E+01
   0.2132000000E+01   0.9670160000E+00   0.9670160000E+00  -0.4500000000E-02   0.1122750000E-02   0.1122750000E-02   0.1365000000E+00  -0.3410675000E-01  -0.3410675000E-01   0.8000000010E+01   0.1301864941E-10   0.1302258935E-10  -0.8268923556E-14  -0.7618866209E-14  -0.4177600293E-14   0.6600000008E-01  -0.3298400004E-01  -0.3298400004E-01   0.3493062817E-14  -0.3914715086E-15   0.9434523842E-15   0.8000000010E+01
     1     2     3     4     5     6     7     8
     2     9    10     3     6    11    12     7
 VARIABLES = X,Y,Z,DU1,DU2,DU3,U1,U2,U3,S11,S22,S33,S12,S13,S23,E11,E22,E33,E12,E13,E23,SMISES
 ZONE, T="0.5250D+01" F=FEPOINT, I=   12 J=    2 ET=BRICK
   0.0000000000E+00   0.0000000000E+00   0.0000000000E+00   0.0000000000E+00   0.0000000000E+00   0.0000000000E+00   0.0000000000E+00   0.0000000000E+00   0.0000000000E+00   0.6875000011E+01   0.7508656034E-10   0.7507854339E-10  -0.1842676727E-15  -0.4957773986E-14   0.4548670464E-14   0.6375000010E-01  -0.3186125005E-01  -0.3186125005E-01  -0.5530772801E-17  -0.9156403661E-15   0.6369631230E-15   0.6875000011E+01
   0.1063750000E+01   0.0000000000E+00   0.5317255479E-15  -0.2250000000E-02   0.0000000000E+00  -0.3472781683E-17   0.6600000000E-01   0.0000000000E+00   0.5351983296E-15   0.6875000011E+01   0.2413742299E-09   0.2413616631E-09   0.9763781744E-15   0.7174064642E-14   0.2825577746E-14   0.6375000010E-01  -0.3186125005E-01  -0.3186125005E-01   0.8113103698E-15   0.5153933041E-15   0.2354055294E-14   0.6875000011E+01
   0.1063750000E+01   0.9681387500E+00   0.1712710176E-14  -0.2250000000E-02   0.1122750000E-02  -0.4272698075E-17   0.6600000000E-01  -0.3298400000E-01   0.1716982874E-14   0.6875000010E+01   0.6653602172E-10   0.6652664489E-10  -0.1057194816E-13   0.1301370019E-13  -0.5905916187E-14   0.6375000009E-01  -0.3186125005E-01  -0.3186125005E-01  -0.4325543559E-15  -0.1669916465E-14   0.3064314638E-15   0.6875000010E+01
   0.0000000000E+00   0.9681387500E+00   0.3202224623E-15   0.0000000000E+00   0.1122750000E-02  -0.1392287881E-17   0.0000000000E+00  -0.3298400000E-01   0.3216147502E-15   0.6875000010E+01   0.1619416924E-09   0.1619390271E-09  -0.9056414268E-14  -0.7410103259E-14  -0.4884530029E-14   0.6375000009E-01  -0.3186125005E-01  -0.3186125005E-01   0.8976636770E-15   0.2177531663E-14  -0.1114026828E-14   0.6875000010E+01
   0.0000000000E+00   0.0000000000E+00   0.9681387500E+00   0.0000000000E+00   0.0000000000E+00   0.1122750000E-02   0.0000000000E+00   0.0000000000E+00  -0.3298400000E-01   0.6875000010E+01  -0.1771004713E-09  -0.1770871006E-09   0.4012857395E-16  -0.1839628674E-13   0.6337104867E-14   0.6375000009E-01  -0.3186125005E-01  -0.3186125005E-01   0.9779629667E-18   0.3858794073E-14   0.6640482890E-15   0.6875000010E+01
   0.1063750000E+01   0.0000000000E+00   0.9681387500E+00  -0.2250000000E-02   0.0000000000E+00   0.1122750000E-02   0.6600000000E-01   0.0000000000E+00  -0.3298400000E-01   0.6875000010E+01  -0.2893157260E-10  -0.2892784567E-10   0.6390903360E-14  -0.4203947325E-14   0.4304739705E-14   0.6375000009E-01  -0.3186125005E-01  -0.3186125005E-01  -0.3605140648E-15   0.9324922150E-15  -0.4478728886E-15   0.6875000010E+01
   0.1063750000E+01   0.9681387500E+00   0.9681387500E+00  -0.2250000000E-02   0.1122750000E-02   0.1122750000E-02   0.6600000000E-01  -0.3298400000E-01  -0.3298400000E-01   0.6875000009E+01  -0.1371301861E-09  -0.1371241139E-09  -0.2693421148E-14   0.1952536139E-14  -0.4365671418E-14   0.6375000008E-01  -0.3186125004E-01  -0.3186125004E-01   0.7905681594E-15  -0.1604285216E-14  -0.2501859657E-14   0.6875000009E+01
   0.0000000000E+00   0.9681387500E+00   0.9681387500E+00   0.0000000000E+00   0.1122750000E-02   0.1122750000E-02   0.0000000000E+00  -0.3298400000E-01  -0.3298400000E-01   0.6875000009E+01  -0.2111432920E-09  -0.2111274127E-09  -0.8045193994E-14  -0.2128900129E-13  -0.3159143060E-14   0.6375000009E-01  -0.3186125004E-01  -0.3186125004E-01  -0.7360316299E-15   0.2826986412E-14  -0.1128302409E-14   0.6875000009E+01
   0.2127500000E+01   0.0000000000E+00   0.5054853205E-14  -0.4500000000E-02   0.0000000000E+00  -0.1041723475E-16   0.1320000000E+00   0.0000000000E+00   0.5065270440E-14   0.6875000010E+01   0.4772675721E-10   0.4772307383E-10   0.1431981050E-13   0.1070147710E-13   0.5988108814E-14   0.6375000010E-01  -0.3186125005E-01  -0.3186125005E-01  -0.2836934394E-14   0.2080560589E-14  -0.1455764367E-14   0.6875000010E+01
   0.2127500000E+01   0.9681387500E+00   0.4326260631E-14  -0.4500000000E-02   0.1122750000E-02  -0.1056691571E-16   0.1320000000E+00  -0.3298400000E-01   0.4336827546E-14   0.6875000009E+01  -0.1774054365E-09  -0.1774137777E-09   0.2733737396E-15   0.5545800758E-14  -0.1205823303E-14   0.6375000009E-01  -0.3186125004E-01  -0.3186125004E-01  -0.6222757553E-14   0.1300604364E-15   0.1598612707E-14   0.6875000010E+01
   0.2127500000E+01   0.0000000000E+00   0.9681387500E+00  -0.4500000000E-02   0.0000000000E+00   0.1122750000E-02   0.1320000000E+00   0.0000000000E+00  -0.3298400000E-01   0.6875000010E+01  -0.1588386063E-10  -0.1587137227E-10   0.2473491304E-14   0.7553275911E-14   0.2247139072E-14   0.6375000009E-01  -0.3186125004E-01  -0.3186125004E-01   0.4285915231E-15  -0.1852558739E-14  -0.2100630977E-14   0.6875000010E+01
   0.2127500000E+01   0.9681387500E+00   0.9681387500E+00  -0.4500000000E-02   0.1122750000E-02   0.1122750000E-02   0.1320000000E+00  -0.3298400000E-01  -0.3298400000E-01   0.6875000009E+01   0.1315878026E-10   0.1316314941E-10  -0.8269476091E-14  -0.8211658840E-14  -0.3858003066E-14   0.6375000008E-01  -0.3186125004E-01  -0.3186125004E-01   0.3555892643E-14  -0.3933381978E-15   0.9529449944E-15   0.6875000009E+01
     1     2     3     4     5     6     7     8
     2     9    10     3     6    11    12     7
 VARIABLES = X,Y,Z,DU1,DU2,DU3,U1,U2,U3,S11,S22,S33,S12,S13,S23,E11,E22,E33,E12,E13,E23,SMISES
 ZONE, T="0.5300D+01" F=FEPOINT, I=   12 J=    2 ET=BRICK
   0.0000000000E+00   0.0000000000E+00   0.0000000000E+00   0.0000000000E+00   0.0000000000E+00   0.0000000000E+00   0.0000000000E+00   0.0000000000E+00   0.0000000000E+00   0.5750000009E+01   0.7465136603E-10   0.7464393341E-10  -0.1475266988E-15  -0.5100971457E-14   0.4524643307E-14   0.6150000010E-01  -0.3073850005E-01  -0.3073850005E-01   0.1081191566E-16  -0.9214742887E-15   0.6413926334E-15   0.5750000009E+01
   0.1061500000E+01   0.0000000000E+00   0.5291934279E-15  -0.2250000000E-02   0.0000000000E+00  -0.2532120051E-17   0.6375000000E-01   0.0000000000E+00   0.5317255479E-15   0.5750000009E+01   0.2408685359E-09   0.2408560247E-09   0.1077841577E-14   0.7498720901E-14   0.2396395468E-14   0.6150000009E-01  -0.3073850005E-01  -0.3073850005E-01   0.7845007334E-15   0.5280359653E-15   0.2354509007E-14   0.5750000009E+01
   0.1061500000E+01   0.9692615000E+00   0.1707644321E-14  -0.2250000000E-02   0.1122750000E-02  -0.5065855410E-17   0.6375000000E-01  -0.3186125000E-01   0.1712710176E-14   0.5750000008E+01   0.6643865019E-10   0.6642997615E-10  -0.1044490250E-13   0.1264458440E-13  -0.5911978821E-14   0.6150000009E-01  -0.3073850004E-01  -0.3073850004E-01  -0.4673140951E-15  -0.1632265240E-14   0.3058203539E-15   0.5750000008E+01
   0.0000000000E+00   0.9692615000E+00   0.3200793708E-15   0.0000000000E+00   0.1122750000E-02  -0.1430914921E-18   0.0000000000E+00  -0.3186125000E-01   0.3202224623E-15   0.5750000009E+01   0.1614275654E-09   0.1614246611E-09  -0.8791708417E-14  -0.8020185773E-14  -0.4561069161E-14   0.6150000009E-01  -0.3073850004E-01  -0.3073850004E-01   0.9100178987E-15   0.2154486774E-14  -0.1112838710E-14   0.5750000008E+01
   0.0000000000E+00   0.0000000000E+00   0.9692615000E+00   0.0000000000E+00   0.0000000000E+00   0.1122750000E-02   0.0000000000E+00   0.0000000000E+00  -0.3186125000E-01   0.5750000008E+01  -0.1765522466E-09  -0.1765387981E-09  -0.4588814519E-17  -0.1859306097E-13   0.5962017286E-14   0.6150000009E-01  -0.3073850004E-01  -0.3073850004E-01  -0.2126902047E-17   0.3832734355E-14   0.6342305637E-15   0.5750000008E+01
   0.1061500000E+01   0.0000000000E+00   0.9692615000E+00  -0.2250000000E-02   0.0000000000E+00   0.1122750000E-02   0.6375000000E-01   0.0000000000E+00  -0.3186125000E-01   0.5750000008E+01  -0.2856946734E-10  -0.2856640256E-10   0.6106186284E-14  -0.4124249489E-14   0.4224366066E-14   0.6150000009E-01  -0.3073850004E-01  -0.3073850004E-01  -0.3582340589E-15   0.9300785778E-15  -0.4548377985E-15   0.5750000008E+01
   0.1061500000E+01   0.9692615000E+00   0.9692615000E+00  -0.2250000000E-02   0.1122750000E-02   0.1122750000E-02   0.6375000000E-01  -0.3186125000E-01  -0.3186125000E-01   0.5750000007E+01  -0.1365218400E-09  -0.1365160265E-09  -0.3095333774E-14   0.1849045393E-14  -0.4105055560E-14   0.6150000008E-01  -0.3073850004E-01  -0.3073850004E-01   0.8324005754E-15  -0.1581269373E-14  -0.2490390439E-14   0.5750000008E+01
   0.0000000000E+00   0.9692615000E+00   0.9692615000E+00   0.0000000000E+00   0.1122750000E-02   0.1122750000E-02   0.0000000000E+00  -0.3186125000E-01  -0.3186125000E-01   0.5750000007E+01  -0.2110805692E-09  -0.2110651022E-09  -0.7689940722E-14  -0.2131460627E-13  -0.3152295801E-14   0.6150000008E-01  -0.3073850004E-01  -0.3073850004E-01  -0.7459723763E-15   0.2835533593E-14  -0.1131224765E-14   0.5750000008E+01
   0.2123000000E+01   0.0000000000E+00   0.5041495649E-14  -0.4500000000E-02   0.0000000000E+00  -0.1335755564E-16   0.1275000000E+00   0.0000000000E+00   0.5054853205E-14   0.5750000009E+01   0.4690629063E-10   0.4690342850E-10   0.1535359018E-13   0.1144384448E-13   0.5858183442E-14   0.6150000009E-01  -0.3073850005E-01  -0.3073850005E-01  -0.2768566278E-14   0.2087117347E-14  -0.1462948303E-14   0.5750000009E+01
   0.2123000000E+01   0.9692615000E+00   0.4312187002E-14  -0.4500000000E-02   0.1122750000E-02  -0.1407362904E-16   0.1275000000E+00  -0.3186125000E-01   0.4326260631E-14   0.5750000008E+01  -0.1777637347E-09  -0.1777716230E-09   0.8408475029E-15   0.5972733912E-14  -0.8452798265E-15   0.6150000009E-01  -0.3073850004E-01  -0.3073850004E-01  -0.6143464477E-14   0.6588549259E-16   0.1605476913E-14   0.5750000008E+01
   0.2123000000E+01   0.0000000000E+00   0.9692615000E+00  -0.4500000000E-02   0.0000000000E+00   0.1122750000E-02   0.1275000000E+00   0.0000000000E+00  -0.3186125000E-01   0.5750000008E+01  -0.1584399032E-10  -0.1583209717E-10   0.2572633132E-14   0.8364511466E-14   0.2371044768E-14   0.6150000009E-01  -0.3073850004E-01  -0.3073850004E-01   0.4699210189E-15  -0.1799505368E-14  -0.2089165128E-14   0.5750000008E+01
   0.2123000000E+01   0.9692615000E+00   0.9692615000E+00  -0.4500000000E-02   0.1122750000E-02   0.1122750000E-02   0.1275000000E+00  -0.3186125000E-01  -0.3186125000E-01   0.5750000007E+01   0.1374207092E-10   0.1374696344E-10  -0.8365986768E-14  -0.8472022775E-14  -0.3242676410E-14   0.6150000008E-01  -0.3073850004E-01  -0.3073850004E-01   0.3495581646E-14  -0.4048107258E-15   0.9338001828E-15   0.5750000007E+01
     1     2     3     4     5     6     7     8
     2     9    10     3     6    11    12     7
 VARIABLES = X,Y,Z,DU1,DU2,DU3,U1,U2,U3,S11,S22,S33,S12,S13,S23,E11,E22,E33,E12,E13,E23,SMISES
 ZONE, T="0.5350D+01" F=FEPOINT, I=   12 J=    2 ET=BRICK
   0.0000000000E+00   0.0000000000E+00   0.0000000000E+00   0.0000000000E+00   0.0000000000E+00   0.0000000000E+00   0.0000000000E+00   0.0000000000E+00   0.0000000000E+00   0.4625000007E+01   0.7528833171E-10   0.7528044610E-10  -0.1273639430E-15  -0.4538856732E-14   0.4813355275E-14   0.5925000009E-01  -0.2961575005E-01  -0.2961575005E-01   0.2872004512E-17  -0.9378883786E-15   0.6539625374E-15   0.4625000007E+01
   0.1059250000E+01   0.0000000000E+00   0.5333393645E-15  -0.2250000000E-02   0.0000000000E+00   0.4145936656E-17   0.6150000000E-01   0.0000000000E+00   0.5291934279E-15   0.4625000007E+01   0.2412294846E-09   0.2412169883E-09   0.7464970038E-15   0.6790415118E-14   0.2738869235E-14   0.5925000009E-01  -0.2961575005E-01  -0.2961575005E-01   0.7927767814E-15   0.5501278146E-15   0.2361701871E-14   0.4625000007E+01
   0.1059250000E+01   0.9703842500E+00   0.1713786126E-14  -0.2250000000E-02   0.1122750000E-02   0.6141805649E-17   0.6150000000E-01  -0.3073850000E-01   0.1707644321E-14   0.4625000007E+01   0.6611907943E-10   0.6611029836E-10  -0.1058089788E-13   0.1264478740E-13  -0.5701243051E-14   0.5925000008E-01  -0.2961575004E-01  -0.2961575004E-01  -0.4478218459E-15  -0.1639817516E-14   0.2999434438E-15   0.4625000007E+01
   0.0000000000E+00   0.9703842500E+00   0.3218894798E-15   0.0000000000E+00   0.1122750000E-02   0.1810109005E-17   0.0000000000E+00  -0.3073850000E-01   0.3200793708E-15   0.4625000007E+01   0.1621298349E-09   0.1621263721E-09  -0.9514171409E-14  -0.7300399617E-14  -0.4794747397E-14   0.5925000009E-01  -0.2961575004E-01  -0.2961575004E-01   0.8787018535E-15   0.2171763643E-14  -0.1154552066E-14   0.4625000007E+01
   0.0000000000E+00   0.0000000000E+00   0.9703842500E+00   0.0000000000E+00   0.0000000000E+00   0.1122750000E-02   0.0000000000E+00   0.0000000000E+00  -0.3073850000E-01   0.4625000007E+01  -0.1772154689E-09  -0.1772018261E-09  -0.1725454762E-16  -0.1805293807E-13   0.6267902654E-14   0.5925000009E-01  -0.2961575004E-01  -0.2961575004E-01  -0.6128183937E-17   0.3818958025E-14   0.6605708010E-15   0.4625000007E+01
   0.1059250000E+01   0.0000000000E+00   0.9703842500E+00  -0.2250000000E-02   0.0000000000E+00   0.1122750000E-02   0.6150000000E-01   0.0000000000E+00  -0.3073850000E-01   0.4625000007E+01  -0.2885519658E-10  -0.2885168080E-10   0.6778543809E-14  -0.4786114219E-14   0.4400814792E-14   0.5925000008E-01  -0.2961575004E-01  -0.2961575004E-01  -0.3567099905E-15   0.9618490395E-15  -0.4530548303E-15   0.4625000007E+01
   0.1059250000E+01   0.9703842500E+00   0.9703842500E+00  -0.2250000000E-02   0.1122750000E-02   0.1122750000E-02   0.6150000000E-01  -0.3073850000E-01  -0.3073850000E-01   0.4625000006E+01  -0.1367293297E-09  -0.1367231872E-09  -0.2330509327E-14   0.1874701984E-14  -0.4002377433E-14   0.5925000008E-01  -0.2961575004E-01  -0.2961575004E-01   0.8205525547E-15  -0.1587319639E-14  -0.2499572437E-14   0.4625000006E+01
   0.0000000000E+00   0.9703842500E+00   0.9703842500E+00   0.0000000000E+00   0.1122750000E-02   0.1122750000E-02   0.0000000000E+00  -0.3073850000E-01  -0.3073850000E-01   0.4625000006E+01  -0.2112463051E-09  -0.2112299614E-09  -0.7694782018E-14  -0.2093413811E-13  -0.3346245206E-14   0.5925000008E-01  -0.2961575004E-01  -0.2961575004E-01  -0.7118906565E-15   0.2827733586E-14  -0.1103861656E-14   0.4625000006E+01
   0.2118500000E+01   0.0000000000E+00   0.5052331069E-14  -0.4500000000E-02   0.0000000000E+00   0.1083542014E-16   0.1230000000E+00   0.0000000000E+00   0.5041495649E-14   0.4625000007E+01   0.4776288588E-10   0.4775959652E-10   0.1307542482E-13   0.1032187994E-13   0.5867003443E-14   0.5925000009E-01  -0.2961575004E-01  -0.2961575004E-01  -0.2805467470E-14   0.2035761316E-14  -0.1455346888E-14   0.4625000007E+01
   0.2118500000E+01   0.9703842500E+00   0.4323091032E-14  -0.4500000000E-02   0.1122750000E-02   0.1090403040E-16   0.1230000000E+00  -0.3073850000E-01   0.4312187002E-14   0.4625000006E+01  -0.1784399982E-09  -0.1784491181E-09  -0.4131751499E-15   0.7350839271E-14  -0.1331769380E-14   0.5925000008E-01  -0.2961575004E-01  -0.2961575004E-01  -0.6140238109E-14   0.1121025959E-15   0.1571312895E-14   0.4625000006E+01
   0.2118500000E+01   0.0000000000E+00   0.9703842500E+00  -0.4500000000E-02   0.0000000000E+00   0.1122750000E-02   0.1230000000E+00   0.0000000000E+00  -0.3073850000E-01   0.4625000006E+01  -0.1541281839E-10  -0.1539979523E-10   0.2971987894E-14   0.7838100951E-14   0.2026799907E-14   0.5925000008E-01  -0.2961575004E-01  -0.2961575004E-01   0.4782009891E-15  -0.1789143710E-14  -0.2100098651E-14   0.4625000006E+01
   0.2118500000E+01   0.9703842500E+00   0.9703842500E+00  -0.4500000000E-02   0.1122750000E-02   0.1122750000E-02   0.1230000000E+00  -0.3073850000E-01  -0.3073850000E-01   0.4625000006E+01   0.1372225816E-10   0.1372668827E-10  -0.7622704515E-14  -0.7021706371E-14  -0.4024131318E-14   0.5925000008E-01  -0.2961575004E-01  -0.2961575004E-01   0.3481591833E-14  -0.3776251432E-15   0.9293687128E-15   0.4625000006E+01
     1     2     3     4     5     6     7     8
     2     9    10     3     6    11    12     7
 VARIABLES = X,Y,Z,DU1,DU2,DU3,U1,U2,U3,S11,S22,S33,S12,S13,S23,E11,E22,E33,E12,E13,E23,SMISES
 ZONE, T="0.5400D+01" F=FEPOINT, I=   12 J=    2 ET=BRICK
   0.0000000000E+00   0.0000000000E+00   0.0000000000E+00   0.0000000000E+00   0.0000000000E+00   0.0000000000E+00   0.0000000000E+00   0.0000000000E+00   0.0000000000E+00   0.3500000006E+01   0.7513740282E-10   0.7512853143E-10  -0.1105355425E-15  -0.4978667504E-14   0.4724823528E-14   0.5700000009E-01  -0.2849300004E-01  -0.2849300004E-01  -0.1917467865E-17  -0.9317287261E-15   0.6329963679E-15   0.3500000005E+01
   0.1057000000E+01   0.0000000000E+00   0.5341287508E-15  -0.2250000000E-02   0.0000000000E+00   0.7893862643E-18   0.5925000000E-01   0.0000000000E+00   0.5333393645E-15   0.3500000006E+01   0.2418828892E-09   0.2418704930E-09   0.1437228504E-14   0.7704306426E-14   0.3133398173E-14   0.5700000009E-01  -0.2849300004E-01  -0.2849300004E-01   0.8176186387E-15   0.5586790832E-15   0.2373338843E-14   0.3500000005E+01
   0.1057000000E+01   0.9715070000E+00   0.1717083335E-14  -0.2250000000E-02   0.1122750000E-02   0.3297208400E-17   0.5925000000E-01  -0.2961575000E-01   0.1713786126E-14   0.3500000005E+01   0.6661858299E-10   0.6660885132E-10  -0.9921396690E-14   0.1221838452E-13  -0.5715221635E-14   0.5700000008E-01  -0.2849300004E-01  -0.2849300004E-01  -0.4280751804E-15  -0.1672304282E-14   0.3164416899E-15   0.3500000005E+01
   0.0000000000E+00   0.9715070000E+00   0.3212907337E-15   0.0000000000E+00   0.1122750000E-02  -0.5987461363E-18   0.0000000000E+00  -0.2961575000E-01   0.3218894798E-15   0.3500000005E+01   0.1627494635E-09   0.1627458734E-09  -0.9279837496E-14  -0.7013764228E-14  -0.5341115734E-14   0.5700000008E-01  -0.2849300004E-01  -0.2849300004E-01   0.8838535126E-15   0.2186310613E-14  -0.1142367557E-14   0.3500000005E+01
   0.0000000000E+00   0.0000000000E+00   0.9715070000E+00   0.0000000000E+00   0.0000000000E+00   0.1122750000E-02   0.0000000000E+00   0.0000000000E+00  -0.2961575000E-01   0.3500000005E+01  -0.1773412120E-09  -0.1773270775E-09   0.1253837171E-16  -0.1789552465E-13   0.6361328085E-14   0.5700000008E-01  -0.2849300004E-01  -0.2849300004E-01   0.2306604966E-17   0.3814708372E-14   0.6904219826E-15   0.3500000005E+01
   0.1057000000E+01   0.0000000000E+00   0.9715070000E+00  -0.2250000000E-02   0.0000000000E+00   0.1122750000E-02   0.5925000000E-01   0.0000000000E+00  -0.2961575000E-01   0.3500000005E+01  -0.2929989714E-10  -0.2929577473E-10   0.6019115316E-14  -0.3879049901E-14   0.4601007325E-14   0.5700000008E-01  -0.2849300004E-01  -0.2849300004E-01  -0.3765561368E-15   0.9807372786E-15  -0.4575515283E-15   0.3500000005E+01
   0.1057000000E+01   0.9715070000E+00   0.9715070000E+00  -0.2250000000E-02   0.1122750000E-02   0.1122750000E-02   0.5925000000E-01  -0.2961575000E-01  -0.2961575000E-01   0.3500000004E+01  -0.1371655166E-09  -0.1371592412E-09  -0.3072247148E-14   0.1312055364E-14  -0.4417873345E-14   0.5700000007E-01  -0.2849300004E-01  -0.2849300004E-01   0.8046664585E-15  -0.1590342622E-14  -0.2506841193E-14   0.3500000005E+01
   0.0000000000E+00   0.9715070000E+00   0.9715070000E+00   0.0000000000E+00   0.1122750000E-02   0.1122750000E-02   0.0000000000E+00  -0.2961575000E-01  -0.2961575000E-01   0.3500000004E+01  -0.2119818699E-09  -0.2119650414E-09  -0.7532841416E-14  -0.2068460957E-13  -0.3707843823E-14   0.5700000008E-01  -0.2849300004E-01  -0.2849300004E-01  -0.7182105397E-15   0.2835351324E-14  -0.1150802999E-14   0.3500000005E+01
   0.2114000000E+01   0.0000000000E+00   0.5067050045E-14  -0.4500000000E-02   0.0000000000E+00   0.1471897540E-16   0.1185000000E+00   0.0000000000E+00   0.5052331069E-14   0.3500000005E+01   0.4863730763E-10   0.4863296210E-10   0.1312660130E-13   0.9228350772E-14   0.5927608485E-14   0.5700000009E-01  -0.2849300004E-01  -0.2849300004E-01  -0.2784172593E-14   0.2022791857E-14  -0.1474152961E-14   0.3500000005E+01
   0.2114000000E+01   0.9715070000E+00   0.4338113072E-14  -0.4500000000E-02   0.1122750000E-02   0.1502203945E-16   0.1185000000E+00  -0.2961575000E-01   0.4323091032E-14   0.3500000005E+01  -0.1781039454E-09  -0.1781132630E-09  -0.6555024955E-15   0.7007993223E-14  -0.1739529666E-14   0.5700000008E-01  -0.2849300004E-01  -0.2849300004E-01  -0.6179906113E-14   0.2466207398E-15   0.1571871046E-14   0.3500000005E+01
   0.2114000000E+01   0.0000000000E+00   0.9715070000E+00  -0.4500000000E-02   0.0000000000E+00   0.1122750000E-02   0.1185000000E+00   0.0000000000E+00  -0.2961575000E-01   0.3500000005E+01  -0.1676003656E-10  -0.1674671406E-10   0.3894176672E-14   0.6561384604E-14   0.2361420448E-14   0.5700000008E-01  -0.2849300004E-01  -0.2849300004E-01   0.4290852365E-15  -0.1851346435E-14  -0.2074103236E-14   0.3500000005E+01
   0.2114000000E+01   0.9715070000E+00   0.9715070000E+00  -0.4500000000E-02   0.1122750000E-02   0.1122750000E-02   0.1185000000E+00  -0.2961575000E-01  -0.2961575000E-01   0.3500000004E+01   0.1354303347E-10   0.1354833289E-10  -0.7051585307E-14  -0.7319038828E-14  -0.4058325598E-14   0.5700000007E-01  -0.2849300004E-01  -0.2849300004E-01   0.3526922635E-14  -0.4081267735E-15   0.9017325371E-15   0.3500000004E+01
     1     2     3     4     5     6     7     8
     2     9    10     3     6    11    12     7
 VARIABLES = X,Y,Z,DU1,DU2,DU3,U1,U2,U3,S11,S22,S33,S12,S13,S23,E11,E22,E33,E12,E13,E23,SMISES
 ZONE, T="0.5450D+01" F=FEPOINT, I=   12 J=    2 ET=BRICK
   0.0000000000E+00   0.0000000000E+00   0.0000000000E+00   0.0000000000E+00   0.0000000000E+00   0.0000000000E+00   0.0000000000E+00   0.0000000000E+00   0.0000000000E+00   0.2375000004E+01   0.7505664994E-10   0.7504820205E-10  -0.1252881274E-15  -0.5006741570E-14   0.4752232311E-14   0.5475000009E-01  -0.2737025004E-01  -0.2737025004E-01   0.5877196180E-17  -0.9075117106E-15   0.6345575803E-15   0.2375000004E+01
   0.1054750000E+01   0.0000000000E+00   0.5329078621E-15  -0.2250000000E-02   0.0000000000E+00  -0.1220888685E-17   0.5700000000E-01   0.0000000000E+00   0.5341287508E-15   0.2375000004E+01   0.2416685490E-09   0.2416557865E-09   0.1053031910E-14   0.7363997580E-14   0.2995035928E-14   0.5475000008E-01  -0.2737025004E-01  -0.2737025004E-01   0.7918502845E-15   0.5009674948E-15   0.2361061388E-14   0.2375000004E+01
   0.1054750000E+01   0.9726297500E+00   0.1715031012E-14  -0.2250000000E-02   0.1122750000E-02  -0.2052322453E-17   0.5700000000E-01  -0.2849300000E-01   0.1717083335E-14   0.2375000003E+01   0.6663903202E-10   0.6662945001E-10  -0.1030843906E-13   0.1274939141E-13  -0.5862703453E-14   0.5475000008E-01  -0.2737025004E-01  -0.2737025004E-01  -0.4504620831E-15  -0.1622380621E-14   0.3193782366E-15   0.2375000003E+01
   0.0000000000E+00   0.9726297500E+00   0.3213693423E-15   0.0000000000E+00   0.1122750000E-02   0.7860855547E-19   0.0000000000E+00  -0.2849300000E-01   0.3212907337E-15   0.2375000004E+01   0.1622463864E-09   0.1622430227E-09  -0.9053915480E-14  -0.7271825341E-14  -0.4945898758E-14   0.5475000008E-01  -0.2737025004E-01  -0.2737025004E-01   0.8959728755E-15   0.2152345431E-14  -0.1126782104E-14   0.2375000003E+01
   0.0000000000E+00   0.0000000000E+00   0.9726297500E+00   0.0000000000E+00   0.0000000000E+00   0.1122750000E-02   0.0000000000E+00   0.0000000000E+00  -0.2849300000E-01   0.2375000003E+01  -0.1772628217E-09  -0.1772494011E-09   0.2208083140E-16  -0.1809914953E-13   0.6193030377E-14   0.5475000008E-01  -0.2737025004E-01  -0.2737025004E-01  -0.7111198267E-18   0.3802226693E-14   0.6713639022E-15   0.2375000003E+01
   0.1054750000E+01   0.0000000000E+00   0.9726297500E+00  -0.2250000000E-02   0.0000000000E+00   0.1122750000E-02   0.5700000000E-01   0.0000000000E+00  -0.2849300000E-01   0.2375000003E+01  -0.2915342648E-10  -0.2914933726E-10   0.6423205000E-14  -0.4201045344E-14   0.4552378794E-14   0.5475000008E-01  -0.2737025004E-01  -0.2737025004E-01  -0.3632664192E-15   0.9847739917E-15  -0.4596620659E-15   0.2375000003E+01
   0.1054750000E+01   0.9726297500E+00   0.9726297500E+00  -0.2250000000E-02   0.1122750000E-02   0.1122750000E-02   0.5700000000E-01  -0.2849300000E-01  -0.2849300000E-01   0.2375000003E+01  -0.1370006892E-09  -0.1369945080E-09  -0.2785423734E-14   0.1921214915E-14  -0.4416406784E-14   0.5475000007E-01  -0.2737025004E-01  -0.2737025004E-01   0.8140028758E-15  -0.1631833081E-14  -0.2514270272E-14   0.2375000003E+01
   0.0000000000E+00   0.9726297500E+00   0.9726297500E+00   0.0000000000E+00   0.1122750000E-02   0.1122750000E-02   0.0000000000E+00  -0.2849300000E-01  -0.2849300000E-01   0.2375000003E+01  -0.2115681072E-09  -0.2115516128E-09  -0.7777662879E-14  -0.2083513414E-13  -0.3375203976E-14   0.5475000007E-01  -0.2737025004E-01  -0.2737025004E-01  -0.7320545293E-15   0.2860778601E-14  -0.1097099782E-14   0.2375000003E+01
   0.2109500000E+01   0.0000000000E+00   0.5060384333E-14  -0.4500000000E-02   0.0000000000E+00  -0.6665711681E-17   0.1140000000E+00   0.0000000000E+00   0.5067050045E-14   0.2375000004E+01   0.4820305402E-10   0.4819925045E-10   0.1406010624E-13   0.9927144299E-14   0.5933440705E-14   0.5475000008E-01  -0.2737025004E-01  -0.2737025004E-01  -0.2780377425E-14   0.2147751316E-14  -0.1457463549E-14   0.2375000004E+01
   0.2109500000E+01   0.9726297500E+00   0.4331532753E-14  -0.4500000000E-02   0.1122750000E-02  -0.6580318793E-17   0.1140000000E+00  -0.2849300000E-01   0.4338113072E-14   0.2375000003E+01  -0.1778083779E-09  -0.1778174115E-09  -0.2491883882E-16   0.6591715438E-14  -0.1485982563E-14   0.5475000008E-01  -0.2737025004E-01  -0.2737025004E-01  -0.6155082422E-14  -0.5524313732E-17   0.1573413008E-14   0.2375000003E+01
   0.2109500000E+01   0.0000000000E+00   0.9726297500E+00  -0.4500000000E-02   0.0000000000E+00   0.1122750000E-02   0.1140000000E+00   0.0000000000E+00  -0.2849300000E-01   0.2375000003E+01  -0.1635957409E-10  -0.1634639210E-10   0.3575451903E-14   0.7051248606E-14   0.2381671748E-14   0.5475000008E-01  -0.2737025004E-01  -0.2737025004E-01   0.4462363112E-15  -0.1848228622E-14  -0.2101727515E-14   0.2375000003E+01
   0.2109500000E+01   0.9726297500E+00   0.9726297500E+00  -0.4500000000E-02   0.1122750000E-02   0.1122750000E-02   0.1140000000E+00  -0.2849300000E-01  -0.2849300000E-01   0.2375000003E+01   0.1348217853E-10   0.1348765637E-10  -0.7283772247E-14  -0.7831609591E-14  -0.3852049557E-14   0.5475000007E-01  -0.2737025004E-01  -0.2737025004E-01   0.3456642434E-14  -0.3410973796E-15   0.9286619663E-15   0.2375000003E+01
     1     2     3     4     5     6     7     8
     2     9    10     3     6    11    12     7
 VARIABLES = X,Y,Z,DU1,DU2,DU3,U1,U2,U3,S11,S22,S33,S12,S13,S23,E11,E22,E33,E12,E13,E23,SMISES
 ZONE, T="0.5500D+01" F=FEPOINT, I=   12 J=    2 ET=BRICK
   0.0000000000E+00   0.0000000000E+00   0.0000000000E+00   0.0000000000E+00   0.0000000000E+00   0.0000000000E+00   0.0000000000E+00   0.0000000000E+00   0.0000000000E+00   0.1250000002E+01   0.7506295749E-10   0.7505503416E-10  -0.1529280987E-15  -0.4721794771E-14   0.4928194605E-14   0.5250000008E-01  -0.2624750004E-01  -0.2624750004E-01  -0.1126627222E-16  -0.9224803156E-15   0.6440425925E-15   0.1250000002E+01
   0.1052500000E+01   0.0000000000E+00   0.5331438663E-15  -0.2250000000E-02   0.0000000000E+00   0.2360041853E-18   0.5475000000E-01   0.0000000000E+00   0.5329078621E-15   0.1250000002E+01   0.2414814068E-09   0.2414689555E-09   0.1035327221E-14   0.7134897404E-14   0.2877277225E-14   0.5250000008E-01  -0.2624750004E-01  -0.2624750004E-01   0.8196931267E-15   0.5447044793E-15   0.2361199427E-14   0.1250000002E+01
   0.1052500000E+01   0.9737525000E+00   0.1714508378E-14  -0.2250000000E-02   0.1122750000E-02  -0.5226346055E-18   0.5475000000E-01  -0.2737025000E-01   0.1715031012E-14   0.1250000002E+01   0.6634843719E-10   0.6633905084E-10  -0.1041827428E-13   0.1252288842E-13  -0.5784358561E-14   0.5250000007E-01  -0.2624750004E-01  -0.2624750004E-01  -0.4270731959E-15  -0.1645501833E-14   0.3054303230E-15   0.1250000002E+01
   0.0000000000E+00   0.9737525000E+00   0.3222556839E-15   0.0000000000E+00   0.1122750000E-02   0.8863416546E-18   0.0000000000E+00  -0.2737025000E-01   0.3213693423E-15   0.1250000002E+01   0.1621836863E-09   0.1621802336E-09  -0.9242116463E-14  -0.7372833091E-14  -0.4878467268E-14   0.5250000008E-01  -0.2624750004E-01  -0.2624750004E-01   0.8885009420E-15   0.2171326544E-14  -0.1122863696E-14   0.1250000002E+01
   0.0000000000E+00   0.0000000000E+00   0.9737525000E+00   0.0000000000E+00   0.0000000000E+00   0.1122750000E-02   0.0000000000E+00   0.0000000000E+00  -0.2737025000E-01   0.1250000002E+01  -0.1770725746E-09  -0.1770587330E-09   0.2773816100E-16  -0.1821958203E-13   0.6038372156E-14   0.5250000008E-01  -0.2624750004E-01  -0.2624750004E-01   0.6991628697E-17   0.3817704679E-14   0.6649961308E-15   0.1250000002E+01
   0.1052500000E+01   0.0000000000E+00   0.9737525000E+00  -0.2250000000E-02   0.0000000000E+00   0.1122750000E-02   0.5475000000E-01   0.0000000000E+00  -0.2737025000E-01   0.1250000002E+01  -0.2901183346E-10  -0.2900800829E-10   0.6342167019E-14  -0.4154779274E-14   0.4421839560E-14   0.5250000007E-01  -0.2624750004E-01  -0.2624750004E-01  -0.3728289823E-15   0.9699936521E-15  -0.4403590823E-15   0.1250000002E+01
   0.1052500000E+01   0.9737525000E+00   0.9737525000E+00  -0.2250000000E-02   0.1122750000E-02   0.1122750000E-02   0.5475000000E-01  -0.2737025000E-01  -0.2737025000E-01   0.1250000001E+01  -0.1369086530E-09  -0.1369026543E-09  -0.2678392041E-14   0.1801239089E-14  -0.4297609979E-14   0.5250000007E-01  -0.2624750003E-01  -0.2624750003E-01   0.7855461542E-15  -0.1604827066E-14  -0.2519598214E-14   0.1250000002E+01
   0.0000000000E+00   0.9737525000E+00   0.9737525000E+00   0.0000000000E+00   0.1122750000E-02   0.1122750000E-02   0.0000000000E+00  -0.2737025000E-01  -0.2737025000E-01   0.1250000001E+01  -0.2114738686E-09  -0.2114574681E-09  -0.7755257663E-14  -0.2096607078E-13  -0.3350294416E-14   0.5250000007E-01  -0.2624750004E-01  -0.2624750004E-01  -0.7253416370E-15   0.2850004905E-14  -0.1131956039E-14   0.1250000002E+01
   0.2105000000E+01   0.0000000000E+00   0.5056130656E-14  -0.4500000000E-02   0.0000000000E+00  -0.4253677578E-17   0.1095000000E+00   0.0000000000E+00   0.5060384333E-14   0.1250000002E+01   0.4809910487E-10   0.4809561360E-10   0.1373637412E-13   0.1038620720E-13   0.5855507626E-14   0.5250000008E-01  -0.2624750004E-01  -0.2624750004E-01  -0.2787798731E-14   0.2206523292E-14  -0.1462670152E-14   0.1250000002E+01
   0.2105000000E+01   0.9737525000E+00   0.4326807528E-14  -0.4500000000E-02   0.1122750000E-02  -0.4725224637E-17   0.1095000000E+00  -0.2737025000E-01   0.4331532753E-14   0.1250000002E+01  -0.1782132164E-09  -0.1782221602E-09  -0.1741761940E-15   0.6542540021E-14  -0.1246005204E-14   0.5250000007E-01  -0.2624750004E-01  -0.2624750004E-01  -0.6154329783E-14   0.1201788903E-15   0.1577284689E-14   0.1250000002E+01
   0.2105000000E+01   0.0000000000E+00   0.9737525000E+00  -0.4500000000E-02   0.0000000000E+00   0.1122750000E-02   0.1095000000E+00   0.0000000000E+00  -0.2737025000E-01   0.1250000002E+01  -0.1609886062E-10  -0.1608585265E-10   0.3172975459E-14   0.6978816371E-14   0.2132165328E-14   0.5250000007E-01  -0.2624750004E-01  -0.2624750004E-01   0.4382818519E-15  -0.1846593625E-14  -0.2102450490E-14   0.1250000002E+01
   0.2105000000E+01   0.9737525000E+00   0.9737525000E+00  -0.4500000000E-02   0.1122750000E-02   0.1122750000E-02   0.1095000000E+00  -0.2737025000E-01  -0.2737025000E-01   0.1250000002E+01   0.1357737206E-10   0.1358246041E-10  -0.7569107149E-14  -0.7669116762E-14  -0.3859548624E-14   0.5250000007E-01  -0.2624750003E-01  -0.2624750003E-01   0.3451529945E-14  -0.2867243546E-15   0.9145539707E-15   0.1250000002E+01
     1     2     3     4     5     6     7     8
     2     9    10     3     6    11    12     7
 VARIABLES = X,Y,Z,DU1,DU2,DU3,U1,U2,U3,S11,S22,S33,S12,S13,S23,E11,E22,E33,E12,E13,E23,SMISES
 ZONE, T="0.5550D+01" F=FEPOINT, I=   12 J=    2 ET=BRICK
   0.0000000000E+00   0.0000000000E+00   0.0000000000E+00   0.0000000000E+00   0.0000000000E+00   0.0000000000E+00   0.0000000000E+00   0.0000000000E+00   0.0000000000E+00   0.1250000003E+00   0.7495999817E-10   0.7495178624E-10  -0.1719024994E-15  -0.4759561158E-14   0.4832323633E-14   0.5025000008E-01  -0.2512475004E-01  -0.2512475004E-01  -0.4858262321E-17  -0.9277651189E-15   0.6377904162E-15   0.1250000002E+00
   0.1050250000E+01   0.0000000000E+00   0.5331982179E-15  -0.2250000000E-02   0.0000000000E+00   0.5435163482E-19   0.5250000000E-01   0.0000000000E+00   0.5331438663E-15   0.1250000004E+00   0.2415395924E-09   0.2415268968E-09   0.1141010714E-14   0.7139313489E-14   0.2882359110E-14   0.5025000008E-01  -0.2512475004E-01  -0.2512475004E-01   0.8201752624E-15   0.5772938879E-15   0.2377021811E-14   0.1250000002E+00
   0.1050250000E+01   0.9748752500E+00   0.1714497250E-14  -0.2250000000E-02   0.1122750000E-02  -0.1112749567E-19   0.5250000000E-01  -0.2624750000E-01   0.1714508378E-14   0.1250000002E+00   0.6641799487E-10   0.6640854788E-10  -0.1034648105E-13   0.1245927156E-13  -0.5886819709E-14   0.5025000007E-01  -0.2512475004E-01  -0.2512475004E-01  -0.4284063022E-15  -0.1678176319E-14   0.2947192126E-15   0.1250000002E+00
   0.0000000000E+00   0.9748752500E+00   0.3216755489E-15   0.0000000000E+00   0.1122750000E-02  -0.5801350176E-18   0.0000000000E+00  -0.2624750000E-01   0.3222556839E-15   0.1250000003E+00   0.1622967052E-09   0.1622932507E-09  -0.9237894204E-14  -0.7243392358E-14  -0.4957022017E-14   0.5025000007E-01  -0.2512475004E-01  -0.2512475004E-01   0.8787081253E-15   0.2186939544E-14  -0.1128569632E-14   0.1250000002E+00
   0.0000000000E+00   0.0000000000E+00   0.9748752500E+00   0.0000000000E+00   0.0000000000E+00   0.1122750000E-02   0.0000000000E+00   0.0000000000E+00  -0.2624750000E-01   0.1250000000E+00  -0.1771796688E-09  -0.1771661544E-09   0.5791701890E-16  -0.1819534961E-13   0.6064457772E-14   0.5025000007E-01  -0.2512475004E-01  -0.2512475004E-01   0.7291144822E-18   0.3829059274E-14   0.6613177662E-15   0.1250000002E+00
   0.1050250000E+01   0.0000000000E+00   0.9748752500E+00  -0.2250000000E-02   0.0000000000E+00   0.1122750000E-02   0.5250000000E-01   0.0000000000E+00  -0.2624750000E-01   0.1250000001E+00  -0.2908450128E-10  -0.2908076695E-10   0.6278991187E-14  -0.4127729862E-14   0.4471720412E-14   0.5025000007E-01  -0.2512475004E-01  -0.2512475004E-01  -0.3710906186E-15   0.9637227970E-15  -0.4482714215E-15   0.1250000002E+00
   0.1050250000E+01   0.9748752500E+00   0.9748752500E+00  -0.2250000000E-02   0.1122750000E-02   0.1122750000E-02   0.5250000000E-01  -0.2624750000E-01  -0.2624750000E-01   0.1250000000E+00  -0.1369699830E-09  -0.1369639057E-09  -0.2704356099E-14   0.1789684134E-14  -0.4251469438E-14   0.5025000007E-01  -0.2512475003E-01  -0.2512475003E-01   0.8089596380E-15  -0.1563129650E-14  -0.2527468361E-14   0.1250000002E+00
   0.0000000000E+00   0.9748752500E+00   0.9748752500E+00   0.0000000000E+00   0.1122750000E-02   0.1122750000E-02   0.0000000000E+00  -0.2624750000E-01  -0.2624750000E-01   0.1250000000E+00  -0.2115270287E-09  -0.2115106616E-09  -0.7814419880E-14  -0.2086789661E-13  -0.3292317222E-14   0.5025000007E-01  -0.2512475003E-01  -0.2512475003E-01  -0.7229304645E-15   0.2828678400E-14  -0.1125602367E-14   0.1250000002E+00
   0.2100500000E+01   0.0000000000E+00   0.5056918779E-14  -0.4500000000E-02   0.0000000000E+00   0.7881234426E-18   0.1050000000E+00   0.0000000000E+00   0.5056130656E-14   0.1250000002E+00   0.4839231237E-10   0.4838903242E-10   0.1369990982E-13   0.1025552638E-13   0.5952903316E-14   0.5025000008E-01  -0.2512475004E-01  -0.2512475004E-01  -0.2822548199E-14   0.2186607830E-14  -0.1465201660E-14   0.1250000002E+00
   0.2100500000E+01   0.9748752500E+00   0.4328339904E-14  -0.4500000000E-02   0.1122750000E-02   0.1532376316E-17   0.1050000000E+00  -0.2624750000E-01   0.4326807528E-14   0.1250000000E+00  -0.1782214957E-09  -0.1782306134E-09  -0.1464629041E-15   0.6724611486E-14  -0.1144018551E-14   0.5025000007E-01  -0.2512475004E-01  -0.2512475004E-01  -0.6191153038E-14   0.3878590114E-16   0.1595108006E-14   0.1250000002E+00
   0.2100500000E+01   0.0000000000E+00   0.9748752500E+00  -0.4500000000E-02   0.0000000000E+00   0.1122750000E-02   0.1050000000E+00   0.0000000000E+00  -0.2624750000E-01   0.1250000002E+00  -0.1600906603E-10  -0.1599573796E-10   0.3104350352E-14   0.6963119196E-14   0.2167460535E-14   0.5025000007E-01  -0.2512475004E-01  -0.2512475004E-01   0.4185453316E-15  -0.1843111165E-14  -0.2100380112E-14   0.1250000002E+00
   0.2100500000E+01   0.9748752500E+00   0.9748752500E+00  -0.4500000000E-02   0.1122750000E-02   0.1122750000E-02   0.1050000000E+00  -0.2624750000E-01  -0.2624750000E-01   0.1250000002E+00   0.1352798002E-10   0.1353300381E-10  -0.7635976029E-14  -0.7730889183E-14  -0.3967244708E-14   0.5025000006E-01  -0.2512475003E-01  -0.2512475003E-01   0.3446473853E-14  -0.3210085595E-15   0.9103646120E-15   0.1250000002E+00
     1     2     3     4     5     6     7     8
     2     9    10     3     6    11    12     7
 VARIABLES = X,Y,Z,DU1,DU2,DU3,U1,U2,U3,S11,S22,S33,S12,S13,S23,E11,E22,E33,E12,E13,E23,SMISES
 ZONE, T="0.5600D+01" F=FEPOINT, I=   12 J=    2 ET=BRICK
   0.0000000000E+00   0.0000000000E+00   0.0000000000E+00   0.0000000000E+00   0.0000000000E+00   0.0000000000E+00   0.0000000000E+00   0.0000000000E+00   0.0000000000E+00  -0.1000000001E+01   0.7492876654E-10   0.7492044950E-10  -0.1707708805E-15  -0.4887772330E-14   0.4819053003E-14   0.4800000008E-01  -0.2400200004E-01  -0.2400200004E-01  -0.7075843777E-18  -0.9376102942E-15   0.6494481626E-15   0.1000000002E+01
   0.1048000000E+01   0.0000000000E+00   0.5326447116E-15  -0.2250000000E-02   0.0000000000E+00  -0.5535062881E-18   0.5025000000E-01   0.0000000000E+00   0.5331982179E-15  -0.1000000001E+01   0.2415443018E-09   0.2415318593E-09   0.1062951311E-14   0.7187713338E-14   0.2885506491E-14   0.4800000007E-01  -0.2400200004E-01  -0.2400200004E-01   0.8302944361E-15   0.5834517089E-15   0.2361292927E-14   0.1000000002E+01
   0.1048000000E+01   0.9759980000E+00   0.1713991157E-14  -0.2250000000E-02   0.1122750000E-02  -0.5060925513E-18   0.5025000000E-01  -0.2512475000E-01   0.1714497250E-14  -0.1000000001E+01   0.6630589861E-10   0.6629649230E-10  -0.1041084657E-13   0.1256635103E-13  -0.5906455960E-14   0.4800000007E-01  -0.2400200003E-01  -0.2400200003E-01  -0.4150398820E-15  -0.1656863152E-14   0.2968088706E-15   0.1000000001E+01
   0.0000000000E+00   0.9759980000E+00   0.3217471986E-15   0.0000000000E+00   0.1122750000E-02   0.7164967525E-19   0.0000000000E+00  -0.2512475000E-01   0.3216755489E-15  -0.1000000001E+01   0.1623168347E-09   0.1623134882E-09  -0.9233635083E-14  -0.7303335262E-14  -0.4856953268E-14   0.4800000007E-01  -0.2400200003E-01  -0.2400200003E-01   0.8793895716E-15   0.2182524986E-14  -0.1134387187E-14   0.1000000001E+01
   0.0000000000E+00   0.0000000000E+00   0.9759980000E+00   0.0000000000E+00   0.0000000000E+00   0.1122750000E-02   0.0000000000E+00   0.0000000000E+00  -0.2512475000E-01  -0.1000000002E+01  -0.1772009779E-09  -0.1771875836E-09   0.4728999194E-16  -0.1817290194E-13   0.6076705871E-14   0.4800000007E-01  -0.2400200003E-01  -0.2400200003E-01  -0.1367030380E-16   0.3802580475E-14   0.6599803783E-15   0.1000000001E+01
   0.1048000000E+01   0.0000000000E+00   0.9759980000E+00  -0.2250000000E-02   0.0000000000E+00   0.1122750000E-02   0.5025000000E-01   0.0000000000E+00  -0.2512475000E-01  -0.1000000001E+01  -0.2898046863E-10  -0.2897646640E-10   0.6456158270E-14  -0.4192081870E-14   0.4482675738E-14   0.4800000007E-01  -0.2400200003E-01  -0.2400200003E-01  -0.3515790994E-15   0.1012188240E-14  -0.4500048916E-15   0.1000000001E+01
   0.1048000000E+01   0.9759980000E+00   0.9759980000E+00  -0.2250000000E-02   0.1122750000E-02   0.1122750000E-02   0.5025000000E-01  -0.2512475000E-01  -0.2512475000E-01  -0.1000000001E+01  -0.1369824638E-09  -0.1369764305E-09  -0.2501096863E-14   0.1975699995E-14  -0.4272129484E-14   0.4800000006E-01  -0.2400200003E-01  -0.2400200003E-01   0.7996273893E-15  -0.1588637105E-14  -0.2481693585E-14   0.1000000001E+01
   0.0000000000E+00   0.9759980000E+00   0.9759980000E+00   0.0000000000E+00   0.1122750000E-02   0.1122750000E-02   0.0000000000E+00  -0.2512475000E-01  -0.2512475000E-01  -0.1000000002E+01  -0.2113348644E-09  -0.2113183546E-09  -0.7827613094E-14  -0.2098896542E-13  -0.3312031046E-14   0.4800000006E-01  -0.2400200003E-01  -0.2400200003E-01  -0.7137736360E-15   0.2836177687E-14  -0.1108226864E-14   0.1000000001E+01
   0.2096000000E+01   0.0000000000E+00   0.5055818754E-14  -0.4500000000E-02   0.0000000000E+00  -0.1100025306E-17   0.1005000000E+00   0.0000000000E+00   0.5056918779E-14  -0.1000000001E+01   0.4833609210E-10   0.4833234255E-10   0.1384264654E-13   0.1025924197E-13   0.5903534164E-14   0.4800000007E-01  -0.2400200004E-01  -0.2400200004E-01  -0.2821769942E-14   0.2104847205E-14  -0.1452901504E-14   0.1000000002E+01
   0.2096000000E+01   0.9759980000E+00   0.4326957675E-14  -0.4500000000E-02   0.1122750000E-02  -0.1382229212E-17   0.1005000000E+00  -0.2512475000E-01   0.4328339904E-14  -0.1000000002E+01  -0.1783455065E-09  -0.1783548273E-09   0.4701091876E-16   0.7037551822E-14  -0.1173315115E-14   0.4800000007E-01  -0.2400200003E-01  -0.2400200003E-01  -0.6216202068E-14   0.1418683922E-15   0.1567190100E-14   0.1000000001E+01
   0.2096000000E+01   0.0000000000E+00   0.9759980000E+00  -0.4500000000E-02   0.0000000000E+00   0.1122750000E-02   0.1005000000E+00   0.0000000000E+00  -0.2512475000E-01  -0.1000000001E+01  -0.1593020544E-10  -0.1591712654E-10   0.2761149877E-14   0.7370118634E-14   0.2097292602E-14   0.4800000007E-01  -0.2400200003E-01  -0.2400200003E-01   0.3600436316E-15  -0.1793113600E-14  -0.2112695815E-14   0.1000000001E+01
   0.2096000000E+01   0.9759980000E+00   0.9759980000E+00  -0.4500000000E-02   0.1122750000E-02   0.1122750000E-02   0.1005000000E+00  -0.2512475000E-01  -0.2512475000E-01  -0.1000000001E+01   0.1337633246E-10   0.1338137714E-10  -0.7862772538E-14  -0.7958054212E-14  -0.4030695496E-14   0.4800000006E-01  -0.2400200003E-01  -0.2400200003E-01   0.3475510310E-14  -0.3957864664E-15   0.9259506490E-15   0.1000000001E+01
     1     2     3     4     5     6     7     8
     2     9    10     3     6    11    12     7
 VARIABLES = X,Y,Z,DU1,DU2,DU3,U1,U2,U3,S11,S22,S33,S12,S13,S23,E11,E22,E33,E12,E13,E23,SMISES
 ZONE, T="0.5650D+01" F=FEPOINT, I=   12 J=    2 ET=BRICK
   0.0000000000E+00   0.0000000000E+00   0.0000000000E+00   0.0000000000E+00   0.0000000000E+00   0.0000000000E+00   0.0000000000E+00   0.0000000000E+00   0.0000000000E+00  -0.2125000003E+01   0.7472919903E-10   0.7472082870E-10  -0.1712351984E-15  -0.5098863412E-14   0.4610083044E-14   0.4575000007E-01  -0.2287925004E-01  -0.2287925004E-01   0.4440784177E-17  -0.9402407445E-15   0.6432501386E-15   0.2125000003E+01
   0.1045750000E+01   0.0000000000E+00   0.5311090133E-15  -0.2250000000E-02   0.0000000000E+00  -0.1535698282E-17   0.4800000000E-01   0.0000000000E+00   0.5326447116E-15  -0.2125000003E+01   0.2415102255E-09   0.2414977792E-09   0.1275252165E-14   0.7200469888E-14   0.2903894626E-14   0.4575000007E-01  -0.2287925004E-01  -0.2287925004E-01   0.8147669016E-15   0.5833512985E-15   0.2366482719E-14   0.2125000003E+01
   0.1045750000E+01   0.9771207500E+00   0.1712544120E-14  -0.2250000000E-02   0.1122750000E-02  -0.1447037976E-17   0.4800000000E-01  -0.2400200000E-01   0.1713991157E-14  -0.2125000003E+01   0.6622345934E-10   0.6621389566E-10  -0.1035090782E-13   0.1242090775E-13  -0.5767375112E-14   0.4575000007E-01  -0.2287925003E-01  -0.2287925003E-01  -0.4099188919E-15  -0.1643681653E-14   0.2927721434E-15   0.2125000003E+01
   0.0000000000E+00   0.9771207500E+00   0.3205294070E-15   0.0000000000E+00   0.1122750000E-02  -0.1217791575E-17   0.0000000000E+00  -0.2400200000E-01   0.3217471986E-15  -0.2125000003E+01   0.1623333985E-09   0.1623300562E-09  -0.9226426434E-14  -0.7254694183E-14  -0.4972439823E-14   0.4575000007E-01  -0.2287925003E-01  -0.2287925003E-01   0.8897011038E-15   0.2182364898E-14  -0.1110963375E-14   0.2125000003E+01
   0.0000000000E+00   0.0000000000E+00   0.9771207500E+00   0.0000000000E+00   0.0000000000E+00   0.1122750000E-02   0.0000000000E+00   0.0000000000E+00  -0.2400200000E-01  -0.2125000003E+01  -0.1771748962E-09  -0.1771621416E-09   0.2990208186E-16  -0.1823422311E-13   0.6047838067E-14   0.4575000007E-01  -0.2287925003E-01  -0.2287925003E-01  -0.8379481036E-17   0.3816163617E-14   0.6656808716E-15   0.2125000003E+01
   0.1045750000E+01   0.0000000000E+00   0.9771207500E+00  -0.2250000000E-02   0.0000000000E+00   0.1122750000E-02   0.4800000000E-01   0.0000000000E+00  -0.2400200000E-01  -0.2125000003E+01  -0.2885392378E-10  -0.2884980682E-10   0.6409106176E-14  -0.4040482326E-14   0.4399574067E-14   0.4575000007E-01  -0.2287925003E-01  -0.2287925003E-01  -0.3274950681E-15   0.9840567957E-15  -0.4536924896E-15   0.2125000003E+01
   0.1045750000E+01   0.9771207500E+00   0.9771207500E+00  -0.2250000000E-02   0.1122750000E-02   0.1122750000E-02   0.4800000000E-01  -0.2400200000E-01  -0.2400200000E-01  -0.2125000003E+01  -0.1369043123E-09  -0.1368985231E-09  -0.2563544173E-14   0.1759953874E-14  -0.4332798765E-14   0.4575000006E-01  -0.2287925003E-01  -0.2287925003E-01   0.8106949492E-15  -0.1574792726E-14  -0.2487507204E-14   0.2125000003E+01
   0.0000000000E+00   0.9771207500E+00   0.9771207500E+00   0.0000000000E+00   0.1122750000E-02   0.1122750000E-02   0.0000000000E+00  -0.2400200000E-01  -0.2400200000E-01  -0.2125000003E+01  -0.2112547565E-09  -0.2112382408E-09  -0.7807021774E-14  -0.2103800244E-13  -0.3219810843E-14   0.4575000006E-01  -0.2287925003E-01  -0.2287925003E-01  -0.7288261722E-15   0.2840607556E-14  -0.1145662125E-14   0.2125000003E+01
   0.2091500000E+01   0.0000000000E+00   0.5052225550E-14  -0.4500000000E-02   0.0000000000E+00  -0.3593203869E-17   0.9600000000E-01   0.0000000000E+00   0.5055818754E-14  -0.2125000003E+01   0.4828501554E-10   0.4828169644E-10   0.1386118609E-13   0.1070126243E-13   0.5869934030E-14   0.4575000007E-01  -0.2287925003E-01  -0.2287925003E-01  -0.2802724043E-14   0.2119338624E-14  -0.1458050429E-14   0.2125000003E+01
   0.2091500000E+01   0.9771207500E+00   0.4323136781E-14  -0.4500000000E-02   0.1122750000E-02  -0.3820894635E-17   0.9600000000E-01  -0.2400200000E-01   0.4326957675E-14  -0.2125000003E+01  -0.1785474641E-09  -0.1785564635E-09  -0.9666222477E-16   0.6985779506E-14  -0.1038548813E-14   0.4575000006E-01  -0.2287925003E-01  -0.2287925003E-01  -0.6201584463E-14   0.1476421647E-15   0.1561506511E-14   0.2125000003E+01
   0.2091500000E+01   0.0000000000E+00   0.9771207500E+00  -0.4500000000E-02   0.0000000000E+00   0.1122750000E-02   0.9600000000E-01   0.0000000000E+00  -0.2400200000E-01  -0.2125000003E+01  -0.1577700342E-10  -0.1576408039E-10   0.2844593245E-14   0.7104074878E-14   0.1940687065E-14   0.4575000006E-01  -0.2287925003E-01  -0.2287925003E-01   0.3301129258E-15  -0.1736203260E-14  -0.2112041405E-14   0.2125000003E+01
   0.2091500000E+01   0.9771207500E+00   0.9771207500E+00  -0.4500000000E-02   0.1122750000E-02   0.1122750000E-02   0.9600000000E-01  -0.2400200000E-01  -0.2400200000E-01  -0.2125000003E+01   0.1354098595E-10   0.1354592111E-10  -0.7750811207E-14  -0.7708453433E-14  -0.3890742985E-14   0.4575000006E-01  -0.2287925003E-01  -0.2287925003E-01   0.3437355171E-14  -0.4042133401E-15   0.9269745430E-15   0.2125000003E+01
     1     2     3     4     5     6     7     8
     2     9    10     3     6    11    12     7
 VARIABLES = X,Y,Z,DU1,DU2,DU3,U1,U2,U3,S11,S22,S33,S12,S13,S23,E11,E22,E33,E12,E13,E23,SMISES
 ZONE, T="0.5700D+01" F=FEPOINT, I=   12 J=    2 ET=BRICK
   0.0000000000E+00   0.0000000000E+00   0.0000000000E+00   0.0000000000E+00   0.0000000000E+00   0.0000000000E+00   0.0000000000E+00   0.0000000000E+00   0.0000000000E+00  -0.3250000005E+01   0.7460066779E-10   0.7459239015E-10  -0.2002169266E-15  -0.5002607763E-14   0.4626631707E-14   0.4350000007E-01  -0.2175650003E-01  -0.2175650003E-01  -0.2804376812E-17  -0.9478512068E-15   0.6381135805E-15   0.3250000005E+01
   0.1043500000E+01   0.0000000000E+00   0.5313358563E-15  -0.2250000000E-02   0.0000000000E+00   0.2268429154E-18   0.4575000000E-01   0.0000000000E+00   0.5311090133E-15  -0.3250000005E+01   0.2415796195E-09   0.2415670161E-09   0.1400769262E-14   0.7280720417E-14   0.2903325003E-14   0.4350000007E-01  -0.2175650003E-01  -0.2175650003E-01   0.8250784985E-15   0.6130491841E-15   0.2367782915E-14   0.3250000005E+01
   0.1043500000E+01   0.9782435000E+00   0.1712817703E-14  -0.2250000000E-02   0.1122750000E-02   0.2735838471E-18   0.4575000000E-01  -0.2287925000E-01   0.1712544120E-14  -0.3250000005E+01   0.6620994839E-10   0.6620065683E-10  -0.1023656586E-13   0.1245437820E-13  -0.5659124899E-14   0.4350000006E-01  -0.2175650003E-01  -0.2175650003E-01  -0.4215298216E-15  -0.1651657214E-14   0.3073826748E-15   0.3250000005E+01
   0.0000000000E+00   0.9782435000E+00   0.3204695129E-15   0.0000000000E+00   0.1122750000E-02  -0.5989407005E-19   0.0000000000E+00  -0.2287925000E-01   0.3205294070E-15  -0.3250000005E+01   0.1625225556E-09   0.1625191909E-09  -0.9479893915E-14  -0.7282809720E-14  -0.5239341636E-14   0.4350000006E-01  -0.2175650003E-01  -0.2175650003E-01   0.8926234181E-15   0.2181757374E-14  -0.1158198132E-14   0.3250000005E+01
   0.0000000000E+00   0.0000000000E+00   0.9782435000E+00   0.0000000000E+00   0.0000000000E+00   0.1122750000E-02   0.0000000000E+00   0.0000000000E+00  -0.2287925000E-01  -0.3250000005E+01  -0.1771064558E-09  -0.1770932848E-09   0.5563534566E-16  -0.1852506835E-13   0.6136905100E-14   0.4350000006E-01  -0.2175650003E-01  -0.2175650003E-01  -0.3664851634E-17   0.3821549389E-14   0.6665123885E-15   0.3250000005E+01
   0.1043500000E+01   0.0000000000E+00   0.9782435000E+00  -0.2250000000E-02   0.0000000000E+00   0.1122750000E-02   0.4575000000E-01   0.0000000000E+00  -0.2287925000E-01  -0.3250000005E+01  -0.2907592867E-10  -0.2907220573E-10   0.6152604816E-14  -0.3652888948E-14   0.4666292605E-14   0.4350000006E-01  -0.2175650003E-01  -0.2175650003E-01  -0.3590115105E-15   0.9876117055E-15  -0.4520689763E-15   0.3250000005E+01
   0.1043500000E+01   0.9782435000E+00   0.9782435000E+00  -0.2250000000E-02   0.1122750000E-02   0.1122750000E-02   0.4575000000E-01  -0.2287925000E-01  -0.2287925000E-01  -0.3250000004E+01  -0.1367758859E-09  -0.1367696065E-09  -0.2701964655E-14   0.1557177564E-14  -0.4052970195E-14   0.4350000006E-01  -0.2175650003E-01  -0.2175650003E-01   0.7928589822E-15  -0.1550032302E-14  -0.2495156826E-14   0.3250000004E+01
   0.0000000000E+00   0.9782435000E+00   0.9782435000E+00   0.0000000000E+00   0.1122750000E-02   0.1122750000E-02   0.0000000000E+00  -0.2287925000E-01  -0.2287925000E-01  -0.3250000005E+01  -0.2114107185E-09  -0.2113937350E-09  -0.7570913473E-14  -0.2093839702E-13  -0.3355762266E-14   0.4350000006E-01  -0.2175650003E-01  -0.2175650003E-01  -0.7228338611E-15   0.2837920039E-14  -0.1128863986E-14   0.3250000004E+01
   0.2087000000E+01   0.0000000000E+00   0.5052453396E-14  -0.4500000000E-02   0.0000000000E+00   0.2278463267E-18   0.9150000000E-01   0.0000000000E+00   0.5052225550E-14  -0.3250000005E+01   0.4898297725E-10   0.4897958431E-10   0.1281537709E-13   0.9249236625E-14   0.5959355240E-14   0.4350000007E-01  -0.2175650003E-01  -0.2175650003E-01  -0.2807529522E-14   0.2067578760E-14  -0.1467434220E-14   0.3250000005E+01
   0.2087000000E+01   0.9782435000E+00   0.4324013546E-14  -0.4500000000E-02   0.1122750000E-02   0.8767656924E-18   0.9150000000E-01  -0.2287925000E-01   0.4323136781E-14  -0.3250000005E+01  -0.1787113319E-09  -0.1787205202E-09  -0.6892286080E-15   0.7703940692E-14  -0.1301656157E-14   0.4350000006E-01  -0.2175650003E-01  -0.2175650003E-01  -0.6197130411E-14   0.2151469179E-15   0.1576406485E-14   0.3250000005E+01
   0.2087000000E+01   0.0000000000E+00   0.9782435000E+00  -0.4500000000E-02   0.0000000000E+00   0.1122750000E-02   0.9150000000E-01   0.0000000000E+00  -0.2287925000E-01  -0.3250000005E+01  -0.1618485102E-10  -0.1617122322E-10   0.3885339296E-14   0.6111928417E-14   0.1783155672E-14   0.4350000006E-01  -0.2175650003E-01  -0.2175650003E-01   0.3360606676E-15  -0.1692776329E-14  -0.2090170133E-14   0.3250000005E+01
   0.2087000000E+01   0.9782435000E+00   0.9782435000E+00  -0.4500000000E-02   0.1122750000E-02   0.1122750000E-02   0.9150000000E-01  -0.2287925000E-01  -0.2287925000E-01  -0.3250000004E+01   0.1367834159E-10   0.1368345616E-10  -0.7043950955E-14  -0.6963866175E-14  -0.4450949463E-14   0.4350000006E-01  -0.2175650003E-01  -0.2175650003E-01   0.3443153174E-14  -0.4336100488E-15   0.8833482255E-15   0.3250000004E+01
     1     2     3     4     5     6     7     8
     2     9    10     3     6    11    12     7
 VARIABLES = X,Y,Z,DU1,DU2,DU3,U1,U2,U3,S11,S22,S33,S12,S13,S23,E11,E22,E33,E12,E13,E23,SMISES
 ZONE, T="0.5750D+01" F=FEPOINT, I=   12 J=    2 ET=BRICK
   0.0000000000E+00   0.0000000000E+00   0.0000000000E+00   0.0000000000E+00   0.0000000000E+00   0.0000000000E+00   0.0000000000E+00   0.0000000000E+00   0.0000000000E+00  -0.4375000007E+01   0.7477396005E-10   0.7476614284E-10  -0.2016700975E-15  -0.4657282061E-14   0.4850308279E-14   0.4125000006E-01  -0.2063375003E-01  -0.2063375003E-01   0.1263988760E-17  -0.9304976189E-15   0.6434399233E-15   0.4375000007E+01
   0.1041250000E+01   0.0000000000E+00   0.5324310074E-15  -0.2250000000E-02   0.0000000000E+00   0.1095151133E-17   0.4350000000E-01   0.0000000000E+00   0.5313358563E-15  -0.4375000007E+01   0.2412977690E-09   0.2412853986E-09   0.1485238110E-14   0.7142179930E-14   0.2780012506E-14   0.4125000006E-01  -0.2063375003E-01  -0.2063375003E-01   0.8157231540E-15   0.5738866587E-15   0.2356478155E-14   0.4375000007E+01
   0.1041250000E+01   0.9793662500E+00   0.1713106603E-14  -0.2250000000E-02   0.1122750000E-02   0.2888994465E-18   0.4350000000E-01  -0.2175650000E-01   0.1712817703E-14  -0.4375000006E+01   0.6635934196E-10   0.6634956567E-10  -0.1020030118E-13   0.1226713717E-13  -0.5805853443E-14   0.4125000006E-01  -0.2063375003E-01  -0.2063375003E-01  -0.4246159507E-15  -0.1646660164E-14   0.3139802458E-15   0.4375000006E+01
   0.0000000000E+00   0.9793662500E+00   0.3216670357E-15   0.0000000000E+00   0.1122750000E-02   0.1197522720E-17   0.0000000000E+00  -0.2175650000E-01   0.3204695129E-15  -0.4375000006E+01   0.1624307300E-09   0.1624274858E-09  -0.9343163070E-14  -0.7437913870E-14  -0.4923719735E-14   0.4125000006E-01  -0.2063375003E-01  -0.2063375003E-01   0.8937957632E-15   0.2170510256E-14  -0.1155743443E-14   0.4375000006E+01
   0.0000000000E+00   0.0000000000E+00   0.9793662500E+00   0.0000000000E+00   0.0000000000E+00   0.1122750000E-02   0.0000000000E+00   0.0000000000E+00  -0.2175650000E-01  -0.4375000007E+01  -0.1771396405E-09  -0.1771265345E-09   0.6250811208E-16  -0.1820518553E-13   0.6034500791E-14   0.4125000006E-01  -0.2063375003E-01  -0.2063375003E-01   0.1713971457E-17   0.3823666815E-14   0.6844804070E-15   0.4375000006E+01
   0.1041250000E+01   0.0000000000E+00   0.9793662500E+00  -0.2250000000E-02   0.0000000000E+00   0.1122750000E-02   0.4350000000E-01   0.0000000000E+00  -0.2175650000E-01  -0.4375000006E+01  -0.2872675554E-10  -0.2872265889E-10   0.6145528193E-14  -0.3753913561E-14   0.4330959097E-14   0.4125000006E-01  -0.2063375003E-01  -0.2063375003E-01  -0.3799485734E-15   0.9883568394E-15  -0.4545758359E-15   0.4375000006E+01
   0.1041250000E+01   0.9793662500E+00   0.9793662500E+00  -0.2250000000E-02   0.1122750000E-02   0.1122750000E-02   0.4350000000E-01  -0.2175650000E-01  -0.2175650000E-01  -0.4375000006E+01  -0.1370247672E-09  -0.1370188318E-09  -0.2637272598E-14   0.1506999234E-14  -0.4386159196E-14   0.4125000005E-01  -0.2063375003E-01  -0.2063375003E-01   0.7962710530E-15  -0.1590589609E-14  -0.2521697792E-14   0.4375000006E+01
   0.0000000000E+00   0.9793662500E+00   0.9793662500E+00   0.0000000000E+00   0.1122750000E-02   0.1122750000E-02   0.0000000000E+00  -0.2175650000E-01  -0.2175650000E-01  -0.4375000006E+01  -0.2113572416E-09  -0.2113406629E-09  -0.7718541441E-14  -0.2100578422E-13  -0.3342524017E-14   0.4125000006E-01  -0.2063375003E-01  -0.2063375003E-01  -0.7293283510E-15   0.2843411107E-14  -0.1115401073E-14   0.4375000006E+01
   0.2082500000E+01   0.0000000000E+00   0.5051107278E-14  -0.4500000000E-02   0.0000000000E+00  -0.1346117822E-17   0.8700000000E-01   0.0000000000E+00   0.5052453396E-14  -0.4375000007E+01   0.4796751970E-10   0.4796413220E-10   0.1477596157E-13   0.1130975592E-13   0.6266439919E-14   0.4125000006E-01  -0.2063375003E-01  -0.2063375003E-01  -0.2811960798E-14   0.2167162310E-14  -0.1451021597E-14   0.4375000007E+01
   0.2082500000E+01   0.9793662500E+00   0.4324364701E-14  -0.4500000000E-02   0.1122750000E-02   0.3511548371E-18   0.8700000000E-01  -0.2175650000E-01   0.4324013546E-14  -0.4375000006E+01  -0.1785474690E-09  -0.1785564149E-09   0.1003713162E-14   0.6286790822E-14  -0.6369541608E-15   0.4125000006E-01  -0.2063375003E-01  -0.2063375003E-01  -0.6194602767E-14   0.1211965217E-15   0.1578197044E-14   0.4375000006E+01
   0.2082500000E+01   0.0000000000E+00   0.9793662500E+00  -0.4500000000E-02   0.0000000000E+00   0.1122750000E-02   0.8700000000E-01   0.0000000000E+00  -0.2175650000E-01  -0.4375000006E+01  -0.1535233200E-10  -0.1533922411E-10   0.1973991204E-14   0.7782046477E-14   0.1991438595E-14   0.4125000006E-01  -0.2063375003E-01  -0.2063375003E-01   0.3578773959E-15  -0.1732809382E-14  -0.2113707126E-14   0.4375000006E+01
   0.2082500000E+01   0.9793662500E+00   0.9793662500E+00  -0.4500000000E-02   0.1122750000E-02   0.1122750000E-02   0.8700000000E-01  -0.2175650000E-01  -0.2175650000E-01  -0.4375000006E+01   0.1328095835E-10   0.1328578992E-10  -0.8854816825E-14  -0.8544581949E-14  -0.3810749930E-14   0.4125000005E-01  -0.2063375003E-01  -0.2063375003E-01   0.3426152465E-14  -0.3448757537E-15   0.9156928512E-15   0.4375000006E+01
     1     2     3     4     5     6     7     8
     2     9    10     3     6    11    12     7
 VARIABLES = X,Y,Z,DU1,DU2,DU3,U1,U2,U3,S11,S22,S33,S12,S13,S23,E11,E22,E33,E12,E13,E23,SMISES
 ZONE, T="0.5800D+01" F=FEPOINT, I=   12 J=    2 ET=BRICK
   0.0000000000E+00   0.0000000000E+00   0.0000000000E+00   0.0000000000E+00   0.0000000000E+00   0.0000000000E+00   0.0000000000E+00   0.0000000000E+00   0.0000000000E+00  -0.5500000009E+01   0.7496806859E-10   0.7496081266E-10  -0.2165675938E-15  -0.4779267930E-14   0.4983390966E-14   0.3900000006E-01  -0.1951100003E-01  -0.1951100003E-01   0.1984306510E-17  -0.9375625259E-15   0.6405151119E-15   0.5500000009E+01
   0.1039000000E+01   0.0000000000E+00   0.5316636513E-15  -0.2250000000E-02   0.0000000000E+00  -0.7673561252E-18   0.4125000000E-01   0.0000000000E+00   0.5324310074E-15  -0.5500000008E+01   0.2411558087E-09   0.2411428410E-09   0.7992858786E-15   0.7071796387E-14   0.2632968486E-14   0.3900000006E-01  -0.1951100003E-01  -0.1951100003E-01   0.8055715922E-15   0.6034904024E-15   0.2357347415E-14   0.5500000008E+01
   0.1039000000E+01   0.9804890000E+00   0.1711355076E-14  -0.2250000000E-02   0.1122750000E-02  -0.1751526549E-17   0.4125000000E-01  -0.2063375000E-01   0.1713106603E-14  -0.5500000008E+01   0.6641161956E-10   0.6640237408E-10  -0.1101493987E-13   0.1228932941E-13  -0.5975181286E-14   0.3900000006E-01  -0.1951100003E-01  -0.1951100003E-01  -0.4386221392E-15  -0.1698108672E-14   0.3096501655E-15   0.5500000008E+01
   0.0000000000E+00   0.9804890000E+00   0.3225781231E-15   0.0000000000E+00   0.1122750000E-02   0.9110874091E-18   0.0000000000E+00  -0.2063375000E-01   0.3216670357E-15  -0.5500000008E+01   0.1619579778E-09   0.1619543978E-09  -0.9061116747E-14  -0.7777293177E-14  -0.4774741443E-14   0.3900000006E-01  -0.1951100003E-01  -0.1951100003E-01   0.8985197296E-15   0.2189781833E-14  -0.1117238679E-14   0.5500000008E+01
   0.0000000000E+00   0.0000000000E+00   0.9804890000E+00   0.0000000000E+00   0.0000000000E+00   0.1122750000E-02   0.0000000000E+00   0.0000000000E+00  -0.2063375000E-01  -0.5500000008E+01  -0.1770441274E-09  -0.1770306911E-09   0.6844744992E-16  -0.1838754318E-13   0.6020487809E-14   0.3900000006E-01  -0.1951100003E-01  -0.1951100003E-01  -0.2622906901E-17   0.3827013589E-14   0.6640230339E-15   0.5500000008E+01
   0.1039000000E+01   0.0000000000E+00   0.9804890000E+00  -0.2250000000E-02   0.0000000000E+00   0.1122750000E-02   0.4125000000E-01   0.0000000000E+00  -0.2063375000E-01  -0.5500000008E+01  -0.2874441422E-10  -0.2874069672E-10   0.6070757200E-14  -0.4191047206E-14   0.4550393122E-14   0.3900000006E-01  -0.1951100003E-01  -0.1951100003E-01  -0.3599821466E-15   0.9870070338E-15  -0.4504006622E-15   0.5500000008E+01
   0.1039000000E+01   0.9804890000E+00   0.9804890000E+00  -0.2250000000E-02   0.1122750000E-02   0.1122750000E-02   0.4125000000E-01  -0.2063375000E-01  -0.2063375000E-01  -0.5500000007E+01  -0.1365225378E-09  -0.1365165523E-09  -0.2683926738E-14   0.1872311885E-14  -0.4120178858E-14   0.3900000005E-01  -0.1951100003E-01  -0.1951100003E-01   0.7808033575E-15  -0.1564763201E-14  -0.2511196862E-14   0.5500000007E+01
   0.0000000000E+00   0.9804890000E+00   0.9804890000E+00   0.0000000000E+00   0.1122750000E-02   0.1122750000E-02   0.0000000000E+00  -0.2063375000E-01  -0.2063375000E-01  -0.5500000008E+01  -0.2116038045E-09  -0.2115868662E-09  -0.7435486635E-14  -0.2087276172E-13  -0.3340867031E-14   0.3900000005E-01  -0.1951100003E-01  -0.1951100003E-01  -0.7247264191E-15   0.2829376438E-14  -0.1145897118E-14   0.5500000007E+01
   0.2078000000E+01   0.0000000000E+00   0.5048218680E-14  -0.4500000000E-02   0.0000000000E+00  -0.2888598745E-17   0.8250000000E-01   0.0000000000E+00   0.5051107278E-14  -0.5500000008E+01   0.4730718831E-10   0.4730391655E-10   0.1476038492E-13   0.1111133843E-13   0.5803701506E-14   0.3900000006E-01  -0.1951100003E-01  -0.1951100003E-01  -0.2798737189E-14   0.2119524844E-14  -0.1469038381E-14   0.5500000008E+01
   0.2078000000E+01   0.9804890000E+00   0.4318575427E-14  -0.4500000000E-02   0.1122750000E-02  -0.5789274124E-17   0.8250000000E-01  -0.2063375000E-01   0.4324364701E-14  -0.5500000008E+01  -0.1784230924E-09  -0.1784314993E-09   0.6021842184E-15   0.7445102986E-14  -0.9546910344E-15   0.3900000005E-01  -0.1951100003E-01  -0.1951100003E-01  -0.6173384182E-14   0.2445155604E-15   0.1588444776E-14   0.5500000008E+01
   0.2078000000E+01   0.0000000000E+00   0.9804890000E+00  -0.4500000000E-02   0.0000000000E+00   0.1122750000E-02   0.8250000000E-01   0.0000000000E+00  -0.2063375000E-01  -0.5500000008E+01  -0.1571826756E-10  -0.1570577448E-10   0.3473614699E-14   0.7583759482E-14   0.1972293770E-14   0.3900000005E-01  -0.1951100003E-01  -0.1951100003E-01   0.3882852198E-15  -0.1774230665E-14  -0.2110387705E-14   0.5500000008E+01
   0.2078000000E+01   0.9804890000E+00   0.9804890000E+00  -0.4500000000E-02   0.1122750000E-02   0.1122750000E-02   0.8250000000E-01  -0.2063375000E-01  -0.2063375000E-01  -0.5500000007E+01   0.1402393865E-10   0.1402971610E-10  -0.7707165082E-14  -0.7920344521E-14  -0.3652818205E-14   0.3900000005E-01  -0.1951100002E-01  -0.1951100002E-01   0.3417869090E-14  -0.3593116827E-15   0.9084878706E-15   0.5500000007E+01
     1     2     3     4     5     6     7     8
     2     9    10     3     6    11    12     7
 VARIABLES = X,Y,Z,DU1,DU2,DU3,U1,U2,U3,S11,S22,S33,S12,S13,S23,E11,E22,E33,E12,E13,E23,SMISES
 ZONE, T="0.5850D+01" F=FEPOINT, I=   12 J=    2 ET=BRICK
   0.0000000000E+00   0.0000000000E+00   0.0000000000E+00   0.0000000000E+00   0.0000000000E+00   0.0000000000E+00   0.0000000000E+00   0.0000000000E+00   0.0000000000E+00  -0.6625000010E+01   0.7425167196E-10   0.7424471265E-10  -0.2156910288E-15  -0.5314206055E-14   0.4727331554E-14   0.3675000006E-01  -0.1838825003E-01  -0.1838825003E-01  -0.4076698858E-17  -0.9401122161E-15   0.6425113399E-15   0.6625000010E+01
   0.1036750000E+01   0.0000000000E+00   0.5287421980E-15  -0.2250000000E-02   0.0000000000E+00  -0.2921453237E-17   0.3900000000E-01   0.0000000000E+00   0.5316636513E-15  -0.6625000010E+01   0.2413936132E-09   0.2413806103E-09   0.1664437285E-14   0.8256499359E-14   0.2800770292E-14   0.3675000006E-01  -0.1838825003E-01  -0.1838825003E-01   0.8352645010E-15   0.6137154792E-15   0.2359073631E-14   0.6625000010E+01
   0.1036750000E+01   0.9816117500E+00   0.1709592970E-14  -0.2250000000E-02   0.1122750000E-02  -0.1762106226E-17   0.3900000000E-01  -0.1951100000E-01   0.1711355076E-14  -0.6625000009E+01   0.6608047036E-10   0.6607037588E-10  -0.1003208645E-13   0.1197386248E-13  -0.5492736038E-14   0.3675000005E-01  -0.1838825003E-01  -0.1838825003E-01  -0.4159905423E-15  -0.1680905087E-14   0.3062295732E-15   0.6625000009E+01
   0.0000000000E+00   0.9816117500E+00   0.3209784177E-15   0.0000000000E+00   0.1122750000E-02  -0.1599705411E-17   0.0000000000E+00  -0.1951100000E-01   0.3225781231E-15  -0.6625000009E+01   0.1620744432E-09   0.1620714894E-09  -0.9400536478E-14  -0.7721047414E-14  -0.4945492953E-14   0.3675000005E-01  -0.1838825003E-01  -0.1838825003E-01   0.8898282460E-15   0.2169688200E-14  -0.1127496393E-14   0.6625000010E+01
   0.0000000000E+00   0.0000000000E+00   0.9816117500E+00   0.0000000000E+00   0.0000000000E+00   0.1122750000E-02   0.0000000000E+00   0.0000000000E+00  -0.1951100000E-01  -0.6625000010E+01  -0.1763210882E-09  -0.1763073071E-09   0.8919737007E-16  -0.1909170779E-13   0.5682414689E-14   0.3675000005E-01  -0.1838825003E-01  -0.1838825003E-01   0.4562309569E-17   0.3812274440E-14   0.6513136590E-15   0.6625000010E+01
   0.1036750000E+01   0.0000000000E+00   0.9816117500E+00  -0.2250000000E-02   0.0000000000E+00   0.1122750000E-02   0.3900000000E-01   0.0000000000E+00  -0.1951100000E-01  -0.6625000009E+01  -0.2882118769E-10  -0.2881726846E-10   0.5251597703E-14  -0.2881973656E-14   0.4522568298E-14   0.3675000005E-01  -0.1838825003E-01  -0.1838825003E-01  -0.4073708477E-15   0.1033901818E-14  -0.4561678067E-15   0.6625000009E+01
   0.1036750000E+01   0.9816117500E+00   0.9816117500E+00  -0.2250000000E-02   0.1122750000E-02   0.1122750000E-02   0.3900000000E-01  -0.1951100000E-01  -0.1951100000E-01  -0.6625000009E+01  -0.1365727414E-09  -0.1365672461E-09  -0.3484956558E-14   0.1684411131E-14  -0.3891193177E-14   0.3675000005E-01  -0.1838825002E-01  -0.1838825002E-01   0.7707489758E-15  -0.1595156171E-14  -0.2516002868E-14   0.6625000009E+01
   0.0000000000E+00   0.9816117500E+00   0.9816117500E+00   0.0000000000E+00   0.1122750000E-02   0.1122750000E-02   0.0000000000E+00  -0.1951100000E-01  -0.1951100000E-01  -0.6625000009E+01  -0.2114823894E-09  -0.2114656259E-09  -0.7484536692E-14  -0.2117826228E-13  -0.3607549900E-14   0.3675000005E-01  -0.1838825002E-01  -0.1838825002E-01  -0.7326136076E-15   0.2839515523E-14  -0.1117263350E-14   0.6625000009E+01
   0.2073500000E+01   0.0000000000E+00   0.5043631282E-14  -0.4500000000E-02   0.0000000000E+00  -0.4587397142E-17   0.7800000000E-01   0.0000000000E+00   0.5048218680E-14  -0.6625000010E+01   0.4898619132E-10   0.4898260409E-10   0.1306948229E-13   0.9522778969E-14   0.6074168665E-14   0.3675000006E-01  -0.1838825003E-01  -0.1838825003E-01  -0.2828231336E-14   0.2155070839E-14  -0.1451948568E-14   0.6625000010E+01
   0.2073500000E+01   0.9816117500E+00   0.4315361747E-14  -0.4500000000E-02   0.1122750000E-02  -0.3213680408E-17   0.7800000000E-01  -0.1951100000E-01   0.4318575427E-14  -0.6625000009E+01  -0.1786615682E-09  -0.1786700056E-09  -0.3465964486E-15   0.7711915062E-14  -0.1243613937E-14   0.3675000005E-01  -0.1838825003E-01  -0.1838825003E-01  -0.6192534953E-14   0.1921700280E-15   0.1570515140E-14   0.6625000009E+01
   0.2073500000E+01   0.0000000000E+00   0.9816117500E+00  -0.4500000000E-02   0.0000000000E+00   0.1122750000E-02   0.7800000000E-01   0.0000000000E+00  -0.1951100000E-01  -0.6625000009E+01  -0.1654017721E-10  -0.1652799614E-10   0.3940713150E-14   0.5788348412E-14   0.1901502818E-14   0.3675000005E-01  -0.1838825003E-01  -0.1838825003E-01   0.3995914791E-15  -0.1839389337E-14  -0.2112587976E-14   0.6625000009E+01
   0.2073500000E+01   0.9816117500E+00   0.9816117500E+00  -0.4500000000E-02   0.1122750000E-02   0.1122750000E-02   0.7800000000E-01  -0.1951100000E-01  -0.1951100000E-01  -0.6625000008E+01   0.1391008357E-10   0.1391577303E-10  -0.7402206901E-14  -0.7608702330E-14  -0.4126319044E-14   0.3675000005E-01  -0.1838825002E-01  -0.1838825002E-01   0.3426458662E-14  -0.3028329078E-15   0.9021388875E-15   0.6625000008E+01
     1     2     3     4     5     6     7     8
     2     9    10     3     6    11    12     7
 VARIABLES = X,Y,Z,DU1,DU2,DU3,U1,U2,U3,S11,S22,S33,S12,S13,S23,E11,E22,E33,E12,E13,E23,SMISES
 ZONE, T="0.5900D+01" F=FEPOINT, I=   12 J=    2 ET=BRICK
   0.0000000000E+00   0.0000000000E+00   0.0000000000E+00   0.0000000000E+00   0.0000000000E+00   0.0000000000E+00   0.0000000000E+00   0.0000000000E+00   0.0000000000E+00  -0.7750000012E+01   0.2756514655E-09   0.2758296353E-09  -0.1119434610E-15   0.3458134609E-12   0.2011843706E-12   0.2950000005E-01  -0.1476550002E-01  -0.1476550002E-01   0.3911967531E-17   0.4295043313E-14   0.3562463318E-14   0.7750000012E+01
   0.1029500000E+01   0.0000000000E+00   0.3241592497E-14  -0.7250000000E-02   0.0000000000E+00   0.2712850299E-14   0.3675000000E-01   0.0000000000E+00   0.5287421980E-15  -0.7750000012E+01   0.2745406069E-09   0.2744145468E-09   0.4873725066E-13   0.7355637337E-13  -0.4764518117E-13   0.2950000005E-01  -0.1476550002E-01  -0.1476550002E-01   0.1513649921E-14   0.1620032611E-14   0.1558566812E-14   0.7750000012E+01
   0.1029500000E+01   0.9852345000E+00   0.4021573569E-14  -0.7250000000E-02   0.3622750000E-02   0.2311980599E-14   0.3675000000E-01  -0.1838825000E-01   0.1709592970E-14  -0.7750000011E+01   0.1663580085E-09   0.1664102688E-09   0.1002519985E-13  -0.7764981008E-13  -0.4662600511E-13   0.2950000004E-01  -0.1476550002E-01  -0.1476550002E-01  -0.1199708691E-15  -0.2954255706E-14  -0.3342736787E-15   0.7750000011E+01
   0.0000000000E+00   0.9852345000E+00   0.1785734622E-14   0.0000000000E+00   0.3622750000E-02   0.1464756204E-14   0.0000000000E+00  -0.1838825000E-01   0.3209784177E-15  -0.7750000011E+01   0.2601984903E-09   0.2599247653E-09  -0.4190556198E-13   0.2728035430E-13   0.1222208883E-12   0.2950000004E-01  -0.1476550002E-01  -0.1476550002E-01   0.3495416706E-15   0.2616734938E-14   0.7933245922E-15   0.7750000011E+01
   0.0000000000E+00   0.0000000000E+00   0.9852345000E+00   0.0000000000E+00   0.0000000000E+00   0.3622750000E-02   0.0000000000E+00   0.0000000000E+00  -0.1838825000E-01  -0.7750000012E+01  -0.2507647815E-09  -0.2504285132E-09   0.7667436012E-16   0.1037710055E-12  -0.2559736372E-13   0.2950000004E-01  -0.1476550002E-01  -0.1476550002E-01  -0.4225253976E-17   0.5496579886E-14   0.1983662303E-15   0.7750000011E+01
   0.1029500000E+01   0.0000000000E+00   0.9852345000E+00  -0.7250000000E-02   0.0000000000E+00   0.3622750000E-02   0.3675000000E-01   0.0000000000E+00  -0.1838825000E-01  -0.7750000011E+01  -0.1226286779E-09  -0.1227564252E-09   0.5877824832E-14  -0.2100307176E-13   0.4183518206E-13   0.2950000004E-01  -0.1476550002E-01  -0.1476550002E-01  -0.3602564106E-15   0.7074037417E-15   0.1309491677E-15   0.7750000011E+01
   0.1029500000E+01   0.9852345000E+00   0.9852345000E+00  -0.7250000000E-02   0.3622750000E-02   0.3622750000E-02   0.3675000000E-01  -0.1838825000E-01  -0.1838825000E-01  -0.7750000010E+01  -0.1583737191E-09  -0.1583244783E-09   0.6653297336E-14  -0.4890745455E-13   0.4293241230E-13   0.2950000004E-01  -0.1476550002E-01  -0.1476550002E-01   0.8550120660E-15  -0.2311908491E-14  -0.1767024289E-14   0.7750000010E+01
   0.0000000000E+00   0.9852345000E+00   0.9852345000E+00   0.0000000000E+00   0.3622750000E-02   0.3622750000E-02   0.0000000000E+00  -0.1838825000E-01  -0.1838825000E-01  -0.7750000011E+01  -0.4319628193E-09  -0.4320790466E-09   0.5896858973E-13   0.1978901979E-12  -0.1038450226E-12   0.2950000004E-01  -0.1476550002E-01  -0.1476550002E-01   0.2714832054E-15   0.5967291015E-14  -0.2604041075E-14   0.7750000010E+01
   0.2059000000E+01   0.0000000000E+00   0.1083707431E-13  -0.1450000000E-01   0.0000000000E+00   0.5793443027E-14   0.7350000000E-01   0.0000000000E+00   0.5043631282E-14  -0.7750000012E+01   0.4611773274E-10   0.4607111954E-10   0.3665916919E-13   0.6632817829E-14  -0.1644807310E-13   0.2950000004E-01  -0.1476550002E-01  -0.1476550002E-01  -0.2375620603E-14   0.2041761864E-14  -0.1734242035E-14   0.7750000012E+01
   0.2059000000E+01   0.9852345000E+00   0.9968252182E-14  -0.1450000000E-01   0.3622750000E-02   0.5652890435E-14   0.7350000000E-01  -0.1838825000E-01   0.4315361747E-14  -0.7750000011E+01  -0.1872601570E-09  -0.1872696174E-09   0.1215050430E-14   0.1230908579E-12  -0.1894739009E-13   0.2950000004E-01  -0.1476550002E-01  -0.1476550002E-01  -0.6052386591E-14   0.1924952359E-14   0.1248762496E-14   0.7750000011E+01
   0.2059000000E+01   0.0000000000E+00   0.9852345000E+00  -0.1450000000E-01   0.0000000000E+00   0.3622750000E-02   0.7350000000E-01   0.0000000000E+00  -0.1838825000E-01  -0.7750000011E+01  -0.5437818469E-10  -0.5441840528E-10   0.5019434913E-13   0.6135673723E-13   0.3807063238E-15   0.2950000004E-01  -0.1476550002E-01  -0.1476550002E-01   0.1074771229E-14  -0.8699231646E-15  -0.2089458588E-14   0.7750000011E+01
   0.2059000000E+01   0.9852345000E+00   0.9852345000E+00  -0.1450000000E-01   0.3622750000E-02   0.3622750000E-02   0.7350000000E-01  -0.1838825000E-01  -0.1838825000E-01  -0.7750000010E+01   0.2286871779E-10   0.2286358625E-10  -0.8826955348E-14   0.4915372622E-14  -0.1154771126E-14   0.2950000004E-01  -0.1476550002E-01  -0.1476550002E-01   0.3334152004E-14  -0.1734023822E-15   0.9204921654E-15   0.7750000010E+01
     1     2     3     4     5     6     7     8
     2     9    10     3     6    11    12     7
 VARIABLES = X,Y,Z,DU1,DU2,DU3,U1,U2,U3,S11,S22,S33,S12,S13,S23,E11,E22,E33,E12,E13,E23,SMISES
 ZONE, T="0.5950D+01" F=FEPOINT, I=   12 J=    2 ET=BRICK
   0.0000000000E+00   0.0000000000E+00   0.0000000000E+00   0.0000000000E+00   0.0000000000E+00   0.0000000000E+00   0.0000000000E+00   0.0000000000E+00   0.0000000000E+00  -0.8875000013E+01   0.1007776632E-08   0.1008014742E-08  -0.2570986362E-16   0.4797547190E-12   0.1859209967E-12   0.4750000007E-02  -0.2392750004E-02  -0.2392750004E-02  -0.3739720454E-17   0.1171670394E-13   0.5525526159E-14   0.8875000014E+01
   0.1004750000E+01   0.0000000000E+00   0.9481713300E-14  -0.2475000000E-01   0.0000000000E+00   0.6240120803E-14   0.2950000000E-01   0.0000000000E+00   0.3241592497E-14  -0.8875000013E+01   0.6845664186E-09   0.6844281412E-09  -0.7182842505E-13  -0.4134550198E-13  -0.1605244914E-13   0.4750000007E-02  -0.2392750004E-02  -0.2392750004E-02  -0.8855101669E-15  -0.3525328783E-15   0.1525845955E-14   0.8875000014E+01
   0.1004750000E+01   0.9976072500E+00   0.1024745117E-13  -0.2475000000E-01   0.1237275000E-01   0.6225877597E-14   0.2950000000E-01  -0.1476550000E-01   0.4021573569E-14  -0.8875000012E+01   0.6194256338E-09   0.6193565403E-09  -0.3323555817E-13  -0.2945061657E-12  -0.4290719245E-13   0.4750000007E-02  -0.2392750003E-02  -0.2392750003E-02  -0.1028964293E-14  -0.8925143853E-14  -0.8292382565E-15   0.8875000013E+01
   0.0000000000E+00   0.9976072500E+00   0.2762830877E-14   0.0000000000E+00   0.1237275000E-01   0.9770962549E-15   0.0000000000E+00  -0.1476550000E-01   0.1785734622E-14  -0.8875000012E+01   0.6778980696E-09   0.6776216861E-09   0.1438626333E-12   0.2382241662E-12   0.6531719913E-13   0.4750000007E-02  -0.2392750003E-02  -0.2392750003E-02   0.4239254429E-14   0.7813434014E-14   0.9563032430E-15   0.8875000013E+01
   0.0000000000E+00   0.0000000000E+00   0.9976072500E+00   0.0000000000E+00   0.0000000000E+00   0.1237275000E-01   0.0000000000E+00   0.0000000000E+00  -0.1476550000E-01  -0.8875000014E+01  -0.7240006316E-09  -0.7235207521E-09  -0.9920686405E-16   0.3788138896E-12  -0.7259099811E-13   0.4750000007E-02  -0.2392750003E-02  -0.2392750003E-02   0.6936013792E-17   0.1294347350E-13  -0.1307609560E-14   0.8875000013E+01
   0.1004750000E+01   0.0000000000E+00   0.9976072500E+00  -0.2475000000E-01   0.0000000000E+00   0.1237275000E-01   0.2950000000E-01   0.0000000000E+00  -0.1476550000E-01  -0.8875000013E+01  -0.5398747709E-09  -0.5399596112E-09  -0.2026576092E-12  -0.7883371247E-13   0.1905743806E-13   0.4750000007E-02  -0.2392750003E-02  -0.2392750003E-02  -0.5300181849E-14  -0.1008790366E-14   0.1333788766E-15   0.8875000013E+01
   0.1004750000E+01   0.9976072500E+00   0.9976072500E+00  -0.2475000000E-01   0.1237275000E-01   0.1237275000E-01   0.2950000000E-01  -0.1476550000E-01  -0.1476550000E-01  -0.8875000012E+01  -0.5000521998E-09  -0.5000682785E-09  -0.5903206016E-13  -0.1299804762E-12  -0.8488424353E-14   0.4750000006E-02  -0.2392750003E-02  -0.2392750003E-02  -0.7008310935E-15  -0.4714928006E-14  -0.2270246092E-14   0.8875000012E+01
   0.0000000000E+00   0.9976072500E+00   0.9976072500E+00   0.0000000000E+00   0.1237275000E-01   0.1237275000E-01   0.0000000000E+00  -0.1476550000E-01  -0.1476550000E-01  -0.8875000013E+01  -0.1393288489E-08  -0.1393324469E-08   0.2314612261E-12   0.4759603622E-12  -0.1918731622E-12   0.4750000006E-02  -0.2392750003E-02  -0.2392750003E-02   0.5172824508E-14   0.1472381395E-13  -0.5841721959E-14   0.8875000012E+01
   0.2009500000E+01   0.0000000000E+00   0.3345040085E-13  -0.4950000000E-01   0.0000000000E+00   0.2261332654E-13   0.5900000000E-01   0.0000000000E+00   0.1083707431E-13  -0.8875000013E+01   0.1249341174E-10   0.1242890113E-10   0.9075779943E-13  -0.2776110325E-13  -0.5828327671E-13   0.4750000007E-02  -0.2392750004E-02  -0.2392750004E-02  -0.3670247981E-15   0.1101093178E-14  -0.2789037667E-14   0.8875000013E+01
   0.2009500000E+01   0.9976072500E+00   0.3205490846E-13  -0.4950000000E-01   0.1237275000E-01   0.2208665628E-13   0.5900000000E-01  -0.1476550000E-01   0.9968252182E-14  -0.8875000012E+01   0.1707461492E-09   0.1709686145E-09   0.2366680700E-13   0.5700431412E-13   0.3143560706E-13   0.4750000007E-02  -0.2392750003E-02  -0.2392750003E-02  -0.4879273074E-14   0.1849480398E-14   0.2095139295E-14   0.8875000012E+01
   0.2009500000E+01   0.0000000000E+00   0.9976072500E+00  -0.4950000000E-01   0.0000000000E+00   0.1237275000E-01   0.5900000000E-01   0.0000000000E+00  -0.1476550000E-01  -0.8875000013E+01  -0.4937004465E-09  -0.4939419968E-09   0.1753964002E-12   0.6917058755E-15   0.8430856163E-13   0.4750000007E-02  -0.2392750003E-02  -0.2392750003E-02   0.4674518191E-14  -0.1473089335E-14   0.1535578809E-15   0.8875000012E+01
   0.2009500000E+01   0.9976072500E+00   0.9976072500E+00  -0.4950000000E-01   0.1237275000E-01   0.1237275000E-01   0.5900000000E-01  -0.1476550000E-01  -0.1476550000E-01  -0.8875000011E+01   0.2138882981E-09   0.2139319364E-09   0.2304141562E-12   0.1420373114E-12   0.1743974661E-12   0.4750000006E-02  -0.2392750003E-02  -0.2392750003E-02   0.8616818706E-14   0.3243509208E-14   0.5017089647E-14   0.8875000011E+01
     1     2     3     4     5     6     7     8
     2     9    10     3     6    11    12     7
 VARIABLES = X,Y,Z,DU1,DU2,DU3,U1,U2,U3,S11,S22,S33,S12,S13,S23,E11,E22,E33,E12,E13,E23,SMISES
 ZONE, T="0.6000D+01" F=FEPOINT, I=   12 J=    2 ET=BRICK
   0.0000000000E+00   0.0000000000E+00   0.0000000000E+00   0.0000000000E+00   0.0000000000E+00   0.0000000000E+00   0.0000000000E+00   0.0000000000E+00   0.0000000000E+00  -0.1000000002E+02   0.4386583057E-09   0.4386287977E-09   0.1879811712E-16  -0.2733689046E-13   0.1543713085E-13  -0.2000000003E-01   0.9980000016E-02   0.9980000016E-02   0.7415061350E-18   0.4706792877E-14   0.3336891664E-14   0.1000000002E+02
   0.9800000000E+00   0.0000000000E+00   0.4072473375E-14  -0.2475000000E-01   0.0000000000E+00  -0.5409239925E-14   0.4750000000E-02   0.0000000000E+00   0.9481713300E-14  -0.1000000002E+02   0.3632287667E-09   0.3631973005E-09   0.1754540169E-13   0.3241583059E-13   0.1091202828E-13  -0.2000000003E-01   0.9980000015E-02   0.9980000015E-02   0.3880316665E-15   0.9012985782E-15   0.1816204316E-14   0.1000000002E+02
   0.9800000000E+00   0.1009980000E+01   0.4977743827E-14  -0.2475000000E-01   0.1237275000E-01  -0.5269707339E-14   0.4750000000E-02  -0.2392750000E-02   0.1024745117E-13  -0.1000000001E+02   0.2785198550E-09   0.2784944908E-09  -0.1450903003E-13   0.3547281682E-13  -0.1526512395E-13  -0.2000000003E-01   0.9980000014E-02   0.9980000014E-02  -0.9340423053E-15  -0.3976215304E-14  -0.6677214312E-15   0.1000000001E+02
   0.0000000000E+00   0.1009980000E+01   0.1672309151E-14   0.0000000000E+00   0.1237275000E-01  -0.1090521726E-14   0.0000000000E+00  -0.2392750000E-02   0.2762830877E-14  -0.1000000001E+02   0.3405900676E-09   0.3405644313E-09  -0.2982207496E-13  -0.3267647131E-13  -0.1621144609E-13  -0.2000000003E-01   0.9980000015E-02   0.9980000015E-02   0.1551440890E-14   0.3664710653E-14  -0.2340356147E-15   0.1000000001E+02
   0.0000000000E+00   0.0000000000E+00   0.1009980000E+01   0.0000000000E+00   0.0000000000E+00   0.1237275000E-01   0.0000000000E+00   0.0000000000E+00  -0.2392750000E-02  -0.1000000001E+02  -0.3412017412E-09  -0.3411645896E-09  -0.1619965719E-15  -0.6042726525E-13   0.1688286857E-13  -0.2000000003E-01   0.9980000015E-02   0.9980000015E-02  -0.2809112723E-17   0.6104232631E-14   0.2199953342E-16   0.1000000001E+02
   0.9800000000E+00   0.0000000000E+00   0.1009980000E+01  -0.2475000000E-01   0.0000000000E+00   0.1237275000E-01   0.4750000000E-02   0.0000000000E+00  -0.2392750000E-02  -0.1000000001E+02  -0.2262452016E-09  -0.2262247993E-09   0.2433576792E-13   0.2249953173E-14   0.1388023165E-13  -0.2000000003E-01   0.9980000014E-02   0.9980000014E-02  -0.1978084692E-14  -0.2562142522E-16   0.2343235085E-15   0.1000000001E+02
   0.9800000000E+00   0.1009980000E+01   0.1009980000E+01  -0.2475000000E-01   0.1237275000E-01   0.1237275000E-01   0.4750000000E-02  -0.2392750000E-02  -0.2392750000E-02  -0.1000000001E+02  -0.2411076202E-09  -0.2410826921E-09  -0.7279687412E-15   0.6944669801E-14  -0.1246323368E-13  -0.2000000003E-01   0.9980000013E-02   0.9980000013E-02  -0.1297584436E-16  -0.2644630887E-14  -0.2229815583E-14   0.1000000001E+02
   0.0000000000E+00   0.1009980000E+01   0.1009980000E+01   0.0000000000E+00   0.1237275000E-01   0.1237275000E-01   0.0000000000E+00  -0.2392750000E-02  -0.2392750000E-02  -0.1000000001E+02  -0.6349332684E-09  -0.6348934555E-09  -0.2363094610E-13  -0.6424747129E-13  -0.1556364376E-13  -0.2000000003E-01   0.9980000013E-02   0.9980000013E-02   0.1585308850E-14   0.6539288341E-14  -0.3572636539E-14   0.1000000001E+02
   0.1960000000E+01   0.0000000000E+00   0.1502821308E-13  -0.4950000000E-01   0.0000000000E+00  -0.1842218778E-13   0.9500000000E-02   0.0000000000E+00   0.3345040085E-13  -0.1000000002E+02   0.1043663240E-12   0.8335197966E-13   0.1437142332E-13   0.2847237267E-13   0.8264543589E-14  -0.2000000003E-01   0.9980000015E-02   0.9980000015E-02  -0.9431903553E-15   0.2019831634E-14  -0.1681045697E-14   0.1000000002E+02
   0.1960000000E+01   0.1009980000E+01   0.1418741290E-13  -0.4950000000E-01   0.1237275000E-01  -0.1786749556E-13   0.9500000000E-02  -0.2392750000E-02   0.3205490846E-13  -0.1000000001E+02  -0.2646030021E-10  -0.2647346998E-10  -0.1986801839E-13   0.1404929017E-13  -0.9670851216E-14  -0.2000000003E-01   0.9980000014E-02   0.9980000014E-02  -0.5130646704E-14   0.1315415086E-14   0.1307247691E-14   0.1000000001E+02
   0.1960000000E+01   0.0000000000E+00   0.1009980000E+01  -0.4950000000E-01   0.0000000000E+00   0.1237275000E-01   0.9500000000E-02   0.0000000000E+00  -0.2392750000E-02  -0.1000000001E+02  -0.2180102310E-09  -0.2179946557E-09   0.2497442472E-14   0.2734074867E-15   0.1195410596E-13  -0.2000000003E-01   0.9980000014E-02   0.9980000014E-02   0.2334327287E-14  -0.1246122440E-14  -0.4929070824E-15   0.1000000001E+02
   0.1960000000E+01   0.1009980000E+01   0.1009980000E+01  -0.4950000000E-01   0.1237275000E-01   0.1237275000E-01   0.9500000000E-02  -0.2392750000E-02  -0.2392750000E-02  -0.1000000001E+02   0.9076522482E-10   0.9078901045E-10  -0.2344202358E-13  -0.1258881695E-13  -0.5612740569E-14  -0.2000000003E-01   0.9980000013E-02   0.9980000013E-02   0.4711563863E-14   0.1068346467E-14   0.2492613529E-14   0.1000000001E+02
     1     2     3     4     5     6     7     8
     2     9    10     3     6    11    12     7
 VARIABLES = X,Y,Z,DU1,DU2,DU3,U1,U2,U3,S11,S22,S33,S12,S13,S23,E11,E22,E33,E12,E13,E23,SMISES
 ZONE, T="0.6050D+01" F=FEPOINT, I=   12 J=    2 ET=BRICK
   0.0000000000E+00   0.0000000000E+00   0.0000000000E+00   0.0000000000E+00   0.0000000000E+00   0.0000000000E+00   0.0000000000E+00   0.0000000000E+00   0.0000000000E+00  -0.8875000014E+01  -0.5777440884E-10  -0.5809605965E-10   0.3088098623E-16  -0.1150497958E-11  -0.6977351741E-12  -0.1775000003E-01   0.8857250014E-02   0.8857250014E-02   0.1564008599E-17  -0.8767445925E-14  -0.5207507248E-14   0.8875000014E+01
   0.9822500000E+00   0.0000000000E+00  -0.1869341480E-14   0.2250000000E-02   0.0000000000E+00  -0.5941814855E-14  -0.2000000000E-01   0.0000000000E+00   0.4072473375E-14  -0.8875000013E+01   0.3243558132E-09   0.3250115369E-09  -0.1213622455E-12  -0.8258824028E-13   0.4420668900E-14  -0.1775000003E-01   0.8857250014E-02   0.8857250014E-02  -0.1279764074E-14  -0.4658292544E-15   0.1733092863E-14   0.8875000014E+01
   0.9822500000E+00   0.1008857250E+01  -0.1002978638E-14   0.2250000000E-02  -0.1122750000E-02  -0.5980722465E-14  -0.2000000000E-01   0.9980000000E-02   0.4977743827E-14  -0.8875000013E+01   0.5722392810E-10   0.5712241953E-10  -0.2855022952E-12   0.2416784195E-12   0.2773783728E-12  -0.1775000003E-01   0.8857250013E-02   0.8857250013E-02  -0.4183962663E-14  -0.1500988434E-14   0.2849123448E-14   0.8875000013E+01
   0.0000000000E+00   0.1008857250E+01  -0.2603915771E-14   0.0000000000E+00  -0.1122750000E-02  -0.4276224922E-14   0.0000000000E+00   0.9980000000E-02   0.1672309151E-14  -0.8875000013E+01  -0.1472978481E-10  -0.1404905449E-10   0.2388849377E-12  -0.5152346165E-13  -0.2540442528E-12  -0.1775000003E-01   0.8857250013E-02   0.8857250013E-02   0.4773462348E-14   0.3433849593E-14  -0.3099587554E-14   0.8875000013E+01
   0.0000000000E+00   0.0000000000E+00   0.1008857250E+01   0.0000000000E+00   0.0000000000E+00  -0.1122750000E-02   0.0000000000E+00   0.0000000000E+00   0.9980000000E-02  -0.8875000013E+01  -0.2480694522E-09  -0.2492759938E-09  -0.1959203164E-15  -0.2340144226E-12  -0.1972405960E-12  -0.1775000003E-01   0.8857250013E-02   0.8857250013E-02  -0.1141448282E-17   0.4013859751E-14  -0.2547165902E-14   0.8875000013E+01
   0.9822500000E+00   0.0000000000E+00   0.1008857250E+01   0.2250000000E-02   0.0000000000E+00  -0.1122750000E-02  -0.2000000000E-01   0.0000000000E+00   0.9980000000E-02  -0.8875000013E+01   0.9752233393E-10   0.9763212744E-10   0.2952161890E-12  -0.1368527560E-12  -0.3743680829E-12  -0.1775000003E-01   0.8857250013E-02   0.8857250013E-02   0.1264338129E-14  -0.1682182517E-14  -0.4417749982E-14   0.8875000013E+01
   0.9822500000E+00   0.1008857250E+01   0.1008857250E+01   0.2250000000E-02  -0.1122750000E-02  -0.1122750000E-02  -0.2000000000E-01   0.9980000000E-02   0.9980000000E-02  -0.8875000012E+01  -0.5887254271E-11  -0.6536269084E-11   0.2393846937E-12   0.2673138667E-12  -0.1015827420E-12  -0.1775000002E-01   0.8857250012E-02   0.8857250012E-02   0.2863974843E-14   0.4788799525E-15  -0.3310514150E-14   0.8875000012E+01
   0.0000000000E+00   0.1008857250E+01   0.1008857250E+01   0.0000000000E+00  -0.1122750000E-02  -0.1122750000E-02   0.0000000000E+00   0.9980000000E-02   0.9980000000E-02  -0.8875000012E+01  -0.1409893512E-09  -0.1411947220E-09  -0.6990468268E-13  -0.4940426564E-12   0.2457644181E-12  -0.1775000002E-01   0.8857250012E-02   0.8857250012E-02   0.1031684674E-14   0.1390910135E-14  -0.4241107404E-15   0.8875000012E+01
   0.1964500000E+01   0.0000000000E+00   0.6313531646E-14   0.4500000000E-02   0.0000000000E+00  -0.8714681430E-14  -0.4000000000E-01   0.0000000000E+00   0.1502821308E-13  -0.8875000014E+01  -0.4965901341E-09  -0.4964708089E-09   0.4680365457E-13   0.5510631786E-12  -0.8815003269E-12  -0.1775000003E-01   0.8857250013E-02   0.8857250013E-02  -0.5746162309E-15   0.8224058609E-14  -0.1235033477E-13   0.8875000013E+01
   0.1964500000E+01   0.1008857250E+01   0.1375210875E-15   0.4500000000E-02  -0.1122750000E-02  -0.1404989181E-13  -0.4000000000E-01   0.9980000000E-02   0.1418741290E-13  -0.8875000012E+01  -0.7211878027E-10  -0.7068119034E-10  -0.5203139182E-12  -0.3679321840E-12  -0.2213771303E-12  -0.1775000002E-01   0.8857250012E-02   0.8857250012E-02  -0.1113729070E-13  -0.3262423587E-14  -0.1234402547E-14   0.8875000012E+01
   0.1964500000E+01   0.0000000000E+00   0.1008857250E+01   0.4500000000E-02   0.0000000000E+00  -0.1122750000E-02  -0.4000000000E-01   0.0000000000E+00   0.9980000000E-02  -0.8875000013E+01  -0.3007455484E-09  -0.3019461235E-09   0.4109042566E-12  -0.4743829252E-12  -0.2227281710E-12  -0.1775000002E-01   0.8857250012E-02   0.8857250012E-02   0.7251629648E-14  -0.6948232470E-14  -0.3302708489E-14   0.8875000012E+01
   0.1964500000E+01   0.1008857250E+01   0.1008857250E+01   0.4500000000E-02  -0.1122750000E-02  -0.1122750000E-02  -0.4000000000E-01   0.9980000000E-02   0.9980000000E-02  -0.8875000011E+01   0.3871164618E-09   0.3872345170E-09   0.3700506242E-12   0.1245301491E-12   0.4379213118E-12  -0.1775000002E-01   0.8857250011E-02   0.8857250011E-02   0.9421191273E-14   0.2696905220E-14   0.7806977046E-14   0.8875000011E+01
     1     2     3     4     5     6     7     8
     2     9    10     3     6    11    12     7
 VARIABLES = X,Y,Z,DU1,DU2,DU3,U1,U2,U3,S11,S22,S33,S12,S13,S23,E11,E22,E33,E12,E13,E23,SMISES
 ZONE, T="0.6100D+01" F=FEPOINT, I=   12 J=    2 ET=BRICK
   0.0000000000E+00   0.0000000000E+00   0.0000000000E+00   0.0000000000E+00   0.0000000000E+00   0.0000000000E+00   0.0000000000E+00   0.0000000000E+00   0.0000000000E+00  -0.7750000012E+01   0.4410399970E-09   0.4410094150E-09   0.1968330690E-16  -0.2484146353E-13   0.1653113326E-13  -0.1550000002E-01   0.7734500012E-02   0.7734500012E-02  -0.3652965676E-17   0.4737046497E-14   0.3354764436E-14   0.7750000012E+01
   0.9845000000E+00   0.0000000000E+00   0.4092500435E-14   0.2250000000E-02   0.0000000000E+00   0.5961841915E-14  -0.1775000000E-01   0.0000000000E+00  -0.1869341480E-14  -0.7750000012E+01   0.3644682652E-09   0.3644348572E-09   0.1641917650E-13   0.3102669135E-13   0.1124780779E-13  -0.1550000002E-01   0.7734500012E-02   0.7734500012E-02   0.3817756044E-15   0.9001995599E-15   0.1818332007E-14   0.7750000012E+01
   0.9845000000E+00   0.1007734500E+01   0.4999851018E-14   0.2250000000E-02  -0.1122750000E-02   0.6002829656E-14  -0.1775000000E-01   0.8857250000E-02  -0.1002978638E-14  -0.7750000011E+01   0.2799416101E-09   0.2799146371E-09  -0.1562376655E-13   0.3515147845E-13  -0.1593874564E-13  -0.1550000002E-01   0.7734500011E-02   0.7734500011E-02  -0.9330594902E-15  -0.3973729189E-14  -0.6717188347E-15   0.7750000011E+01
   0.0000000000E+00   0.1007734500E+01   0.1678746444E-14   0.0000000000E+00  -0.1122750000E-02   0.4282662215E-14   0.0000000000E+00   0.8857250000E-02  -0.2603915771E-14  -0.7750000011E+01   0.3421282369E-09   0.3421028469E-09  -0.3003683567E-13  -0.3113522377E-13  -0.1678526749E-13  -0.1550000002E-01   0.7734500011E-02   0.7734500011E-02   0.1544331056E-14   0.3673810606E-14  -0.2483160562E-15   0.7750000011E+01
   0.0000000000E+00   0.0000000000E+00   0.1007734500E+01   0.0000000000E+00   0.0000000000E+00  -0.1122750000E-02   0.0000000000E+00   0.0000000000E+00   0.8857250000E-02  -0.7750000012E+01  -0.3433606664E-09  -0.3433219412E-09  -0.1759238785E-15  -0.5845566482E-13   0.1780593510E-13  -0.1550000002E-01   0.7734500011E-02   0.7734500011E-02  -0.5895813068E-18   0.6114773895E-14   0.4054257203E-16   0.7750000011E+01
   0.9845000000E+00   0.0000000000E+00   0.1007734500E+01   0.2250000000E-02   0.0000000000E+00  -0.1122750000E-02  -0.1775000000E-01   0.0000000000E+00   0.8857250000E-02  -0.7750000011E+01  -0.2274294426E-09  -0.2274082008E-09   0.2442701827E-13   0.7796476570E-15   0.1438020161E-13  -0.1550000002E-01   0.7734500011E-02   0.7734500011E-02  -0.1984496378E-14  -0.3005408183E-16   0.2372160331E-15   0.7750000011E+01
   0.9845000000E+00   0.1007734500E+01   0.1007734500E+01   0.2250000000E-02  -0.1122750000E-02  -0.1122750000E-02  -0.1775000000E-01   0.8857250000E-02   0.8857250000E-02  -0.7750000010E+01  -0.2423242782E-09  -0.2422979336E-09  -0.4333036485E-15   0.6539011650E-14  -0.1304129760E-13  -0.1550000002E-01   0.7734500010E-02   0.7734500010E-02  -0.6933437012E-17  -0.2661330468E-14  -0.2236858289E-14   0.7750000010E+01
   0.0000000000E+00   0.1007734500E+01   0.1007734500E+01   0.0000000000E+00  -0.1122750000E-02  -0.1122750000E-02   0.0000000000E+00   0.8857250000E-02   0.8857250000E-02  -0.7750000011E+01  -0.6370154519E-09  -0.6369744431E-09  -0.2291794064E-13  -0.6299670304E-13  -0.1613741837E-13  -0.1550000002E-01   0.7734500010E-02   0.7734500010E-02   0.1591301830E-14   0.6567057931E-14  -0.3585427934E-14   0.7750000010E+01
   0.1969000000E+01   0.0000000000E+00   0.1508696362E-13   0.4500000000E-02   0.0000000000E+00   0.8773431977E-14  -0.3550000000E-01   0.0000000000E+00   0.6313531646E-14  -0.7750000012E+01   0.6382717453E-12   0.6161645789E-12   0.1511702101E-13   0.2836883015E-13   0.9361877996E-14  -0.1550000002E-01   0.7734500012E-02   0.7734500012E-02  -0.9571775679E-15   0.2014492952E-14  -0.1669196122E-14   0.7750000012E+01
   0.1969000000E+01   0.1007734500E+01   0.1425269108E-13   0.4500000000E-02  -0.1122750000E-02   0.1411517000E-13  -0.3550000000E-01   0.8857250000E-02   0.1375210875E-15  -0.7750000011E+01  -0.2498650233E-10  -0.2500093145E-10  -0.1894968702E-13   0.1383761013E-13  -0.9821231650E-14  -0.1550000002E-01   0.7734500011E-02   0.7734500011E-02  -0.5135656034E-14   0.1287438308E-14   0.1299667108E-14   0.7750000011E+01
   0.1969000000E+01   0.0000000000E+00   0.1007734500E+01   0.4500000000E-02   0.0000000000E+00  -0.1122750000E-02  -0.3550000000E-01   0.0000000000E+00   0.8857250000E-02  -0.7750000011E+01  -0.2181059538E-09  -0.2180894007E-09   0.1973105090E-14   0.8922919125E-15   0.1263143375E-13  -0.1550000002E-01   0.7734500011E-02   0.7734500011E-02   0.2345857164E-14  -0.1282547600E-14  -0.4806432709E-15   0.7750000011E+01
   0.1969000000E+01   0.1007734500E+01   0.1007734500E+01   0.4500000000E-02  -0.1122750000E-02  -0.1122750000E-02  -0.3550000000E-01   0.8857250000E-02   0.8857250000E-02  -0.7750000010E+01   0.9025516856E-10   0.9027964356E-10  -0.2397638703E-13  -0.1275824073E-13  -0.6162542367E-14  -0.1550000002E-01   0.7734500010E-02   0.7734500010E-02   0.4700239386E-14   0.1091658526E-14   0.2481515074E-14   0.7750000010E+01
     1     2     3     4     5     6     7     8
     2     9    10     3     6    11    12     7
 VARIABLES = X,Y,Z,DU1,DU2,DU3,U1,U2,U3,S11,S22,S33,S12,S13,S23,E11,E22,E33,E12,E13,E23,SMISES
 ZONE, T="0.6150D+01" F=FEPOINT, I=   12 J=    2 ET=BRICK
   0.0000000000E+00   0.0000000000E+00   0.0000000000E+00   0.0000000000E+00   0.0000000000E+00   0.0000000000E+00   0.0000000000E+00   0.0000000000E+00   0.0000000000E+00  -0.6625000010E+01   0.4409308915E-09   0.4409007104E-09   0.1016232033E-18  -0.2476453818E-13   0.1633175623E-13  -0.1325000002E-01   0.6611750010E-02   0.6611750010E-02   0.2533845727E-17   0.4728905819E-14   0.3357511381E-14   0.6625000010E+01
   0.9867500000E+00   0.0000000000E+00   0.4091110650E-14   0.2250000000E-02   0.0000000000E+00  -0.1389785130E-17  -0.1550000000E-01   0.0000000000E+00   0.4092500435E-14  -0.6625000010E+01   0.3641296970E-09   0.3640962186E-09   0.1594009479E-13   0.3032642705E-13   0.1088162934E-13  -0.1325000002E-01   0.6611750010E-02   0.6611750010E-02   0.3635969803E-15   0.8972602713E-15   0.1807630097E-14   0.6625000010E+01
   0.9867500000E+00   0.1006611750E+01   0.4996121150E-14   0.2250000000E-02  -0.1122750000E-02  -0.3729867737E-17  -0.1550000000E-01   0.7734500000E-02   0.4999851018E-14  -0.6625000009E+01   0.2798882314E-09   0.2798616241E-09  -0.1588395167E-13   0.3566424118E-13  -0.1624770730E-13  -0.1325000002E-01   0.6611750009E-02   0.6611750009E-02  -0.9492855422E-15  -0.3966047329E-14  -0.6663313921E-15   0.6625000009E+01
   0.0000000000E+00   0.1006611750E+01   0.1677665510E-14   0.0000000000E+00  -0.1122750000E-02  -0.1080933694E-17   0.0000000000E+00   0.7734500000E-02   0.1678746444E-14  -0.6625000009E+01   0.3414576743E-09   0.3414325565E-09  -0.2972133811E-13  -0.3152390246E-13  -0.1615332213E-13  -0.1325000002E-01   0.6611750010E-02   0.6611750010E-02   0.1551792576E-14   0.3672465575E-14  -0.2466144292E-15   0.6625000010E+01
   0.0000000000E+00   0.0000000000E+00   0.1006611750E+01   0.0000000000E+00   0.0000000000E+00  -0.1122750000E-02   0.0000000000E+00   0.0000000000E+00   0.7734500000E-02  -0.6625000010E+01  -0.3432874906E-09  -0.3432501913E-09  -0.1601925385E-15  -0.5840816985E-13   0.1744670738E-13  -0.1325000002E-01   0.6611750010E-02   0.6611750010E-02  -0.1425136026E-17   0.6120043018E-14   0.2650082986E-16   0.6625000010E+01
   0.9867500000E+00   0.0000000000E+00   0.1006611750E+01   0.2250000000E-02   0.0000000000E+00  -0.1122750000E-02  -0.1550000000E-01   0.0000000000E+00   0.7734500000E-02  -0.6625000010E+01  -0.2270222015E-09  -0.2270008378E-09   0.2484685684E-13   0.2542121799E-15   0.1391842846E-13  -0.1325000002E-01   0.6611750009E-02   0.6611750009E-02  -0.1977651531E-14  -0.3547521828E-16   0.2362668967E-15   0.6625000009E+01
   0.9867500000E+00   0.1006611750E+01   0.1006611750E+01   0.2250000000E-02  -0.1122750000E-02  -0.1122750000E-02  -0.1550000000E-01   0.7734500000E-02   0.7734500000E-02  -0.6625000009E+01  -0.2423899077E-09  -0.2423644027E-09   0.4751270471E-16   0.7333311441E-14  -0.1331698197E-13  -0.1325000002E-01   0.6611750009E-02   0.6611750009E-02   0.1327883318E-17  -0.2647953752E-14  -0.2244321996E-14   0.6625000009E+01
   0.0000000000E+00   0.1006611750E+01   0.1006611750E+01   0.0000000000E+00  -0.1122750000E-02  -0.1122750000E-02   0.0000000000E+00   0.7734500000E-02   0.7734500000E-02  -0.6625000010E+01  -0.6364748004E-09  -0.6364350698E-09  -0.2336470629E-13  -0.6322074039E-13  -0.1579374807E-13  -0.1325000002E-01   0.6611750009E-02   0.6611750009E-02   0.1588749250E-14   0.6555669274E-14  -0.3571008465E-14   0.6625000009E+01
   0.1973500000E+01   0.0000000000E+00   0.1507791702E-13   0.4500000000E-02   0.0000000000E+00  -0.9046601405E-17  -0.3100000000E-01   0.0000000000E+00   0.1508696362E-13  -0.6625000010E+01   0.5307472728E-13   0.3157964219E-13   0.1641599122E-13   0.2997617536E-13   0.9514811171E-14  -0.1325000002E-01   0.6611750010E-02   0.6611750010E-02  -0.9251917420E-15   0.2004610421E-14  -0.1666955385E-14   0.6625000010E+01
   0.1973500000E+01   0.1006611750E+01   0.1424457234E-13   0.4500000000E-02  -0.1122750000E-02  -0.8118739438E-17  -0.3100000000E-01   0.7734500000E-02   0.1425269108E-13  -0.6625000009E+01  -0.2443986328E-10  -0.2445547447E-10  -0.1735578171E-13   0.1249814624E-13  -0.9417738990E-14  -0.1325000002E-01   0.6611750009E-02   0.6611750009E-02  -0.5095437994E-14   0.1318163184E-14   0.1305536531E-14   0.6625000009E+01
   0.1973500000E+01   0.0000000000E+00   0.1006611750E+01   0.4500000000E-02   0.0000000000E+00  -0.1122750000E-02  -0.3100000000E-01   0.0000000000E+00   0.7734500000E-02  -0.6625000009E+01  -0.2170021173E-09  -0.2169868681E-09   0.2762298780E-15   0.2194275543E-14   0.1287059406E-13  -0.1325000002E-01   0.6611750009E-02   0.6611750009E-02   0.2319029242E-14  -0.1259272544E-14  -0.4815449734E-15   0.6625000009E+01
   0.1973500000E+01   0.1006611750E+01   0.1006611750E+01   0.4500000000E-02  -0.1122750000E-02  -0.1122750000E-02  -0.3100000000E-01   0.7734500000E-02   0.7734500000E-02  -0.6625000008E+01   0.8994578808E-10   0.8997101593E-10  -0.2526061565E-13  -0.1332672502E-13  -0.5768185305E-14  -0.1325000002E-01   0.6611750008E-02   0.6611750008E-02   0.4673985960E-14   0.1064435217E-14   0.2495511699E-14   0.6625000008E+01
     1     2     3     4     5     6     7     8
     2     9    10     3     6    11    12     7
 VARIABLES = X,Y,Z,DU1,DU2,DU3,U1,U2,U3,S11,S22,S33,S12,S13,S23,E11,E22,E33,E12,E13,E23,SMISES
 ZONE, T="0.6200D+01" F=FEPOINT, I=   12 J=    2 ET=BRICK
   0.0000000000E+00   0.0000000000E+00   0.0000000000E+00   0.0000000000E+00   0.0000000000E+00   0.0000000000E+00   0.0000000000E+00   0.0000000000E+00   0.0000000000E+00  -0.5500000008E+01   0.4393751172E-09   0.4393456064E-09   0.1596877983E-16  -0.2609790161E-13   0.1583868530E-13  -0.1100000002E-01   0.5489000009E-02   0.5489000009E-02  -0.3530690379E-17   0.4717754630E-14   0.3347250518E-14   0.5500000009E+01
   0.9890000000E+00   0.0000000000E+00   0.4080639896E-14   0.2250000000E-02   0.0000000000E+00  -0.1047075336E-16  -0.1325000000E-01   0.0000000000E+00   0.4091110650E-14  -0.5500000008E+01   0.3636562134E-09   0.3636237208E-09   0.1677491076E-13   0.3174537637E-13   0.1071595024E-13  -0.1100000002E-01   0.5489000008E-02   0.5489000008E-02   0.3853807856E-15   0.9126666164E-15   0.1807881247E-14   0.5500000008E+01
   0.9890000000E+00   0.1005489000E+01   0.4984849540E-14   0.2250000000E-02  -0.1122750000E-02  -0.1127160966E-16  -0.1325000000E-01   0.6611750000E-02   0.4996121150E-14  -0.5500000008E+01   0.2790023233E-09   0.2789767276E-09  -0.1503080233E-13   0.3571237685E-13  -0.1556280221E-13  -0.1100000002E-01   0.5489000008E-02   0.5489000008E-02  -0.9309126337E-15  -0.3975361718E-14  -0.6622112728E-15   0.5500000008E+01
   0.0000000000E+00   0.1005489000E+01   0.1674667508E-14   0.0000000000E+00  -0.1122750000E-02  -0.2998001547E-17   0.0000000000E+00   0.6611750000E-02   0.1677665510E-14  -0.5500000008E+01   0.3409354179E-09   0.3409107909E-09  -0.3015097832E-13  -0.3241334701E-13  -0.1618695110E-13  -0.1100000002E-01   0.5489000008E-02   0.5489000008E-02   0.1541716806E-14   0.3662195306E-14  -0.2428779021E-15   0.5500000008E+01
   0.0000000000E+00   0.0000000000E+00   0.1005489000E+01   0.0000000000E+00   0.0000000000E+00  -0.1122750000E-02   0.0000000000E+00   0.0000000000E+00   0.6611750000E-02  -0.5500000008E+01  -0.3417585175E-09  -0.3417218365E-09  -0.1883984712E-15  -0.5980414296E-13   0.1705315157E-13  -0.1100000002E-01   0.5489000008E-02   0.5489000008E-02   0.2722018347E-17   0.6096504677E-14   0.2745813221E-16   0.5500000008E+01
   0.9890000000E+00   0.0000000000E+00   0.1005489000E+01   0.2250000000E-02   0.0000000000E+00  -0.1122750000E-02  -0.1325000000E-01   0.0000000000E+00   0.6611750000E-02  -0.5500000008E+01  -0.2265284570E-09  -0.2265075686E-09   0.2425848373E-13   0.1569631997E-14   0.1387659069E-13  -0.1100000002E-01   0.5489000008E-02   0.5489000008E-02  -0.1995999848E-14  -0.1089517903E-16   0.2350278380E-15   0.5500000008E+01
   0.9890000000E+00   0.1005489000E+01   0.1005489000E+01   0.2250000000E-02  -0.1122750000E-02  -0.1122750000E-02  -0.1325000000E-01   0.6611750000E-02   0.6611750000E-02  -0.5500000007E+01  -0.2416596843E-09  -0.2416347507E-09  -0.6878230936E-15   0.7226214791E-14  -0.1269606857E-13  -0.1100000001E-01   0.5489000007E-02   0.5489000007E-02  -0.1618072616E-16  -0.2651780534E-14  -0.2235644276E-14   0.5500000007E+01
   0.0000000000E+00   0.1005489000E+01   0.1005489000E+01   0.0000000000E+00  -0.1122750000E-02  -0.1122750000E-02   0.0000000000E+00   0.6611750000E-02   0.6611750000E-02  -0.5500000008E+01  -0.6355361443E-09  -0.6354963624E-09  -0.2338683708E-13  -0.6413706798E-13  -0.1561903600E-13  -0.1100000001E-01   0.5489000007E-02   0.5489000007E-02   0.1590419057E-14   0.6551710247E-14  -0.3579370024E-14   0.5500000007E+01
   0.1978000000E+01   0.0000000000E+00   0.1504719104E-13   0.4500000000E-02   0.0000000000E+00  -0.3072598343E-16  -0.2650000000E-01   0.0000000000E+00   0.1507791702E-13  -0.5500000008E+01   0.9113472816E-12   0.8897696592E-12   0.1473866096E-13   0.2841644151E-13   0.9368407719E-14  -0.1100000002E-01   0.5489000008E-02   0.5489000008E-02  -0.9550681381E-15   0.1981067395E-14  -0.1670012303E-14   0.5500000008E+01
   0.1978000000E+01   0.1005489000E+01   0.1421276324E-13   0.4500000000E-02  -0.1122750000E-02  -0.3180910849E-16  -0.2650000000E-01   0.6611750000E-02   0.1424457234E-13  -0.5500000008E+01  -0.2549573447E-10  -0.2551144108E-10  -0.1860518990E-13   0.1355889483E-13  -0.9387460583E-14  -0.1100000002E-01   0.5489000008E-02   0.5489000008E-02  -0.5120943860E-14   0.1320564265E-14   0.1307990521E-14   0.5500000008E+01
   0.1978000000E+01   0.0000000000E+00   0.1005489000E+01   0.4500000000E-02   0.0000000000E+00  -0.1122750000E-02  -0.2650000000E-01   0.0000000000E+00   0.6611750000E-02  -0.5500000008E+01  -0.2176749859E-09  -0.2176603645E-09   0.1062356883E-14   0.7726434007E-15   0.1231813699E-13  -0.1100000002E-01   0.5489000008E-02   0.5489000008E-02   0.2329457028E-14  -0.1260219661E-14  -0.4821765379E-15   0.5500000008E+01
   0.1978000000E+01   0.1005489000E+01   0.1005489000E+01   0.4500000000E-02  -0.1122750000E-02  -0.1122750000E-02  -0.2650000000E-01   0.6611750000E-02   0.6611750000E-02  -0.5500000007E+01   0.9028272498E-10   0.9030737322E-10  -0.2458799862E-13  -0.1310670430E-13  -0.6005945323E-14  -0.1100000001E-01   0.5489000007E-02   0.5489000007E-02   0.4680047721E-14   0.1055122386E-14   0.2480874548E-14   0.5500000007E+01
     1     2     3     4     5     6     7     8
     2     9    10     3     6    11    12     7
 VARIABLES = X,Y,Z,DU1,DU2,DU3,U1,U2,U3,S11,S22,S33,S12,S13,S23,E11,E22,E33,E12,E13,E23,SMISES
 ZONE, T="0.6250D+01" F=FEPOINT, I=   12 J=    2 ET=BRICK
   0.0000000000E+00   0.0000000000E+00   0.0000000000E+00   0.0000000000E+00   0.0000000000E+00   0.0000000000E+00   0.0000000000E+00   0.0000000000E+00   0.0000000000E+00  -0.4375000006E+01   0.4402161373E-09   0.4401859304E-09   0.1627326880E-16  -0.2558456038E-13   0.1623286064E-13  -0.8750000014E-02   0.4366250007E-02   0.4366250007E-02   0.2747698408E-18   0.4723622018E-14   0.3352436059E-14   0.4375000007E+01
   0.9912500000E+00   0.0000000000E+00   0.4086018894E-14   0.2250000000E-02   0.0000000000E+00   0.5378997302E-17  -0.1100000000E-01   0.0000000000E+00   0.4080639896E-14  -0.4375000006E+01   0.3641389063E-09   0.3641061455E-09   0.1611955165E-13   0.3098448297E-13   0.1111533474E-13  -0.8750000013E-02   0.4366250007E-02   0.4366250007E-02   0.3664321245E-15   0.8945176830E-15   0.1815333770E-14   0.4375000007E+01
   0.9912500000E+00   0.1004366250E+01   0.4992666697E-14   0.2250000000E-02  -0.1122750000E-02   0.7817156593E-17  -0.1100000000E-01   0.5489000000E-02   0.4984849540E-14  -0.4375000006E+01   0.2792762758E-09   0.2792499312E-09  -0.1574013800E-13   0.3561826605E-13  -0.1577091635E-13  -0.8750000012E-02   0.4366250006E-02   0.4366250006E-02  -0.9423186481E-15  -0.3964372789E-14  -0.6645344898E-15   0.4375000006E+01
   0.0000000000E+00   0.1004366250E+01   0.1677020136E-14   0.0000000000E+00  -0.1122750000E-02   0.2352627733E-17   0.0000000000E+00   0.5489000000E-02   0.1674667508E-14  -0.4375000006E+01   0.3413886171E-09   0.3413635791E-09  -0.3015132432E-13  -0.3163229132E-13  -0.1641995242E-13  -0.8750000013E-02   0.4366250006E-02   0.4366250006E-02   0.1543188898E-14   0.3670041638E-14  -0.2516811212E-15   0.4375000006E+01
   0.0000000000E+00   0.0000000000E+00   0.1004366250E+01   0.0000000000E+00   0.0000000000E+00  -0.1122750000E-02   0.0000000000E+00   0.0000000000E+00   0.5489000000E-02  -0.4375000007E+01  -0.3427716356E-09  -0.3427337758E-09  -0.1954573797E-15  -0.5899509897E-13   0.1753963772E-13  -0.8750000013E-02   0.4366250006E-02   0.4366250006E-02  -0.9865523097E-18   0.6112842207E-14   0.3247565091E-16   0.4375000006E+01
   0.9912500000E+00   0.0000000000E+00   0.1004366250E+01   0.2250000000E-02   0.0000000000E+00  -0.1122750000E-02  -0.1100000000E-01   0.0000000000E+00   0.5489000000E-02  -0.4375000006E+01  -0.2268110179E-09  -0.2267891991E-09   0.2470770872E-13   0.7418925044E-15   0.1396465115E-13  -0.8750000012E-02   0.4366250006E-02   0.4366250006E-02  -0.1981588930E-14  -0.3111243127E-16   0.2318212770E-15   0.4375000006E+01
   0.9912500000E+00   0.1004366250E+01   0.1004366250E+01   0.2250000000E-02  -0.1122750000E-02  -0.1122750000E-02  -0.1100000000E-01   0.5489000000E-02   0.5489000000E-02  -0.4375000006E+01  -0.2423136440E-09  -0.2422881390E-09  -0.5371109612E-16   0.7360033809E-14  -0.1324512313E-13  -0.8750000011E-02   0.4366250006E-02   0.4366250006E-02  -0.7544468499E-17  -0.2647570810E-14  -0.2242478316E-14   0.4375000006E+01
   0.0000000000E+00   0.1004366250E+01   0.1004366250E+01   0.0000000000E+00  -0.1122750000E-02  -0.1122750000E-02   0.0000000000E+00   0.5489000000E-02   0.5489000000E-02  -0.4375000006E+01  -0.6360436150E-09  -0.6360032184E-09  -0.2355582200E-13  -0.6391390114E-13  -0.1577700638E-13  -0.8750000012E-02   0.4366250006E-02   0.4366250006E-02   0.1588752045E-14   0.6553157094E-14  -0.3571818005E-14   0.4375000006E+01
   0.1982500000E+01   0.0000000000E+00   0.1506517525E-13   0.4500000000E-02   0.0000000000E+00   0.1798420755E-16  -0.2200000000E-01   0.0000000000E+00   0.1504719104E-13  -0.4375000007E+01   0.9840064657E-12   0.9625371434E-12   0.1429116118E-13   0.2883449430E-13   0.9410083332E-14  -0.8750000013E-02   0.4366250007E-02   0.4366250007E-02  -0.9573449103E-15   0.1987580404E-14  -0.1667492054E-14   0.4375000007E+01
   0.1982500000E+01   0.1004366250E+01   0.1423104278E-13   0.4500000000E-02  -0.1122750000E-02   0.1827954352E-16  -0.2200000000E-01   0.5489000000E-02   0.1421276324E-13  -0.4375000006E+01  -0.2507394874E-10  -0.2508988357E-10  -0.1895856718E-13   0.1346933501E-13  -0.9536241320E-14  -0.8750000012E-02   0.4366250006E-02   0.4366250006E-02  -0.5125600455E-14   0.1291179730E-14   0.1304478093E-14   0.4375000006E+01
   0.1982500000E+01   0.0000000000E+00   0.1004366250E+01   0.4500000000E-02   0.0000000000E+00  -0.1122750000E-02  -0.2200000000E-01   0.0000000000E+00   0.5489000000E-02  -0.4375000006E+01  -0.2171164032E-09  -0.2171015738E-09   0.5188649696E-15   0.1200022047E-14   0.1234506206E-13  -0.8750000012E-02   0.4366250006E-02   0.4366250006E-02   0.2325670138E-14  -0.1269109528E-14  -0.4861531237E-15   0.4375000006E+01
   0.1982500000E+01   0.1004366250E+01   0.1004366250E+01   0.4500000000E-02  -0.1122750000E-02  -0.1122750000E-02  -0.2200000000E-01   0.5489000000E-02   0.5489000000E-02  -0.4375000006E+01   0.8997280282E-10   0.8999726148E-10  -0.2453339456E-13  -0.1295349480E-13  -0.6187911501E-14  -0.8750000011E-02   0.4366250006E-02   0.4366250006E-02   0.4695194255E-14   0.1085809497E-14   0.2485793054E-14   0.4375000006E+01
     1     2     3     4     5     6     7     8
     2     9    10     3     6    11    12     7
 VARIABLES = X,Y,Z,DU1,DU2,DU3,U1,U2,U3,S11,S22,S33,S12,S13,S23,E11,E22,E33,E12,E13,E23,SMISES
 ZONE, T="0.6300D+01" F=FEPOINT, I=   12 J=    2 ET=BRICK
   0.0000000000E+00   0.0000000000E+00   0.0000000000E+00   0.0000000000E+00   0.0000000000E+00   0.0000000000E+00   0.0000000000E+00   0.0000000000E+00   0.0000000000E+00  -0.3250000005E+01   0.4400440348E-09   0.4400133358E-09   0.3505235366E-16  -0.2571652337E-13   0.1588668038E-13  -0.6500000010E-02   0.3243500005E-02   0.3243500005E-02  -0.2960393092E-18   0.4721481525E-14   0.3351574778E-14   0.3250000005E+01
   0.9935000000E+00   0.0000000000E+00   0.4084371592E-14   0.2250000000E-02   0.0000000000E+00  -0.1647301477E-17  -0.8750000000E-02   0.0000000000E+00   0.4086018894E-14  -0.3250000005E+01   0.3640340908E-09   0.3640015779E-09   0.1608912487E-13   0.3100178651E-13   0.1102606850E-13  -0.6500000010E-02   0.3243500005E-02   0.3243500005E-02   0.3694943838E-15   0.8999905452E-15   0.1812403135E-14   0.3250000005E+01
   0.9935000000E+00   0.1003243500E+01   0.4990476359E-14   0.2250000000E-02  -0.1122750000E-02  -0.2190337532E-17  -0.8750000000E-02   0.4366250000E-02   0.4992666697E-14  -0.3250000004E+01   0.2788856264E-09   0.2788596515E-09  -0.1553383860E-13   0.3553373594E-13  -0.1545002219E-13  -0.6500000009E-02   0.3243500005E-02   0.3243500005E-02  -0.9396501073E-15  -0.3969780130E-14  -0.6627936481E-15   0.3250000005E+01
   0.0000000000E+00   0.1003243500E+01   0.1675021586E-14   0.0000000000E+00  -0.1122750000E-02  -0.1998550052E-17   0.0000000000E+00   0.4366250000E-02   0.1677020136E-14  -0.3250000004E+01   0.3414766432E-09   0.3414522504E-09  -0.3047391279E-13  -0.3148845010E-13  -0.1652567968E-13  -0.6500000009E-02   0.3243500005E-02   0.3243500005E-02   0.1542076769E-14   0.3674044983E-14  -0.2533974248E-15   0.3250000005E+01
   0.0000000000E+00   0.0000000000E+00   0.1003243500E+01   0.0000000000E+00   0.0000000000E+00  -0.1122750000E-02   0.0000000000E+00   0.0000000000E+00   0.4366250000E-02  -0.3250000005E+01  -0.3424235480E-09  -0.3423863538E-09  -0.2384669449E-15  -0.5913818552E-13   0.1755319562E-13  -0.6500000009E-02   0.3243500005E-02   0.3243500005E-02  -0.1619052252E-17   0.6121494362E-14   0.3035655308E-16   0.3250000005E+01
   0.9935000000E+00   0.0000000000E+00   0.1003243500E+01   0.2250000000E-02   0.0000000000E+00  -0.1122750000E-02  -0.8750000000E-02   0.0000000000E+00   0.4366250000E-02  -0.3250000005E+01  -0.2267219692E-09  -0.2267006203E-09   0.2447194051E-13   0.7654216815E-15   0.1397364791E-13  -0.6500000009E-02   0.3243500005E-02   0.3243500005E-02  -0.1981748332E-14  -0.4094474023E-16   0.2345449200E-15   0.3250000005E+01
   0.9935000000E+00   0.1003243500E+01   0.1003243500E+01   0.2250000000E-02  -0.1122750000E-02  -0.1122750000E-02  -0.8750000000E-02   0.4366250000E-02   0.4366250000E-02  -0.3250000004E+01  -0.2420237294E-09  -0.2419985723E-09  -0.4151012614E-15   0.7174223373E-14  -0.1286846563E-13  -0.6500000009E-02   0.3243500004E-02   0.3243500004E-02  -0.1156789720E-16  -0.2642163109E-14  -0.2238845911E-14   0.3250000004E+01
   0.0000000000E+00   0.1003243500E+01   0.1003243500E+01   0.0000000000E+00  -0.1122750000E-02  -0.1122750000E-02   0.0000000000E+00   0.4366250000E-02   0.4366250000E-02  -0.3250000005E+01  -0.6358400424E-09  -0.6357999619E-09  -0.2349562294E-13  -0.6404229812E-13  -0.1555529660E-13  -0.6500000009E-02   0.3243500004E-02   0.3243500004E-02   0.1589237808E-14   0.6543335359E-14  -0.3563582812E-14   0.3250000004E+01
   0.1987000000E+01   0.0000000000E+00   0.1505898624E-13   0.4500000000E-02   0.0000000000E+00  -0.6189002500E-17  -0.1750000000E-01   0.0000000000E+00   0.1506517525E-13  -0.3250000005E+01   0.1267504471E-11   0.1245446838E-11   0.1316155098E-13   0.2770788032E-13   0.9314843110E-14  -0.6500000010E-02   0.3243500005E-02   0.3243500005E-02  -0.9674869959E-15   0.1981700067E-14  -0.1670067272E-14   0.3250000005E+01
   0.1987000000E+01   0.1003243500E+01   0.1422441234E-13   0.4500000000E-02  -0.1122750000E-02  -0.6630436874E-17  -0.1750000000E-01   0.4366250000E-02   0.1423104278E-13  -0.3250000005E+01  -0.2551615351E-10  -0.2553290414E-10  -0.1953072436E-13   0.1437183282E-13  -0.9828279450E-14  -0.6500000009E-02   0.3243500005E-02   0.3243500005E-02  -0.5129126284E-14   0.1332709863E-14   0.1304250160E-14   0.3250000005E+01
   0.1987000000E+01   0.0000000000E+00   0.1003243500E+01   0.4500000000E-02   0.0000000000E+00  -0.1122750000E-02  -0.1750000000E-01   0.0000000000E+00   0.4366250000E-02  -0.3250000005E+01  -0.2174008400E-09  -0.2173865285E-09   0.1038094080E-14   0.6216573877E-15   0.1229548843E-13  -0.6500000009E-02   0.3243500005E-02   0.3243500005E-02   0.2332109193E-14  -0.1254739085E-14  -0.4847031233E-15   0.3250000005E+01
   0.1987000000E+01   0.1003243500E+01   0.1003243500E+01   0.4500000000E-02  -0.1122750000E-02  -0.1122750000E-02  -0.1750000000E-01   0.4366250000E-02   0.4366250000E-02  -0.3250000004E+01   0.9034301421E-10   0.9036751550E-10  -0.2416209374E-13  -0.1219072062E-13  -0.6533931230E-14  -0.6500000008E-02   0.3243500004E-02   0.3243500004E-02   0.4697959264E-14   0.1054100212E-14   0.2478954010E-14   0.3250000004E+01
     1     2     3     4     5     6     7     8
     2     9    10     3     6    11    12     7
 VARIABLES = X,Y,Z,DU1,DU2,DU3,U1,U2,U3,S11,S22,S33,S12,S13,S23,E11,E22,E33,E12,E13,E23,SMISES
 ZONE, T="0.6350D+01" F=FEPOINT, I=   12 J=    2 ET=BRICK
   0.0000000000E+00   0.0000000000E+00   0.0000000000E+00   0.0000000000E+00   0.0000000000E+00   0.0000000000E+00   0.0000000000E+00   0.0000000000E+00   0.0000000000E+00  -0.2125000003E+01   0.4400742194E-09   0.4400438881E-09   0.3667383389E-16  -0.2552391786E-13   0.1602446330E-13  -0.4250000007E-02   0.2120750003E-02   0.2120750003E-02   0.7901207318E-18   0.4726939971E-14   0.3350145777E-14   0.2125000003E+01
   0.9957500000E+00   0.0000000000E+00   0.4085406226E-14   0.2250000000E-02   0.0000000000E+00   0.1034633311E-17  -0.6500000000E-02   0.0000000000E+00   0.4084371592E-14  -0.2125000003E+01   0.3640195739E-09   0.3639869214E-09   0.1629838472E-13   0.3099383210E-13   0.1103001585E-13  -0.4250000007E-02   0.2120750003E-02   0.2120750003E-02   0.3687754926E-15   0.8941190262E-15   0.1812511069E-14   0.2125000003E+01
   0.9957500000E+00   0.1002120750E+01   0.4991430154E-14   0.2250000000E-02  -0.1122750000E-02   0.9537950576E-18  -0.6500000000E-02   0.3243500000E-02   0.4990476359E-14  -0.2125000003E+01   0.2790742308E-09   0.2790481293E-09  -0.1552794823E-13   0.3556729165E-13  -0.1560237611E-13  -0.4250000006E-02   0.2120750003E-02   0.2120750003E-02  -0.9418367771E-15  -0.3958588848E-14  -0.6661476276E-15   0.2125000003E+01
   0.0000000000E+00   0.1002120750E+01   0.1676015640E-14   0.0000000000E+00  -0.1122750000E-02   0.9940536958E-18   0.0000000000E+00   0.3243500000E-02   0.1675021586E-14  -0.2125000003E+01   0.3414621584E-09   0.3414376109E-09  -0.3032805521E-13  -0.3155722939E-13  -0.1645631862E-13  -0.4250000006E-02   0.2120750003E-02   0.2120750003E-02   0.1543115570E-14   0.3668216949E-14  -0.2448847758E-15   0.2125000003E+01
   0.0000000000E+00   0.0000000000E+00   0.1002120750E+01   0.0000000000E+00   0.0000000000E+00  -0.1122750000E-02   0.0000000000E+00   0.0000000000E+00   0.3243500000E-02  -0.2125000003E+01  -0.3425608768E-09  -0.3425232171E-09  -0.2578075219E-15  -0.5910218011E-13   0.1758388782E-13  -0.4250000006E-02   0.2120750003E-02   0.2120750003E-02  -0.5867498018E-18   0.6114563275E-14   0.3600265386E-16   0.2125000003E+01
   0.9957500000E+00   0.0000000000E+00   0.1002120750E+01   0.2250000000E-02   0.0000000000E+00  -0.1122750000E-02  -0.6500000000E-02   0.0000000000E+00   0.3243500000E-02  -0.2125000003E+01  -0.2267228457E-09  -0.2267011333E-09   0.2479732577E-13   0.7822864410E-15   0.1387804625E-13  -0.4250000006E-02   0.2120750003E-02   0.2120750003E-02  -0.1980775630E-14  -0.3194806389E-16   0.2317373568E-15   0.2125000003E+01
   0.9957500000E+00   0.1002120750E+01   0.1002120750E+01   0.2250000000E-02  -0.1122750000E-02  -0.1122750000E-02  -0.6500000000E-02   0.3243500000E-02   0.3243500000E-02  -0.2125000003E+01  -0.2421454204E-09  -0.2421202363E-09  -0.1727375445E-15   0.7249301132E-14  -0.1304280055E-13  -0.4250000006E-02   0.2120750003E-02   0.2120750003E-02  -0.2221387820E-17  -0.2648102046E-14  -0.2240133299E-14   0.2125000003E+01
   0.0000000000E+00   0.1002120750E+01   0.1002120750E+01   0.0000000000E+00  -0.1122750000E-02  -0.1122750000E-02   0.0000000000E+00   0.3243500000E-02   0.3243500000E-02  -0.2125000003E+01  -0.6358603613E-09  -0.6358201629E-09  -0.2344026947E-13  -0.6409976720E-13  -0.1570875783E-13  -0.4250000006E-02   0.2120750003E-02   0.2120750003E-02   0.1587807406E-14   0.6547724315E-14  -0.3572735702E-14   0.2125000003E+01
   0.1991500000E+01   0.0000000000E+00   0.1506147624E-13   0.4500000000E-02   0.0000000000E+00   0.2489994230E-17  -0.1300000000E-01   0.0000000000E+00   0.1505898624E-13  -0.2125000003E+01   0.9617281900E-12   0.9404146102E-12   0.1428108893E-13   0.2837765115E-13   0.9296295865E-14  -0.4250000006E-02   0.2120750003E-02   0.2120750003E-02  -0.9479273753E-15   0.2001858779E-14  -0.1668136483E-14   0.2125000003E+01
   0.1991500000E+01   0.1002120750E+01   0.1422696224E-13   0.4500000000E-02  -0.1122750000E-02   0.2549896072E-17  -0.1300000000E-01   0.3243500000E-02   0.1422441234E-13  -0.2125000003E+01  -0.2531545215E-10  -0.2533160939E-10  -0.1901015377E-13   0.1378531194E-13  -0.9556120986E-14  -0.4250000006E-02   0.2120750003E-02   0.2120750003E-02  -0.5117022744E-14   0.1312212978E-14   0.1302776202E-14   0.2125000003E+01
   0.1991500000E+01   0.0000000000E+00   0.1002120750E+01   0.4500000000E-02   0.0000000000E+00  -0.1122750000E-02  -0.1300000000E-01   0.0000000000E+00   0.3243500000E-02  -0.2125000003E+01  -0.2172927205E-09  -0.2172784548E-09   0.6444405830E-15   0.1194973372E-14   0.1239434266E-13  -0.4250000006E-02   0.2120750003E-02   0.2120750003E-02   0.2324191868E-14  -0.1264861183E-14  -0.4858511341E-15   0.2125000003E+01
   0.1991500000E+01   0.1002120750E+01   0.1002120750E+01   0.4500000000E-02  -0.1122750000E-02  -0.1122750000E-02  -0.1300000000E-01   0.3243500000E-02   0.3243500000E-02  -0.2125000003E+01   0.9014517582E-10   0.9017033790E-10  -0.2445684554E-13  -0.1253835714E-13  -0.6190609505E-14  -0.4250000005E-02   0.2120750003E-02   0.2120750003E-02   0.4688205867E-14   0.1082349311E-14   0.2488120618E-14   0.2125000003E+01
     1     2     3     4     5     6     7     8
     2     9    10     3     6    11    12     7
 VARIABLES = X,Y,Z,DU1,DU2,DU3,U1,U2,U3,S11,S22,S33,S12,S13,S23,E11,E22,E33,E12,E13,E23,SMISES
 ZONE, T="0.6400D+01" F=FEPOINT, I=   12 J=    2 ET=BRICK
   0.0000000000E+00   0.0000000000E+00   0.0000000000E+00   0.0000000000E+00   0.0000000000E+00   0.0000000000E+00   0.0000000000E+00   0.0000000000E+00   0.0000000000E+00  -0.1000000001E+01   0.4402336651E-09   0.4402030517E-09   0.1666692616E-16  -0.2558533120E-13   0.1608100496E-13  -0.2000000003E-02   0.9980000016E-03   0.9980000016E-03  -0.1281889438E-18   0.4725792377E-14   0.3352493885E-14   0.1000000002E+01
   0.9980000000E+00   0.0000000000E+00   0.4086189558E-14   0.2250000000E-02   0.0000000000E+00   0.7833323363E-18  -0.4250000000E-02   0.0000000000E+00   0.4085406226E-14  -0.1000000001E+01   0.3641042414E-09   0.3640713087E-09   0.1631301423E-13   0.3122176188E-13   0.1103193984E-13  -0.2000000003E-02   0.9980000015E-03   0.9980000015E-03   0.3715525337E-15   0.9000341027E-15   0.1812463626E-14   0.1000000002E+01
   0.9980000000E+00   0.1000998000E+01   0.4992250066E-14   0.2250000000E-02  -0.1122750000E-02   0.8199120212E-18  -0.4250000000E-02   0.2120750000E-02   0.4991430154E-14  -0.1000000001E+01   0.2792640868E-09   0.2792380686E-09  -0.1554420286E-13   0.3541699925E-13  -0.1570207163E-13  -0.2000000003E-02   0.9980000014E-03   0.9980000014E-03  -0.9380271572E-15  -0.3967340607E-14  -0.6657536758E-15   0.1000000001E+01
   0.0000000000E+00   0.1000998000E+01   0.1676242287E-14   0.0000000000E+00  -0.1122750000E-02   0.2266474598E-18   0.0000000000E+00   0.2120750000E-02   0.1676015640E-14  -0.1000000001E+01   0.3414948789E-09   0.3414700006E-09  -0.3020974836E-13  -0.3154083167E-13  -0.1655800155E-13  -0.2000000003E-02   0.9980000014E-03   0.9980000014E-03   0.1543685469E-14   0.3670301345E-14  -0.2500901146E-15   0.1000000001E+01
   0.0000000000E+00   0.0000000000E+00   0.1000998000E+01   0.0000000000E+00   0.0000000000E+00  -0.1122750000E-02   0.0000000000E+00   0.0000000000E+00   0.2120750000E-02  -0.1000000002E+01  -0.3426440672E-09  -0.3426063571E-09  -0.2419291530E-15  -0.5894261254E-13   0.1757850903E-13  -0.2000000003E-02   0.9980000014E-03   0.9980000015E-03  -0.5959601871E-18   0.6117324992E-14   0.3211897783E-16   0.1000000001E+01
   0.9980000000E+00   0.0000000000E+00   0.1000998000E+01   0.2250000000E-02   0.0000000000E+00  -0.1122750000E-02  -0.4250000000E-02   0.0000000000E+00   0.2120750000E-02  -0.1000000002E+01  -0.2268841275E-09  -0.2268625335E-09   0.2457765552E-13   0.8465541618E-15   0.1405092143E-13  -0.2000000003E-02   0.9980000014E-03   0.9980000014E-03  -0.1982207918E-14  -0.3317871107E-16   0.2345367445E-15   0.1000000001E+01
   0.9980000000E+00   0.1000998000E+01   0.1000998000E+01   0.2250000000E-02  -0.1122750000E-02  -0.1122750000E-02  -0.4250000000E-02   0.2120750000E-02   0.2120750000E-02  -0.1000000002E+01  -0.2421473375E-09  -0.2421218474E-09  -0.3402252586E-15   0.7186977229E-14  -0.1297559908E-13  -0.2000000003E-02   0.9980000013E-03   0.9980000013E-03  -0.8400189482E-17  -0.2645559681E-14  -0.2242095694E-14   0.1000000001E+01
   0.0000000000E+00   0.1000998000E+01   0.1000998000E+01   0.0000000000E+00  -0.1122750000E-02  -0.1122750000E-02   0.0000000000E+00   0.2120750000E-02   0.2120750000E-02  -0.1000000002E+01  -0.6360969708E-09  -0.6360569983E-09  -0.2336759991E-13  -0.6381287060E-13  -0.1571634731E-13  -0.2000000003E-02   0.9980000013E-03   0.9980000013E-03   0.1588925093E-14   0.6549739496E-14  -0.3568855737E-14   0.1000000001E+01
   0.1996000000E+01   0.0000000000E+00   0.1506519892E-13   0.4500000000E-02   0.0000000000E+00   0.3722677733E-17  -0.8500000000E-02   0.0000000000E+00   0.1506147624E-13  -0.1000000002E+01   0.9550254915E-12   0.9335483674E-12   0.1439533581E-13   0.2805519882E-13   0.9306535484E-14  -0.2000000003E-02   0.9980000015E-03   0.9980000015E-03  -0.9524356574E-15   0.1995804443E-14  -0.1668891180E-14   0.1000000002E+01
   0.1996000000E+01   0.1000998000E+01   0.1423079082E-13   0.4500000000E-02  -0.1122750000E-02   0.3828578307E-17  -0.8500000000E-02   0.2120750000E-02   0.1422696224E-13  -0.1000000001E+01  -0.2520177370E-10  -0.2521802944E-10  -0.1891006948E-13   0.1384266222E-13  -0.9610334226E-14  -0.2000000003E-02   0.9980000014E-03   0.9980000014E-03  -0.5119753009E-14   0.1309028758E-14   0.1301352429E-14   0.1000000001E+01
   0.1996000000E+01   0.0000000000E+00   0.1000998000E+01   0.4500000000E-02   0.0000000000E+00  -0.1122750000E-02  -0.8500000000E-02   0.0000000000E+00   0.2120750000E-02  -0.1000000002E+01  -0.2175492464E-09  -0.2175348646E-09   0.8916269311E-15   0.1425834878E-14   0.1241378543E-13  -0.2000000003E-02   0.9980000014E-03   0.9980000014E-03   0.2331397792E-14  -0.1261324126E-14  -0.4835819136E-15   0.1000000001E+01
   0.1996000000E+01   0.1000998000E+01   0.1000998000E+01   0.4500000000E-02  -0.1122750000E-02  -0.1122750000E-02  -0.8500000000E-02   0.2120750000E-02   0.2120750000E-02  -0.1000000001E+01   0.9014436585E-10   0.9016948159E-10  -0.2424629304E-13  -0.1283645661E-13  -0.6329285414E-14  -0.2000000003E-02   0.9980000013E-03   0.9980000013E-03   0.4694161769E-14   0.1067362560E-14   0.2483996878E-14   0.1000000001E+01
     1     2     3     4     5     6     7     8
     2     9    10     3     6    11    12     7
 VARIABLES = X,Y,Z,DU1,DU2,DU3,U1,U2,U3,S11,S22,S33,S12,S13,S23,E11,E22,E33,E12,E13,E23,SMISES
 ZONE, T="0.6450D+01" F=FEPOINT, I=   12 J=    2 ET=BRICK
   0.0000000000E+00   0.0000000000E+00   0.0000000000E+00   0.0000000000E+00   0.0000000000E+00   0.0000000000E+00   0.0000000000E+00   0.0000000000E+00   0.0000000000E+00   0.1250000006E+00   0.4401080717E-09   0.4400774437E-09  -0.5972168433E-17  -0.2566981028E-13   0.1608846773E-13   0.2500000004E-03  -0.1247500002E-03  -0.1247500002E-03   0.2112742004E-18   0.4725299041E-14   0.3351552020E-14   0.1250000002E+00
   0.1000250000E+01   0.0000000000E+00   0.4085583563E-14   0.2250000000E-02   0.0000000000E+00  -0.6059953356E-18  -0.2000000000E-02   0.0000000000E+00   0.4086189558E-14   0.1250000006E+00   0.3641022094E-09   0.3640694064E-09   0.1641763406E-13   0.3131825492E-13   0.1105903668E-13   0.2500000004E-03  -0.1247500002E-03  -0.1247500002E-03   0.3713844786E-15   0.8987710030E-15   0.1812301605E-14   0.1250000002E+00
   0.1000250000E+01   0.9998752500E+00   0.4991711447E-14   0.2250000000E-02  -0.1122750000E-02  -0.5386193163E-18  -0.2000000000E-02   0.9980000000E-03   0.4992250066E-14   0.1250000005E+00   0.2790428904E-09   0.2790167933E-09  -0.1547556972E-13   0.3544783202E-13  -0.1566360219E-13   0.2500000004E-03  -0.1247500002E-03  -0.1247500002E-03  -0.9392575867E-15  -0.3964793921E-14  -0.6639853881E-15   0.1250000002E+00
   0.0000000000E+00   0.9998752500E+00   0.1676200394E-14   0.0000000000E+00  -0.1122750000E-02  -0.4189317735E-19   0.0000000000E+00   0.9980000000E-03   0.1676242287E-14   0.1250000005E+00   0.3414346909E-09   0.3414098590E-09  -0.3025064409E-13  -0.3154941418E-13  -0.1658726451E-13   0.2500000004E-03  -0.1247500002E-03  -0.1247500002E-03   0.1543742846E-14   0.3669507702E-14  -0.2490843321E-15   0.1250000002E+00
   0.0000000000E+00   0.0000000000E+00   0.9998752500E+00   0.0000000000E+00   0.0000000000E+00  -0.1122750000E-02   0.0000000000E+00   0.0000000000E+00   0.9980000000E-03   0.1249999998E+00  -0.3426291494E-09  -0.3425914340E-09  -0.2644711774E-15  -0.5896338157E-13   0.1758179999E-13   0.2500000004E-03  -0.1247500002E-03  -0.1247500002E-03  -0.7076675803E-18   0.6118321803E-14   0.3461250931E-16   0.1250000002E+00
   0.1000250000E+01   0.0000000000E+00   0.9998752500E+00   0.2250000000E-02   0.0000000000E+00  -0.1122750000E-02  -0.2000000000E-02   0.0000000000E+00   0.9980000000E-03   0.1250000000E+00  -0.2268208185E-09  -0.2267992974E-09   0.2475051721E-13   0.7297106768E-15   0.1395301000E-13   0.2500000004E-03  -0.1247500002E-03  -0.1247500002E-03  -0.1980652175E-14  -0.3389934753E-16   0.2339132902E-15   0.1250000002E+00
   0.1000250000E+01   0.9998752500E+00   0.9998752500E+00   0.2250000000E-02  -0.1122750000E-02  -0.1122750000E-02  -0.2000000000E-02   0.9980000000E-03   0.9980000000E-03   0.1249999999E+00  -0.2420866510E-09  -0.2420614139E-09  -0.1681431809E-15   0.7226846306E-14  -0.1293404837E-13   0.2500000003E-03  -0.1247500002E-03  -0.1247500002E-03  -0.6359593347E-17  -0.2646551152E-14  -0.2242221288E-14   0.1250000002E+00
   0.0000000000E+00   0.9998752500E+00   0.9998752500E+00   0.0000000000E+00  -0.1122750000E-02  -0.1122750000E-02   0.0000000000E+00   0.9980000000E-03   0.9980000000E-03   0.1249999995E+00  -0.6359626176E-09  -0.6359225864E-09  -0.2333132124E-13  -0.6397521167E-13  -0.1562546500E-13   0.2500000003E-03  -0.1247500002E-03  -0.1247500002E-03   0.1590358556E-14   0.6547411795E-14  -0.3570321673E-14   0.1250000002E+00
   0.2000500000E+01   0.0000000000E+00   0.1506260830E-13   0.4500000000E-02   0.0000000000E+00  -0.2590619898E-17  -0.4000000000E-02   0.0000000000E+00   0.1506519892E-13   0.1250000002E+00   0.1108175335E-11   0.1086302931E-11   0.1407777836E-13   0.2774968029E-13   0.9283782978E-14   0.2500000004E-03  -0.1247500002E-03  -0.1247500002E-03  -0.9553689762E-15   0.1990565470E-14  -0.1668592725E-14   0.1250000002E+00
   0.2000500000E+01   0.9998752500E+00   0.1422811111E-13   0.4500000000E-02  -0.1122750000E-02  -0.2679704897E-17  -0.4000000000E-02   0.9980000000E-03   0.1423079082E-13   0.1250000001E+00  -0.2538984933E-10  -0.2540629717E-10  -0.1905440698E-13   0.1408440801E-13  -0.9658723983E-14   0.2500000004E-03  -0.1247500002E-03  -0.1247500002E-03  -0.5120736370E-14   0.1310047758E-14   0.1299763832E-14   0.1250000002E+00
   0.2000500000E+01   0.0000000000E+00   0.9998752500E+00   0.4500000000E-02   0.0000000000E+00  -0.1122750000E-02  -0.4000000000E-02   0.0000000000E+00   0.9980000000E-03   0.1250000000E+00  -0.2175686985E-09  -0.2175544557E-09   0.8644993754E-15   0.1497992809E-14   0.1250308236E-13   0.2500000004E-03  -0.1247500002E-03  -0.1247500002E-03   0.2331114323E-14  -0.1259035036E-14  -0.4836758293E-15   0.1250000002E+00
   0.2000500000E+01   0.9998752500E+00   0.9998752500E+00   0.4500000000E-02  -0.1122750000E-02  -0.1122750000E-02  -0.4000000000E-02   0.9980000000E-03   0.9980000000E-03   0.1250000002E+00   0.9016238158E-10   0.9018755390E-10  -0.2439460799E-13  -0.1275864771E-13  -0.6415618355E-14   0.2500000003E-03  -0.1247500002E-03  -0.1247500002E-03   0.4691461777E-14   0.1069786694E-14   0.2485339810E-14   0.1250000002E+00
     1     2     3     4     5     6     7     8
     2     9    10     3     6    11    12     7
 VARIABLES = X,Y,Z,DU1,DU2,DU3,U1,U2,U3,S11,S22,S33,S12,S13,S23,E11,E22,E33,E12,E13,E23,SMISES
 ZONE, T="0.6500D+01" F=FEPOINT, I=   12 J=    2 ET=BRICK
   0.0000000000E+00   0.0000000000E+00   0.0000000000E+00   0.0000000000E+00   0.0000000000E+00   0.0000000000E+00   0.0000000000E+00   0.0000000000E+00   0.0000000000E+00   0.1250000002E+01   0.4401572396E-09   0.4401265990E-09  -0.3692325976E-16  -0.2573071534E-13   0.1603743464E-13   0.2500000004E-02  -0.1247500002E-02  -0.1247500002E-02  -0.3077192358E-18   0.4724836666E-14   0.3352026300E-14   0.1250000002E+01
   0.1002500000E+01   0.0000000000E+00   0.4085614169E-14   0.2250000000E-02   0.0000000000E+00   0.3060635613E-19   0.2500000000E-03   0.0000000000E+00   0.4085583563E-14   0.1250000002E+01   0.3641852441E-09   0.3641524525E-09   0.1655540268E-13   0.3134394982E-13   0.1108641880E-13   0.2500000004E-02  -0.1247500002E-02  -0.1247500002E-02   0.3736196156E-15   0.8987217256E-15   0.1812206306E-14   0.1250000002E+01
   0.1002500000E+01   0.9987525000E+00   0.4991902499E-14   0.2250000000E-02  -0.1122750000E-02   0.1910521362E-18   0.2500000000E-03  -0.1247500000E-03   0.4991711447E-14   0.1250000002E+01   0.2791569866E-09   0.2791307395E-09  -0.1541213824E-13   0.3543903438E-13  -0.1564367416E-13   0.2500000004E-02  -0.1247500002E-02  -0.1247500002E-02  -0.9378893956E-15  -0.3965929026E-14  -0.6639840009E-15   0.1250000002E+01
   0.0000000000E+00   0.9987525000E+00   0.1675796635E-14   0.0000000000E+00  -0.1122750000E-02  -0.4037587410E-18   0.0000000000E+00  -0.1247500000E-03   0.1676200394E-14   0.1250000002E+01   0.3414927359E-09   0.3414679545E-09  -0.3025196366E-13  -0.3151549995E-13  -0.1666059944E-13   0.2500000004E-02  -0.1247500002E-02  -0.1247500002E-02   0.1543323374E-14   0.3670807004E-14  -0.2520377819E-15   0.1250000002E+01
   0.0000000000E+00   0.0000000000E+00   0.9987525000E+00   0.0000000000E+00   0.0000000000E+00  -0.1122750000E-02   0.0000000000E+00   0.0000000000E+00  -0.1247500000E-03   0.1250000001E+01  -0.3425902910E-09  -0.3425525978E-09  -0.2635033910E-15  -0.5896348163E-13   0.1757359838E-13   0.2500000004E-02  -0.1247500002E-02  -0.1247500002E-02   0.3596035906E-19   0.6117025634E-14   0.3317093195E-16   0.1250000002E+01
   0.1002500000E+01   0.0000000000E+00   0.9987525000E+00   0.2250000000E-02   0.0000000000E+00  -0.1122750000E-02   0.2500000000E-03   0.0000000000E+00  -0.1247500000E-03   0.1250000002E+01  -0.2268359246E-09  -0.2268143320E-09   0.2460124747E-13   0.8448743618E-15   0.1391858322E-13   0.2500000004E-02  -0.1247500002E-02  -0.1247500002E-02  -0.1983775329E-14  -0.3249241810E-16   0.2344664818E-15   0.1250000002E+01
   0.1002500000E+01   0.9987525000E+00   0.9987525000E+00   0.2250000000E-02  -0.1122750000E-02  -0.1122750000E-02   0.2500000000E-03  -0.1247500000E-03  -0.1247500000E-03   0.1250000001E+01  -0.2421246927E-09  -0.2420994602E-09  -0.3317363490E-15   0.7061625695E-14  -0.1297560670E-13   0.2500000003E-02  -0.1247500002E-02  -0.1247500002E-02  -0.9502605861E-17  -0.2648110112E-14  -0.2243049465E-14   0.1250000002E+01
   0.0000000000E+00   0.9987525000E+00   0.9987525000E+00   0.0000000000E+00  -0.1122750000E-02  -0.1122750000E-02   0.0000000000E+00  -0.1247500000E-03  -0.1247500000E-03   0.1250000001E+01  -0.6360503815E-09  -0.6360103587E-09  -0.2330538468E-13  -0.6401264301E-13  -0.1564965222E-13   0.2500000003E-02  -0.1247500002E-02  -0.1247500002E-02   0.1591125689E-14   0.6546991312E-14  -0.3569576407E-14   0.1250000002E+01
   0.2005000000E+01   0.0000000000E+00   0.1506424357E-13   0.4500000000E-02   0.0000000000E+00   0.1635273925E-17   0.5000000000E-03   0.0000000000E+00   0.1506260830E-13   0.1250000002E+01   0.1138900333E-11   0.1117271732E-11   0.1414998505E-13   0.2770477411E-13   0.9351227969E-14   0.2500000004E-02  -0.1247500002E-02  -0.1247500002E-02  -0.9553079155E-15   0.1992088275E-14  -0.1667921573E-14   0.1250000002E+01
   0.2005000000E+01   0.9987525000E+00   0.1423016407E-13   0.4500000000E-02  -0.1122750000E-02   0.2052960103E-17   0.5000000000E-03  -0.1247500000E-03   0.1422811111E-13   0.1250000002E+01  -0.2519692134E-10  -0.2521313241E-10  -0.1907944666E-13   0.1380319348E-13  -0.9718852591E-14   0.2500000003E-02  -0.1247500002E-02  -0.1247500002E-02  -0.5121343251E-14   0.1313013282E-14   0.1299295798E-14   0.1250000002E+01
   0.2005000000E+01   0.0000000000E+00   0.9987525000E+00   0.4500000000E-02   0.0000000000E+00  -0.1122750000E-02   0.5000000000E-03   0.0000000000E+00  -0.1247500000E-03   0.1250000002E+01  -0.2177235266E-09  -0.2177088645E-09   0.1184169981E-14   0.1417955025E-14   0.1259914424E-13   0.2500000003E-02  -0.1247500002E-02  -0.1247500002E-02   0.2334876405E-14  -0.1263006371E-14  -0.4829932496E-15   0.1250000002E+01
   0.2005000000E+01   0.9987525000E+00   0.9987525000E+00   0.4500000000E-02  -0.1122750000E-02  -0.1122750000E-02   0.5000000000E-03  -0.1247500000E-03  -0.1247500000E-03   0.1250000002E+01   0.9019675683E-10   0.9022234495E-10  -0.2427057329E-13  -0.1226009200E-13  -0.6487972127E-14   0.2500000003E-02  -0.1247500002E-02  -0.1247500002E-02   0.4693456454E-14   0.1076100235E-14   0.2485106343E-14   0.1250000002E+01
     1     2     3     4     5     6     7     8
     2     9    10     3     6    11    12     7
 VARIABLES = X,Y,Z,DU1,DU2,DU3,U1,U2,U3,S11,S22,S33,S12,S13,S23,E11,E22,E33,E12,E13,E23,SMISES
 ZONE, T="0.6550D+01" F=FEPOINT, I=   12 J=    2 ET=BRICK
   0.0000000000E+00   0.0000000000E+00   0.0000000000E+00   0.0000000000E+00   0.0000000000E+00   0.0000000000E+00   0.0000000000E+00   0.0000000000E+00   0.0000000000E+00   0.2375000004E+01   0.4404682341E-09   0.4404375059E-09  -0.2069837792E-16  -0.2550975493E-13   0.1616101566E-13   0.4750000007E-02  -0.2370250004E-02  -0.2370250004E-02  -0.1886116939E-19   0.4726486093E-14   0.3352466259E-14   0.2375000004E+01
   0.1004750000E+01   0.0000000000E+00   0.4087048203E-14   0.2250000000E-02   0.0000000000E+00   0.1434034084E-17   0.2500000000E-02   0.0000000000E+00   0.4085614169E-14   0.2375000004E+01   0.3641610943E-09   0.3641282901E-09   0.1613933623E-13   0.3108038385E-13   0.1106083684E-13   0.4750000007E-02  -0.2370250004E-02  -0.2370250004E-02   0.3684445213E-15   0.8981981179E-15   0.1812372164E-14   0.2375000004E+01
   0.1004750000E+01   0.9976297500E+00   0.4993188164E-14   0.2250000000E-02  -0.1122750000E-02   0.1285664445E-17   0.2500000000E-02  -0.1247500000E-02   0.4991902499E-14   0.2375000004E+01   0.2792121353E-09   0.2791862152E-09  -0.1573503312E-13   0.3538090658E-13  -0.1558057770E-13   0.4750000007E-02  -0.2370250003E-02  -0.2370250003E-02  -0.9407128798E-15  -0.3972267363E-14  -0.6640052477E-15   0.2375000003E+01
   0.0000000000E+00   0.9976297500E+00   0.1676580066E-14   0.0000000000E+00  -0.1122750000E-02   0.7834303349E-18   0.0000000000E+00  -0.1247500000E-02   0.1675796635E-14   0.2375000004E+01   0.3414681902E-09   0.3414432845E-09  -0.3028406374E-13  -0.3148475784E-13  -0.1673172960E-13   0.4750000007E-02  -0.2370250003E-02  -0.2370250003E-02   0.1542594141E-14   0.3674278882E-14  -0.2518288924E-15   0.2375000003E+01
   0.0000000000E+00   0.0000000000E+00   0.9976297500E+00   0.0000000000E+00   0.0000000000E+00  -0.1122750000E-02   0.0000000000E+00   0.0000000000E+00  -0.1247500000E-02   0.2375000003E+01  -0.3427451391E-09  -0.3427070353E-09  -0.2832979555E-15  -0.5866404131E-13   0.1763437940E-13   0.4750000007E-02  -0.2370250003E-02  -0.2370250003E-02  -0.3535627395E-18   0.6120600127E-14   0.3584314492E-16   0.2375000003E+01
   0.1004750000E+01   0.0000000000E+00   0.9976297500E+00   0.2250000000E-02   0.0000000000E+00  -0.1122750000E-02   0.2500000000E-02   0.0000000000E+00  -0.1247500000E-02   0.2375000003E+01  -0.2268954820E-09  -0.2268741934E-09   0.2447906344E-13   0.6099312751E-15   0.1401353448E-13   0.4750000007E-02  -0.2370250003E-02  -0.2370250003E-02  -0.1984906881E-14  -0.3628824654E-16   0.2359991225E-15   0.2375000003E+01
   0.1004750000E+01   0.9976297500E+00   0.9976297500E+00   0.2250000000E-02  -0.1122750000E-02  -0.1122750000E-02   0.2500000000E-02  -0.1247500000E-02  -0.1247500000E-02   0.2375000003E+01  -0.2420503123E-09  -0.2420249304E-09  -0.3849670789E-15   0.6967346338E-14  -0.1289171874E-13   0.4750000006E-02  -0.2370250003E-02  -0.2370250003E-02  -0.1093642170E-16  -0.2649207856E-14  -0.2241574482E-14   0.2375000003E+01
   0.0000000000E+00   0.9976297500E+00   0.9976297500E+00   0.0000000000E+00  -0.1122750000E-02  -0.1122750000E-02   0.0000000000E+00  -0.1247500000E-02  -0.1247500000E-02   0.2375000003E+01  -0.6364058108E-09  -0.6363656680E-09  -0.2295837221E-13  -0.6367990174E-13  -0.1569747998E-13   0.4750000006E-02  -0.2370250003E-02  -0.2370250003E-02   0.1595353506E-14   0.6551410740E-14  -0.3573090904E-14   0.2375000003E+01
   0.2009500000E+01   0.0000000000E+00   0.1506762085E-13   0.4500000000E-02   0.0000000000E+00   0.3377278241E-17   0.5000000000E-02   0.0000000000E+00   0.1506424357E-13   0.2375000004E+01   0.8825377499E-12   0.8606703220E-12   0.1375875617E-13   0.2739891064E-13   0.9329968932E-14   0.4750000007E-02  -0.2370250004E-02  -0.2370250004E-02  -0.9599510619E-15   0.1990958093E-14  -0.1668564561E-14   0.2375000004E+01
   0.2009500000E+01   0.9976297500E+00   0.1423341111E-13   0.4500000000E-02  -0.1122750000E-02   0.3247034394E-17   0.5000000000E-02  -0.1247500000E-02   0.1423016407E-13   0.2375000003E+01  -0.2522889800E-10  -0.2524573697E-10  -0.1937197172E-13   0.1460623792E-13  -0.9766421206E-14   0.4750000007E-02  -0.2370250003E-02  -0.2370250003E-02  -0.5124529081E-14   0.1320334025E-14   0.1300084851E-14   0.2375000003E+01
   0.2009500000E+01   0.0000000000E+00   0.9976297500E+00   0.4500000000E-02   0.0000000000E+00  -0.1122750000E-02   0.5000000000E-02   0.0000000000E+00  -0.1247500000E-02   0.2375000003E+01  -0.2178018222E-09  -0.2177872532E-09   0.1501653068E-14   0.1337027815E-14   0.1252856161E-13   0.4750000007E-02  -0.2370250003E-02  -0.2370250003E-02   0.2338271939E-14  -0.1269100777E-14  -0.4838502003E-15   0.2375000003E+01
   0.2009500000E+01   0.9976297500E+00   0.9976297500E+00   0.4500000000E-02  -0.1122750000E-02  -0.1122750000E-02   0.5000000000E-02  -0.1247500000E-02  -0.1247500000E-02   0.2375000003E+01   0.9031543609E-10   0.9034073496E-10  -0.2405951509E-13  -0.1217250417E-13  -0.6600311532E-14   0.4750000006E-02  -0.2370250003E-02  -0.2370250003E-02   0.4696432827E-14   0.1078405718E-14   0.2482397939E-14   0.2375000003E+01
     1     2     3     4     5     6     7     8
     2     9    10     3     6    11    12     7
 VARIABLES = X,Y,Z,DU1,DU2,DU3,U1,U2,U3,S11,S22,S33,S12,S13,S23,E11,E22,E33,E12,E13,E23,SMISES
 ZONE, T="0.6600D+01" F=FEPOINT, I=   12 J=    2 ET=BRICK
   0.0000000000E+00   0.0000000000E+00   0.0000000000E+00   0.0000000000E+00   0.0000000000E+00   0.0000000000E+00   0.0000000000E+00   0.0000000000E+00   0.0000000000E+00   0.3500000006E+01   0.4400994479E-09   0.4400688376E-09  -0.3188623855E-16  -0.2584562692E-13   0.1604869106E-13   0.7000000011E-02  -0.3493000005E-02  -0.3493000005E-02  -0.1239087266E-18   0.4722890130E-14   0.3351413324E-14   0.3500000005E+01
   0.1007000000E+01   0.0000000000E+00   0.4084445402E-14   0.2250000000E-02   0.0000000000E+00  -0.2602801176E-17   0.4750000000E-02   0.0000000000E+00   0.4087048203E-14   0.3500000006E+01   0.3640130957E-09   0.3639801427E-09   0.1655832417E-13   0.3132921186E-13   0.1100236875E-13   0.7000000011E-02  -0.3493000005E-02  -0.3493000005E-02   0.3721798621E-15   0.8988804715E-15   0.1811046664E-14   0.3500000005E+01
   0.1007000000E+01   0.9965070000E+00   0.4990365852E-14   0.2250000000E-02  -0.1122750000E-02  -0.2822312034E-17   0.4750000000E-02  -0.2370250000E-02   0.4993188164E-14   0.3500000005E+01   0.2790200325E-09   0.2789943351E-09  -0.1543847372E-13   0.3543766797E-13  -0.1548994883E-13   0.7000000010E-02  -0.3493000005E-02  -0.3493000005E-02  -0.9392641315E-15  -0.3968806440E-14  -0.6610033108E-15   0.3500000005E+01
   0.0000000000E+00   0.9965070000E+00   0.1675844472E-14   0.0000000000E+00  -0.1122750000E-02  -0.7355934905E-18   0.0000000000E+00  -0.2370250000E-02   0.1676580066E-14   0.3500000005E+01   0.3414398534E-09   0.3414149020E-09  -0.3041731831E-13  -0.3169322349E-13  -0.1673457832E-13   0.7000000010E-02  -0.3493000005E-02  -0.3493000005E-02   0.1541061495E-14   0.3669035369E-14  -0.2524182329E-15   0.3500000005E+01
   0.0000000000E+00   0.0000000000E+00   0.9965070000E+00   0.0000000000E+00   0.0000000000E+00  -0.1122750000E-02   0.0000000000E+00   0.0000000000E+00  -0.2370250000E-02   0.3500000005E+01  -0.3425962574E-09  -0.3425586766E-09  -0.2963382413E-15  -0.5898092585E-13   0.1755758728E-13   0.7000000010E-02  -0.3493000005E-02  -0.3493000005E-02  -0.4001750935E-18   0.6117764288E-14   0.3350966530E-16   0.3500000005E+01
   0.1007000000E+01   0.0000000000E+00   0.9965070000E+00   0.2250000000E-02   0.0000000000E+00  -0.1122750000E-02   0.4750000000E-02   0.0000000000E+00  -0.2370250000E-02   0.3500000005E+01  -0.2267853113E-09  -0.2267637553E-09   0.2482796757E-13   0.7674138908E-15   0.1402728719E-13   0.7000000010E-02  -0.3493000005E-02  -0.3493000005E-02  -0.1980082199E-14  -0.3540087916E-16   0.2349350115E-15   0.3500000005E+01
   0.1007000000E+01   0.9965070000E+00   0.9965070000E+00   0.2250000000E-02  -0.1122750000E-02  -0.1122750000E-02   0.4750000000E-02  -0.2370250000E-02  -0.2370250000E-02   0.3500000004E+01  -0.2419300616E-09  -0.2419048897E-09  -0.1669124074E-15   0.7046585334E-14  -0.1282026922E-13   0.7000000009E-02  -0.3493000005E-02  -0.3493000005E-02  -0.4290096662E-17  -0.2647442448E-14  -0.2240878602E-14   0.3500000005E+01
   0.0000000000E+00   0.9965070000E+00   0.9965070000E+00   0.0000000000E+00  -0.1122750000E-02  -0.1122750000E-02   0.0000000000E+00  -0.2370250000E-02  -0.2370250000E-02   0.3500000004E+01  -0.6359436775E-09  -0.6359036138E-09  -0.2321426948E-13  -0.6397898168E-13  -0.1558068387E-13   0.7000000009E-02  -0.3493000005E-02  -0.3493000005E-02   0.1592380321E-14   0.6548386572E-14  -0.3570881376E-14   0.3500000005E+01
   0.2014000000E+01   0.0000000000E+00   0.1505984325E-13   0.4500000000E-02   0.0000000000E+00  -0.7777598479E-17   0.9500000000E-02   0.0000000000E+00   0.1506762085E-13   0.3500000005E+01   0.9600299458E-12   0.9382979419E-12   0.1370112276E-13   0.2760566262E-13   0.9094845284E-14   0.7000000011E-02  -0.3493000005E-02  -0.3493000005E-02  -0.9582071555E-15   0.1992442402E-14  -0.1671424010E-14   0.3500000005E+01
   0.2014000000E+01   0.9965070000E+00   0.1422418124E-13   0.4500000000E-02  -0.1122750000E-02  -0.9229867715E-17   0.9500000000E-02  -0.2370250000E-02   0.1423341111E-13   0.3500000005E+01  -0.2541740538E-10  -0.2543356769E-10  -0.1949518177E-13   0.1408046376E-13  -0.9767351768E-14   0.7000000010E-02  -0.3493000005E-02  -0.3493000005E-02  -0.5124144956E-14   0.1310850288E-14   0.1299509296E-14   0.3500000005E+01
   0.2014000000E+01   0.0000000000E+00   0.9965070000E+00   0.4500000000E-02   0.0000000000E+00  -0.1122750000E-02   0.9500000000E-02   0.0000000000E+00  -0.2370250000E-02   0.3500000005E+01  -0.2176156255E-09  -0.2176011456E-09   0.1389418870E-14   0.1053916374E-14   0.1255179853E-13   0.7000000010E-02  -0.3493000005E-02  -0.3493000005E-02   0.2337741945E-14  -0.1273779396E-14  -0.4834548303E-15   0.3500000005E+01
   0.2014000000E+01   0.9965070000E+00   0.9965070000E+00   0.4500000000E-02  -0.1122750000E-02  -0.1122750000E-02   0.9500000000E-02  -0.2370250000E-02  -0.2370250000E-02   0.3500000005E+01   0.9037062267E-10   0.9039579900E-10  -0.2405109603E-13  -0.1219310129E-13  -0.6386576802E-14   0.7000000009E-02  -0.3493000004E-02  -0.3493000004E-02   0.4695807978E-14   0.1075385706E-14   0.2487271095E-14   0.3500000004E+01
     1     2     3     4     5     6     7     8
     2     9    10     3     6    11    12     7
 VARIABLES = X,Y,Z,DU1,DU2,DU3,U1,U2,U3,S11,S22,S33,S12,S13,S23,E11,E22,E33,E12,E13,E23,SMISES
 ZONE, T="0.6650D+01" F=FEPOINT, I=   12 J=    2 ET=BRICK
   0.0000000000E+00   0.0000000000E+00   0.0000000000E+00   0.0000000000E+00   0.0000000000E+00   0.0000000000E+00   0.0000000000E+00   0.0000000000E+00   0.0000000000E+00   0.4625000008E+01   0.4397583717E-09   0.4397280979E-09  -0.2076387608E-16  -0.2612118801E-13   0.1597151395E-13   0.9250000015E-02  -0.4615750007E-02  -0.4615750007E-02  -0.2532759621E-18   0.4721511464E-14   0.3349287130E-14   0.4625000007E+01
   0.1009250000E+01   0.0000000000E+00   0.4080392514E-14   0.2250000000E-02   0.0000000000E+00  -0.4052888112E-17   0.7000000000E-02   0.0000000000E+00   0.4084445402E-14   0.4625000007E+01   0.3634278746E-09   0.3633951396E-09   0.1616167279E-13   0.3131836044E-13   0.1060627438E-13   0.9250000014E-02  -0.4615750007E-02  -0.4615750007E-02   0.3687285046E-15   0.8958628319E-15   0.1807618510E-14   0.4625000007E+01
   0.1009250000E+01   0.9953842500E+00   0.4983967606E-14   0.2250000000E-02  -0.1122750000E-02  -0.6398245571E-17   0.7000000000E-02  -0.3493000000E-02   0.4990365852E-14   0.4625000007E+01   0.2788673700E-09   0.2788420316E-09  -0.1586017395E-13   0.3600068470E-13  -0.1555389856E-13   0.9250000013E-02  -0.4615750007E-02  -0.4615750007E-02  -0.9429072472E-15  -0.3958416998E-14  -0.6654033413E-15   0.4625000007E+01
   0.0000000000E+00   0.9953842500E+00   0.1675272313E-14   0.0000000000E+00  -0.1122750000E-02  -0.5721589428E-18   0.0000000000E+00  -0.3493000000E-02   0.1675844472E-14   0.4625000007E+01   0.3405277229E-09   0.3405033262E-09  -0.3012201844E-13  -0.3240367335E-13  -0.1625592795E-13   0.9250000013E-02  -0.4615750007E-02  -0.4615750007E-02   0.1544582309E-14   0.3658231436E-14  -0.2445936156E-15   0.4625000007E+01
   0.0000000000E+00   0.0000000000E+00   0.9953842500E+00   0.0000000000E+00   0.0000000000E+00  -0.1122750000E-02   0.0000000000E+00   0.0000000000E+00  -0.3493000000E-02   0.4625000006E+01  -0.3420735258E-09  -0.3420360189E-09  -0.2849068462E-15  -0.5942726251E-13   0.1735267303E-13   0.9250000013E-02  -0.4615750007E-02  -0.4615750007E-02   0.5432173035E-18   0.6109856086E-14   0.3375019816E-16   0.4625000007E+01
   0.1009250000E+01   0.0000000000E+00   0.9953842500E+00   0.2250000000E-02   0.0000000000E+00  -0.1122750000E-02   0.7000000000E-02   0.0000000000E+00  -0.3493000000E-02   0.4625000006E+01  -0.2263403632E-09  -0.2263197429E-09   0.2502798970E-13   0.6294421195E-15   0.1369101072E-13   0.9250000013E-02  -0.4615750007E-02  -0.4615750007E-02  -0.1978506671E-14  -0.2975164080E-16   0.2308640280E-15   0.4625000007E+01
   0.1009250000E+01   0.9953842500E+00   0.9953842500E+00   0.2250000000E-02  -0.1122750000E-02  -0.1122750000E-02   0.7000000000E-02  -0.3493000000E-02  -0.3493000000E-02   0.4625000006E+01  -0.2415398316E-09  -0.2415148777E-09  -0.8001951483E-16   0.7522599536E-14  -0.1287839081E-13   0.9250000012E-02  -0.4615750006E-02  -0.4615750006E-02  -0.1551529059E-17  -0.2641694362E-14  -0.2240197034E-14   0.4625000006E+01
   0.0000000000E+00   0.9953842500E+00   0.9953842500E+00   0.0000000000E+00  -0.1122750000E-02  -0.1122750000E-02   0.0000000000E+00  -0.3493000000E-02  -0.3493000000E-02   0.4625000006E+01  -0.6352609630E-09  -0.6352218317E-09  -0.2339028714E-13  -0.6461455729E-13  -0.1522439192E-13   0.9250000012E-02  -0.4615750006E-02  -0.4615750006E-02   0.1588528808E-14   0.6540443701E-14  -0.3569350758E-14   0.4625000006E+01
   0.2018500000E+01   0.0000000000E+00   0.1504198504E-13   0.4500000000E-02   0.0000000000E+00  -0.1785820871E-16   0.1400000000E-01   0.0000000000E+00   0.1505984325E-13   0.4625000007E+01   0.1105296828E-12   0.8956341238E-13   0.1544985362E-13   0.2854924404E-13   0.9048701625E-14   0.9250000014E-02  -0.4615750007E-02  -0.4615750007E-02  -0.9381949982E-15   0.2001837360E-14  -0.1672517040E-14   0.4625000007E+01
   0.2018500000E+01   0.9953842500E+00   0.1420602173E-13   0.4500000000E-02  -0.1122750000E-02  -0.1815950589E-16   0.1400000000E-01  -0.3493000000E-02   0.1422418124E-13   0.4625000006E+01  -0.2499260440E-10  -0.2500811599E-10  -0.1807775734E-13   0.1326710171E-13  -0.9458194122E-14   0.9250000013E-02  -0.4615750006E-02  -0.4615750006E-02  -0.5106709940E-14   0.1320699447E-14   0.1303865906E-14   0.4625000006E+01
   0.2018500000E+01   0.0000000000E+00   0.9953842500E+00   0.4500000000E-02   0.0000000000E+00  -0.1122750000E-02   0.1400000000E-01   0.0000000000E+00  -0.3493000000E-02   0.4625000006E+01  -0.2171606813E-09  -0.2171461790E-09   0.7714376956E-15   0.1960948755E-14   0.1262918894E-13   0.9250000013E-02  -0.4615750006E-02  -0.4615750006E-02   0.2332575634E-14  -0.1259880717E-14  -0.4842199957E-15   0.4625000006E+01
   0.2018500000E+01   0.9953842500E+00   0.9953842500E+00   0.4500000000E-02  -0.1122750000E-02  -0.1122750000E-02   0.1400000000E-01  -0.3493000000E-02  -0.3493000000E-02   0.4625000006E+01   0.9039427739E-10   0.9041928373E-10  -0.2462270521E-13  -0.1258009872E-13  -0.5973268850E-14   0.9250000012E-02  -0.4615750006E-02  -0.4615750006E-02   0.4690979954E-14   0.1079928123E-14   0.2489248755E-14   0.4625000006E+01
     1     2     3     4     5     6     7     8
     2     9    10     3     6    11    12     7
 VARIABLES = X,Y,Z,DU1,DU2,DU3,U1,U2,U3,S11,S22,S33,S12,S13,S23,E11,E22,E33,E12,E13,E23,SMISES
 ZONE, T="0.6700D+01" F=FEPOINT, I=   12 J=    2 ET=BRICK
   0.0000000000E+00   0.0000000000E+00   0.0000000000E+00   0.0000000000E+00   0.0000000000E+00   0.0000000000E+00   0.0000000000E+00   0.0000000000E+00   0.0000000000E+00   0.5750000009E+01   0.4402504540E-09   0.4402205884E-09  -0.2458417139E-16  -0.2562531551E-13   0.1634116467E-13   0.1150000002E-01  -0.5738500009E-02  -0.5738500009E-02   0.1827571007E-18   0.4724794582E-14   0.3353875155E-14   0.5750000009E+01
   0.1011500000E+01   0.0000000000E+00   0.4085600665E-14   0.2250000000E-02   0.0000000000E+00   0.5208150979E-17   0.9250000000E-02   0.0000000000E+00   0.4080392514E-14   0.5750000009E+01   0.3641632655E-09   0.3641302068E-09   0.1638143889E-13   0.3158263911E-13   0.1107422106E-13   0.1150000002E-01  -0.5738500009E-02  -0.5738500009E-02   0.3681563518E-15   0.9016431006E-15   0.1812827227E-14   0.5750000009E+01
   0.1011500000E+01   0.9942615000E+00   0.4992091939E-14   0.2250000000E-02  -0.1122750000E-02   0.8124333199E-17   0.9250000000E-02  -0.4615750000E-02   0.4983967606E-14   0.5750000008E+01   0.2790880961E-09   0.2790621455E-09  -0.1542358807E-13   0.3561222101E-13  -0.1566912612E-13   0.1150000002E-01  -0.5738500008E-02  -0.5738500008E-02  -0.9413135684E-15  -0.3964303922E-14  -0.6650998900E-15   0.5750000008E+01
   0.0000000000E+00   0.9942615000E+00   0.1677521842E-14   0.0000000000E+00  -0.1122750000E-02   0.2249528564E-17   0.0000000000E+00  -0.4615750000E-02   0.1675272313E-14   0.5750000009E+01   0.3413308079E-09   0.3413057651E-09  -0.3018723728E-13  -0.3185047930E-13  -0.1645430902E-13   0.1150000002E-01  -0.5738500008E-02  -0.5738500008E-02   0.1544593023E-14   0.3665673253E-14  -0.2510172314E-15   0.5750000008E+01
   0.0000000000E+00   0.0000000000E+00   0.9942615000E+00   0.0000000000E+00   0.0000000000E+00  -0.1122750000E-02   0.0000000000E+00   0.0000000000E+00  -0.4615750000E-02   0.5750000008E+01  -0.3423819470E-09  -0.3423436790E-09  -0.2870991772E-15  -0.5913667890E-13   0.1750357280E-13   0.1150000002E-01  -0.5738500008E-02  -0.5738500008E-02  -0.1675119561E-17   0.6115305892E-14   0.3472647820E-16   0.5750000008E+01
   0.1011500000E+01   0.0000000000E+00   0.9942615000E+00   0.2250000000E-02   0.0000000000E+00  -0.1122750000E-02   0.9250000000E-02   0.0000000000E+00  -0.4615750000E-02   0.5750000008E+01  -0.2268473486E-09  -0.2268255393E-09   0.2445478681E-13   0.1034605168E-14   0.1407626452E-13   0.1150000002E-01  -0.5738500008E-02  -0.5738500008E-02  -0.1983270533E-14  -0.3226148513E-16   0.2356814741E-15   0.5750000008E+01
   0.1011500000E+01   0.9942615000E+00   0.9942615000E+00   0.2250000000E-02  -0.1122750000E-02  -0.1122750000E-02   0.9250000000E-02  -0.4615750000E-02  -0.4615750000E-02   0.5750000007E+01  -0.2422905765E-09  -0.2422648440E-09  -0.4067692539E-15   0.6958135426E-14  -0.1316803029E-13   0.1150000002E-01  -0.5738500008E-02  -0.5738500008E-02  -0.1076381406E-16  -0.2645193735E-14  -0.2243678235E-14   0.5750000008E+01
   0.0000000000E+00   0.9942615000E+00   0.9942615000E+00   0.0000000000E+00  -0.1122750000E-02  -0.1122750000E-02   0.0000000000E+00  -0.4615750000E-02  -0.4615750000E-02   0.5750000007E+01  -0.6360433147E-09  -0.6360036275E-09  -0.2355492997E-13  -0.6381772905E-13  -0.1568581925E-13   0.1150000002E-01  -0.5738500008E-02  -0.5738500008E-02   0.1586096149E-14   0.6547480090E-14  -0.3571523644E-14   0.5750000008E+01
   0.2023000000E+01   0.0000000000E+00   0.1506212323E-13   0.4500000000E-02   0.0000000000E+00   0.2013818737E-16   0.1850000000E-01   0.0000000000E+00   0.1504198504E-13   0.5750000009E+01   0.1339650325E-11   0.1317717859E-11   0.1377236553E-13   0.2821495774E-13   0.9527296004E-14   0.1150000002E-01  -0.5738500009E-02  -0.5738500009E-02  -0.9547346319E-15   0.1996549954E-14  -0.1665094651E-14   0.5750000009E+01
   0.2023000000E+01   0.9942615000E+00   0.1422905301E-13   0.4500000000E-02  -0.1122750000E-02   0.2303127305E-16   0.1850000000E-01  -0.4615750000E-02   0.1420602173E-13   0.5750000008E+01  -0.2521148589E-10  -0.2522839634E-10  -0.1900713534E-13   0.1342245438E-13  -0.9637012563E-14   0.1150000002E-01  -0.5738500008E-02  -0.5738500008E-02  -0.5114476115E-14   0.1299646579E-14   0.1299766635E-14   0.5750000008E+01
   0.2023000000E+01   0.0000000000E+00   0.9942615000E+00   0.4500000000E-02   0.0000000000E+00  -0.1122750000E-02   0.1850000000E-01   0.0000000000E+00  -0.4615750000E-02   0.5750000008E+01  -0.2175063198E-09  -0.2174916875E-09   0.4170566082E-16   0.1358437740E-14   0.1279009660E-13   0.1150000002E-01  -0.5738500008E-02  -0.5738500008E-02   0.2318063926E-14  -0.1255273863E-14  -0.4831802879E-15   0.5750000008E+01
   0.2023000000E+01   0.9942615000E+00   0.9942615000E+00   0.4500000000E-02  -0.1122750000E-02  -0.1122750000E-02   0.1850000000E-01  -0.4615750000E-02  -0.4615750000E-02   0.5750000007E+01   0.8992622649E-10   0.8995099120E-10  -0.2467894758E-13  -0.1231937148E-13  -0.6350562926E-14   0.1150000001E-01  -0.5738500007E-02  -0.5738500007E-02   0.4688773653E-14   0.1068753824E-14   0.2483342493E-14   0.5750000007E+01
     1     2     3     4     5     6     7     8
     2     9    10     3     6    11    12     7
 VARIABLES = X,Y,Z,DU1,DU2,DU3,U1,U2,U3,S11,S22,S33,S12,S13,S23,E11,E22,E33,E12,E13,E23,SMISES
 ZONE, T="0.6750D+01" F=FEPOINT, I=   12 J=    2 ET=BRICK
   0.0000000000E+00   0.0000000000E+00   0.0000000000E+00   0.0000000000E+00   0.0000000000E+00   0.0000000000E+00   0.0000000000E+00   0.0000000000E+00   0.0000000000E+00   0.6875000011E+01   0.4403888707E-09   0.4403576538E-09  -0.1661190670E-16  -0.2528854006E-13   0.1616542065E-13   0.1375000002E-01  -0.6861250011E-02  -0.6861250011E-02   0.1580335462E-17   0.4725962457E-14   0.3352447486E-14   0.6875000011E+01
   0.1013750000E+01   0.0000000000E+00   0.4088043838E-14   0.2250000000E-02   0.0000000000E+00   0.2443172765E-17   0.1150000000E-01   0.0000000000E+00   0.4085600665E-14   0.6875000011E+01   0.3642203383E-09   0.3641873555E-09   0.1656938199E-13   0.3170132865E-13   0.1093293236E-13   0.1375000002E-01  -0.6861250011E-02  -0.6861250011E-02   0.3702901564E-15   0.9082660023E-15   0.1810915425E-14   0.6875000011E+01
   0.1013750000E+01   0.9931387500E+00   0.4993762953E-14   0.2250000000E-02  -0.1122750000E-02   0.1671013396E-17   0.1150000000E-01  -0.5738500000E-02   0.4992091939E-14   0.6875000010E+01   0.2794782899E-09   0.2794520752E-09  -0.1536112907E-13   0.3531307396E-13  -0.1583010496E-13   0.1375000002E-01  -0.6861250010E-02  -0.6861250010E-02  -0.9367270823E-15  -0.3978569292E-14  -0.6645616360E-15   0.6875000010E+01
   0.0000000000E+00   0.9931387500E+00   0.1676700377E-14   0.0000000000E+00  -0.1122750000E-02  -0.8214645107E-18   0.0000000000E+00  -0.5738500000E-02   0.1677521842E-14   0.6875000010E+01   0.3414539163E-09   0.3414297232E-09  -0.2997869386E-13  -0.3165106246E-13  -0.1668962276E-13   0.1375000002E-01  -0.6861250010E-02  -0.6861250010E-02   0.1543840918E-14   0.3673400565E-14  -0.2520944474E-15   0.6875000010E+01
   0.0000000000E+00   0.0000000000E+00   0.9931387500E+00   0.0000000000E+00   0.0000000000E+00  -0.1122750000E-02   0.0000000000E+00   0.0000000000E+00  -0.5738500000E-02   0.6875000010E+01  -0.3425992382E-09  -0.3425602072E-09  -0.2985793392E-15  -0.5875454203E-13   0.1761583304E-13   0.1375000002E-01  -0.6861250010E-02  -0.6861250010E-02  -0.1227390962E-17   0.6123767662E-14   0.3111802868E-16   0.6875000010E+01
   0.1013750000E+01   0.0000000000E+00   0.9931387500E+00   0.2250000000E-02   0.0000000000E+00  -0.1122750000E-02   0.1150000000E-01   0.0000000000E+00  -0.5738500000E-02   0.6875000010E+01  -0.2270493675E-09  -0.2270278928E-09   0.2404909427E-13   0.1242495961E-14   0.1393491625E-13   0.1375000002E-01  -0.6861250010E-02  -0.6861250010E-02  -0.1990646164E-14  -0.3106909005E-16   0.2364305647E-15   0.6875000010E+01
   0.1013750000E+01   0.9931387500E+00   0.9931387500E+00   0.2250000000E-02  -0.1122750000E-02  -0.1122750000E-02   0.1150000000E-01  -0.5738500000E-02  -0.5738500000E-02   0.6875000009E+01  -0.2424305343E-09  -0.2424051998E-09  -0.8441950787E-15   0.6705012166E-14  -0.1334959013E-13   0.1375000002E-01  -0.6861250009E-02  -0.6861250009E-02  -0.1580513170E-16  -0.2649396097E-14  -0.2251126575E-14   0.6875000009E+01
   0.0000000000E+00   0.9931387500E+00   0.9931387500E+00   0.0000000000E+00  -0.1122750000E-02  -0.1122750000E-02   0.0000000000E+00  -0.5738500000E-02  -0.5738500000E-02   0.6875000009E+01  -0.6364627602E-09  -0.6364228225E-09  -0.2335267846E-13  -0.6375523749E-13  -0.1580031279E-13   0.1375000002E-01  -0.6861250009E-02  -0.6861250009E-02   0.1590971616E-14   0.6550357124E-14  -0.3570142808E-14   0.6875000009E+01
   0.2027500000E+01   0.0000000000E+00   0.1506954164E-13   0.4500000000E-02   0.0000000000E+00   0.7418412018E-17   0.2300000000E-01   0.0000000000E+00   0.1506212323E-13   0.6875000010E+01   0.1234568706E-11   0.1212230065E-11   0.1520879214E-13   0.2821492686E-13   0.9818653910E-14   0.1375000002E-01  -0.6861250010E-02  -0.6861250010E-02  -0.9419059300E-15   0.1994242263E-14  -0.1662539609E-14   0.6875000010E+01
   0.2027500000E+01   0.9931387500E+00   0.1423831679E-13   0.4500000000E-02  -0.1122750000E-02   0.9263781186E-17   0.2300000000E-01  -0.5738500000E-02   0.1422905301E-13   0.6875000010E+01  -0.2458427786E-10  -0.2460059183E-10  -0.1779232849E-13   0.1312598033E-13  -0.9361982035E-14   0.1375000002E-01  -0.6861250010E-02  -0.6861250010E-02  -0.5108428764E-14   0.1300407208E-14   0.1302286628E-14   0.6875000010E+01
   0.2027500000E+01   0.0000000000E+00   0.9931387500E+00   0.4500000000E-02   0.0000000000E+00  -0.1122750000E-02   0.2300000000E-01   0.0000000000E+00  -0.5738500000E-02   0.6875000009E+01  -0.2178856745E-09  -0.2178698335E-09   0.2368194619E-15   0.1532229412E-14   0.1305969149E-13   0.1375000002E-01  -0.6861250010E-02  -0.6861250010E-02   0.2316226021E-14  -0.1260436087E-14  -0.4803231917E-15   0.6875000010E+01
   0.2027500000E+01   0.9931387500E+00   0.9931387500E+00   0.4500000000E-02  -0.1122750000E-02  -0.1122750000E-02   0.2300000000E-01  -0.5738500000E-02  -0.5738500000E-02   0.6875000009E+01   0.8992965685E-10   0.8995413039E-10  -0.2497736358E-13  -0.1330922214E-13  -0.6194193807E-14   0.1375000002E-01  -0.6861250009E-02  -0.6861250009E-02   0.4682635810E-14   0.1057397915E-14   0.2493469438E-14   0.6875000009E+01
     1     2     3     4     5     6     7     8
     2     9    10     3     6    11    12     7
 VARIABLES = X,Y,Z,DU1,DU2,DU3,U1,U2,U3,S11,S22,S33,S12,S13,S23,E11,E22,E33,E12,E13,E23,SMISES
 ZONE, T="0.6800D+01" F=FEPOINT, I=   12 J=    2 ET=BRICK
   0.0000000000E+00   0.0000000000E+00   0.0000000000E+00   0.0000000000E+00   0.0000000000E+00   0.0000000000E+00   0.0000000000E+00   0.0000000000E+00   0.0000000000E+00   0.8000000013E+01   0.4402559674E-09   0.4402251569E-09  -0.2068272584E-16  -0.2554136895E-13   0.1620774311E-13   0.1600000003E-01  -0.7984000013E-02  -0.7984000013E-02   0.7733304769E-18   0.4729429924E-14   0.3353548576E-14   0.8000000013E+01
   0.1016000000E+01   0.0000000000E+00   0.4086302950E-14   0.2250000000E-02   0.0000000000E+00  -0.1740887959E-17   0.1375000000E-01   0.0000000000E+00   0.4088043838E-14   0.8000000013E+01   0.3641321266E-09   0.3640982934E-09   0.1679403838E-13   0.3191083234E-13   0.1106566859E-13   0.1600000002E-01  -0.7984000012E-02  -0.7984000012E-02   0.3693158401E-15   0.8941161003E-15   0.1813525362E-14   0.8000000012E+01
   0.1016000000E+01   0.9920160000E+00   0.4992913148E-14   0.2250000000E-02  -0.1122750000E-02  -0.8498042344E-18   0.1375000000E-01  -0.6861250000E-02   0.4993762953E-14   0.8000000012E+01   0.2792845262E-09   0.2792586148E-09  -0.1536535330E-13   0.3512717808E-13  -0.1555758600E-13   0.1600000002E-01  -0.7984000011E-02  -0.7984000011E-02  -0.9432207956E-15  -0.3973093465E-14  -0.6642309841E-15   0.8000000011E+01
   0.0000000000E+00   0.9920160000E+00   0.1676965553E-14   0.0000000000E+00  -0.1122750000E-02   0.2651758249E-18   0.0000000000E+00  -0.6861250000E-02   0.1676700377E-14   0.8000000012E+01   0.3415242135E-09   0.3414990293E-09  -0.3013687069E-13  -0.3155208004E-13  -0.1670028987E-13   0.1600000002E-01  -0.7984000012E-02  -0.7984000012E-02   0.1543002866E-14   0.3672974267E-14  -0.2576113897E-15   0.8000000012E+01
   0.0000000000E+00   0.0000000000E+00   0.9920160000E+00   0.0000000000E+00   0.0000000000E+00  -0.1122750000E-02   0.0000000000E+00   0.0000000000E+00  -0.6861250000E-02   0.8000000011E+01  -0.3423444191E-09  -0.3423052771E-09  -0.2858560426E-15  -0.5911114085E-13   0.1763040450E-13   0.1600000002E-01  -0.7984000012E-02  -0.7984000012E-02   0.2880141898E-17   0.6113835764E-14   0.3717886588E-16   0.8000000012E+01
   0.1016000000E+01   0.0000000000E+00   0.9920160000E+00   0.2250000000E-02   0.0000000000E+00  -0.1122750000E-02   0.1375000000E-01   0.0000000000E+00  -0.6861250000E-02   0.8000000011E+01  -0.2269563416E-09  -0.2269349481E-09   0.2423206639E-13   0.1041751203E-14   0.1409242765E-13   0.1600000002E-01  -0.7984000011E-02  -0.7984000011E-02  -0.1992049672E-14  -0.2906267281E-16   0.2328469415E-15   0.8000000011E+01
   0.1016000000E+01   0.9920160000E+00   0.9920160000E+00   0.2250000000E-02  -0.1122750000E-02  -0.1122750000E-02   0.1375000000E-01  -0.6861250000E-02  -0.6861250000E-02   0.8000000010E+01  -0.2420624543E-09  -0.2420378672E-09  -0.9231440349E-15   0.6604547045E-14  -0.1315584368E-13   0.1600000002E-01  -0.7984000010E-02  -0.7984000010E-02  -0.1332795304E-16  -0.2652793575E-14  -0.2239749842E-14   0.8000000010E+01
   0.0000000000E+00   0.9920160000E+00   0.9920160000E+00   0.0000000000E+00  -0.1122750000E-02  -0.1122750000E-02   0.0000000000E+00  -0.6861250000E-02  -0.6861250000E-02   0.8000000010E+01  -0.6361946214E-09  -0.6361543288E-09  -0.2333212724E-13  -0.6396880592E-13  -0.1581493090E-13   0.1600000002E-01  -0.7984000011E-02  -0.7984000011E-02   0.1588549592E-14   0.6550164327E-14  -0.3571650643E-14   0.8000000011E+01
   0.2032000000E+01   0.0000000000E+00   0.1506506379E-13   0.4500000000E-02   0.0000000000E+00  -0.4477851666E-17   0.2750000000E-01   0.0000000000E+00   0.1506954164E-13   0.8000000012E+01   0.9463931758E-12   0.9229225347E-12   0.1467971697E-13   0.2829233155E-13   0.9191043662E-14   0.1600000002E-01  -0.7984000012E-02  -0.7984000012E-02  -0.9371731093E-15   0.1995316025E-14  -0.1670700606E-14   0.8000000012E+01
   0.2032000000E+01   0.9920160000E+00   0.1422990971E-13   0.4500000000E-02  -0.1122750000E-02  -0.8407075683E-17   0.2750000000E-01  -0.6861250000E-02   0.1423831679E-13   0.8000000011E+01  -0.2490657415E-10  -0.2492129026E-10  -0.1877423088E-13   0.1373927661E-13  -0.1011725977E-13   0.1600000002E-01  -0.7984000011E-02  -0.7984000011E-02  -0.5112498622E-14   0.1341981676E-14   0.1297935028E-14   0.8000000011E+01
   0.2032000000E+01   0.0000000000E+00   0.9920160000E+00   0.4500000000E-02   0.0000000000E+00  -0.1122750000E-02   0.2750000000E-01   0.0000000000E+00  -0.6861250000E-02   0.8000000011E+01  -0.2183091878E-09  -0.2182936204E-09   0.1162094646E-14   0.7185734311E-15   0.1320642255E-13   0.1600000002E-01  -0.7984000011E-02  -0.7984000011E-02   0.2331865084E-14  -0.1241665166E-14  -0.4774634127E-15   0.8000000011E+01
   0.2032000000E+01   0.9920160000E+00   0.9920160000E+00   0.4500000000E-02  -0.1122750000E-02  -0.1122750000E-02   0.2750000000E-01  -0.6861250000E-02  -0.6861250000E-02   0.8000000010E+01   0.9042080832E-10   0.9044707202E-10  -0.2449230259E-13  -0.1249244591E-13  -0.5971519050E-14   0.1600000002E-01  -0.7984000010E-02  -0.7984000010E-02   0.4678363225E-14   0.1040865018E-14   0.2488809006E-14   0.8000000010E+01
     1     2     3     4     5     6     7     8
     2     9    10     3     6    11    12     7
 VARIABLES = X,Y,Z,DU1,DU2,DU3,U1,U2,U3,S11,S22,S33,S12,S13,S23,E11,E22,E33,E12,E13,E23,SMISES
 ZONE, T="0.6850D+01" F=FEPOINT, I=   12 J=    2 ET=BRICK
   0.0000000000E+00   0.0000000000E+00   0.0000000000E+00   0.0000000000E+00   0.0000000000E+00   0.0000000000E+00   0.0000000000E+00   0.0000000000E+00   0.0000000000E+00   0.9125000015E+01   0.4405637035E-09   0.4405344120E-09   0.4869579863E-17  -0.2554088434E-13   0.1594403581E-13   0.1825000003E-01  -0.9106750014E-02  -0.9106750014E-02   0.8173327680E-18   0.4727325025E-14   0.3351139807E-14   0.9125000014E+01
   0.1018250000E+01   0.0000000000E+00   0.4084919977E-14   0.2250000000E-02   0.0000000000E+00  -0.1382972822E-17   0.1600000000E-01   0.0000000000E+00   0.4086302950E-14   0.9125000014E+01   0.3638115269E-09   0.3637783329E-09   0.1522232385E-13   0.3070770712E-13   0.1061991484E-13   0.1825000003E-01  -0.9106750014E-02  -0.9106750014E-02   0.3570915295E-15   0.8939968520E-15   0.1805564933E-14   0.9125000014E+01
   0.1018250000E+01   0.9908932500E+00   0.4988914771E-14   0.2250000000E-02  -0.1122750000E-02  -0.3998377855E-17   0.1600000000E-01  -0.7984000000E-02   0.4992913148E-14   0.9125000013E+01   0.2788858302E-09   0.2788605066E-09  -0.1633814078E-13   0.3531254737E-13  -0.1554740036E-13   0.1825000003E-01  -0.9106750013E-02  -0.9106750013E-02  -0.9522592684E-15  -0.3965746195E-14  -0.6623716131E-15   0.9125000013E+01
   0.0000000000E+00   0.9908932500E+00   0.1675374698E-14   0.0000000000E+00  -0.1122750000E-02  -0.1590855552E-17   0.0000000000E+00  -0.7984000000E-02   0.1676965553E-14   0.9125000014E+01   0.3408219205E-09   0.3407981918E-09  -0.2978807134E-13  -0.3186452222E-13  -0.1640560870E-13   0.1825000003E-01  -0.9106750013E-02  -0.9106750013E-02   0.1545954295E-14   0.3663214021E-14  -0.2510566001E-15   0.9125000013E+01
   0.0000000000E+00   0.0000000000E+00   0.9908932500E+00   0.0000000000E+00   0.0000000000E+00  -0.1122750000E-02   0.0000000000E+00   0.0000000000E+00  -0.7984000000E-02   0.9125000013E+01  -0.3424727552E-09  -0.3424347982E-09  -0.2752519746E-15  -0.5858180025E-13   0.1737182932E-13   0.1825000003E-01  -0.9106750013E-02  -0.9106750013E-02  -0.9539102426E-19   0.6125428014E-14   0.3163748206E-16   0.9125000013E+01
   0.1018250000E+01   0.0000000000E+00   0.9908932500E+00   0.2250000000E-02   0.0000000000E+00  -0.1122750000E-02   0.1600000000E-01   0.0000000000E+00  -0.7984000000E-02   0.9125000013E+01  -0.2264558632E-09  -0.2264350357E-09   0.2385439561E-13   0.3837547490E-15   0.1377530742E-13   0.1825000003E-01  -0.9106750013E-02  -0.9106750013E-02  -0.1989571157E-14  -0.4891923136E-16   0.2375376282E-15   0.9125000013E+01
   0.1018250000E+01   0.9908932500E+00   0.9908932500E+00   0.2250000000E-02  -0.1122750000E-02  -0.1122750000E-02   0.1600000000E-01  -0.7984000000E-02  -0.7984000000E-02   0.9125000012E+01  -0.2418583855E-09  -0.2418328399E-09  -0.6054782023E-15   0.6713313753E-14  -0.1297229222E-13   0.1825000002E-01  -0.9106750012E-02  -0.9106750012E-02  -0.8445330905E-17  -0.2644395314E-14  -0.2242316471E-14   0.9125000012E+01
   0.0000000000E+00   0.9908932500E+00   0.9908932500E+00   0.0000000000E+00  -0.1122750000E-02  -0.1122750000E-02   0.0000000000E+00  -0.7984000000E-02  -0.7984000000E-02   0.9125000012E+01  -0.6362506085E-09  -0.6362107764E-09  -0.2318771657E-13  -0.6338045008E-13  -0.1550754196E-13   0.1825000002E-01  -0.9106750012E-02  -0.9106750012E-02   0.1597210468E-14   0.6555722491E-14  -0.3571652491E-14   0.9125000012E+01
   0.2036500000E+01   0.0000000000E+00   0.1505599890E-13   0.4500000000E-02   0.0000000000E+00  -0.9064887018E-17   0.3200000000E-01   0.0000000000E+00   0.1506506379E-13   0.9125000014E+01   0.1399254855E-12   0.1172374447E-12   0.1412842451E-13   0.2908291420E-13   0.9406334877E-14   0.1825000003E-01  -0.9106750014E-02  -0.9106750014E-02  -0.9525768372E-15   0.2000443565E-14  -0.1668497816E-14   0.9125000014E+01
   0.2036500000E+01   0.9908932500E+00   0.1422204959E-13   0.4500000000E-02  -0.1122750000E-02  -0.7860125251E-17   0.3200000000E-01  -0.7984000000E-02   0.1422990971E-13   0.9125000013E+01  -0.2545703643E-10  -0.2547318640E-10  -0.1857728730E-13   0.1466084874E-13  -0.9181014790E-14   0.1825000003E-01  -0.9106750013E-02  -0.9106750013E-02  -0.5107711392E-14   0.1304646338E-14   0.1310242784E-14   0.9125000013E+01
   0.2036500000E+01   0.0000000000E+00   0.9908932500E+00   0.4500000000E-02   0.0000000000E+00  -0.1122750000E-02   0.3200000000E-01   0.0000000000E+00  -0.7984000000E-02   0.9125000013E+01  -0.2168199106E-09  -0.2168054440E-09  -0.2910251824E-15   0.2046015191E-14   0.1238232469E-13   0.1825000003E-01  -0.9106750013E-02  -0.9106750013E-02   0.2319263617E-14  -0.1224819046E-14  -0.4849253024E-15   0.9125000013E+01
   0.2036500000E+01   0.9908932500E+00   0.9908932500E+00   0.4500000000E-02  -0.1122750000E-02  -0.1122750000E-02   0.3200000000E-01  -0.7984000000E-02  -0.7984000000E-02   0.9125000012E+01   0.9065170130E-10   0.9067470433E-10  -0.2482664856E-13  -0.1254945215E-13  -0.6063230699E-14   0.1825000002E-01  -0.9106750012E-02  -0.9106750012E-02   0.4679815110E-14   0.1046541822E-14   0.2499594254E-14   0.9125000012E+01
     1     2     3     4     5     6     7     8
     2     9    10     3     6    11    12     7
 VARIABLES = X,Y,Z,DU1,DU2,DU3,U1,U2,U3,S11,S22,S33,S12,S13,S23,E11,E22,E33,E12,E13,E23,SMISES
 ZONE, T="0.6900D+01" F=FEPOINT, I=   12 J=    2 ET=BRICK
   0.0000000000E+00   0.0000000000E+00   0.0000000000E+00   0.0000000000E+00   0.0000000000E+00   0.0000000000E+00   0.0000000000E+00   0.0000000000E+00   0.0000000000E+00   0.1025000002E+02   0.2022032296E-09   0.2020471579E-09   0.1002464078E-16  -0.3154167879E-12  -0.9857608361E-13   0.2550000004E-01  -0.1272950002E-01  -0.1272950002E-01  -0.8176169105E-18   0.2116206280E-15   0.1611189559E-14   0.1025000002E+02
   0.1025500000E+01   0.0000000000E+00   0.1493756532E-14   0.7250000000E-02   0.0000000000E+00  -0.2591163445E-14   0.1825000000E-01   0.0000000000E+00   0.4084919977E-14   0.1025000002E+02   0.2801939369E-09   0.2802280468E-09   0.4236455824E-13   0.1385692665E-12   0.3281461631E-13   0.2550000004E-01  -0.1272950002E-01  -0.1272950002E-01   0.8013692311E-15   0.2556279626E-14   0.2130802219E-14   0.1025000002E+02
   0.1025500000E+01   0.9872705000E+00   0.2558217397E-14   0.7250000000E-02  -0.3622750000E-02  -0.2430697373E-14   0.1825000000E-01  -0.9106750000E-02   0.4988914771E-14   0.1025000001E+02   0.1886882390E-09   0.1886515595E-09  -0.7599433556E-14   0.3294631065E-13   0.7740178195E-14   0.2550000004E-01  -0.1272950002E-01  -0.1272950002E-01  -0.8542762046E-15  -0.3772850983E-14  -0.3501954178E-15   0.1025000001E+02
   0.0000000000E+00   0.9872705000E+00   0.8063348596E-15   0.0000000000E+00  -0.3622750000E-02  -0.8690398379E-15   0.0000000000E+00  -0.9106750000E-02   0.1675374698E-14   0.1025000002E+02   0.2080417326E-09   0.2081567581E-09   0.1381483504E-14  -0.1362152681E-12  -0.1158993321E-12   0.2550000004E-01  -0.1272950002E-01  -0.1272950002E-01   0.1881341135E-14   0.1911571199E-14  -0.1785707337E-14   0.1025000001E+02
   0.0000000000E+00   0.0000000000E+00   0.9872705000E+00   0.0000000000E+00   0.0000000000E+00  -0.3622750000E-02   0.0000000000E+00   0.0000000000E+00  -0.9106750000E-02   0.1025000001E+02  -0.1612271460E-09  -0.1613469633E-09  -0.2031327712E-15  -0.1905347794E-12   0.3572928888E-13   0.2550000004E-01  -0.1272950002E-01  -0.1272950002E-01  -0.2151422747E-18   0.3814494388E-14   0.3703373964E-15   0.1025000001E+02
   0.1025500000E+01   0.0000000000E+00   0.9872705000E+00   0.7250000000E-02   0.0000000000E+00  -0.3622750000E-02   0.1825000000E-01   0.0000000000E+00  -0.9106750000E-02   0.1025000001E+02  -0.1093313529E-09  -0.1092453223E-09  -0.9818572079E-13   0.1258587542E-12  -0.3558466022E-14   0.2550000004E-01  -0.1272950002E-01  -0.1272950002E-01  -0.3688408433E-14   0.1835718683E-14   0.4250340453E-17   0.1025000001E+02
   0.1025500000E+01   0.9872705000E+00   0.9872705000E+00   0.7250000000E-02  -0.3622750000E-02  -0.3622750000E-02   0.1825000000E-01  -0.9106750000E-02  -0.9106750000E-02   0.1025000001E+02  -0.1403081271E-09  -0.1402985241E-09  -0.1052607153E-12  -0.2649776922E-13  -0.2913877433E-13   0.2550000003E-01  -0.1272950002E-01  -0.1272950002E-01  -0.1574289863E-14  -0.3066114953E-14  -0.2463958456E-14   0.1025000001E+02
   0.0000000000E+00   0.9872705000E+00   0.9872705000E+00   0.0000000000E+00  -0.3622750000E-02  -0.3622750000E-02   0.0000000000E+00  -0.9106750000E-02  -0.9106750000E-02   0.1025000001E+02  -0.4782696360E-09  -0.4781196470E-09  -0.3099468259E-13  -0.2438161770E-12   0.1794720570E-13   0.2550000003E-01  -0.1272950002E-01  -0.1272950002E-01   0.1366876198E-14   0.3497181865E-14  -0.3033362631E-14   0.1025000001E+02
   0.2051000000E+01   0.0000000000E+00   0.8553222300E-14   0.1450000000E-01   0.0000000000E+00  -0.6502776601E-14   0.3650000000E-01   0.0000000000E+00   0.1505599890E-13   0.1025000002E+02  -0.7867929124E-10  -0.7868631042E-10   0.6136329840E-13   0.1047738435E-12  -0.2709376219E-13   0.2550000004E-01  -0.1272950002E-01  -0.1272950002E-01  -0.1662444689E-15   0.3142921193E-14  -0.2139708331E-14   0.1025000002E+02
   0.2051000000E+01   0.9872705000E+00   0.7482169590E-14   0.1450000000E-01  -0.3622750000E-02  -0.6739879996E-14   0.3650000000E-01  -0.9106750000E-02   0.1422204959E-13   0.1025000001E+02  -0.7037755594E-10  -0.7030359809E-10  -0.3940933139E-13  -0.3823517005E-13   0.4090945727E-13   0.2550000004E-01  -0.1272950002E-01  -0.1272950002E-01  -0.5354252960E-14   0.5662773094E-15   0.1992665375E-14   0.1025000001E+02
   0.2051000000E+01   0.0000000000E+00   0.9872705000E+00   0.1450000000E-01   0.0000000000E+00  -0.3622750000E-02   0.3650000000E-01   0.0000000000E+00  -0.9106750000E-02   0.1025000001E+02  -0.2558648902E-09  -0.2560061131E-09   0.2566007255E-13  -0.4476066612E-13   0.1216233260E-13   0.2550000004E-01  -0.1272950002E-01  -0.1272950002E-01   0.2640628441E-14  -0.1931670623E-14  -0.4387279364E-15   0.1025000001E+02
   0.2051000000E+01   0.9872705000E+00   0.9872705000E+00   0.1450000000E-01  -0.3622750000E-02  -0.3622750000E-02   0.3650000000E-01  -0.9106750000E-02  -0.9106750000E-02   0.1025000001E+02   0.1963503025E-09   0.1962893013E-09   0.4362376453E-13  -0.5085298524E-13   0.8059183937E-13   0.2550000003E-01  -0.1272950002E-01  -0.1272950002E-01   0.5517637675E-14   0.4221327893E-15   0.3715040907E-14   0.1025000001E+02
     1     2     3     4     5     6     7     8
     2     9    10     3     6    11    12     7
 VARIABLES = X,Y,Z,DU1,DU2,DU3,U1,U2,U3,S11,S22,S33,S12,S13,S23,E11,E22,E33,E12,E13,E23,SMISES
 ZONE, T="0.6950D+01" F=FEPOINT, I=   12 J=    2 ET=BRICK
   0.0000000000E+00   0.0000000000E+00   0.0000000000E+00   0.0000000000E+00   0.0000000000E+00   0.0000000000E+00   0.0000000000E+00   0.0000000000E+00   0.0000000000E+00   0.1137500002E+02  -0.8603944641E-09  -0.8606608214E-09   0.1051451392E-15  -0.9482342767E-12  -0.1092600108E-12   0.5025000008E-01  -0.2510225004E-01  -0.2510225004E-01   0.4131803347E-17  -0.1927642485E-13  -0.1295117677E-15   0.1137500002E+02
   0.1050250000E+01   0.0000000000E+00  -0.1094932293E-13   0.2475000000E-01   0.0000000000E+00  -0.1244307946E-13   0.2550000000E-01   0.0000000000E+00   0.1493756532E-14   0.1137500002E+02  -0.1790336316E-09  -0.1787447111E-09   0.1123453892E-14   0.2792451553E-12   0.9675197474E-13   0.5025000008E-01  -0.2510225004E-01  -0.2510225004E-01   0.2900363139E-15   0.7540052244E-14   0.3893404058E-14   0.1137500002E+02
   0.1050250000E+01   0.9748977500E+00  -0.9001478362E-14   0.2475000000E-01  -0.1237275000E-01  -0.1155969576E-13   0.2550000000E-01  -0.1272950000E-01   0.2558217397E-14   0.1137500002E+02  -0.5669484846E-09  -0.5670431112E-09   0.5977892192E-13   0.1542810553E-12   0.1655288974E-12   0.5025000007E-01  -0.2510225004E-01  -0.2510225004E-01   0.7548409994E-15  -0.6418573940E-16   0.3582695980E-14   0.1137500002E+02
   0.0000000000E+00   0.9748977500E+00  -0.6139652418E-16   0.0000000000E+00  -0.1237275000E-01  -0.8677313838E-15   0.0000000000E+00  -0.1272950000E-01   0.8063348596E-15   0.1137500002E+02  -0.7780184718E-09  -0.7780885754E-09  -0.2610456158E-13  -0.6362757242E-12  -0.1213468392E-12   0.5025000007E-01  -0.2510225004E-01  -0.2510225004E-01   0.1047392060E-14  -0.1214640709E-13  -0.3275077790E-14   0.1137500002E+02
   0.0000000000E+00   0.0000000000E+00   0.9748977500E+00   0.0000000000E+00   0.0000000000E+00  -0.1237275000E-01   0.0000000000E+00   0.0000000000E+00  -0.1272950000E-01   0.1137500002E+02   0.7952496428E-09   0.7950064932E-09  -0.2665551031E-15  -0.5661000943E-12  -0.1107652952E-13   0.5025000007E-01  -0.2510225004E-01  -0.2510225004E-01   0.1789991106E-17  -0.8178366604E-14  -0.3250055866E-15   0.1137500002E+02
   0.1050250000E+01   0.0000000000E+00   0.9748977500E+00   0.2475000000E-01   0.0000000000E+00  -0.1237275000E-01   0.2550000000E-01   0.0000000000E+00  -0.1272950000E-01   0.1137500002E+02   0.5857722055E-09   0.5859262427E-09  -0.1171242495E-12   0.3552357640E-12  -0.9606133967E-13   0.5025000007E-01  -0.2510225004E-01  -0.2510225004E-01  -0.5088169740E-14   0.8866454913E-14  -0.2253930822E-14   0.1137500002E+02
   0.1050250000E+01   0.9748977500E+00   0.9748977500E+00   0.2475000000E-01  -0.1237275000E-01  -0.1237275000E-01   0.2550000000E-01  -0.1272950000E-01  -0.1272950000E-01   0.1137500002E+02   0.3737333897E-09   0.3734981762E-09  -0.2206276859E-13   0.2277595979E-12  -0.2768346594E-13   0.5025000007E-01  -0.2510225003E-01  -0.2510225003E-01  -0.8129510244E-15   0.3021680832E-14  -0.2582228614E-14   0.1137500001E+02
   0.0000000000E+00   0.9748977500E+00   0.9748977500E+00   0.0000000000E+00  -0.1237275000E-01  -0.1237275000E-01   0.0000000000E+00  -0.1272950000E-01  -0.1272950000E-01   0.1137500002E+02   0.4398333049E-09   0.4397871493E-09   0.7629360709E-13  -0.6881063424E-12  -0.2379889308E-13   0.5025000007E-01  -0.2510225003E-01  -0.2510225003E-01   0.3409168662E-14  -0.1082707070E-13  -0.3499953585E-14   0.1137500002E+02
   0.2100500000E+01   0.0000000000E+00  -0.2711561777E-13   0.4950000000E-01   0.0000000000E+00  -0.3566884007E-13   0.5100000000E-01   0.0000000000E+00   0.8553222300E-14   0.1137500002E+02  -0.7230189731E-10  -0.7249481368E-10  -0.2279922996E-12   0.2863938776E-13  -0.1199042499E-12   0.5025000008E-01  -0.2510225004E-01  -0.2510225004E-01  -0.6324601583E-14   0.2437515916E-14  -0.4528142458E-14   0.1137500002E+02
   0.2100500000E+01   0.9748977500E+00  -0.2938061648E-13   0.4950000000E-01  -0.1237275000E-01  -0.3686278607E-13   0.5100000000E-01  -0.1272950000E-01   0.7482169590E-14   0.1137500002E+02  -0.2891285749E-09  -0.2891438351E-09  -0.8519354143E-13  -0.6847623359E-13  -0.5759514614E-13   0.5025000007E-01  -0.2510225004E-01  -0.2510225004E-01  -0.6468342813E-14  -0.6848957705E-15  -0.3491618232E-16   0.1137500002E+02
   0.2100500000E+01   0.0000000000E+00   0.9748977500E+00   0.4950000000E-01   0.0000000000E+00  -0.1237275000E-01   0.5100000000E-01   0.0000000000E+00  -0.1272950000E-01   0.1137500002E+02  -0.1157775481E-09  -0.1160963220E-09  -0.1961645621E-14  -0.2005546149E-12  -0.3082880787E-13   0.5025000007E-01  -0.2510225004E-01  -0.2510225004E-01   0.2047786280E-14  -0.6093920205E-14  -0.1274851933E-14   0.1137500002E+02
   0.2100500000E+01   0.9748977500E+00   0.9748977500E+00   0.4950000000E-01  -0.1237275000E-01  -0.1237275000E-01   0.5100000000E-01  -0.1272950000E-01  -0.1272950000E-01   0.1137500002E+02   0.4569078727E-09   0.4567707606E-09   0.1141306745E-12   0.1283283609E-12   0.3260807286E-13   0.5025000006E-01  -0.2510225003E-01  -0.2510225003E-01   0.7238499457E-14   0.4052022627E-14   0.3249759166E-14   0.1137500001E+02
     1     2     3     4     5     6     7     8
     2     9    10     3     6    11    12     7
 VARIABLES = X,Y,Z,DU1,DU2,DU3,U1,U2,U3,S11,S22,S33,S12,S13,S23,E11,E22,E33,E12,E13,E23,SMISES
 ZONE, T="0.7000D+01" F=FEPOINT, I=   12 J=    2 ET=BRICK
   0.0000000000E+00   0.0000000000E+00   0.0000000000E+00   0.0000000000E+00   0.0000000000E+00   0.0000000000E+00   0.0000000000E+00   0.0000000000E+00   0.0000000000E+00   0.1250000002E+02  -0.1865413044E-09  -0.1865158923E-09   0.2473439839E-15   0.4733566031E-13  -0.6257839687E-14   0.7500000012E-01  -0.3747500006E-01  -0.3747500006E-01  -0.1411309937E-17  -0.5963593183E-14   0.9128128507E-15   0.1250000002E+02
   0.1075000000E+01   0.0000000000E+00  -0.2778036395E-14   0.2475000000E-01   0.0000000000E+00   0.8171286538E-14   0.5025000000E-01   0.0000000000E+00  -0.1094932293E-13   0.1250000002E+02   0.6968484666E-10   0.6968788569E-10   0.2020197336E-13  -0.2353892219E-14  -0.8184139115E-14   0.7500000012E-01  -0.3747500006E-01  -0.3747500006E-01   0.7437894740E-15   0.3672138153E-14   0.2266296051E-14   0.1250000002E+02
   0.1075000000E+01   0.9625250000E+00  -0.1646394468E-14   0.2475000000E-01  -0.1237275000E-01   0.7355083893E-14   0.5025000000E-01  -0.2510225000E-01  -0.9001478362E-14   0.1250000002E+02  -0.1262439234E-09  -0.1262324510E-09  -0.1378820111E-13   0.9970632074E-14   0.2389523968E-14   0.7500000011E-01  -0.3747500005E-01  -0.3747500005E-01  -0.3216766045E-15  -0.1423217265E-14   0.1471254977E-14   0.1250000002E+02
   0.0000000000E+00   0.9625250000E+00   0.4565783904E-15   0.0000000000E+00  -0.1237275000E-01   0.5179749146E-15   0.0000000000E+00  -0.2510225000E-01  -0.6139652418E-16   0.1250000002E+02  -0.1575913352E-09  -0.1575671661E-09  -0.2855806668E-13   0.4396321548E-13   0.1178966852E-13   0.7500000011E-01  -0.3747500005E-01  -0.3747500005E-01   0.5600486103E-15  -0.3027894752E-14  -0.1341685997E-14   0.1250000002E+02
   0.0000000000E+00   0.0000000000E+00   0.9625250000E+00   0.0000000000E+00   0.0000000000E+00  -0.1237275000E-01   0.0000000000E+00   0.0000000000E+00  -0.2510225000E-01   0.1250000002E+02   0.1923544193E-09   0.1923446035E-09  -0.1703882800E-15   0.4006986252E-14  -0.7252349804E-14   0.7500000011E-01  -0.3747500005E-01  -0.3747500005E-01   0.3396521964E-17  -0.1156737211E-14  -0.3549536969E-15   0.1250000002E+02
   0.1075000000E+01   0.0000000000E+00   0.9625250000E+00   0.2475000000E-01   0.0000000000E+00  -0.1237275000E-01   0.5025000000E-01   0.0000000000E+00  -0.2510225000E-01   0.1250000002E+02   0.1640597983E-09   0.1640442738E-09   0.3184847965E-13  -0.4332596841E-13  -0.5004880009E-14   0.7500000011E-01  -0.3747500005E-01  -0.3747500005E-01  -0.2553993616E-14   0.3131501700E-14  -0.1127141761E-14   0.1250000002E+02
   0.1075000000E+01   0.9625250000E+00   0.9625250000E+00   0.2475000000E-01  -0.1237275000E-01  -0.1237275000E-01   0.5025000000E-01  -0.2510225000E-01  -0.2510225000E-01   0.1250000002E+02   0.6639231695E-10   0.6637745862E-10  -0.1016672237E-13  -0.2796761570E-13   0.5238189658E-14   0.7500000010E-01  -0.3747500005E-01  -0.3747500005E-01  -0.7097329157E-15  -0.4647033980E-15  -0.1895007319E-14   0.1250000002E+02
   0.0000000000E+00   0.9625250000E+00   0.9625250000E+00   0.0000000000E+00  -0.1237275000E-01  -0.1237275000E-01   0.0000000000E+00  -0.2510225000E-01  -0.2510225000E-01   0.1250000002E+02  -0.4758434688E-10  -0.4759636354E-10  -0.3689106392E-13   0.5959717121E-14   0.1116454034E-13   0.7500000010E-01  -0.3747500005E-01  -0.3747500005E-01   0.1325719978E-14  -0.2153944815E-14  -0.2612965770E-14   0.1250000002E+02
   0.2150000000E+01   0.0000000000E+00  -0.4714002516E-14   0.4950000000E-01   0.0000000000E+00   0.2240161526E-13   0.1005000000E+00   0.0000000000E+00  -0.2711561777E-13   0.1250000002E+02  -0.6151910138E-10  -0.6151346451E-10   0.2430652531E-13   0.3332847690E-13  -0.2181943413E-14   0.7500000011E-01  -0.3747500006E-01  -0.3747500006E-01  -0.2668851634E-14   0.2620368608E-14  -0.2832421558E-14   0.1250000002E+02
   0.2150000000E+01   0.9625250000E+00  -0.6129150799E-14   0.4950000000E-01  -0.1237275000E-01   0.2325146568E-13   0.1005000000E+00  -0.2510225000E-01  -0.2938061648E-13   0.1250000002E+02  -0.1686870677E-09  -0.1686815201E-09  -0.1624852084E-13   0.2076984181E-13   0.1957416578E-14   0.7500000010E-01  -0.3747500005E-01  -0.3747500005E-01  -0.5302785634E-14   0.5962530665E-15   0.6517118228E-15   0.1250000002E+02
   0.2150000000E+01   0.0000000000E+00   0.9625250000E+00   0.4950000000E-01   0.0000000000E+00  -0.1237275000E-01   0.1005000000E+00   0.0000000000E+00  -0.2510225000E-01   0.1250000002E+02  -0.1377882221E-09  -0.1377946898E-09   0.6950667334E-14  -0.5653848080E-14  -0.1515607966E-14   0.7500000010E-01  -0.3747500005E-01  -0.3747500005E-01   0.1999013870E-14  -0.3515760564E-14  -0.8484983307E-15   0.1250000002E+02
   0.2150000000E+01   0.9625250000E+00   0.9625250000E+00   0.4950000000E-01  -0.1237275000E-01  -0.1237275000E-01   0.1005000000E+00  -0.2510225000E-01  -0.2510225000E-01   0.1250000002E+02   0.2204182036E-09   0.2204201454E-09  -0.3858816643E-13  -0.1915020258E-13   0.3285062695E-14   0.7500000010E-01  -0.3747500005E-01  -0.3747500005E-01   0.4359445955E-14   0.1801462360E-14   0.2605613923E-14   0.1250000002E+02
     1     2     3     4     5     6     7     8
     2     9    10     3     6    11    12     7
 VARIABLES = X,Y,Z,DU1,DU2,DU3,U1,U2,U3,S11,S22,S33,S12,S13,S23,E11,E22,E33,E12,E13,E23,SMISES
 ZONE, T="0.7050D+01" F=FEPOINT, I=   12 J=    2 ET=BRICK
   0.0000000000E+00   0.0000000000E+00   0.0000000000E+00   0.0000000000E+00   0.0000000000E+00   0.0000000000E+00   0.0000000000E+00   0.0000000000E+00   0.0000000000E+00   0.1137500002E+02   0.3105170723E-09   0.3108278391E-09   0.2409470949E-15   0.1172112858E-11   0.7067185233E-12   0.7275000011E-01  -0.3635225006E-01  -0.3635225006E-01   0.3043166767E-17   0.7499226506E-14   0.9473202982E-14   0.1137500002E+02
   0.1072750000E+01   0.0000000000E+00   0.3182165502E-14  -0.2250000000E-02   0.0000000000E+00   0.5960201897E-14   0.7500000000E-01   0.0000000000E+00  -0.2778036395E-14   0.1137500002E+02   0.1110056584E-09   0.1103135538E-09   0.1567935291E-12   0.1081726258E-12  -0.1129736894E-14   0.7275000011E-01  -0.3635225006E-01  -0.3635225006E-01   0.2369695507E-14   0.5058335601E-14   0.2356516264E-14   0.1137500002E+02
   0.1072750000E+01   0.9636477500E+00   0.4356141286E-14  -0.2250000000E-02   0.1122750000E-02   0.6002535754E-14   0.7500000000E-01  -0.3747500000E-01  -0.1646394468E-14   0.1137500002E+02   0.9828211730E-10   0.9836419093E-10   0.2563479920E-12  -0.1960437992E-12  -0.2928711800E-12   0.7275000010E-01  -0.3635225005E-01  -0.3635225005E-01   0.2962112246E-14  -0.3918105073E-14  -0.2074043836E-14   0.1137500002E+02
   0.0000000000E+00   0.9636477500E+00   0.4731603730E-14   0.0000000000E+00   0.1122750000E-02   0.4275025339E-14   0.0000000000E+00  -0.3747500000E-01   0.4565783904E-15   0.1137500002E+02   0.1986884183E-09   0.1980085460E-09  -0.2923782899E-12   0.6532981344E-13   0.2511535617E-12   0.7275000011E-01  -0.3635225005E-01  -0.3635225005E-01  -0.2602193330E-14  -0.2753684164E-14   0.1519251721E-14   0.1137500002E+02
   0.0000000000E+00   0.0000000000E+00   0.9636477500E+00   0.0000000000E+00   0.0000000000E+00   0.1122750000E-02   0.0000000000E+00   0.0000000000E+00  -0.3747500000E-01   0.1137500002E+02   0.9454704974E-10   0.9577026418E-10  -0.1514843013E-15   0.1831509619E-12   0.2109033422E-12   0.7275000011E-01  -0.3635225005E-01  -0.3635225005E-01   0.1102117284E-16   0.1021470234E-14   0.2264550287E-14   0.1137500002E+02
   0.1072750000E+01   0.0000000000E+00   0.9636477500E+00  -0.2250000000E-02   0.0000000000E+00   0.1122750000E-02   0.7500000000E-01   0.0000000000E+00  -0.3747500000E-01   0.1137500002E+02  -0.1620270607E-09  -0.1621328944E-09  -0.2372366686E-12   0.9339168777E-13   0.3846941470E-12   0.7275000010E-01  -0.3635225005E-01  -0.3635225005E-01  -0.5791782426E-14   0.4707811800E-14   0.3555849576E-14   0.1137500002E+02
   0.1072750000E+01   0.9636477500E+00   0.9636477500E+00  -0.2250000000E-02   0.1122750000E-02   0.1122750000E-02   0.7500000000E-01  -0.3747500000E-01  -0.3747500000E-01   0.1137500001E+02  -0.1704184076E-09  -0.1697578303E-09  -0.2494279500E-12  -0.2884074618E-12   0.9259658221E-13   0.7275000010E-01  -0.3635225005E-01  -0.3635225005E-01  -0.3627618409E-14  -0.3555060076E-14  -0.8450755211E-15   0.1137500001E+02
   0.0000000000E+00   0.9636477500E+00   0.9636477500E+00   0.0000000000E+00   0.1122750000E-02   0.1122750000E-02   0.0000000000E+00  -0.3747500000E-01  -0.3747500000E-01   0.1137500001E+02  -0.5429187996E-09  -0.5426871820E-09   0.8080437122E-14   0.4381921025E-12  -0.2442879145E-12   0.7275000010E-01  -0.3635225005E-01  -0.3635225005E-01   0.1863590942E-14   0.3005819584E-14  -0.5667693739E-14   0.1137500002E+02
   0.2145500000E+01   0.0000000000E+00   0.4071307006E-14  -0.4500000000E-02   0.0000000000E+00   0.8785309522E-14   0.1500000000E+00   0.0000000000E+00  -0.4714002516E-14   0.1137500002E+02   0.4360002829E-09   0.4358622774E-09  -0.7012843098E-14  -0.4917434722E-12   0.8886520589E-12   0.7275000011E-01  -0.3635225005E-01  -0.3635225005E-01  -0.3003793570E-14  -0.3775769511E-14   0.7854428800E-14   0.1137500002E+02
   0.2145500000E+01   0.9636477500E+00   0.7997726994E-14  -0.4500000000E-02   0.1122750000E-02   0.1412687779E-13   0.1500000000E+00  -0.3747500000E-01  -0.6129150799E-14   0.1137500002E+02  -0.1199968797E-09  -0.1214470221E-09   0.4832495525E-12   0.4005010774E-12   0.2117807750E-12   0.7275000010E-01  -0.3635225005E-01  -0.3635225005E-01   0.6583232947E-15   0.5201596633E-14   0.3153939990E-14   0.1137500002E+02
   0.2145500000E+01   0.0000000000E+00   0.9636477500E+00  -0.4500000000E-02   0.0000000000E+00   0.1122750000E-02   0.1500000000E+00   0.0000000000E+00  -0.3747500000E-01   0.1137500002E+02  -0.5574381612E-10  -0.5453147995E-10  -0.4004158365E-12   0.4668758004E-12   0.2337495097E-12   0.7275000010E-01  -0.3635225005E-01  -0.3635225005E-01  -0.2855524658E-14   0.2243508208E-14   0.1973793429E-14   0.1137500002E+02
   0.2145500000E+01   0.9636477500E+00   0.9636477500E+00  -0.4500000000E-02   0.1122750000E-02   0.1122750000E-02   0.1500000000E+00  -0.3747500000E-01  -0.3747500000E-01   0.1137500001E+02  -0.7747400814E-10  -0.7756531018E-10  -0.4313568414E-12  -0.1584572659E-12  -0.4425628672E-12   0.7275000009E-01  -0.3635225005E-01  -0.3635225005E-01  -0.3201180104E-15   0.1706163799E-15  -0.2731033091E-14   0.1137500001E+02
     1     2     3     4     5     6     7     8
     2     9    10     3     6    11    12     7
 VARIABLES = X,Y,Z,DU1,DU2,DU3,U1,U2,U3,S11,S22,S33,S12,S13,S23,E11,E22,E33,E12,E13,E23,SMISES
 ZONE, T="0.7100D+01" F=FEPOINT, I=   12 J=    2 ET=BRICK
   0.0000000000E+00   0.0000000000E+00   0.0000000000E+00   0.0000000000E+00   0.0000000000E+00   0.0000000000E+00   0.0000000000E+00   0.0000000000E+00   0.0000000000E+00   0.1025000002E+02  -0.1843888482E-09  -0.1843638073E-09   0.2246749262E-15   0.4884079395E-13  -0.5487609219E-14   0.7050000011E-01  -0.3522950006E-01  -0.3522950006E-01   0.3039137706E-17  -0.5946227101E-14   0.9322300212E-15   0.1025000002E+02
   0.1070500000E+01   0.0000000000E+00  -0.2760684950E-14  -0.2250000000E-02   0.0000000000E+00  -0.5942850452E-14   0.7275000000E-01   0.0000000000E+00   0.3182165502E-14   0.1025000002E+02   0.7169902991E-10   0.7169991303E-10   0.1931860148E-13  -0.3389220367E-14  -0.7050464742E-14   0.7050000011E-01  -0.3522950005E-01  -0.3522950005E-01   0.7332302614E-15   0.3683103364E-14   0.2277231664E-14   0.1025000002E+02
   0.1070500000E+01   0.9647705000E+00  -0.1622185378E-14  -0.2250000000E-02   0.1122750000E-02  -0.5978326664E-14   0.7275000000E-01  -0.3635225000E-01   0.4356141286E-14   0.1025000001E+02  -0.1248729017E-09  -0.1248632521E-09  -0.1406713864E-13   0.9729662719E-14   0.1891246481E-14   0.7050000010E-01  -0.3522950005E-01  -0.3522950005E-01  -0.2955661434E-15  -0.1457315918E-14   0.1469899637E-14   0.1025000001E+02
   0.0000000000E+00   0.9647705000E+00   0.4612561027E-15   0.0000000000E+00   0.1122750000E-02  -0.4270347627E-14   0.0000000000E+00  -0.3635225000E-01   0.4731603730E-14   0.1025000001E+02  -0.1557620602E-09  -0.1557388512E-09  -0.2813216721E-13   0.4601699050E-13   0.1126914544E-13   0.7050000010E-01  -0.3522950005E-01  -0.3522950005E-01   0.5581249557E-15  -0.3010462308E-14  -0.1375433936E-14   0.1025000001E+02
   0.0000000000E+00   0.0000000000E+00   0.9647705000E+00   0.0000000000E+00   0.0000000000E+00   0.1122750000E-02   0.0000000000E+00   0.0000000000E+00  -0.3635225000E-01   0.1025000002E+02   0.1906147073E-09   0.1906063282E-09  -0.1125394172E-15   0.4945186822E-14  -0.6615690607E-14   0.7050000010E-01  -0.3522950005E-01  -0.3522950005E-01  -0.8371366161E-17  -0.1152393432E-14  -0.3606569183E-15   0.1025000001E+02
   0.1070500000E+01   0.0000000000E+00   0.9647705000E+00  -0.2250000000E-02   0.0000000000E+00   0.1122750000E-02   0.7275000000E-01   0.0000000000E+00  -0.3635225000E-01   0.1025000001E+02   0.1617496763E-09   0.1617344581E-09   0.3159937269E-13  -0.4427931742E-13  -0.3749093777E-14   0.7050000010E-01  -0.3522950005E-01  -0.3522950005E-01  -0.2571699199E-14   0.3147349518E-14  -0.1091761297E-14   0.1025000001E+02
   0.1070500000E+01   0.9647705000E+00   0.9647705000E+00  -0.2250000000E-02   0.1122750000E-02   0.1122750000E-02   0.7275000000E-01  -0.3635225000E-01  -0.3635225000E-01   0.1025000001E+02   0.6479286104E-10   0.6478021810E-10  -0.1024063371E-13  -0.2801201364E-13   0.4935224740E-14   0.7050000009E-01  -0.3522950005E-01  -0.3522950005E-01  -0.7473164605E-15  -0.4853643275E-15  -0.1905308466E-14   0.1025000001E+02
   0.0000000000E+00   0.9647705000E+00   0.9647705000E+00   0.0000000000E+00   0.1122750000E-02   0.1122750000E-02   0.0000000000E+00  -0.3635225000E-01  -0.3635225000E-01   0.1025000001E+02  -0.4983854233E-10  -0.4984850071E-10  -0.3665912327E-13   0.7774936871E-14   0.1054907856E-13   0.7050000009E-01  -0.3522950005E-01  -0.3522950005E-01   0.1333236676E-14  -0.2134187774E-14  -0.2568312898E-14   0.1025000001E+02
   0.2141000000E+01   0.0000000000E+00  -0.4645547362E-14  -0.4500000000E-02   0.0000000000E+00  -0.8716854368E-14   0.1455000000E+00   0.0000000000E+00   0.4071307006E-14   0.1025000002E+02  -0.5898516910E-10  -0.5898203753E-10   0.2124322685E-13   0.2953261061E-13  -0.1552903438E-14   0.7050000011E-01  -0.3522950005E-01  -0.3522950005E-01  -0.2644180284E-14   0.2521679542E-14  -0.2824178327E-14   0.1025000002E+02
   0.2141000000E+01   0.9647705000E+00  -0.6056876030E-14  -0.4500000000E-02   0.1122750000E-02  -0.1405460302E-13   0.1455000000E+00  -0.3635225000E-01   0.7997726994E-14   0.1025000001E+02  -0.1674381984E-09  -0.1674360780E-09  -0.1846641655E-13   0.2142012916E-13  -0.1100699329E-16   0.7050000010E-01  -0.3522950005E-01  -0.3522950005E-01  -0.5287682657E-14   0.5580291410E-15   0.6391583831E-15   0.1025000001E+02
   0.2141000000E+01   0.0000000000E+00   0.9647705000E+00  -0.4500000000E-02   0.0000000000E+00   0.1122750000E-02   0.1455000000E+00   0.0000000000E+00  -0.3635225000E-01   0.1025000001E+02  -0.1402833592E-09  -0.1402860637E-09   0.9704694050E-14  -0.8880629429E-14  -0.9478067809E-15   0.7050000010E-01  -0.3522950005E-01  -0.3522950005E-01   0.2130184312E-14  -0.3538255802E-14  -0.8501782000E-15   0.1025000001E+02
   0.2141000000E+01   0.9647705000E+00   0.9647705000E+00  -0.4500000000E-02   0.1122750000E-02   0.1122750000E-02   0.1455000000E+00  -0.3635225000E-01  -0.3635225000E-01   0.1025000001E+02   0.2195346533E-09   0.2195390707E-09  -0.3624812446E-13  -0.1760135495E-13   0.1151742364E-14   0.7050000009E-01  -0.3522950005E-01  -0.3522950005E-01   0.4480037504E-14   0.1720071508E-14   0.2570507440E-14   0.1025000001E+02
     1     2     3     4     5     6     7     8
     2     9    10     3     6    11    12     7
 VARIABLES = X,Y,Z,DU1,DU2,DU3,U1,U2,U3,S11,S22,S33,S12,S13,S23,E11,E22,E33,E12,E13,E23,SMISES
 ZONE, T="0.7150D+01" F=FEPOINT, I=   12 J=    2 ET=BRICK
   0.0000000000E+00   0.0000000000E+00   0.0000000000E+00   0.0000000000E+00   0.0000000000E+00   0.0000000000E+00   0.0000000000E+00   0.0000000000E+00   0.0000000000E+00   0.9125000014E+01  -0.1838732947E-09  -0.1838490948E-09   0.2169309104E-15   0.4934841261E-13  -0.5366154489E-14   0.6825000011E-01  -0.3410675005E-01  -0.3410675005E-01  -0.3480597166E-18  -0.5937263989E-14   0.9237906233E-15   0.9125000014E+01
   0.1068250000E+01   0.0000000000E+00  -0.2757311705E-14  -0.2250000000E-02   0.0000000000E+00   0.3373245586E-17   0.7050000000E-01   0.0000000000E+00  -0.2760684950E-14   0.9125000014E+01   0.7165022426E-10   0.7165139184E-10   0.1891927030E-13  -0.3834034355E-14  -0.7353323731E-14   0.6825000011E-01  -0.3410675005E-01  -0.3410675005E-01   0.7595882910E-15   0.3677627437E-14   0.2274777602E-14   0.9125000014E+01
   0.1068250000E+01   0.9658932500E+00  -0.1620688244E-14  -0.2250000000E-02   0.1122750000E-02   0.1497134212E-17   0.7050000000E-01  -0.3522950000E-01  -0.1622185378E-14   0.9125000013E+01  -0.1243085280E-09  -0.1242990300E-09  -0.1469776249E-13   0.9921064886E-14   0.1474435933E-14   0.6825000010E-01  -0.3410675005E-01  -0.3410675005E-01  -0.2691598607E-15  -0.1420249662E-14   0.1465579898E-14   0.9125000013E+01
   0.0000000000E+00   0.9658932500E+00   0.4617936346E-15   0.0000000000E+00   0.1122750000E-02   0.5375319155E-18   0.0000000000E+00  -0.3522950000E-01   0.4612561027E-15   0.9125000013E+01  -0.1558226366E-09  -0.1558001398E-09  -0.2810553125E-13   0.4590032403E-13   0.1104990117E-13   0.6825000010E-01  -0.3410675005E-01  -0.3410675005E-01   0.5220834289E-15  -0.3015408638E-14  -0.1338043165E-14   0.9125000013E+01
   0.0000000000E+00   0.0000000000E+00   0.9658932500E+00   0.0000000000E+00   0.0000000000E+00   0.1122750000E-02   0.0000000000E+00   0.0000000000E+00  -0.3522950000E-01   0.9125000013E+01   0.1900195419E-09   0.1900114309E-09  -0.1237149989E-15   0.5700689703E-14  -0.6540696275E-14   0.6825000010E-01  -0.3410675005E-01  -0.3410675005E-01  -0.7532374840E-17  -0.1132972416E-14  -0.3399990382E-15   0.9125000013E+01
   0.1068250000E+01   0.0000000000E+00   0.9658932500E+00  -0.2250000000E-02   0.0000000000E+00   0.1122750000E-02   0.7050000000E-01   0.0000000000E+00  -0.3522950000E-01   0.9125000013E+01   0.1618810095E-09   0.1618654988E-09   0.3168656409E-13  -0.4489702765E-13  -0.3713026176E-14   0.6825000010E-01  -0.3410675005E-01  -0.3410675005E-01  -0.2574261092E-14   0.3127482633E-14  -0.1066971961E-14   0.9125000013E+01
   0.1068250000E+01   0.9658932500E+00   0.9658932500E+00  -0.2250000000E-02   0.1122750000E-02   0.1122750000E-02   0.7050000000E-01  -0.3522950000E-01  -0.3522950000E-01   0.9125000012E+01   0.6477840342E-10   0.6476709566E-10  -0.1020799909E-13  -0.2817311960E-13   0.4960696131E-14   0.6825000009E-01  -0.3410675004E-01  -0.3410675004E-01  -0.7799256446E-15  -0.5089038033E-15  -0.1897515111E-14   0.9125000012E+01
   0.0000000000E+00   0.9658932500E+00   0.9658932500E+00   0.0000000000E+00   0.1122750000E-02   0.1122750000E-02   0.0000000000E+00  -0.3522950000E-01  -0.3522950000E-01   0.9125000012E+01  -0.5014474116E-10  -0.5015491216E-10  -0.3642967991E-13   0.8363201876E-14   0.1042863802E-13   0.6825000009E-01  -0.3410675005E-01  -0.3410675005E-01   0.1323733001E-14  -0.2121709839E-14  -0.2613896797E-14   0.9125000012E+01
   0.2136500000E+01   0.0000000000E+00  -0.4637513651E-14  -0.4500000000E-02   0.0000000000E+00   0.8033710773E-17   0.1410000000E+00   0.0000000000E+00  -0.4645547362E-14   0.9125000014E+01  -0.6012306412E-10  -0.6012065167E-10   0.2292611801E-13   0.3130122047E-13  -0.1358017374E-14   0.6825000010E-01  -0.3410675005E-01  -0.3410675005E-01  -0.2652827276E-14   0.2620706058E-14  -0.2827357184E-14   0.9125000014E+01
   0.2136500000E+01   0.9658932500E+00  -0.6047540506E-14  -0.4500000000E-02   0.1122750000E-02   0.9335524175E-17   0.1410000000E+00  -0.3522950000E-01  -0.6056876030E-14   0.9125000013E+01  -0.1672084116E-09  -0.1672065484E-09  -0.1739661628E-13   0.2073005533E-13   0.5621678810E-15   0.6825000010E-01  -0.3410675005E-01  -0.3410675005E-01  -0.5314721388E-14   0.5477482102E-15   0.6350330941E-15   0.9125000013E+01
   0.2136500000E+01   0.0000000000E+00   0.9658932500E+00  -0.4500000000E-02   0.0000000000E+00   0.1122750000E-02   0.1410000000E+00   0.0000000000E+00  -0.3522950000E-01   0.9125000013E+01  -0.1398428317E-09  -0.1398457230E-09   0.8505513560E-14  -0.8047443283E-14  -0.8796654943E-15   0.6825000010E-01  -0.3410675005E-01  -0.3410675005E-01   0.2134529825E-14  -0.3298571831E-14  -0.8663277394E-15   0.9125000013E+01
   0.2136500000E+01   0.9658932500E+00   0.9658932500E+00  -0.4500000000E-02   0.1122750000E-02   0.1122750000E-02   0.1410000000E+00  -0.3522950000E-01  -0.3522950000E-01   0.9125000012E+01   0.2189621334E-09   0.2189646402E-09  -0.3774872631E-13  -0.1942065652E-13   0.1483472079E-14   0.6825000009E-01  -0.3410675004E-01  -0.3410675004E-01   0.4476585064E-14   0.1827106782E-14   0.2589871697E-14   0.9125000012E+01
     1     2     3     4     5     6     7     8
     2     9    10     3     6    11    12     7
 VARIABLES = X,Y,Z,DU1,DU2,DU3,U1,U2,U3,S11,S22,S33,S12,S13,S23,E11,E22,E33,E12,E13,E23,SMISES
 ZONE, T="0.7200D+01" F=FEPOINT, I=   12 J=    2 ET=BRICK
   0.0000000000E+00   0.0000000000E+00   0.0000000000E+00   0.0000000000E+00   0.0000000000E+00   0.0000000000E+00   0.0000000000E+00   0.0000000000E+00   0.0000000000E+00   0.8000000012E+01  -0.1857808117E-09  -0.1857560741E-09   0.2193536832E-15   0.4826758908E-13  -0.6295550584E-14   0.6600000010E-01  -0.3298400005E-01  -0.3298400005E-01   0.2347269868E-17  -0.5958123965E-14   0.9195555522E-15   0.8000000013E+01
   0.1066000000E+01   0.0000000000E+00  -0.2768324057E-14  -0.2250000000E-02   0.0000000000E+00  -0.1101235191E-16   0.6825000000E-01   0.0000000000E+00  -0.2757311705E-14   0.8000000012E+01   0.7066689999E-10   0.7066926199E-10   0.2081823161E-13  -0.2259181042E-14  -0.7893758681E-14   0.6600000010E-01  -0.3298400005E-01  -0.3298400005E-01   0.7433449837E-15   0.3675059658E-14   0.2271224148E-14   0.8000000012E+01
   0.1066000000E+01   0.9670160000E+00  -0.1634920144E-14  -0.2250000000E-02   0.1122750000E-02  -0.1423189984E-16   0.6825000000E-01  -0.3410675000E-01  -0.1620688244E-14   0.8000000011E+01  -0.1254975442E-09  -0.1254874287E-09  -0.1286925237E-13   0.9538313079E-14   0.2018881865E-14   0.6600000009E-01  -0.3298400005E-01  -0.3298400005E-01  -0.3180508905E-15  -0.1445565938E-14   0.1458472577E-14   0.8000000011E+01
   0.0000000000E+00   0.9670160000E+00   0.4562014147E-15   0.0000000000E+00   0.1122750000E-02  -0.5592219882E-17   0.0000000000E+00  -0.3410675000E-01   0.4617936346E-15   0.8000000011E+01  -0.1562380334E-09  -0.1562134674E-09  -0.2852712812E-13   0.4512986534E-13   0.1137543873E-13   0.6600000010E-01  -0.3298400005E-01  -0.3298400005E-01   0.5482658423E-15  -0.3013316492E-14  -0.1338814699E-14   0.8000000012E+01
   0.0000000000E+00   0.0000000000E+00   0.9670160000E+00   0.0000000000E+00   0.0000000000E+00   0.1122750000E-02   0.0000000000E+00   0.0000000000E+00  -0.3410675000E-01   0.8000000012E+01   0.1917378412E-09   0.1917283192E-09  -0.1087653894E-15   0.4090324382E-14  -0.7254702819E-14   0.6600000010E-01  -0.3298400005E-01  -0.3298400005E-01  -0.1333319222E-17  -0.1163822521E-14  -0.3764933757E-15   0.8000000012E+01
   0.1066000000E+01   0.0000000000E+00   0.9670160000E+00  -0.2250000000E-02   0.0000000000E+00   0.1122750000E-02   0.6825000000E-01   0.0000000000E+00  -0.3410675000E-01   0.8000000012E+01   0.1626963351E-09   0.1626796598E-09   0.3097927295E-13  -0.4308859116E-13  -0.4355292836E-14   0.6600000009E-01  -0.3298400005E-01  -0.3298400005E-01  -0.2580348033E-14   0.3123542504E-14  -0.1085966688E-14   0.8000000011E+01
   0.1066000000E+01   0.9670160000E+00   0.9670160000E+00  -0.2250000000E-02   0.1122750000E-02   0.1122750000E-02   0.6825000000E-01  -0.3410675000E-01  -0.3410675000E-01   0.8000000011E+01   0.6533432413E-10   0.6532151864E-10  -0.1102592005E-13  -0.2874775425E-13   0.5337542333E-14   0.6600000009E-01  -0.3298400004E-01  -0.3298400004E-01  -0.7597942368E-15  -0.5019754555E-15  -0.1872063697E-14   0.8000000010E+01
   0.0000000000E+00   0.9670160000E+00   0.9670160000E+00   0.0000000000E+00   0.1122750000E-02   0.1122750000E-02   0.0000000000E+00  -0.3410675000E-01  -0.3410675000E-01   0.8000000011E+01  -0.4869403571E-10  -0.4870578425E-10  -0.3715012014E-13   0.6833764875E-14   0.1104299517E-13   0.6600000009E-01  -0.3298400004E-01  -0.3298400004E-01   0.1299206923E-14  -0.2154533935E-14  -0.2594859977E-14   0.8000000011E+01
   0.2132000000E+01   0.0000000000E+00  -0.4677061206E-14  -0.4500000000E-02   0.0000000000E+00  -0.3954755514E-16   0.1365000000E+00   0.0000000000E+00  -0.4637513651E-14   0.8000000012E+01  -0.5938933902E-10  -0.5938469085E-10   0.2234894452E-13   0.3085344257E-13  -0.1308912587E-14   0.6600000010E-01  -0.3298400005E-01  -0.3298400005E-01  -0.2607553403E-14   0.2523575129E-14  -0.2816366543E-14   0.8000000012E+01
   0.2132000000E+01   0.9670160000E+00  -0.6086750027E-14  -0.4500000000E-02   0.1122750000E-02  -0.3920952092E-16   0.1365000000E+00  -0.3410675000E-01  -0.6047540506E-14   0.8000000011E+01  -0.1685402395E-09  -0.1685370060E-09  -0.1759637825E-13   0.2069258763E-13   0.1631925261E-14   0.6600000009E-01  -0.3298400005E-01  -0.3298400005E-01  -0.5237082585E-14   0.7073964855E-15   0.6381026859E-15   0.8000000011E+01
   0.2132000000E+01   0.0000000000E+00   0.9670160000E+00  -0.4500000000E-02   0.0000000000E+00   0.1122750000E-02   0.1365000000E+00   0.0000000000E+00  -0.3410675000E-01   0.8000000011E+01  -0.1390252249E-09  -0.1390281624E-09   0.7712001633E-14  -0.7627849578E-14  -0.1396949472E-14   0.6600000009E-01  -0.3298400005E-01  -0.3298400005E-01   0.2118375413E-14  -0.3345067323E-14  -0.8847172436E-15   0.8000000011E+01
   0.2132000000E+01   0.9670160000E+00   0.9670160000E+00  -0.4500000000E-02   0.1122750000E-02   0.1122750000E-02   0.1365000000E+00  -0.3410675000E-01  -0.3410675000E-01   0.8000000010E+01   0.2193641676E-09   0.2193656411E-09  -0.3838001910E-13  -0.1906545137E-13   0.1922879342E-14   0.6600000008E-01  -0.3298400004E-01  -0.3298400004E-01   0.4386788331E-14   0.1734911379E-14   0.2602071122E-14   0.8000000010E+01
     1     2     3     4     5     6     7     8
     2     9    10     3     6    11    12     7
 VARIABLES = X,Y,Z,DU1,DU2,DU3,U1,U2,U3,S11,S22,S33,S12,S13,S23,E11,E22,E33,E12,E13,E23,SMISES
 ZONE, T="0.7250D+01" F=FEPOINT, I=   12 J=    2 ET=BRICK
   0.0000000000E+00   0.0000000000E+00   0.0000000000E+00   0.0000000000E+00   0.0000000000E+00   0.0000000000E+00   0.0000000000E+00   0.0000000000E+00   0.0000000000E+00   0.6875000011E+01  -0.1838808056E-09  -0.1838555347E-09   0.2415811449E-15   0.4896974863E-13  -0.5280108770E-14   0.6375000010E-01  -0.3186125005E-01  -0.3186125005E-01  -0.7055171298E-17  -0.5956476284E-14   0.9014079208E-15   0.6875000011E+01
   0.1063750000E+01   0.0000000000E+00  -0.2761496554E-14  -0.2250000000E-02   0.0000000000E+00   0.6827503107E-17   0.6600000000E-01   0.0000000000E+00  -0.2768324057E-14   0.6875000011E+01   0.7129650055E-10   0.7129748672E-10   0.1781010006E-13  -0.4340123538E-14  -0.7545133156E-14   0.6375000010E-01  -0.3186125005E-01  -0.3186125005E-01   0.7314430675E-15   0.3691723435E-14   0.2274757859E-14   0.6875000011E+01
   0.1063750000E+01   0.9681387500E+00  -0.1625933055E-14  -0.2250000000E-02   0.1122750000E-02   0.8987088706E-17   0.6600000000E-01  -0.3298400000E-01  -0.1634920144E-14   0.6875000010E+01  -0.1244027300E-09  -0.1243930804E-09  -0.1556820710E-13   0.1100712714E-13   0.1435302133E-14   0.6375000009E-01  -0.3186125005E-01  -0.3186125005E-01  -0.3276623200E-15  -0.1525330278E-14   0.1479931637E-14   0.6875000010E+01
   0.0000000000E+00   0.9681387500E+00   0.4623056678E-15   0.0000000000E+00   0.1122750000E-02   0.6104253087E-17   0.0000000000E+00  -0.3298400000E-01   0.4562014147E-15   0.6875000010E+01  -0.1569563888E-09  -0.1569339867E-09  -0.2759055723E-13   0.4504667512E-13   0.1156604296E-13   0.6375000009E-01  -0.3186125005E-01  -0.3186125005E-01   0.5654404167E-15  -0.2989428383E-14  -0.1342418100E-14   0.6875000010E+01
   0.0000000000E+00   0.0000000000E+00   0.9681387500E+00   0.0000000000E+00   0.0000000000E+00   0.1122750000E-02   0.0000000000E+00   0.0000000000E+00  -0.3298400000E-01   0.6875000010E+01   0.1904324489E-09   0.1904242621E-09  -0.1239853606E-15   0.5159639185E-14  -0.6674528000E-14   0.6375000009E-01  -0.3186125005E-01  -0.3186125005E-01  -0.1427727434E-17  -0.1126965769E-14  -0.2874984320E-15   0.6875000010E+01
   0.1063750000E+01   0.0000000000E+00   0.9681387500E+00  -0.2250000000E-02   0.0000000000E+00   0.1122750000E-02   0.6600000000E-01   0.0000000000E+00  -0.3298400000E-01   0.6875000010E+01   0.1621961195E-09   0.1621802351E-09   0.3197939843E-13  -0.4513668635E-13  -0.3775813607E-14   0.6375000009E-01  -0.3186125005E-01  -0.3186125005E-01  -0.2563850646E-14   0.3050665190E-14  -0.1092167990E-14   0.6875000010E+01
   0.1063750000E+01   0.9681387500E+00   0.9681387500E+00  -0.2250000000E-02   0.1122750000E-02   0.1122750000E-02   0.6600000000E-01  -0.3298400000E-01  -0.3298400000E-01   0.6875000009E+01   0.6508216253E-10   0.6507057031E-10  -0.9934407766E-14  -0.2718824932E-13   0.4883498109E-14   0.6375000008E-01  -0.3186125004E-01  -0.3186125004E-01  -0.7621199643E-15  -0.4291069248E-15  -0.1903765985E-14   0.6875000009E+01
   0.0000000000E+00   0.9681387500E+00   0.9681387500E+00   0.0000000000E+00   0.1122750000E-02   0.1122750000E-02   0.0000000000E+00  -0.3298400000E-01  -0.3298400000E-01   0.6875000009E+01  -0.4958754737E-10  -0.4959841570E-10  -0.3637189116E-13   0.7982144707E-14   0.1082946105E-13   0.6375000009E-01  -0.3186125004E-01  -0.3186125004E-01   0.1333339811E-14  -0.2156083649E-14  -0.2627036251E-14   0.6875000009E+01
   0.2127500000E+01   0.0000000000E+00  -0.4651860620E-14  -0.4500000000E-02   0.0000000000E+00   0.2520058586E-16   0.1320000000E+00   0.0000000000E+00  -0.4677061206E-14   0.6875000010E+01  -0.6091602816E-10  -0.6091256352E-10   0.2374992564E-13   0.3189412777E-13  -0.1385774494E-14   0.6375000010E-01  -0.3186125005E-01  -0.3186125005E-01  -0.2636721982E-14   0.2619993559E-14  -0.2823611887E-14   0.6875000010E+01
   0.2127500000E+01   0.9681387500E+00  -0.6062090204E-14  -0.4500000000E-02   0.1122750000E-02   0.2465982230E-16   0.1320000000E+00  -0.3298400000E-01  -0.6086750027E-14   0.6875000009E+01  -0.1667885902E-09  -0.1667869951E-09  -0.1682357160E-13   0.2027346165E-13   0.7717289514E-15   0.6375000009E-01  -0.3186125004E-01  -0.3186125004E-01  -0.5304570412E-14   0.5516149435E-15   0.6288182716E-15   0.6875000010E+01
   0.2127500000E+01   0.0000000000E+00   0.9681387500E+00  -0.4500000000E-02   0.0000000000E+00   0.1122750000E-02   0.1320000000E+00   0.0000000000E+00  -0.3298400000E-01   0.6875000009E+01  -0.1394422792E-09  -0.1394451760E-09   0.8219258123E-14  -0.7563511656E-14  -0.1161435412E-14   0.6375000009E-01  -0.3186125004E-01  -0.3186125004E-01   0.2043450069E-14  -0.3467029506E-14  -0.8468521908E-15   0.6875000010E+01
   0.2127500000E+01   0.9681387500E+00   0.9681387500E+00  -0.4500000000E-02   0.1122750000E-02   0.1122750000E-02   0.1320000000E+00  -0.3298400000E-01  -0.3298400000E-01   0.6875000009E+01   0.2187608905E-09   0.2187633472E-09  -0.3798174031E-13  -0.1994127491E-13   0.1458376844E-14   0.6375000008E-01  -0.3186125004E-01  -0.3186125004E-01   0.4390563981E-14   0.1823703598E-14   0.2628310466E-14   0.6875000009E+01
     1     2     3     4     5     6     7     8
     2     9    10     3     6    11    12     7
 VARIABLES = X,Y,Z,DU1,DU2,DU3,U1,U2,U3,S11,S22,S33,S12,S13,S23,E11,E22,E33,E12,E13,E23,SMISES
 ZONE, T="0.7300D+01" F=FEPOINT, I=   12 J=    2 ET=BRICK
   0.0000000000E+00   0.0000000000E+00   0.0000000000E+00   0.0000000000E+00   0.0000000000E+00   0.0000000000E+00   0.0000000000E+00   0.0000000000E+00   0.0000000000E+00   0.5750000009E+01  -0.1841864646E-09  -0.1841614489E-09   0.2106040038E-15   0.4883051744E-13  -0.5892874718E-14   0.6150000010E-01  -0.3073850005E-01  -0.3073850005E-01  -0.2518431885E-17  -0.5969999087E-14   0.9342073478E-15   0.5750000009E+01
   0.1061500000E+01   0.0000000000E+00  -0.2762500133E-14  -0.2250000000E-02   0.0000000000E+00  -0.1003579415E-17   0.6375000000E-01   0.0000000000E+00  -0.2761496554E-14   0.5750000009E+01   0.7113897161E-10   0.7114066057E-10   0.1845582278E-13  -0.4213936252E-14  -0.7709704545E-14   0.6150000009E-01  -0.3073850005E-01  -0.3073850005E-01   0.7312305382E-15   0.3718755072E-14   0.2261244221E-14   0.5750000009E+01
   0.1061500000E+01   0.9692615000E+00  -0.1627859390E-14  -0.2250000000E-02   0.1122750000E-02  -0.1926335024E-17   0.6375000000E-01  -0.3186125000E-01  -0.1625933055E-14   0.5750000008E+01  -0.1245826624E-09  -0.1245727135E-09  -0.1494100351E-13   0.1072469745E-13   0.1592434313E-14   0.6150000009E-01  -0.3073850004E-01  -0.3073850004E-01  -0.3109921735E-15  -0.1504168597E-14   0.1471105476E-14   0.5750000008E+01
   0.0000000000E+00   0.9692615000E+00   0.4585889543E-15   0.0000000000E+00   0.1122750000E-02  -0.3716713468E-17   0.0000000000E+00  -0.3186125000E-01   0.4623056678E-15   0.5750000008E+01  -0.1564781634E-09  -0.1564550268E-09  -0.2805061771E-13   0.4536445085E-13   0.1121737089E-13   0.6150000009E-01  -0.3073850004E-01  -0.3073850004E-01   0.5423058404E-15  -0.3006728113E-14  -0.1379989505E-14   0.5750000008E+01
   0.0000000000E+00   0.0000000000E+00   0.9692615000E+00   0.0000000000E+00   0.0000000000E+00   0.1122750000E-02   0.0000000000E+00   0.0000000000E+00  -0.3186125000E-01   0.5750000009E+01   0.1904569482E-09   0.1904479903E-09  -0.1031776538E-15   0.5436249843E-14  -0.6733811967E-14   0.6150000009E-01  -0.3073850004E-01  -0.3073850004E-01   0.4322694932E-17  -0.1144683201E-14  -0.3413160759E-15   0.5750000008E+01
   0.1061500000E+01   0.0000000000E+00   0.9692615000E+00  -0.2250000000E-02   0.0000000000E+00   0.1122750000E-02   0.6375000000E-01   0.0000000000E+00  -0.3186125000E-01   0.5750000008E+01   0.1625411371E-09   0.1625258336E-09   0.3158422989E-13  -0.4476168877E-13  -0.4241385434E-14   0.6150000009E-01  -0.3073850004E-01  -0.3073850004E-01  -0.2582139824E-14   0.3073426737E-14  -0.1084558515E-14   0.5750000008E+01
   0.1061500000E+01   0.9692615000E+00   0.9692615000E+00  -0.2250000000E-02   0.1122750000E-02   0.1122750000E-02   0.6375000000E-01  -0.3186125000E-01  -0.3186125000E-01   0.5750000008E+01   0.6464729340E-10   0.6463530171E-10  -0.1012366598E-13  -0.2765599604E-13   0.4658332349E-14   0.6150000008E-01  -0.3073850004E-01  -0.3073850004E-01  -0.7835637621E-15  -0.4942689196E-15  -0.1912821444E-14   0.5750000008E+01
   0.0000000000E+00   0.9692615000E+00   0.9692615000E+00   0.0000000000E+00   0.1122750000E-02   0.1122750000E-02   0.0000000000E+00  -0.3186125000E-01  -0.3186125000E-01   0.5750000008E+01  -0.4937464255E-10  -0.4938500385E-10  -0.3684065822E-13   0.7387522987E-14   0.1108993433E-13   0.6150000008E-01  -0.3073850004E-01  -0.3073850004E-01   0.1310701959E-14  -0.2135951883E-14  -0.2589902863E-14   0.5750000008E+01
   0.2123000000E+01   0.0000000000E+00  -0.4654140248E-14  -0.4500000000E-02   0.0000000000E+00  -0.2279628246E-17   0.1275000000E+00   0.0000000000E+00  -0.4651860620E-14   0.5750000009E+01  -0.6079245609E-10  -0.6078838136E-10   0.2411590802E-13   0.3327681184E-13  -0.1030116117E-14   0.6150000009E-01  -0.3073850005E-01  -0.3073850005E-01  -0.2644852654E-14   0.2637960259E-14  -0.2805522942E-14   0.5750000009E+01
   0.2123000000E+01   0.9692615000E+00  -0.6062347096E-14  -0.4500000000E-02   0.1122750000E-02  -0.2568920915E-18   0.1275000000E+00  -0.3186125000E-01  -0.6062090204E-14   0.5750000008E+01  -0.1669509889E-09  -0.1669497358E-09  -0.1581840526E-13   0.1917006847E-13   0.1563332146E-14   0.6150000009E-01  -0.3073850004E-01  -0.3073850004E-01  -0.5293824579E-14   0.6001305795E-15   0.6131226852E-15   0.5750000008E+01
   0.2123000000E+01   0.0000000000E+00   0.9692615000E+00  -0.4500000000E-02   0.0000000000E+00   0.1122750000E-02   0.1275000000E+00   0.0000000000E+00  -0.3186125000E-01   0.5750000008E+01  -0.1384794158E-09  -0.1384832503E-09   0.6161408477E-14  -0.6542961534E-14  -0.1113534769E-14   0.6150000009E-01  -0.3073850004E-01  -0.3073850004E-01   0.1993447745E-14  -0.3581104604E-14  -0.8707049596E-15   0.5750000008E+01
   0.2123000000E+01   0.9692615000E+00   0.9692615000E+00  -0.4500000000E-02   0.1122750000E-02   0.1122750000E-02   0.1275000000E+00  -0.3186125000E-01  -0.3186125000E-01   0.5750000008E+01   0.2185159879E-09   0.2185174202E-09  -0.3953109376E-13  -0.2065908468E-13   0.2076240650E-14   0.6150000008E-01  -0.3073850004E-01  -0.3073850004E-01   0.4346206713E-14   0.1811832384E-14   0.2631640634E-14   0.5750000007E+01
     1     2     3     4     5     6     7     8
     2     9    10     3     6    11    12     7
 VARIABLES = X,Y,Z,DU1,DU2,DU3,U1,U2,U3,S11,S22,S33,S12,S13,S23,E11,E22,E33,E12,E13,E23,SMISES
 ZONE, T="0.7350D+01" F=FEPOINT, I=   12 J=    2 ET=BRICK
   0.0000000000E+00   0.0000000000E+00   0.0000000000E+00   0.0000000000E+00   0.0000000000E+00   0.0000000000E+00   0.0000000000E+00   0.0000000000E+00   0.0000000000E+00   0.4625000007E+01  -0.1856683329E-09  -0.1856424566E-09   0.2341530725E-15   0.4764930506E-13  -0.6336346966E-14   0.5925000009E-01  -0.2961575005E-01  -0.2961575005E-01  -0.4974661446E-17  -0.5999215887E-14   0.9164566867E-15   0.4625000007E+01
   0.1059250000E+01   0.0000000000E+00  -0.2773305894E-14  -0.2250000000E-02   0.0000000000E+00  -0.1080576112E-16   0.6150000000E-01   0.0000000000E+00  -0.2762500133E-14   0.4625000007E+01   0.7031582912E-10   0.7031777134E-10   0.1892684605E-13  -0.3543369729E-14  -0.8059736471E-14   0.5925000009E-01  -0.2961575005E-01  -0.2961575005E-01   0.7441941823E-15   0.3722423107E-14   0.2271875520E-14   0.4625000007E+01
   0.1059250000E+01   0.9703842500E+00  -0.1640754047E-14  -0.2250000000E-02   0.1122750000E-02  -0.1289465685E-16   0.6150000000E-01  -0.3073850000E-01  -0.1627859390E-14   0.4625000006E+01  -0.1253348395E-09  -0.1253244193E-09  -0.1455406395E-13   0.1110376815E-13   0.1884476729E-14   0.5925000008E-01  -0.2961575004E-01  -0.2961575004E-01  -0.2975739417E-15  -0.1487116881E-14   0.1459215853E-14   0.4625000007E+01
   0.0000000000E+00   0.9703842500E+00   0.4559451615E-15   0.0000000000E+00   0.1122750000E-02  -0.2643792808E-17   0.0000000000E+00  -0.3073850000E-01   0.4585889543E-15   0.4625000007E+01  -0.1575019603E-09  -0.1574782832E-09  -0.2800574192E-13   0.4433137705E-13   0.1162962512E-13   0.5925000009E-01  -0.2961575004E-01  -0.2961575004E-01   0.5460292117E-15  -0.3018125732E-14  -0.1348298034E-14   0.4625000007E+01
   0.0000000000E+00   0.0000000000E+00   0.9703842500E+00   0.0000000000E+00   0.0000000000E+00   0.1122750000E-02   0.0000000000E+00   0.0000000000E+00  -0.3073850000E-01   0.4625000007E+01   0.1915405354E-09   0.1915299674E-09  -0.1228951803E-15   0.4226273538E-14  -0.7068162135E-14   0.5925000009E-01  -0.2961575004E-01  -0.2961575004E-01   0.9106335141E-17  -0.1135712476E-14  -0.3465561377E-15   0.4625000007E+01
   0.1059250000E+01   0.0000000000E+00   0.9703842500E+00  -0.2250000000E-02   0.0000000000E+00   0.1122750000E-02   0.6150000000E-01   0.0000000000E+00  -0.3073850000E-01   0.4625000007E+01   0.1632255296E-09   0.1632092294E-09   0.3188992585E-13  -0.4419155186E-13  -0.4530650858E-14   0.5925000008E-01  -0.2961575004E-01  -0.2961575004E-01  -0.2601584986E-14   0.3082854018E-14  -0.1122204082E-14   0.4625000007E+01
   0.1059250000E+01   0.9703842500E+00   0.9703842500E+00  -0.2250000000E-02   0.1122750000E-02   0.1122750000E-02   0.6150000000E-01  -0.3073850000E-01  -0.3073850000E-01   0.4625000006E+01   0.6540265122E-10   0.6538975901E-10  -0.1011021274E-13  -0.2700701351E-13   0.4969655626E-14   0.5925000008E-01  -0.2961575004E-01  -0.2961575004E-01  -0.7817029345E-15  -0.5051912887E-15  -0.1878446240E-14   0.4625000006E+01
   0.0000000000E+00   0.9703842500E+00   0.9703842500E+00   0.0000000000E+00   0.1122750000E-02   0.1122750000E-02   0.0000000000E+00  -0.3073850000E-01  -0.3073850000E-01   0.4625000006E+01  -0.4799585356E-10  -0.4800708490E-10  -0.3696045519E-13   0.6056158494E-14   0.1153360957E-13   0.5925000008E-01  -0.2961575004E-01  -0.2961575004E-01   0.1312722453E-14  -0.2179156811E-14  -0.2596713100E-14   0.4625000006E+01
   0.2118500000E+01   0.0000000000E+00  -0.4690436840E-14  -0.4500000000E-02   0.0000000000E+00  -0.3629659200E-16   0.1230000000E+00   0.0000000000E+00  -0.4654140248E-14   0.4625000007E+01  -0.6102314190E-10  -0.6101845981E-10   0.2424740247E-13   0.3302901036E-13  -0.1431940479E-14   0.5925000009E-01  -0.2961575004E-01  -0.2961575004E-01  -0.2625676340E-14   0.2638179210E-14  -0.2822337637E-14   0.4625000007E+01
   0.2118500000E+01   0.9703842500E+00  -0.6100979060E-14  -0.4500000000E-02   0.1122750000E-02  -0.3863196336E-16   0.1230000000E+00  -0.3073850000E-01  -0.6062347096E-14   0.4625000006E+01  -0.1672813220E-09  -0.1672789491E-09  -0.1597233924E-13   0.1899840243E-13   0.1714931421E-14   0.5925000008E-01  -0.2961575004E-01  -0.2961575004E-01  -0.5265125286E-14   0.5671916493E-15   0.6447203949E-15   0.4625000006E+01
   0.2118500000E+01   0.0000000000E+00   0.9703842500E+00  -0.4500000000E-02   0.0000000000E+00   0.1122750000E-02   0.1230000000E+00   0.0000000000E+00  -0.3073850000E-01   0.4625000006E+01  -0.1383144441E-09  -0.1383186104E-09   0.6389307760E-14  -0.6933674281E-14  -0.1124826236E-14   0.5925000008E-01  -0.2961575004E-01  -0.2961575004E-01   0.2030007291E-14  -0.3405552666E-14  -0.8492703417E-15   0.4625000006E+01
   0.2118500000E+01   0.9703842500E+00   0.9703842500E+00  -0.4500000000E-02   0.1122750000E-02   0.1122750000E-02   0.1230000000E+00  -0.3073850000E-01  -0.3073850000E-01   0.4625000006E+01   0.2187441820E-09   0.2187456447E-09  -0.3958994119E-13  -0.2055070827E-13   0.2460341739E-14   0.5925000008E-01  -0.2961575004E-01  -0.2961575004E-01   0.4382936112E-14   0.1763519442E-14   0.2582647611E-14   0.4625000006E+01
     1     2     3     4     5     6     7     8
     2     9    10     3     6    11    12     7
 VARIABLES = X,Y,Z,DU1,DU2,DU3,U1,U2,U3,S11,S22,S33,S12,S13,S23,E11,E22,E33,E12,E13,E23,SMISES
 ZONE, T="0.7400D+01" F=FEPOINT, I=   12 J=    2 ET=BRICK
   0.0000000000E+00   0.0000000000E+00   0.0000000000E+00   0.0000000000E+00   0.0000000000E+00   0.0000000000E+00   0.0000000000E+00   0.0000000000E+00   0.0000000000E+00   0.3500000005E+01  -0.1855841627E-09  -0.1855587617E-09   0.2176624484E-15   0.4768472526E-13  -0.6261454692E-14   0.5700000009E-01  -0.2849300004E-01  -0.2849300004E-01  -0.8316964862E-17  -0.5981413471E-14   0.9021694966E-15   0.3500000005E+01
   0.1057000000E+01   0.0000000000E+00  -0.2772428551E-14  -0.2250000000E-02   0.0000000000E+00   0.8773432500E-18   0.5925000000E-01   0.0000000000E+00  -0.2773305894E-14   0.3500000005E+01   0.7051068262E-10   0.7051261395E-10   0.1925795599E-13  -0.3468018425E-14  -0.7917344932E-14   0.5700000009E-01  -0.2849300004E-01  -0.2849300004E-01   0.7669546112E-15   0.3716176912E-14   0.2267967159E-14   0.3500000005E+01
   0.1057000000E+01   0.9715070000E+00  -0.1638912759E-14  -0.2250000000E-02   0.1122750000E-02   0.1841288141E-17   0.5925000000E-01  -0.2961575000E-01  -0.1640754047E-14   0.3500000005E+01  -0.1252289114E-09  -0.1252185724E-09  -0.1428772074E-13   0.1029028855E-13   0.1989359564E-14   0.5700000008E-01  -0.2849300004E-01  -0.2849300004E-01  -0.2960338664E-15  -0.1536299071E-14   0.1471596455E-14   0.3500000005E+01
   0.0000000000E+00   0.9715070000E+00   0.4564901481E-15   0.0000000000E+00   0.1122750000E-02   0.5449866031E-18   0.0000000000E+00  -0.2961575000E-01   0.4559451615E-15   0.3500000005E+01  -0.1570279277E-09  -0.1570046907E-09  -0.2787260303E-13   0.4456434481E-13   0.1128554897E-13   0.5700000008E-01  -0.2849300004E-01  -0.2849300004E-01   0.5517390268E-15  -0.3004448064E-14  -0.1343377582E-14   0.3500000005E+01
   0.0000000000E+00   0.0000000000E+00   0.9715070000E+00   0.0000000000E+00   0.0000000000E+00   0.1122750000E-02   0.0000000000E+00   0.0000000000E+00  -0.2961575000E-01   0.3500000005E+01   0.1914163642E-09   0.1914061956E-09  -0.9030796379E-16   0.4360279496E-14  -0.7031967945E-14   0.5700000008E-01  -0.2849300004E-01  -0.2849300004E-01   0.1270624088E-16  -0.1149063977E-14  -0.3040024706E-15   0.3500000005E+01
   0.1057000000E+01   0.0000000000E+00   0.9715070000E+00  -0.2250000000E-02   0.0000000000E+00   0.1122750000E-02   0.5925000000E-01   0.0000000000E+00  -0.2961575000E-01   0.3500000005E+01   0.1630456405E-09   0.1630296437E-09   0.3138960713E-13  -0.4400376784E-13  -0.4175424266E-14   0.5700000008E-01  -0.2849300004E-01  -0.2849300004E-01  -0.2617220252E-14   0.3113125608E-14  -0.1111700992E-14   0.3500000005E+01
   0.1057000000E+01   0.9715070000E+00   0.9715070000E+00  -0.2250000000E-02   0.1122750000E-02   0.1122750000E-02   0.5925000000E-01  -0.2961575000E-01  -0.2961575000E-01   0.3500000005E+01   0.6572993728E-10   0.6571727800E-10  -0.1045418117E-13  -0.2763579326E-13   0.5219815165E-14   0.5700000007E-01  -0.2849300004E-01  -0.2849300004E-01  -0.7794740331E-15  -0.5166766773E-15  -0.1896232128E-14   0.3500000005E+01
   0.0000000000E+00   0.9715070000E+00   0.9715070000E+00   0.0000000000E+00   0.1122750000E-02   0.1122750000E-02   0.0000000000E+00  -0.2961575000E-01  -0.2961575000E-01   0.3500000005E+01  -0.4867926911E-10  -0.4869006579E-10  -0.3645420866E-13   0.6782906690E-14   0.1113315137E-13   0.5700000008E-01  -0.2849300004E-01  -0.2849300004E-01   0.1311765044E-14  -0.2166284833E-14  -0.2608330677E-14   0.3500000005E+01
   0.2114000000E+01   0.0000000000E+00  -0.4685867689E-14  -0.4500000000E-02   0.0000000000E+00   0.4569151343E-17   0.1185000000E+00   0.0000000000E+00  -0.4690436840E-14   0.3500000005E+01  -0.6095386404E-10  -0.6094939456E-10   0.2355891655E-13   0.3271921691E-13  -0.1690718599E-14   0.5700000009E-01  -0.2849300004E-01  -0.2849300004E-01  -0.2677528604E-14   0.2645301067E-14  -0.2826298786E-14   0.3500000005E+01
   0.2114000000E+01   0.9715070000E+00  -0.6097874813E-14  -0.4500000000E-02   0.1122750000E-02   0.3104246934E-17   0.1185000000E+00  -0.2961575000E-01  -0.6100979060E-14   0.3500000005E+01  -0.1678332264E-09  -0.1678305759E-09  -0.1678086834E-13   0.2004044045E-13   0.1282979225E-14   0.5700000008E-01  -0.2849300004E-01  -0.2849300004E-01  -0.5266237885E-14   0.6249019990E-15   0.6384825434E-15   0.3500000005E+01
   0.2114000000E+01   0.0000000000E+00   0.9715070000E+00  -0.4500000000E-02   0.0000000000E+00   0.1122750000E-02   0.1185000000E+00   0.0000000000E+00  -0.2961575000E-01   0.3500000005E+01  -0.1389483588E-09  -0.1389523179E-09   0.7986552178E-14  -0.7737158927E-14  -0.1255478575E-14   0.5700000008E-01  -0.2849300004E-01  -0.2849300004E-01   0.2078782220E-14  -0.3473993135E-14  -0.8559745810E-15   0.3500000005E+01
   0.2114000000E+01   0.9715070000E+00   0.9715070000E+00  -0.4500000000E-02   0.1122750000E-02   0.1122750000E-02   0.1185000000E+00  -0.2961575000E-01  -0.2961575000E-01   0.3500000005E+01   0.2196280850E-09   0.2196302451E-09  -0.3828226842E-13  -0.1926055219E-13   0.2132982526E-14   0.5700000007E-01  -0.2849300004E-01  -0.2849300004E-01   0.4319023547E-14   0.1814858224E-14   0.2585565120E-14   0.3500000004E+01
     1     2     3     4     5     6     7     8
     2     9    10     3     6    11    12     7
 VARIABLES = X,Y,Z,DU1,DU2,DU3,U1,U2,U3,S11,S22,S33,S12,S13,S23,E11,E22,E33,E12,E13,E23,SMISES
 ZONE, T="0.7450D+01" F=FEPOINT, I=   12 J=    2 ET=BRICK
   0.0000000000E+00   0.0000000000E+00   0.0000000000E+00   0.0000000000E+00   0.0000000000E+00   0.0000000000E+00   0.0000000000E+00   0.0000000000E+00   0.0000000000E+00   0.2375000004E+01  -0.1851456862E-09  -0.1851201248E-09   0.2141569713E-15   0.4836291409E-13  -0.6059034884E-14   0.5475000009E-01  -0.2737025004E-01  -0.2737025004E-01   0.3935445977E-17  -0.5978829249E-14   0.9188208990E-15   0.2375000004E+01
   0.1054750000E+01   0.0000000000E+00  -0.2767766235E-14  -0.2250000000E-02   0.0000000000E+00   0.4662316388E-17   0.5700000000E-01   0.0000000000E+00  -0.2772428551E-14   0.2375000004E+01   0.7068622887E-10   0.7068800582E-10   0.1885494102E-13  -0.3842745957E-14  -0.7980241718E-14   0.5475000008E-01  -0.2737025004E-01  -0.2737025004E-01   0.7333028246E-15   0.3754562274E-14   0.2267567118E-14   0.2375000004E+01
   0.1054750000E+01   0.9726297500E+00  -0.1634743660E-14  -0.2250000000E-02   0.1122750000E-02   0.4169098758E-17   0.5700000000E-01  -0.2849300000E-01  -0.1638912759E-14   0.2375000003E+01  -0.1249334533E-09  -0.1249231854E-09  -0.1475732674E-13   0.1069601261E-13   0.1775073186E-14   0.5475000008E-01  -0.2737025004E-01  -0.2737025004E-01  -0.2937239808E-15  -0.1581367866E-14   0.1463586254E-14   0.2375000003E+01
   0.0000000000E+00   0.9726297500E+00   0.4577006200E-15   0.0000000000E+00   0.1122750000E-02   0.1210471888E-17   0.0000000000E+00  -0.2849300000E-01   0.4564901481E-15   0.2375000003E+01  -0.1568958967E-09  -0.1568725409E-09  -0.2785845639E-13   0.4473324236E-13   0.1137007484E-13   0.5475000008E-01  -0.2737025004E-01  -0.2737025004E-01   0.5368007098E-15  -0.2985071831E-14  -0.1353086773E-14   0.2375000003E+01
   0.0000000000E+00   0.0000000000E+00   0.9726297500E+00   0.0000000000E+00   0.0000000000E+00   0.1122750000E-02   0.0000000000E+00   0.0000000000E+00  -0.2849300000E-01   0.2375000004E+01   0.1910988682E-09   0.1910890812E-09  -0.8371904818E-16   0.4623578759E-14  -0.6919353896E-14   0.5475000008E-01  -0.2737025004E-01  -0.2737025004E-01   0.8637100649E-17  -0.1145027501E-14  -0.3505555183E-15   0.2375000003E+01
   0.1054750000E+01   0.0000000000E+00   0.9726297500E+00  -0.2250000000E-02   0.0000000000E+00   0.1122750000E-02   0.5700000000E-01   0.0000000000E+00  -0.2849300000E-01   0.2375000004E+01   0.1628138263E-09   0.1627976879E-09   0.3150453702E-13  -0.4428083580E-13  -0.4137069302E-14   0.5475000008E-01  -0.2737025004E-01  -0.2737025004E-01  -0.2613521025E-14   0.3062797237E-14  -0.1095132605E-14   0.2375000003E+01
   0.1054750000E+01   0.9726297500E+00   0.9726297500E+00  -0.2250000000E-02   0.1122750000E-02   0.1122750000E-02   0.5700000000E-01  -0.2849300000E-01  -0.2849300000E-01   0.2375000003E+01   0.6540125297E-10   0.6538859642E-10  -0.1028644903E-13  -0.2741211328E-13   0.5163243591E-14   0.5475000007E-01  -0.2737025004E-01  -0.2737025004E-01  -0.7988097321E-15  -0.4745095244E-15  -0.1894719055E-14   0.2375000003E+01
   0.0000000000E+00   0.9726297500E+00   0.9726297500E+00   0.0000000000E+00   0.1122750000E-02   0.1122750000E-02   0.0000000000E+00  -0.2849300000E-01  -0.2849300000E-01   0.2375000003E+01  -0.4886968537E-10  -0.4888017266E-10  -0.3643366200E-13   0.6883792556E-14   0.1120036982E-13   0.5475000007E-01  -0.2737025004E-01  -0.2737025004E-01   0.1319976744E-14  -0.2158795096E-14  -0.2586982558E-14   0.2375000003E+01
   0.2109500000E+01   0.0000000000E+00  -0.4673110903E-14  -0.4500000000E-02   0.0000000000E+00   0.1275678653E-16   0.1140000000E+00   0.0000000000E+00  -0.4685867689E-14   0.2375000004E+01  -0.6095535112E-10  -0.6095132510E-10   0.2380955764E-13   0.3311990057E-13  -0.1538163879E-14   0.5475000008E-01  -0.2737025004E-01  -0.2737025004E-01  -0.2660032782E-14   0.2607869985E-14  -0.2813678396E-14   0.2375000004E+01
   0.2109500000E+01   0.9726297500E+00  -0.6084107944E-14  -0.4500000000E-02   0.1122750000E-02   0.1376686889E-16   0.1140000000E+00  -0.2849300000E-01  -0.6097874813E-14   0.2375000003E+01  -0.1673976011E-09  -0.1673950640E-09  -0.1639091407E-13   0.1947693869E-13   0.1302580866E-14   0.5475000008E-01  -0.2737025004E-01  -0.2737025004E-01  -0.5319192879E-14   0.6301831661E-15   0.6236088744E-15   0.2375000003E+01
   0.2109500000E+01   0.0000000000E+00   0.9726297500E+00  -0.4500000000E-02   0.0000000000E+00   0.1122750000E-02   0.1140000000E+00   0.0000000000E+00  -0.2849300000E-01   0.2375000003E+01  -0.1390095043E-09  -0.1390133142E-09   0.7722933725E-14  -0.7889759523E-14  -0.1102264174E-14   0.5475000008E-01  -0.2737025004E-01  -0.2737025004E-01   0.2033023980E-14  -0.3480317025E-14  -0.8785778567E-15   0.2375000003E+01
   0.2109500000E+01   0.9726297500E+00   0.9726297500E+00  -0.4500000000E-02   0.1122750000E-02   0.1122750000E-02   0.1140000000E+00  -0.2849300000E-01  -0.2849300000E-01   0.2375000003E+01   0.2191381167E-09   0.2191403316E-09  -0.3868681040E-13  -0.1951605207E-13   0.2076305307E-14   0.5475000007E-01  -0.2737025004E-01  -0.2737025004E-01   0.4375412865E-14   0.1901773330E-14   0.2623564885E-14   0.2375000003E+01
     1     2     3     4     5     6     7     8
     2     9    10     3     6    11    12     7
 VARIABLES = X,Y,Z,DU1,DU2,DU3,U1,U2,U3,S11,S22,S33,S12,S13,S23,E11,E22,E33,E12,E13,E23,SMISES
 ZONE, T="0.7500D+01" F=FEPOINT, I=   12 J=    2 ET=BRICK
   0.0000000000E+00   0.0000000000E+00   0.0000000000E+00   0.0000000000E+00   0.0000000000E+00   0.0000000000E+00   0.0000000000E+00   0.0000000000E+00   0.0000000000E+00   0.1250000002E+01  -0.1852993673E-09  -0.1852740125E-09   0.1954919366E-15   0.4842322717E-13  -0.6109063309E-14   0.5250000008E-01  -0.2624750004E-01  -0.2624750004E-01  -0.1682908665E-17  -0.5959959655E-14   0.9179684299E-15   0.1250000002E+01
   0.1052500000E+01   0.0000000000E+00  -0.2768001848E-14  -0.2250000000E-02   0.0000000000E+00  -0.2356133545E-18   0.5475000000E-01   0.0000000000E+00  -0.2767766235E-14   0.1250000002E+01   0.7058327121E-10   0.7058485758E-10   0.1933521069E-13  -0.3813501167E-14  -0.8020189133E-14   0.5250000008E-01  -0.2624750004E-01  -0.2624750004E-01   0.7653845708E-15   0.3715697096E-14   0.2272300161E-14   0.1250000002E+01
   0.1052500000E+01   0.9737525000E+00  -0.1635146360E-14  -0.2250000000E-02   0.1122750000E-02  -0.4027004479E-18   0.5475000000E-01  -0.2737025000E-01  -0.1634743660E-14   0.1250000002E+01  -0.1249864934E-09  -0.1249762015E-09  -0.1442725428E-13   0.1056035048E-13   0.1744634714E-14   0.5250000007E-01  -0.2624750004E-01  -0.2624750004E-01  -0.2859162757E-15  -0.1549364066E-14   0.1467864676E-14   0.1250000002E+01
   0.0000000000E+00   0.9737525000E+00   0.4574624609E-15   0.0000000000E+00   0.1122750000E-02  -0.2381591043E-18   0.0000000000E+00  -0.2737025000E-01   0.4577006200E-15   0.1250000002E+01  -0.1567048366E-09  -0.1566815784E-09  -0.2784928504E-13   0.4474983512E-13   0.1134863117E-13   0.5250000008E-01  -0.2624750004E-01  -0.2624750004E-01   0.5441631906E-15  -0.2995976535E-14  -0.1360418817E-14   0.1250000002E+01
   0.0000000000E+00   0.0000000000E+00   0.9737525000E+00   0.0000000000E+00   0.0000000000E+00   0.1122750000E-02   0.0000000000E+00   0.0000000000E+00  -0.2737025000E-01   0.1250000002E+01   0.1911204805E-09   0.1911104628E-09  -0.1022788423E-15   0.4621491399E-14  -0.6880729019E-14   0.5250000008E-01  -0.2624750004E-01  -0.2624750004E-01   0.2131217942E-17  -0.1142729807E-14  -0.3269771295E-15   0.1250000002E+01
   0.1052500000E+01   0.0000000000E+00   0.9737525000E+00  -0.2250000000E-02   0.0000000000E+00   0.1122750000E-02   0.5475000000E-01   0.0000000000E+00  -0.2737025000E-01   0.1250000002E+01   0.1628727384E-09   0.1628565408E-09   0.3159295186E-13  -0.4402511137E-13  -0.4072808239E-14   0.5250000007E-01  -0.2624750004E-01  -0.2624750004E-01  -0.2614015353E-14   0.3091528823E-14  -0.1107685956E-14   0.1250000002E+01
   0.1052500000E+01   0.9737525000E+00   0.9737525000E+00  -0.2250000000E-02   0.1122750000E-02   0.1122750000E-02   0.5475000000E-01  -0.2737025000E-01  -0.2737025000E-01   0.1250000002E+01   0.6545605076E-10   0.6544340536E-10  -0.1018580180E-13  -0.2787385885E-13   0.5141662558E-14   0.5250000007E-01  -0.2624750003E-01  -0.2624750003E-01  -0.7822818617E-15  -0.4911045377E-15  -0.1889125192E-14   0.1250000002E+01
   0.0000000000E+00   0.9737525000E+00   0.9737525000E+00   0.0000000000E+00   0.1122750000E-02   0.1122750000E-02   0.0000000000E+00  -0.2737025000E-01  -0.2737025000E-01   0.1250000002E+01  -0.4880120036E-10  -0.4881179001E-10  -0.3658797357E-13   0.7042049669E-14   0.1121880618E-13   0.5250000007E-01  -0.2624750004E-01  -0.2624750004E-01   0.1316285590E-14  -0.2191658181E-14  -0.2601878789E-14   0.1250000002E+01
   0.2105000000E+01   0.0000000000E+00  -0.4676362489E-14  -0.4500000000E-02   0.0000000000E+00  -0.3251586804E-17   0.1095000000E+00   0.0000000000E+00  -0.4673110903E-14   0.1250000002E+01  -0.6087970755E-10  -0.6087516410E-10   0.2396147782E-13   0.3311064325E-13  -0.1379423603E-14   0.5250000008E-01  -0.2624750004E-01  -0.2624750004E-01  -0.2671051650E-14   0.2655079085E-14  -0.2816147351E-14   0.1250000002E+01
   0.2105000000E+01   0.9737525000E+00  -0.6086289688E-14  -0.4500000000E-02   0.1122750000E-02  -0.2181744047E-17   0.1095000000E+00  -0.2737025000E-01  -0.6084107944E-14   0.1250000002E+01  -0.1677831741E-09  -0.1677807539E-09  -0.1623508643E-13   0.1943937592E-13   0.1593310572E-14   0.5250000007E-01  -0.2624750004E-01  -0.2624750004E-01  -0.5316969132E-14   0.5551152252E-15   0.6307373393E-15   0.1250000002E+01
   0.2105000000E+01   0.0000000000E+00   0.9737525000E+00  -0.4500000000E-02   0.0000000000E+00   0.1122750000E-02   0.1095000000E+00   0.0000000000E+00  -0.2737025000E-01   0.1250000002E+01  -0.1387304422E-09  -0.1387340694E-09   0.7505142637E-14  -0.7587531790E-14  -0.1265344675E-14   0.5250000007E-01  -0.2624750004E-01  -0.2624750004E-01   0.2039993020E-14  -0.3397539501E-14  -0.8574185802E-15   0.1250000002E+01
   0.2105000000E+01   0.9737525000E+00   0.9737525000E+00  -0.4500000000E-02   0.1122750000E-02   0.1122750000E-02   0.1095000000E+00  -0.2737025000E-01  -0.2737025000E-01   0.1250000002E+01   0.2191449015E-09   0.2191469338E-09  -0.3876466678E-13  -0.1932991054E-13   0.2067664791E-14   0.5250000007E-01  -0.2624750003E-01  -0.2624750003E-01   0.4395638671E-14   0.1791674141E-14   0.2593452741E-14   0.1250000002E+01
     1     2     3     4     5     6     7     8
     2     9    10     3     6    11    12     7
 VARIABLES = X,Y,Z,DU1,DU2,DU3,U1,U2,U3,S11,S22,S33,S12,S13,S23,E11,E22,E33,E12,E13,E23,SMISES
 ZONE, T="0.7550D+01" F=FEPOINT, I=   12 J=    2 ET=BRICK
   0.0000000000E+00   0.0000000000E+00   0.0000000000E+00   0.0000000000E+00   0.0000000000E+00   0.0000000000E+00   0.0000000000E+00   0.0000000000E+00   0.0000000000E+00   0.1250000000E+00  -0.1851233120E-09  -0.1850978224E-09   0.2151676975E-15   0.4844053702E-13  -0.6008330621E-14   0.5025000008E-01  -0.2512475004E-01  -0.2512475004E-01  -0.1206053848E-16  -0.5990628254E-14   0.9159033583E-15   0.1250000002E+00
   0.1050250000E+01   0.0000000000E+00  -0.2767655398E-14  -0.2250000000E-02   0.0000000000E+00   0.3464496837E-18   0.5250000000E-01   0.0000000000E+00  -0.2768001848E-14   0.1250000003E+00   0.7065393323E-10   0.7065548649E-10   0.1900545193E-13  -0.4129708714E-14  -0.7981612868E-14   0.5025000008E-01  -0.2512475004E-01  -0.2512475004E-01   0.7863843663E-15   0.3766134966E-14   0.2266503163E-14   0.1250000002E+00
   0.1050250000E+01   0.9748752500E+00  -0.1634598606E-14  -0.2250000000E-02   0.1122750000E-02   0.5477547331E-18   0.5250000000E-01  -0.2624750000E-01  -0.1635146360E-14   0.1250000001E+00  -0.1248872794E-09  -0.1248771106E-09  -0.1476689587E-13   0.1074213978E-13   0.1683398712E-14   0.5025000007E-01  -0.2512475004E-01  -0.2512475004E-01  -0.2709232148E-15  -0.1537268452E-14   0.1472541544E-14   0.1250000002E+00
   0.0000000000E+00   0.9748752500E+00   0.4579511059E-15   0.0000000000E+00   0.1122750000E-02   0.4886450176E-18   0.0000000000E+00  -0.2624750000E-01   0.4574624609E-15   0.1250000000E+00  -0.1568803884E-09  -0.1568571487E-09  -0.2773452045E-13   0.4467648935E-13   0.1137836889E-13   0.5025000007E-01  -0.2512475004E-01  -0.2512475004E-01   0.5461875454E-15  -0.2998683501E-14  -0.1351829809E-14   0.1250000002E+00
   0.0000000000E+00   0.0000000000E+00   0.9748752500E+00   0.0000000000E+00   0.0000000000E+00   0.1122750000E-02   0.0000000000E+00   0.0000000000E+00  -0.2624750000E-01   0.1250000004E+00   0.1909159796E-09   0.1909060133E-09  -0.1048861705E-15   0.4682979526E-14  -0.6877039021E-14   0.5025000007E-01  -0.2512475004E-01  -0.2512475004E-01   0.7029570854E-17  -0.1153330929E-14  -0.3191409825E-15   0.1250000002E+00
   0.1050250000E+01   0.0000000000E+00   0.9748752500E+00  -0.2250000000E-02   0.0000000000E+00   0.1122750000E-02   0.5250000000E-01   0.0000000000E+00  -0.2624750000E-01   0.1250000003E+00   0.1628962037E-09   0.1628802637E-09   0.3176071104E-13  -0.4415305730E-13  -0.4093686585E-14   0.5025000007E-01  -0.2512475004E-01  -0.2512475004E-01  -0.2629299309E-14   0.3128579575E-14  -0.1099863237E-14   0.1250000002E+00
   0.1050250000E+01   0.9748752500E+00   0.9748752500E+00  -0.2250000000E-02   0.1122750000E-02   0.1122750000E-02   0.5250000000E-01  -0.2624750000E-01  -0.2624750000E-01   0.1250000002E+00   0.6539991903E-10   0.6538741278E-10  -0.9970225173E-14  -0.2781405043E-13   0.4939982529E-14   0.5025000007E-01  -0.2512475003E-01  -0.2512475003E-01  -0.8170519119E-15  -0.5049247655E-15  -0.1894453169E-14   0.1250000002E+00
   0.0000000000E+00   0.9748752500E+00   0.9748752500E+00   0.0000000000E+00   0.1122750000E-02   0.1122750000E-02   0.0000000000E+00  -0.2624750000E-01  -0.2624750000E-01   0.1250000001E+00  -0.4881599216E-10  -0.4882665138E-10  -0.3665527528E-13   0.7095030557E-14   0.1119626553E-13   0.5025000007E-01  -0.2512475003E-01  -0.2512475003E-01   0.1336685550E-14  -0.2167540786E-14  -0.2610267843E-14   0.1250000002E+00
   0.2100500000E+01   0.0000000000E+00  -0.4674547667E-14  -0.4500000000E-02   0.0000000000E+00   0.1814822078E-17   0.1050000000E+00   0.0000000000E+00  -0.4676362489E-14   0.1250000001E+00  -0.6107445016E-10  -0.6106961904E-10   0.2424408805E-13   0.3338334913E-13  -0.1331083336E-14   0.5025000008E-01  -0.2512475004E-01  -0.2512475004E-01  -0.2667177271E-14   0.2576270445E-14  -0.2814980595E-14   0.1250000002E+00
   0.2100500000E+01   0.9748752500E+00  -0.6084282451E-14  -0.4500000000E-02   0.1122750000E-02   0.2007236922E-17   0.1050000000E+00  -0.2624750000E-01  -0.6086289688E-14   0.1250000000E+00  -0.1676230918E-09  -0.1676206549E-09  -0.1613217880E-13   0.1906400253E-13   0.1611023219E-14   0.5025000007E-01  -0.2512475004E-01  -0.2512475004E-01  -0.5329338836E-14   0.6055392991E-15   0.6268241662E-15   0.1250000002E+00
   0.2100500000E+01   0.0000000000E+00   0.9748752500E+00  -0.4500000000E-02   0.0000000000E+00   0.1122750000E-02   0.1050000000E+00   0.0000000000E+00  -0.2624750000E-01   0.1250000000E+00  -0.1384214380E-09  -0.1384250023E-09   0.7221911045E-14  -0.7402333569E-14  -0.1317228944E-14   0.5025000007E-01  -0.2512475004E-01  -0.2512475004E-01   0.2045022544E-14  -0.3469505370E-14  -0.8711738627E-15   0.1250000002E+00
   0.2100500000E+01   0.9748752500E+00   0.9748752500E+00  -0.4500000000E-02   0.1122750000E-02   0.1122750000E-02   0.1050000000E+00  -0.2624750000E-01  -0.2624750000E-01   0.1250000004E+00   0.2190506837E-09   0.2190524910E-09  -0.3887019310E-13  -0.1980824762E-13   0.2095527041E-14   0.5025000006E-01  -0.2512475003E-01  -0.2512475003E-01   0.4392463522E-14   0.1890927841E-14   0.2624879932E-14   0.1250000002E+00
     1     2     3     4     5     6     7     8
     2     9    10     3     6    11    12     7
 VARIABLES = X,Y,Z,DU1,DU2,DU3,U1,U2,U3,S11,S22,S33,S12,S13,S23,E11,E22,E33,E12,E13,E23,SMISES
 ZONE, T="0.7600D+01" F=FEPOINT, I=   12 J=    2 ET=BRICK
   0.0000000000E+00   0.0000000000E+00   0.0000000000E+00   0.0000000000E+00   0.0000000000E+00   0.0000000000E+00   0.0000000000E+00   0.0000000000E+00   0.0000000000E+00  -0.1000000002E+01  -0.1851875635E-09  -0.1851621137E-09   0.2327264625E-15   0.4850486458E-13  -0.6012513013E-14   0.4800000008E-01  -0.2400200004E-01  -0.2400200004E-01  -0.1763226139E-17  -0.5961323095E-14   0.9138121060E-15   0.1000000002E+01
   0.1048000000E+01   0.0000000000E+00  -0.2767343179E-14  -0.2250000000E-02   0.0000000000E+00   0.3122190162E-18   0.5025000000E-01   0.0000000000E+00  -0.2767655398E-14  -0.1000000001E+01   0.7067170568E-10   0.7067336008E-10   0.1903279231E-13  -0.4107346853E-14  -0.8018389705E-14   0.4800000007E-01  -0.2400200004E-01  -0.2400200004E-01   0.7579172183E-15   0.3729696781E-14   0.2263470004E-14   0.1000000002E+01
   0.1048000000E+01   0.9759980000E+00  -0.1634624729E-14  -0.2250000000E-02   0.1122750000E-02  -0.2612326909E-19   0.5025000000E-01  -0.2512475000E-01  -0.1634598606E-14  -0.1000000002E+01  -0.1249080363E-09  -0.1248976875E-09  -0.1467940740E-13   0.1078736633E-13   0.1719017196E-14   0.4800000007E-01  -0.2400200003E-01  -0.2400200003E-01  -0.2858864710E-15  -0.1544500741E-14   0.1458474215E-14   0.1000000001E+01
   0.0000000000E+00   0.9759980000E+00   0.4579234507E-15   0.0000000000E+00   0.1122750000E-02  -0.2765522152E-19   0.0000000000E+00  -0.2512475000E-01   0.4579511059E-15  -0.1000000002E+01  -0.1567971421E-09  -0.1567739165E-09  -0.2778930517E-13   0.4458918859E-13   0.1137685247E-13   0.4800000007E-01  -0.2400200003E-01  -0.2400200003E-01   0.5391456867E-15  -0.2996892683E-14  -0.1348655736E-14   0.1000000001E+01
   0.0000000000E+00   0.0000000000E+00   0.9759980000E+00   0.0000000000E+00   0.0000000000E+00   0.1122750000E-02   0.0000000000E+00   0.0000000000E+00  -0.2512475000E-01  -0.1000000001E+01   0.1909343912E-09   0.1909243691E-09  -0.1056133119E-15   0.4763085530E-14  -0.6850232832E-14   0.4800000007E-01  -0.2400200003E-01  -0.2400200003E-01  -0.5684884193E-17  -0.1167951629E-14  -0.3316266023E-15   0.1000000001E+01
   0.1048000000E+01   0.0000000000E+00   0.9759980000E+00  -0.2250000000E-02   0.0000000000E+00   0.1122750000E-02   0.5025000000E-01   0.0000000000E+00  -0.2512475000E-01  -0.1000000001E+01   0.1629314026E-09   0.1629153275E-09   0.3179699075E-13  -0.4405555728E-13  -0.4147650432E-14   0.4800000007E-01  -0.2400200003E-01  -0.2400200003E-01  -0.2600333151E-14   0.3143460380E-14  -0.1081459879E-14   0.1000000001E+01
   0.1048000000E+01   0.9759980000E+00   0.9759980000E+00  -0.2250000000E-02   0.1122750000E-02   0.1122750000E-02   0.5025000000E-01  -0.2512475000E-01  -0.2512475000E-01  -0.1000000001E+01   0.6545087215E-10   0.6543808017E-10  -0.9991654683E-14  -0.2777427369E-13   0.5102569677E-14   0.4800000006E-01  -0.2400200003E-01  -0.2400200003E-01  -0.8066609889E-15  -0.5068586939E-15  -0.1914393069E-14   0.1000000001E+01
   0.0000000000E+00   0.9759980000E+00   0.9759980000E+00   0.0000000000E+00   0.1122750000E-02   0.1122750000E-02   0.0000000000E+00  -0.2512475000E-01  -0.2512475000E-01  -0.1000000001E+01  -0.4883987035E-10  -0.4885051569E-10  -0.3654405222E-13   0.7061968118E-14   0.1121135637E-13   0.4800000006E-01  -0.2400200003E-01  -0.2400200003E-01   0.1326781814E-14  -0.2181862085E-14  -0.2596136986E-14   0.1000000001E+01
   0.2096000000E+01   0.0000000000E+00  -0.4673372241E-14  -0.4500000000E-02   0.0000000000E+00   0.1175426197E-17   0.1005000000E+00   0.0000000000E+00  -0.4674547667E-14  -0.1000000002E+01  -0.6097124543E-10  -0.6096675359E-10   0.2429932574E-13   0.3347621612E-13  -0.1337891771E-14   0.4800000007E-01  -0.2400200004E-01  -0.2400200004E-01  -0.2634586531E-14   0.2654584457E-14  -0.2805997482E-14   0.1000000002E+01
   0.2096000000E+01   0.9759980000E+00  -0.6083160983E-14  -0.4500000000E-02   0.1122750000E-02   0.1121467693E-17   0.1005000000E+00  -0.2512475000E-01  -0.6084282451E-14  -0.1000000002E+01  -0.1676360846E-09  -0.1676336272E-09  -0.1591604625E-13   0.1923375419E-13   0.1453725094E-14   0.4800000007E-01  -0.2400200003E-01  -0.2400200003E-01  -0.5270831653E-14   0.5702955192E-15   0.6267138102E-15   0.1000000001E+01
   0.2096000000E+01   0.0000000000E+00   0.9759980000E+00  -0.4500000000E-02   0.0000000000E+00   0.1122750000E-02   0.1005000000E+00   0.0000000000E+00  -0.2512475000E-01  -0.1000000002E+01  -0.1386375681E-09  -0.1386412213E-09   0.7318346297E-14  -0.7861080901E-14  -0.1103323509E-14   0.4800000007E-01  -0.2400200003E-01  -0.2400200003E-01   0.2049230207E-14  -0.3439232535E-14  -0.8798989132E-15   0.1000000001E+01
   0.2096000000E+01   0.9759980000E+00   0.9759980000E+00  -0.4500000000E-02   0.1122750000E-02   0.1122750000E-02   0.1005000000E+00  -0.2512475000E-01  -0.2512475000E-01  -0.1000000001E+01   0.2190162782E-09   0.2190186465E-09  -0.3902704482E-13  -0.1924466472E-13   0.2156234147E-14   0.4800000006E-01  -0.2400200003E-01  -0.2400200003E-01   0.4395672584E-14   0.1807926080E-14   0.2592921706E-14   0.1000000001E+01
     1     2     3     4     5     6     7     8
     2     9    10     3     6    11    12     7
 VARIABLES = X,Y,Z,DU1,DU2,DU3,U1,U2,U3,S11,S22,S33,S12,S13,S23,E11,E22,E33,E12,E13,E23,SMISES
 ZONE, T="0.7650D+01" F=FEPOINT, I=   12 J=    2 ET=BRICK
   0.0000000000E+00   0.0000000000E+00   0.0000000000E+00   0.0000000000E+00   0.0000000000E+00   0.0000000000E+00   0.0000000000E+00   0.0000000000E+00   0.0000000000E+00  -0.2125000004E+01  -0.1852440492E-09  -0.1852187267E-09   0.2238804583E-15   0.4844111510E-13  -0.6014179574E-14   0.4575000007E-01  -0.2287925004E-01  -0.2287925004E-01  -0.7820938767E-17  -0.5962784219E-14   0.9300009713E-15   0.2125000003E+01
   0.1045750000E+01   0.0000000000E+00  -0.2767575904E-14  -0.2250000000E-02   0.0000000000E+00  -0.2327247290E-18   0.4800000000E-01   0.0000000000E+00  -0.2767343179E-14  -0.2125000003E+01   0.7070261986E-10   0.7070438465E-10   0.1876928837E-13  -0.4292667868E-14  -0.7925315142E-14   0.4575000007E-01  -0.2287925004E-01  -0.2287925004E-01   0.7602580670E-15   0.3699945979E-14   0.2262940968E-14   0.2125000003E+01
   0.1045750000E+01   0.9771207500E+00  -0.1634199268E-14  -0.2250000000E-02   0.1122750000E-02   0.4254605510E-18   0.4800000000E-01  -0.2400200000E-01  -0.1634624729E-14  -0.2125000003E+01  -0.1250051313E-09  -0.1249952121E-09  -0.1502200998E-13   0.1088228441E-13   0.1820958517E-14   0.4575000007E-01  -0.2287925003E-01  -0.2287925003E-01  -0.2928697127E-15  -0.1504752653E-14   0.1456211547E-14   0.2125000003E+01
   0.0000000000E+00   0.9771207500E+00   0.4577855710E-15   0.0000000000E+00   0.1122750000E-02  -0.1378797242E-18   0.0000000000E+00  -0.2400200000E-01   0.4579234507E-15  -0.2125000003E+01  -0.1568196498E-09  -0.1567961149E-09  -0.2759389844E-13   0.4482144765E-13   0.1137915907E-13   0.4575000007E-01  -0.2287925003E-01  -0.2287925003E-01   0.5346954704E-15  -0.3014061865E-14  -0.1372993327E-14   0.2125000003E+01
   0.0000000000E+00   0.0000000000E+00   0.9771207500E+00   0.0000000000E+00   0.0000000000E+00   0.1122750000E-02   0.0000000000E+00   0.0000000000E+00  -0.2400200000E-01  -0.2125000003E+01   0.1909404588E-09   0.1909304779E-09  -0.8361157879E-16   0.4797294590E-14  -0.6888456608E-14   0.4575000007E-01  -0.2287925003E-01  -0.2287925003E-01   0.9756418766E-18  -0.1174504611E-14  -0.3562234748E-15   0.2125000003E+01
   0.1045750000E+01   0.0000000000E+00   0.9771207500E+00  -0.2250000000E-02   0.0000000000E+00   0.1122750000E-02   0.4800000000E-01   0.0000000000E+00  -0.2400200000E-01  -0.2125000003E+01   0.1629845621E-09   0.1629687318E-09   0.3190313589E-13  -0.4425468366E-13  -0.4192273965E-14   0.4575000007E-01  -0.2287925003E-01  -0.2287925003E-01  -0.2621888834E-14   0.3142544680E-14  -0.1092493815E-14   0.2125000003E+01
   0.1045750000E+01   0.9771207500E+00   0.9771207500E+00  -0.2250000000E-02   0.1122750000E-02   0.1122750000E-02   0.4800000000E-01  -0.2400200000E-01  -0.2400200000E-01  -0.2125000003E+01   0.6543008488E-10   0.6541729426E-10  -0.9758579080E-14  -0.2767477915E-13   0.4994299838E-14   0.4575000006E-01  -0.2287925003E-01  -0.2287925003E-01  -0.7904609997E-15  -0.5190300621E-15  -0.1885749723E-14   0.2125000003E+01
   0.0000000000E+00   0.9771207500E+00   0.9771207500E+00   0.0000000000E+00   0.1122750000E-02   0.1122750000E-02   0.0000000000E+00  -0.2400200000E-01  -0.2400200000E-01  -0.2125000003E+01  -0.4882646192E-10  -0.4883706631E-10  -0.3663998465E-13   0.7092778562E-14   0.1126678815E-13   0.4575000006E-01  -0.2287925003E-01  -0.2287925003E-01   0.1322370293E-14  -0.2172014650E-14  -0.2566758287E-14   0.2125000003E+01
   0.2091500000E+01   0.0000000000E+00  -0.4674529059E-14  -0.4500000000E-02   0.0000000000E+00  -0.1156818357E-17   0.9600000000E-01   0.0000000000E+00  -0.4673372241E-14  -0.2125000003E+01  -0.6111238270E-10  -0.6110790505E-10   0.2433251705E-13   0.3340089328E-13  -0.1472291787E-14   0.4575000007E-01  -0.2287925003E-01  -0.2287925003E-01  -0.2656156749E-14   0.2607951673E-14  -0.2806908492E-14   0.2125000003E+01
   0.2091500000E+01   0.9771207500E+00  -0.6085035914E-14  -0.4500000000E-02   0.1122750000E-02  -0.1874930303E-17   0.9600000000E-01  -0.2400200000E-01  -0.6083160983E-14  -0.2125000003E+01  -0.1678511798E-09  -0.1678484941E-09  -0.1599320602E-13   0.1903585080E-13   0.1515798254E-14   0.4575000006E-01  -0.2287925003E-01  -0.2287925003E-01  -0.5317004379E-14   0.6266417988E-15   0.6259879206E-15   0.2125000003E+01
   0.2091500000E+01   0.0000000000E+00   0.9771207500E+00  -0.4500000000E-02   0.0000000000E+00   0.1122750000E-02   0.9600000000E-01   0.0000000000E+00  -0.2400200000E-01  -0.2125000003E+01  -0.1385254404E-09  -0.1385290806E-09   0.7417619550E-14  -0.7907156515E-14  -0.1388780639E-14   0.4575000006E-01  -0.2287925003E-01  -0.2287925003E-01   0.2064283164E-14  -0.3464096431E-14  -0.8729359497E-15   0.2125000003E+01
   0.2091500000E+01   0.9771207500E+00   0.9771207500E+00  -0.4500000000E-02   0.1122750000E-02   0.1122750000E-02   0.9600000000E-01  -0.2400200000E-01  -0.2400200000E-01  -0.2125000002E+01   0.2191897869E-09   0.2191914216E-09  -0.3872676561E-13  -0.1913595367E-13   0.1973443190E-14   0.4575000006E-01  -0.2287925003E-01  -0.2287925003E-01   0.4407330189E-14   0.1876785782E-14   0.2594727478E-14   0.2125000003E+01
     1     2     3     4     5     6     7     8
     2     9    10     3     6    11    12     7
 VARIABLES = X,Y,Z,DU1,DU2,DU3,U1,U2,U3,S11,S22,S33,S12,S13,S23,E11,E22,E33,E12,E13,E23,SMISES
 ZONE, T="0.7700D+01" F=FEPOINT, I=   12 J=    2 ET=BRICK
   0.0000000000E+00   0.0000000000E+00   0.0000000000E+00   0.0000000000E+00   0.0000000000E+00   0.0000000000E+00   0.0000000000E+00   0.0000000000E+00   0.0000000000E+00  -0.3250000005E+01  -0.1852509827E-09  -0.1852254808E-09   0.2247201788E-15   0.4834364810E-13  -0.6119474299E-14   0.4350000007E-01  -0.2175650003E-01  -0.2175650003E-01  -0.1567476832E-17  -0.5963034634E-14   0.9074974959E-15   0.3250000005E+01
   0.1043500000E+01   0.0000000000E+00  -0.2767484060E-14  -0.2250000000E-02   0.0000000000E+00   0.9184416301E-19   0.4575000000E-01   0.0000000000E+00  -0.2767575904E-14  -0.3250000005E+01   0.7069310838E-10   0.7069483798E-10   0.1899027868E-13  -0.3893783343E-14  -0.8015095638E-14   0.4350000007E-01  -0.2175650003E-01  -0.2175650003E-01   0.7356816217E-15   0.3698769390E-14   0.2268049405E-14   0.3250000005E+01
   0.1043500000E+01   0.9782435000E+00  -0.1634580514E-14  -0.2250000000E-02   0.1122750000E-02  -0.3812460251E-18   0.4575000000E-01  -0.2287925000E-01  -0.1634199268E-14  -0.3250000005E+01  -0.1249019340E-09  -0.1248918225E-09  -0.1478801218E-13   0.1052189316E-13   0.1751192571E-14   0.4350000006E-01  -0.2175650003E-01  -0.2175650003E-01  -0.3289203308E-15  -0.1509069016E-14   0.1475326081E-14   0.3250000005E+01
   0.0000000000E+00   0.9782435000E+00   0.4571413988E-15   0.0000000000E+00   0.1122750000E-02  -0.6441721886E-18   0.0000000000E+00  -0.2287925000E-01   0.4577855710E-15  -0.3250000005E+01  -0.1567502529E-09  -0.1567269022E-09  -0.2750919463E-13   0.4478220466E-13   0.1139104057E-13   0.4350000006E-01  -0.2175650003E-01  -0.2175650003E-01   0.5519898933E-15  -0.3002018287E-14  -0.1357725596E-14   0.3250000005E+01
   0.0000000000E+00   0.0000000000E+00   0.9782435000E+00   0.0000000000E+00   0.0000000000E+00   0.1122750000E-02   0.0000000000E+00   0.0000000000E+00  -0.2287925000E-01  -0.3250000005E+01   0.1911194254E-09   0.1911092393E-09  -0.8556779580E-16   0.4660514720E-14  -0.6986364080E-14   0.4350000006E-01  -0.2175650003E-01  -0.2175650003E-01  -0.1417134525E-17  -0.1182866950E-14  -0.3095107393E-15   0.3250000005E+01
   0.1043500000E+01   0.0000000000E+00   0.9782435000E+00  -0.2250000000E-02   0.0000000000E+00   0.1122750000E-02   0.4575000000E-01   0.0000000000E+00  -0.2287925000E-01  -0.3250000004E+01   0.1629027053E-09   0.1628867436E-09   0.3137247173E-13  -0.4391971861E-13  -0.4084282817E-14   0.4350000006E-01  -0.2175650003E-01  -0.2175650003E-01  -0.2594911839E-14   0.3126085239E-14  -0.1101861404E-14   0.3250000005E+01
   0.1043500000E+01   0.9782435000E+00   0.9782435000E+00  -0.2250000000E-02   0.1122750000E-02   0.1122750000E-02   0.4575000000E-01  -0.2287925000E-01  -0.2287925000E-01  -0.3250000004E+01   0.6540669156E-10   0.6539416362E-10  -0.1028315791E-13  -0.2783734868E-13   0.5070115963E-14   0.4350000006E-01  -0.2175650003E-01  -0.2175650003E-01  -0.7786767848E-15  -0.5172754636E-15  -0.1891820509E-14   0.3250000004E+01
   0.0000000000E+00   0.9782435000E+00   0.9782435000E+00   0.0000000000E+00   0.1122750000E-02   0.1122750000E-02   0.0000000000E+00  -0.2287925000E-01  -0.2287925000E-01  -0.3250000004E+01  -0.4903115255E-10  -0.4904201491E-10  -0.3660395485E-13   0.7154853373E-14   0.1123296305E-13   0.4350000006E-01  -0.2175650003E-01  -0.2175650003E-01   0.1320146357E-14  -0.2158714538E-14  -0.2579442612E-14   0.3250000004E+01
   0.2087000000E+01   0.0000000000E+00  -0.4672527558E-14  -0.4500000000E-02   0.0000000000E+00   0.2001501899E-17   0.9150000000E-01   0.0000000000E+00  -0.4674529059E-14  -0.3250000005E+01  -0.6102724327E-10  -0.6102280426E-10   0.2430663927E-13   0.3311207887E-13  -0.1364923831E-14   0.4350000007E-01  -0.2175650003E-01  -0.2175650003E-01  -0.2647118310E-14   0.2634835509E-14  -0.2816253827E-14   0.3250000005E+01
   0.2087000000E+01   0.9782435000E+00  -0.6082507435E-14  -0.4500000000E-02   0.1122750000E-02   0.2528478286E-17   0.9150000000E-01  -0.2287925000E-01  -0.6085035914E-14  -0.3250000005E+01  -0.1678346897E-09  -0.1678318903E-09  -0.1597605022E-13   0.1927817353E-13   0.1597591330E-14   0.4350000006E-01  -0.2175650003E-01  -0.2175650003E-01  -0.5284687440E-14   0.6779683048E-15   0.6336848695E-15   0.3250000005E+01
   0.2087000000E+01   0.0000000000E+00   0.9782435000E+00  -0.4500000000E-02   0.0000000000E+00   0.1122750000E-02   0.9150000000E-01   0.0000000000E+00  -0.2287925000E-01  -0.3250000005E+01  -0.1387168456E-09  -0.1387206652E-09   0.7461819720E-14  -0.7768373144E-14  -0.1347991706E-14   0.4350000006E-01  -0.2175650003E-01  -0.2175650003E-01   0.2052390337E-14  -0.3421691702E-14  -0.8634724481E-15   0.3250000005E+01
   0.2087000000E+01   0.9782435000E+00   0.9782435000E+00  -0.4500000000E-02   0.1122750000E-02   0.1122750000E-02   0.9150000000E-01  -0.2287925000E-01  -0.2287925000E-01  -0.3250000004E+01   0.2192823831E-09   0.2192840131E-09  -0.3868379250E-13  -0.1932224304E-13   0.2078342278E-14   0.4350000006E-01  -0.2175650003E-01  -0.2175650003E-01   0.4400883631E-14   0.1831905127E-14   0.2586703688E-14   0.3250000004E+01
     1     2     3     4     5     6     7     8
     2     9    10     3     6    11    12     7
 VARIABLES = X,Y,Z,DU1,DU2,DU3,U1,U2,U3,S11,S22,S33,S12,S13,S23,E11,E22,E33,E12,E13,E23,SMISES
 ZONE, T="0.7750D+01" F=FEPOINT, I=   12 J=    2 ET=BRICK
   0.0000000000E+00   0.0000000000E+00   0.0000000000E+00   0.0000000000E+00   0.0000000000E+00   0.0000000000E+00   0.0000000000E+00   0.0000000000E+00   0.0000000000E+00  -0.4375000007E+01  -0.1855721380E-09  -0.1855462448E-09   0.2435130592E-15   0.4804349453E-13  -0.6238131749E-14   0.4125000006E-01  -0.2063375003E-01  -0.2063375003E-01   0.5685197466E-17  -0.5954721581E-14   0.9102426946E-15   0.4375000007E+01
   0.1041250000E+01   0.0000000000E+00  -0.2771192935E-14  -0.2250000000E-02   0.0000000000E+00  -0.3708875030E-17   0.4350000000E-01   0.0000000000E+00  -0.2767484060E-14  -0.4375000007E+01   0.7031173219E-10   0.7031372992E-10   0.1894041982E-13  -0.3696089349E-14  -0.8156653440E-14   0.4125000006E-01  -0.2063375003E-01  -0.2063375003E-01   0.7243604564E-15   0.3674737741E-14   0.2261588324E-14   0.4375000007E+01
   0.1041250000E+01   0.9793662500E+00  -0.1639253798E-14  -0.2250000000E-02   0.1122750000E-02  -0.4673283426E-17   0.4350000000E-01  -0.2175650000E-01  -0.1634580514E-14  -0.4375000006E+01  -0.1252167633E-09  -0.1252064798E-09  -0.1469450929E-13   0.1054815060E-13   0.1750892467E-14   0.4125000006E-01  -0.2063375003E-01  -0.2063375003E-01  -0.3059664397E-15  -0.1489404320E-14   0.1478439698E-14   0.4375000006E+01
   0.0000000000E+00   0.9793662500E+00   0.4565379546E-15   0.0000000000E+00   0.1122750000E-02  -0.6034442281E-18   0.0000000000E+00  -0.2175650000E-01   0.4571413988E-15  -0.4375000007E+01  -0.1573134467E-09  -0.1572898677E-09  -0.2748065169E-13   0.4440400893E-13   0.1153188580E-13   0.4125000006E-01  -0.2063375003E-01  -0.2063375003E-01   0.5395831773E-15  -0.3026948412E-14  -0.1368244117E-14   0.4375000006E+01
   0.0000000000E+00   0.0000000000E+00   0.9793662500E+00   0.0000000000E+00   0.0000000000E+00   0.1122750000E-02   0.0000000000E+00   0.0000000000E+00  -0.2175650000E-01  -0.4375000006E+01   0.1914571626E-09   0.1914469515E-09  -0.6559229516E-16   0.4241507081E-14  -0.7002506514E-14   0.4125000006E-01  -0.2063375003E-01  -0.2063375003E-01  -0.5866807607E-17  -0.1172822198E-14  -0.3298935008E-15   0.4375000006E+01
   0.1041250000E+01   0.0000000000E+00   0.9793662500E+00  -0.2250000000E-02   0.0000000000E+00   0.1122750000E-02   0.4350000000E-01   0.0000000000E+00  -0.2175650000E-01  -0.4375000006E+01   0.1632450931E-09   0.1632286561E-09   0.3120487142E-13  -0.4360504092E-13  -0.4235062788E-14   0.4125000006E-01  -0.2063375003E-01  -0.2063375003E-01  -0.2599195791E-14   0.3114497423E-14  -0.1084061107E-14   0.4375000006E+01
   0.1041250000E+01   0.9793662500E+00   0.9793662500E+00  -0.2250000000E-02   0.1122750000E-02   0.1122750000E-02   0.4350000000E-01  -0.2175650000E-01  -0.2175650000E-01  -0.4375000006E+01   0.6559983161E-10   0.6558718721E-10  -0.1025273135E-13  -0.2779968629E-13   0.5249082412E-14   0.4125000005E-01  -0.2063375003E-01  -0.2063375003E-01  -0.8010548793E-15  -0.5032571449E-15  -0.1916243990E-14   0.4375000006E+01
   0.0000000000E+00   0.9793662500E+00   0.9793662500E+00   0.0000000000E+00   0.1122750000E-02   0.1122750000E-02   0.0000000000E+00  -0.2175650000E-01  -0.2175650000E-01  -0.4375000006E+01  -0.4850360434E-10  -0.4851445998E-10  -0.3663219937E-13   0.6733238765E-14   0.1137143914E-13   0.4125000006E-01  -0.2063375003E-01  -0.2063375003E-01   0.1326719397E-14  -0.2179587393E-14  -0.2564002483E-14   0.4375000006E+01
   0.2082500000E+01   0.0000000000E+00  -0.4687411840E-14  -0.4500000000E-02   0.0000000000E+00  -0.1488428257E-16   0.8700000000E-01   0.0000000000E+00  -0.4672527558E-14  -0.4375000007E+01  -0.6125879046E-10  -0.6125439880E-10   0.2461011190E-13   0.3332054945E-13  -0.1349915486E-14   0.4125000006E-01  -0.2063375003E-01  -0.2063375003E-01  -0.2615679485E-14   0.2723768749E-14  -0.2813068630E-14   0.4375000007E+01
   0.2082500000E+01   0.9793662500E+00  -0.6097103771E-14  -0.4500000000E-02   0.1122750000E-02  -0.1459633532E-16   0.8700000000E-01  -0.2175650000E-01  -0.6082507435E-14  -0.4375000006E+01  -0.1677429977E-09  -0.1677400310E-09  -0.1542702482E-13   0.1888518138E-13   0.1901859120E-14   0.4125000006E-01  -0.2063375003E-01  -0.2063375003E-01  -0.5279076361E-14   0.5393033510E-15   0.6283395539E-15   0.4375000006E+01
   0.2082500000E+01   0.0000000000E+00   0.9793662500E+00  -0.4500000000E-02   0.0000000000E+00   0.1122750000E-02   0.8700000000E-01   0.0000000000E+00  -0.2175650000E-01  -0.4375000006E+01  -0.1382129827E-09  -0.1382170102E-09   0.6503331401E-14  -0.6956645397E-14  -0.1345945162E-14   0.4125000006E-01  -0.2063375003E-01  -0.2063375003E-01   0.2026305813E-14  -0.3394050207E-14  -0.8777544271E-15   0.4375000006E+01
   0.2082500000E+01   0.9793662500E+00   0.9793662500E+00  -0.4500000000E-02   0.1122750000E-02   0.1122750000E-02   0.8700000000E-01  -0.2175650000E-01  -0.2175650000E-01  -0.4375000005E+01   0.2192425851E-09   0.2192437832E-09  -0.3924124122E-13  -0.1973333942E-13   0.2158529043E-14   0.4125000005E-01  -0.2063375003E-01  -0.2063375003E-01   0.4390518787E-14   0.1903013071E-14   0.2615921426E-14   0.4375000006E+01
     1     2     3     4     5     6     7     8
     2     9    10     3     6    11    12     7
 VARIABLES = X,Y,Z,DU1,DU2,DU3,U1,U2,U3,S11,S22,S33,S12,S13,S23,E11,E22,E33,E12,E13,E23,SMISES
 ZONE, T="0.7800D+01" F=FEPOINT, I=   12 J=    2 ET=BRICK
   0.0000000000E+00   0.0000000000E+00   0.0000000000E+00   0.0000000000E+00   0.0000000000E+00   0.0000000000E+00   0.0000000000E+00   0.0000000000E+00   0.0000000000E+00  -0.5500000009E+01  -0.1849506760E-09  -0.1849251648E-09   0.2649226562E-15   0.4835151555E-13  -0.6008926727E-14   0.3900000006E-01  -0.1951100003E-01  -0.1951100003E-01  -0.1062857035E-17  -0.5968349859E-14   0.9110690147E-15   0.5500000009E+01
   0.1039000000E+01   0.0000000000E+00  -0.2767652623E-14  -0.2250000000E-02   0.0000000000E+00   0.3540311501E-17   0.4125000000E-01   0.0000000000E+00  -0.2771192935E-14  -0.5500000008E+01   0.7064987226E-10   0.7065193493E-10   0.1854654611E-13  -0.4195958934E-14  -0.8032726073E-14   0.3900000006E-01  -0.1951100003E-01  -0.1951100003E-01   0.7358220458E-15   0.3713892438E-14   0.2265071475E-14   0.5500000008E+01
   0.1039000000E+01   0.9804890000E+00  -0.1635039308E-14  -0.2250000000E-02   0.1122750000E-02   0.4214489338E-17   0.4125000000E-01  -0.2063375000E-01  -0.1639253798E-14  -0.5500000008E+01  -0.1246719777E-09  -0.1246620585E-09  -0.1523741577E-13   0.1096084818E-13   0.1466173327E-14   0.3900000006E-01  -0.1951100003E-01  -0.1951100003E-01  -0.3176560736E-15  -0.1532552757E-14   0.1466728309E-14   0.5500000008E+01
   0.0000000000E+00   0.9804890000E+00   0.4579960387E-15   0.0000000000E+00   0.1122750000E-02   0.1458084177E-17   0.0000000000E+00  -0.2063375000E-01   0.4565379546E-15  -0.5500000008E+01  -0.1572010275E-09  -0.1571783593E-09  -0.2735625344E-13   0.4450641383E-13   0.1144995695E-13   0.3900000006E-01  -0.1951100003E-01  -0.1951100003E-01   0.5489212411E-15  -0.3002361623E-14  -0.1359144884E-14   0.5500000008E+01
   0.0000000000E+00   0.0000000000E+00   0.9804890000E+00   0.0000000000E+00   0.0000000000E+00   0.1122750000E-02   0.0000000000E+00   0.0000000000E+00  -0.2063375000E-01  -0.5500000008E+01   0.1907546966E-09   0.1907448856E-09  -0.7494296739E-16   0.4952930524E-14  -0.6804822223E-14   0.3900000006E-01  -0.1951100003E-01  -0.1951100003E-01   0.4225990072E-18  -0.1165420378E-14  -0.3187997697E-15   0.5500000008E+01
   0.1039000000E+01   0.0000000000E+00   0.9804890000E+00  -0.2250000000E-02   0.0000000000E+00   0.1122750000E-02   0.4125000000E-01   0.0000000000E+00  -0.2063375000E-01  -0.5500000008E+01   0.1630717118E-09   0.1630557501E-09   0.3164017558E-13  -0.4414083559E-13  -0.4221692354E-14   0.3900000006E-01  -0.1951100003E-01  -0.1951100003E-01  -0.2608354301E-14   0.3114596662E-14  -0.1098828866E-14   0.5500000008E+01
   0.1039000000E+01   0.9804890000E+00   0.9804890000E+00  -0.2250000000E-02   0.1122750000E-02   0.1122750000E-02   0.4125000000E-01  -0.2063375000E-01  -0.2063375000E-01  -0.5500000007E+01   0.6536173552E-10   0.6534959218E-10  -0.9937357767E-14  -0.2758113704E-13   0.4883727046E-14   0.3900000005E-01  -0.1951100003E-01  -0.1951100003E-01  -0.7812914543E-15  -0.5171790523E-15  -0.1901651987E-14   0.5500000007E+01
   0.0000000000E+00   0.9804890000E+00   0.9804890000E+00   0.0000000000E+00   0.1122750000E-02   0.1122750000E-02   0.0000000000E+00  -0.2063375000E-01  -0.2063375000E-01  -0.5500000007E+01  -0.4876729414E-10  -0.4877771785E-10  -0.3649743246E-13   0.7086406454E-14   0.1121508672E-13   0.3900000005E-01  -0.1951100003E-01  -0.1951100003E-01   0.1318344206E-14  -0.2168717541E-14  -0.2590546880E-14   0.5500000007E+01
   0.2078000000E+01   0.0000000000E+00  -0.4673687326E-14  -0.4500000000E-02   0.0000000000E+00   0.1372451442E-16   0.8250000000E-01   0.0000000000E+00  -0.4687411840E-14  -0.5500000008E+01  -0.6182416855E-10  -0.6182050816E-10   0.2581699448E-13   0.3422365246E-13  -0.1229251630E-14   0.3900000006E-01  -0.1951100003E-01  -0.1951100003E-01  -0.2615125977E-14   0.2624055133E-14  -0.2821339435E-14   0.5500000008E+01
   0.2078000000E+01   0.9804890000E+00  -0.6082626488E-14  -0.4500000000E-02   0.1122750000E-02   0.1447728315E-16   0.8250000000E-01  -0.2063375000E-01  -0.6097103771E-14  -0.5500000008E+01  -0.1671707024E-09  -0.1671672205E-09  -0.1464039660E-13   0.1822304340E-13   0.1729905202E-14   0.3900000005E-01  -0.1951100003E-01  -0.1951100003E-01  -0.5283844628E-14   0.6890426588E-15   0.6371354896E-15   0.5500000008E+01
   0.2078000000E+01   0.0000000000E+00   0.9804890000E+00  -0.4500000000E-02   0.0000000000E+00   0.1122750000E-02   0.8250000000E-01   0.0000000000E+00  -0.2063375000E-01  -0.5500000008E+01  -0.1384246726E-09  -0.1384284828E-09   0.6153073043E-14  -0.7141864309E-14  -0.9165401799E-15   0.3900000005E-01  -0.1951100003E-01  -0.1951100003E-01   0.2041683094E-14  -0.3395309633E-14  -0.8527818011E-15   0.5500000008E+01
   0.2078000000E+01   0.9804890000E+00   0.9804890000E+00  -0.4500000000E-02   0.1122750000E-02   0.1122750000E-02   0.8250000000E-01  -0.2063375000E-01  -0.2063375000E-01  -0.5500000007E+01   0.2186803367E-09   0.2186821942E-09  -0.3993590931E-13  -0.2030275084E-13   0.2339371616E-14   0.3900000005E-01  -0.1951100002E-01  -0.1951100002E-01   0.4381249375E-14   0.1808444418E-14   0.2611998515E-14   0.5500000007E+01
     1     2     3     4     5     6     7     8
     2     9    10     3     6    11    12     7
 VARIABLES = X,Y,Z,DU1,DU2,DU3,U1,U2,U3,S11,S22,S33,S12,S13,S23,E11,E22,E33,E12,E13,E23,SMISES
 ZONE, T="0.7850D+01" F=FEPOINT, I=   12 J=    2 ET=BRICK
   0.0000000000E+00   0.0000000000E+00   0.0000000000E+00   0.0000000000E+00   0.0000000000E+00   0.0000000000E+00   0.0000000000E+00   0.0000000000E+00   0.0000000000E+00  -0.6625000011E+01  -0.1847617495E-09  -0.1847358462E-09   0.2761079289E-15   0.4888245517E-13  -0.5785224020E-14   0.3675000006E-01  -0.1838825003E-01  -0.1838825003E-01   0.1080918182E-17  -0.5958453996E-14   0.9121196709E-15   0.6625000010E+01
   0.1036750000E+01   0.0000000000E+00  -0.2764208961E-14  -0.2250000000E-02   0.0000000000E+00   0.3443662151E-17   0.3900000000E-01   0.0000000000E+00  -0.2767652623E-14  -0.6625000010E+01   0.7081096038E-10   0.7081288626E-10   0.1899864056E-13  -0.3922794167E-14  -0.8007764860E-14   0.3675000006E-01  -0.1838825003E-01  -0.1838825003E-01   0.7379549206E-15   0.3681215457E-14   0.2264394944E-14   0.6625000010E+01
   0.1036750000E+01   0.9816117500E+00  -0.1631399046E-14  -0.2250000000E-02   0.1122750000E-02   0.3640262725E-17   0.3900000000E-01  -0.1951100000E-01  -0.1635039308E-14  -0.6625000010E+01  -0.1245639880E-09  -0.1245542056E-09  -0.1475627446E-13   0.1057531858E-13   0.1332236491E-14   0.3675000005E-01  -0.1838825003E-01  -0.1838825003E-01  -0.3015513660E-15  -0.1501691507E-14   0.1458934940E-14   0.6625000009E+01
   0.0000000000E+00   0.9816117500E+00   0.4592482647E-15   0.0000000000E+00   0.1122750000E-02   0.1252225957E-17   0.0000000000E+00  -0.1951100000E-01   0.4579960387E-15  -0.6625000010E+01  -0.1567597278E-09  -0.1567376221E-09  -0.2745386273E-13   0.4475785952E-13   0.1144103455E-13   0.3675000005E-01  -0.1838825003E-01  -0.1838825003E-01   0.5537199324E-15  -0.3008096941E-14  -0.1349711000E-14   0.6625000010E+01
   0.0000000000E+00   0.0000000000E+00   0.9816117500E+00   0.0000000000E+00   0.0000000000E+00   0.1122750000E-02   0.0000000000E+00   0.0000000000E+00  -0.1951100000E-01  -0.6625000009E+01   0.1907579319E-09   0.1907476288E-09  -0.6414831910E-16   0.4718710156E-14  -0.6881171779E-14   0.3675000005E-01  -0.1838825003E-01  -0.1838825003E-01  -0.3190118260E-18  -0.1176137774E-14  -0.3122224455E-15   0.6625000010E+01
   0.1036750000E+01   0.0000000000E+00   0.9816117500E+00  -0.2250000000E-02   0.0000000000E+00   0.1122750000E-02   0.3900000000E-01   0.0000000000E+00  -0.1951100000E-01  -0.6625000009E+01   0.1625903053E-09   0.1625740660E-09   0.3130760904E-13  -0.4357612312E-13  -0.4031457573E-14   0.3675000005E-01  -0.1838825003E-01  -0.1838825003E-01  -0.2611578343E-14   0.3146294548E-14  -0.1090232233E-14   0.6625000009E+01
   0.1036750000E+01   0.9816117500E+00   0.9816117500E+00  -0.2250000000E-02   0.1122750000E-02   0.1122750000E-02   0.3900000000E-01  -0.1951100000E-01  -0.1951100000E-01  -0.6625000009E+01   0.6515139390E-10   0.6513930607E-10  -0.1017499849E-13  -0.2796839025E-13   0.4939968746E-14   0.3675000005E-01  -0.1838825002E-01  -0.1838825002E-01  -0.7941259119E-15  -0.5519874587E-15  -0.1910409144E-14   0.6625000009E+01
   0.0000000000E+00   0.9816117500E+00   0.9816117500E+00   0.0000000000E+00   0.1122750000E-02   0.1122750000E-02   0.0000000000E+00  -0.1951100000E-01  -0.1951100000E-01  -0.6625000009E+01  -0.4916037791E-10  -0.4917062765E-10  -0.3657465644E-13   0.7382426740E-14   0.1101356529E-13   0.3675000005E-01  -0.1838825002E-01  -0.1838825002E-01   0.1316892704E-14  -0.2160250134E-14  -0.2595379040E-14   0.6625000009E+01
   0.2073500000E+01   0.0000000000E+00  -0.4665682539E-14  -0.4500000000E-02   0.0000000000E+00   0.8004786422E-17   0.7800000000E-01   0.0000000000E+00  -0.4673687326E-14  -0.6625000010E+01  -0.6108770452E-10  -0.6108432514E-10   0.2546345233E-13   0.3338963871E-13  -0.1029727723E-14   0.3675000006E-01  -0.1838825003E-01  -0.1838825003E-01  -0.2656971985E-14   0.2652485247E-14  -0.2812452883E-14   0.6625000010E+01
   0.2073500000E+01   0.9816117500E+00  -0.6073402255E-14  -0.4500000000E-02   0.1122750000E-02   0.9224232344E-17   0.7800000000E-01  -0.1951100000E-01  -0.6082626488E-14  -0.6625000009E+01  -0.1672302797E-09  -0.1672267904E-09  -0.1480321892E-13   0.1805084846E-13   0.1923416137E-14   0.3675000005E-01  -0.1838825003E-01  -0.1838825003E-01  -0.5288342728E-14   0.5756660309E-15   0.6467601005E-15   0.6625000009E+01
   0.2073500000E+01   0.0000000000E+00   0.9816117500E+00  -0.4500000000E-02   0.0000000000E+00   0.1122750000E-02   0.7800000000E-01   0.0000000000E+00  -0.1951100000E-01  -0.6625000009E+01  -0.1386807467E-09  -0.1386835691E-09   0.6786484079E-14  -0.7270100121E-14  -0.1169030824E-14   0.3675000005E-01  -0.1838825003E-01  -0.1838825003E-01   0.2077251432E-14  -0.3378431880E-14  -0.8640323742E-15   0.6625000009E+01
   0.2073500000E+01   0.9816117500E+00   0.9816117500E+00  -0.4500000000E-02   0.1122750000E-02   0.1122750000E-02   0.7800000000E-01  -0.1951100000E-01  -0.1951100000E-01  -0.6625000008E+01   0.2189275476E-09   0.2189297268E-09  -0.3906543800E-13  -0.1993809367E-13   0.2140619684E-14   0.3675000005E-01  -0.1838825002E-01  -0.1838825002E-01   0.4363113455E-14   0.1854938132E-14   0.2604185017E-14   0.6625000008E+01
     1     2     3     4     5     6     7     8
     2     9    10     3     6    11    12     7
 VARIABLES = X,Y,Z,DU1,DU2,DU3,U1,U2,U3,S11,S22,S33,S12,S13,S23,E11,E22,E33,E12,E13,E23,SMISES
 ZONE, T="0.7900D+01" F=FEPOINT, I=   12 J=    2 ET=BRICK
   0.0000000000E+00   0.0000000000E+00   0.0000000000E+00   0.0000000000E+00   0.0000000000E+00   0.0000000000E+00   0.0000000000E+00   0.0000000000E+00   0.0000000000E+00  -0.7750000012E+01  -0.1863055717E-09  -0.1862646249E-09   0.2247087070E-15   0.4081384024E-13  -0.5869486575E-13   0.2950000005E-01  -0.1476550002E-01  -0.1476550002E-01  -0.9214952824E-18  -0.5770207712E-14   0.8849792037E-16   0.7750000012E+01
   0.1029500000E+01   0.0000000000E+00  -0.2592409666E-14  -0.7250000000E-02   0.0000000000E+00   0.1717992955E-15   0.3675000000E-01   0.0000000000E+00  -0.2764208961E-14  -0.7750000012E+01   0.6785114103E-10   0.6792981312E-10   0.1050313465E-13  -0.5578341148E-13  -0.3928279895E-13   0.2950000005E-01  -0.1476550002E-01  -0.1476550002E-01   0.6656733234E-15   0.2820665966E-14   0.1716566448E-14   0.7750000012E+01
   0.1029500000E+01   0.9852345000E+00  -0.1733135717E-14  -0.7250000000E-02   0.3622750000E-02  -0.1017366710E-15   0.3675000000E-01  -0.1838825000E-01  -0.1631399046E-14  -0.7750000011E+01  -0.1412570230E-09  -0.1411738840E-09   0.1401981277E-13   0.3246653266E-13   0.3221881635E-13   0.2950000004E-01  -0.1476550002E-01  -0.1476550002E-01   0.9375386577E-16  -0.1121753324E-14   0.1890751840E-14   0.7750000011E+01
   0.0000000000E+00   0.9852345000E+00   0.4383614300E-16   0.0000000000E+00   0.3622750000E-02  -0.4154121217E-15   0.0000000000E+00  -0.1838825000E-01   0.4592482647E-15  -0.7750000011E+01  -0.1436410349E-09  -0.1435692779E-09  -0.4124271034E-13   0.5549371488E-13   0.2771863072E-13   0.2950000004E-01  -0.1476550002E-01  -0.1476550002E-01   0.2498431497E-15  -0.2634544849E-14  -0.1052854113E-14   0.7750000011E+01
   0.0000000000E+00   0.0000000000E+00   0.9852345000E+00   0.0000000000E+00   0.0000000000E+00   0.3622750000E-02   0.0000000000E+00   0.0000000000E+00  -0.1838825000E-01  -0.7750000011E+01   0.1643353601E-09   0.1642033887E-09  -0.6148183829E-16   0.2874939444E-13  -0.4215921686E-13   0.2950000004E-01  -0.1476550002E-01  -0.1476550002E-01   0.5230616956E-17  -0.7760303481E-15  -0.8595647405E-15   0.7750000011E+01
   0.1029500000E+01   0.0000000000E+00   0.9852345000E+00  -0.7250000000E-02   0.0000000000E+00   0.3622750000E-02   0.3675000000E-01   0.0000000000E+00  -0.1838825000E-01  -0.7750000011E+01   0.1529079517E-09   0.1528444471E-09   0.6896197482E-13  -0.5581429368E-13  -0.3772116621E-13   0.2950000004E-01  -0.1476550002E-01  -0.1476550002E-01  -0.1897189111E-14   0.2740702861E-14  -0.1588658441E-14   0.7750000011E+01
   0.1029500000E+01   0.9852345000E+00   0.9852345000E+00  -0.7250000000E-02   0.3622750000E-02   0.3622750000E-02   0.3675000000E-01  -0.1838825000E-01  -0.1838825000E-01  -0.7750000010E+01   0.7252907483E-10   0.7246524357E-10   0.1388126023E-13   0.8640613131E-14   0.3348109425E-13   0.2950000004E-01  -0.1476550002E-01  -0.1476550002E-01  -0.4492081310E-15  -0.7384985387E-16  -0.1413451133E-14   0.7750000010E+01
   0.0000000000E+00   0.9852345000E+00   0.9852345000E+00   0.0000000000E+00   0.3622750000E-02   0.3622750000E-02   0.0000000000E+00  -0.1838825000E-01  -0.1838825000E-01  -0.7750000010E+01  -0.2557880849E-10  -0.2567799515E-10  -0.3525803335E-13   0.3288377999E-13   0.4443960763E-13   0.2950000004E-01  -0.1476550002E-01  -0.1476550002E-01   0.1184655983E-14  -0.1695224116E-14  -0.1991555706E-14   0.7750000010E+01
   0.2059000000E+01   0.0000000000E+00  -0.4001478446E-14  -0.1450000000E-01   0.0000000000E+00   0.6642040937E-15   0.7350000000E-01   0.0000000000E+00  -0.4665682539E-14  -0.7750000012E+01  -0.7189603061E-11  -0.7162839363E-11  -0.3635514859E-13  -0.4519258427E-13   0.1203179500E-14   0.2950000004E-01  -0.1476550002E-01  -0.1476550002E-01  -0.3408789808E-14   0.1592323575E-14  -0.2710008518E-14   0.7750000012E+01
   0.2059000000E+01   0.9852345000E+00  -0.5360119790E-14  -0.1450000000E-01   0.3622750000E-02   0.7132824650E-15   0.7350000000E-01  -0.1838825000E-01  -0.6073402255E-14  -0.7750000011E+01  -0.1711634549E-09  -0.1712014613E-09   0.1206904005E-13   0.8733406443E-13  -0.2908114983E-13   0.2950000004E-01  -0.1476550002E-01  -0.1476550002E-01  -0.4812279652E-14   0.1643791983E-14   0.1589115245E-15   0.7750000011E+01
   0.2059000000E+01   0.0000000000E+00   0.9852345000E+00  -0.1450000000E-01   0.0000000000E+00   0.3622750000E-02   0.7350000000E-01   0.0000000000E+00  -0.1838825000E-01  -0.7750000011E+01  -0.1308978143E-09  -0.1308095524E-09   0.5564971893E-13  -0.3798203152E-13  -0.3185178899E-13   0.2950000004E-01  -0.1476550002E-01  -0.1476550002E-01   0.2739591953E-14  -0.3786110907E-14  -0.1312034476E-14   0.7750000011E+01
   0.2059000000E+01   0.9852345000E+00   0.9852345000E+00  -0.1450000000E-01   0.3622750000E-02   0.3622750000E-02   0.7350000000E-01  -0.1838825000E-01  -0.1838825000E-01  -0.7750000010E+01   0.1951125398E-09   0.1951383151E-09  -0.1906478357E-13   0.6287731567E-13  -0.6188252510E-13   0.2950000004E-01  -0.1476550002E-01  -0.1476550002E-01   0.4458509618E-14   0.3018754409E-14   0.1579145141E-14   0.7750000010E+01
     1     2     3     4     5     6     7     8
     2     9    10     3     6    11    12     7
 VARIABLES = X,Y,Z,DU1,DU2,DU3,U1,U2,U3,S11,S22,S33,S12,S13,S23,E11,E22,E33,E12,E13,E23,SMISES
 ZONE, T="0.7950D+01" F=FEPOINT, I=   12 J=    2 ET=BRICK
   0.0000000000E+00   0.0000000000E+00   0.0000000000E+00   0.0000000000E+00   0.0000000000E+00   0.0000000000E+00   0.0000000000E+00   0.0000000000E+00   0.0000000000E+00  -0.8875000016E+01  -0.2089834095E-08  -0.2090517357E-08   0.1032784061E-15  -0.1569576576E-11  -0.9295058388E-12   0.4750000007E-02  -0.2392750004E-02  -0.2392750004E-02  -0.3569413806E-17  -0.4352561976E-13  -0.2171371371E-13   0.8875000014E+01
   0.1004750000E+01   0.0000000000E+00  -0.2258357662E-13  -0.2475000000E-01   0.0000000000E+00  -0.1999116695E-13   0.2950000000E-01   0.0000000000E+00  -0.2592409666E-14  -0.8875000014E+01  -0.3319385229E-09  -0.3313726112E-09  -0.5316279977E-13   0.1646957009E-13  -0.6395749306E-15   0.4750000007E-02  -0.2392750004E-02  -0.2392750004E-02  -0.7970508672E-15   0.3588096255E-14   0.1952509874E-14   0.8875000014E+01
   0.1004750000E+01   0.9976072500E+00  -0.2160752712E-13  -0.2475000000E-01   0.1237275000E-01  -0.1987439141E-13   0.2950000000E-01  -0.1476550000E-01  -0.1733135717E-14  -0.8875000014E+01  -0.1050135881E-08  -0.1050039748E-08   0.2379027218E-12   0.3420212506E-12   0.2493734462E-12   0.4750000007E-02  -0.2392750003E-02  -0.2392750003E-02   0.5669454742E-14   0.6841194678E-14   0.7349691833E-14   0.8875000013E+01
   0.0000000000E+00   0.9976072500E+00  -0.1085750315E-13   0.0000000000E+00   0.1237275000E-01  -0.1090133929E-13   0.0000000000E+00  -0.1476550000E-01   0.4383614300E-16  -0.8875000014E+01  -0.1080505449E-08  -0.1079359075E-08   0.1416265159E-12  -0.3759536124E-12  -0.4286207616E-12   0.4750000007E-02  -0.2392750003E-02  -0.2392750003E-02   0.4093573701E-14  -0.1200870607E-13  -0.1158163605E-13   0.8875000013E+01
   0.0000000000E+00   0.0000000000E+00   0.9976072500E+00   0.0000000000E+00   0.0000000000E+00   0.1237275000E-01   0.0000000000E+00   0.0000000000E+00  -0.1476550000E-01  -0.8875000012E+01   0.1094861608E-08   0.1093180075E-08  -0.7283381238E-16  -0.5741487716E-12  -0.1572116156E-13   0.4750000007E-02  -0.2392750003E-02  -0.2392750003E-02   0.1305124061E-17  -0.1484045300E-13  -0.7016056411E-15   0.8875000013E+01
   0.1004750000E+01   0.0000000000E+00   0.9976072500E+00  -0.2475000000E-01   0.0000000000E+00   0.1237275000E-01   0.2950000000E-01   0.0000000000E+00  -0.1476550000E-01  -0.8875000012E+01   0.8925352841E-09   0.8926004260E-09  -0.1270786029E-12   0.4678013715E-12  -0.2353981610E-12   0.4750000007E-02  -0.2392750003E-02  -0.2392750003E-02  -0.5510779186E-14   0.1431231283E-13  -0.6692102865E-14   0.8875000013E+01
   0.1004750000E+01   0.9976072500E+00   0.9976072500E+00  -0.2475000000E-01   0.1237275000E-01   0.1237275000E-01   0.2950000000E-01  -0.1476550000E-01  -0.1476550000E-01  -0.8875000011E+01   0.5823273643E-09   0.5819207285E-09  -0.9697768134E-13   0.2350569651E-12   0.1420550145E-13   0.4750000006E-02  -0.2392750003E-02  -0.2392750003E-02  -0.2902075919E-14   0.5525947474E-14  -0.1287327116E-14   0.8875000012E+01
   0.0000000000E+00   0.9976072500E+00   0.9976072500E+00   0.0000000000E+00   0.1237275000E-01   0.1237275000E-01   0.0000000000E+00  -0.1476550000E-01  -0.1476550000E-01  -0.8875000010E+01   0.1596691834E-08   0.1596836940E-08  -0.1044425744E-12  -0.8241091309E-12   0.4856345547E-12   0.4750000006E-02  -0.2392750003E-02  -0.2392750003E-02  -0.1078078274E-14  -0.2178559657E-13   0.9432610704E-14   0.8875000012E+01
   0.2009500000E+01   0.0000000000E+00  -0.4849575010E-13  -0.4950000000E-01   0.0000000000E+00  -0.4449427165E-13   0.5900000000E-01   0.0000000000E+00  -0.4001478446E-14  -0.8875000013E+01   0.5685593516E-09   0.5685193374E-09  -0.5999574039E-12  -0.3079774776E-12  -0.1299064804E-12   0.4750000007E-02  -0.2392750004E-02  -0.2392750004E-02  -0.1716324141E-13  -0.5636279145E-14  -0.5591046386E-14   0.8875000013E+01
   0.2009500000E+01   0.9976072500E+00  -0.5128982910E-13  -0.4950000000E-01   0.1237275000E-01  -0.4592970931E-13   0.5900000000E-01  -0.1476550000E-01  -0.5360119790E-14  -0.8875000013E+01  -0.4178225320E-09  -0.4182709639E-09  -0.1596458937E-12  -0.7929447464E-13  -0.1508307638E-12   0.4750000007E-02  -0.2392750003E-02  -0.2392750003E-02  -0.8326548479E-14  -0.1219084246E-14  -0.3160417888E-14   0.8875000012E+01
   0.2009500000E+01   0.0000000000E+00   0.9976072500E+00  -0.4950000000E-01   0.0000000000E+00   0.1237275000E-01   0.5900000000E-01   0.0000000000E+00  -0.1476550000E-01  -0.8875000012E+01  -0.9858524465E-10  -0.9858056609E-10   0.2321922899E-13  -0.4009254332E-12  -0.3358714821E-12   0.4750000007E-02  -0.2392750003E-02  -0.2392750003E-02   0.2431508496E-14  -0.1261447193E-13  -0.8947243322E-14   0.8875000012E+01
   0.2009500000E+01   0.9976072500E+00   0.9976072500E+00  -0.4950000000E-01   0.1237275000E-01   0.1237275000E-01   0.5900000000E-01  -0.1476550000E-01  -0.1476550000E-01  -0.8875000011E+01   0.2384547856E-09   0.2380500472E-09   0.1877536234E-12   0.1518524676E-12  -0.3569037383E-12   0.4750000006E-02  -0.2392750003E-02  -0.2392750003E-02   0.8731376727E-14   0.5722764290E-14  -0.6538494743E-14   0.8875000011E+01
     1     2     3     4     5     6     7     8
     2     9    10     3     6    11    12     7
 VARIABLES = X,Y,Z,DU1,DU2,DU3,U1,U2,U3,S11,S22,S33,S12,S13,S23,E11,E22,E33,E12,E13,E23,SMISES
 ZONE, T="0.8000D+01" F=FEPOINT, I=   12 J=    2 ET=BRICK
   0.0000000000E+00   0.0000000000E+00   0.0000000000E+00   0.0000000000E+00   0.0000000000E+00   0.0000000000E+00   0.0000000000E+00   0.0000000000E+00   0.0000000000E+00  -0.1000000002E+02  -0.9176687545E-09  -0.9176036090E-09   0.1156476729E-15   0.1060854594E-12  -0.1330181403E-13  -0.2000000003E-01   0.9980000016E-02   0.9980000016E-02   0.1179936045E-17  -0.1963543371E-13  -0.9820665780E-14   0.1000000002E+02
   0.9800000000E+00   0.0000000000E+00  -0.9797646955E-14  -0.2475000000E-01   0.0000000000E+00   0.1278592966E-13   0.4750000000E-02   0.0000000000E+00  -0.2258357662E-13  -0.1000000002E+02  -0.8830214949E-10  -0.8828687311E-10   0.3634749907E-13  -0.1672109128E-13  -0.1598049921E-13  -0.2000000003E-01   0.9980000015E-02   0.9980000015E-02   0.7316714747E-15   0.2617121145E-14   0.1377618761E-14   0.1000000002E+02
   0.9800000000E+00   0.1009980000E+01  -0.9108540331E-14  -0.2475000000E-01   0.1237275000E-01   0.1249898679E-13   0.4750000000E-02  -0.2392750000E-02  -0.2160752712E-13  -0.1000000001E+02  -0.4653197966E-09  -0.4652991810E-09  -0.2761718244E-13   0.7899569602E-14   0.9681604531E-14  -0.2000000003E-01   0.9980000014E-02   0.9980000014E-02   0.1863496721E-14   0.2679647850E-14   0.4147734461E-14   0.1000000001E+02
   0.0000000000E+00   0.1009980000E+01  -0.4911880862E-14   0.0000000000E+00   0.1237275000E-01   0.5945622285E-14   0.0000000000E+00  -0.2392750000E-02  -0.1085750315E-13  -0.1000000001E+02  -0.4191419923E-09  -0.4190937188E-09  -0.4387555851E-13   0.9973109253E-13   0.3127071910E-13  -0.2000000003E-01   0.9980000015E-02   0.9980000015E-02   0.1092948642E-14  -0.4351168351E-14  -0.5045000151E-14   0.1000000001E+02
   0.0000000000E+00   0.0000000000E+00   0.1009980000E+01   0.0000000000E+00   0.0000000000E+00   0.1237275000E-01   0.0000000000E+00   0.0000000000E+00  -0.2392750000E-02  -0.1000000001E+02   0.4736159819E-09   0.4735934527E-09  -0.2847360920E-16   0.2970422988E-13  -0.2351980342E-13  -0.2000000003E-01   0.9980000015E-02   0.9980000015E-02  -0.3102593876E-18  -0.6440212399E-14  -0.1020210026E-14   0.1000000001E+02
   0.9800000000E+00   0.0000000000E+00   0.1009980000E+01  -0.2475000000E-01   0.0000000000E+00   0.1237275000E-01   0.4750000000E-02   0.0000000000E+00  -0.2392750000E-02  -0.1000000001E+02   0.4289956911E-09   0.4289606991E-09   0.5589064701E-13  -0.9350104373E-13  -0.1379726575E-13  -0.2000000003E-01   0.9980000014E-02   0.9980000014E-02  -0.2238077249E-14   0.5596114718E-14  -0.3812897710E-14   0.1000000001E+02
   0.9800000000E+00   0.1009980000E+01   0.1009980000E+01  -0.2475000000E-01   0.1237275000E-01   0.1237275000E-01   0.4750000000E-02  -0.2392750000E-02  -0.2392750000E-02  -0.1000000001E+02   0.2652629969E-09   0.2652306795E-09  -0.2486196236E-13  -0.6443558820E-13   0.1134537044E-13  -0.2000000003E-01   0.9980000013E-02   0.9980000013E-02  -0.2176420438E-14   0.8428981291E-15  -0.1051122880E-14   0.1000000001E+02
   0.0000000000E+00   0.1009980000E+01   0.1009980000E+01   0.0000000000E+00   0.1237275000E-01   0.1237275000E-01   0.0000000000E+00  -0.2392750000E-02  -0.2392750000E-02  -0.1000000001E+02   0.6712765946E-09   0.6712336843E-09  -0.6446402092E-13   0.3956640432E-13   0.2242165320E-13  -0.2000000003E-01   0.9980000013E-02   0.9980000013E-02  -0.1395438443E-14  -0.9744248714E-14   0.3793279271E-14   0.1000000001E+02
   0.1960000000E+01   0.0000000000E+00  -0.1952659614E-13  -0.4950000000E-01   0.0000000000E+00   0.2896915395E-13   0.9500000000E-02   0.0000000000E+00  -0.4849575010E-13  -0.1000000001E+02   0.1785456517E-09   0.1785620166E-09   0.5424747968E-13   0.6113848073E-13  -0.3842104194E-14  -0.2000000003E-01   0.9980000015E-02   0.9980000015E-02  -0.7663769023E-14  -0.1573159845E-15  -0.3715172348E-14   0.1000000002E+02
   0.1960000000E+01   0.1009980000E+01  -0.2138459424E-13  -0.4950000000E-01   0.1237275000E-01   0.2990523486E-13   0.9500000000E-02  -0.2392750000E-02  -0.5128982910E-13  -0.1000000001E+02  -0.3061209148E-09  -0.3061076419E-09  -0.2930119920E-13   0.4806753559E-13   0.6944280734E-14  -0.2000000003E-01   0.9980000014E-02   0.9980000014E-02  -0.6485468031E-14   0.8844937406E-15  -0.1062887480E-14   0.1000000001E+02
   0.1960000000E+01   0.0000000000E+00   0.1009980000E+01  -0.4950000000E-01   0.0000000000E+00   0.1237275000E-01   0.9500000000E-02   0.0000000000E+00  -0.2392750000E-02  -0.1000000001E+02  -0.1034506392E-09  -0.1034537980E-09   0.2611005041E-13  -0.1379906987E-13  -0.6910972764E-14  -0.2000000003E-01   0.9980000014E-02   0.9980000014E-02   0.2556108716E-14  -0.7328405972E-14  -0.4598730240E-14   0.1000000001E+02
   0.1960000000E+01   0.1009980000E+01   0.1009980000E+01  -0.4950000000E-01   0.1237275000E-01   0.1237275000E-01   0.9500000000E-02  -0.2392750000E-02  -0.2392750000E-02  -0.1000000001E+02   0.1392911585E-09   0.1392830879E-09  -0.7245674819E-13  -0.3719435075E-13   0.3134425002E-14  -0.2000000003E-01   0.9980000013E-02   0.9980000013E-02   0.4068293949E-14   0.2537686547E-14  -0.1938557793E-14   0.1000000001E+02
     1     2     3     4     5     6     7     8
     2     9    10     3     6    11    12     7
 VARIABLES = X,Y,Z,DU1,DU2,DU3,U1,U2,U3,S11,S22,S33,S12,S13,S23,E11,E22,E33,E12,E13,E23,SMISES
 ZONE, T="0.8050D+01" F=FEPOINT, I=   12 J=    2 ET=BRICK
   0.0000000000E+00   0.0000000000E+00   0.0000000000E+00   0.0000000000E+00   0.0000000000E+00   0.0000000000E+00   0.0000000000E+00   0.0000000000E+00   0.0000000000E+00  -0.8875000015E+01  -0.1415230272E-08  -0.1415455348E-08   0.1039204644E-15  -0.1018576600E-11  -0.7262882317E-12  -0.1775000003E-01   0.8857250014E-02   0.8857250014E-02  -0.7416808085E-18  -0.3311229338E-13  -0.1837159226E-13   0.8875000014E+01
   0.9822500000E+00   0.0000000000E+00  -0.1575262407E-13   0.2250000000E-02   0.0000000000E+00  -0.5954977110E-14  -0.2000000000E-01   0.0000000000E+00  -0.9797646955E-14  -0.8875000014E+01  -0.1273874529E-09  -0.1266826008E-09  -0.9784708668E-13  -0.1300873777E-12  -0.2154121124E-13  -0.1775000003E-01   0.8857250014E-02   0.8857250014E-02  -0.8799744803E-15   0.1231076664E-14   0.1309576016E-14   0.8875000014E+01
   0.9822500000E+00   0.1008857250E+01  -0.1509679893E-13   0.2250000000E-02  -0.1122750000E-02  -0.5988258600E-14  -0.2000000000E-01   0.9980000000E-02  -0.9108540331E-14  -0.8875000013E+01  -0.6876012779E-09  -0.6876576898E-09  -0.2948368368E-12   0.2101771102E-12   0.3035897350E-12  -0.1775000003E-01   0.8857250013E-02   0.8857250013E-02  -0.1349668123E-14   0.5127282011E-14   0.7672122062E-14   0.8875000013E+01
   0.0000000000E+00   0.1008857250E+01  -0.9187200381E-14   0.0000000000E+00  -0.1122750000E-02  -0.4275319519E-14   0.0000000000E+00   0.9980000000E-02  -0.4911880862E-14  -0.8875000014E+01  -0.7735018441E-09  -0.7727503267E-09   0.2261297963E-12   0.8068729311E-13  -0.2082073100E-12  -0.1775000003E-01   0.8857250013E-02   0.8857250013E-02   0.4332257193E-14  -0.4582433425E-14  -0.7909988429E-14   0.8875000013E+01
   0.0000000000E+00   0.0000000000E+00   0.1008857250E+01   0.0000000000E+00   0.0000000000E+00  -0.1122750000E-02   0.0000000000E+00   0.0000000000E+00   0.9980000000E-02  -0.8875000012E+01   0.5675338017E-09   0.5662748456E-09  -0.2558384052E-16  -0.1444555157E-12  -0.2399808183E-12  -0.1775000003E-01   0.8857250013E-02   0.8857250013E-02  -0.1830683156E-17  -0.8529608346E-14  -0.3612474066E-14   0.8875000013E+01
   0.9822500000E+00   0.0000000000E+00   0.1008857250E+01   0.2250000000E-02   0.0000000000E+00  -0.1122750000E-02  -0.2000000000E-01   0.0000000000E+00   0.9980000000E-02  -0.8875000012E+01   0.7546984955E-09   0.7547541783E-09   0.3260680575E-12  -0.2314795465E-12  -0.4026362170E-12  -0.1775000003E-01   0.8857250013E-02   0.8857250013E-02   0.1007688555E-14   0.3936761928E-14  -0.8473944437E-14   0.8875000013E+01
   0.9822500000E+00   0.1008857250E+01   0.1008857250E+01   0.2250000000E-02  -0.1122750000E-02  -0.1122750000E-02  -0.2000000000E-01   0.9980000000E-02   0.9980000000E-02  -0.8875000011E+01   0.5016440296E-09   0.5009360277E-09   0.2159476645E-12   0.1924044803E-12  -0.7805890018E-13  -0.1775000002E-01   0.8857250012E-02   0.8857250012E-02   0.7241274321E-15   0.3926873808E-14  -0.2110792448E-14   0.8875000012E+01
   0.0000000000E+00   0.1008857250E+01   0.1008857250E+01   0.0000000000E+00  -0.1122750000E-02  -0.1122750000E-02   0.0000000000E+00   0.9980000000E-02   0.9980000000E-02  -0.8875000011E+01   0.1164361687E-08   0.1164074539E-08  -0.1074485633E-12  -0.3884274315E-12   0.2796977867E-12  -0.1775000002E-01   0.8857250012E-02   0.8857250012E-02  -0.1917474136E-14  -0.1488416856E-13   0.6860116419E-14   0.8875000012E+01
   0.1964500000E+01   0.0000000000E+00  -0.2828205477E-13   0.4500000000E-02   0.0000000000E+00  -0.8755458624E-14  -0.4000000000E-01   0.0000000000E+00  -0.1952659614E-13  -0.8875000014E+01  -0.3201418501E-09  -0.3199824738E-09   0.8671434497E-13   0.5864920313E-12  -0.8946642524E-12  -0.1775000003E-01   0.8857250013E-02   0.8857250013E-02  -0.7266427459E-14   0.6164591078E-14  -0.1439645672E-13   0.8875000013E+01
   0.1964500000E+01   0.1008857250E+01  -0.3548159020E-13   0.4500000000E-02  -0.1122750000E-02  -0.1409699596E-13  -0.4000000000E-01   0.9980000000E-02  -0.2138459424E-13  -0.8875000013E+01  -0.3570333723E-09  -0.3555663417E-09  -0.5327043340E-12  -0.3336239022E-12  -0.2034849331E-12  -0.1775000002E-01   0.8857250012E-02   0.8857250012E-02  -0.1251610488E-13  -0.3758135674E-14  -0.3590250484E-14   0.8875000012E+01
   0.1964500000E+01   0.0000000000E+00   0.1008857250E+01   0.4500000000E-02   0.0000000000E+00  -0.1122750000E-02  -0.4000000000E-01   0.0000000000E+00   0.9980000000E-02  -0.8875000013E+01  -0.1858554723E-09  -0.1870765068E-09   0.4346810000E-12  -0.4882404250E-12  -0.2424257459E-12  -0.1775000002E-01   0.8857250012E-02   0.8857250012E-02   0.7444701705E-14  -0.1302854581E-13  -0.7425327647E-14   0.8875000012E+01
   0.1964500000E+01   0.1008857250E+01   0.1008857250E+01   0.4500000000E-02  -0.1122750000E-02  -0.1122750000E-02  -0.4000000000E-01   0.9980000000E-02   0.9980000000E-02  -0.8875000011E+01   0.4364491903E-09   0.4365334460E-09   0.3199349234E-12   0.9913881894E-13   0.4481030188E-12  -0.1775000002E-01   0.8857250011E-02   0.8857250011E-02   0.8776002949E-14   0.4182860700E-14   0.3390187894E-14   0.8875000011E+01
     1     2     3     4     5     6     7     8
     2     9    10     3     6    11    12     7
 VARIABLES = X,Y,Z,DU1,DU2,DU3,U1,U2,U3,S11,S22,S33,S12,S13,S23,E11,E22,E33,E12,E13,E23,SMISES
 ZONE, T="0.8100D+01" F=FEPOINT, I=   12 J=    2 ET=BRICK
   0.0000000000E+00   0.0000000000E+00   0.0000000000E+00   0.0000000000E+00   0.0000000000E+00   0.0000000000E+00   0.0000000000E+00   0.0000000000E+00   0.0000000000E+00  -0.7750000013E+01  -0.9170909476E-09  -0.9170246187E-09   0.1240302164E-15   0.1066707761E-12  -0.1325831971E-13  -0.1550000002E-01   0.7734500012E-02   0.7734500012E-02   0.1883016078E-17  -0.1961914781E-13  -0.9825646313E-14   0.7750000012E+01
   0.9845000000E+00   0.0000000000E+00  -0.9795392248E-14   0.2250000000E-02   0.0000000000E+00   0.5957231818E-14  -0.1775000000E-01   0.0000000000E+00  -0.1575262407E-13  -0.7750000012E+01  -0.8840769166E-10  -0.8839285937E-10   0.3588023034E-13  -0.1748343490E-13  -0.1586053506E-13  -0.1550000002E-01   0.7734500012E-02   0.7734500012E-02   0.7185069326E-15   0.2593885085E-14   0.1380901590E-14   0.7750000012E+01
   0.9845000000E+00   0.1007734500E+01  -0.9105474969E-14   0.2250000000E-02  -0.1122750000E-02   0.5991323962E-14  -0.1775000000E-01   0.8857250000E-02  -0.1509679893E-13  -0.7750000012E+01  -0.4652991248E-09  -0.4652785687E-09  -0.2813191369E-13   0.7741156990E-14   0.9893774385E-14  -0.1550000002E-01   0.7734500011E-02   0.7734500011E-02   0.1850999742E-14   0.2699192266E-14   0.4149250882E-14   0.7750000011E+01
   0.0000000000E+00   0.1007734500E+01  -0.4911837631E-14   0.0000000000E+00  -0.1122750000E-02   0.4275362750E-14   0.0000000000E+00   0.8857250000E-02  -0.9187200381E-14  -0.7750000012E+01  -0.4191353043E-09  -0.4190871933E-09  -0.4347406932E-13   0.1005164871E-12   0.3190199103E-13  -0.1550000002E-01   0.7734500011E-02   0.7734500011E-02   0.1101141063E-14  -0.4349370627E-14  -0.5026043232E-14   0.7750000011E+01
   0.0000000000E+00   0.0000000000E+00   0.1007734500E+01   0.0000000000E+00   0.0000000000E+00  -0.1122750000E-02   0.0000000000E+00   0.0000000000E+00   0.8857250000E-02  -0.7750000011E+01   0.4737969540E-09   0.4737743653E-09  -0.7022720451E-16   0.2997554128E-13  -0.2361226733E-13  -0.1550000002E-01   0.7734500011E-02   0.7734500011E-02  -0.2114137710E-17  -0.6434232288E-14  -0.1009332609E-14   0.7750000011E+01
   0.9845000000E+00   0.0000000000E+00   0.1007734500E+01   0.2250000000E-02   0.0000000000E+00  -0.1122750000E-02  -0.1775000000E-01   0.0000000000E+00   0.8857250000E-02  -0.7750000011E+01   0.4293187584E-09   0.4292839883E-09   0.5610267908E-13  -0.9453862824E-13  -0.1398234788E-13  -0.1550000002E-01   0.7734500011E-02   0.7734500011E-02  -0.2227235304E-14   0.5576728101E-14  -0.3818591595E-14   0.7750000011E+01
   0.9845000000E+00   0.1007734500E+01   0.1007734500E+01   0.2250000000E-02  -0.1122750000E-02  -0.1122750000E-02  -0.1775000000E-01   0.8857250000E-02   0.8857250000E-02  -0.7750000010E+01   0.2656041206E-09   0.2655705899E-09  -0.2480233470E-13  -0.6467630984E-13   0.1120360530E-13  -0.1550000002E-01   0.7734500010E-02   0.7734500010E-02  -0.2162071584E-14   0.8429415103E-15  -0.1045343704E-14   0.7750000010E+01
   0.0000000000E+00   0.1007734500E+01   0.1007734500E+01   0.0000000000E+00  -0.1122750000E-02  -0.1122750000E-02   0.0000000000E+00   0.8857250000E-02   0.8857250000E-02  -0.7750000010E+01   0.6714292903E-09   0.6713858844E-09  -0.6493758940E-13   0.3971417238E-13   0.2303966214E-13  -0.1550000002E-01   0.7734500010E-02   0.7734500010E-02  -0.1408798472E-14  -0.9741636930E-14   0.3783622547E-14   0.7750000010E+01
   0.1969000000E+01   0.0000000000E+00  -0.1952568753E-13   0.4500000000E-02   0.0000000000E+00   0.8756367236E-14  -0.3550000000E-01   0.0000000000E+00  -0.2828205477E-13  -0.7750000012E+01   0.1772121009E-09   0.1772279324E-09   0.5540535541E-13   0.6230999827E-13  -0.4380767846E-14  -0.1550000002E-01   0.7734500012E-02   0.7734500012E-02  -0.7628639753E-14  -0.9972521339E-16  -0.3722501088E-14   0.7750000012E+01
   0.1969000000E+01   0.1007734500E+01  -0.2138699013E-13   0.4500000000E-02  -0.1122750000E-02   0.1409460007E-13  -0.3550000000E-01   0.8857250000E-02  -0.3548159020E-13  -0.7750000011E+01  -0.3059825924E-09  -0.3059687129E-09  -0.2866606099E-13   0.4817349504E-13   0.6743049039E-14  -0.1550000002E-01   0.7734500011E-02   0.7734500011E-02  -0.6466155094E-14   0.8250499676E-15  -0.1071654785E-14   0.7750000011E+01
   0.1969000000E+01   0.0000000000E+00   0.1007734500E+01   0.4500000000E-02   0.0000000000E+00  -0.1122750000E-02  -0.3550000000E-01   0.0000000000E+00   0.8857250000E-02  -0.7750000011E+01  -0.1029337684E-09  -0.1029385251E-09   0.2687327291E-13  -0.1306018014E-13  -0.6753505317E-14  -0.1550000002E-01   0.7734500011E-02   0.7734500011E-02   0.2555171669E-14  -0.7372478647E-14  -0.4596440385E-14   0.7750000011E+01
   0.1969000000E+01   0.1007734500E+01   0.1007734500E+01   0.4500000000E-02  -0.1122750000E-02  -0.1122750000E-02  -0.3550000000E-01   0.8857250000E-02   0.8857250000E-02  -0.7750000010E+01   0.1405230528E-09   0.1405145897E-09  -0.7167755429E-13  -0.3647691460E-13   0.3679001844E-14  -0.1550000002E-01   0.7734500010E-02   0.7734500010E-02   0.4071194443E-14   0.2598752343E-14  -0.1936261481E-14   0.7750000010E+01
     1     2     3     4     5     6     7     8
     2     9    10     3     6    11    12     7
 VARIABLES = X,Y,Z,DU1,DU2,DU3,U1,U2,U3,S11,S22,S33,S12,S13,S23,E11,E22,E33,E12,E13,E23,SMISES
 ZONE, T="0.8150D+01" F=FEPOINT, I=   12 J=    2 ET=BRICK
   0.0000000000E+00   0.0000000000E+00   0.0000000000E+00   0.0000000000E+00   0.0000000000E+00   0.0000000000E+00   0.0000000000E+00   0.0000000000E+00   0.0000000000E+00  -0.6625000011E+01  -0.9172515138E-09  -0.9171834204E-09   0.1408141401E-15   0.1062765710E-12  -0.1302856892E-13  -0.1325000002E-01   0.6611750010E-02   0.6611750010E-02  -0.2895256987E-18  -0.1962371607E-13  -0.9825563972E-14   0.6625000010E+01
   0.9867500000E+00   0.0000000000E+00  -0.9797364692E-14   0.2250000000E-02   0.0000000000E+00  -0.1972444540E-17  -0.1550000000E-01   0.0000000000E+00  -0.9795392248E-14  -0.6625000010E+01  -0.8822752592E-10  -0.8821296720E-10   0.3584961332E-13  -0.1669541582E-13  -0.1562090069E-13  -0.1325000002E-01   0.6611750010E-02   0.6611750010E-02   0.7200569456E-15   0.2598803076E-14   0.1386874853E-14   0.6625000010E+01
   0.9867500000E+00   0.1006611750E+01  -0.9105913543E-14   0.2250000000E-02  -0.1122750000E-02  -0.4385735212E-18  -0.1550000000E-01   0.7734500000E-02  -0.9105474969E-14  -0.6625000010E+01  -0.4653905116E-09  -0.4653698445E-09  -0.2799579422E-13   0.7589547316E-14   0.1005327865E-13  -0.1325000002E-01   0.6611750009E-02   0.6611750009E-02   0.1856465110E-14   0.2688345175E-14   0.4145755179E-14   0.6625000009E+01
   0.0000000000E+00   0.1006611750E+01  -0.4910553765E-14   0.0000000000E+00  -0.1122750000E-02   0.1283866509E-17   0.0000000000E+00   0.7734500000E-02  -0.4911837631E-14  -0.6625000010E+01  -0.4194891748E-09  -0.4194415555E-09  -0.4314445953E-13   0.1002459483E-12   0.3204725809E-13  -0.1325000002E-01   0.6611750010E-02   0.6611750010E-02   0.1102535098E-14  -0.4348702190E-14  -0.5025331102E-14   0.6625000010E+01
   0.0000000000E+00   0.0000000000E+00   0.1006611750E+01   0.0000000000E+00   0.0000000000E+00  -0.1122750000E-02   0.0000000000E+00   0.0000000000E+00   0.7734500000E-02  -0.6625000009E+01   0.4744719335E-09   0.4744498147E-09  -0.7673190691E-16   0.2939147537E-13  -0.2382214445E-13  -0.1325000002E-01   0.6611750010E-02   0.6611750010E-02   0.3606431992E-18  -0.6444927583E-14  -0.1014451992E-14   0.6625000010E+01
   0.9867500000E+00   0.0000000000E+00   0.1006611750E+01   0.2250000000E-02   0.0000000000E+00  -0.1122750000E-02  -0.1550000000E-01   0.0000000000E+00   0.7734500000E-02  -0.6625000009E+01   0.4291331464E-09   0.4290988720E-09   0.5523228861E-13  -0.9372563986E-13  -0.1375570205E-13  -0.1325000002E-01   0.6611750009E-02   0.6611750009E-02  -0.2245495785E-14   0.5591208576E-14  -0.3817513518E-14   0.6625000009E+01
   0.9867500000E+00   0.1006611750E+01   0.1006611750E+01   0.2250000000E-02  -0.1122750000E-02  -0.1122750000E-02  -0.1550000000E-01   0.7734500000E-02   0.7734500000E-02  -0.6625000008E+01   0.2657445434E-09   0.2657107391E-09  -0.2556458770E-13  -0.6473241314E-13   0.1129379416E-13  -0.1325000002E-01   0.6611750009E-02   0.6611750009E-02  -0.2186611847E-14   0.8419327319E-15  -0.1045240927E-14   0.6625000009E+01
   0.0000000000E+00   0.1006611750E+01   0.1006611750E+01   0.0000000000E+00  -0.1122750000E-02  -0.1122750000E-02   0.0000000000E+00   0.7734500000E-02   0.7734500000E-02  -0.6625000008E+01   0.6709631138E-09   0.6709196524E-09  -0.6472488845E-13   0.3975910524E-13   0.2284826286E-13  -0.1325000002E-01   0.6611750009E-02   0.6611750009E-02  -0.1403862109E-14  -0.9745308125E-14   0.3782594756E-14   0.6625000009E+01
   0.1973500000E+01   0.0000000000E+00  -0.1952712074E-13   0.4500000000E-02   0.0000000000E+00  -0.1433213479E-17  -0.3100000000E-01   0.0000000000E+00  -0.1952568753E-13  -0.6625000010E+01   0.1776831262E-09   0.1776981845E-09   0.5444372017E-13   0.6141162573E-13  -0.4645108951E-14  -0.1325000002E-01   0.6611750010E-02   0.6611750010E-02  -0.7642755121E-14  -0.1491146711E-15  -0.3727281842E-14   0.6625000010E+01
   0.1973500000E+01   0.1006611750E+01  -0.2139010403E-13   0.4500000000E-02  -0.1122750000E-02  -0.3113899402E-17  -0.3100000000E-01   0.7734500000E-02  -0.2138699013E-13  -0.6625000010E+01  -0.3059664863E-09  -0.3059526622E-09  -0.2969768190E-13   0.4889749612E-13   0.6265396109E-14  -0.1325000002E-01   0.6611750009E-02   0.6611750009E-02  -0.6478742005E-14   0.8443755368E-15  -0.1070396523E-14   0.6625000009E+01
   0.1973500000E+01   0.0000000000E+00   0.1006611750E+01   0.4500000000E-02   0.0000000000E+00  -0.1122750000E-02  -0.3100000000E-01   0.0000000000E+00   0.7734500000E-02  -0.6625000009E+01  -0.1041349626E-09  -0.1041399671E-09   0.2824622179E-13  -0.1429698508E-13  -0.6863771821E-14  -0.1325000002E-01   0.6611750009E-02   0.6611750009E-02   0.2568862253E-14  -0.7361553136E-14  -0.4597129647E-14   0.6625000009E+01
   0.1973500000E+01   0.1006611750E+01   0.1006611750E+01   0.4500000000E-02  -0.1122750000E-02  -0.1122750000E-02  -0.3100000000E-01   0.7734500000E-02   0.7734500000E-02  -0.6625000008E+01   0.1410030430E-09   0.1409956266E-09  -0.7038638981E-13  -0.3599752810E-13   0.3480432025E-14  -0.1325000002E-01   0.6611750008E-02   0.6611750008E-02   0.4094310700E-14   0.2574342506E-14  -0.1941399754E-14   0.6625000008E+01
     1     2     3     4     5     6     7     8
     2     9    10     3     6    11    12     7
 VARIABLES = X,Y,Z,DU1,DU2,DU3,U1,U2,U3,S11,S22,S33,S12,S13,S23,E11,E22,E33,E12,E13,E23,SMISES
 ZONE, T="0.8200D+01" F=FEPOINT, I=   12 J=    2 ET=BRICK
   0.0000000000E+00   0.0000000000E+00   0.0000000000E+00   0.0000000000E+00   0.0000000000E+00   0.0000000000E+00   0.0000000000E+00   0.0000000000E+00   0.0000000000E+00  -0.5500000010E+01  -0.9184279978E-09  -0.9183608340E-09   0.1437650579E-15   0.1056783791E-12  -0.1372962436E-13  -0.1100000002E-01   0.5489000009E-02   0.5489000009E-02  -0.1454430648E-17  -0.1963399354E-13  -0.9829431927E-14   0.5500000009E+01
   0.9890000000E+00   0.0000000000E+00  -0.9802683942E-14   0.2250000000E-02   0.0000000000E+00  -0.5319249131E-17  -0.1325000000E-01   0.0000000000E+00  -0.9797364692E-14  -0.5500000009E+01  -0.8859459975E-10  -0.8857904037E-10   0.3748236329E-13  -0.1598007453E-13  -0.1593329621E-13  -0.1100000002E-01   0.5489000008E-02   0.5489000008E-02   0.7427644887E-15   0.2612468867E-14   0.1377645493E-14   0.5500000008E+01
   0.9890000000E+00   0.1005489000E+01  -0.9113115461E-14   0.2250000000E-02  -0.1122750000E-02  -0.7201918054E-17  -0.1325000000E-01   0.6611750000E-02  -0.9105913543E-14  -0.5500000008E+01  -0.4659689706E-09  -0.4659477321E-09  -0.2658663677E-13   0.7051556674E-14   0.1038453048E-13  -0.1100000002E-01   0.5489000008E-02   0.5489000008E-02   0.1867754765E-14   0.2691986866E-14   0.4154719093E-14   0.5500000008E+01
   0.0000000000E+00   0.1005489000E+01  -0.4914752358E-14   0.0000000000E+00  -0.1122750000E-02  -0.4198593545E-17   0.0000000000E+00   0.6611750000E-02  -0.4910553765E-14  -0.5500000008E+01  -0.4188916514E-09  -0.4188440482E-09  -0.4409972826E-13   0.1000071756E-12   0.3137503710E-13  -0.1100000002E-01   0.5489000008E-02   0.5489000008E-02   0.1095920857E-14  -0.4353529517E-14  -0.5027494906E-14   0.5500000008E+01
   0.0000000000E+00   0.0000000000E+00   0.1005489000E+01   0.0000000000E+00   0.0000000000E+00  -0.1122750000E-02   0.0000000000E+00   0.0000000000E+00   0.6611750000E-02  -0.5500000008E+01   0.4747249795E-09   0.4747017963E-09  -0.7932336922E-16   0.2920725183E-13  -0.2378454943E-13  -0.1100000002E-01   0.5489000008E-02   0.5489000008E-02  -0.1038612558E-18  -0.6451661718E-14  -0.1013415842E-14   0.5500000008E+01
   0.9890000000E+00   0.0000000000E+00   0.1005489000E+01   0.2250000000E-02   0.0000000000E+00  -0.1122750000E-02  -0.1325000000E-01   0.0000000000E+00   0.6611750000E-02  -0.5500000007E+01   0.4295762221E-09   0.4295411542E-09   0.5525931590E-13  -0.9286461361E-13  -0.1407361416E-13  -0.1100000002E-01   0.5489000008E-02   0.5489000008E-02  -0.2243586805E-14   0.5613996162E-14  -0.3813607734E-14   0.5500000008E+01
   0.9890000000E+00   0.1005489000E+01   0.1005489000E+01   0.2250000000E-02  -0.1122750000E-02  -0.1122750000E-02  -0.1325000000E-01   0.6611750000E-02   0.6611750000E-02  -0.5500000007E+01   0.2661376167E-09   0.2661033778E-09  -0.2572802803E-13  -0.6555598939E-13   0.1165760104E-13  -0.1100000001E-01   0.5489000007E-02   0.5489000007E-02  -0.2177081554E-14   0.8306798299E-15  -0.1042476083E-14   0.5500000007E+01
   0.0000000000E+00   0.1005489000E+01   0.1005489000E+01   0.0000000000E+00  -0.1122750000E-02  -0.1122750000E-02   0.0000000000E+00   0.6611750000E-02   0.6611750000E-02  -0.5500000007E+01   0.6716110919E-09   0.6715680848E-09  -0.6482652709E-13   0.3908039378E-13   0.2291500340E-13  -0.1100000001E-01   0.5489000007E-02   0.5489000007E-02  -0.1408645397E-14  -0.9750203114E-14   0.3770651902E-14   0.5500000007E+01
   0.1978000000E+01   0.0000000000E+00  -0.1954509500E-13   0.4500000000E-02   0.0000000000E+00  -0.1797426126E-16  -0.2650000000E-01   0.0000000000E+00  -0.1952712074E-13  -0.5500000008E+01   0.1785204392E-09   0.1785365193E-09   0.5357203703E-13   0.6105090347E-13  -0.4410584531E-14  -0.1100000002E-01   0.5489000008E-02   0.5489000008E-02  -0.7653010101E-14  -0.1833398307E-15  -0.3723347111E-14   0.5500000008E+01
   0.1978000000E+01   0.1005489000E+01  -0.2140661984E-13   0.4500000000E-02  -0.1122750000E-02  -0.1651581199E-16  -0.2650000000E-01   0.6611750000E-02  -0.2139010403E-13  -0.5500000008E+01  -0.3072743018E-09  -0.3072603179E-09  -0.3018930110E-13   0.4977388797E-13   0.6898739579E-14  -0.1100000002E-01   0.5489000008E-02   0.5489000008E-02  -0.6487041791E-14   0.8887687774E-15  -0.1066869955E-14   0.5500000008E+01
   0.1978000000E+01   0.0000000000E+00   0.1005489000E+01   0.4500000000E-02   0.0000000000E+00  -0.1122750000E-02  -0.2650000000E-01   0.0000000000E+00   0.6611750000E-02  -0.5500000008E+01  -0.1035435073E-09  -0.1035480352E-09   0.2797438636E-13  -0.1432903707E-13  -0.7158163029E-14  -0.1100000002E-01   0.5489000008E-02   0.5489000008E-02   0.2566225877E-14  -0.7357300664E-14  -0.4598988980E-14   0.5500000008E+01
   0.1978000000E+01   0.1005489000E+01   0.1005489000E+01   0.4500000000E-02  -0.1122750000E-02  -0.1122750000E-02  -0.2650000000E-01   0.6611750000E-02   0.6611750000E-02  -0.5500000007E+01   0.1411558259E-09   0.1411478412E-09  -0.7083630548E-13  -0.3571712613E-13   0.3460969804E-14  -0.1100000001E-01   0.5489000007E-02   0.5489000007E-02   0.4085226258E-14   0.2556454813E-14  -0.1946667069E-14   0.5500000007E+01
     1     2     3     4     5     6     7     8
     2     9    10     3     6    11    12     7
 VARIABLES = X,Y,Z,DU1,DU2,DU3,U1,U2,U3,S11,S22,S33,S12,S13,S23,E11,E22,E33,E12,E13,E23,SMISES
 ZONE, T="0.8250D+01" F=FEPOINT, I=   12 J=    2 ET=BRICK
   0.0000000000E+00   0.0000000000E+00   0.0000000000E+00   0.0000000000E+00   0.0000000000E+00   0.0000000000E+00   0.0000000000E+00   0.0000000000E+00   0.0000000000E+00  -0.4375000008E+01  -0.9178267985E-09  -0.9177595521E-09   0.1546914331E-15   0.1060740872E-12  -0.1316639251E-13  -0.8750000014E-02   0.4366250007E-02   0.4366250007E-02  -0.1908374623E-18  -0.1962984535E-13  -0.9818119836E-14   0.4375000007E+01
   0.9912500000E+00   0.0000000000E+00  -0.9799292370E-14   0.2250000000E-02   0.0000000000E+00   0.3391571192E-17  -0.1100000000E-01   0.0000000000E+00  -0.9802683942E-14  -0.4375000007E+01  -0.8825372244E-10  -0.8823850157E-10   0.3702456669E-13  -0.1622154327E-13  -0.1562433816E-13  -0.8750000013E-02   0.4366250007E-02   0.4366250007E-02   0.7372720280E-15   0.2611678463E-14   0.1380322936E-14   0.4375000007E+01
   0.9912500000E+00   0.1004366250E+01  -0.9107983935E-14   0.2250000000E-02  -0.1122750000E-02   0.5131525680E-17  -0.1100000000E-01   0.5489000000E-02  -0.9113115461E-14  -0.4375000007E+01  -0.4656092251E-09  -0.4655888059E-09  -0.2694987204E-13   0.7397959263E-14   0.1014666535E-13  -0.8750000012E-02   0.4366250006E-02   0.4366250006E-02   0.1868386696E-14   0.2693912633E-14   0.4155749220E-14   0.4375000006E+01
   0.0000000000E+00   0.1004366250E+01  -0.4911494628E-14   0.0000000000E+00  -0.1122750000E-02   0.3257730209E-17   0.0000000000E+00   0.5489000000E-02  -0.4914752358E-14  -0.4375000007E+01  -0.4189553109E-09  -0.4189085831E-09  -0.4388278195E-13   0.1000429572E-12   0.3154387235E-13  -0.8750000013E-02   0.4366250006E-02   0.4366250006E-02   0.1092831982E-14  -0.4353594090E-14  -0.5039826361E-14   0.4375000006E+01
   0.0000000000E+00   0.0000000000E+00   0.1004366250E+01   0.0000000000E+00   0.0000000000E+00  -0.1122750000E-02   0.0000000000E+00   0.0000000000E+00   0.5489000000E-02  -0.4375000006E+01   0.4744428960E-09   0.4744204014E-09  -0.7345887238E-16   0.2954674242E-13  -0.2365924563E-13  -0.8750000013E-02   0.4366250006E-02   0.4366250006E-02   0.3362882066E-18  -0.6448681412E-14  -0.1016212214E-14   0.4375000006E+01
   0.9912500000E+00   0.0000000000E+00   0.1004366250E+01   0.2250000000E-02   0.0000000000E+00  -0.1122750000E-02  -0.1100000000E-01   0.0000000000E+00   0.5489000000E-02  -0.4375000006E+01   0.4292983782E-09   0.4292639779E-09   0.5531762699E-13  -0.9299400365E-13  -0.1405318454E-13  -0.8750000012E-02   0.4366250006E-02   0.4366250006E-02  -0.2243998731E-14   0.5618574905E-14  -0.3812868401E-14   0.4375000006E+01
   0.9912500000E+00   0.1004366250E+01   0.1004366250E+01   0.2250000000E-02  -0.1122750000E-02  -0.1122750000E-02  -0.1100000000E-01   0.5489000000E-02   0.5489000000E-02  -0.4375000005E+01   0.2656616926E-09   0.2656277624E-09  -0.2547177585E-13  -0.6543173827E-13   0.1110488077E-13  -0.8750000011E-02   0.4366250006E-02   0.4366250006E-02  -0.2179338576E-14   0.8292795655E-15  -0.1050089484E-14   0.4375000006E+01
   0.0000000000E+00   0.1004366250E+01   0.1004366250E+01   0.0000000000E+00  -0.1122750000E-02  -0.1122750000E-02   0.0000000000E+00   0.5489000000E-02   0.5489000000E-02  -0.4375000005E+01   0.6712592345E-09   0.6712166851E-09  -0.6491149660E-13   0.3938143042E-13   0.2273172268E-13  -0.8750000012E-02   0.4366250006E-02   0.4366250006E-02  -0.1406029901E-14  -0.9747404087E-14   0.3785003213E-14   0.4375000006E+01
   0.1982500000E+01   0.0000000000E+00  -0.1953403309E-13   0.4500000000E-02   0.0000000000E+00   0.1106191002E-16  -0.2200000000E-01   0.0000000000E+00  -0.1954509500E-13  -0.4375000006E+01   0.1784701868E-09   0.1784854557E-09   0.5433186951E-13   0.6156115675E-13  -0.4143024034E-14  -0.8750000013E-02   0.4366250007E-02   0.4366250007E-02  -0.7643095446E-14  -0.1512421121E-15  -0.3718239942E-14   0.4375000007E+01
   0.1982500000E+01   0.1004366250E+01  -0.2139391960E-13   0.4500000000E-02  -0.1122750000E-02   0.1270023751E-16  -0.2200000000E-01   0.5489000000E-02  -0.2140661984E-13  -0.4375000006E+01  -0.3065142893E-09  -0.3065002100E-09  -0.2947747346E-13   0.4865035861E-13   0.6943324459E-14  -0.8750000012E-02   0.4366250006E-02   0.4366250006E-02  -0.6470833409E-14   0.8590245579E-15  -0.1069746040E-14   0.4375000006E+01
   0.1982500000E+01   0.0000000000E+00   0.1004366250E+01   0.4500000000E-02   0.0000000000E+00  -0.1122750000E-02  -0.2200000000E-01   0.0000000000E+00   0.5489000000E-02  -0.4375000006E+01  -0.1037316697E-09  -0.1037360249E-09   0.2770106803E-13  -0.1445155516E-13  -0.6960330679E-14  -0.8750000012E-02   0.4366250006E-02   0.4366250006E-02   0.2568035484E-14  -0.7382344357E-14  -0.4600597774E-14   0.4375000006E+01
   0.1982500000E+01   0.1004366250E+01   0.1004366250E+01   0.4500000000E-02  -0.1122750000E-02  -0.1122750000E-02  -0.2200000000E-01   0.5489000000E-02   0.5489000000E-02  -0.4375000005E+01   0.1407501004E-09   0.1407415580E-09  -0.7068335389E-13  -0.3630827207E-13   0.3450133369E-14  -0.8750000011E-02   0.4366250006E-02   0.4366250006E-02   0.4094242566E-14   0.2579412048E-14  -0.1942575357E-14   0.4375000006E+01
     1     2     3     4     5     6     7     8
     2     9    10     3     6    11    12     7
 VARIABLES = X,Y,Z,DU1,DU2,DU3,U1,U2,U3,S11,S22,S33,S12,S13,S23,E11,E22,E33,E12,E13,E23,SMISES
 ZONE, T="0.8300D+01" F=FEPOINT, I=   12 J=    2 ET=BRICK
   0.0000000000E+00   0.0000000000E+00   0.0000000000E+00   0.0000000000E+00   0.0000000000E+00   0.0000000000E+00   0.0000000000E+00   0.0000000000E+00   0.0000000000E+00  -0.3250000006E+01  -0.9173327152E-09  -0.9172649712E-09   0.1439887490E-15   0.1064244679E-12  -0.1320083737E-13  -0.6500000010E-02   0.3243500005E-02   0.3243500005E-02  -0.1672781022E-18  -0.1962866590E-13  -0.9823682856E-14   0.3250000005E+01
   0.9935000000E+00   0.0000000000E+00  -0.9797319258E-14   0.2250000000E-02   0.0000000000E+00   0.1973112504E-17  -0.8750000000E-02   0.0000000000E+00  -0.9799292370E-14  -0.3250000005E+01  -0.8843215488E-10  -0.8841728196E-10   0.3609105755E-13  -0.1711736787E-13  -0.1586999579E-13  -0.6500000010E-02   0.3243500005E-02   0.3243500005E-02   0.7270832299E-15   0.2612765675E-14   0.1379723680E-14   0.3250000005E+01
   0.9935000000E+00   0.1003243500E+01  -0.9107583837E-14   0.2250000000E-02  -0.1122750000E-02   0.4000977916E-18  -0.8750000000E-02   0.4366250000E-02  -0.9107983935E-14  -0.3250000005E+01  -0.4654870060E-09  -0.4654661467E-09  -0.2780275988E-13   0.7919492467E-14   0.9916579890E-14  -0.6500000009E-02   0.3243500005E-02   0.3243500005E-02   0.1857384254E-14   0.2690007472E-14   0.4149774918E-14   0.3250000005E+01
   0.0000000000E+00   0.1003243500E+01  -0.4911534006E-14   0.0000000000E+00  -0.1122750000E-02  -0.3937853809E-19   0.0000000000E+00   0.4366250000E-02  -0.4911494628E-14  -0.3250000005E+01  -0.4193623400E-09  -0.4193152202E-09  -0.4354075587E-13   0.1000524790E-12   0.3198579998E-13  -0.6500000009E-02   0.3243500005E-02   0.3243500005E-02   0.1097901377E-14  -0.4347290086E-14  -0.5026924428E-14   0.3250000005E+01
   0.0000000000E+00   0.0000000000E+00   0.1003243500E+01   0.0000000000E+00   0.0000000000E+00  -0.1122750000E-02   0.0000000000E+00   0.0000000000E+00   0.4366250000E-02  -0.3250000004E+01   0.4741322238E-09   0.4741093873E-09  -0.8537260574E-16   0.2976706270E-13  -0.2359976296E-13  -0.6500000009E-02   0.3243500005E-02   0.3243500005E-02   0.1170263673E-18  -0.6441024968E-14  -0.1012839802E-14   0.3250000005E+01
   0.9935000000E+00   0.0000000000E+00   0.1003243500E+01   0.2250000000E-02   0.0000000000E+00  -0.1122750000E-02  -0.8750000000E-02   0.0000000000E+00   0.4366250000E-02  -0.3250000004E+01   0.4293518308E-09   0.4293170311E-09   0.5585825132E-13  -0.9387876721E-13  -0.1402785474E-13  -0.6500000009E-02   0.3243500005E-02   0.3243500005E-02  -0.2237129685E-14   0.5598704348E-14  -0.3814164899E-14   0.3250000005E+01
   0.9935000000E+00   0.1003243500E+01   0.1003243500E+01   0.2250000000E-02  -0.1122750000E-02  -0.1122750000E-02  -0.8750000000E-02   0.4366250000E-02   0.4366250000E-02  -0.3250000004E+01   0.2657444365E-09   0.2657108949E-09  -0.2504079095E-13  -0.6502385309E-13   0.1121726861E-13  -0.6500000008E-02   0.3243500004E-02   0.3243500004E-02  -0.2175171284E-14   0.8422399836E-15  -0.1043365054E-14   0.3250000004E+01
   0.0000000000E+00   0.1003243500E+01   0.1003243500E+01   0.0000000000E+00  -0.1122750000E-02  -0.1122750000E-02   0.0000000000E+00   0.4366250000E-02   0.4366250000E-02  -0.3250000004E+01   0.6714828788E-09   0.6714396707E-09  -0.6497108394E-13   0.3966812424E-13   0.2304774160E-13  -0.6500000009E-02   0.3243500004E-02   0.3243500004E-02  -0.1408064155E-14  -0.9747550677E-14   0.3784539468E-14   0.3250000004E+01
   0.1987000000E+01   0.0000000000E+00  -0.1953157959E-13   0.4500000000E-02   0.0000000000E+00   0.2453506379E-17  -0.1750000000E-01   0.0000000000E+00  -0.1953403309E-13  -0.3250000005E+01   0.1775166285E-09   0.1775321770E-09   0.5492711641E-13   0.6229815330E-13  -0.4221448185E-14  -0.6500000010E-02   0.3243500005E-02   0.3243500005E-02  -0.7640899747E-14  -0.1355340546E-15  -0.3721416380E-14   0.3250000005E+01
   0.1987000000E+01   0.1003243500E+01  -0.2139177018E-13   0.4500000000E-02  -0.1122750000E-02   0.2149428272E-17  -0.1750000000E-01   0.4366250000E-02  -0.2139391960E-13  -0.3250000005E+01  -0.3063449497E-09  -0.3063309076E-09  -0.2915186025E-13   0.4877396589E-13   0.7068918079E-14  -0.6500000009E-02   0.3243500005E-02   0.3243500005E-02  -0.6473455544E-14   0.8609830774E-15  -0.1062782383E-14   0.3250000005E+01
   0.1987000000E+01   0.0000000000E+00   0.1003243500E+01   0.4500000000E-02   0.0000000000E+00  -0.1122750000E-02  -0.1750000000E-01   0.0000000000E+00   0.4366250000E-02  -0.3250000005E+01  -0.1031454074E-09  -0.1031500788E-09   0.2695850076E-13  -0.1316933166E-13  -0.6999270362E-14  -0.6500000009E-02   0.3243500005E-02   0.3243500005E-02   0.2548385965E-14  -0.7346990646E-14  -0.4597869231E-14   0.3250000005E+01
   0.1987000000E+01   0.1003243500E+01   0.1003243500E+01   0.4500000000E-02  -0.1122750000E-02  -0.1122750000E-02  -0.1750000000E-01   0.4366250000E-02   0.4366250000E-02  -0.3250000004E+01   0.1404834188E-09   0.1404744545E-09  -0.7137017514E-13  -0.3700089408E-13   0.3590394025E-14  -0.6500000008E-02   0.3243500004E-02   0.3243500004E-02   0.4083704652E-14   0.2577339469E-14  -0.1946598119E-14   0.3250000004E+01
     1     2     3     4     5     6     7     8
     2     9    10     3     6    11    12     7
 VARIABLES = X,Y,Z,DU1,DU2,DU3,U1,U2,U3,S11,S22,S33,S12,S13,S23,E11,E22,E33,E12,E13,E23,SMISES
 ZONE, T="0.8350D+01" F=FEPOINT, I=   12 J=    2 ET=BRICK
   0.0000000000E+00   0.0000000000E+00   0.0000000000E+00   0.0000000000E+00   0.0000000000E+00   0.0000000000E+00   0.0000000000E+00   0.0000000000E+00   0.0000000000E+00  -0.2125000004E+01  -0.9171670464E-09  -0.9170991907E-09   0.1371668955E-15   0.1065263240E-12  -0.1321863449E-13  -0.4250000007E-02   0.2120750003E-02   0.2120750003E-02   0.1939561810E-18  -0.1962410785E-13  -0.9824065611E-14   0.2125000003E+01
   0.9957500000E+00   0.0000000000E+00  -0.9796461462E-14   0.2250000000E-02   0.0000000000E+00   0.8577956138E-18  -0.6500000000E-02   0.0000000000E+00  -0.9797319258E-14  -0.2125000003E+01  -0.8834796398E-10  -0.8833299092E-10   0.3611041444E-13  -0.1714430656E-13  -0.1573604410E-13  -0.4250000007E-02   0.2120750003E-02   0.2120750003E-02   0.7254184090E-15   0.2602758476E-14   0.1381570375E-14   0.2125000003E+01
   0.9957500000E+00   0.1002120750E+01  -0.9105800150E-14   0.2250000000E-02  -0.1122750000E-02   0.1783687710E-17  -0.6500000000E-02   0.3243500000E-02  -0.9107583837E-14  -0.2125000003E+01  -0.4654501636E-09  -0.4654294410E-09  -0.2775447693E-13   0.7750494209E-14   0.1013478836E-13  -0.4250000006E-02   0.2120750003E-02   0.2120750003E-02   0.1859019394E-14   0.2691298809E-14   0.4153202879E-14   0.2125000003E+01
   0.0000000000E+00   0.1002120750E+01  -0.4911717818E-14   0.0000000000E+00  -0.1122750000E-02  -0.1838117752E-18   0.0000000000E+00   0.3243500000E-02  -0.4911534006E-14  -0.2125000004E+01  -0.4191853899E-09  -0.4191384116E-09  -0.4366727202E-13   0.1003979276E-12   0.3177483164E-13  -0.4250000006E-02   0.2120750003E-02   0.2120750003E-02   0.1094632906E-14  -0.4343476408E-14  -0.5028514610E-14   0.2125000003E+01
   0.0000000000E+00   0.0000000000E+00   0.1002120750E+01   0.0000000000E+00   0.0000000000E+00  -0.1122750000E-02   0.0000000000E+00   0.0000000000E+00   0.3243500000E-02  -0.2125000003E+01   0.4740890603E-09   0.4740665502E-09  -0.8676365371E-16   0.2979574351E-13  -0.2357400790E-13  -0.4250000006E-02   0.2120750003E-02   0.2120750003E-02   0.2631751103E-18  -0.6441134476E-14  -0.1013144814E-14   0.2125000003E+01
   0.9957500000E+00   0.0000000000E+00   0.1002120750E+01   0.2250000000E-02   0.0000000000E+00  -0.1122750000E-02  -0.6500000000E-02   0.0000000000E+00   0.3243500000E-02  -0.2125000003E+01   0.4292116891E-09   0.4291768487E-09   0.5566585541E-13  -0.9391113942E-13  -0.1400407524E-13  -0.4250000006E-02   0.2120750003E-02   0.2120750003E-02  -0.2241272525E-14   0.5601343102E-14  -0.3815191102E-14   0.2125000003E+01
   0.9957500000E+00   0.1002120750E+01   0.1002120750E+01   0.2250000000E-02  -0.1122750000E-02  -0.1122750000E-02  -0.6500000000E-02   0.3243500000E-02   0.3243500000E-02  -0.2125000003E+01   0.2657193164E-09   0.2656854973E-09  -0.2529602037E-13  -0.6516823995E-13   0.1119033822E-13  -0.4250000006E-02   0.2120750003E-02   0.2120750003E-02  -0.2181959224E-14   0.8413797429E-15  -0.1044742189E-14   0.2125000003E+01
   0.0000000000E+00   0.1002120750E+01   0.1002120750E+01   0.0000000000E+00  -0.1122750000E-02  -0.1122750000E-02   0.0000000000E+00   0.3243500000E-02   0.3243500000E-02  -0.2125000002E+01   0.6712070475E-09   0.6711643065E-09  -0.6478733807E-13   0.3962517305E-13   0.2293276700E-13  -0.4250000006E-02   0.2120750003E-02   0.2120750003E-02  -0.1404173879E-14  -0.9747469202E-14   0.3784826218E-14   0.2125000003E+01
   0.1991500000E+01   0.0000000000E+00  -0.1952743602E-13   0.4500000000E-02   0.0000000000E+00   0.4143567992E-17  -0.1300000000E-01   0.0000000000E+00  -0.1953157959E-13  -0.2125000003E+01   0.1776135856E-09   0.1776284672E-09   0.5463353949E-13   0.6204771474E-13  -0.4385971002E-14  -0.4250000006E-02   0.2120750003E-02   0.2120750003E-02  -0.7644384593E-14  -0.1456593259E-15  -0.3723090150E-14   0.2125000003E+01
   0.1991500000E+01   0.1002120750E+01  -0.2138871212E-13   0.4500000000E-02  -0.1122750000E-02   0.3058051802E-17  -0.1300000000E-01   0.3243500000E-02  -0.2139177018E-13  -0.2125000003E+01  -0.3060831876E-09  -0.3060687007E-09  -0.2924176517E-13   0.4871024615E-13   0.6629951307E-14  -0.4250000006E-02   0.2120750003E-02   0.2120750003E-02  -0.6471900127E-14   0.8666604309E-15  -0.1070293172E-14   0.2125000003E+01
   0.1991500000E+01   0.0000000000E+00   0.1002120750E+01   0.4500000000E-02   0.0000000000E+00  -0.1122750000E-02  -0.1300000000E-01   0.0000000000E+00   0.3243500000E-02  -0.2125000003E+01  -0.1035600658E-09  -0.1035645680E-09   0.2765837162E-13  -0.1435123259E-13  -0.6761901486E-14  -0.4250000006E-02   0.2120750003E-02   0.2120750003E-02   0.2558552197E-14  -0.7351446194E-14  -0.4594784495E-14   0.2125000003E+01
   0.1991500000E+01   0.1002120750E+01   0.1002120750E+01   0.4500000000E-02  -0.1122750000E-02  -0.1122750000E-02  -0.1300000000E-01   0.3243500000E-02   0.3243500000E-02  -0.2125000003E+01   0.1408022547E-09   0.1407941774E-09  -0.7090213168E-13  -0.3622318178E-13   0.3641995683E-14  -0.4250000005E-02   0.2120750003E-02   0.2120750003E-02   0.4090351182E-14   0.2581324629E-14  -0.1945577576E-14   0.2125000003E+01
     1     2     3     4     5     6     7     8
     2     9    10     3     6    11    12     7
 VARIABLES = X,Y,Z,DU1,DU2,DU3,U1,U2,U3,S11,S22,S33,S12,S13,S23,E11,E22,E33,E12,E13,E23,SMISES
 ZONE, T="0.8400D+01" F=FEPOINT, I=   12 J=    2 ET=BRICK
   0.0000000000E+00   0.0000000000E+00   0.0000000000E+00   0.0000000000E+00   0.0000000000E+00   0.0000000000E+00   0.0000000000E+00   0.0000000000E+00   0.0000000000E+00  -0.1000000002E+01  -0.9176904199E-09  -0.9176226219E-09   0.1213712374E-15   0.1060523287E-12  -0.1341805741E-13  -0.2000000003E-02   0.9980000016E-03   0.9980000016E-03  -0.5417659547E-18  -0.1963255714E-13  -0.9825482128E-14   0.1000000002E+01
   0.9980000000E+00   0.0000000000E+00  -0.9799969948E-14   0.2250000000E-02   0.0000000000E+00  -0.3508485307E-17  -0.4250000000E-02   0.0000000000E+00  -0.9796461462E-14  -0.1000000002E+01  -0.8857924682E-10  -0.8856445145E-10   0.3655620059E-13  -0.1654219816E-13  -0.1587749968E-13  -0.2000000003E-02   0.9980000015E-03   0.9980000015E-03   0.7334259653E-15   0.2618975875E-14   0.1379418353E-14   0.1000000002E+01
   0.9980000000E+00   0.1000998000E+01  -0.9110188333E-14   0.2250000000E-02  -0.1122750000E-02  -0.4388183471E-17  -0.4250000000E-02   0.2120750000E-02  -0.9105800150E-14  -0.1000000002E+01  -0.4655532930E-09  -0.4655322228E-09  -0.2731562154E-13   0.7634855695E-14   0.1005350144E-13  -0.2000000003E-02   0.9980000014E-03   0.9980000014E-03   0.1867144506E-14   0.2685282601E-14   0.4152486490E-14   0.1000000001E+01
   0.0000000000E+00   0.1000998000E+01  -0.4913006857E-14   0.0000000000E+00  -0.1122750000E-02  -0.1289039201E-17   0.0000000000E+00   0.2120750000E-02  -0.4911717818E-14  -0.1000000002E+01  -0.4192506530E-09  -0.4192036874E-09  -0.4368685037E-13   0.1000113960E-12   0.3163182399E-13  -0.2000000003E-02   0.9980000014E-03   0.9980000014E-03   0.1092896087E-14  -0.4347286665E-14  -0.5031774166E-14   0.1000000001E+01
   0.0000000000E+00   0.0000000000E+00   0.1000998000E+01   0.0000000000E+00   0.0000000000E+00  -0.1122750000E-02   0.0000000000E+00   0.0000000000E+00   0.2120750000E-02  -0.1000000001E+01   0.4745661679E-09   0.4745432676E-09  -0.7207130522E-16   0.2927328950E-13  -0.2367202220E-13  -0.2000000003E-02   0.9980000014E-03   0.9980000014E-03  -0.5821733887E-18  -0.6449380606E-14  -0.1015749920E-14   0.1000000001E+01
   0.9980000000E+00   0.0000000000E+00   0.1000998000E+01   0.2250000000E-02   0.0000000000E+00  -0.1122750000E-02  -0.4250000000E-02   0.0000000000E+00   0.2120750000E-02  -0.1000000001E+01   0.4292974236E-09   0.4292621827E-09   0.5526855022E-13  -0.9325562417E-13  -0.1399098300E-13  -0.2000000003E-02   0.9980000014E-03   0.9980000014E-03  -0.2245774768E-14   0.5612432420E-14  -0.3814884730E-14   0.1000000001E+01
   0.9980000000E+00   0.1000998000E+01   0.1000998000E+01   0.2250000000E-02  -0.1122750000E-02  -0.1122750000E-02  -0.4250000000E-02   0.2120750000E-02   0.2120750000E-02  -0.1000000001E+01   0.2659329158E-09   0.2658992216E-09  -0.2565334331E-13  -0.6533766522E-13   0.1127242319E-13  -0.2000000003E-02   0.9980000013E-03   0.9980000013E-03  -0.2187112969E-14   0.8402068520E-15  -0.1043752140E-14   0.1000000001E+01
   0.0000000000E+00   0.1000998000E+01   0.1000998000E+01   0.0000000000E+00  -0.1122750000E-02  -0.1122750000E-02   0.0000000000E+00   0.2120750000E-02   0.2120750000E-02  -0.1000000001E+01   0.6714928237E-09   0.6714499347E-09  -0.6487396999E-13   0.3938393149E-13   0.2295739496E-13  -0.2000000003E-02   0.9980000013E-03   0.9980000013E-03  -0.1405513259E-14  -0.9752289298E-14   0.3782477265E-14   0.1000000001E+01
   0.1996000000E+01   0.0000000000E+00  -0.1953795041E-13   0.4500000000E-02   0.0000000000E+00  -0.1051438715E-16  -0.8500000000E-02   0.0000000000E+00  -0.1952743602E-13  -0.1000000001E+01   0.1778140102E-09   0.1778291994E-09   0.5480964650E-13   0.6226442888E-13  -0.4319098114E-14  -0.2000000003E-02   0.9980000015E-03   0.9980000015E-03  -0.7637709435E-14  -0.1560977903E-15  -0.3720956608E-14   0.1000000002E+01
   0.1996000000E+01   0.1000998000E+01  -0.2139889228E-13   0.4500000000E-02  -0.1122750000E-02  -0.1018015365E-16  -0.8500000000E-02   0.2120750000E-02  -0.2138871212E-13  -0.1000000002E+01  -0.3064098836E-09  -0.3063954158E-09  -0.2917232085E-13   0.4874693261E-13   0.6830415702E-14  -0.2000000003E-02   0.9980000014E-03   0.9980000014E-03  -0.6466210332E-14   0.8698916069E-15  -0.1072308257E-14   0.1000000001E+01
   0.1996000000E+01   0.0000000000E+00   0.1000998000E+01   0.4500000000E-02   0.0000000000E+00  -0.1122750000E-02  -0.8500000000E-02   0.0000000000E+00   0.2120750000E-02  -0.1000000002E+01  -0.1036180848E-09  -0.1036225591E-09   0.2739488889E-13  -0.1417274624E-13  -0.6829061706E-14  -0.2000000003E-02   0.9980000014E-03   0.9980000014E-03   0.2554521471E-14  -0.7346159910E-14  -0.4596804861E-14   0.1000000001E+01
   0.1996000000E+01   0.1000998000E+01   0.1000998000E+01   0.4500000000E-02  -0.1122750000E-02  -0.1122750000E-02  -0.8500000000E-02   0.2120750000E-02   0.2120750000E-02  -0.1000000001E+01   0.1408671337E-09   0.1408585606E-09  -0.7099287041E-13  -0.3643916391E-13   0.3800835670E-14  -0.2000000003E-02   0.9980000013E-03   0.9980000013E-03   0.4086106752E-14   0.2575451447E-14  -0.1939575372E-14   0.1000000001E+01
     1     2     3     4     5     6     7     8
     2     9    10     3     6    11    12     7
 VARIABLES = X,Y,Z,DU1,DU2,DU3,U1,U2,U3,S11,S22,S33,S12,S13,S23,E11,E22,E33,E12,E13,E23,SMISES
 ZONE, T="0.8450D+01" F=FEPOINT, I=   12 J=    2 ET=BRICK
   0.0000000000E+00   0.0000000000E+00   0.0000000000E+00   0.0000000000E+00   0.0000000000E+00   0.0000000000E+00   0.0000000000E+00   0.0000000000E+00   0.0000000000E+00   0.1249999993E+00  -0.9174098992E-09  -0.9173420930E-09   0.1622653250E-15   0.1063531288E-12  -0.1332795267E-13   0.2500000004E-03  -0.1247500002E-03  -0.1247500002E-03   0.3925223062E-18  -0.1962688905E-13  -0.9825190755E-14   0.1250000002E+00
   0.1000250000E+01   0.0000000000E+00  -0.9797801571E-14   0.2250000000E-02   0.0000000000E+00   0.2168377043E-17  -0.2000000000E-02   0.0000000000E+00  -0.9799969948E-14   0.1250000001E+00  -0.8847125163E-10  -0.8845655719E-10   0.3633190735E-13  -0.1688648746E-13  -0.1582940468E-13   0.2500000004E-03  -0.1247500002E-03  -0.1247500002E-03   0.7295658863E-15   0.2609702974E-14   0.1380126376E-14   0.1250000002E+00
   0.1000250000E+01   0.9998752500E+00  -0.9107690088E-14   0.2250000000E-02  -0.1122750000E-02   0.2498244993E-17  -0.2000000000E-02   0.9980000000E-03  -0.9110188333E-14   0.1249999997E+00  -0.4654166858E-09  -0.4653957073E-09  -0.2745930188E-13   0.7617524157E-14   0.1005169236E-13   0.2500000004E-03  -0.1247500002E-03  -0.1247500002E-03   0.1862628165E-14   0.2688202651E-14   0.4151301596E-14   0.1250000002E+00
   0.0000000000E+00   0.9998752500E+00  -0.4912477596E-14   0.0000000000E+00  -0.1122750000E-02   0.5292610786E-18   0.0000000000E+00   0.9980000000E-03  -0.4913006857E-14   0.1249999998E+00  -0.4191495416E-09  -0.4191027093E-09  -0.4369089022E-13   0.1002694127E-12   0.3159891077E-13   0.2500000004E-03  -0.1247500002E-03  -0.1247500002E-03   0.1094150787E-14  -0.4346055338E-14  -0.5029997622E-14   0.1250000002E+00
   0.0000000000E+00   0.0000000000E+00   0.9998752500E+00   0.0000000000E+00   0.0000000000E+00  -0.1122750000E-02   0.0000000000E+00   0.0000000000E+00   0.9980000000E-03   0.1250000007E+00   0.4742712754E-09   0.4742486344E-09  -0.1057015382E-15   0.2953643361E-13  -0.2360311922E-13   0.2500000004E-03  -0.1247500002E-03  -0.1247500002E-03  -0.4329168628E-18  -0.6443908928E-14  -0.1014105983E-14   0.1250000002E+00
   0.1000250000E+01   0.0000000000E+00   0.9998752500E+00   0.2250000000E-02   0.0000000000E+00  -0.1122750000E-02  -0.2000000000E-02   0.0000000000E+00   0.9980000000E-03   0.1250000006E+00   0.4291937118E-09   0.4291585516E-09   0.5546264513E-13  -0.9344799216E-13  -0.1400107978E-13   0.2500000004E-03  -0.1247500002E-03  -0.1247500002E-03  -0.2245140055E-14   0.5606292451E-14  -0.3814067483E-14   0.1250000002E+00
   0.1000250000E+01   0.9998752500E+00   0.9998752500E+00   0.2250000000E-02  -0.1122750000E-02  -0.1122750000E-02  -0.2000000000E-02   0.9980000000E-03   0.9980000000E-03   0.1250000004E+00   0.2657495853E-09   0.2657159924E-09  -0.2554605678E-13  -0.6534004158E-13   0.1119565156E-13   0.2500000003E-03  -0.1247500002E-03  -0.1247500002E-03  -0.2184437322E-14   0.8392073725E-15  -0.1043057564E-14   0.1250000002E+00
   0.0000000000E+00   0.9998752500E+00   0.9998752500E+00   0.0000000000E+00  -0.1122750000E-02  -0.1122750000E-02   0.0000000000E+00   0.9980000000E-03   0.9980000000E-03   0.1250000008E+00   0.6712352339E-09   0.6711924322E-09  -0.6484411314E-13   0.3955778780E-13   0.2298870247E-13   0.2500000003E-03  -0.1247500002E-03  -0.1247500002E-03  -0.1405514533E-14  -0.9749849047E-14   0.3780695721E-14   0.1250000002E+00
   0.2000500000E+01   0.0000000000E+00  -0.1953163997E-13   0.4500000000E-02   0.0000000000E+00   0.6310438736E-17  -0.4000000000E-02   0.0000000000E+00  -0.1953795041E-13   0.1250000004E+00   0.1778236284E-09   0.1778388738E-09   0.5475593413E-13   0.6236106765E-13  -0.4283893556E-14   0.2500000004E-03  -0.1247500002E-03  -0.1247500002E-03  -0.7638191031E-14  -0.1479454894E-15  -0.3721105616E-14   0.1250000002E+00
   0.2000500000E+01   0.9998752500E+00  -0.2139245778E-13   0.4500000000E-02  -0.1122750000E-02   0.6434495373E-17  -0.4000000000E-02   0.9980000000E-03  -0.2139889228E-13   0.1249999999E+00  -0.3062179316E-09  -0.3062033913E-09  -0.2932029398E-13   0.4853970159E-13   0.6739992045E-14   0.2500000004E-03  -0.1247500002E-03  -0.1247500002E-03  -0.6466582922E-14   0.8612041808E-15  -0.1071138463E-14   0.1250000002E+00
   0.2000500000E+01   0.0000000000E+00   0.9998752500E+00   0.4500000000E-02   0.0000000000E+00  -0.1122750000E-02  -0.4000000000E-02   0.0000000000E+00   0.9980000000E-03   0.1250000001E+00  -0.1034567686E-09  -0.1034610307E-09   0.2709712173E-13  -0.1453119783E-13  -0.6825421255E-14   0.2500000004E-03  -0.1247500002E-03  -0.1247500002E-03   0.2553684420E-14  -0.7347446379E-14  -0.4596797438E-14   0.1250000002E+00
   0.2000500000E+01   0.9998752500E+00   0.9998752500E+00   0.4500000000E-02  -0.1122750000E-02  -0.1122750000E-02  -0.4000000000E-02   0.9980000000E-03   0.9980000000E-03   0.1250000003E+00   0.1407777546E-09   0.1407693549E-09  -0.7100019780E-13  -0.3655958052E-13   0.3782934899E-14   0.2500000003E-03  -0.1247500002E-03  -0.1247500002E-03   0.4085117417E-14   0.2571462229E-14  -0.1942896307E-14   0.1250000002E+00
     1     2     3     4     5     6     7     8
     2     9    10     3     6    11    12     7
 VARIABLES = X,Y,Z,DU1,DU2,DU3,U1,U2,U3,S11,S22,S33,S12,S13,S23,E11,E22,E33,E12,E13,E23,SMISES
 ZONE, T="0.8500D+01" F=FEPOINT, I=   12 J=    2 ET=BRICK
   0.0000000000E+00   0.0000000000E+00   0.0000000000E+00   0.0000000000E+00   0.0000000000E+00   0.0000000000E+00   0.0000000000E+00   0.0000000000E+00   0.0000000000E+00   0.1250000001E+01  -0.9175942452E-09  -0.9175263536E-09   0.1643621477E-15   0.1060740850E-12  -0.1344298270E-13   0.2500000004E-02  -0.1247500002E-02  -0.1247500002E-02  -0.2319203540E-18  -0.1963028405E-13  -0.9826449037E-14   0.1250000002E+01
   0.1002500000E+01   0.0000000000E+00  -0.9799080597E-14   0.2250000000E-02   0.0000000000E+00  -0.1279026528E-17   0.2500000000E-03   0.0000000000E+00  -0.9797801571E-14   0.1250000002E+01  -0.8847553613E-10  -0.8846081423E-10   0.3645690303E-13  -0.1657922764E-13  -0.1582024858E-13   0.2500000004E-02  -0.1247500002E-02  -0.1247500002E-02   0.7323435476E-15   0.2613241581E-14   0.1380284923E-14   0.1250000002E+01
   0.1002500000E+01   0.9987525000E+00  -0.9108914495E-14   0.2250000000E-02  -0.1122750000E-02  -0.1224407207E-17   0.2500000000E-03  -0.1247500000E-03  -0.9107690088E-14   0.1250000001E+01  -0.4653839669E-09  -0.4653631078E-09  -0.2726131245E-13   0.7827818218E-14   0.1005212631E-13   0.2500000004E-02  -0.1247500002E-02  -0.1247500002E-02   0.1865227411E-14   0.2688939742E-14   0.4151335071E-14   0.1250000002E+01
   0.0000000000E+00   0.9987525000E+00  -0.4913098085E-14   0.0000000000E+00  -0.1122750000E-02  -0.6204884862E-18   0.0000000000E+00  -0.1247500000E-03  -0.4912477596E-14   0.1250000001E+01  -0.4191901260E-09  -0.4191430700E-09  -0.4360473299E-13   0.1001542708E-12   0.3164411612E-13   0.2500000004E-02  -0.1247500002E-02  -0.1247500002E-02   0.1094891839E-14  -0.4346961127E-14  -0.5029597447E-14   0.1250000002E+01
   0.0000000000E+00   0.0000000000E+00   0.9987525000E+00   0.0000000000E+00   0.0000000000E+00  -0.1122750000E-02   0.0000000000E+00   0.0000000000E+00  -0.1247500000E-03   0.1250000002E+01   0.4745181382E-09   0.4744954421E-09  -0.1156554082E-15   0.2940328237E-13  -0.2362103607E-13   0.2500000004E-02  -0.1247500002E-02  -0.1247500002E-02  -0.3084836435E-18  -0.6445707374E-14  -0.1013751596E-14   0.1250000002E+01
   0.1002500000E+01   0.0000000000E+00   0.9987525000E+00   0.2250000000E-02   0.0000000000E+00  -0.1122750000E-02   0.2500000000E-03   0.0000000000E+00  -0.1247500000E-03   0.1250000002E+01   0.4291951638E-09   0.4291599391E-09   0.5542242492E-13  -0.9324732806E-13  -0.1402542520E-13   0.2500000004E-02  -0.1247500002E-02  -0.1247500002E-02  -0.2245706107E-14   0.5608166864E-14  -0.3814810297E-14   0.1250000002E+01
   0.1002500000E+01   0.9987525000E+00   0.9987525000E+00   0.2250000000E-02  -0.1122750000E-02  -0.1122750000E-02   0.2500000000E-03  -0.1247500000E-03  -0.1247500000E-03   0.1250000002E+01   0.2657337267E-09   0.2657000856E-09  -0.2562538549E-13  -0.6524922327E-13   0.1117410711E-13   0.2500000003E-02  -0.1247500002E-02  -0.1247500002E-02  -0.2185304625E-14   0.8407967927E-15  -0.1042676643E-14   0.1250000002E+01
   0.0000000000E+00   0.9987525000E+00   0.9987525000E+00   0.0000000000E+00  -0.1122750000E-02  -0.1122750000E-02   0.0000000000E+00  -0.1247500000E-03  -0.1247500000E-03   0.1250000002E+01   0.6713283899E-09   0.6712854174E-09  -0.6494366191E-13   0.3931965884E-13   0.2309957264E-13   0.2500000003E-02  -0.1247500002E-02  -0.1247500002E-02  -0.1407027097E-14  -0.9752448656E-14   0.3782019606E-14   0.1250000002E+01
   0.2005000000E+01   0.0000000000E+00  -0.1953322764E-13   0.4500000000E-02   0.0000000000E+00  -0.1587671451E-17   0.5000000000E-03   0.0000000000E+00  -0.1953163997E-13   0.1250000002E+01   0.1779450451E-09   0.1779600066E-09   0.5487686253E-13   0.6226126924E-13  -0.4306602661E-14   0.2500000004E-02  -0.1247500002E-02  -0.1247500002E-02  -0.7638175841E-14  -0.1483513600E-15  -0.3721936419E-14   0.1250000002E+01
   0.2005000000E+01   0.9987525000E+00  -0.2139399465E-13   0.4500000000E-02  -0.1122750000E-02  -0.1536864314E-17   0.5000000000E-03  -0.1247500000E-03  -0.2139245778E-13   0.1250000001E+01  -0.3061123194E-09  -0.3060976691E-09  -0.2933955577E-13   0.4857952271E-13   0.6736705039E-14   0.2500000003E-02  -0.1247500002E-02  -0.1247500002E-02  -0.6467559678E-14   0.8612784965E-15  -0.1070414633E-14   0.1250000002E+01
   0.2005000000E+01   0.0000000000E+00   0.9987525000E+00   0.4500000000E-02   0.0000000000E+00  -0.1122750000E-02   0.5000000000E-03   0.0000000000E+00  -0.1247500000E-03   0.1250000002E+01  -0.1037008461E-09  -0.1037051297E-09   0.2727109741E-13  -0.1438802846E-13  -0.6706672134E-14   0.2500000003E-02  -0.1247500002E-02  -0.1247500002E-02   0.2557178408E-14  -0.7344082790E-14  -0.4594283739E-14   0.1250000002E+01
   0.2005000000E+01   0.9987525000E+00   0.9987525000E+00   0.4500000000E-02  -0.1122750000E-02  -0.1122750000E-02   0.5000000000E-03  -0.1247500000E-03  -0.1247500000E-03   0.1250000002E+01   0.1407074339E-09   0.1406992300E-09  -0.7084666393E-13  -0.3655624068E-13   0.3834567324E-14   0.2500000003E-02  -0.1247500002E-02  -0.1247500002E-02   0.4085068298E-14   0.2567450193E-14  -0.1944646485E-14   0.1250000002E+01
     1     2     3     4     5     6     7     8
     2     9    10     3     6    11    12     7
 VARIABLES = X,Y,Z,DU1,DU2,DU3,U1,U2,U3,S11,S22,S33,S12,S13,S23,E11,E22,E33,E12,E13,E23,SMISES
 ZONE, T="0.8550D+01" F=FEPOINT, I=   12 J=    2 ET=BRICK
   0.0000000000E+00   0.0000000000E+00   0.0000000000E+00   0.0000000000E+00   0.0000000000E+00   0.0000000000E+00   0.0000000000E+00   0.0000000000E+00   0.0000000000E+00   0.2375000003E+01  -0.9176398264E-09  -0.9175725963E-09   0.1595180568E-15   0.1062064416E-12  -0.1342458495E-13   0.4750000007E-02  -0.2370250004E-02  -0.2370250004E-02  -0.2609819558E-18  -0.1962876154E-13  -0.9825856950E-14   0.2375000004E+01
   0.1004750000E+01   0.0000000000E+00  -0.9797918258E-14   0.2250000000E-02   0.0000000000E+00   0.1162338786E-17   0.2500000000E-02   0.0000000000E+00  -0.9799080597E-14   0.2375000004E+01  -0.8824865079E-10  -0.8823408934E-10   0.3696622418E-13  -0.1650500779E-13  -0.1577184840E-13   0.4750000007E-02  -0.2370250004E-02  -0.2370250004E-02   0.7390001219E-15   0.2614556304E-14   0.1381334562E-14   0.2375000004E+01
   0.1004750000E+01   0.9976297500E+00  -0.9107393127E-14   0.2250000000E-02  -0.1122750000E-02   0.1521368794E-17   0.2500000000E-02  -0.1247500000E-02  -0.9108914495E-14   0.2375000003E+01  -0.4651356794E-09  -0.4651148208E-09  -0.2682519803E-13   0.7527964699E-14   0.1006834239E-13   0.4750000007E-02  -0.2370250003E-02  -0.2370250003E-02   0.1871140356E-14   0.2685121555E-14   0.4151226253E-14   0.2375000003E+01
   0.0000000000E+00   0.9976297500E+00  -0.4912855910E-14   0.0000000000E+00  -0.1122750000E-02   0.2421749382E-18   0.0000000000E+00  -0.1247500000E-02  -0.4913098085E-14   0.2375000003E+01  -0.4188148149E-09  -0.4187683034E-09  -0.4364073078E-13   0.1002084574E-12   0.3137652382E-13   0.4750000007E-02  -0.2370250003E-02  -0.2370250003E-02   0.1093951858E-14  -0.4346130269E-14  -0.5032996467E-14   0.2375000003E+01
   0.0000000000E+00   0.0000000000E+00   0.9976297500E+00   0.0000000000E+00   0.0000000000E+00  -0.1122750000E-02   0.0000000000E+00   0.0000000000E+00  -0.1247500000E-02   0.2375000004E+01   0.4742909693E-09   0.4742683478E-09  -0.1143935229E-15   0.2972396005E-13  -0.2350695571E-13   0.4750000007E-02  -0.2370250003E-02  -0.2370250003E-02   0.1149601379E-18  -0.6444703655E-14  -0.1014467743E-14   0.2375000003E+01
   0.1004750000E+01   0.0000000000E+00   0.9976297500E+00   0.2250000000E-02   0.0000000000E+00  -0.1122750000E-02   0.2500000000E-02   0.0000000000E+00  -0.1247500000E-02   0.2375000004E+01   0.4290724419E-09   0.4290372379E-09   0.5527744349E-13  -0.9285171217E-13  -0.1397055879E-13   0.4750000007E-02  -0.2370250003E-02  -0.2370250003E-02  -0.2248604455E-14   0.5616863334E-14  -0.3813583061E-14   0.2375000003E+01
   0.1004750000E+01   0.9976297500E+00   0.9976297500E+00   0.2250000000E-02  -0.1122750000E-02  -0.1122750000E-02   0.2500000000E-02  -0.1247500000E-02  -0.1247500000E-02   0.2375000003E+01   0.2656863110E-09   0.2656527370E-09  -0.2571542757E-13  -0.6562974893E-13   0.1119686822E-13   0.4750000006E-02  -0.2370250003E-02  -0.2370250003E-02  -0.2187305610E-14   0.8333139170E-15  -0.1043233776E-14   0.2375000003E+01
   0.0000000000E+00   0.9976297500E+00   0.9976297500E+00   0.0000000000E+00  -0.1122750000E-02  -0.1122750000E-02   0.0000000000E+00  -0.1247500000E-02  -0.1247500000E-02   0.2375000004E+01   0.6710072102E-09   0.6709643806E-09  -0.6469253433E-13   0.3964146334E-13   0.2284632102E-13   0.4750000006E-02  -0.2370250003E-02  -0.2370250003E-02  -0.1403104062E-14  -0.9746392469E-14   0.3780369563E-14   0.2375000003E+01
   0.2009500000E+01   0.0000000000E+00  -0.1952836983E-13   0.4500000000E-02   0.0000000000E+00   0.4857811714E-17   0.5000000000E-02   0.0000000000E+00  -0.1953322764E-13   0.2375000004E+01   0.1783335093E-09   0.1783490259E-09   0.5485893573E-13   0.6195927506E-13  -0.4129784413E-14   0.4750000007E-02  -0.2370250004E-02  -0.2370250004E-02  -0.7637628985E-14  -0.1560520282E-15  -0.3719775118E-14   0.2375000004E+01
   0.2009500000E+01   0.9976297500E+00  -0.2138809374E-13   0.4500000000E-02  -0.1122750000E-02   0.5900907264E-17   0.5000000000E-02  -0.1247500000E-02  -0.2139399465E-13   0.2375000003E+01  -0.3062639195E-09  -0.3062494044E-09  -0.2949953296E-13   0.4843081321E-13   0.6798498461E-14   0.4750000007E-02  -0.2370250003E-02  -0.2370250003E-02  -0.6467315272E-14   0.8570106365E-15  -0.1070097624E-14   0.2375000003E+01
   0.2009500000E+01   0.0000000000E+00   0.9976297500E+00   0.4500000000E-02   0.0000000000E+00  -0.1122750000E-02   0.5000000000E-02   0.0000000000E+00  -0.1247500000E-02   0.2375000003E+01  -0.1038844041E-09  -0.1038882343E-09   0.2756559720E-13  -0.1474072773E-13  -0.6718717342E-14   0.4750000007E-02  -0.2370250003E-02  -0.2370250003E-02   0.2560290250E-14  -0.7359069575E-14  -0.4595322751E-14   0.2375000003E+01
   0.2009500000E+01   0.9976297500E+00   0.9976297500E+00   0.4500000000E-02  -0.1122750000E-02  -0.1122750000E-02   0.5000000000E-02  -0.1247500000E-02  -0.1247500000E-02   0.2375000003E+01   0.1406062345E-09   0.1405979033E-09  -0.7073655874E-13  -0.3674055306E-13   0.3659903034E-14   0.4750000006E-02  -0.2370250003E-02  -0.2370250003E-02   0.4084803782E-14   0.2572758952E-14  -0.1945650580E-14   0.2375000003E+01
     1     2     3     4     5     6     7     8
     2     9    10     3     6    11    12     7
 VARIABLES = X,Y,Z,DU1,DU2,DU3,U1,U2,U3,S11,S22,S33,S12,S13,S23,E11,E22,E33,E12,E13,E23,SMISES
 ZONE, T="0.8600D+01" F=FEPOINT, I=   12 J=    2 ET=BRICK
   0.0000000000E+00   0.0000000000E+00   0.0000000000E+00   0.0000000000E+00   0.0000000000E+00   0.0000000000E+00   0.0000000000E+00   0.0000000000E+00   0.0000000000E+00   0.3500000005E+01  -0.9174326740E-09  -0.9173649117E-09   0.1803759878E-15   0.1062527001E-12  -0.1325505017E-13   0.7000000011E-02  -0.3493000005E-02  -0.3493000005E-02   0.4526599854E-18  -0.1962791038E-13  -0.9824190726E-14   0.3500000005E+01
   0.1007000000E+01   0.0000000000E+00  -0.9797494753E-14   0.2250000000E-02   0.0000000000E+00   0.4235048179E-18   0.4750000000E-02   0.0000000000E+00  -0.9797918258E-14   0.3500000005E+01  -0.8837083915E-10  -0.8835633594E-10   0.3626809388E-13  -0.1674976660E-13  -0.1580160500E-13   0.7000000011E-02  -0.3493000005E-02  -0.3493000005E-02   0.7300631866E-15   0.2611214451E-14   0.1380558668E-14   0.3500000005E+01
   0.1007000000E+01   0.9965070000E+00  -0.9107109426E-14   0.2250000000E-02  -0.1122750000E-02   0.2837005362E-18   0.4750000000E-02  -0.2370250000E-02  -0.9107393127E-14   0.3500000005E+01  -0.4650883511E-09  -0.4650678614E-09  -0.2734043075E-13   0.7713836572E-14   0.9985404825E-14   0.7000000010E-02  -0.3493000005E-02  -0.3493000005E-02   0.1864653515E-14   0.2688752735E-14   0.4150953801E-14   0.3500000005E+01
   0.0000000000E+00   0.9965070000E+00  -0.4911943464E-14   0.0000000000E+00  -0.1122750000E-02   0.9124458431E-18   0.0000000000E+00  -0.2370250000E-02  -0.4912855910E-14   0.3500000005E+01  -0.4191805449E-09  -0.4191338618E-09  -0.4339426467E-13   0.1001329905E-12   0.3171758734E-13   0.7000000010E-02  -0.3493000005E-02  -0.3493000005E-02   0.1096995473E-14  -0.4347825688E-14  -0.5029327658E-14   0.3500000005E+01
   0.0000000000E+00   0.0000000000E+00   0.9965070000E+00   0.0000000000E+00   0.0000000000E+00  -0.1122750000E-02   0.0000000000E+00   0.0000000000E+00  -0.2370250000E-02   0.3500000006E+01   0.4743727074E-09   0.4743504146E-09  -0.1439953476E-15   0.2967017727E-13  -0.2365207343E-13   0.7000000010E-02  -0.3493000005E-02  -0.3493000005E-02  -0.8022720422E-18  -0.6443926277E-14  -0.1014121514E-14   0.3500000005E+01
   0.1007000000E+01   0.0000000000E+00   0.9965070000E+00   0.2250000000E-02   0.0000000000E+00  -0.1122750000E-02   0.4750000000E-02   0.0000000000E+00  -0.2370250000E-02   0.3500000005E+01   0.4290238767E-09   0.4289885664E-09   0.5540573934E-13  -0.9333686551E-13  -0.1389625344E-13   0.7000000010E-02  -0.3493000005E-02  -0.3493000005E-02  -0.2245895040E-14   0.5607351312E-14  -0.3811176599E-14   0.3500000005E+01
   0.1007000000E+01   0.9965070000E+00   0.9965070000E+00   0.2250000000E-02  -0.1122750000E-02  -0.1122750000E-02   0.4750000000E-02  -0.2370250000E-02  -0.2370250000E-02   0.3500000005E+01   0.2656989548E-09   0.2656654796E-09  -0.2562941230E-13  -0.6518600827E-13   0.1119787680E-13   0.7000000009E-02  -0.3493000005E-02  -0.3493000005E-02  -0.2185275851E-14   0.8421045848E-15  -0.1043353396E-14   0.3500000005E+01
   0.0000000000E+00   0.9965070000E+00   0.9965070000E+00   0.0000000000E+00  -0.1122750000E-02  -0.1122750000E-02   0.0000000000E+00  -0.2370250000E-02  -0.2370250000E-02   0.3500000005E+01   0.6708954595E-09   0.6708526286E-09  -0.6469992245E-13   0.3973186289E-13   0.2292562407E-13   0.7000000009E-02  -0.3493000005E-02  -0.3493000005E-02  -0.1404739137E-14  -0.9747724395E-14   0.3780434041E-14   0.3500000005E+01
   0.2014000000E+01   0.0000000000E+00  -0.1952779973E-13   0.4500000000E-02   0.0000000000E+00   0.5700992627E-18   0.9500000000E-02   0.0000000000E+00  -0.1952836983E-13   0.3500000005E+01   0.1778079149E-09   0.1778224241E-09   0.5513842413E-13   0.6215846018E-13  -0.4369167363E-14   0.7000000011E-02  -0.3493000005E-02  -0.3493000005E-02  -0.7632057994E-14  -0.1475453607E-15  -0.3722591481E-14   0.3500000005E+01
   0.2014000000E+01   0.9965070000E+00  -0.2138887468E-13   0.4500000000E-02  -0.1122750000E-02  -0.7809388013E-18   0.9500000000E-02  -0.2370250000E-02  -0.2138809374E-13   0.3500000005E+01  -0.3059323429E-09  -0.3059177313E-09  -0.2914537136E-13   0.4823967443E-13   0.6424100870E-14   0.7000000010E-02  -0.3493000005E-02  -0.3493000005E-02  -0.6459951903E-14   0.8623106225E-15  -0.1075333772E-14   0.3500000005E+01
   0.2014000000E+01   0.0000000000E+00   0.9965070000E+00   0.4500000000E-02   0.0000000000E+00  -0.1122750000E-02   0.9500000000E-02   0.0000000000E+00  -0.2370250000E-02   0.3500000005E+01  -0.1040288800E-09  -0.1040329115E-09   0.2775093679E-13  -0.1441450326E-13  -0.6473264332E-14   0.7000000010E-02  -0.3493000005E-02  -0.3493000005E-02   0.2560733526E-14  -0.7354556381E-14  -0.4591850936E-14   0.3500000005E+01
   0.2014000000E+01   0.9965070000E+00   0.9965070000E+00   0.4500000000E-02  -0.1122750000E-02  -0.1122750000E-02   0.9500000000E-02  -0.2370250000E-02  -0.2370250000E-02   0.3500000005E+01   0.1407234974E-09   0.1407153396E-09  -0.7060601532E-13  -0.3663190501E-13   0.3771209451E-14   0.7000000009E-02  -0.3493000004E-02  -0.3493000004E-02   0.4087700905E-14   0.2568682477E-14  -0.1947598630E-14   0.3500000004E+01
     1     2     3     4     5     6     7     8
     2     9    10     3     6    11    12     7
 VARIABLES = X,Y,Z,DU1,DU2,DU3,U1,U2,U3,S11,S22,S33,S12,S13,S23,E11,E22,E33,E12,E13,E23,SMISES
 ZONE, T="0.8650D+01" F=FEPOINT, I=   12 J=    2 ET=BRICK
   0.0000000000E+00   0.0000000000E+00   0.0000000000E+00   0.0000000000E+00   0.0000000000E+00   0.0000000000E+00   0.0000000000E+00   0.0000000000E+00   0.0000000000E+00   0.4625000006E+01  -0.9177084605E-09  -0.9176408979E-09   0.1799463280E-15   0.1062849484E-12  -0.1340781876E-13   0.9250000015E-02  -0.4615750007E-02  -0.4615750007E-02  -0.2795286562E-18  -0.1962876642E-13  -0.9826280554E-14   0.4625000007E+01
   0.1009250000E+01   0.0000000000E+00  -0.9798668386E-14   0.2250000000E-02   0.0000000000E+00  -0.1173632852E-17   0.7000000000E-02   0.0000000000E+00  -0.9797494753E-14   0.4625000007E+01  -0.8867439086E-10  -0.8865955857E-10   0.3648032163E-13  -0.1677616038E-13  -0.1604184773E-13   0.9250000014E-02  -0.4615750007E-02  -0.4615750007E-02   0.7332891472E-15   0.2613738299E-14   0.1377459585E-14   0.4625000007E+01
   0.1009250000E+01   0.9953842500E+00  -0.9109779429E-14   0.2250000000E-02  -0.1122750000E-02  -0.2670002799E-17   0.7000000000E-02  -0.3493000000E-02  -0.9107109426E-14   0.4625000006E+01  -0.4652448460E-09  -0.4652240788E-09  -0.2723390778E-13   0.7613205745E-14   0.9988348689E-14   0.9250000013E-02  -0.4615750007E-02  -0.4615750007E-02   0.1868232007E-14   0.2682904436E-14   0.4150624897E-14   0.4625000007E+01
   0.0000000000E+00   0.9953842500E+00  -0.4912788103E-14   0.0000000000E+00  -0.1122750000E-02  -0.8446394605E-18   0.0000000000E+00  -0.3493000000E-02  -0.4911943464E-14   0.4625000006E+01  -0.4192237944E-09  -0.4191766637E-09  -0.4336991920E-13   0.9996897674E-13   0.3184522120E-13   0.9250000013E-02  -0.4615750007E-02  -0.4615750007E-02   0.1095816020E-14  -0.4347209503E-14  -0.5026527027E-14   0.4625000007E+01
   0.0000000000E+00   0.0000000000E+00   0.9953842500E+00   0.0000000000E+00   0.0000000000E+00  -0.1122750000E-02   0.0000000000E+00   0.0000000000E+00  -0.3493000000E-02   0.4625000007E+01   0.4744768503E-09   0.4744546557E-09  -0.1456157667E-15   0.2977999451E-13  -0.2363410748E-13   0.9250000013E-02  -0.4615750007E-02  -0.4615750007E-02   0.4196605455E-18  -0.6444692284E-14  -0.1014376417E-14   0.4625000007E+01
   0.1009250000E+01   0.0000000000E+00   0.9953842500E+00   0.2250000000E-02   0.0000000000E+00  -0.1122750000E-02   0.7000000000E-02   0.0000000000E+00  -0.3493000000E-02   0.4625000007E+01   0.4293237061E-09   0.4292882184E-09   0.5543912345E-13  -0.9318979870E-13  -0.1414484275E-13   0.9250000013E-02  -0.4615750007E-02  -0.4615750007E-02  -0.2246349744E-14   0.5609548190E-14  -0.3814862017E-14   0.4625000007E+01
   0.1009250000E+01   0.9953842500E+00   0.9953842500E+00   0.2250000000E-02  -0.1122750000E-02  -0.1122750000E-02   0.7000000000E-02  -0.3493000000E-02  -0.3493000000E-02   0.4625000006E+01   0.2659288926E-09   0.2658954322E-09  -0.2564153038E-13  -0.6542787518E-13   0.1118705082E-13   0.9250000012E-02  -0.4615750006E-02  -0.4615750006E-02  -0.2189161653E-14   0.8383504659E-15  -0.1042984325E-14   0.4625000006E+01
   0.0000000000E+00   0.9953842500E+00   0.9953842500E+00   0.0000000000E+00  -0.1122750000E-02  -0.1122750000E-02   0.0000000000E+00  -0.3493000000E-02  -0.3493000000E-02   0.4625000007E+01   0.6711777439E-09   0.6711347484E-09  -0.6470587865E-13   0.3952065415E-13   0.2313240474E-13   0.9250000012E-02  -0.4615750006E-02  -0.4615750006E-02  -0.1402934409E-14  -0.9750981826E-14   0.3784023289E-14   0.4625000006E+01
   0.2018500000E+01   0.0000000000E+00  -0.1953586513E-13   0.4500000000E-02   0.0000000000E+00  -0.8065404685E-17   0.1400000000E-01   0.0000000000E+00  -0.1952779973E-13   0.4625000007E+01   0.1775111383E-09   0.1775262615E-09   0.5551961634E-13   0.6262687338E-13  -0.4217335080E-14   0.9250000014E-02  -0.4615750007E-02  -0.4615750007E-02  -0.7627230669E-14  -0.1473428900E-15  -0.3720494325E-14   0.4625000007E+01
   0.2018500000E+01   0.9953842500E+00  -0.2139589967E-13   0.4500000000E-02  -0.1122750000E-02  -0.7024995466E-17   0.1400000000E-01  -0.3493000000E-02  -0.2138887468E-13   0.4625000006E+01  -0.3063849463E-09  -0.3063699834E-09  -0.2895735991E-13   0.4845314514E-13   0.7015145695E-14   0.9250000013E-02  -0.4615750006E-02  -0.4615750006E-02  -0.6459987016E-14   0.8505955755E-15  -0.1066846807E-14   0.4625000006E+01
   0.2018500000E+01   0.0000000000E+00   0.9953842500E+00   0.4500000000E-02   0.0000000000E+00  -0.1122750000E-02   0.1400000000E-01   0.0000000000E+00  -0.3493000000E-02   0.4625000006E+01  -0.1034451107E-09  -0.1034486853E-09   0.2740675681E-13  -0.1381169684E-13  -0.6619173214E-14   0.9250000013E-02  -0.4615750006E-02  -0.4615750006E-02   0.2556410586E-14  -0.7348961512E-14  -0.4594557033E-14   0.4625000006E+01
   0.2018500000E+01   0.9953842500E+00   0.9953842500E+00   0.4500000000E-02  -0.1122750000E-02  -0.1122750000E-02   0.1400000000E-01  -0.3493000000E-02  -0.3493000000E-02   0.4625000006E+01   0.1407730922E-09   0.1407642187E-09  -0.7111720186E-13  -0.3682392740E-13   0.4004215188E-14   0.9250000012E-02  -0.4615750006E-02  -0.4615750006E-02   0.4084143250E-14   0.2570602413E-14  -0.1942835146E-14   0.4625000006E+01
     1     2     3     4     5     6     7     8
     2     9    10     3     6    11    12     7
 VARIABLES = X,Y,Z,DU1,DU2,DU3,U1,U2,U3,S11,S22,S33,S12,S13,S23,E11,E22,E33,E12,E13,E23,SMISES
 ZONE, T="0.8700D+01" F=FEPOINT, I=   12 J=    2 ET=BRICK
   0.0000000000E+00   0.0000000000E+00   0.0000000000E+00   0.0000000000E+00   0.0000000000E+00   0.0000000000E+00   0.0000000000E+00   0.0000000000E+00   0.0000000000E+00   0.5750000008E+01  -0.9172267384E-09  -0.9171592150E-09   0.1881075265E-15   0.1062089548E-12  -0.1351722211E-13   0.1150000002E-01  -0.5738500009E-02  -0.5738500009E-02  -0.5586809072E-18  -0.1962800768E-13  -0.9827560076E-14   0.5750000009E+01
   0.1011500000E+01   0.0000000000E+00  -0.9799961625E-14   0.2250000000E-02   0.0000000000E+00  -0.1293238367E-17   0.9250000000E-02   0.0000000000E+00  -0.9798668386E-14   0.5750000009E+01  -0.8899525742E-10  -0.8897992951E-10   0.3458007520E-13  -0.1840418359E-13  -0.1628511926E-13   0.1150000002E-01  -0.5738500009E-02  -0.5738500009E-02   0.7101832539E-15   0.2591537368E-14   0.1374370287E-14   0.5750000009E+01
   0.1011500000E+01   0.9942615000E+00  -0.9112657812E-14   0.2250000000E-02  -0.1122750000E-02  -0.2878383151E-17   0.9250000000E-02  -0.4615750000E-02  -0.9109779429E-14   0.5750000008E+01  -0.4654362144E-09  -0.4654150219E-09  -0.2910477310E-13   0.9082392029E-14   0.1017103489E-13   0.1150000002E-01  -0.5738500008E-02  -0.5738500008E-02   0.1840839966E-14   0.2698492254E-14   0.4151075992E-14   0.5750000008E+01
   0.0000000000E+00   0.9942615000E+00  -0.4913378677E-14   0.0000000000E+00  -0.1122750000E-02  -0.5905731542E-18   0.0000000000E+00  -0.4615750000E-02  -0.4912788103E-14   0.5750000008E+01  -0.4199963418E-09  -0.4199487156E-09  -0.4359326184E-13   0.9970830566E-13   0.3214404851E-13   0.1150000002E-01  -0.5738500008E-02  -0.5738500008E-02   0.1093299268E-14  -0.4350566760E-14  -0.5023705115E-14   0.5750000008E+01
   0.0000000000E+00   0.0000000000E+00   0.9942615000E+00   0.0000000000E+00   0.0000000000E+00  -0.1122750000E-02   0.0000000000E+00   0.0000000000E+00  -0.4615750000E-02   0.5750000009E+01   0.4741250156E-09   0.4741020572E-09  -0.1575608695E-15   0.2992960116E-13  -0.2348875902E-13   0.1150000002E-01  -0.5738500008E-02  -0.5738500008E-02   0.1053743440E-17  -0.6442171773E-14  -0.1014215472E-14   0.5750000008E+01
   0.1011500000E+01   0.0000000000E+00   0.9942615000E+00   0.2250000000E-02   0.0000000000E+00  -0.1122750000E-02   0.9250000000E-02   0.0000000000E+00  -0.4615750000E-02   0.5750000009E+01   0.4297995762E-09   0.4297638149E-09   0.5669662769E-13  -0.9479811600E-13  -0.1449725577E-13   0.1150000002E-01  -0.5738500008E-02  -0.5738500008E-02  -0.2231514900E-14   0.5589274396E-14  -0.3818931930E-14   0.5750000008E+01
   0.1011500000E+01   0.9942615000E+00   0.9942615000E+00   0.2250000000E-02  -0.1122750000E-02  -0.1122750000E-02   0.9250000000E-02  -0.4615750000E-02  -0.4615750000E-02   0.5750000008E+01   0.2661017289E-09   0.2660675916E-09  -0.2448207646E-13  -0.6434265662E-13   0.1135850348E-13   0.1150000002E-01  -0.5738500008E-02  -0.5738500008E-02  -0.2167698043E-14   0.8554503510E-15  -0.1039629406E-14   0.5750000008E+01
   0.0000000000E+00   0.9942615000E+00   0.9942615000E+00   0.0000000000E+00  -0.1122750000E-02  -0.1122750000E-02   0.0000000000E+00  -0.4615750000E-02  -0.4615750000E-02   0.5750000008E+01   0.6718994276E-09   0.6718561585E-09  -0.6468336431E-13   0.3910923230E-13   0.2364576624E-13   0.1150000002E-01  -0.5738500008E-02  -0.5738500008E-02  -0.1405280123E-14  -0.9753740214E-14   0.3786087606E-14   0.5750000008E+01
   0.2023000000E+01   0.0000000000E+00  -0.1954216528E-13   0.4500000000E-02   0.0000000000E+00  -0.6300146338E-17   0.1850000000E-01   0.0000000000E+00  -0.1953586513E-13   0.5750000009E+01   0.1762484251E-09   0.1762633873E-09   0.5642639801E-13   0.6383073114E-13  -0.4689314460E-14   0.1150000002E-01  -0.5738500009E-02  -0.5738500009E-02  -0.7619886622E-14  -0.1435650287E-15  -0.3726439301E-14   0.5750000009E+01
   0.2023000000E+01   0.9942615000E+00  -0.2140494953E-13   0.4500000000E-02  -0.1122750000E-02  -0.9049855324E-17   0.1850000000E-01  -0.4615750000E-02  -0.2139589967E-13   0.5750000008E+01  -0.3057557858E-09  -0.3057403273E-09  -0.2792871344E-13   0.4774726882E-13   0.6870764215E-14   0.1150000002E-01  -0.5738500008E-02  -0.5738500008E-02  -0.6450030135E-14   0.8573362052E-15  -0.1067776270E-14   0.5750000008E+01
   0.2023000000E+01   0.0000000000E+00   0.9942615000E+00   0.4500000000E-02   0.0000000000E+00  -0.1122750000E-02   0.1850000000E-01   0.0000000000E+00  -0.4615750000E-02   0.5750000008E+01  -0.1024424204E-09  -0.1024463038E-09   0.2652406538E-13  -0.1257015436E-13  -0.6816830282E-14   0.1150000002E-01  -0.5738500008E-02  -0.5738500008E-02   0.2542611227E-14  -0.7335904638E-14  -0.4596393066E-14   0.5750000008E+01
   0.2023000000E+01   0.9942615000E+00   0.9942615000E+00   0.4500000000E-02  -0.1122750000E-02  -0.1122750000E-02   0.1850000000E-01  -0.4615750000E-02  -0.4615750000E-02   0.5750000007E+01   0.1404736507E-09   0.1404645036E-09  -0.7209931992E-13  -0.3733004439E-13   0.4053106646E-14   0.1150000001E-01  -0.5738500007E-02  -0.5738500007E-02   0.4066656144E-14   0.2556603373E-14  -0.1942787028E-14   0.5750000007E+01
     1     2     3     4     5     6     7     8
     2     9    10     3     6    11    12     7
 VARIABLES = X,Y,Z,DU1,DU2,DU3,U1,U2,U3,S11,S22,S33,S12,S13,S23,E11,E22,E33,E12,E13,E23,SMISES
 ZONE, T="0.8750D+01" F=FEPOINT, I=   12 J=    2 ET=BRICK
   0.0000000000E+00   0.0000000000E+00   0.0000000000E+00   0.0000000000E+00   0.0000000000E+00   0.0000000000E+00   0.0000000000E+00   0.0000000000E+00   0.0000000000E+00   0.6875000010E+01  -0.9170422586E-09  -0.9169750033E-09   0.1689255150E-15   0.1065812265E-12  -0.1280723802E-13   0.1375000002E-01  -0.6861250011E-02  -0.6861250011E-02  -0.1608286131E-18  -0.1962561928E-13  -0.9814847351E-14   0.6875000011E+01
   0.1013750000E+01   0.0000000000E+00  -0.9794622559E-14   0.2250000000E-02   0.0000000000E+00   0.5339066097E-17   0.1150000000E-01   0.0000000000E+00  -0.9799961625E-14   0.6875000011E+01  -0.8808659292E-10  -0.8807260020E-10   0.3541986041E-13  -0.1707646697E-13  -0.1575675815E-13   0.1375000002E-01  -0.6861250011E-02  -0.6861250011E-02   0.7173970505E-15   0.2610424031E-14   0.1381001827E-14   0.6875000011E+01
   0.1013750000E+01   0.9931387500E+00  -0.9104204658E-14   0.2250000000E-02  -0.1122750000E-02   0.8453154449E-17   0.1150000000E-01  -0.5738500000E-02  -0.9112657812E-14   0.6875000009E+01  -0.4649859646E-09  -0.4649651082E-09  -0.2828920643E-13   0.8253488019E-14   0.9933465334E-14   0.1375000002E-01  -0.6861250010E-02  -0.6861250010E-02   0.1849285053E-14   0.2701721801E-14   0.4150220283E-14   0.6875000010E+01
   0.0000000000E+00   0.9931387500E+00  -0.4908993301E-14   0.0000000000E+00  -0.1122750000E-02   0.4385375432E-17   0.0000000000E+00  -0.5738500000E-02  -0.4913378677E-14   0.6875000010E+01  -0.4191541716E-09  -0.4191083449E-09  -0.4353677844E-13   0.9997534860E-13   0.3176988165E-13   0.1375000002E-01  -0.6861250010E-02  -0.6861250010E-02   0.1096104938E-14  -0.4350615932E-14  -0.5035423472E-14   0.6875000010E+01
   0.0000000000E+00   0.0000000000E+00   0.9931387500E+00   0.0000000000E+00   0.0000000000E+00  -0.1122750000E-02   0.0000000000E+00   0.0000000000E+00  -0.5738500000E-02   0.6875000010E+01   0.4740681659E-09   0.4740475474E-09  -0.1268374782E-15   0.2988912798E-13  -0.2330297811E-13   0.1375000002E-01  -0.6861250010E-02  -0.6861250010E-02   0.2807425458E-18  -0.6442819220E-14  -0.1012913115E-14   0.6875000010E+01
   0.1013750000E+01   0.0000000000E+00   0.9931387500E+00   0.2250000000E-02   0.0000000000E+00  -0.1122750000E-02   0.1150000000E-01   0.0000000000E+00  -0.5738500000E-02   0.6875000010E+01   0.4287940510E-09   0.4287583522E-09   0.5577009345E-13  -0.9381056380E-13  -0.1379652190E-13   0.1375000002E-01  -0.6861250010E-02  -0.6861250010E-02  -0.2243424090E-14   0.5596794743E-14  -0.3811202107E-14   0.6875000010E+01
   0.1013750000E+01   0.9931387500E+00   0.9931387500E+00   0.2250000000E-02  -0.1122750000E-02  -0.1122750000E-02   0.1150000000E-01  -0.5738500000E-02  -0.5738500000E-02   0.6875000009E+01   0.2658295349E-09   0.2657964591E-09  -0.2524537290E-13  -0.6481584920E-13   0.1137130620E-13   0.1375000002E-01  -0.6861250009E-02  -0.6861250009E-02  -0.2180387215E-14   0.8488703540E-15  -0.1045982412E-14   0.6875000009E+01
   0.0000000000E+00   0.9931387500E+00   0.9931387500E+00   0.0000000000E+00  -0.1122750000E-02  -0.1122750000E-02   0.0000000000E+00  -0.5738500000E-02  -0.5738500000E-02   0.6875000010E+01   0.6706048577E-09   0.6705619747E-09  -0.6421556742E-13   0.3989637653E-13   0.2272342673E-13   0.1375000002E-01  -0.6861250009E-02  -0.6861250009E-02  -0.1397963186E-14  -0.9745007145E-14   0.3784839749E-14   0.6875000009E+01
   0.2027500000E+01   0.0000000000E+00  -0.1951944904E-13   0.4500000000E-02   0.0000000000E+00   0.2271623994E-16   0.2300000000E-01   0.0000000000E+00  -0.1954216528E-13   0.6875000011E+01   0.1778649946E-09   0.1778796560E-09   0.5450153552E-13   0.6147607727E-13  -0.4642824953E-14   0.1375000002E-01  -0.6861250010E-02  -0.6861250010E-02  -0.7634686166E-14  -0.1555317789E-15  -0.3726398660E-14   0.6875000010E+01
   0.2027500000E+01   0.9931387500E+00  -0.2138205666E-13   0.4500000000E-02  -0.1122750000E-02   0.2289287240E-16   0.2300000000E-01  -0.5738500000E-02  -0.2140494953E-13   0.6875000009E+01  -0.3059801244E-09  -0.3059654335E-09  -0.3004746328E-13   0.4901588798E-13   0.6135021583E-14   0.1375000002E-01  -0.6861250010E-02  -0.6861250010E-02  -0.6474658922E-14   0.8488467795E-15  -0.1078869884E-14   0.6875000010E+01
   0.2027500000E+01   0.0000000000E+00   0.9931387500E+00   0.4500000000E-02   0.0000000000E+00  -0.1122750000E-02   0.2300000000E-01   0.0000000000E+00  -0.5738500000E-02   0.6875000009E+01  -0.1045200830E-09  -0.1045227476E-09   0.2898379690E-13  -0.1484200563E-13  -0.6629179382E-14   0.1375000002E-01  -0.6861250010E-02  -0.6861250010E-02   0.2568185029E-14  -0.7386930623E-14  -0.4593076584E-14   0.6875000010E+01
   0.2027500000E+01   0.9931387500E+00   0.9931387500E+00   0.4500000000E-02  -0.1122750000E-02  -0.1122750000E-02   0.2300000000E-01  -0.5738500000E-02  -0.5738500000E-02   0.6875000009E+01   0.1408305210E-09   0.1408225480E-09  -0.6971429214E-13  -0.3635948314E-13   0.3638425102E-14   0.1375000002E-01  -0.6861250009E-02  -0.6861250009E-02   0.4105230529E-14   0.2595629758E-14  -0.1943072136E-14   0.6875000009E+01
     1     2     3     4     5     6     7     8
     2     9    10     3     6    11    12     7
 VARIABLES = X,Y,Z,DU1,DU2,DU3,U1,U2,U3,S11,S22,S33,S12,S13,S23,E11,E22,E33,E12,E13,E23,SMISES
 ZONE, T="0.8800D+01" F=FEPOINT, I=   12 J=    2 ET=BRICK
   0.0000000000E+00   0.0000000000E+00   0.0000000000E+00   0.0000000000E+00   0.0000000000E+00   0.0000000000E+00   0.0000000000E+00   0.0000000000E+00   0.0000000000E+00   0.8000000012E+01  -0.9166686909E-09  -0.9166023972E-09   0.1776108303E-15   0.1073139682E-12  -0.1308419010E-13   0.1600000003E-01  -0.7984000013E-02  -0.7984000013E-02  -0.1018497823E-17  -0.1961614069E-13  -0.9824504591E-14   0.8000000013E+01
   0.1016000000E+01   0.0000000000E+00  -0.9788640384E-14   0.2250000000E-02   0.0000000000E+00   0.5982174286E-17   0.1375000000E-01   0.0000000000E+00  -0.9794622559E-14   0.8000000012E+01  -0.8777636476E-10  -0.8776275664E-10   0.3641520852E-13  -0.1694678604E-13  -0.1569276422E-13   0.1600000002E-01  -0.7984000012E-02  -0.7984000012E-02   0.7300645372E-15   0.2611330081E-14   0.1383956647E-14   0.8000000012E+01
   0.1016000000E+01   0.9920160000E+00  -0.9097835594E-14   0.2250000000E-02  -0.1122750000E-02   0.6369063319E-17   0.1375000000E-01  -0.6861250000E-02  -0.9104204658E-14   0.8000000011E+01  -0.4644603157E-09  -0.4644394592E-09  -0.2735509609E-13   0.7063322131E-14   0.9589165486E-14   0.1600000002E-01  -0.7984000011E-02  -0.7984000011E-02   0.1862858778E-14   0.2681709137E-14   0.4142831990E-14   0.8000000011E+01
   0.0000000000E+00   0.9920160000E+00  -0.4910651842E-14   0.0000000000E+00  -0.1122750000E-02  -0.1658540768E-17   0.0000000000E+00  -0.6861250000E-02  -0.4908993301E-14   0.8000000011E+01  -0.4178771978E-09  -0.4178313711E-09  -0.4361903326E-13   0.1010056407E-12   0.3103022453E-13   0.1600000002E-01  -0.7984000012E-02  -0.7984000012E-02   0.1089993474E-14  -0.4337485923E-14  -0.5036058831E-14   0.8000000012E+01
   0.0000000000E+00   0.0000000000E+00   0.9920160000E+00   0.0000000000E+00   0.0000000000E+00  -0.1122750000E-02   0.0000000000E+00   0.0000000000E+00  -0.6861250000E-02   0.8000000012E+01   0.4733611135E-09   0.4733404949E-09  -0.1340878823E-15   0.3100480517E-13  -0.2302926780E-13   0.1600000002E-01  -0.7984000012E-02  -0.7984000012E-02  -0.5537839674E-18  -0.6436224738E-14  -0.1002058566E-14   0.8000000012E+01
   0.1016000000E+01   0.0000000000E+00   0.9920160000E+00   0.2250000000E-02   0.0000000000E+00  -0.1122750000E-02   0.1375000000E-01   0.0000000000E+00  -0.6861250000E-02   0.8000000012E+01   0.4286031826E-09   0.4285674838E-09   0.5497295161E-13  -0.9353734039E-13  -0.1380197921E-13   0.1600000002E-01  -0.7984000011E-02  -0.7984000011E-02  -0.2247666512E-14   0.5608188542E-14  -0.3815993047E-14   0.8000000011E+01
   0.1016000000E+01   0.9920160000E+00   0.9920160000E+00   0.2250000000E-02  -0.1122750000E-02  -0.1122750000E-02   0.1375000000E-01  -0.6861250000E-02  -0.6861250000E-02   0.8000000011E+01   0.2652576538E-09   0.2652249627E-09  -0.2596294695E-13  -0.6621726154E-13   0.1086452531E-13   0.1600000002E-01  -0.7984000010E-02  -0.7984000010E-02  -0.2197042370E-14   0.8256809573E-15  -0.1036304107E-14   0.8000000010E+01
   0.0000000000E+00   0.9920160000E+00   0.9920160000E+00   0.0000000000E+00  -0.1122750000E-02  -0.1122750000E-02   0.0000000000E+00  -0.6861250000E-02  -0.6861250000E-02   0.8000000011E+01   0.6698016213E-09   0.6697596997E-09  -0.6438673976E-13   0.4048410553E-13   0.2267932391E-13   0.1600000002E-01  -0.7984000011E-02  -0.7984000011E-02  -0.1398524650E-14  -0.9731549395E-14   0.3767513288E-14   0.8000000011E+01
   0.2032000000E+01   0.0000000000E+00  -0.1950087134E-13   0.4500000000E-02   0.0000000000E+00   0.1857770143E-16   0.2750000000E-01   0.0000000000E+00  -0.1951944904E-13   0.8000000012E+01   0.1778187312E-09   0.1778335849E-09   0.5544769394E-13   0.6267369176E-13  -0.4123039716E-14   0.1600000002E-01  -0.7984000012E-02  -0.7984000012E-02  -0.7631861776E-14  -0.1384349641E-15  -0.3719922516E-14   0.8000000012E+01
   0.2032000000E+01   0.9920160000E+00  -0.2136045031E-13   0.4500000000E-02  -0.1122750000E-02   0.2160634652E-16   0.2750000000E-01  -0.6861250000E-02  -0.2138205666E-13   0.8000000011E+01  -0.3060131624E-09  -0.3059984716E-09  -0.2917615545E-13   0.4810139561E-13   0.6419970154E-14   0.1600000002E-01  -0.7984000011E-02  -0.7984000011E-02  -0.6460729844E-14   0.8596076305E-15  -0.1073171836E-14   0.8000000011E+01
   0.2032000000E+01   0.0000000000E+00   0.9920160000E+00   0.4500000000E-02   0.0000000000E+00  -0.1122750000E-02   0.2750000000E-01   0.0000000000E+00  -0.6861250000E-02   0.8000000011E+01  -0.1043258703E-09  -0.1043285350E-09   0.2779977977E-13  -0.1408533257E-13  -0.6042506309E-14   0.1600000002E-01  -0.7984000011E-02  -0.7984000011E-02   0.2568526765E-14  -0.7373011854E-14  -0.4587563112E-14   0.8000000011E+01
   0.2032000000E+01   0.9920160000E+00   0.9920160000E+00   0.4500000000E-02  -0.1122750000E-02  -0.1122750000E-02   0.2750000000E-01  -0.6861250000E-02  -0.6861250000E-02   0.8000000010E+01   0.1408469898E-09   0.1408388245E-09  -0.7095913914E-13  -0.3680030200E-13   0.4058542401E-14   0.1600000002E-01  -0.7984000010E-02  -0.7984000010E-02   0.4080216476E-14   0.2586333422E-14  -0.1948197157E-14   0.8000000010E+01
     1     2     3     4     5     6     7     8
     2     9    10     3     6    11    12     7
 VARIABLES = X,Y,Z,DU1,DU2,DU3,U1,U2,U3,S11,S22,S33,S12,S13,S23,E11,E22,E33,E12,E13,E23,SMISES
 ZONE, T="0.8850D+01" F=FEPOINT, I=   12 J=    2 ET=BRICK
   0.0000000000E+00   0.0000000000E+00   0.0000000000E+00   0.0000000000E+00   0.0000000000E+00   0.0000000000E+00   0.0000000000E+00   0.0000000000E+00   0.0000000000E+00   0.9125000013E+01  -0.9161281355E-09  -0.9160617698E-09   0.1866154693E-15   0.1071304834E-12  -0.1321643802E-13   0.1825000003E-01  -0.9106750014E-02  -0.9106750014E-02   0.3116049867E-17  -0.1961703814E-13  -0.9823157659E-14   0.9125000014E+01
   0.1018250000E+01   0.0000000000E+00  -0.9788160694E-14   0.2250000000E-02   0.0000000000E+00   0.4796898862E-18   0.1600000000E-01   0.0000000000E+00  -0.9788640384E-14   0.9125000014E+01  -0.8754985386E-10  -0.8753551718E-10   0.3486535287E-13  -0.1835111993E-13  -0.1550381019E-13   0.1825000003E-01  -0.9106750014E-02  -0.9106750014E-02   0.7036044816E-15   0.2597100165E-14   0.1383507332E-14   0.9125000014E+01
   0.1018250000E+01   0.9908932500E+00  -0.9096226550E-14   0.2250000000E-02  -0.1122750000E-02   0.1609044036E-17   0.1600000000E-01  -0.7984000000E-02  -0.9097835594E-14   0.9125000013E+01  -0.4645592787E-09  -0.4645387959E-09  -0.2847138935E-13   0.7975026880E-14   0.9897153955E-14   0.1825000003E-01  -0.9106750013E-02  -0.9106750013E-02   0.1842962490E-14   0.2695082677E-14   0.4152623714E-14   0.9125000013E+01
   0.0000000000E+00   0.9908932500E+00  -0.4911430271E-14   0.0000000000E+00  -0.1122750000E-02  -0.7784293410E-18   0.0000000000E+00  -0.7984000000E-02  -0.4910651842E-14   0.9125000013E+01  -0.4182577804E-09  -0.4182115746E-09  -0.4339894772E-13   0.1013647565E-12   0.3116513568E-13   0.1825000003E-01  -0.9106750013E-02  -0.9106750013E-02   0.1098991825E-14  -0.4334127444E-14  -0.5038961824E-14   0.9125000013E+01
   0.0000000000E+00   0.0000000000E+00   0.9908932500E+00   0.0000000000E+00   0.0000000000E+00  -0.1122750000E-02   0.0000000000E+00   0.0000000000E+00  -0.7984000000E-02   0.9125000014E+01   0.4727031122E-09   0.4726817706E-09  -0.1463847565E-15   0.3152880420E-13  -0.2285131792E-13   0.1825000003E-01  -0.9106750013E-02  -0.9106750013E-02  -0.5189359244E-18  -0.6424500448E-14  -0.1006333867E-14   0.9125000013E+01
   0.1018250000E+01   0.0000000000E+00   0.9908932500E+00   0.2250000000E-02   0.0000000000E+00  -0.1122750000E-02   0.1600000000E-01   0.0000000000E+00  -0.7984000000E-02   0.9125000013E+01   0.4285778069E-09   0.4285421190E-09   0.5595434818E-13  -0.9488739433E-13  -0.1390301766E-13   0.1825000003E-01  -0.9106750013E-02  -0.9106750013E-02  -0.2240293211E-14   0.5586156129E-14  -0.3811421823E-14   0.9125000013E+01
   0.1018250000E+01   0.9908932500E+00   0.9908932500E+00   0.2250000000E-02  -0.1122750000E-02  -0.1122750000E-02   0.1600000000E-01  -0.7984000000E-02  -0.7984000000E-02   0.9125000012E+01   0.2651221439E-09   0.2650892713E-09  -0.2490141260E-13  -0.6526465323E-13   0.1089565220E-13   0.1825000002E-01  -0.9106750012E-02  -0.9106750012E-02  -0.2173566172E-14   0.8521809242E-15  -0.1058128831E-14   0.9125000012E+01
   0.0000000000E+00   0.9908932500E+00   0.9908932500E+00   0.0000000000E+00  -0.1122750000E-02  -0.1122750000E-02   0.0000000000E+00  -0.7984000000E-02  -0.7984000000E-02   0.9125000013E+01   0.6699029588E-09   0.6698601665E-09  -0.6434578871E-13   0.4077119238E-13   0.2319279274E-13   0.1825000002E-01  -0.9106750012E-02  -0.9106750012E-02  -0.1409716568E-14  -0.9737296176E-14   0.3786863518E-14   0.9125000012E+01
   0.2036500000E+01   0.0000000000E+00  -0.1949421954E-13   0.4500000000E-02   0.0000000000E+00   0.6651800232E-17   0.3200000000E-01   0.0000000000E+00  -0.1950087134E-13   0.9125000014E+01   0.1775078953E-09   0.1775219297E-09   0.5485319510E-13   0.6270479781E-13  -0.4353677952E-14   0.1825000003E-01  -0.9106750014E-02  -0.9106750014E-02  -0.7632508394E-14  -0.1678210379E-15  -0.3723273103E-14   0.9125000014E+01
   0.2036500000E+01   0.9908932500E+00  -0.2135533910E-13   0.4500000000E-02  -0.1122750000E-02   0.5111205327E-17   0.3200000000E-01  -0.7984000000E-02  -0.2136045031E-13   0.9125000012E+01  -0.3056217964E-09  -0.3056086167E-09  -0.2932930654E-13   0.4802727724E-13   0.5890407121E-14   0.1825000003E-01  -0.9106750013E-02  -0.9106750013E-02  -0.6462774849E-14   0.8625940154E-15  -0.1079690540E-14   0.9125000013E+01
   0.2036500000E+01   0.0000000000E+00   0.9908932500E+00   0.4500000000E-02   0.0000000000E+00  -0.1122750000E-02   0.3200000000E-01   0.0000000000E+00  -0.7984000000E-02   0.9125000013E+01  -0.1040534762E-09  -0.1040557806E-09   0.2777476507E-13  -0.1403288635E-13  -0.6339151424E-14   0.1825000003E-01  -0.9106750013E-02  -0.9106750013E-02   0.2559402892E-14  -0.7363822275E-14  -0.4589133453E-14   0.9125000013E+01
   0.2036500000E+01   0.9908932500E+00   0.9908932500E+00   0.4500000000E-02  -0.1122750000E-02  -0.1122750000E-02   0.3200000000E-01  -0.7984000000E-02  -0.7984000000E-02   0.9125000012E+01   0.1405764035E-09   0.1405678739E-09  -0.7073362166E-13  -0.3662885288E-13   0.3585322613E-14   0.1825000002E-01  -0.9106750012E-02  -0.9106750012E-02   0.4099792736E-14   0.2561412750E-14  -0.1943031161E-14   0.9125000012E+01
     1     2     3     4     5     6     7     8
     2     9    10     3     6    11    12     7
 VARIABLES = X,Y,Z,DU1,DU2,DU3,U1,U2,U3,S11,S22,S33,S12,S13,S23,E11,E22,E33,E12,E13,E23,SMISES
 ZONE, T="0.8900D+01" F=FEPOINT, I=   12 J=    2 ET=BRICK
   0.0000000000E+00   0.0000000000E+00   0.0000000000E+00   0.0000000000E+00   0.0000000000E+00   0.0000000000E+00   0.0000000000E+00   0.0000000000E+00   0.0000000000E+00   0.1025000002E+02  -0.8350908441E-09  -0.8350039535E-09   0.1650775265E-15   0.1527823094E-12   0.4151464773E-13   0.2550000004E-01  -0.1272950002E-01  -0.1272950002E-01   0.2240553526E-17  -0.1810976358E-13  -0.8809732585E-14   0.1025000002E+02
   0.1025500000E+01   0.0000000000E+00  -0.9086962729E-14   0.7250000000E-02   0.0000000000E+00   0.7011979658E-15   0.1825000000E-01   0.0000000000E+00  -0.9788160694E-14   0.1025000002E+02  -0.8590240244E-10  -0.8592918507E-10   0.8251908473E-13   0.8294145970E-14   0.1778174297E-13   0.2550000004E-01  -0.1272950002E-01  -0.1272950002E-01   0.1515540591E-14   0.2867224558E-14   0.1797554589E-14   0.1025000002E+02
   0.1025500000E+01   0.9872705000E+00  -0.8188439848E-14   0.7250000000E-02  -0.3622750000E-02   0.9077867021E-15   0.1825000000E-01  -0.9106750000E-02  -0.9096226550E-14   0.1025000001E+02  -0.4381985977E-09  -0.4382167465E-09  -0.1636073974E-13  -0.6926521701E-13   0.3777633937E-14   0.2550000004E-01  -0.1272950002E-01  -0.1272950002E-01   0.1892844640E-14   0.1509441731E-14   0.3982316165E-14   0.1025000001E+02
   0.0000000000E+00   0.9872705000E+00  -0.4405204478E-14   0.0000000000E+00  -0.3622750000E-02   0.5062257938E-15   0.0000000000E+00  -0.9106750000E-02  -0.4911430271E-14   0.1025000001E+02  -0.3345858491E-09  -0.3346093529E-09  -0.6817185926E-13   0.1188969969E-12   0.1415427812E-13   0.2550000004E-01  -0.1272950002E-01  -0.1272950002E-01   0.5634406007E-15  -0.3646701291E-14  -0.5064960535E-14   0.1025000001E+02
   0.0000000000E+00   0.0000000000E+00   0.9872705000E+00   0.0000000000E+00   0.0000000000E+00  -0.3622750000E-02   0.0000000000E+00   0.0000000000E+00  -0.9106750000E-02   0.1025000002E+02   0.4576064530E-09   0.4577495250E-09  -0.1833892847E-15   0.1855987454E-14  -0.1356839434E-13   0.2550000004E-01  -0.1272950002E-01  -0.1272950002E-01  -0.1137214383E-17  -0.6604196479E-14  -0.9232654887E-15   0.1025000001E+02
   0.1025500000E+01   0.0000000000E+00   0.9872705000E+00   0.7250000000E-02   0.0000000000E+00  -0.3622750000E-02   0.1825000000E-01   0.0000000000E+00  -0.9106750000E-02   0.1025000002E+02   0.3961553511E-09   0.3961570273E-09   0.7748050941E-14  -0.9556441789E-13   0.2033434828E-13   0.2550000004E-01  -0.1272950002E-01  -0.1272950002E-01  -0.2734200525E-14   0.5126980204E-14  -0.3252181083E-14   0.1025000001E+02
   0.1025500000E+01   0.9872705000E+00   0.9872705000E+00   0.7250000000E-02  -0.3622750000E-02  -0.3622750000E-02   0.1825000000E-01  -0.9106750000E-02  -0.9106750000E-02   0.1025000001E+02   0.2503675304E-09   0.2503742660E-09  -0.5987676511E-13  -0.1568667889E-12   0.5782008510E-14   0.2550000003E-01  -0.1272950002E-01  -0.1272950002E-01  -0.2731321046E-14  -0.7467342491E-15  -0.1067966924E-14   0.1025000001E+02
   0.0000000000E+00   0.9872705000E+00   0.9872705000E+00   0.0000000000E+00  -0.3622750000E-02  -0.3622750000E-02   0.0000000000E+00  -0.9106750000E-02  -0.9106750000E-02   0.1025000001E+02   0.5806267541E-09   0.5806578404E-09  -0.6499446900E-13   0.4577519024E-13  -0.3918390291E-13   0.2550000003E-01  -0.1272950002E-01  -0.1272950002E-01  -0.1591491050E-14  -0.9299776151E-14   0.2834664237E-14   0.1025000001E+02
   0.2051000000E+01   0.0000000000E+00  -0.1829663774E-13   0.1450000000E-01   0.0000000000E+00   0.1197581801E-14   0.3650000000E-01   0.0000000000E+00  -0.1949421954E-13   0.1025000002E+02   0.1405193095E-09   0.1405870355E-09   0.9058348179E-13   0.7646992526E-13   0.3507703363E-13   0.2550000004E-01  -0.1272950002E-01  -0.1272950002E-01  -0.6731766051E-14   0.2449488905E-15  -0.3058104752E-14   0.1025000002E+02
   0.2051000000E+01   0.9872705000E+00  -0.1982464766E-13   0.1450000000E-01  -0.3622750000E-02   0.1530691447E-14   0.3650000000E-01  -0.9106750000E-02  -0.2135533910E-13   0.1025000001E+02  -0.3579882045E-09  -0.3579625020E-09  -0.3956279825E-13   0.7542611808E-13   0.7119979165E-13   0.2550000004E-01  -0.1272950002E-01  -0.1272950002E-01  -0.6546337415E-14   0.1388259900E-14  -0.5549242891E-16   0.1025000001E+02
   0.2051000000E+01   0.0000000000E+00   0.9872705000E+00   0.1450000000E-01   0.0000000000E+00  -0.3622750000E-02   0.3650000000E-01   0.0000000000E+00  -0.9106750000E-02   0.1025000001E+02  -0.9381203051E-10  -0.9381333371E-10   0.6308250910E-13   0.1986135469E-13   0.1330182192E-13   0.2550000004E-01  -0.1272950002E-01  -0.1272950002E-01   0.3134868954E-14  -0.6662384695E-14  -0.4206341235E-14   0.1025000001E+02
   0.2051000000E+01   0.9872705000E+00   0.9872705000E+00   0.1450000000E-01  -0.3622750000E-02  -0.3622750000E-02   0.3650000000E-01  -0.9106750000E-02  -0.9106750000E-02   0.1025000001E+02   0.1981542077E-09   0.1981076309E-09  -0.7883293966E-14  -0.2737069229E-13   0.4893662989E-13   0.2550000003E-01  -0.1272950002E-01  -0.1272950002E-01   0.4709199817E-14   0.2515312697E-14  -0.1217418056E-14   0.1025000001E+02
     1     2     3     4     5     6     7     8
     2     9    10     3     6    11    12     7
 VARIABLES = X,Y,Z,DU1,DU2,DU3,U1,U2,U3,S11,S22,S33,S12,S13,S23,E11,E22,E33,E12,E13,E23,SMISES
 ZONE, T="0.8950D+01" F=FEPOINT, I=   12 J=    2 ET=BRICK
   0.0000000000E+00   0.0000000000E+00   0.0000000000E+00   0.0000000000E+00   0.0000000000E+00   0.0000000000E+00   0.0000000000E+00   0.0000000000E+00   0.0000000000E+00   0.1137500002E+02  -0.4720382112E-10  -0.4706655789E-10  -0.1764769314E-15   0.4303461950E-12   0.1648132601E-12   0.5025000008E-01  -0.2510225004E-01  -0.2510225004E-01  -0.2233308965E-17  -0.7559058845E-14  -0.4389557493E-14   0.1137500002E+02
   0.1050250000E+01   0.0000000000E+00  -0.2450119552E-14   0.2475000000E-01   0.0000000000E+00   0.6636843177E-14   0.2550000000E-01   0.0000000000E+00  -0.9086962729E-14   0.1137500002E+02   0.1802520135E-09   0.1804165948E-09  -0.9931552354E-13  -0.1997771254E-12   0.7535633922E-13   0.5025000008E-01  -0.2510225004E-01  -0.2510225004E-01  -0.1930544239E-14  -0.2284274113E-14   0.3244544142E-14   0.1137500002E+02
   0.1050250000E+01   0.9748977500E+00  -0.8286007459E-15   0.2475000000E-01  -0.1237275000E-01   0.7359839102E-14   0.2550000000E-01  -0.1272950000E-01  -0.8188439848E-14   0.1137500002E+02  -0.2738221116E-09  -0.2740124859E-09  -0.1046687725E-12  -0.1265755336E-12   0.2646205803E-13   0.5025000007E-01  -0.2510225004E-01  -0.2510225004E-01  -0.6385163037E-15  -0.9923447253E-15   0.4176595719E-14   0.1137500002E+02
   0.0000000000E+00   0.9748977500E+00  -0.2194421439E-14   0.0000000000E+00  -0.1237275000E-01   0.2210783038E-14   0.0000000000E+00  -0.1272950000E-01  -0.4405204478E-14   0.1137500002E+02   0.4073103089E-10   0.4054861337E-10  -0.7564239198E-13   0.3698405551E-12   0.1190053422E-12   0.5025000007E-01  -0.2510225004E-01  -0.2510225004E-01  -0.5825099969E-15   0.4374555315E-14  -0.1842426281E-14   0.1137500002E+02
   0.0000000000E+00   0.0000000000E+00   0.9748977500E+00   0.0000000000E+00   0.0000000000E+00  -0.1237275000E-01   0.0000000000E+00   0.0000000000E+00  -0.1272950000E-01   0.1137500002E+02  -0.1035354546E-09  -0.1033054619E-09   0.1103950266E-15   0.4541014067E-12   0.4707825003E-14   0.5025000007E-01  -0.2510225004E-01  -0.2510225004E-01   0.3329355992E-17   0.4981349717E-14  -0.5595705047E-15   0.1137500002E+02
   0.1050250000E+01   0.0000000000E+00   0.9748977500E+00   0.2475000000E-01   0.0000000000E+00  -0.1237275000E-01   0.2550000000E-01   0.0000000000E+00  -0.1272950000E-01   0.1137500002E+02   0.2263193773E-09   0.2265833518E-09   0.1196697922E-12  -0.3621049340E-12  -0.1033336949E-12   0.5025000007E-01  -0.2510225004E-01  -0.2510225004E-01   0.3446674553E-15  -0.3077456422E-14  -0.5643634058E-14   0.1137500002E+02
   0.1050250000E+01   0.9748977500E+00   0.9748977500E+00   0.2475000000E-01  -0.1237275000E-01  -0.1237275000E-01   0.2550000000E-01  -0.1272950000E-01  -0.1272950000E-01   0.1137500001E+02  -0.1764779815E-09  -0.1765727808E-09   0.1088520860E-12   0.1275217564E-14  -0.1530192083E-12   0.5025000007E-01  -0.2510225003E-01  -0.2510225003E-01   0.8037505608E-15   0.1032674851E-14  -0.4715415550E-14   0.1137500001E+02
   0.0000000000E+00   0.9748977500E+00   0.9748977500E+00   0.0000000000E+00  -0.1237275000E-01  -0.1237275000E-01   0.0000000000E+00  -0.1272950000E-01  -0.1272950000E-01   0.1137500002E+02   0.9040746116E-10   0.9031757080E-10  -0.7793392909E-13   0.2195467931E-12  -0.4030093732E-13   0.5025000007E-01  -0.2510225003E-01  -0.2510225003E-01  -0.2609850303E-14  -0.3544469058E-14   0.2006503588E-14   0.1137500002E+02
   0.2100500000E+01   0.0000000000E+00   0.3905383949E-15   0.4950000000E-01   0.0000000000E+00   0.1868717613E-13   0.5100000000E-01   0.0000000000E+00  -0.1829663774E-13   0.1137500002E+02  -0.2265456992E-09  -0.2270387051E-09   0.1265649349E-12   0.3833940539E-12  -0.1301296500E-12   0.5025000008E-01  -0.2510225004E-01  -0.2510225004E-01  -0.3981121787E-14   0.8556323288E-14  -0.6262068997E-14   0.1137500002E+02
   0.2100500000E+01   0.9748977500E+00  -0.2739124271E-14   0.4950000000E-01  -0.1237275000E-01   0.1708552339E-13   0.5100000000E-01  -0.1272950000E-01  -0.1982464766E-13   0.1137500002E+02   0.7137682467E-10   0.7173028943E-10   0.1922226611E-12  -0.1317013723E-12  -0.1875066025E-12   0.5025000007E-01  -0.2510225004E-01  -0.2510225004E-01  -0.8456673633E-15  -0.2653772251E-14  -0.5358335712E-14   0.1137500002E+02
   0.2100500000E+01   0.0000000000E+00   0.9748977500E+00   0.4950000000E-01   0.0000000000E+00  -0.1237275000E-01   0.5100000000E-01   0.0000000000E+00  -0.1272950000E-01   0.1137500002E+02  -0.1508082555E-10  -0.1545542716E-10  -0.1515232979E-12   0.3431903779E-13   0.2922038500E-12   0.5025000007E-01  -0.2510225004E-01  -0.2510225004E-01  -0.1525990382E-14  -0.5398561796E-14   0.3111282227E-14   0.1137500002E+02
   0.2100500000E+01   0.9748977500E+00   0.9748977500E+00   0.4950000000E-01  -0.1237275000E-01  -0.1237275000E-01   0.5100000000E-01  -0.1272950000E-01  -0.1272950000E-01   0.1137500001E+02   0.2793387083E-09   0.2798077583E-09  -0.9672020226E-13   0.2757914877E-12   0.2336563732E-12   0.5025000006E-01  -0.2510225003E-01  -0.2510225003E-01   0.1989998181E-14   0.9249438134E-14   0.4015448147E-14   0.1137500001E+02
     1     2     3     4     5     6     7     8
     2     9    10     3     6    11    12     7
 VARIABLES = X,Y,Z,DU1,DU2,DU3,U1,U2,U3,S11,S22,S33,S12,S13,S23,E11,E22,E33,E12,E13,E23,SMISES
 ZONE, T="0.9000D+01" F=FEPOINT, I=   12 J=    2 ET=BRICK
   0.0000000000E+00   0.0000000000E+00   0.0000000000E+00   0.0000000000E+00   0.0000000000E+00   0.0000000000E+00   0.0000000000E+00   0.0000000000E+00   0.0000000000E+00   0.1250000002E+02  -0.3531304875E-09  -0.3531103705E-09  -0.1696284220E-15   0.3715886141E-13  -0.2950109330E-14   0.7500000012E-01  -0.3747500006E-01  -0.3747500006E-01  -0.4199285483E-17  -0.1052303080E-13  -0.5793963749E-14   0.1250000002E+02
   0.1075000000E+01   0.0000000000E+00  -0.4581991403E-14   0.2475000000E-01   0.0000000000E+00  -0.2131871851E-14   0.5025000000E-01   0.0000000000E+00  -0.2450119552E-14   0.1250000002E+02   0.5655368926E-10   0.5655570517E-10   0.9251654949E-14  -0.4278156475E-14  -0.6973271218E-14   0.7500000012E-01  -0.3747500006E-01  -0.3747500006E-01  -0.4406031363E-15  -0.4635712367E-16   0.1926068895E-14   0.1250000002E+02
   0.1075000000E+01   0.9625250000E+00  -0.3614546054E-14   0.2475000000E-01  -0.1237275000E-01  -0.2785945308E-14   0.5025000000E-01  -0.2510225000E-01  -0.8286007459E-15   0.1250000002E+02  -0.2856030297E-09  -0.2855917910E-09  -0.1301206888E-13   0.6276588357E-14   0.1921304725E-14   0.7500000011E-01  -0.3747500005E-01  -0.3747500005E-01   0.2296303904E-15   0.6692776988E-15   0.3507584737E-14   0.1250000002E+02
   0.0000000000E+00   0.9625250000E+00  -0.2895040942E-14   0.0000000000E+00  -0.1237275000E-01  -0.7006195025E-15   0.0000000000E+00  -0.2510225000E-01  -0.2194421439E-14   0.1250000002E+02  -0.1169333283E-09  -0.1169204873E-09  -0.1361540198E-13   0.3001713508E-13   0.1034964025E-13   0.7500000011E-01  -0.3747500005E-01  -0.3747500005E-01  -0.3731169243E-16   0.6581923426E-15  -0.2681258192E-14   0.1250000002E+02
   0.0000000000E+00   0.0000000000E+00   0.9625250000E+00   0.0000000000E+00   0.0000000000E+00  -0.1237275000E-01   0.0000000000E+00   0.0000000000E+00  -0.2510225000E-01   0.1250000002E+02   0.1203108164E-09   0.1203069718E-09   0.2067125325E-15   0.9728832712E-14  -0.7077830420E-14   0.7500000011E-01  -0.3747500005E-01  -0.3747500005E-01   0.1478321892E-16  -0.1719534307E-15  -0.7275273309E-15   0.1250000002E+02
   0.1075000000E+01   0.0000000000E+00   0.9625250000E+00   0.2475000000E-01   0.0000000000E+00  -0.1237275000E-01   0.5025000000E-01   0.0000000000E+00  -0.2510225000E-01   0.1250000002E+02   0.2558679012E-09   0.2558512781E-09   0.1713113805E-13  -0.2874743548E-13  -0.3280748068E-14   0.7500000011E-01  -0.3747500005E-01  -0.3747500005E-01  -0.5913686134E-15   0.4253606194E-15  -0.4020258234E-14   0.1250000002E+02
   0.1075000000E+01   0.9625250000E+00   0.9625250000E+00   0.2475000000E-01  -0.1237275000E-01  -0.1237275000E-01   0.5025000000E-01  -0.2510225000E-01  -0.2510225000E-01   0.1250000002E+02   0.1788822600E-10   0.1787900589E-10  -0.8670389302E-14  -0.1907663185E-13   0.5637681158E-14   0.7500000010E-01  -0.3747500005E-01  -0.3747500005E-01  -0.6643561321E-15   0.3738007629E-15  -0.2451380849E-14   0.1250000002E+02
   0.0000000000E+00   0.9625250000E+00   0.9625250000E+00   0.0000000000E+00  -0.1237275000E-01  -0.1237275000E-01   0.0000000000E+00  -0.2510225000E-01  -0.2510225000E-01   0.1250000002E+02   0.2864647492E-09   0.2864528494E-09  -0.1801961426E-13   0.1501963035E-13   0.5633076248E-14   0.7500000010E-01  -0.3747500005E-01  -0.3747500005E-01  -0.1952118113E-14  -0.5170642183E-14   0.2353526828E-14   0.1250000002E+02
   0.2150000000E+01   0.0000000000E+00  -0.6449084494E-14   0.4950000000E-01   0.0000000000E+00  -0.6839622889E-14   0.1005000000E+00   0.0000000000E+00   0.3905383949E-15   0.1250000002E+02  -0.4024830354E-10  -0.4023532539E-10   0.2254726925E-13   0.1530243717E-13   0.1282431254E-14   0.7500000011E-01  -0.3747500006E-01  -0.3747500006E-01  -0.4381494092E-14   0.4102980769E-14  -0.4183298482E-14   0.1250000002E+02
   0.2150000000E+01   0.9625250000E+00  -0.8545701995E-14   0.4950000000E-01  -0.1237275000E-01  -0.5806577724E-14   0.1005000000E+00  -0.2510225000E-01  -0.2739124271E-14   0.1250000002E+02  -0.9462707839E-10  -0.9462932196E-10  -0.7526825127E-14   0.1408688565E-13   0.6342805127E-14   0.7500000010E-01  -0.3747500005E-01  -0.3747500005E-01  -0.2999657194E-14  -0.7158079860E-15  -0.2648389548E-14   0.1250000002E+02
   0.2150000000E+01   0.0000000000E+00   0.9625250000E+00   0.4950000000E-01   0.0000000000E+00  -0.1237275000E-01   0.1005000000E+00   0.0000000000E+00  -0.2510225000E-01   0.1250000002E+02  -0.5683231922E-10  -0.5682830356E-10   0.1224468805E-13  -0.6197697163E-14  -0.5917972899E-14   0.7500000010E-01  -0.3747500005E-01  -0.3747500005E-01   0.5312362211E-15  -0.5330467968E-14  -0.5094957716E-15   0.1250000002E+02
   0.2150000000E+01   0.9625250000E+00   0.9625250000E+00   0.4950000000E-01  -0.1237275000E-01  -0.1237275000E-01   0.1005000000E+00  -0.2510225000E-01  -0.2510225000E-01   0.1250000002E+02   0.1671446839E-09   0.1671352324E-09  -0.2219455920E-13  -0.2257283778E-13  -0.1043632604E-14   0.7500000010E-01  -0.3747500005E-01  -0.3747500005E-01   0.2290562339E-14   0.4898510454E-14   0.1049815415E-14   0.1250000002E+02
     1     2     3     4     5     6     7     8
     2     9    10     3     6    11    12     7
 VARIABLES = X,Y,Z,DU1,DU2,DU3,U1,U2,U3,S11,S22,S33,S12,S13,S23,E11,E22,E33,E12,E13,E23,SMISES
 ZONE, T="0.9050D+01" F=FEPOINT, I=   12 J=    2 ET=BRICK
   0.0000000000E+00   0.0000000000E+00   0.0000000000E+00   0.0000000000E+00   0.0000000000E+00   0.0000000000E+00   0.0000000000E+00   0.0000000000E+00   0.0000000000E+00   0.1137500002E+02   0.1387477853E-09   0.1390556727E-09  -0.1599519405E-15   0.1156661742E-11   0.7061387914E-12   0.7275000011E-01  -0.3635225006E-01  -0.3635225006E-01   0.2944464252E-17   0.2936098828E-14   0.2727544154E-14   0.1137500002E+02
   0.1072750000E+01   0.0000000000E+00   0.1335990593E-14  -0.2250000000E-02   0.0000000000E+00   0.5917981996E-14   0.7500000000E-01   0.0000000000E+00  -0.4581991403E-14   0.1137500002E+02   0.9445620142E-10   0.9376849572E-10   0.1515700815E-12   0.1107029173E-12  -0.1440305078E-14   0.7275000011E-01  -0.3635225006E-01  -0.3635225006E-01   0.1252592069E-14   0.1273882402E-14   0.1991763646E-14   0.1137500002E+02
   0.1072750000E+01   0.9636477500E+00   0.2336586573E-14  -0.2250000000E-02   0.1122750000E-02   0.5951132627E-14   0.7500000000E-01  -0.3747500000E-01  -0.3614546054E-14   0.1137500002E+02  -0.6416554038E-10  -0.6408143063E-10   0.2623708452E-12  -0.2024102648E-12  -0.2928531013E-12   0.7275000010E-01  -0.3635225005E-01  -0.3635225005E-01   0.3542390269E-14  -0.1813755974E-14  -0.2593674867E-16   0.1137500002E+02
   0.0000000000E+00   0.9636477500E+00   0.1356683489E-14   0.0000000000E+00   0.1122750000E-02   0.4251724430E-14   0.0000000000E+00  -0.3747500000E-01  -0.2895040942E-14   0.1137500002E+02   0.2385470572E-09   0.2378589387E-09  -0.2780433451E-12   0.4916847364E-13   0.2487443203E-12   0.7275000011E-01  -0.3635225005E-01  -0.3635225005E-01  -0.3213974118E-14   0.8848295877E-15   0.1826501707E-15   0.1137500002E+02
   0.0000000000E+00   0.0000000000E+00   0.9636477500E+00   0.0000000000E+00   0.0000000000E+00   0.1122750000E-02   0.0000000000E+00   0.0000000000E+00  -0.3747500000E-01   0.1137500002E+02   0.2741469771E-10   0.2863980750E-10   0.2330848729E-15   0.1846244341E-12   0.2078326751E-12   0.7275000011E-01  -0.3635225005E-01  -0.3635225005E-01   0.2451465943E-17   0.1880776166E-14   0.1861471145E-14   0.1137500002E+02
   0.1072750000E+01   0.0000000000E+00   0.9636477500E+00  -0.2250000000E-02   0.0000000000E+00   0.1122750000E-02   0.7500000000E-01   0.0000000000E+00  -0.3747500000E-01   0.1137500002E+02  -0.6741817354E-10  -0.6752503031E-10  -0.2542809037E-12   0.1124300192E-12   0.3844312015E-12   0.7275000010E-01  -0.3635225005E-01  -0.3635225005E-01  -0.3810078535E-14   0.2190625398E-14   0.6134730729E-15   0.1137500002E+02
   0.1072750000E+01   0.9636477500E+00   0.9636477500E+00  -0.2250000000E-02   0.1122750000E-02   0.1122750000E-02   0.7500000000E-01  -0.3747500000E-01  -0.3747500000E-01   0.1137500001E+02  -0.2172010827E-09  -0.2165354579E-09  -0.2501699880E-12  -0.2823016919E-12   0.9299191150E-13   0.7275000010E-01  -0.3635225005E-01  -0.3635225005E-01  -0.3556503710E-14  -0.2727967990E-14  -0.1424854649E-14   0.1137500001E+02
   0.0000000000E+00   0.9636477500E+00   0.9636477500E+00   0.0000000000E+00   0.1122750000E-02   0.1122750000E-02   0.0000000000E+00  -0.3747500000E-01  -0.3747500000E-01   0.1137500002E+02  -0.2048807745E-09  -0.2046516945E-09   0.2475411233E-13   0.4443136258E-12  -0.2500869279E-12   0.7275000010E-01  -0.3635225005E-01  -0.3635225005E-01  -0.1458591275E-14  -0.5469756974E-16  -0.7193784406E-15   0.1137500002E+02
   0.2145500000E+01   0.0000000000E+00   0.2207008630E-14  -0.4500000000E-02   0.0000000000E+00   0.8656093124E-14   0.1500000000E+00   0.0000000000E+00  -0.6449084494E-14   0.1137500002E+02   0.4553204143E-09   0.4551938449E-09  -0.6430411440E-14  -0.5057558063E-12   0.8908814642E-12   0.7275000011E-01  -0.3635225005E-01  -0.3635225005E-01  -0.4779645126E-14  -0.2115578632E-14   0.6473867159E-14   0.1137500002E+02
   0.2145500000E+01   0.9636477500E+00   0.5444504868E-14  -0.4500000000E-02   0.1122750000E-02   0.1399020686E-13   0.1500000000E+00  -0.3747500000E-01  -0.8545701995E-14   0.1137500002E+02  -0.5101642481E-10  -0.5246959753E-10   0.4940932216E-12   0.3927356007E-12   0.2186593799E-12   0.7275000010E-01  -0.3635225005E-01  -0.3635225005E-01   0.2947493893E-14   0.3789302141E-14  -0.8910663256E-16   0.1137500002E+02
   0.2145500000E+01   0.0000000000E+00   0.9636477500E+00  -0.4500000000E-02   0.0000000000E+00   0.1122750000E-02   0.1500000000E+00   0.0000000000E+00  -0.3747500000E-01   0.1137500002E+02   0.2685874482E-10   0.2807710380E-10  -0.3985865294E-12   0.4704355607E-12   0.2275332300E-12   0.7275000010E-01  -0.3635225005E-01  -0.3635225005E-01  -0.4420951647E-14   0.3610903044E-15   0.2327827315E-14   0.1137500002E+02
   0.2145500000E+01   0.9636477500E+00   0.9636477500E+00  -0.4500000000E-02   0.1122750000E-02   0.1122750000E-02   0.1500000000E+00  -0.3747500000E-01  -0.3747500000E-01   0.1137500001E+02  -0.1297426058E-09  -0.1298494939E-09  -0.4161286076E-12  -0.1638787890E-12  -0.4448514298E-12   0.7275000009E-01  -0.3635225005E-01  -0.3635225005E-01  -0.2439531408E-14   0.3236840576E-14  -0.4319387449E-14   0.1137500001E+02
     1     2     3     4     5     6     7     8
     2     9    10     3     6    11    12     7
 VARIABLES = X,Y,Z,DU1,DU2,DU3,U1,U2,U3,S11,S22,S33,S12,S13,S23,E11,E22,E33,E12,E13,E23,SMISES
 ZONE, T="0.9100D+01" F=FEPOINT, I=   12 J=    2 ET=BRICK
   0.0000000000E+00   0.0000000000E+00   0.0000000000E+00   0.0000000000E+00   0.0000000000E+00   0.0000000000E+00   0.0000000000E+00   0.0000000000E+00   0.0000000000E+00   0.1025000002E+02  -0.3553399079E-09  -0.3553161808E-09  -0.1663089609E-15   0.3501276378E-13  -0.3426256757E-14   0.7050000011E-01  -0.3522950006E-01  -0.3522950006E-01  -0.2875892388E-17  -0.1054560392E-13  -0.5795219726E-14   0.1025000002E+02
   0.1070500000E+01   0.0000000000E+00  -0.4602340682E-14  -0.2250000000E-02   0.0000000000E+00  -0.5938331274E-14   0.7275000000E-01   0.0000000000E+00   0.1335990593E-14   0.1025000002E+02   0.5495044661E-10   0.5495276584E-10   0.9113649691E-14  -0.1794474873E-14  -0.7374964945E-14   0.7050000011E-01  -0.3522950005E-01  -0.3522950005E-01  -0.4493572278E-15  -0.2551075907E-16   0.1940507427E-14   0.1025000002E+02
   0.1070500000E+01   0.9647705000E+00  -0.3637295617E-14  -0.2250000000E-02   0.1122750000E-02  -0.5973882190E-14   0.7275000000E-01  -0.3635225000E-01   0.2336586573E-14   0.1025000001E+02  -0.2869108918E-09  -0.2869009258E-09  -0.1328936953E-13   0.7359390768E-14   0.2111588266E-14   0.7050000010E-01  -0.3522950005E-01  -0.3522950005E-01   0.2151468680E-15   0.6049852236E-15   0.3487344710E-14   0.1025000001E+02
   0.0000000000E+00   0.9647705000E+00  -0.2897898774E-14   0.0000000000E+00   0.1122750000E-02  -0.4254582263E-14   0.0000000000E+00  -0.3635225000E-01   0.1356683489E-14   0.1025000001E+02  -0.1196384860E-09  -0.1196243097E-09  -0.1303164709E-13   0.2805294572E-13   0.1141812151E-13   0.7050000010E-01  -0.3522950005E-01  -0.3522950005E-01  -0.3564368045E-16   0.6645634167E-15  -0.2689617071E-14   0.1025000001E+02
   0.0000000000E+00   0.0000000000E+00   0.9647705000E+00   0.0000000000E+00   0.0000000000E+00   0.1122750000E-02   0.0000000000E+00   0.0000000000E+00  -0.3635225000E-01   0.1025000002E+02   0.1241266496E-09   0.1241222311E-09   0.1954776025E-15   0.5825062461E-14  -0.8348096572E-14   0.7050000010E-01  -0.3522950005E-01  -0.3522950005E-01  -0.3059095561E-17  -0.2485359473E-15  -0.7070399772E-15   0.1025000001E+02
   0.1070500000E+01   0.0000000000E+00   0.9647705000E+00  -0.2250000000E-02   0.0000000000E+00   0.1122750000E-02   0.7275000000E-01   0.0000000000E+00  -0.3635225000E-01   0.1025000001E+02   0.2566805250E-09   0.2566628077E-09   0.1578972015E-13  -0.2687701231E-13  -0.3712111660E-14   0.7050000010E-01  -0.3522950005E-01  -0.3522950005E-01  -0.5567065011E-15   0.4672022388E-15  -0.4059635471E-14   0.1025000001E+02
   0.1070500000E+01   0.9647705000E+00   0.9647705000E+00  -0.2250000000E-02   0.1122750000E-02   0.1122750000E-02   0.7275000000E-01  -0.3635225000E-01  -0.3635225000E-01   0.1025000001E+02   0.1910299030E-10   0.1909243208E-10  -0.1053225439E-13  -0.1812737503E-13   0.5706175093E-14   0.7050000009E-01  -0.3522950005E-01  -0.3522950005E-01  -0.6517186792E-15   0.4657192079E-15  -0.2497958278E-14   0.1025000001E+02
   0.0000000000E+00   0.9647705000E+00   0.9647705000E+00   0.0000000000E+00   0.1122750000E-02   0.1122750000E-02   0.0000000000E+00  -0.3635225000E-01  -0.3635225000E-01   0.1025000001E+02   0.2885963734E-09   0.2885845331E-09  -0.1873559768E-13   0.1212571595E-13   0.6120555100E-14   0.7050000009E-01  -0.3522950005E-01  -0.3522950005E-01  -0.1996103589E-14  -0.5251931444E-14   0.2398026530E-14   0.1025000001E+02
   0.2141000000E+01   0.0000000000E+00  -0.6520943060E-14  -0.4500000000E-02   0.0000000000E+00  -0.8727951690E-14   0.1455000000E+00   0.0000000000E+00   0.2207008630E-14   0.1025000002E+02  -0.4083212084E-10  -0.4081696794E-10   0.2332935155E-13   0.1372885551E-13   0.1024930406E-14   0.7050000011E-01  -0.3522950005E-01  -0.3522950005E-01  -0.4463052057E-14   0.3907235449E-14  -0.4198317960E-14   0.1025000002E+02
   0.2141000000E+01   0.9647705000E+00  -0.8619061250E-14  -0.4500000000E-02   0.1122750000E-02  -0.1406356612E-13   0.1455000000E+00  -0.3635225000E-01   0.5444504868E-14   0.1025000001E+02  -0.9461564693E-10  -0.9461526077E-10  -0.7610035192E-14   0.1355845170E-13   0.6882922795E-14   0.7050000010E-01  -0.3522950005E-01  -0.3522950005E-01  -0.3095565471E-14  -0.4868325006E-15  -0.2651882049E-14   0.1025000001E+02
   0.2141000000E+01   0.0000000000E+00   0.9647705000E+00  -0.4500000000E-02   0.0000000000E+00   0.1122750000E-02   0.1455000000E+00   0.0000000000E+00  -0.3635225000E-01   0.1025000001E+02  -0.5801111210E-10  -0.5800752964E-10   0.1415988234E-13  -0.7312543511E-14  -0.6501962970E-14   0.7050000010E-01  -0.3522950005E-01  -0.3522950005E-01   0.5341017946E-15  -0.5497937377E-14  -0.5011233655E-15   0.1025000001E+02
   0.2141000000E+01   0.9647705000E+00   0.9647705000E+00  -0.4500000000E-02   0.1122750000E-02   0.1122750000E-02   0.1455000000E+00  -0.3635225000E-01  -0.3635225000E-01   0.1025000001E+02   0.1679677464E-09   0.1679580729E-09  -0.2052788850E-13  -0.2250524332E-13  -0.8045751372E-15   0.7050000009E-01  -0.3522950005E-01  -0.3522950005E-01   0.2275791763E-14   0.4883377967E-14   0.1067641361E-14   0.1025000001E+02
     1     2     3     4     5     6     7     8
     2     9    10     3     6    11    12     7
 VARIABLES = X,Y,Z,DU1,DU2,DU3,U1,U2,U3,S11,S22,S33,S12,S13,S23,E11,E22,E33,E12,E13,E23,SMISES
 ZONE, T="0.9150D+01" F=FEPOINT, I=   12 J=    2 ET=BRICK
   0.0000000000E+00   0.0000000000E+00   0.0000000000E+00   0.0000000000E+00   0.0000000000E+00   0.0000000000E+00   0.0000000000E+00   0.0000000000E+00   0.0000000000E+00   0.9125000014E+01  -0.3557163726E-09  -0.3556929216E-09  -0.1530852397E-15   0.3490570787E-13  -0.4117110010E-14   0.6825000011E-01  -0.3410675005E-01  -0.3410675005E-01  -0.6549671031E-17  -0.1056114094E-13  -0.5816569914E-14   0.9125000014E+01
   0.1068250000E+01   0.0000000000E+00  -0.4603032364E-14  -0.2250000000E-02   0.0000000000E+00  -0.6916828525E-18   0.7050000000E-01   0.0000000000E+00  -0.4602340682E-14   0.9125000014E+01   0.5483788379E-10   0.5484187127E-10   0.1055534699E-13  -0.1709300862E-14  -0.7432337485E-14   0.6825000011E-01  -0.3410675005E-01  -0.3410675005E-01  -0.4409719265E-15   0.1452569580E-16   0.1926797514E-14   0.9125000014E+01
   0.1068250000E+01   0.9658932500E+00  -0.3638234180E-14  -0.2250000000E-02   0.1122750000E-02  -0.9385633143E-18   0.7050000000E-01  -0.3522950000E-01  -0.3637295617E-14   0.9125000013E+01  -0.2873230822E-09  -0.2873124472E-09  -0.1192513964E-13   0.5640729171E-14   0.2442758166E-14   0.6825000010E-01  -0.3410675005E-01  -0.3410675005E-01   0.2390809413E-15   0.6447056485E-15   0.3514601023E-14   0.9125000013E+01
   0.0000000000E+00   0.9658932500E+00  -0.2901819438E-14   0.0000000000E+00   0.1122750000E-02  -0.3920664346E-17   0.0000000000E+00  -0.3522950000E-01  -0.2897898774E-14   0.9125000013E+01  -0.1188999275E-09  -0.1188856823E-09  -0.1293573680E-13   0.2880106683E-13   0.1152728452E-13   0.6825000010E-01  -0.3410675005E-01  -0.3410675005E-01  -0.5190922925E-16   0.6585772905E-15  -0.2673737943E-14   0.9125000013E+01
   0.0000000000E+00   0.0000000000E+00   0.9658932500E+00   0.0000000000E+00   0.0000000000E+00   0.1122750000E-02   0.0000000000E+00   0.0000000000E+00  -0.3522950000E-01   0.9125000013E+01   0.1238985182E-09   0.1238933102E-09   0.1686277540E-15   0.6543952017E-14  -0.8826809728E-14   0.6825000010E-01  -0.3410675005E-01  -0.3410675005E-01  -0.1818336545E-17  -0.2206907859E-15  -0.7177670380E-15   0.9125000013E+01
   0.1068250000E+01   0.0000000000E+00   0.9658932500E+00  -0.2250000000E-02   0.0000000000E+00   0.1122750000E-02   0.7050000000E-01   0.0000000000E+00  -0.3522950000E-01   0.9125000013E+01   0.2573456652E-09   0.2573285139E-09   0.1541261452E-13  -0.2697910039E-13  -0.4220451158E-14   0.6825000010E-01  -0.3410675005E-01  -0.3410675005E-01  -0.5482819215E-15   0.4707779360E-15  -0.4063249301E-14   0.9125000013E+01
   0.1068250000E+01   0.9658932500E+00   0.9658932500E+00  -0.2250000000E-02   0.1122750000E-02   0.1122750000E-02   0.7050000000E-01  -0.3522950000E-01  -0.3522950000E-01   0.9125000012E+01   0.1925225322E-10   0.1924101799E-10  -0.1104739742E-13  -0.1978691021E-13   0.5579102296E-14   0.6825000009E-01  -0.3410675004E-01  -0.3410675004E-01  -0.6862525973E-15   0.4869107943E-15  -0.2484308761E-14   0.9125000012E+01
   0.0000000000E+00   0.9658932500E+00   0.9658932500E+00   0.0000000000E+00   0.1122750000E-02   0.1122750000E-02   0.0000000000E+00  -0.3522950000E-01  -0.3522950000E-01   0.9125000012E+01   0.2882924292E-09   0.2882798440E-09  -0.1919193111E-13   0.1271094736E-13   0.6285027595E-14   0.6825000009E-01  -0.3410675005E-01  -0.3410675005E-01  -0.1991972082E-14  -0.5253703050E-14   0.2416996244E-14   0.9125000012E+01
   0.2136500000E+01   0.0000000000E+00  -0.6523033958E-14  -0.4500000000E-02   0.0000000000E+00  -0.2090897963E-17   0.1410000000E+00   0.0000000000E+00  -0.6520943060E-14   0.9125000014E+01  -0.4147205212E-10  -0.4145682339E-10   0.2333665447E-13   0.1576433741E-13   0.8804751642E-15   0.6825000010E-01  -0.3410675005E-01  -0.3410675005E-01  -0.4502101517E-14   0.3938663047E-14  -0.4195606289E-14   0.9125000014E+01
   0.2136500000E+01   0.9658932500E+00  -0.8621983279E-14  -0.4500000000E-02   0.1122750000E-02  -0.2922028591E-17   0.1410000000E+00  -0.3522950000E-01  -0.8619061250E-14   0.9125000013E+01  -0.9621264103E-10  -0.9621234557E-10  -0.7758633024E-14   0.1457239885E-13   0.7582503049E-14   0.6825000010E-01  -0.3410675005E-01  -0.3410675005E-01  -0.3129385910E-14  -0.5462168661E-15  -0.2641139400E-14   0.9125000013E+01
   0.2136500000E+01   0.0000000000E+00   0.9658932500E+00  -0.4500000000E-02   0.0000000000E+00   0.1122750000E-02   0.1410000000E+00   0.0000000000E+00  -0.3522950000E-01   0.9125000013E+01  -0.5691707752E-10  -0.5691559797E-10   0.1306588864E-13  -0.6196618945E-14  -0.6287764353E-14   0.6825000010E-01  -0.3410675005E-01  -0.3410675005E-01   0.5381127514E-15  -0.5435109541E-14  -0.5051331401E-15   0.9125000013E+01
   0.2136500000E+01   0.9658932500E+00   0.9658932500E+00  -0.4500000000E-02   0.1122750000E-02   0.1122750000E-02   0.1410000000E+00  -0.3522950000E-01  -0.3522950000E-01   0.9125000012E+01   0.1688607472E-09   0.1688509246E-09  -0.2140442712E-13  -0.2192161921E-13   0.2080063439E-15   0.6825000009E-01  -0.3410675004E-01  -0.3410675004E-01   0.2314714204E-14   0.4891200852E-14   0.1081999506E-14   0.9125000012E+01
     1     2     3     4     5     6     7     8
     2     9    10     3     6    11    12     7
 VARIABLES = X,Y,Z,DU1,DU2,DU3,U1,U2,U3,S11,S22,S33,S12,S13,S23,E11,E22,E33,E12,E13,E23,SMISES
 ZONE, T="0.9200D+01" F=FEPOINT, I=   12 J=    2 ET=BRICK
   0.0000000000E+00   0.0000000000E+00   0.0000000000E+00   0.0000000000E+00   0.0000000000E+00   0.0000000000E+00   0.0000000000E+00   0.0000000000E+00   0.0000000000E+00   0.8000000012E+01  -0.3543867213E-09  -0.3543634993E-09  -0.1342492463E-15   0.3601815888E-13  -0.3512488634E-14   0.6600000010E-01  -0.3298400005E-01  -0.3298400005E-01   0.1789843467E-19  -0.1053572834E-13  -0.5806223338E-14   0.8000000013E+01
   0.1066000000E+01   0.0000000000E+00  -0.4593826937E-14  -0.2250000000E-02   0.0000000000E+00   0.9205427511E-17   0.6825000000E-01   0.0000000000E+00  -0.4603032364E-14   0.8000000012E+01   0.5532367737E-10   0.5532662209E-10   0.8918448151E-14  -0.2607450604E-14  -0.7300606049E-14   0.6600000010E-01  -0.3298400005E-01  -0.3298400005E-01  -0.4829256619E-15  -0.2255109075E-16   0.1930304054E-14   0.8000000012E+01
   0.1066000000E+01   0.9670160000E+00  -0.3628102444E-14  -0.2250000000E-02   0.1122750000E-02   0.1013173624E-16   0.6825000000E-01  -0.3410675000E-01  -0.3638234180E-14   0.8000000011E+01  -0.2867183036E-09  -0.2867087113E-09  -0.1347760707E-13   0.6472012253E-14   0.2202703468E-14   0.6600000009E-01  -0.3298400005E-01  -0.3298400005E-01   0.1886681488E-15   0.6808369040E-15   0.3526877074E-14   0.8000000011E+01
   0.0000000000E+00   0.9670160000E+00  -0.2898285504E-14   0.0000000000E+00   0.1122750000E-02   0.3533934183E-17   0.0000000000E+00  -0.3410675000E-01  -0.2901819438E-14   0.8000000012E+01  -0.1187617319E-09  -0.1187466512E-09  -0.1280877828E-13   0.2955357537E-13   0.1138403309E-13   0.6600000010E-01  -0.3298400005E-01  -0.3298400005E-01  -0.4433534666E-16   0.6756289542E-15  -0.2646113823E-14   0.8000000012E+01
   0.0000000000E+00   0.0000000000E+00   0.9670160000E+00   0.0000000000E+00   0.0000000000E+00   0.1122750000E-02   0.0000000000E+00   0.0000000000E+00  -0.3410675000E-01   0.8000000012E+01   0.1229654870E-09   0.1229609926E-09   0.1690458554E-15   0.7104749170E-14  -0.8145437021E-14   0.6600000010E-01  -0.3298400005E-01  -0.3298400005E-01   0.5770438467E-17  -0.1994509185E-15  -0.7386278882E-15   0.8000000012E+01
   0.1066000000E+01   0.0000000000E+00   0.9670160000E+00  -0.2250000000E-02   0.0000000000E+00   0.1122750000E-02   0.6825000000E-01   0.0000000000E+00  -0.3410675000E-01   0.8000000012E+01   0.2563185121E-09   0.2563005618E-09   0.1620831537E-13  -0.2799315029E-13  -0.3721843648E-14   0.6600000009E-01  -0.3298400005E-01  -0.3298400005E-01  -0.5511682884E-15   0.4559460718E-15  -0.4060396791E-14   0.8000000011E+01
   0.1066000000E+01   0.9670160000E+00   0.9670160000E+00  -0.2250000000E-02   0.1122750000E-02   0.1122750000E-02   0.6825000000E-01  -0.3410675000E-01  -0.3410675000E-01   0.8000000010E+01   0.1883102895E-10   0.1882081469E-10  -0.1014136852E-13  -0.1864392562E-13   0.5583634437E-14   0.6600000009E-01  -0.3298400004E-01  -0.3298400004E-01  -0.6562344638E-15   0.5252264531E-15  -0.2481163501E-14   0.8000000010E+01
   0.0000000000E+00   0.9670160000E+00   0.9670160000E+00   0.0000000000E+00   0.1122750000E-02   0.1122750000E-02   0.0000000000E+00  -0.3410675000E-01  -0.3410675000E-01   0.8000000011E+01   0.2878729115E-09   0.2878616169E-09  -0.1870610081E-13   0.1308408974E-13   0.6294515697E-14   0.6600000009E-01  -0.3298400004E-01  -0.3298400004E-01  -0.1978318142E-14  -0.5273433896E-14   0.2423091812E-14   0.8000000011E+01
   0.2132000000E+01   0.0000000000E+00  -0.6495833850E-14  -0.4500000000E-02   0.0000000000E+00   0.2720010733E-16   0.1365000000E+00   0.0000000000E+00  -0.6523033958E-14   0.8000000012E+01  -0.4123583363E-10  -0.4122064155E-10   0.2310263949E-13   0.1383957985E-13   0.6928624954E-15   0.6600000010E-01  -0.3298400005E-01  -0.3298400005E-01  -0.4461075646E-14   0.3914760410E-14  -0.4183440715E-14   0.8000000012E+01
   0.2132000000E+01   0.9670160000E+00  -0.8595873751E-14  -0.4500000000E-02   0.1122750000E-02   0.2610952779E-16   0.1365000000E+00  -0.3410675000E-01  -0.8621983279E-14   0.8000000011E+01  -0.9487073767E-10  -0.9487056812E-10  -0.7708936051E-14   0.1450088669E-13   0.6596316932E-14   0.6600000009E-01  -0.3298400005E-01  -0.3298400005E-01  -0.3098437726E-14  -0.5898337312E-15  -0.2672540529E-14   0.8000000011E+01
   0.2132000000E+01   0.0000000000E+00   0.9670160000E+00  -0.4500000000E-02   0.0000000000E+00   0.1122750000E-02   0.1365000000E+00   0.0000000000E+00  -0.3410675000E-01   0.8000000011E+01  -0.5771585243E-10  -0.5771255696E-10   0.1447636956E-13  -0.6766046161E-14  -0.6440433717E-14   0.6600000009E-01  -0.3298400005E-01  -0.3298400005E-01   0.5546487009E-15  -0.5467747033E-14  -0.5126341212E-15   0.8000000011E+01
   0.2132000000E+01   0.9670160000E+00   0.9670160000E+00  -0.4500000000E-02   0.1122750000E-02   0.1122750000E-02   0.1365000000E+00  -0.3410675000E-01  -0.3410675000E-01   0.8000000010E+01   0.1684365755E-09   0.1684279918E-09  -0.2035290527E-13  -0.2164608203E-13  -0.6763612520E-15   0.6600000008E-01  -0.3298400004E-01  -0.3298400004E-01   0.2310532819E-14   0.4919786625E-14   0.1057396846E-14   0.8000000010E+01
     1     2     3     4     5     6     7     8
     2     9    10     3     6    11    12     7
 VARIABLES = X,Y,Z,DU1,DU2,DU3,U1,U2,U3,S11,S22,S33,S12,S13,S23,E11,E22,E33,E12,E13,E23,SMISES
 ZONE, T="0.9250D+01" F=FEPOINT, I=   12 J=    2 ET=BRICK
   0.0000000000E+00   0.0000000000E+00   0.0000000000E+00   0.0000000000E+00   0.0000000000E+00   0.0000000000E+00   0.0000000000E+00   0.0000000000E+00   0.0000000000E+00   0.6875000010E+01  -0.3557302508E-09  -0.3557061377E-09  -0.1457410954E-15   0.3484756875E-13  -0.3627043526E-14   0.6375000010E-01  -0.3186125005E-01  -0.3186125005E-01  -0.9732494474E-17  -0.1057755340E-13  -0.5774913605E-14   0.6875000011E+01
   0.1063750000E+01   0.0000000000E+00  -0.4605083083E-14  -0.2250000000E-02   0.0000000000E+00  -0.1125614656E-16   0.6600000000E-01   0.0000000000E+00  -0.4593826937E-14   0.6875000011E+01   0.5456990998E-10   0.5457323930E-10   0.9964765298E-14  -0.1199937015E-14  -0.7467506236E-14   0.6375000010E-01  -0.3186125005E-01  -0.3186125005E-01  -0.4716314280E-15   0.3752525037E-17   0.1906534343E-14   0.6875000011E+01
   0.1063750000E+01   0.9681387500E+00  -0.3640397881E-14  -0.2250000000E-02   0.1122750000E-02  -0.1229543744E-16   0.6600000000E-01  -0.3298400000E-01  -0.3628102444E-14   0.6875000010E+01  -0.2873984617E-09  -0.2873875749E-09  -0.1251267810E-13   0.6208160268E-14   0.2521679423E-14   0.6375000009E-01  -0.3186125005E-01  -0.3186125005E-01   0.2247215386E-15   0.7362232761E-15   0.3544200646E-14   0.6875000010E+01
   0.0000000000E+00   0.9681387500E+00  -0.2898866358E-14   0.0000000000E+00   0.1122750000E-02  -0.5808540945E-18   0.0000000000E+00  -0.3298400000E-01  -0.2898285504E-14   0.6875000010E+01  -0.1196527631E-09  -0.1196380669E-09  -0.1315648065E-13   0.2812272184E-13   0.1164240593E-13   0.6375000009E-01  -0.3186125005E-01  -0.3186125005E-01  -0.5887588120E-16   0.6338961629E-15  -0.2687657002E-14   0.6875000010E+01
   0.0000000000E+00   0.0000000000E+00   0.9681387500E+00   0.0000000000E+00   0.0000000000E+00   0.1122750000E-02   0.0000000000E+00   0.0000000000E+00  -0.3298400000E-01   0.6875000010E+01   0.1245895895E-09   0.1245849921E-09   0.1790330212E-15   0.5776640751E-14  -0.8724053407E-14   0.6375000009E-01  -0.3186125005E-01  -0.3186125005E-01   0.6278604058E-17  -0.1948666917E-15  -0.7740695255E-15   0.6875000010E+01
   0.1063750000E+01   0.0000000000E+00   0.9681387500E+00  -0.2250000000E-02   0.0000000000E+00   0.1122750000E-02   0.6600000000E-01   0.0000000000E+00  -0.3298400000E-01   0.6875000010E+01   0.2572286789E-09   0.2572109725E-09   0.1525838865E-13  -0.2662020645E-13  -0.4065061106E-14   0.6375000009E-01  -0.3186125005E-01  -0.3186125005E-01  -0.5353311536E-15   0.4337731893E-15  -0.4019156230E-14   0.6875000010E+01
   0.1063750000E+01   0.9681387500E+00   0.9681387500E+00  -0.2250000000E-02   0.1122750000E-02   0.1122750000E-02   0.6600000000E-01  -0.3298400000E-01  -0.3298400000E-01   0.6875000009E+01   0.1959922154E-10   0.1958785350E-10  -0.1117873713E-13  -0.1903366577E-13   0.5777583287E-14   0.6375000008E-01  -0.3186125004E-01  -0.3186125004E-01  -0.6703619900E-15   0.5604753227E-15  -0.2503376816E-14   0.6875000009E+01
   0.0000000000E+00   0.9681387500E+00   0.9681387500E+00   0.0000000000E+00   0.1122750000E-02   0.1122750000E-02   0.0000000000E+00  -0.3298400000E-01  -0.3298400000E-01   0.6875000009E+01   0.2885948969E-09   0.2885829550E-09  -0.1884778861E-13   0.1210599460E-13   0.6011873138E-14   0.6375000009E-01  -0.3186125004E-01  -0.3186125004E-01  -0.1990320932E-14  -0.5296199957E-14   0.2480982121E-14   0.6875000009E+01
   0.2127500000E+01   0.0000000000E+00  -0.6533686241E-14  -0.4500000000E-02   0.0000000000E+00  -0.3785239082E-16   0.1320000000E+00   0.0000000000E+00  -0.6495833850E-14   0.6875000010E+01  -0.4129612866E-10  -0.4127952012E-10   0.2363945080E-13   0.1427919662E-13   0.9009740669E-15   0.6375000010E-01  -0.3186125005E-01  -0.3186125005E-01  -0.4557269804E-14   0.3916295412E-14  -0.4181742528E-14   0.6875000010E+01
   0.2127500000E+01   0.9681387500E+00  -0.8632474626E-14  -0.4500000000E-02   0.1122750000E-02  -0.3660087493E-16   0.1320000000E+00  -0.3298400000E-01  -0.8595873751E-14   0.6875000010E+01  -0.9550494304E-10  -0.9550620880E-10  -0.7037381475E-14   0.1467366550E-13   0.7207472311E-14   0.6375000009E-01  -0.3186125004E-01  -0.3186125004E-01  -0.3165647662E-14  -0.5674355251E-15  -0.2658706647E-14   0.6875000010E+01
   0.2127500000E+01   0.0000000000E+00   0.9681387500E+00  -0.4500000000E-02   0.0000000000E+00   0.1122750000E-02   0.1320000000E+00   0.0000000000E+00  -0.3298400000E-01   0.6875000010E+01  -0.5763391522E-10  -0.5763177352E-10   0.1411189217E-13  -0.6424612538E-14  -0.6474918491E-14   0.6375000009E-01  -0.3186125004E-01  -0.3186125004E-01   0.6223976377E-15  -0.5439268088E-14  -0.5164962745E-15   0.6875000010E+01
   0.2127500000E+01   0.9681387500E+00   0.9681387500E+00  -0.4500000000E-02   0.1122750000E-02   0.1122750000E-02   0.1320000000E+00  -0.3298400000E-01  -0.3298400000E-01   0.6875000009E+01   0.1688657433E-09   0.1688570378E-09  -0.2088491551E-13  -0.2229973542E-13  -0.2927505711E-15   0.6375000008E-01  -0.3186125004E-01  -0.3186125004E-01   0.2400748324E-14   0.4807409678E-14   0.1043974958E-14   0.6875000009E+01
     1     2     3     4     5     6     7     8
     2     9    10     3     6    11    12     7
 VARIABLES = X,Y,Z,DU1,DU2,DU3,U1,U2,U3,S11,S22,S33,S12,S13,S23,E11,E22,E33,E12,E13,E23,SMISES
 ZONE, T="0.9300D+01" F=FEPOINT, I=   12 J=    2 ET=BRICK
   0.0000000000E+00   0.0000000000E+00   0.0000000000E+00   0.0000000000E+00   0.0000000000E+00   0.0000000000E+00   0.0000000000E+00   0.0000000000E+00   0.0000000000E+00   0.5750000009E+01  -0.3549318602E-09  -0.3549094505E-09  -0.1337750539E-15   0.3573107948E-13  -0.3488819905E-14   0.6150000010E-01  -0.3073850005E-01  -0.3073850005E-01   0.1420397346E-17  -0.1055394305E-13  -0.5789668899E-14   0.5750000009E+01
   0.1061500000E+01   0.0000000000E+00  -0.4596249585E-14  -0.2250000000E-02   0.0000000000E+00   0.8833498457E-17   0.6375000000E-01   0.0000000000E+00  -0.4605083083E-14   0.5750000009E+01   0.5536092691E-10   0.5536383100E-10   0.1038347321E-13  -0.1731939904E-14  -0.7120522923E-14   0.6150000009E-01  -0.3073850005E-01  -0.3073850005E-01  -0.4930453240E-15   0.6551150943E-17   0.1940444730E-14   0.5750000009E+01
   0.1061500000E+01   0.9692615000E+00  -0.3629535254E-14  -0.2250000000E-02   0.1122750000E-02   0.1086262678E-16   0.6375000000E-01  -0.3186125000E-01  -0.3640397881E-14   0.5750000008E+01  -0.2870448244E-09  -0.2870341705E-09  -0.1209547096E-13   0.5396109680E-14   0.2440673009E-14   0.6150000009E-01  -0.3073850004E-01  -0.3073850004E-01   0.1912362042E-15   0.6427532326E-15   0.3516377020E-14   0.5750000008E+01
   0.0000000000E+00   0.9692615000E+00  -0.2898200865E-14   0.0000000000E+00   0.1122750000E-02   0.6654930362E-18   0.0000000000E+00  -0.3186125000E-01  -0.2898866358E-14   0.5750000008E+01  -0.1181746872E-09  -0.1181610025E-09  -0.1358570719E-13   0.2938317667E-13   0.1087358904E-13   0.6150000009E-01  -0.3073850004E-01  -0.3073850004E-01  -0.8216823167E-16   0.6802667636E-15  -0.2683175345E-14   0.5750000008E+01
   0.0000000000E+00   0.0000000000E+00   0.9692615000E+00   0.0000000000E+00   0.0000000000E+00   0.1122750000E-02   0.0000000000E+00   0.0000000000E+00  -0.3186125000E-01   0.5750000008E+01   0.1233414759E-09   0.1233375813E-09   0.1866780293E-15   0.6948443232E-14  -0.8362806533E-14   0.6150000009E-01  -0.3073850004E-01  -0.3073850004E-01   0.7559203198E-17  -0.2124204266E-15  -0.7200766082E-15   0.5750000008E+01
   0.1061500000E+01   0.0000000000E+00   0.9692615000E+00  -0.2250000000E-02   0.0000000000E+00   0.1122750000E-02   0.6375000000E-01   0.0000000000E+00  -0.3186125000E-01   0.5750000008E+01   0.2565845588E-09   0.2565673182E-09   0.1532056513E-13  -0.2682416410E-13  -0.3781795145E-14   0.6150000009E-01  -0.3073850004E-01  -0.3073850004E-01  -0.5713370154E-15   0.4614136143E-15  -0.4061020407E-14   0.5750000008E+01
   0.1061500000E+01   0.9692615000E+00   0.9692615000E+00  -0.2250000000E-02   0.1122750000E-02   0.1122750000E-02   0.6375000000E-01  -0.3186125000E-01  -0.3186125000E-01   0.5750000008E+01   0.1889732877E-10   0.1888628582E-10  -0.1097844656E-13  -0.1996053005E-13   0.5587599971E-14   0.6150000008E-01  -0.3073850004E-01  -0.3073850004E-01  -0.6739209249E-15   0.4959508630E-15  -0.2446232696E-14   0.5750000008E+01
   0.0000000000E+00   0.9692615000E+00   0.9692615000E+00   0.0000000000E+00   0.1122750000E-02   0.1122750000E-02   0.0000000000E+00  -0.3186125000E-01  -0.3186125000E-01   0.5750000008E+01   0.2875121360E-09   0.2875007561E-09  -0.1880858557E-13   0.1326202018E-13   0.5726181440E-14   0.6150000008E-01  -0.3073850004E-01  -0.3073850004E-01  -0.1982224891E-14  -0.5229151361E-14   0.2393022465E-14   0.5750000008E+01
   0.2123000000E+01   0.0000000000E+00  -0.6502119709E-14  -0.4500000000E-02   0.0000000000E+00   0.3156653164E-16   0.1275000000E+00   0.0000000000E+00  -0.6533686241E-14   0.5750000009E+01  -0.4043271799E-10  -0.4041683255E-10   0.2202330243E-13   0.1396731119E-13   0.1019520711E-14   0.6150000009E-01  -0.3073850005E-01  -0.3073850005E-01  -0.4583353257E-14   0.3770246574E-14  -0.4206152780E-14   0.5750000009E+01
   0.2123000000E+01   0.9692615000E+00  -0.8600281563E-14  -0.4500000000E-02   0.1122750000E-02   0.3219306248E-16   0.1275000000E+00  -0.3186125000E-01  -0.8632474626E-14   0.5750000008E+01  -0.9592370656E-10  -0.9592533660E-10  -0.8253082512E-14   0.1556661421E-13   0.6990497618E-14   0.6150000009E-01  -0.3073850004E-01  -0.3073850004E-01  -0.3150859041E-14  -0.5224579905E-15  -0.2633709662E-14   0.5750000008E+01
   0.2123000000E+01   0.0000000000E+00   0.9692615000E+00  -0.4500000000E-02   0.0000000000E+00   0.1122750000E-02   0.1275000000E+00   0.0000000000E+00  -0.3186125000E-01   0.5750000008E+01  -0.5764840977E-10  -0.5764628295E-10   0.1400103447E-13  -0.7021064462E-14  -0.6343009949E-14   0.6150000009E-01  -0.3073850004E-01  -0.3073850004E-01   0.6358699264E-15  -0.5483011654E-14  -0.5031852861E-15   0.5750000008E+01
   0.2123000000E+01   0.9692615000E+00   0.9692615000E+00  -0.4500000000E-02   0.1122750000E-02   0.1122750000E-02   0.1275000000E+00  -0.3186125000E-01  -0.3186125000E-01   0.5750000008E+01   0.1688403135E-09   0.1688321184E-09  -0.2070656530E-13  -0.2139160846E-13  -0.4829114146E-15   0.6150000008E-01  -0.3073850004E-01  -0.3073850004E-01   0.2391110635E-14   0.4920142065E-14   0.1046984930E-14   0.5750000007E+01
     1     2     3     4     5     6     7     8
     2     9    10     3     6    11    12     7
 VARIABLES = X,Y,Z,DU1,DU2,DU3,U1,U2,U3,S11,S22,S33,S12,S13,S23,E11,E22,E33,E12,E13,E23,SMISES
 ZONE, T="0.9350D+01" F=FEPOINT, I=   12 J=    2 ET=BRICK
   0.0000000000E+00   0.0000000000E+00   0.0000000000E+00   0.0000000000E+00   0.0000000000E+00   0.0000000000E+00   0.0000000000E+00   0.0000000000E+00   0.0000000000E+00   0.4625000007E+01  -0.3553350335E-09  -0.3553114633E-09  -0.1660233725E-15   0.3540838709E-13  -0.3688709019E-14   0.5925000009E-01  -0.2961575005E-01  -0.2961575005E-01  -0.8889756530E-18  -0.1054974937E-13  -0.5796561237E-14   0.4625000007E+01
   0.1059250000E+01   0.0000000000E+00  -0.4601631791E-14  -0.2250000000E-02   0.0000000000E+00  -0.5382205982E-17   0.6150000000E-01   0.0000000000E+00  -0.4596249585E-14   0.4625000007E+01   0.5445309653E-10   0.5445639065E-10   0.9433230909E-14  -0.2527248128E-14  -0.7639056658E-14   0.5925000009E-01  -0.2961575005E-01  -0.2961575005E-01  -0.5273918722E-15  -0.7301079667E-16   0.1930367306E-14   0.4625000007E+01
   0.1059250000E+01   0.9703842500E+00  -0.3638192643E-14  -0.2250000000E-02   0.1122750000E-02  -0.8657388581E-17   0.6150000000E-01  -0.3073850000E-01  -0.3629535254E-14   0.4625000006E+01  -0.2871925880E-09  -0.2871814479E-09  -0.1322550213E-13   0.6897138883E-14   0.2200870462E-14   0.5925000008E-01  -0.2961575004E-01  -0.2961575004E-01   0.1471628327E-15   0.7305761539E-15   0.3493188004E-14   0.4625000007E+01
   0.0000000000E+00   0.9703842500E+00  -0.2899421305E-14   0.0000000000E+00   0.1122750000E-02  -0.1220439942E-17   0.0000000000E+00  -0.3073850000E-01  -0.2898200865E-14   0.4625000007E+01  -0.1195845684E-09  -0.1195691498E-09  -0.1293124553E-13   0.2847072917E-13   0.1177682584E-13   0.5925000009E-01  -0.2961575004E-01  -0.2961575004E-01  -0.5955907904E-16   0.6472209526E-15  -0.2644337799E-14   0.4625000007E+01
   0.0000000000E+00   0.0000000000E+00   0.9703842500E+00   0.0000000000E+00   0.0000000000E+00   0.1122750000E-02   0.0000000000E+00   0.0000000000E+00  -0.3073850000E-01   0.4625000007E+01   0.1237693337E-09   0.1237646448E-09   0.2211847428E-15   0.6439592148E-14  -0.8514155278E-14   0.5925000009E-01  -0.2961575004E-01  -0.2961575004E-01   0.8827050274E-17  -0.2133987910E-15  -0.7653224563E-15   0.4625000007E+01
   0.1059250000E+01   0.0000000000E+00   0.9703842500E+00  -0.2250000000E-02   0.0000000000E+00   0.1122750000E-02   0.6150000000E-01   0.0000000000E+00  -0.3073850000E-01   0.4625000007E+01   0.2573168157E-09   0.2572989265E-09   0.1641124898E-13  -0.2770962376E-13  -0.4191837934E-14   0.5925000008E-01  -0.2961575004E-01  -0.2961575004E-01  -0.5462329157E-15   0.4460250277E-15  -0.4049832878E-14   0.4625000007E+01
   0.1059250000E+01   0.9703842500E+00   0.9703842500E+00  -0.2250000000E-02   0.1122750000E-02   0.1122750000E-02   0.6150000000E-01  -0.3073850000E-01  -0.3073850000E-01   0.4625000006E+01   0.1936080900E-10   0.1934966845E-10  -0.1009080872E-13  -0.1872886606E-13   0.5652277556E-14   0.5925000008E-01  -0.2961575004E-01  -0.2961575004E-01  -0.6485772775E-15   0.5004529474E-15  -0.2443447739E-14   0.4625000006E+01
   0.0000000000E+00   0.9703842500E+00   0.9703842500E+00   0.0000000000E+00   0.1122750000E-02   0.1122750000E-02   0.0000000000E+00  -0.3073850000E-01  -0.3073850000E-01   0.4625000006E+01   0.2889087500E-09   0.2888961338E-09  -0.1915638392E-13   0.1233391553E-13   0.6680680314E-14   0.5925000008E-01  -0.2961575004E-01  -0.2961575004E-01  -0.1993632037E-14  -0.5250591800E-14   0.2391526734E-14   0.4625000006E+01
   0.2118500000E+01   0.0000000000E+00  -0.6525979785E-14  -0.4500000000E-02   0.0000000000E+00  -0.2386007574E-16   0.1230000000E+00   0.0000000000E+00  -0.6502119709E-14   0.4625000007E+01  -0.4232585402E-10  -0.4230882444E-10   0.2488100448E-13   0.1639696976E-13   0.7792444965E-15   0.5925000009E-01  -0.2961575004E-01  -0.2961575004E-01  -0.4527053897E-14   0.4010536169E-14  -0.4196637227E-14   0.4625000007E+01
   0.2118500000E+01   0.9703842500E+00  -0.8625441234E-14  -0.4500000000E-02   0.1122750000E-02  -0.2515967019E-16   0.1230000000E+00  -0.3073850000E-01  -0.8600281563E-14   0.4625000006E+01  -0.9539724870E-10  -0.9539787190E-10  -0.6349726040E-14   0.1394867340E-13   0.7722172720E-14   0.5925000008E-01  -0.2961575004E-01  -0.2961575004E-01  -0.3131898303E-14  -0.6079690924E-15  -0.2611593939E-14   0.4625000006E+01
   0.2118500000E+01   0.0000000000E+00   0.9703842500E+00  -0.4500000000E-02   0.0000000000E+00   0.1122750000E-02   0.1230000000E+00   0.0000000000E+00  -0.3073850000E-01   0.4625000006E+01  -0.5649421409E-10  -0.5649282053E-10   0.1264405988E-13  -0.5073468057E-14  -0.6542702027E-14   0.5925000008E-01  -0.2961575004E-01  -0.2961575004E-01   0.6063601262E-15  -0.5516230239E-14  -0.5173078170E-15   0.4625000006E+01
   0.2118500000E+01   0.9703842500E+00   0.9703842500E+00  -0.4500000000E-02   0.1122750000E-02   0.1122750000E-02   0.1230000000E+00  -0.3073850000E-01  -0.3073850000E-01   0.4625000006E+01   0.1683809519E-09   0.1683726580E-09  -0.2207747118E-13  -0.2331597562E-13   0.2675643305E-15   0.5925000008E-01  -0.2961575004E-01  -0.2961575004E-01   0.2373901325E-14   0.4959693399E-14   0.1043269126E-14   0.4625000006E+01
     1     2     3     4     5     6     7     8
     2     9    10     3     6    11    12     7
 VARIABLES = X,Y,Z,DU1,DU2,DU3,U1,U2,U3,S11,S22,S33,S12,S13,S23,E11,E22,E33,E12,E13,E23,SMISES
 ZONE, T="0.9400D+01" F=FEPOINT, I=   12 J=    2 ET=BRICK
   0.0000000000E+00   0.0000000000E+00   0.0000000000E+00   0.0000000000E+00   0.0000000000E+00   0.0000000000E+00   0.0000000000E+00   0.0000000000E+00   0.0000000000E+00   0.3500000005E+01  -0.3557306079E-09  -0.3557066003E-09  -0.1463188040E-15   0.3482629618E-13  -0.3828405401E-14   0.5700000009E-01  -0.2849300004E-01  -0.2849300004E-01  -0.2158171682E-17  -0.1054951279E-13  -0.5792859648E-14   0.3500000005E+01
   0.1057000000E+01   0.0000000000E+00  -0.4605608595E-14  -0.2250000000E-02   0.0000000000E+00  -0.3976804499E-17   0.5925000000E-01   0.0000000000E+00  -0.4601631791E-14   0.3500000005E+01   0.5446293665E-10   0.5446665056E-10   0.9253728215E-14  -0.2060082806E-14  -0.7597836501E-14   0.5700000009E-01  -0.2849300004E-01  -0.2849300004E-01  -0.5089612624E-15  -0.2899822959E-16   0.1930132201E-14   0.3500000005E+01
   0.1057000000E+01   0.9715070000E+00  -0.3641961595E-14  -0.2250000000E-02   0.1122750000E-02  -0.3768952400E-17   0.5925000000E-01  -0.2961575000E-01  -0.3638192643E-14   0.3500000005E+01  -0.2876524483E-09  -0.2876413692E-09  -0.1308830133E-13   0.6986216959E-14   0.2460470424E-14   0.5700000008E-01  -0.2849300004E-01  -0.2849300004E-01   0.1720438104E-15   0.7128637494E-15   0.3532365561E-14   0.3500000005E+01
   0.0000000000E+00   0.9715070000E+00  -0.2900405843E-14   0.0000000000E+00   0.1122750000E-02  -0.9845380034E-18   0.0000000000E+00  -0.2961575000E-01  -0.2899421305E-14   0.3500000005E+01  -0.1198664240E-09  -0.1198511157E-09  -0.1302706618E-13   0.2809300644E-13   0.1164847980E-13   0.5700000008E-01  -0.2849300004E-01  -0.2849300004E-01  -0.7229572040E-16   0.6417888057E-15  -0.2692323781E-14   0.3500000005E+01
   0.0000000000E+00   0.0000000000E+00   0.9715070000E+00   0.0000000000E+00   0.0000000000E+00   0.1122750000E-02   0.0000000000E+00   0.0000000000E+00  -0.2961575000E-01   0.3500000005E+01   0.1244831786E-09   0.1244784592E-09   0.1710658180E-15   0.5810323291E-14  -0.8806591584E-14   0.5700000008E-01  -0.2849300004E-01  -0.2849300004E-01   0.4168697605E-17  -0.2134609105E-15  -0.7305474208E-15   0.3500000005E+01
   0.1057000000E+01   0.0000000000E+00   0.9715070000E+00  -0.2250000000E-02   0.0000000000E+00   0.1122750000E-02   0.5925000000E-01   0.0000000000E+00  -0.2961575000E-01   0.3500000005E+01   0.2573434731E-09   0.2573251194E-09   0.1578374082E-13  -0.2707472585E-13  -0.4176999001E-14   0.5700000008E-01  -0.2849300004E-01  -0.2849300004E-01  -0.5516300343E-15   0.4031118220E-15  -0.4064653310E-14   0.3500000005E+01
   0.1057000000E+01   0.9715070000E+00   0.9715070000E+00  -0.2250000000E-02   0.1122750000E-02   0.1122750000E-02   0.5925000000E-01  -0.2961575000E-01  -0.2961575000E-01   0.3500000005E+01   0.1962165818E-10   0.1961002746E-10  -0.1072253807E-13  -0.1890659116E-13   0.5838759419E-14   0.5700000007E-01  -0.2849300004E-01  -0.2849300004E-01  -0.6665249228E-15   0.5571809171E-15  -0.2468709176E-14   0.3500000005E+01
   0.0000000000E+00   0.9715070000E+00   0.9715070000E+00   0.0000000000E+00   0.1122750000E-02   0.1122750000E-02   0.0000000000E+00  -0.2961575000E-01  -0.2961575000E-01   0.3500000005E+01   0.2888959697E-09   0.2888835470E-09  -0.1894214805E-13   0.1210278071E-13   0.6525655364E-14   0.5700000008E-01  -0.2849300004E-01  -0.2849300004E-01  -0.1983449594E-14  -0.5252526123E-14   0.2401270324E-14   0.3500000005E+01
   0.2114000000E+01   0.0000000000E+00  -0.6536230576E-14  -0.4500000000E-02   0.0000000000E+00  -0.1025079088E-16   0.1185000000E+00   0.0000000000E+00  -0.6525979785E-14   0.3500000005E+01  -0.4134608502E-10  -0.4132951167E-10   0.2295759750E-13   0.1447467473E-13   0.7765215399E-15   0.5700000009E-01  -0.2849300004E-01  -0.2849300004E-01  -0.4588690709E-14   0.3903211897E-14  -0.4199222593E-14   0.3500000005E+01
   0.2114000000E+01   0.9715070000E+00  -0.8635780080E-14  -0.4500000000E-02   0.1122750000E-02  -0.1033884652E-16   0.1185000000E+00  -0.2961575000E-01  -0.8625441234E-14   0.3500000005E+01  -0.9568684885E-10  -0.9568809828E-10  -0.7653592827E-14   0.1467323819E-13   0.7497615810E-14   0.5700000008E-01  -0.2849300004E-01  -0.2849300004E-01  -0.3181058063E-14  -0.5824971566E-15  -0.2642123941E-14   0.3500000005E+01
   0.2114000000E+01   0.0000000000E+00   0.9715070000E+00  -0.4500000000E-02   0.0000000000E+00   0.1122750000E-02   0.1185000000E+00   0.0000000000E+00  -0.2961575000E-01   0.3500000005E+01  -0.5697034836E-10  -0.5696846935E-10   0.1345893153E-13  -0.6184196311E-14  -0.6911847773E-14   0.5700000008E-01  -0.2849300004E-01  -0.2849300004E-01   0.6142791089E-15  -0.5400000031E-14  -0.5130341883E-15   0.3500000005E+01
   0.2114000000E+01   0.9715070000E+00   0.9715070000E+00  -0.4500000000E-02   0.1122750000E-02   0.1122750000E-02   0.1185000000E+00  -0.2961575000E-01  -0.2961575000E-01   0.3500000005E+01   0.1688824231E-09   0.1688734291E-09  -0.2103651823E-13  -0.2209678083E-13  -0.2610782929E-15   0.5700000007E-01  -0.2849300004E-01  -0.2849300004E-01   0.2402802623E-14   0.4889078130E-14   0.1054146603E-14   0.3500000004E+01
     1     2     3     4     5     6     7     8
     2     9    10     3     6    11    12     7
 VARIABLES = X,Y,Z,DU1,DU2,DU3,U1,U2,U3,S11,S22,S33,S12,S13,S23,E11,E22,E33,E12,E13,E23,SMISES
 ZONE, T="0.9450D+01" F=FEPOINT, I=   12 J=    2 ET=BRICK
   0.0000000000E+00   0.0000000000E+00   0.0000000000E+00   0.0000000000E+00   0.0000000000E+00   0.0000000000E+00   0.0000000000E+00   0.0000000000E+00   0.0000000000E+00   0.2375000003E+01  -0.3552490810E-09  -0.3552258900E-09  -0.1704688582E-15   0.3522343432E-13  -0.3586963573E-14   0.5475000009E-01  -0.2737025004E-01  -0.2737025004E-01  -0.3536826607E-17  -0.1055337087E-13  -0.5787871007E-14   0.2375000004E+01
   0.1054750000E+01   0.0000000000E+00  -0.4600910620E-14  -0.2250000000E-02   0.0000000000E+00   0.4697975845E-17   0.5700000000E-01   0.0000000000E+00  -0.4605608595E-14   0.2375000004E+01   0.5488047459E-10   0.5488381878E-10   0.9553606377E-14  -0.2029410260E-14  -0.7331912363E-14   0.5475000008E-01  -0.2737025004E-01  -0.2737025004E-01  -0.5284824687E-15  -0.1627427644E-16   0.1934087383E-14   0.2375000004E+01
   0.1054750000E+01   0.9726297500E+00  -0.3635617299E-14  -0.2250000000E-02   0.1122750000E-02   0.6344296382E-17   0.5700000000E-01  -0.2849300000E-01  -0.3641961595E-14   0.2375000003E+01  -0.2872049366E-09  -0.2871943937E-09  -0.1286540040E-13   0.6986999294E-14   0.2281876015E-14   0.5475000008E-01  -0.2737025004E-01  -0.2737025004E-01   0.1439444268E-15   0.6751796716E-15   0.3501639842E-14   0.2375000003E+01
   0.0000000000E+00   0.9726297500E+00  -0.2899057416E-14   0.0000000000E+00   0.1122750000E-02   0.1348427440E-17   0.0000000000E+00  -0.2849300000E-01  -0.2900405843E-14   0.2375000003E+01  -0.1191759137E-09  -0.1191610279E-09  -0.1310105116E-13   0.2856205010E-13   0.1150083838E-13   0.5475000008E-01  -0.2737025004E-01  -0.2737025004E-01  -0.6831734459E-16   0.6687874211E-15  -0.2682994478E-14   0.2375000003E+01
   0.0000000000E+00   0.0000000000E+00   0.9726297500E+00   0.0000000000E+00   0.0000000000E+00   0.1122750000E-02   0.0000000000E+00   0.0000000000E+00  -0.2849300000E-01   0.2375000004E+01   0.1238898418E-09   0.1238854645E-09   0.1662761094E-15   0.6207151466E-14  -0.8580969786E-14   0.5475000008E-01  -0.2737025004E-01  -0.2737025004E-01   0.1014011039E-16  -0.2116340706E-15  -0.7479322941E-15   0.2375000003E+01
   0.1054750000E+01   0.0000000000E+00   0.9726297500E+00  -0.2250000000E-02   0.0000000000E+00   0.1122750000E-02   0.5700000000E-01   0.0000000000E+00  -0.2849300000E-01   0.2375000004E+01   0.2568128009E-09   0.2567948115E-09   0.1605616581E-13  -0.2696257324E-13  -0.3901591717E-14   0.5475000008E-01  -0.2737025004E-01  -0.2737025004E-01  -0.5577752304E-15   0.4106790860E-15  -0.4062360633E-14   0.2375000003E+01
   0.1054750000E+01   0.9726297500E+00   0.9726297500E+00  -0.2250000000E-02   0.1122750000E-02   0.1122750000E-02   0.5700000000E-01  -0.2849300000E-01  -0.2849300000E-01   0.2375000003E+01   0.1912038286E-10   0.1910923833E-10  -0.1067202782E-13  -0.1897120555E-13   0.5582214390E-14   0.5475000007E-01  -0.2737025004E-01  -0.2737025004E-01  -0.6672319333E-15   0.5553185179E-15  -0.2446956678E-14   0.2375000003E+01
   0.0000000000E+00   0.9726297500E+00   0.9726297500E+00   0.0000000000E+00   0.1122750000E-02   0.1122750000E-02   0.0000000000E+00  -0.2849300000E-01  -0.2849300000E-01   0.2375000003E+01   0.2885125873E-09   0.2885003624E-09  -0.1912579771E-13   0.1251936776E-13   0.6450708682E-14   0.5475000007E-01  -0.2737025004E-01  -0.2737025004E-01  -0.2004095816E-14  -0.5242941229E-14   0.2416438245E-14   0.2375000003E+01
   0.2109500000E+01   0.0000000000E+00  -0.6516880305E-14  -0.4500000000E-02   0.0000000000E+00   0.1935027070E-16   0.1140000000E+00   0.0000000000E+00  -0.6536230576E-14   0.2375000004E+01  -0.4098315698E-10  -0.4096729459E-10   0.2290443998E-13   0.1418759955E-13   0.8582797114E-15   0.5475000008E-01  -0.2737025004E-01  -0.2737025004E-01  -0.4560300691E-14   0.3872796101E-14  -0.4206987312E-14   0.2375000004E+01
   0.2109500000E+01   0.9726297500E+00  -0.8615932704E-14  -0.4500000000E-02   0.1122750000E-02   0.1984737598E-16   0.1140000000E+00  -0.2849300000E-01  -0.8635780080E-14   0.2375000003E+01  -0.9531190697E-10  -0.9531335141E-10  -0.7667340948E-14   0.1439915342E-13   0.7051501574E-14   0.5475000008E-01  -0.2737025004E-01  -0.2737025004E-01  -0.3142222408E-14  -0.5543973367E-15  -0.2627141033E-14   0.2375000003E+01
   0.2109500000E+01   0.0000000000E+00   0.9726297500E+00  -0.4500000000E-02   0.0000000000E+00   0.1122750000E-02   0.1140000000E+00   0.0000000000E+00  -0.2849300000E-01   0.2375000003E+01  -0.5748475374E-10  -0.5748236623E-10   0.1360218917E-13  -0.6331162669E-14  -0.6565538839E-14   0.5475000008E-01  -0.2737025004E-01  -0.2737025004E-01   0.6023308296E-15  -0.5414790296E-14  -0.5039220326E-15   0.2375000003E+01
   0.2109500000E+01   0.9726297500E+00   0.9726297500E+00  -0.4500000000E-02   0.1122750000E-02   0.1122750000E-02   0.1140000000E+00  -0.2849300000E-01  -0.2849300000E-01   0.2375000003E+01   0.1683802144E-09   0.1683722062E-09  -0.2095588612E-13  -0.2220232831E-13  -0.4241464941E-15   0.5475000007E-01  -0.2737025004E-01  -0.2737025004E-01   0.2375182513E-14   0.4896101421E-14   0.1021923949E-14   0.2375000003E+01
     1     2     3     4     5     6     7     8
     2     9    10     3     6    11    12     7
 VARIABLES = X,Y,Z,DU1,DU2,DU3,U1,U2,U3,S11,S22,S33,S12,S13,S23,E11,E22,E33,E12,E13,E23,SMISES
 ZONE, T="0.9500D+01" F=FEPOINT, I=   12 J=    2 ET=BRICK
   0.0000000000E+00   0.0000000000E+00   0.0000000000E+00   0.0000000000E+00   0.0000000000E+00   0.0000000000E+00   0.0000000000E+00   0.0000000000E+00   0.0000000000E+00   0.1250000002E+01  -0.3552653413E-09  -0.3552420012E-09  -0.1745595750E-15   0.3524437209E-13  -0.3585191266E-14   0.5250000008E-01  -0.2624750004E-01  -0.2624750004E-01  -0.3695593988E-17  -0.1055613470E-13  -0.5796973598E-14   0.1250000002E+01
   0.1052500000E+01   0.0000000000E+00  -0.4601040891E-14  -0.2250000000E-02   0.0000000000E+00  -0.1302714545E-18   0.5475000000E-01   0.0000000000E+00  -0.4600910620E-14   0.1250000002E+01   0.5492416054E-10   0.5492785377E-10   0.9506151416E-14  -0.2116774294E-14  -0.7366282594E-14   0.5250000008E-01  -0.2624750004E-01  -0.2624750004E-01  -0.5339104591E-15   0.2600441721E-17   0.1930685382E-14   0.1250000002E+01
   0.1052500000E+01   0.9737525000E+00  -0.3636035346E-14  -0.2250000000E-02   0.1122750000E-02  -0.4180468115E-18   0.5475000000E-01  -0.2737025000E-01  -0.3635617299E-14   0.1250000001E+01  -0.2871924331E-09  -0.2871817446E-09  -0.1285967768E-13   0.6998624779E-14   0.2246669516E-14   0.5250000007E-01  -0.2624750004E-01  -0.2624750004E-01   0.1476520302E-15   0.6896515769E-15   0.3520090014E-14   0.1250000002E+01
   0.0000000000E+00   0.9737525000E+00  -0.2899035429E-14   0.0000000000E+00   0.1122750000E-02   0.2198695022E-19   0.0000000000E+00  -0.2737025000E-01  -0.2899057416E-14   0.1250000002E+01  -0.1193269076E-09  -0.1193120899E-09  -0.1303442185E-13   0.2843264872E-13   0.1160300142E-13   0.5250000008E-01  -0.2624750004E-01  -0.2624750004E-01  -0.6468886795E-16   0.6493298168E-15  -0.2672337216E-14   0.1250000002E+01
   0.0000000000E+00   0.0000000000E+00   0.9737525000E+00   0.0000000000E+00   0.0000000000E+00   0.1122750000E-02   0.0000000000E+00   0.0000000000E+00  -0.2737025000E-01   0.1250000002E+01   0.1238757973E-09   0.1238714105E-09   0.1583677445E-15   0.6326559541E-14  -0.8690223990E-14   0.5250000008E-01  -0.2624750004E-01  -0.2624750004E-01  -0.8769745308E-18  -0.2415843466E-15  -0.7479364519E-15   0.1250000002E+01
   0.1052500000E+01   0.0000000000E+00   0.9737525000E+00  -0.2250000000E-02   0.0000000000E+00   0.1122750000E-02   0.5475000000E-01   0.0000000000E+00  -0.2737025000E-01   0.1250000002E+01   0.2569462548E-09   0.2569284156E-09   0.1596481281E-13  -0.2708133517E-13  -0.4014552199E-14   0.5250000007E-01  -0.2624750004E-01  -0.2624750004E-01  -0.5455943283E-15   0.4634719953E-15  -0.4038906812E-14   0.1250000002E+01
   0.1052500000E+01   0.9737525000E+00   0.9737525000E+00  -0.2250000000E-02   0.1122750000E-02   0.1122750000E-02   0.5475000000E-01  -0.2737025000E-01  -0.2737025000E-01   0.1250000002E+01   0.1916844757E-10   0.1915728036E-10  -0.1069774963E-13  -0.1901984080E-13   0.5608693493E-14   0.5250000007E-01  -0.2624750003E-01  -0.2624750003E-01  -0.6794641173E-15   0.5303536364E-15  -0.2476228086E-14   0.1250000002E+01
   0.0000000000E+00   0.9737525000E+00   0.9737525000E+00   0.0000000000E+00   0.1122750000E-02   0.1122750000E-02   0.0000000000E+00  -0.2737025000E-01  -0.2737025000E-01   0.1250000002E+01   0.2883906626E-09   0.2883781958E-09  -0.1908174319E-13   0.1264472342E-13   0.6354835170E-14   0.5250000007E-01  -0.2624750004E-01  -0.2624750004E-01  -0.2001003428E-14  -0.5211773654E-14   0.2438695859E-14   0.1250000002E+01
   0.2105000000E+01   0.0000000000E+00  -0.6517468751E-14  -0.4500000000E-02   0.0000000000E+00  -0.5884457965E-18   0.1095000000E+00   0.0000000000E+00  -0.6516880305E-14   0.1250000002E+01  -0.4105864069E-10  -0.4104302084E-10   0.2308996360E-13   0.1445607431E-13   0.7651137201E-15   0.5250000008E-01  -0.2624750004E-01  -0.2624750004E-01  -0.4574270914E-14   0.3866131788E-14  -0.4203998155E-14   0.1250000002E+01
   0.2105000000E+01   0.9737525000E+00  -0.8617005868E-14  -0.4500000000E-02   0.1122750000E-02  -0.1073163635E-17   0.1095000000E+00  -0.2737025000E-01  -0.8615932704E-14   0.1250000002E+01  -0.9520677524E-10  -0.9520809138E-10  -0.7604968638E-14   0.1425189354E-13   0.7236267783E-14   0.5250000007E-01  -0.2624750004E-01  -0.2624750004E-01  -0.3154821680E-14  -0.4967233147E-15  -0.2649303895E-14   0.1250000002E+01
   0.2105000000E+01   0.0000000000E+00   0.9737525000E+00  -0.4500000000E-02   0.0000000000E+00   0.1122750000E-02   0.1095000000E+00   0.0000000000E+00  -0.2737025000E-01   0.1250000002E+01  -0.5738291751E-10  -0.5738095046E-10   0.1351389122E-13  -0.6360281136E-14  -0.6537299197E-14   0.5250000007E-01  -0.2624750004E-01  -0.2624750004E-01   0.6006696678E-15  -0.5534906356E-14  -0.5107736459E-15   0.1250000002E+01
   0.2105000000E+01   0.9737525000E+00   0.9737525000E+00  -0.4500000000E-02   0.1122750000E-02   0.1122750000E-02   0.1095000000E+00  -0.2737025000E-01  -0.2737025000E-01   0.1250000002E+01   0.1685273993E-09   0.1685191292E-09  -0.2085358992E-13  -0.2234449758E-13  -0.2436886247E-15   0.5250000007E-01  -0.2624750003E-01  -0.2624750003E-01   0.2371837268E-14   0.4999737309E-14   0.1058470001E-14   0.1250000002E+01
     1     2     3     4     5     6     7     8
     2     9    10     3     6    11    12     7
 VARIABLES = X,Y,Z,DU1,DU2,DU3,U1,U2,U3,S11,S22,S33,S12,S13,S23,E11,E22,E33,E12,E13,E23,SMISES
 ZONE, T="0.9550D+01" F=FEPOINT, I=   12 J=    2 ET=BRICK
   0.0000000000E+00   0.0000000000E+00   0.0000000000E+00   0.0000000000E+00   0.0000000000E+00   0.0000000000E+00   0.0000000000E+00   0.0000000000E+00   0.0000000000E+00   0.1249999998E+00  -0.3553097221E-09  -0.3552862620E-09  -0.1831479984E-15   0.3530995063E-13  -0.3627868035E-14   0.5025000008E-01  -0.2512475004E-01  -0.2512475004E-01  -0.3079762046E-17  -0.1053849854E-13  -0.5798337836E-14   0.1250000002E+00
   0.1050250000E+01   0.0000000000E+00  -0.4601677101E-14  -0.2250000000E-02   0.0000000000E+00  -0.6362102389E-18   0.5250000000E-01   0.0000000000E+00  -0.4601040891E-14   0.1250000002E+00   0.5473044147E-10   0.5473400630E-10   0.9471554518E-14  -0.2365434272E-14  -0.7421201048E-14   0.5025000008E-01  -0.2512475004E-01  -0.2512475004E-01  -0.5286354492E-15  -0.2920758332E-16   0.1930560812E-14   0.1250000002E+00
   0.1050250000E+01   0.9748752500E+00  -0.3636978883E-14  -0.2250000000E-02   0.1122750000E-02  -0.9435374773E-18   0.5250000000E-01  -0.2624750000E-01  -0.3636035346E-14   0.1249999999E+00  -0.2872793587E-09  -0.2872687523E-09  -0.1301634596E-13   0.7093195555E-14   0.2192225935E-14   0.5025000007E-01  -0.2512475004E-01  -0.2512475004E-01   0.1433305527E-15   0.7022903063E-15   0.3520856012E-14   0.1250000002E+00
   0.0000000000E+00   0.9748752500E+00  -0.2899223273E-14   0.0000000000E+00   0.1122750000E-02  -0.1878442207E-18   0.0000000000E+00  -0.2624750000E-01  -0.2899035429E-14   0.1250000001E+00  -0.1194219623E-09  -0.1194068849E-09  -0.1290767781E-13   0.2837991386E-13   0.1173779062E-13   0.5025000007E-01  -0.2512475004E-01  -0.2512475004E-01  -0.6593342534E-16   0.6438354415E-15  -0.2686921716E-14   0.1250000002E+00
   0.0000000000E+00   0.0000000000E+00   0.9748752500E+00   0.0000000000E+00   0.0000000000E+00   0.1122750000E-02   0.0000000000E+00   0.0000000000E+00  -0.2624750000E-01   0.1250000003E+00   0.1238747055E-09   0.1238703198E-09   0.1663334552E-15   0.6071971436E-14  -0.8714986422E-14   0.5025000007E-01  -0.2512475004E-01  -0.2512475004E-01   0.8756765020E-17  -0.2342625428E-15  -0.7476481417E-15   0.1250000002E+00
   0.1050250000E+01   0.0000000000E+00   0.9748752500E+00  -0.2250000000E-02   0.0000000000E+00   0.1122750000E-02   0.5250000000E-01   0.0000000000E+00  -0.2624750000E-01   0.1250000004E+00   0.2570469102E-09   0.2570289090E-09   0.1601990812E-13  -0.2707402995E-13  -0.3980349325E-14   0.5025000007E-01  -0.2512475004E-01  -0.2512475004E-01  -0.5600159803E-15   0.4427028653E-15  -0.4048479937E-14   0.1250000002E+00
   0.1050250000E+01   0.9748752500E+00   0.9748752500E+00  -0.2250000000E-02   0.1122750000E-02   0.1122750000E-02   0.5250000000E-01  -0.2624750000E-01  -0.2624750000E-01   0.1250000002E+00   0.1921338446E-10   0.1920209106E-10  -0.1058150970E-13  -0.1899555573E-13   0.5652322848E-14   0.5025000007E-01  -0.2512475003E-01  -0.2512475003E-01  -0.6685676534E-15   0.5246566264E-15  -0.2467819714E-14   0.1250000002E+00
   0.0000000000E+00   0.9748752500E+00   0.9748752500E+00   0.0000000000E+00   0.1122750000E-02   0.1122750000E-02   0.0000000000E+00  -0.2624750000E-01  -0.2624750000E-01   0.1250000005E+00   0.2885824671E-09   0.2885701153E-09  -0.1916428607E-13   0.1253364915E-13   0.6425840127E-14   0.5025000007E-01  -0.2512475003E-01  -0.2512475003E-01  -0.2011599536E-14  -0.5209377951E-14   0.2423836697E-14   0.1250000002E+00
   0.2100500000E+01   0.0000000000E+00  -0.6521553811E-14  -0.4500000000E-02   0.0000000000E+00  -0.4085059465E-17   0.1050000000E+00   0.0000000000E+00  -0.6517468751E-14   0.1250000001E+00  -0.4142491528E-10  -0.4140916293E-10   0.2322258971E-13   0.1476740984E-13   0.7759280505E-15   0.5025000008E-01  -0.2512475004E-01  -0.2512475004E-01  -0.4587501770E-14   0.3897446693E-14  -0.4200214721E-14   0.1250000002E+00
   0.2100500000E+01   0.9748752500E+00  -0.8621104172E-14  -0.4500000000E-02   0.1122750000E-02  -0.4098303829E-17   0.1050000000E+00  -0.2624750000E-01  -0.8617005868E-14   0.1250000001E+00  -0.9525455389E-10  -0.9525557660E-10  -0.7586509815E-14   0.1404420465E-13   0.7314459895E-14   0.5025000007E-01  -0.2512475004E-01  -0.2512475004E-01  -0.3152397614E-14  -0.5144342639E-15  -0.2656103839E-14   0.1250000002E+00
   0.2100500000E+01   0.0000000000E+00   0.9748752500E+00  -0.4500000000E-02   0.0000000000E+00   0.1122750000E-02   0.1050000000E+00   0.0000000000E+00  -0.2624750000E-01   0.1250000001E+00  -0.5714928884E-10  -0.5714736694E-10   0.1333841084E-13  -0.5723007302E-14  -0.6560735528E-14   0.5025000007E-01  -0.2512475004E-01  -0.2512475004E-01   0.5876275968E-15  -0.5523124271E-14  -0.5057411201E-15   0.1250000002E+00
   0.2100500000E+01   0.9748752500E+00   0.9748752500E+00  -0.4500000000E-02   0.1122750000E-02   0.1122750000E-02   0.1050000000E+00  -0.2624750000E-01  -0.2624750000E-01   0.1250000003E+00   0.1685108936E-09   0.1685027445E-09  -0.2095610943E-13  -0.2242994500E-13  -0.8844659689E-16   0.5025000006E-01  -0.2512475003E-01  -0.2512475003E-01   0.2369270563E-14   0.4988495307E-14   0.1051564257E-14   0.1250000002E+00
     1     2     3     4     5     6     7     8
     2     9    10     3     6    11    12     7
 VARIABLES = X,Y,Z,DU1,DU2,DU3,U1,U2,U3,S11,S22,S33,S12,S13,S23,E11,E22,E33,E12,E13,E23,SMISES
 ZONE, T="0.9600D+01" F=FEPOINT, I=   12 J=    2 ET=BRICK
   0.0000000000E+00   0.0000000000E+00   0.0000000000E+00   0.0000000000E+00   0.0000000000E+00   0.0000000000E+00   0.0000000000E+00   0.0000000000E+00   0.0000000000E+00  -0.1000000002E+01  -0.3552271674E-09  -0.3552038322E-09  -0.1599229799E-15   0.3537542385E-13  -0.3664205387E-14   0.4800000008E-01  -0.2400200004E-01  -0.2400200004E-01   0.1505991092E-17  -0.1052241041E-13  -0.5797398052E-14   0.1000000002E+01
   0.1048000000E+01   0.0000000000E+00  -0.4601397382E-14  -0.2250000000E-02   0.0000000000E+00   0.2797192750E-18   0.5025000000E-01   0.0000000000E+00  -0.4601677101E-14  -0.1000000001E+01   0.5481871115E-10   0.5482242705E-10   0.9443865772E-14  -0.2435248692E-14  -0.7477146304E-14   0.4800000007E-01  -0.2400200004E-01  -0.2400200004E-01  -0.5280504870E-15  -0.6531261799E-16   0.1926905670E-14   0.1000000002E+01
   0.1048000000E+01   0.9759980000E+00  -0.3637076493E-14  -0.2250000000E-02   0.1122750000E-02  -0.9760930830E-19   0.5025000000E-01  -0.2512475000E-01  -0.3636978883E-14  -0.1000000002E+01  -0.2872067681E-09  -0.2871960506E-09  -0.1295519761E-13   0.6983954218E-14   0.2201660466E-14   0.4800000007E-01  -0.2400200003E-01  -0.2400200003E-01   0.1412837026E-15   0.7056103406E-15   0.3510631882E-14   0.1000000001E+01
   0.0000000000E+00   0.9759980000E+00  -0.2899373737E-14   0.0000000000E+00   0.1122750000E-02  -0.1504637740E-18   0.0000000000E+00  -0.2512475000E-01  -0.2899223273E-14  -0.1000000002E+01  -0.1194009930E-09  -0.1193861001E-09  -0.1293376397E-13   0.2831377414E-13   0.1168476243E-13   0.4800000007E-01  -0.2400200003E-01  -0.2400200003E-01  -0.6410291556E-16   0.6462982860E-15  -0.2667074191E-14   0.1000000001E+01
   0.0000000000E+00   0.0000000000E+00   0.9759980000E+00   0.0000000000E+00   0.0000000000E+00   0.1122750000E-02   0.0000000000E+00   0.0000000000E+00  -0.2512475000E-01  -0.1000000001E+01   0.1239232449E-09   0.1239187690E-09   0.1568059921E-15   0.6178311912E-14  -0.8714313022E-14   0.4800000007E-01  -0.2400200003E-01  -0.2400200003E-01  -0.1079239705E-16  -0.2224333213E-15  -0.7301318264E-15   0.1000000001E+01
   0.1048000000E+01   0.0000000000E+00   0.9759980000E+00  -0.2250000000E-02   0.0000000000E+00   0.1122750000E-02   0.5025000000E-01   0.0000000000E+00  -0.2512475000E-01  -0.1000000001E+01   0.2570842190E-09   0.2570663434E-09   0.1581268946E-13  -0.2691449275E-13  -0.4002439908E-14   0.4800000007E-01  -0.2400200003E-01  -0.2400200003E-01  -0.5483465441E-15   0.4312060939E-15  -0.4046331429E-14   0.1000000001E+01
   0.1048000000E+01   0.9759980000E+00   0.9759980000E+00  -0.2250000000E-02   0.1122750000E-02   0.1122750000E-02   0.5025000000E-01  -0.2512475000E-01  -0.2512475000E-01  -0.1000000001E+01   0.1923495911E-10   0.1922373130E-10  -0.1083012971E-13  -0.1911151916E-13   0.5636973930E-14   0.4800000006E-01  -0.2400200003E-01  -0.2400200003E-01  -0.6550366840E-15   0.5057900552E-15  -0.2460867864E-14   0.1000000001E+01
   0.0000000000E+00   0.9759980000E+00   0.9759980000E+00   0.0000000000E+00   0.1122750000E-02   0.1122750000E-02   0.0000000000E+00  -0.2512475000E-01  -0.2512475000E-01  -0.1000000001E+01   0.2884070817E-09   0.2883946212E-09  -0.1898588422E-13   0.1264936172E-13   0.6297899278E-14   0.4800000006E-01  -0.2400200003E-01  -0.2400200003E-01  -0.1999372945E-14  -0.5211138626E-14   0.2358917902E-14   0.1000000001E+01
   0.2096000000E+01   0.0000000000E+00  -0.6520690942E-14  -0.4500000000E-02   0.0000000000E+00   0.8628686798E-18   0.1005000000E+00   0.0000000000E+00  -0.6521553811E-14  -0.1000000002E+01  -0.4140150586E-10  -0.4138595422E-10   0.2318352103E-13   0.1459030267E-13   0.9299882401E-15   0.4800000007E-01  -0.2400200004E-01  -0.2400200004E-01  -0.4554819527E-14   0.3904966004E-14  -0.4188960620E-14   0.1000000002E+01
   0.2096000000E+01   0.9759980000E+00  -0.8619355724E-14  -0.4500000000E-02   0.1122750000E-02   0.1748447220E-17   0.1005000000E+00  -0.2512475000E-01  -0.8621104172E-14  -0.1000000001E+01  -0.9520092353E-10  -0.9520243601E-10  -0.7357889676E-14   0.1412015228E-13   0.7220685455E-14   0.4800000007E-01  -0.2400200003E-01  -0.2400200003E-01  -0.3129492568E-14  -0.5335410250E-15  -0.2650735559E-14   0.1000000001E+01
   0.2096000000E+01   0.0000000000E+00   0.9759980000E+00  -0.4500000000E-02   0.0000000000E+00   0.1122750000E-02   0.1005000000E+00   0.0000000000E+00  -0.2512475000E-01  -0.1000000001E+01  -0.5730274636E-10  -0.5730077628E-10   0.1340760638E-13  -0.6272559857E-14  -0.6509069297E-14   0.4800000007E-01  -0.2400200003E-01  -0.2400200003E-01   0.5739639793E-15  -0.5447223651E-14  -0.5087809691E-15   0.1000000001E+01
   0.2096000000E+01   0.9759980000E+00   0.9759980000E+00  -0.4500000000E-02   0.1122750000E-02   0.1122750000E-02   0.1005000000E+00  -0.2512475000E-01  -0.2512475000E-01  -0.1000000001E+01   0.1685502108E-09   0.1685420279E-09  -0.2111699981E-13  -0.2242354909E-13  -0.1842601520E-15   0.4800000006E-01  -0.2400200003E-01  -0.2400200003E-01   0.2340637108E-14   0.4949989672E-14   0.1044475274E-14   0.1000000001E+01
     1     2     3     4     5     6     7     8
     2     9    10     3     6    11    12     7
 VARIABLES = X,Y,Z,DU1,DU2,DU3,U1,U2,U3,S11,S22,S33,S12,S13,S23,E11,E22,E33,E12,E13,E23,SMISES
 ZONE, T="0.9650D+01" F=FEPOINT, I=   12 J=    2 ET=BRICK
   0.0000000000E+00   0.0000000000E+00   0.0000000000E+00   0.0000000000E+00   0.0000000000E+00   0.0000000000E+00   0.0000000000E+00   0.0000000000E+00   0.0000000000E+00  -0.2125000004E+01  -0.3551244021E-09  -0.3551009941E-09  -0.1619936709E-15   0.3543369824E-13  -0.3626446581E-14   0.4575000007E-01  -0.2287925004E-01  -0.2287925004E-01   0.1375038278E-17  -0.1053293324E-13  -0.5805990548E-14   0.2125000003E+01
   0.1045750000E+01   0.0000000000E+00  -0.4599991138E-14  -0.2250000000E-02   0.0000000000E+00   0.1406243790E-17   0.4800000000E-01   0.0000000000E+00  -0.4601397382E-14  -0.2125000003E+01   0.5493054225E-10   0.5493388172E-10   0.9576378417E-14  -0.2178178556E-14  -0.7398151862E-14   0.4575000007E-01  -0.2287925004E-01  -0.2287925004E-01  -0.5282430056E-15  -0.7288332982E-16   0.1929598507E-14   0.2125000003E+01
   0.1045750000E+01   0.9771207500E+00  -0.3635262724E-14  -0.2250000000E-02   0.1122750000E-02   0.1813768706E-17   0.4800000000E-01  -0.2400200000E-01  -0.3637076493E-14  -0.2125000003E+01  -0.2870678032E-09  -0.2870572170E-09  -0.1285693655E-13   0.6838049305E-14   0.2143169137E-14   0.4575000007E-01  -0.2287925003E-01  -0.2287925003E-01   0.1677058203E-15   0.7411920205E-15   0.3516513029E-14   0.2125000003E+01
   0.0000000000E+00   0.9771207500E+00  -0.2899256537E-14   0.0000000000E+00   0.1122750000E-02   0.1171997598E-18   0.0000000000E+00  -0.2400200000E-01  -0.2899373737E-14  -0.2125000003E+01  -0.1192676485E-09  -0.1192526308E-09  -0.1285215549E-13   0.2859043958E-13   0.1161287472E-13   0.4575000007E-01  -0.2287925003E-01  -0.2287925003E-01  -0.7873282965E-16   0.6437963159E-15  -0.2654230154E-14   0.2125000003E+01
   0.0000000000E+00   0.0000000000E+00   0.9771207500E+00   0.0000000000E+00   0.0000000000E+00   0.1122750000E-02   0.0000000000E+00   0.0000000000E+00  -0.2400200000E-01  -0.2125000003E+01   0.1238770791E-09   0.1238727410E-09   0.1137057621E-15   0.6158721671E-14  -0.8699378928E-14   0.4575000007E-01  -0.2287925003E-01  -0.2287925003E-01  -0.8146608660E-17  -0.2256052440E-15  -0.7319838896E-15   0.2125000003E+01
   0.1045750000E+01   0.0000000000E+00   0.9771207500E+00  -0.2250000000E-02   0.0000000000E+00   0.1122750000E-02   0.4800000000E-01   0.0000000000E+00  -0.2400200000E-01  -0.2125000003E+01   0.2568859009E-09   0.2568679291E-09   0.1581396564E-13  -0.2684965301E-13  -0.3878966151E-14   0.4575000007E-01  -0.2287925003E-01  -0.2287925003E-01  -0.5536254167E-15   0.4380267966E-15  -0.4047099409E-14   0.2125000003E+01
   0.1045750000E+01   0.9771207500E+00   0.9771207500E+00  -0.2250000000E-02   0.1122750000E-02   0.1122750000E-02   0.4800000000E-01  -0.2400200000E-01  -0.2400200000E-01  -0.2125000003E+01   0.1906360009E-10   0.1905274871E-10  -0.1088258821E-13  -0.1915997936E-13   0.5641692337E-14   0.4575000006E-01  -0.2287925003E-01  -0.2287925003E-01  -0.6770569963E-15   0.5090442047E-15  -0.2451321202E-14   0.2125000003E+01
   0.0000000000E+00   0.9771207500E+00   0.9771207500E+00   0.0000000000E+00   0.1122750000E-02   0.1122750000E-02   0.0000000000E+00  -0.2400200000E-01  -0.2400200000E-01  -0.2125000003E+01   0.2882290153E-09   0.2882166310E-09  -0.1898743978E-13   0.1279055401E-13   0.6264458554E-14   0.4575000006E-01  -0.2287925003E-01  -0.2287925003E-01  -0.1994772877E-14  -0.5212921477E-14   0.2366757417E-14   0.2125000003E+01
   0.2091500000E+01   0.0000000000E+00  -0.6514973772E-14  -0.4500000000E-02   0.0000000000E+00   0.5717169746E-17   0.9600000000E-01   0.0000000000E+00  -0.6520690942E-14  -0.2125000003E+01  -0.4128370545E-10  -0.4126814674E-10   0.2323907567E-13   0.1466231185E-13   0.8330343338E-15   0.4575000007E-01  -0.2287925003E-01  -0.2287925003E-01  -0.4577865562E-14   0.3945619871E-14  -0.4191003012E-14   0.2125000003E+01
   0.2091500000E+01   0.9771207500E+00  -0.8614228032E-14  -0.4500000000E-02   0.1122750000E-02   0.5127692714E-17   0.9600000000E-01  -0.2400200000E-01  -0.8619355724E-14  -0.2125000003E+01  -0.9516819729E-10  -0.9516964237E-10  -0.7490637838E-14   0.1395849884E-13   0.7287487386E-14   0.4575000006E-01  -0.2287925003E-01  -0.2287925003E-01  -0.3151335321E-14  -0.5497678309E-15  -0.2664562744E-14   0.2125000003E+01
   0.2091500000E+01   0.0000000000E+00   0.9771207500E+00  -0.4500000000E-02   0.0000000000E+00   0.1122750000E-02   0.9600000000E-01   0.0000000000E+00  -0.2400200000E-01  -0.2125000003E+01  -0.5738521320E-10  -0.5738345129E-10   0.1336436285E-13  -0.6173654656E-14  -0.6540346874E-14   0.4575000006E-01  -0.2287925003E-01  -0.2287925003E-01   0.6119561246E-15  -0.5416056436E-14  -0.5021875650E-15   0.2125000003E+01
   0.2091500000E+01   0.9771207500E+00   0.9771207500E+00  -0.4500000000E-02   0.1122750000E-02   0.1122750000E-02   0.9600000000E-01  -0.2400200000E-01  -0.2400200000E-01  -0.2125000003E+01   0.1685456655E-09   0.1685373266E-09  -0.2086962735E-13  -0.2258500136E-13  -0.2851661646E-16   0.4575000006E-01  -0.2287925003E-01  -0.2287925003E-01   0.2369059470E-14   0.4867187770E-14   0.1038239848E-14   0.2125000003E+01
     1     2     3     4     5     6     7     8
     2     9    10     3     6    11    12     7
 VARIABLES = X,Y,Z,DU1,DU2,DU3,U1,U2,U3,S11,S22,S33,S12,S13,S23,E11,E22,E33,E12,E13,E23,SMISES
 ZONE, T="0.9700D+01" F=FEPOINT, I=   12 J=    2 ET=BRICK
   0.0000000000E+00   0.0000000000E+00   0.0000000000E+00   0.0000000000E+00   0.0000000000E+00   0.0000000000E+00   0.0000000000E+00   0.0000000000E+00   0.0000000000E+00  -0.3250000005E+01  -0.3549107692E-09  -0.3548870399E-09  -0.1547680978E-15   0.3565369611E-13  -0.3603651490E-14   0.4350000007E-01  -0.2175650003E-01  -0.2175650003E-01  -0.1209513937E-17  -0.1051592491E-13  -0.5798382085E-14   0.3250000005E+01
   0.1043500000E+01   0.0000000000E+00  -0.4599482991E-14  -0.2250000000E-02   0.0000000000E+00   0.5081470124E-18   0.4575000000E-01   0.0000000000E+00  -0.4599991138E-14  -0.3250000005E+01   0.5480006125E-10   0.5480356254E-10   0.9127667875E-14  -0.2829136604E-14  -0.7519357716E-14   0.4350000007E-01  -0.2175650003E-01  -0.2175650003E-01  -0.5348450857E-15  -0.7231302239E-16   0.1921971609E-14   0.3250000005E+01
   0.1043500000E+01   0.9782435000E+00  -0.3635411670E-14  -0.2250000000E-02   0.1122750000E-02  -0.1489462582E-18   0.4575000000E-01  -0.2287925000E-01  -0.3635262724E-14  -0.3250000005E+01  -0.2872835770E-09  -0.2872726847E-09  -0.1333435077E-13   0.7129945936E-14   0.2253283913E-14   0.4350000006E-01  -0.2175650003E-01  -0.2175650003E-01   0.1411343654E-15   0.7096216658E-15   0.3521919355E-14   0.3250000005E+01
   0.0000000000E+00   0.9782435000E+00  -0.2899266499E-14   0.0000000000E+00   0.1122750000E-02  -0.9962485712E-20   0.0000000000E+00  -0.2287925000E-01  -0.2899256537E-14  -0.3250000005E+01  -0.1193114216E-09  -0.1192965265E-09  -0.1316773695E-13   0.2859976766E-13   0.1159262874E-13   0.4350000006E-01  -0.2175650003E-01  -0.2175650003E-01  -0.7018891264E-16   0.6494876798E-15  -0.2661438391E-14   0.3250000005E+01
   0.0000000000E+00   0.0000000000E+00   0.9782435000E+00   0.0000000000E+00   0.0000000000E+00   0.1122750000E-02   0.0000000000E+00   0.0000000000E+00  -0.2287925000E-01  -0.3250000005E+01   0.1237048338E-09   0.1237002337E-09   0.9836915812E-16   0.6379835771E-14  -0.8701555386E-14   0.4350000006E-01  -0.2175650003E-01  -0.2175650003E-01   0.1107752859E-17  -0.2349834548E-15  -0.7380254660E-15   0.3250000005E+01
   0.1043500000E+01   0.0000000000E+00   0.9782435000E+00  -0.2250000000E-02   0.0000000000E+00   0.1122750000E-02   0.4575000000E-01   0.0000000000E+00  -0.2287925000E-01  -0.3250000004E+01   0.2570614243E-09   0.2570434607E-09   0.1620969065E-13  -0.2727916113E-13  -0.4085408666E-14   0.4350000006E-01  -0.2175650003E-01  -0.2175650003E-01  -0.5659485449E-15   0.4435690866E-15  -0.4048827018E-14   0.3250000005E+01
   0.1043500000E+01   0.9782435000E+00   0.9782435000E+00  -0.2250000000E-02   0.1122750000E-02   0.1122750000E-02   0.4575000000E-01  -0.2287925000E-01  -0.2287925000E-01  -0.3250000004E+01   0.1899153794E-10   0.1898053418E-10  -0.1048459264E-13  -0.1901935705E-13   0.5625605505E-14   0.4350000006E-01  -0.2175650003E-01  -0.2175650003E-01  -0.6964532184E-15   0.5005590461E-15  -0.2448769938E-14   0.3250000004E+01
   0.0000000000E+00   0.9782435000E+00   0.9782435000E+00   0.0000000000E+00   0.1122750000E-02   0.1122750000E-02   0.0000000000E+00  -0.2287925000E-01  -0.2287925000E-01  -0.3250000004E+01   0.2883672267E-09   0.2883546829E-09  -0.1905126820E-13   0.1271509701E-13   0.6376667119E-14   0.4350000006E-01  -0.2175650003E-01  -0.2175650003E-01  -0.1994015796E-14  -0.5211851797E-14   0.2375121873E-14   0.3250000004E+01
   0.2087000000E+01   0.0000000000E+00  -0.6517009396E-14  -0.4500000000E-02   0.0000000000E+00  -0.2035624008E-17   0.9150000000E-01   0.0000000000E+00  -0.6514973772E-14  -0.3250000005E+01  -0.4154839121E-10  -0.4153201633E-10   0.2310545900E-13   0.1490243054E-13   0.9701005338E-15   0.4350000007E-01  -0.2175650003E-01  -0.2175650003E-01  -0.4533002009E-14   0.4051993310E-14  -0.4191230711E-14   0.3250000005E+01
   0.2087000000E+01   0.9782435000E+00  -0.8615646954E-14  -0.4500000000E-02   0.1122750000E-02  -0.1418922544E-17   0.9150000000E-01  -0.2287925000E-01  -0.8614228032E-14  -0.3250000005E+01  -0.9539853252E-10  -0.9540070405E-10  -0.7329105145E-14   0.1388487090E-13   0.7538651371E-14   0.4350000006E-01  -0.2175650003E-01  -0.2175650003E-01  -0.3123893021E-14  -0.6398067848E-15  -0.2660362428E-14   0.3250000005E+01
   0.2087000000E+01   0.0000000000E+00   0.9782435000E+00  -0.4500000000E-02   0.0000000000E+00   0.1122750000E-02   0.9150000000E-01   0.0000000000E+00  -0.2287925000E-01  -0.3250000005E+01  -0.5670514815E-10  -0.5670356973E-10   0.1251784192E-13  -0.5624091228E-14  -0.6867983461E-14   0.4350000006E-01  -0.2175650003E-01  -0.2175650003E-01   0.5900978702E-15  -0.5421028913E-14  -0.5155513200E-15   0.3250000005E+01
   0.2087000000E+01   0.9782435000E+00   0.9782435000E+00  -0.4500000000E-02   0.1122750000E-02   0.1122750000E-02   0.9150000000E-01  -0.2287925000E-01  -0.2287925000E-01  -0.3250000004E+01   0.1683653252E-09   0.1683569887E-09  -0.2153349015E-13  -0.2270333614E-13  -0.9380895978E-16   0.4350000006E-01  -0.2175650003E-01  -0.2175650003E-01   0.2361818287E-14   0.4962159658E-14   0.1044261450E-14   0.3250000004E+01
     1     2     3     4     5     6     7     8
     2     9    10     3     6    11    12     7
 VARIABLES = X,Y,Z,DU1,DU2,DU3,U1,U2,U3,S11,S22,S33,S12,S13,S23,E11,E22,E33,E12,E13,E23,SMISES
 ZONE, T="0.9750D+01" F=FEPOINT, I=   12 J=    2 ET=BRICK
   0.0000000000E+00   0.0000000000E+00   0.0000000000E+00   0.0000000000E+00   0.0000000000E+00   0.0000000000E+00   0.0000000000E+00   0.0000000000E+00   0.0000000000E+00  -0.4375000007E+01  -0.3548044073E-09  -0.3547805596E-09  -0.1505434424E-15   0.3588936670E-13  -0.3371103852E-14   0.4125000006E-01  -0.2063375003E-01  -0.2063375003E-01  -0.2166840373E-17  -0.1052015078E-13  -0.5801327174E-14   0.4375000007E+01
   0.1041250000E+01   0.0000000000E+00  -0.4599264321E-14  -0.2250000000E-02   0.0000000000E+00   0.2186705207E-18   0.4350000000E-01   0.0000000000E+00  -0.4599482991E-14  -0.4375000007E+01   0.5460884227E-10   0.5461217703E-10   0.8781235892E-14  -0.3546415054E-14  -0.7695291539E-14   0.4125000006E-01  -0.2063375003E-01  -0.2063375003E-01  -0.5279395970E-15  -0.7508169762E-16   0.1938005920E-14   0.4375000007E+01
   0.1041250000E+01   0.9793662500E+00  -0.3636290893E-14  -0.2250000000E-02   0.1122750000E-02  -0.8792230409E-18   0.4350000000E-01  -0.2175650000E-01  -0.3635411670E-14  -0.4375000007E+01  -0.2873237321E-09  -0.2873126922E-09  -0.1358893267E-13   0.7399262222E-14   0.2073335737E-14   0.4125000006E-01  -0.2063375003E-01  -0.2063375003E-01   0.1414548871E-15   0.7035269180E-15   0.3494784543E-14   0.4375000006E+01
   0.0000000000E+00   0.9793662500E+00  -0.2898204781E-14   0.0000000000E+00   0.1122750000E-02   0.1061718127E-17   0.0000000000E+00  -0.2175650000E-01  -0.2899266499E-14  -0.4375000006E+01  -0.1195456727E-09  -0.1195306497E-09  -0.1304669281E-13   0.2839389496E-13   0.1188358109E-13   0.4125000006E-01  -0.2063375003E-01  -0.2063375003E-01  -0.7787836374E-16   0.6367764024E-15  -0.2658285019E-14   0.4375000006E+01
   0.0000000000E+00   0.0000000000E+00   0.9793662500E+00   0.0000000000E+00   0.0000000000E+00   0.1122750000E-02   0.0000000000E+00   0.0000000000E+00  -0.2175650000E-01  -0.4375000006E+01   0.1234047823E-09   0.1233997495E-09   0.9593898760E-16   0.6713029010E-14  -0.8626188781E-14   0.4125000006E-01  -0.2063375003E-01  -0.2063375003E-01   0.3616226177E-17  -0.2273762548E-15  -0.7432598370E-15   0.4375000006E+01
   0.1041250000E+01   0.0000000000E+00   0.9793662500E+00  -0.2250000000E-02   0.0000000000E+00   0.1122750000E-02   0.4350000000E-01   0.0000000000E+00  -0.2175650000E-01  -0.4375000006E+01   0.2573011929E-09   0.2572835880E-09   0.1684629238E-13  -0.2784821516E-13  -0.4237631356E-14   0.4125000006E-01  -0.2063375003E-01  -0.2063375003E-01  -0.5653737894E-15   0.4240541884E-15  -0.4051022907E-14   0.4375000006E+01
   0.1041250000E+01   0.9793662500E+00   0.9793662500E+00  -0.2250000000E-02   0.1122750000E-02   0.1122750000E-02   0.4350000000E-01  -0.2175650000E-01  -0.2175650000E-01  -0.4375000006E+01   0.1905696399E-10   0.1904638944E-10  -0.9741099000E-14  -0.1870621622E-13   0.5445775872E-14   0.4125000005E-01  -0.2063375003E-01  -0.2063375003E-01  -0.6659979511E-15   0.5166892671E-15  -0.2460366860E-14   0.4375000006E+01
   0.0000000000E+00   0.9793662500E+00   0.9793662500E+00   0.0000000000E+00   0.1122750000E-02   0.1122750000E-02   0.0000000000E+00  -0.2175650000E-01  -0.2175650000E-01  -0.4375000006E+01   0.2887008273E-09   0.2886877710E-09  -0.1926012680E-13   0.1265253247E-13   0.6723352376E-14   0.4125000006E-01  -0.2063375003E-01  -0.2063375003E-01  -0.2008557764E-14  -0.5212711575E-14   0.2417418294E-14   0.4375000006E+01
   0.2082500000E+01   0.0000000000E+00  -0.6520947820E-14  -0.4500000000E-02   0.0000000000E+00  -0.3938424031E-17   0.8700000000E-01   0.0000000000E+00  -0.6517009396E-14  -0.4375000007E+01  -0.4218040045E-10  -0.4216367019E-10   0.2388467931E-13   0.1619279752E-13   0.7841367676E-15   0.4125000006E-01  -0.2063375003E-01  -0.2063375003E-01  -0.4540680043E-14   0.3927210045E-14  -0.4205884283E-14   0.4375000007E+01
   0.2082500000E+01   0.9793662500E+00  -0.8620660483E-14  -0.4500000000E-02   0.1122750000E-02  -0.5013529086E-17   0.8700000000E-01  -0.2175650000E-01  -0.8615646954E-14  -0.4375000006E+01  -0.9527855517E-10  -0.9528090612E-10  -0.6635488443E-14   0.1333531965E-13   0.7666281519E-14   0.4125000006E-01  -0.2063375003E-01  -0.2063375003E-01  -0.3105077755E-14  -0.5481701495E-15  -0.2639824631E-14   0.4375000006E+01
   0.2082500000E+01   0.0000000000E+00   0.9793662500E+00  -0.4500000000E-02   0.0000000000E+00   0.1122750000E-02   0.8700000000E-01   0.0000000000E+00  -0.2175650000E-01  -0.4375000006E+01  -0.5579698632E-10  -0.5579660285E-10   0.1143366626E-13  -0.4909238615E-14  -0.6704359464E-14   0.4125000006E-01  -0.2063375003E-01  -0.2063375003E-01   0.5523861524E-15  -0.5559672776E-14  -0.5074252710E-15   0.4375000006E+01
   0.2082500000E+01   0.9793662500E+00   0.9793662500E+00  -0.4500000000E-02   0.1122750000E-02   0.1122750000E-02   0.8700000000E-01  -0.2175650000E-01  -0.2175650000E-01  -0.4375000005E+01   0.1684003958E-09   0.1683922387E-09  -0.2217379090E-13  -0.2280871439E-13   0.3464985149E-15   0.4125000005E-01  -0.2063375003E-01  -0.2063375003E-01   0.2349203125E-14   0.4938567832E-14   0.1043825106E-14   0.4375000006E+01
     1     2     3     4     5     6     7     8
     2     9    10     3     6    11    12     7
 VARIABLES = X,Y,Z,DU1,DU2,DU3,U1,U2,U3,S11,S22,S33,S12,S13,S23,E11,E22,E33,E12,E13,E23,SMISES
 ZONE, T="0.9800D+01" F=FEPOINT, I=   12 J=    2 ET=BRICK
   0.0000000000E+00   0.0000000000E+00   0.0000000000E+00   0.0000000000E+00   0.0000000000E+00   0.0000000000E+00   0.0000000000E+00   0.0000000000E+00   0.0000000000E+00  -0.5500000009E+01  -0.3550114554E-09  -0.3549875006E-09  -0.1532849227E-15   0.3571565592E-13  -0.3423273564E-14   0.3900000006E-01  -0.1951100003E-01  -0.1951100003E-01   0.3023980207E-17  -0.1053673957E-13  -0.5788876528E-14   0.5500000009E+01
   0.1039000000E+01   0.0000000000E+00  -0.4599828680E-14  -0.2250000000E-02   0.0000000000E+00  -0.5643591189E-18   0.4125000000E-01   0.0000000000E+00  -0.4599264321E-14  -0.5500000008E+01   0.5470525031E-10   0.5470808945E-10   0.9266147631E-14  -0.2908475498E-14  -0.7531049639E-14   0.3900000006E-01  -0.1951100003E-01  -0.1951100003E-01  -0.5277167933E-15  -0.3531792011E-16   0.1923066237E-14   0.5500000008E+01
   0.1039000000E+01   0.9804890000E+00  -0.3635873832E-14  -0.2250000000E-02   0.1122750000E-02   0.4170609464E-18   0.4125000000E-01  -0.2063375000E-01  -0.3636290893E-14  -0.5500000008E+01  -0.2874453452E-09  -0.2874342755E-09  -0.1317375959E-13   0.7394688557E-14   0.2411912244E-14   0.3900000006E-01  -0.1951100003E-01  -0.1951100003E-01   0.1448770637E-15   0.6861847670E-15   0.3525969607E-14   0.5500000008E+01
   0.0000000000E+00   0.9804890000E+00  -0.2898501021E-14   0.0000000000E+00   0.1122750000E-02  -0.2962400019E-18   0.0000000000E+00  -0.2063375000E-01  -0.2898204781E-14  -0.5500000008E+01  -0.1194006934E-09  -0.1193856148E-09  -0.1331394473E-13   0.2847665987E-13   0.1177447907E-13   0.3900000006E-01  -0.1951100003E-01  -0.1951100003E-01  -0.7824395222E-16   0.6491243365E-15  -0.2673697469E-14   0.5500000008E+01
   0.0000000000E+00   0.0000000000E+00   0.9804890000E+00   0.0000000000E+00   0.0000000000E+00   0.1122750000E-02   0.0000000000E+00   0.0000000000E+00  -0.2063375000E-01  -0.5500000008E+01   0.1237501112E-09   0.1237452043E-09   0.9619507675E-16   0.6104606609E-14  -0.8766363119E-14   0.3900000006E-01  -0.1951100003E-01  -0.1951100003E-01  -0.9897017052E-18  -0.2193991916E-15  -0.7478948066E-15   0.5500000008E+01
   0.1039000000E+01   0.0000000000E+00   0.9804890000E+00  -0.2250000000E-02   0.0000000000E+00   0.1122750000E-02   0.4125000000E-01   0.0000000000E+00  -0.2063375000E-01  -0.5500000008E+01   0.2570264390E-09   0.2570087231E-09   0.1656458880E-13  -0.2707740726E-13  -0.4114174603E-14   0.3900000006E-01  -0.1951100003E-01  -0.1951100003E-01  -0.5738011756E-15   0.4419588618E-15  -0.4044420553E-14   0.5500000008E+01
   0.1039000000E+01   0.9804890000E+00   0.9804890000E+00  -0.2250000000E-02   0.1122750000E-02   0.1122750000E-02   0.4125000000E-01  -0.2063375000E-01  -0.2063375000E-01  -0.5500000007E+01   0.1915971257E-10   0.1914864240E-10  -0.1033193545E-13  -0.1886241102E-13   0.5692387445E-14   0.3900000005E-01  -0.1951100003E-01  -0.1951100003E-01  -0.6793586643E-15   0.5001541636E-15  -0.2448496139E-14   0.5500000007E+01
   0.0000000000E+00   0.9804890000E+00   0.9804890000E+00   0.0000000000E+00   0.1122750000E-02   0.1122750000E-02   0.0000000000E+00  -0.2063375000E-01  -0.2063375000E-01  -0.5500000007E+01   0.2886138112E-09   0.2886008619E-09  -0.1907455519E-13   0.1236889421E-13   0.6571009386E-14   0.3900000005E-01  -0.1951100003E-01  -0.1951100003E-01  -0.2002948791E-14  -0.5237069066E-14   0.2396178885E-14   0.5500000007E+01
   0.2078000000E+01   0.0000000000E+00  -0.6519548912E-14  -0.4500000000E-02   0.0000000000E+00   0.1398908330E-17   0.8250000000E-01   0.0000000000E+00  -0.6520947820E-14  -0.5500000008E+01  -0.4136172553E-10  -0.4134455517E-10   0.2328971315E-13   0.1479546808E-13   0.8934822949E-15   0.3900000006E-01  -0.1951100003E-01  -0.1951100003E-01  -0.4514247458E-14   0.3875567201E-14  -0.4192575904E-14   0.5500000008E+01
   0.2078000000E+01   0.9804890000E+00  -0.8618490450E-14  -0.4500000000E-02   0.1122750000E-02   0.2170033048E-17   0.8250000000E-01  -0.2063375000E-01  -0.8620660483E-14  -0.5500000008E+01  -0.9541115262E-10  -0.9541378113E-10  -0.7155373374E-14   0.1376159994E-13   0.7479892091E-14   0.3900000005E-01  -0.1951100003E-01  -0.1951100003E-01  -0.3099630797E-14  -0.5508349369E-15  -0.2659470467E-14   0.5500000008E+01
   0.2078000000E+01   0.0000000000E+00   0.9804890000E+00  -0.4500000000E-02   0.0000000000E+00   0.1122750000E-02   0.8250000000E-01   0.0000000000E+00  -0.2063375000E-01  -0.5500000008E+01  -0.5676128821E-10  -0.5676020195E-10   0.1273845172E-13  -0.6025307300E-14  -0.6892127795E-14   0.3900000005E-01  -0.1951100003E-01  -0.1951100003E-01   0.5718761657E-15  -0.5434943456E-14  -0.5276942871E-15   0.5500000008E+01
   0.2078000000E+01   0.9804890000E+00   0.9804890000E+00  -0.4500000000E-02   0.1122750000E-02   0.1122750000E-02   0.8250000000E-01  -0.2063375000E-01  -0.2063375000E-01  -0.5500000007E+01   0.1684602411E-09   0.1684525241E-09  -0.2147012016E-13  -0.2208651744E-13  -0.2489284272E-15   0.3900000005E-01  -0.1951100002E-01  -0.1951100002E-01   0.2377852527E-14   0.4891139544E-14   0.1057274823E-14   0.5500000007E+01
     1     2     3     4     5     6     7     8
     2     9    10     3     6    11    12     7
 VARIABLES = X,Y,Z,DU1,DU2,DU3,U1,U2,U3,S11,S22,S33,S12,S13,S23,E11,E22,E33,E12,E13,E23,SMISES
 ZONE, T="0.9850D+01" F=FEPOINT, I=   12 J=    2 ET=BRICK
   0.0000000000E+00   0.0000000000E+00   0.0000000000E+00   0.0000000000E+00   0.0000000000E+00   0.0000000000E+00   0.0000000000E+00   0.0000000000E+00   0.0000000000E+00  -0.6625000011E+01  -0.3551784157E-09  -0.3551538110E-09  -0.1423449977E-15   0.3526068595E-13  -0.3616269645E-14   0.3675000006E-01  -0.1838825003E-01  -0.1838825003E-01  -0.2287505623E-17  -0.1054849472E-13  -0.5805189179E-14   0.6625000010E+01
   0.1036750000E+01   0.0000000000E+00  -0.4602394815E-14  -0.2250000000E-02   0.0000000000E+00  -0.2566134990E-17   0.3900000000E-01   0.0000000000E+00  -0.4599828680E-14  -0.6625000010E+01   0.5471568242E-10   0.5471813153E-10   0.8672418908E-14  -0.3282401192E-14  -0.7456082279E-14   0.3675000006E-01  -0.1838825003E-01  -0.1838825003E-01  -0.5159520700E-15  -0.5679213559E-16   0.1933985206E-14   0.6625000010E+01
   0.1036750000E+01   0.9816117500E+00  -0.3637994048E-14  -0.2250000000E-02   0.1122750000E-02  -0.2120215611E-17   0.3900000000E-01  -0.1951100000E-01  -0.3635873832E-14  -0.6625000010E+01  -0.2872308243E-09  -0.2872198047E-09  -0.1356191368E-13   0.8010236212E-14   0.2196188834E-14   0.3675000005E-01  -0.1838825003E-01  -0.1838825003E-01   0.1546805873E-15   0.7219680505E-15   0.3501511362E-14   0.6625000009E+01
   0.0000000000E+00   0.9816117500E+00  -0.2899675310E-14   0.0000000000E+00   0.1122750000E-02  -0.1174288672E-17   0.0000000000E+00  -0.1951100000E-01  -0.2898501021E-14  -0.6625000010E+01  -0.1199207765E-09  -0.1199059167E-09  -0.1268211045E-13   0.2837663735E-13   0.1199426245E-13   0.3675000005E-01  -0.1838825003E-01  -0.1838825003E-01  -0.7115524985E-16   0.6439037732E-15  -0.2647426620E-14   0.6625000010E+01
   0.0000000000E+00   0.0000000000E+00   0.9816117500E+00   0.0000000000E+00   0.0000000000E+00   0.1122750000E-02   0.0000000000E+00   0.0000000000E+00  -0.1951100000E-01  -0.6625000010E+01   0.1236985443E-09   0.1236928486E-09   0.1239102430E-15   0.6013175848E-14  -0.8823768468E-14   0.3675000005E-01  -0.1838825003E-01  -0.1838825003E-01  -0.2711522485E-18  -0.2062102008E-15  -0.7508008234E-15   0.6625000010E+01
   0.1036750000E+01   0.0000000000E+00   0.9816117500E+00  -0.2250000000E-02   0.0000000000E+00   0.1122750000E-02   0.3900000000E-01   0.0000000000E+00  -0.1951100000E-01  -0.6625000009E+01   0.2571424691E-09   0.2571260870E-09   0.1686800336E-13  -0.2746569023E-13  -0.4100304370E-14   0.3675000005E-01  -0.1838825003E-01  -0.1838825003E-01  -0.5688462249E-15   0.4220507401E-15  -0.4036890577E-14   0.6625000009E+01
   0.1036750000E+01   0.9816117500E+00   0.9816117500E+00  -0.2250000000E-02   0.1122750000E-02   0.1122750000E-02   0.3900000000E-01  -0.1951100000E-01  -0.1951100000E-01  -0.6625000009E+01   0.1904684452E-10   0.1903550623E-10  -0.9997525795E-14  -0.1817636193E-13   0.5339870087E-14   0.3675000005E-01  -0.1838825002E-01  -0.1838825002E-01  -0.6867876901E-15   0.5115369337E-15  -0.2466760018E-14   0.6625000009E+01
   0.0000000000E+00   0.9816117500E+00   0.9816117500E+00   0.0000000000E+00   0.1122750000E-02   0.1122750000E-02   0.0000000000E+00  -0.1951100000E-01  -0.1951100000E-01  -0.6625000009E+01   0.2890753065E-09   0.2890634013E-09  -0.1938792955E-13   0.1226838837E-13   0.6998482958E-14   0.3675000005E-01  -0.1838825002E-01  -0.1838825002E-01  -0.2002804671E-14  -0.5234999323E-14   0.2405011370E-14   0.6625000009E+01
   0.2073500000E+01   0.0000000000E+00  -0.6523708516E-14  -0.4500000000E-02   0.0000000000E+00  -0.4159604209E-17   0.7800000000E-01   0.0000000000E+00  -0.6519548912E-14  -0.6625000010E+01  -0.4179547896E-10  -0.4177853337E-10   0.2420291371E-13   0.1587132613E-13   0.8060320959E-15   0.3675000006E-01  -0.1838825003E-01  -0.1838825003E-01  -0.4519465253E-14   0.3886345547E-14  -0.4197516516E-14   0.6625000010E+01
   0.2073500000E+01   0.9816117500E+00  -0.8623181315E-14  -0.4500000000E-02   0.1122750000E-02  -0.4690864611E-17   0.7800000000E-01  -0.1951100000E-01  -0.8618490450E-14  -0.6625000009E+01  -0.9481515385E-10  -0.9481701138E-10  -0.6645736454E-14   0.1238527044E-13   0.7474235475E-14   0.3675000005E-01  -0.1838825003E-01  -0.1838825003E-01  -0.3105553538E-14  -0.5811466712E-15  -0.2645594887E-14   0.6625000009E+01
   0.2073500000E+01   0.0000000000E+00   0.9816117500E+00  -0.4500000000E-02   0.0000000000E+00   0.1122750000E-02   0.7800000000E-01   0.0000000000E+00  -0.1951100000E-01  -0.6625000009E+01  -0.5650105110E-10  -0.5649985309E-10   0.1204894647E-13  -0.5499193147E-14  -0.6780737576E-14   0.3675000005E-01  -0.1838825003E-01  -0.1838825003E-01   0.5938514497E-15  -0.5447867132E-14  -0.5197209309E-15   0.6625000009E+01
   0.2073500000E+01   0.9816117500E+00   0.9816117500E+00  -0.4500000000E-02   0.1122750000E-02   0.1122750000E-02   0.7800000000E-01  -0.1951100000E-01  -0.1951100000E-01  -0.6625000008E+01   0.1680180716E-09   0.1680106457E-09  -0.2197977178E-13  -0.2303842613E-13  -0.4428144724E-16   0.3675000005E-01  -0.1838825002E-01  -0.1838825002E-01   0.2379491625E-14   0.4862774660E-14   0.1022599676E-14   0.6625000008E+01
     1     2     3     4     5     6     7     8
     2     9    10     3     6    11    12     7
 VARIABLES = X,Y,Z,DU1,DU2,DU3,U1,U2,U3,S11,S22,S33,S12,S13,S23,E11,E22,E33,E12,E13,E23,SMISES
 ZONE, T="0.9900D+01" F=FEPOINT, I=   12 J=    2 ET=BRICK
   0.0000000000E+00   0.0000000000E+00   0.0000000000E+00   0.0000000000E+00   0.0000000000E+00   0.0000000000E+00   0.0000000000E+00   0.0000000000E+00   0.0000000000E+00  -0.7750000013E+01  -0.5936846257E-09  -0.5938794259E-09  -0.1381722098E-15  -0.3143278763E-12  -0.2119127673E-12   0.2950000005E-01  -0.1476550002E-01  -0.1476550002E-01   0.1516315453E-18  -0.1539525087E-13  -0.8781062549E-14   0.7750000012E+01
   0.1029500000E+01   0.0000000000E+00  -0.7112251636E-14  -0.7250000000E-02   0.0000000000E+00  -0.2509856821E-14   0.3675000000E-01   0.0000000000E+00  -0.4602394815E-14  -0.7750000012E+01  -0.2732693859E-11  -0.2685364350E-11   0.1149185946E-13  -0.3389273591E-13   0.1287726088E-14   0.2950000005E-01  -0.1476550002E-01  -0.1476550002E-01  -0.4416031516E-15  -0.5014921492E-15   0.1984024086E-14   0.7750000012E+01
   0.1029500000E+01   0.9852345000E+00  -0.6118399048E-14  -0.7250000000E-02   0.3622750000E-02  -0.2480405000E-14   0.3675000000E-01  -0.1838825000E-01  -0.3637994048E-14  -0.7750000011E+01  -0.3390270589E-09  -0.3390185229E-09   0.6558235010E-14   0.7844825495E-13   0.3395547939E-13   0.2950000004E-01  -0.1476550002E-01  -0.1476550002E-01   0.3956720619E-15   0.1782883773E-14   0.3914370834E-14   0.7750000011E+01
   0.0000000000E+00   0.9852345000E+00  -0.4388338822E-14   0.0000000000E+00   0.3622750000E-02  -0.1488663512E-14   0.0000000000E+00  -0.1838825000E-01  -0.2899675310E-14  -0.7750000012E+01  -0.2327757912E-09  -0.2325493051E-09   0.4776607836E-13  -0.3940430532E-13  -0.8199384888E-13   0.2950000004E-01  -0.1476550002E-01  -0.1476550002E-01   0.7936016434E-15  -0.2905706640E-15  -0.3961660578E-14   0.7750000011E+01
   0.0000000000E+00   0.0000000000E+00   0.9852345000E+00   0.0000000000E+00   0.0000000000E+00   0.3622750000E-02   0.0000000000E+00   0.0000000000E+00  -0.1838825000E-01  -0.7750000011E+01   0.1878161799E-09   0.1873620846E-09   0.1881520146E-15  -0.9266668627E-13  -0.1660235791E-14   0.2950000004E-01  -0.1476550002E-01  -0.1476550002E-01  -0.3469912562E-17  -0.1680496374E-14  -0.6259563746E-15   0.7750000011E+01
   0.1029500000E+01   0.0000000000E+00   0.9852345000E+00  -0.7250000000E-02   0.0000000000E+00   0.3622750000E-02   0.3675000000E-01   0.0000000000E+00  -0.1838825000E-01  -0.7750000011E+01   0.3609337089E-09   0.3609150394E-09   0.3296799787E-13  -0.2397880028E-13  -0.1856022057E-13   0.2950000004E-01  -0.1476550002E-01  -0.1476550002E-01  -0.2614485595E-15   0.3976163956E-15  -0.4175375383E-14   0.7750000011E+01
   0.1029500000E+01   0.9852345000E+00   0.9852345000E+00  -0.7250000000E-02   0.3622750000E-02   0.3622750000E-02   0.3675000000E-01  -0.1838825000E-01  -0.1838825000E-01  -0.7750000010E+01   0.1264312721E-09   0.1263716800E-09  -0.6225950979E-13   0.2758254224E-13   0.1417320602E-13   0.2950000004E-01  -0.1476550002E-01  -0.1476550002E-01  -0.1482730817E-14   0.1112232391E-14  -0.2237673525E-14   0.7750000010E+01
   0.0000000000E+00   0.9852345000E+00   0.9852345000E+00   0.0000000000E+00   0.3622750000E-02   0.3622750000E-02   0.0000000000E+00  -0.1838825000E-01  -0.1838825000E-01  -0.7750000010E+01   0.4951562323E-09   0.4951255284E-09  -0.5198229122E-13  -0.1334889707E-12   0.1282892483E-12   0.2950000004E-01  -0.1476550002E-01  -0.1476550002E-01  -0.2501473528E-14  -0.7239861640E-14   0.4163470048E-14   0.7750000010E+01
   0.2059000000E+01   0.0000000000E+00  -0.1189019438E-13  -0.1450000000E-01   0.0000000000E+00  -0.5366485859E-14   0.7350000000E-01   0.0000000000E+00  -0.6523708516E-14  -0.7750000012E+01  -0.1224375026E-09  -0.1225764893E-09   0.5561818939E-13   0.9794169794E-13  -0.3256182597E-13   0.2950000004E-01  -0.1476550002E-01  -0.1476550002E-01  -0.3854590900E-14   0.5070878826E-14  -0.4591754209E-14   0.7750000012E+01
   0.2059000000E+01   0.9852345000E+00  -0.1418565456E-13  -0.1450000000E-01   0.3622750000E-02  -0.5562473249E-14   0.7350000000E-01  -0.1838825000E-01  -0.8623181315E-14  -0.7750000011E+01  -0.8990389193E-10  -0.8986388903E-10  -0.9516550955E-15  -0.7732913698E-14  -0.8394616996E-13   0.2950000004E-01  -0.1476550002E-01  -0.1476550002E-01  -0.2940500725E-14  -0.8523700210E-15  -0.3932868208E-14   0.7750000011E+01
   0.2059000000E+01   0.0000000000E+00   0.9852345000E+00  -0.1450000000E-01   0.0000000000E+00   0.3622750000E-02   0.7350000000E-01   0.0000000000E+00  -0.1838825000E-01  -0.7750000011E+01  -0.1123928068E-09  -0.1124300708E-09   0.4771068057E-13  -0.1071579305E-12   0.5834969416E-13   0.2950000004E-01  -0.1476550002E-01  -0.1476550002E-01   0.1163632242E-14  -0.6841921817E-14   0.4303508399E-15   0.7750000011E+01
   0.2059000000E+01   0.9852345000E+00   0.9852345000E+00  -0.1450000000E-01   0.3622750000E-02   0.3622750000E-02   0.7350000000E-01  -0.1838825000E-01  -0.1838825000E-01  -0.7750000010E+01   0.1772426759E-09   0.1773918836E-09  -0.9178201720E-13  -0.1576810607E-13   0.6757045387E-14   0.2950000004E-01  -0.1476550002E-01  -0.1476550002E-01   0.1216005559E-14   0.4837099711E-14   0.1112796313E-14   0.7750000010E+01
     1     2     3     4     5     6     7     8
     2     9    10     3     6    11    12     7
 VARIABLES = X,Y,Z,DU1,DU2,DU3,U1,U2,U3,S11,S22,S33,S12,S13,S23,E11,E22,E33,E12,E13,E23,SMISES
 ZONE, T="0.9950D+01" F=FEPOINT, I=   12 J=    2 ET=BRICK
   0.0000000000E+00   0.0000000000E+00   0.0000000000E+00   0.0000000000E+00   0.0000000000E+00   0.0000000000E+00   0.0000000000E+00   0.0000000000E+00   0.0000000000E+00  -0.8875000014E+01  -0.6754991489E-10  -0.6726434860E-10  -0.2548549628E-16   0.4283163345E-12   0.2449388043E-12   0.4750000007E-02  -0.2392750004E-02  -0.2392750004E-02  -0.1700473880E-17  -0.1196211936E-15   0.3029786747E-15   0.8875000014E+01
   0.1004750000E+01   0.0000000000E+00   0.8569379934E-16  -0.2475000000E-01   0.0000000000E+00   0.7197945436E-14   0.2950000000E-01   0.0000000000E+00  -0.7112251636E-14  -0.8875000014E+01   0.5411459000E-10   0.5405034711E-10   0.3432738047E-12   0.2617130071E-12   0.1023819892E-12   0.4750000007E-02  -0.2392750004E-02  -0.2392750004E-02   0.7752807132E-14   0.6252751811E-14   0.4241871705E-14   0.8875000014E+01
   0.1004750000E+01   0.9976072500E+00   0.2208748942E-14  -0.2475000000E-01   0.1237275000E-01   0.8327147990E-14   0.2950000000E-01  -0.1476550000E-01  -0.6118399048E-14  -0.8875000013E+01  -0.2699586765E-09  -0.2701981481E-09  -0.7006485689E-13  -0.1495700106E-12   0.4158205296E-13   0.4750000007E-02  -0.2392750003E-02  -0.2392750003E-02  -0.1398675657E-14  -0.2864135278E-14   0.4149540744E-14   0.8875000013E+01
   0.0000000000E+00   0.9976072500E+00   0.1533888072E-15   0.0000000000E+00   0.1237275000E-01   0.4541727629E-14   0.0000000000E+00  -0.1476550000E-01  -0.4388338822E-14  -0.8875000013E+01   0.3239362808E-09   0.3235880234E-09  -0.2526010900E-12   0.3129139668E-12   0.7847477864E-13   0.4750000007E-02  -0.2392750003E-02  -0.2392750003E-02  -0.5896172037E-14   0.7718214572E-14  -0.7730164301E-15   0.8875000013E+01
   0.0000000000E+00   0.0000000000E+00   0.9976072500E+00   0.0000000000E+00   0.0000000000E+00   0.1237275000E-01   0.0000000000E+00   0.0000000000E+00  -0.1476550000E-01  -0.8875000013E+01   0.1488360012E-09   0.1494560842E-09   0.7048206539E-16  -0.6003535316E-13  -0.7225220931E-13   0.4750000007E-02  -0.2392750003E-02  -0.2392750003E-02   0.3341918322E-17  -0.1975340604E-14  -0.2296822004E-14   0.8875000013E+01
   0.1004750000E+01   0.0000000000E+00   0.9976072500E+00  -0.2475000000E-01   0.0000000000E+00   0.1237275000E-01   0.2950000000E-01   0.0000000000E+00  -0.1476550000E-01  -0.8875000012E+01   0.2316307263E-09   0.2316889355E-09   0.1283646981E-12  -0.2046310211E-12   0.1441419887E-13   0.4750000007E-02  -0.2392750003E-02  -0.2392750003E-02   0.2495078876E-14  -0.4302773777E-14  -0.3214188386E-14   0.8875000013E+01
   0.1004750000E+01   0.9976072500E+00   0.9976072500E+00  -0.2475000000E-01   0.1237275000E-01   0.1237275000E-01   0.2950000000E-01  -0.1476550000E-01  -0.1476550000E-01  -0.8875000011E+01   0.1420435334E-09   0.1419235401E-09  -0.1235799615E-12  -0.3645056194E-12  -0.4651122699E-13   0.4750000006E-02  -0.2392750003E-02  -0.2392750003E-02  -0.3654234188E-14  -0.8076341607E-14  -0.3291537974E-14   0.8875000012E+01
   0.0000000000E+00   0.9976072500E+00   0.9976072500E+00   0.0000000000E+00   0.1237275000E-01   0.1237275000E-01   0.0000000000E+00  -0.1476550000E-01  -0.1476550000E-01  -0.8875000012E+01   0.8217580179E-10   0.8216143637E-10  -0.1742863313E-12   0.4214727861E-13  -0.2395434118E-12   0.4750000006E-02  -0.2392750003E-02  -0.2392750003E-02  -0.5911970594E-14  -0.4064542148E-14  -0.3431799250E-14   0.8875000012E+01
   0.2009500000E+01   0.0000000000E+00   0.7401938922E-15  -0.4950000000E-01   0.0000000000E+00   0.1263038827E-13   0.5900000000E-01   0.0000000000E+00  -0.1189019438E-13  -0.8875000014E+01  -0.4907675275E-09  -0.4906954236E-09   0.1408022019E-12   0.2772220780E-12  -0.1493762691E-12   0.4750000007E-02  -0.2392750004E-02  -0.2392750004E-02  -0.6824354031E-15   0.1020600265E-13  -0.7379870822E-14   0.8875000013E+01
   0.2009500000E+01   0.9976072500E+00  -0.2951303744E-14  -0.4950000000E-01   0.1237275000E-01   0.1123435082E-13   0.5900000000E-01  -0.1476550000E-01  -0.1418565456E-13  -0.8875000013E+01  -0.6787569378E-09  -0.6783114917E-09  -0.4337050096E-12   0.2769328118E-12   0.6793550317E-14   0.4750000007E-02  -0.2392750003E-02  -0.2392750003E-02  -0.1311783889E-13   0.6053963341E-14  -0.2464374683E-14   0.8875000012E+01
   0.2009500000E+01   0.0000000000E+00   0.9976072500E+00  -0.4950000000E-01   0.0000000000E+00   0.1237275000E-01   0.5900000000E-01   0.0000000000E+00  -0.1476550000E-01  -0.8875000013E+01  -0.1880477515E-09  -0.1882883672E-09   0.4211179116E-12  -0.1695605417E-12   0.3766052069E-13   0.4750000007E-02  -0.2392750003E-02  -0.2392750003E-02   0.1071093549E-13  -0.9159008633E-14   0.6656898132E-15   0.8875000012E+01
   0.2009500000E+01   0.9976072500E+00   0.9976072500E+00  -0.4950000000E-01   0.1237275000E-01   0.1237275000E-01   0.5900000000E-01  -0.1476550000E-01  -0.1476550000E-01  -0.8875000011E+01   0.5510213838E-09   0.5511580178E-09   0.9192441256E-13   0.1188829803E-12   0.1945157440E-12   0.4750000006E-02  -0.2392750003E-02  -0.2392750003E-02   0.4301839128E-14   0.7415301445E-14   0.5599146487E-14   0.8875000011E+01
     1     2     3     4     5     6     7     8
     2     9    10     3     6    11    12     7
 VARIABLES = X,Y,Z,DU1,DU2,DU3,U1,U2,U3,S11,S22,S33,S12,S13,S23,E11,E22,E33,E12,E13,E23,SMISES
 ZONE, T="0.1000D+02" F=FEPOINT, I=   12 J=    2 ET=BRICK
   0.0000000000E+00   0.0000000000E+00   0.0000000000E+00   0.0000000000E+00   0.0000000000E+00   0.0000000000E+00   0.0000000000E+00   0.0000000000E+00   0.0000000000E+00  -0.1000000002E+02  -0.1734710941E-09  -0.1734808181E-09   0.2186188240E-15  -0.3285917900E-13  -0.4198883044E-14  -0.2000000003E-01   0.9980000016E-02   0.9980000016E-02   0.5444766347E-17  -0.5513160169E-14  -0.2471481331E-14   0.1000000002E+02
   0.9800000000E+00   0.0000000000E+00  -0.2385831491E-14  -0.2475000000E-01   0.0000000000E+00  -0.2471525290E-14   0.4750000000E-02   0.0000000000E+00   0.8569379934E-16  -0.1000000002E+02   0.4926256681E-10   0.4927485569E-10  -0.7234213368E-13  -0.5953367231E-13  -0.8566050876E-14  -0.2000000003E-01   0.9980000015E-02   0.9980000015E-02   0.1511945914E-14   0.1369141496E-14   0.2511095705E-14   0.1000000002E+02
   0.9800000000E+00   0.1009980000E+01  -0.1130427979E-14  -0.2475000000E-01   0.1237275000E-01  -0.3339176921E-14   0.4750000000E-02  -0.2392750000E-02   0.2208748942E-14  -0.1000000001E+02  -0.2541780464E-09  -0.2541544811E-09   0.3086182796E-13  -0.4328049566E-13   0.2728719614E-15  -0.2000000003E-01   0.9980000014E-02   0.9980000014E-02   0.2190135717E-15  -0.2012948894E-14   0.3281979546E-14   0.1000000001E+02
   0.0000000000E+00   0.1009980000E+01  -0.1233605440E-14   0.0000000000E+00   0.1237275000E-01  -0.1386994247E-14   0.0000000000E+00  -0.2392750000E-02   0.1533888072E-15  -0.1000000001E+02   0.1440060826E-10   0.1439869298E-10   0.7316247493E-13  -0.4013757234E-13   0.5264582759E-14  -0.2000000003E-01   0.9980000015E-02   0.9980000015E-02  -0.8108089474E-15   0.2599159131E-14  -0.1415033361E-14   0.1000000001E+02
   0.0000000000E+00   0.0000000000E+00   0.1009980000E+01   0.0000000000E+00   0.0000000000E+00   0.1237275000E-01   0.0000000000E+00   0.0000000000E+00  -0.2392750000E-02  -0.1000000001E+02   0.1111331521E-09   0.1111047427E-09   0.1037614391E-15   0.5327945415E-13  -0.1593136489E-14  -0.2000000003E-01   0.9980000015E-02   0.9980000015E-02   0.1935109639E-17   0.1675154236E-15  -0.1322244970E-14   0.1000000001E+02
   0.9800000000E+00   0.0000000000E+00   0.1009980000E+01  -0.2475000000E-01   0.0000000000E+00   0.1237275000E-01   0.4750000000E-02   0.0000000000E+00  -0.2392750000E-02  -0.1000000001E+02   0.2006525920E-09   0.2006497134E-09  -0.5830173917E-13   0.4927962489E-13  -0.2724260817E-14  -0.2000000003E-01   0.9980000014E-02   0.9980000014E-02  -0.5510906053E-15  -0.4809836140E-15  -0.3108562450E-14   0.1000000001E+02
   0.9800000000E+00   0.1009980000E+01   0.1009980000E+01  -0.2475000000E-01   0.1237275000E-01   0.1237275000E-01   0.4750000000E-02  -0.2392750000E-02  -0.2392750000E-02  -0.1000000001E+02   0.3413326523E-10   0.3413802324E-10   0.4554116304E-13   0.6012228770E-13   0.4904030401E-14  -0.2000000003E-01   0.9980000013E-02   0.9980000013E-02  -0.8614245830E-15  -0.1884875495E-14  -0.2363550506E-14   0.1000000001E+02
   0.0000000000E+00   0.1009980000E+01   0.1009980000E+01   0.0000000000E+00   0.1237275000E-01   0.1237275000E-01   0.0000000000E+00  -0.2392750000E-02  -0.2392750000E-02  -0.1000000001E+02   0.8607684094E-10   0.8605479484E-10   0.7110039461E-13   0.5241316376E-13   0.7854654858E-14  -0.2000000003E-01   0.9980000013E-02   0.9980000013E-02  -0.1723269088E-14  -0.2847060809E-14  -0.2907398121E-15   0.1000000001E+02
   0.1960000000E+01   0.0000000000E+00  -0.3284650871E-14  -0.4950000000E-01   0.0000000000E+00  -0.4024844763E-14   0.9500000000E-02   0.0000000000E+00   0.7401938922E-15  -0.1000000002E+02  -0.1752652645E-09  -0.1752521779E-09  -0.5054130293E-13  -0.6633978751E-13  -0.1194896600E-14  -0.2000000003E-01   0.9980000015E-02   0.9980000015E-02  -0.3362547512E-14   0.4499324902E-14  -0.5054269026E-14   0.1000000002E+02
   0.1960000000E+01   0.1009980000E+01  -0.5811642587E-14  -0.4950000000E-01   0.1237275000E-01  -0.2860338844E-14   0.9500000000E-02  -0.2392750000E-02  -0.2951303744E-14  -0.1000000001E+02  -0.2388828178E-09  -0.2388835830E-09   0.8185780920E-13  -0.7727588616E-13   0.9936182669E-14  -0.2000000003E-01   0.9980000014E-02   0.9980000014E-02  -0.5142017115E-14   0.6614571388E-15  -0.2054712208E-14   0.1000000001E+02
   0.1960000000E+01   0.0000000000E+00   0.1009980000E+01  -0.4950000000E-01   0.0000000000E+00   0.1237275000E-01   0.9500000000E-02   0.0000000000E+00  -0.2392750000E-02  -0.1000000001E+02  -0.5470437673E-10  -0.5471421622E-10  -0.7017601488E-13   0.6081105959E-13  -0.7754821034E-14  -0.2000000003E-01   0.9980000014E-02   0.9980000014E-02   0.3380769272E-14  -0.4854666326E-14   0.3125863672E-17   0.1000000001E+02
   0.1960000000E+01   0.1009980000E+01   0.1009980000E+01  -0.4950000000E-01   0.1237275000E-01   0.1237275000E-01   0.9500000000E-02  -0.2392750000E-02  -0.2392750000E-02  -0.1000000001E+02   0.3683840446E-09   0.3683637494E-09   0.6501219887E-13   0.3768565367E-13   0.3788122952E-14  -0.2000000003E-01   0.9980000013E-02   0.9980000013E-02   0.4452067116E-14   0.6296394345E-14   0.3011796397E-14   0.1000000001E+02
     1     2     3     4     5     6     7     8
     2     9    10     3     6    11    12     7
